<VTKFile type="UnstructuredGrid" version="1,0" byte_order="LittleEndian">
<UnstructuredGrid>
<Piece NumberOfPoints="5802" NumberOfCells="5680">
<Points>
<DataArray type="Float64" NumberOfComponents="3" format="ascii">
-0.1100000000000E+01 -0.4731587125634E+01  0.0000000000000E+00
 0.0000000000000E+00 -0.4731587125634E+01  0.0000000000000E+00
 0.1100000000000E+01 -0.4731587125634E+01  0.0000000000000E+00
-0.1191315091097E+01 -0.1825930012610E+01  0.0000000000000E+00
-0.5956575398395E+00 -0.1755172846926E+01  0.0000000000000E+00
 0.5956575512579E+00 -0.1755172847830E+01  0.0000000000000E+00
 0.1191315091097E+01 -0.1825930012610E+01  0.0000000000000E+00
-0.1487255332335E+01  0.3711246317436E+00  0.0000000000000E+00
 0.1487255329206E+01  0.3711246337271E+00  0.0000000000000E+00
-0.6187500000000E+00 -0.4973806884503E+00  0.0000000000000E+00
 0.6187500000000E+00 -0.4973806884503E+00  0.0000000000000E+00
-0.1072500000000E+01 -0.4731587125634E+01  0.0000000000000E+00
-0.1045000000000E+01 -0.4731587125634E+01  0.0000000000000E+00
-0.1017500000000E+01 -0.4731587125634E+01  0.0000000000000E+00
-0.9900000000000E+00 -0.4731587125634E+01  0.0000000000000E+00
-0.9625000000000E+00 -0.4731587125634E+01  0.0000000000000E+00
-0.9350000000000E+00 -0.4731587125634E+01  0.0000000000000E+00
-0.9075000000000E+00 -0.4731587125634E+01  0.0000000000000E+00
-0.8800000000000E+00 -0.4731587125634E+01  0.0000000000000E+00
-0.8525000000000E+00 -0.4731587125634E+01  0.0000000000000E+00
-0.8250000000000E+00 -0.4731587125634E+01  0.0000000000000E+00
-0.7975000000000E+00 -0.4731587125634E+01  0.0000000000000E+00
-0.7700000000000E+00 -0.4731587125634E+01  0.0000000000000E+00
-0.7425000000000E+00 -0.4731587125634E+01  0.0000000000000E+00
-0.7150000000000E+00 -0.4731587125634E+01  0.0000000000000E+00
-0.6875000000000E+00 -0.4731587125634E+01  0.0000000000000E+00
-0.6600000000000E+00 -0.4731587125634E+01  0.0000000000000E+00
-0.6325000000000E+00 -0.4731587125634E+01  0.0000000000000E+00
-0.6050000000000E+00 -0.4731587125634E+01  0.0000000000000E+00
-0.5775000000000E+00 -0.4731587125634E+01  0.0000000000000E+00
-0.5500000000000E+00 -0.4731587125634E+01  0.0000000000000E+00
-0.5225000000000E+00 -0.4731587125634E+01  0.0000000000000E+00
-0.4950000000000E+00 -0.4731587125634E+01  0.0000000000000E+00
-0.4675000000000E+00 -0.4731587125634E+01  0.0000000000000E+00
-0.4400000000000E+00 -0.4731587125634E+01  0.0000000000000E+00
-0.4125000000000E+00 -0.4731587125634E+01  0.0000000000000E+00
-0.3850000000000E+00 -0.4731587125634E+01  0.0000000000000E+00
-0.3575000000000E+00 -0.4731587125634E+01  0.0000000000000E+00
-0.3300000000000E+00 -0.4731587125634E+01  0.0000000000000E+00
-0.3025000000000E+00 -0.4731587125634E+01  0.0000000000000E+00
-0.2750000000000E+00 -0.4731587125634E+01  0.0000000000000E+00
-0.2475000000000E+00 -0.4731587125634E+01  0.0000000000000E+00
-0.2200000000000E+00 -0.4731587125634E+01  0.0000000000000E+00
-0.1925000000000E+00 -0.4731587125634E+01  0.0000000000000E+00
-0.1650000000000E+00 -0.4731587125634E+01  0.0000000000000E+00
-0.1375000000000E+00 -0.4731587125634E+01  0.0000000000000E+00
-0.1100000000000E+00 -0.4731587125634E+01  0.0000000000000E+00
-0.8250000000000E-01 -0.4731587125634E+01  0.0000000000000E+00
-0.5500000000000E-01 -0.4731587125634E+01  0.0000000000000E+00
-0.2750000000000E-01 -0.4731587125634E+01  0.0000000000000E+00
 0.2750000000000E-01 -0.4731587125634E+01  0.0000000000000E+00
 0.5500000000000E-01 -0.4731587125634E+01  0.0000000000000E+00
 0.8250000000000E-01 -0.4731587125634E+01  0.0000000000000E+00
 0.1100000000000E+00 -0.4731587125634E+01  0.0000000000000E+00
 0.1375000000000E+00 -0.4731587125634E+01  0.0000000000000E+00
 0.1650000000000E+00 -0.4731587125634E+01  0.0000000000000E+00
 0.1925000000000E+00 -0.4731587125634E+01  0.0000000000000E+00
 0.2200000000000E+00 -0.4731587125634E+01  0.0000000000000E+00
 0.2475000000000E+00 -0.4731587125634E+01  0.0000000000000E+00
 0.2750000000000E+00 -0.4731587125634E+01  0.0000000000000E+00
 0.3025000000000E+00 -0.4731587125634E+01  0.0000000000000E+00
 0.3300000000000E+00 -0.4731587125634E+01  0.0000000000000E+00
 0.3575000000000E+00 -0.4731587125634E+01  0.0000000000000E+00
 0.3850000000000E+00 -0.4731587125634E+01  0.0000000000000E+00
 0.4125000000000E+00 -0.4731587125634E+01  0.0000000000000E+00
 0.4400000000000E+00 -0.4731587125634E+01  0.0000000000000E+00
 0.4675000000000E+00 -0.4731587125634E+01  0.0000000000000E+00
 0.4950000000000E+00 -0.4731587125634E+01  0.0000000000000E+00
 0.5225000000000E+00 -0.4731587125634E+01  0.0000000000000E+00
 0.5500000000000E+00 -0.4731587125634E+01  0.0000000000000E+00
 0.5775000000000E+00 -0.4731587125634E+01  0.0000000000000E+00
 0.6050000000000E+00 -0.4731587125634E+01  0.0000000000000E+00
 0.6325000000000E+00 -0.4731587125634E+01  0.0000000000000E+00
 0.6600000000000E+00 -0.4731587125634E+01  0.0000000000000E+00
 0.6875000000000E+00 -0.4731587125634E+01  0.0000000000000E+00
 0.7150000000000E+00 -0.4731587125634E+01  0.0000000000000E+00
 0.7425000000000E+00 -0.4731587125634E+01  0.0000000000000E+00
 0.7700000000000E+00 -0.4731587125634E+01  0.0000000000000E+00
 0.7975000000000E+00 -0.4731587125634E+01  0.0000000000000E+00
 0.8250000000000E+00 -0.4731587125634E+01  0.0000000000000E+00
 0.8525000000000E+00 -0.4731587125634E+01  0.0000000000000E+00
 0.8800000000000E+00 -0.4731587125634E+01  0.0000000000000E+00
 0.9075000000000E+00 -0.4731587125634E+01  0.0000000000000E+00
 0.9350000000000E+00 -0.4731587125634E+01  0.0000000000000E+00
 0.9625000000000E+00 -0.4731587125634E+01  0.0000000000000E+00
 0.9900000000000E+00 -0.4731587125634E+01  0.0000000000000E+00
 0.1017500000000E+01 -0.4731587125634E+01  0.0000000000000E+00
 0.1045000000000E+01 -0.4731587125634E+01  0.0000000000000E+00
 0.1072500000000E+01 -0.4731587125634E+01  0.0000000000000E+00
-0.1161675590434E+01 -0.1821293974842E+01  0.0000000000000E+00
-0.1132018469080E+01 -0.1816772081031E+01  0.0000000000000E+00
-0.1102344135527E+01 -0.1812364599475E+01  0.0000000000000E+00
-0.1072653001422E+01 -0.1808071792594E+01  0.0000000000000E+00
-0.1042945459471E+01 -0.1803893913795E+01  0.0000000000000E+00
-0.1013221952450E+01 -0.1799831217138E+01  0.0000000000000E+00
-0.9834829017084E+00 -0.1795883946982E+01  0.0000000000000E+00
-0.9537287316532E+00 -0.1792052341512E+01  0.0000000000000E+00
-0.9239598612408E+00 -0.1788336631619E+01  0.0000000000000E+00
-0.8941767210493E+00 -0.1784737043031E+01  0.0000000000000E+00
-0.8643797539566E+00 -0.1781253796152E+01  0.0000000000000E+00
-0.8345693957871E+00 -0.1777887103664E+01  0.0000000000000E+00
-0.8047460850418E+00 -0.1774637171701E+01  0.0000000000000E+00
-0.7749102599775E+00 -0.1771504199483E+01  0.0000000000000E+00
-0.7450623578572E+00 -0.1768488379244E+01  0.0000000000000E+00
-0.7152028352234E+00 -0.1765589898169E+01  0.0000000000000E+00
-0.6853321404180E+00 -0.1762808935500E+01  0.0000000000000E+00
-0.6554507240472E+00 -0.1760145663610E+01  0.0000000000000E+00
-0.6255590388957E+00 -0.1757600247935E+01  0.0000000000000E+00
-0.5659320403842E+00 -0.1752877555980E+01  0.0000000000000E+00
-0.5361977827764E+00 -0.1750699115345E+01  0.0000000000000E+00
-0.5064551822954E+00 -0.1748637656849E+01  0.0000000000000E+00
-0.4767046834532E+00 -0.1746693307634E+01  0.0000000000000E+00
-0.4469467825907E+00 -0.1744866190914E+01  0.0000000000000E+00
-0.4171818756954E+00 -0.1743156416506E+01  0.0000000000000E+00
-0.3874104734057E+00 -0.1741564093885E+01  0.0000000000000E+00
-0.3576330176963E+00 -0.1740089321191E+01  0.0000000000000E+00
-0.3278499563594E+00 -0.1738732189839E+01  0.0000000000000E+00
-0.2980617833702E+00 -0.1737492785992E+01  0.0000000000000E+00
-0.2682689204519E+00 -0.1736371185422E+01  0.0000000000000E+00
-0.2384718656336E+00 -0.1735367459648E+01  0.0000000000000E+00
-0.2086710716336E+00 -0.1734481671049E+01  0.0000000000000E+00
-0.1788669979735E+00 -0.1733713874997E+01  0.0000000000000E+00
-0.1490601279746E+00 -0.1733064120054E+01  0.0000000000000E+00
-0.1192509059245E+00 -0.1732532446511E+01  0.0000000000000E+00
-0.8943981808141E-01 -0.1732118888112E+01  0.0000000000000E+00
-0.5962732433722E-01 -0.1731823470688E+01  0.0000000000000E+00
-0.2981389296327E-01 -0.1731646212812E+01  0.0000000000000E+00
 0.5727055635285E-08 -0.1731587125634E+01  0.0000000000000E+00
 0.2981390441730E-01 -0.1731646212857E+01  0.0000000000000E+00
 0.5962733579097E-01 -0.1731823470779E+01  0.0000000000000E+00
 0.8943982953471E-01 -0.1732118888248E+01  0.0000000000000E+00
 0.1192509173772E+00 -0.1732532446692E+01  0.0000000000000E+00
 0.1490601394265E+00 -0.1733064120281E+01  0.0000000000000E+00
 0.1788670094244E+00 -0.1733713875269E+01  0.0000000000000E+00
 0.2086710830833E+00 -0.1734481671367E+01  0.0000000000000E+00
 0.2384718770819E+00 -0.1735367460011E+01  0.0000000000000E+00
 0.2682689318987E+00 -0.1736371185830E+01  0.0000000000000E+00
 0.2980617948153E+00 -0.1737492786445E+01  0.0000000000000E+00
 0.3278499678026E+00 -0.1738732190338E+01  0.0000000000000E+00
 0.3576330291375E+00 -0.1740089321735E+01  0.0000000000000E+00
 0.3874104848446E+00 -0.1741564094474E+01  0.0000000000000E+00
 0.4171818871319E+00 -0.1743156417141E+01  0.0000000000000E+00
 0.4469467940246E+00 -0.1744866191594E+01  0.0000000000000E+00
 0.4767046948843E+00 -0.1746693308359E+01  0.0000000000000E+00
 0.5064551937236E+00 -0.1748637657619E+01  0.0000000000000E+00
 0.5361977942015E+00 -0.1750699116160E+01  0.0000000000000E+00
 0.5659320518060E+00 -0.1752877556840E+01  0.0000000000000E+00
 0.6255590497397E+00 -0.1757600248837E+01  0.0000000000000E+00
 0.6554507343169E+00 -0.1760145664505E+01  0.0000000000000E+00
 0.6853321501138E+00 -0.1762808936384E+01  0.0000000000000E+00
 0.7152028443456E+00 -0.1765589899036E+01  0.0000000000000E+00
 0.7450623664059E+00 -0.1768488380091E+01  0.0000000000000E+00
 0.7749102679531E+00 -0.1771504200305E+01  0.0000000000000E+00
 0.8047460924447E+00 -0.1774637172493E+01  0.0000000000000E+00
 0.8345694026177E+00 -0.1777887104422E+01  0.0000000000000E+00
 0.8643797602152E+00 -0.1781253796871E+01  0.0000000000000E+00
 0.8941767267363E+00 -0.1784737043707E+01  0.0000000000000E+00
 0.9239598663567E+00 -0.1788336632248E+01  0.0000000000000E+00
 0.9537287361985E+00 -0.1792052342089E+01  0.0000000000000E+00
 0.9834829056835E+00 -0.1795883947502E+01  0.0000000000000E+00
 0.1013221955855E+01 -0.1799831217596E+01  0.0000000000000E+00
 0.1042945462307E+01 -0.1803893914188E+01  0.0000000000000E+00
 0.1072653003690E+01 -0.1808071792917E+01  0.0000000000000E+00
 0.1102344137227E+01 -0.1812364599724E+01  0.0000000000000E+00
 0.1132018470213E+01 -0.1816772081202E+01  0.0000000000000E+00
 0.1161675591000E+01 -0.1821293974929E+01  0.0000000000000E+00
-0.1213355268613E+01 -0.1711966308233E+01  0.0000000000000E+00
-0.1238854526170E+01 -0.1598727811073E+01  0.0000000000000E+00
-0.1268466688037E+01 -0.1486497481512E+01  0.0000000000000E+00
-0.1303342965295E+01 -0.1375796643044E+01  0.0000000000000E+00
-0.1345040310075E+01 -0.1267489592785E+01  0.0000000000000E+00
-0.1392581470401E+01 -0.1161597043208E+01  0.0000000000000E+00
-0.1439083524730E+01 -0.1055246799568E+01  0.0000000000000E+00
-0.1480944100518E+01 -0.9469891138312E+00  0.0000000000000E+00
-0.1518131836329E+01 -0.8370360644333E+00  0.0000000000000E+00
-0.1551041415331E+01 -0.7257267337723E+00  0.0000000000000E+00
-0.1579720048034E+01 -0.6132533876738E+00  0.0000000000000E+00
-0.1603836412081E+01 -0.4997150980206E+00  0.0000000000000E+00
-0.1623384157755E+01 -0.3853015140723E+00  0.0000000000000E+00
-0.1638101487121E+01 -0.2701686503839E+00  0.0000000000000E+00
-0.1647164985397E+01 -0.1544579176162E+00  0.0000000000000E+00
-0.1649971232607E+01 -0.3842453929912E-01  0.0000000000000E+00
-0.1647980696334E+01  0.7761284988695E-01  0.0000000000000E+00
-0.1626874369891E+01  0.1914362508587E+00  0.0000000000000E+00
-0.1572796829836E+01  0.2935193328390E+00  0.0000000000000E+00
-0.1418305908641E+01  0.4022416062919E+00  0.0000000000000E+00
-0.1345676864211E+01  0.4236315892164E+00  0.0000000000000E+00
-0.1271121572232E+01  0.4368480112286E+00  0.0000000000000E+00
-0.1195563418735E+01  0.4416990799735E+00  0.0000000000000E+00
-0.1119906317278E+01  0.4384406277265E+00  0.0000000000000E+00
-0.1044756289719E+01  0.4290110284082E+00  0.0000000000000E+00
-0.9703274447726E+00  0.4149459401020E+00  0.0000000000000E+00
-0.8965853652262E+00  0.3976148229097E+00  0.0000000000000E+00
-0.8232882160705E+00  0.3784769972153E+00  0.0000000000000E+00
-0.7500778072402E+00  0.3590082550316E+00  0.0000000000000E+00
-0.6765282087393E+00  0.3408715871599E+00  0.0000000000000E+00
-0.6024721689929E+00  0.3249314759684E+00  0.0000000000000E+00
-0.5279626734789E+00  0.3112660660816E+00  0.0000000000000E+00
-0.4530942500529E+00  0.2997252351383E+00  0.0000000000000E+00
-0.3779502175627E+00  0.2901382908398E+00  0.0000000000000E+00
-0.3025960047097E+00  0.2823699994777E+00  0.0000000000000E+00
-0.2270833670538E+00  0.2763314545000E+00  0.0000000000000E+00
-0.1514548639988E+00  0.2719804032214E+00  0.0000000000000E+00
-0.7574795049362E-01  0.2693218404769E+00  0.0000000000000E+00
-0.1822076423075E-08  0.2684128743665E+00  0.0000000000000E+00
 0.7574794685078E-01  0.2693218403904E+00  0.0000000000000E+00
 0.1514548603582E+00  0.2719804030525E+00  0.0000000000000E+00
 0.2270833634172E+00  0.2763314542500E+00  0.0000000000000E+00
 0.3025960010827E+00  0.2823699991460E+00  0.0000000000000E+00
 0.3779502139414E+00  0.2901382904224E+00  0.0000000000000E+00
 0.4530942464462E+00  0.2997252346305E+00  0.0000000000000E+00
 0.5279626698826E+00  0.3112660654745E+00  0.0000000000000E+00
 0.6024721654224E+00  0.3249314752557E+00  0.0000000000000E+00
 0.6765282051910E+00  0.3408715863362E+00  0.0000000000000E+00
 0.7500778037128E+00  0.3590082541141E+00  0.0000000000000E+00
 0.8232882125500E+00  0.3784769962749E+00  0.0000000000000E+00
 0.8965853616918E+00  0.3976148220208E+00  0.0000000000000E+00
 0.9703274412081E+00  0.4149459393403E+00  0.0000000000000E+00
 0.1044756286115E+01  0.4290110278460E+00  0.0000000000000E+00
 0.1119906313643E+01  0.4384406274322E+00  0.0000000000000E+00
 0.1195563415086E+01  0.4416990800252E+00  0.0000000000000E+00
 0.1271121568610E+01  0.4368480116963E+00  0.0000000000000E+00
 0.1345676860666E+01  0.4236315901228E+00  0.0000000000000E+00
 0.1418305905243E+01  0.4022416076848E+00  0.0000000000000E+00
 0.1572796827692E+01  0.2935193356292E+00  0.0000000000000E+00
 0.1626874368892E+01  0.1914362540528E+00  0.0000000000000E+00
 0.1647980696148E+01  0.7761285305478E-01  0.0000000000000E+00
 0.1649971232614E+01 -0.3842453631130E-01  0.0000000000000E+00
 0.1647164985510E+01 -0.1544579148168E+00  0.0000000000000E+00
 0.1638101487343E+01 -0.2701686477783E+00  0.0000000000000E+00
 0.1623384158054E+01 -0.3853015116666E+00  0.0000000000000E+00
 0.1603836412438E+01 -0.4997150958130E+00  0.0000000000000E+00
 0.1579720048441E+01 -0.6132533856674E+00  0.0000000000000E+00
 0.1551041415774E+01 -0.7257267319674E+00  0.0000000000000E+00
 0.1518131836796E+01 -0.8370360628288E+00  0.0000000000000E+00
 0.1480944100999E+01 -0.9469891124298E+00  0.0000000000000E+00
 0.1439083525216E+01 -0.1055246798366E+01  0.0000000000000E+00
 0.1392581470861E+01 -0.1161597042198E+01  0.0000000000000E+00
 0.1345040310428E+01 -0.1267489591933E+01  0.0000000000000E+00
 0.1303342965506E+01 -0.1375796642335E+01  0.0000000000000E+00
 0.1268466688140E+01 -0.1486497480965E+01  0.0000000000000E+00
 0.1238854526204E+01 -0.1598727810699E+01  0.0000000000000E+00
 0.1213355268613E+01 -0.1711966308043E+01  0.0000000000000E+00
-0.1100000000000E+01 -0.4660595750534E+01  0.0000000000000E+00
-0.1100000000000E+01 -0.4589604523337E+01  0.0000000000000E+00
-0.1100000000000E+01 -0.4518612860194E+01  0.0000000000000E+00
-0.1100000000000E+01 -0.4447621396074E+01  0.0000000000000E+00
-0.1100000000000E+01 -0.4376629946073E+01  0.0000000000000E+00
-0.1100000000000E+01 -0.4305638469395E+01  0.0000000000000E+00
-0.1100000000000E+01 -0.4234647034675E+01  0.0000000000000E+00
-0.1100000000000E+01 -0.4163655573930E+01  0.0000000000000E+00
-0.1100000000000E+01 -0.4092664118400E+01  0.0000000000000E+00
-0.1100000000000E+01 -0.4021672670707E+01  0.0000000000000E+00
-0.1100000000000E+01 -0.3950681208157E+01  0.0000000000000E+00
-0.1100000000000E+01 -0.3879689768887E+01  0.0000000000000E+00
-0.1100000000000E+01 -0.3808698298634E+01  0.0000000000000E+00
-0.1100000000000E+01 -0.3737706770464E+01  0.0000000000000E+00
-0.1100000000000E+01 -0.3666715262498E+01  0.0000000000000E+00
-0.1100000000000E+01 -0.3595723839456E+01  0.0000000000000E+00
-0.1100000000000E+01 -0.3524731789668E+01  0.0000000000000E+00
-0.1100000000000E+01 -0.3453740926047E+01  0.0000000000000E+00
-0.1100000000000E+01 -0.3382749460249E+01  0.0000000000000E+00
-0.1100000000000E+01 -0.3311758072240E+01  0.0000000000000E+00
-0.1100000000000E+01 -0.3240766774652E+01  0.0000000000000E+00
-0.1100000000000E+01 -0.3169775441240E+01  0.0000000000000E+00
-0.1100000000000E+01 -0.3098784076079E+01  0.0000000000000E+00
-0.1100019380481E+01 -0.3027792649889E+01  0.0000000000000E+00
-0.1100182969515E+01 -0.2956801452749E+01  0.0000000000000E+00
-0.1100664097718E+01 -0.2885811820573E+01  0.0000000000000E+00
-0.1101620767933E+01 -0.2814827030427E+01  0.0000000000000E+00
-0.1103169283693E+01 -0.2743852764288E+01  0.0000000000000E+00
-0.1105384238767E+01 -0.2672896168192E+01  0.0000000000000E+00
-0.1108313328915E+01 -0.2601965572023E+01  0.0000000000000E+00
-0.1111994457710E+01 -0.2531069964563E+01  0.0000000000000E+00
-0.1116470504631E+01 -0.2460220060781E+01  0.0000000000000E+00
-0.1121800458045E+01 -0.2389429442476E+01  0.0000000000000E+00
-0.1127980999498E+01 -0.2318707927775E+01  0.0000000000000E+00
-0.1134925652832E+01 -0.2248057274554E+01  0.0000000000000E+00
-0.1142572685777E+01 -0.2177479159635E+01  0.0000000000000E+00
-0.1150886195216E+01 -0.2106976362838E+01  0.0000000000000E+00
-0.1159854464778E+01 -0.2036553785977E+01  0.0000000000000E+00
-0.1169495475345E+01 -0.1966220321347E+01  0.0000000000000E+00
-0.1179881536539E+01 -0.1895993177716E+01  0.0000000000000E+00
 0.1179881536541E+01 -0.1895993177715E+01  0.0000000000000E+00
 0.1169495475345E+01 -0.1966220321347E+01  0.0000000000000E+00
 0.1159854464777E+01 -0.2036553785977E+01  0.0000000000000E+00
 0.1150886195214E+01 -0.2106976362838E+01  0.0000000000000E+00
 0.1142572685775E+01 -0.2177479159635E+01  0.0000000000000E+00
 0.1134925652830E+01 -0.2248057274554E+01  0.0000000000000E+00
 0.1127980999496E+01 -0.2318707927775E+01  0.0000000000000E+00
 0.1121800458043E+01 -0.2389429442476E+01  0.0000000000000E+00
 0.1116470504629E+01 -0.2460220060781E+01  0.0000000000000E+00
 0.1111994457707E+01 -0.2531069964563E+01  0.0000000000000E+00
 0.1108313328912E+01 -0.2601965572023E+01  0.0000000000000E+00
 0.1105384238765E+01 -0.2672896168191E+01  0.0000000000000E+00
 0.1103169283691E+01 -0.2743852764287E+01  0.0000000000000E+00
 0.1101620767933E+01 -0.2814827030427E+01  0.0000000000000E+00
 0.1100664097717E+01 -0.2885811820573E+01  0.0000000000000E+00
 0.1100182969515E+01 -0.2956801452748E+01  0.0000000000000E+00
 0.1100019380481E+01 -0.3027792649889E+01  0.0000000000000E+00
 0.1100000000000E+01 -0.3098784076079E+01  0.0000000000000E+00
 0.1100000000000E+01 -0.3169775441240E+01  0.0000000000000E+00
 0.1100000000000E+01 -0.3240766774652E+01  0.0000000000000E+00
 0.1100000000000E+01 -0.3311758072240E+01  0.0000000000000E+00
 0.1100000000000E+01 -0.3382749460249E+01  0.0000000000000E+00
 0.1100000000000E+01 -0.3453740926047E+01  0.0000000000000E+00
 0.1100000000000E+01 -0.3524731789668E+01  0.0000000000000E+00
 0.1100000000000E+01 -0.3595723839456E+01  0.0000000000000E+00
 0.1100000000000E+01 -0.3666715262498E+01  0.0000000000000E+00
 0.1100000000000E+01 -0.3737706770464E+01  0.0000000000000E+00
 0.1100000000000E+01 -0.3808698298633E+01  0.0000000000000E+00
 0.1100000000000E+01 -0.3879689768887E+01  0.0000000000000E+00
 0.1100000000000E+01 -0.3950681208157E+01  0.0000000000000E+00
 0.1100000000000E+01 -0.4021672670707E+01  0.0000000000000E+00
 0.1100000000000E+01 -0.4092664118399E+01  0.0000000000000E+00
 0.1100000000000E+01 -0.4163655573930E+01  0.0000000000000E+00
 0.1100000000000E+01 -0.4234647034675E+01  0.0000000000000E+00
 0.1100000000000E+01 -0.4305638469395E+01  0.0000000000000E+00
 0.1100000000000E+01 -0.4376629946073E+01  0.0000000000000E+00
 0.1100000000000E+01 -0.4447621396074E+01  0.0000000000000E+00
 0.1100000000000E+01 -0.4518612860194E+01  0.0000000000000E+00
 0.1100000000000E+01 -0.4589604523337E+01  0.0000000000000E+00
 0.1100000000000E+01 -0.4660595750534E+01  0.0000000000000E+00
-0.5884638695905E+00 -0.4894641513885E+00  0.0000000000000E+00
-0.5580825246164E+00 -0.4819218154218E+00  0.0000000000000E+00
-0.5276095633171E+00 -0.4747582607812E+00  0.0000000000000E+00
-0.4970490688930E+00 -0.4679779933456E+00  0.0000000000000E+00
-0.4664052113280E+00 -0.4615853306416E+00  0.0000000000000E+00
-0.4356821841498E+00 -0.4555843826271E+00  0.0000000000000E+00
-0.4048845338533E+00 -0.4499791064130E+00  0.0000000000000E+00
-0.3740168397343E+00 -0.4447732294152E+00  0.0000000000000E+00
-0.3430839130773E+00 -0.4399702753278E+00  0.0000000000000E+00
-0.3120906320172E+00 -0.4355735248917E+00  0.0000000000000E+00
-0.2810420500145E+00 -0.4315860232937E+00  0.0000000000000E+00
-0.2499433335888E+00 -0.4280105603977E+00  0.0000000000000E+00
-0.2187997508610E+00 -0.4248496608797E+00  0.0000000000000E+00
-0.1876166729319E+00 -0.4221055764161E+00  0.0000000000000E+00
-0.1563995773423E+00 -0.4197802779940E+00  0.0000000000000E+00
-0.1251540094126E+00 -0.4178754457584E+00  0.0000000000000E+00
-0.9388558172344E-01 -0.4163924636598E+00  0.0000000000000E+00
-0.6259996113275E-01 -0.4153324139295E+00  0.0000000000000E+00
-0.3130285547239E-01 -0.4146960727333E+00  0.0000000000000E+00
-0.2220446049250E-15 -0.4144839070419E+00  0.0000000000000E+00
 0.3130285547239E-01 -0.4146960727333E+00  0.0000000000000E+00
 0.6259996113275E-01 -0.4153324139295E+00  0.0000000000000E+00
 0.9388558172344E-01 -0.4163924636598E+00  0.0000000000000E+00
 0.1251540094126E+00 -0.4178754457584E+00  0.0000000000000E+00
 0.1563995773423E+00 -0.4197802779940E+00  0.0000000000000E+00
 0.1876166729319E+00 -0.4221055764161E+00  0.0000000000000E+00
 0.2187997508610E+00 -0.4248496608797E+00  0.0000000000000E+00
 0.2499433335888E+00 -0.4280105603977E+00  0.0000000000000E+00
 0.2810420500145E+00 -0.4315860232937E+00  0.0000000000000E+00
 0.3120906320172E+00 -0.4355735248917E+00  0.0000000000000E+00
 0.3430839130773E+00 -0.4399702753278E+00  0.0000000000000E+00
 0.3740168397343E+00 -0.4447732294152E+00  0.0000000000000E+00
 0.4048845338533E+00 -0.4499791064130E+00  0.0000000000000E+00
 0.4356821841498E+00 -0.4555843826271E+00  0.0000000000000E+00
 0.4664052113280E+00 -0.4615853306416E+00  0.0000000000000E+00
 0.4970490688930E+00 -0.4679779933456E+00  0.0000000000000E+00
 0.5276095633171E+00 -0.4747582607812E+00  0.0000000000000E+00
 0.5580825246164E+00 -0.4819218154218E+00  0.0000000000000E+00
 0.5884638695905E+00 -0.4894641513885E+00  0.0000000000000E+00
-0.6186694182519E+00 -0.5602854202626E+00  0.0000000000000E+00
-0.6184121778050E+00 -0.6231895804302E+00  0.0000000000000E+00
-0.6179522181120E+00 -0.6860925653381E+00  0.0000000000000E+00
-0.6172599449830E+00 -0.7489933811583E+00  0.0000000000000E+00
-0.6163035973388E+00 -0.8118907743073E+00  0.0000000000000E+00
-0.6150531470475E+00 -0.8747829429232E+00  0.0000000000000E+00
-0.6134887983150E+00 -0.9376681601377E+00  0.0000000000000E+00
-0.6116160329111E+00 -0.1000544889820E+01  0.0000000000000E+00
-0.6094851916442E+00 -0.1063413466424E+01  0.0000000000000E+00
-0.6072037720657E+00 -0.1126276767718E+01  0.0000000000000E+00
-0.6049223524117E+00 -0.1189140069010E+01  0.0000000000000E+00
-0.6027915109277E+00 -0.1252008645607E+01  0.0000000000000E+00
-0.6009187451903E+00 -0.1314885375279E+01  0.0000000000000E+00
-0.5993543960372E+00 -0.1377770592483E+01  0.0000000000000E+00
-0.5981039452651E+00 -0.1440662761090E+01  0.0000000000000E+00
-0.5971475971003E+00 -0.1503560154231E+01  0.0000000000000E+00
-0.5964553234260E+00 -0.1566460970045E+01  0.0000000000000E+00
-0.5959953631729E+00 -0.1629363954949E+01  0.0000000000000E+00
-0.5957381221583E+00 -0.1692268115114E+01  0.0000000000000E+00
 0.6186694182523E+00 -0.5602854202973E+00  0.0000000000000E+00
 0.6184121778088E+00 -0.6231895804997E+00  0.0000000000000E+00
 0.6179522181269E+00 -0.6860925654424E+00  0.0000000000000E+00
 0.6172599450237E+00 -0.7489933812976E+00  0.0000000000000E+00
 0.6163035974300E+00 -0.8118907744820E+00  0.0000000000000E+00
 0.6150531472289E+00 -0.8747829431345E+00  0.0000000000000E+00
 0.6134887986468E+00 -0.9376681603875E+00  0.0000000000000E+00
 0.6116160334801E+00 -0.1000544890112E+01  0.0000000000000E+00
 0.6094851925666E+00 -0.1063413466762E+01  0.0000000000000E+00
 0.6072037734828E+00 -0.1126276768110E+01  0.0000000000000E+00
 0.6049223544747E+00 -0.1189140069460E+01  0.0000000000000E+00
 0.6027915137782E+00 -0.1252008646118E+01  0.0000000000000E+00
 0.6009187489451E+00 -0.1314885375852E+01  0.0000000000000E+00
 0.5993544007835E+00 -0.1377770593115E+01  0.0000000000000E+00
 0.5981039510633E+00 -0.1440662761777E+01  0.0000000000000E+00
 0.5971476039902E+00 -0.1503560154969E+01  0.0000000000000E+00
 0.5964553314325E+00 -0.1566460970831E+01  0.0000000000000E+00
 0.5959953723106E+00 -0.1629363955777E+01  0.0000000000000E+00
 0.5957381324349E+00 -0.1692268115982E+01  0.0000000000000E+00
-0.6621752666167E+00 -0.4539554224406E+00  0.0000000000000E+00
-0.7056005332335E+00 -0.4105301564309E+00  0.0000000000000E+00
-0.7490257998502E+00 -0.3671048904212E+00  0.0000000000000E+00
-0.7924510664670E+00 -0.3236796244115E+00  0.0000000000000E+00
-0.8358763330837E+00 -0.2802543584018E+00  0.0000000000000E+00
-0.8793015997004E+00 -0.2368290923921E+00  0.0000000000000E+00
-0.9227268663172E+00 -0.1934038263824E+00  0.0000000000000E+00
-0.9661521329339E+00 -0.1499785603727E+00  0.0000000000000E+00
-0.1009577399551E+01 -0.1065532943630E+00  0.0000000000000E+00
-0.1053002666167E+01 -0.6312802835334E-01  0.0000000000000E+00
-0.1096427932784E+01 -0.1970276234365E-01  0.0000000000000E+00
-0.1139853199401E+01  0.2372250366604E-01  0.0000000000000E+00
-0.1183278466018E+01  0.6714776967573E-01  0.0000000000000E+00
-0.1226703732634E+01  0.1105730356854E+00  0.0000000000000E+00
-0.1270128999251E+01  0.1539983016951E+00  0.0000000000000E+00
-0.1313554265868E+01  0.1974235677048E+00  0.0000000000000E+00
-0.1356979532485E+01  0.2408488337145E+00  0.0000000000000E+00
-0.1400404799101E+01  0.2842740997242E+00  0.0000000000000E+00
-0.1443830065718E+01  0.3276993657339E+00  0.0000000000000E+00
 0.6621752664603E+00 -0.4539554223414E+00  0.0000000000000E+00
 0.7056005329206E+00 -0.4105301562325E+00  0.0000000000000E+00
 0.7490257993809E+00 -0.3671048901237E+00  0.0000000000000E+00
 0.7924510658412E+00 -0.3236796240148E+00  0.0000000000000E+00
 0.8358763323015E+00 -0.2802543579059E+00  0.0000000000000E+00
 0.8793015987618E+00 -0.2368290917971E+00  0.0000000000000E+00
 0.9227268652221E+00 -0.1934038256882E+00  0.0000000000000E+00
 0.9661521316824E+00 -0.1499785595793E+00  0.0000000000000E+00
 0.1009577398143E+01 -0.1065532934705E+00  0.0000000000000E+00
 0.1053002664603E+01 -0.6312802736160E-01  0.0000000000000E+00
 0.1096427931063E+01 -0.1970276125273E-01  0.0000000000000E+00
 0.1139853197524E+01  0.2372250485614E-01  0.0000000000000E+00
 0.1183278463984E+01  0.6714777096501E-01  0.0000000000000E+00
 0.1226703730444E+01  0.1105730370739E+00  0.0000000000000E+00
 0.1270128996905E+01  0.1539983031827E+00  0.0000000000000E+00
 0.1313554263365E+01  0.1974235692916E+00  0.0000000000000E+00
 0.1356979529825E+01  0.2408488354005E+00  0.0000000000000E+00
 0.1400404796285E+01  0.2842741015093E+00  0.0000000000000E+00
 0.1443830062746E+01  0.3276993676182E+00  0.0000000000000E+00
-0.1072503587165E+01 -0.4660482676314E+01  0.0000000000000E+00
-0.1072507174322E+01 -0.4589378375132E+01  0.0000000000000E+00
-0.1072510761501E+01 -0.4518273637310E+01  0.0000000000000E+00
-0.1072514348670E+01 -0.4447169098828E+01  0.0000000000000E+00
-0.1072517935839E+01 -0.4376064574487E+01  0.0000000000000E+00
-0.1072521523008E+01 -0.4304960023427E+01  0.0000000000000E+00
-0.1072525110176E+01 -0.4233855514392E+01  0.0000000000000E+00
-0.1072528697345E+01 -0.4162750979291E+01  0.0000000000000E+00
-0.1072532284514E+01 -0.4091646449412E+01  0.0000000000000E+00
-0.1072535871682E+01 -0.4020541927384E+01  0.0000000000000E+00
-0.1072539458851E+01 -0.3949437390474E+01  0.0000000000000E+00
-0.1072543046019E+01 -0.3878332876881E+01  0.0000000000000E+00
-0.1072546633189E+01 -0.3807228332256E+01  0.0000000000000E+00
-0.1072550220361E+01 -0.3736123729622E+01  0.0000000000000E+00
-0.1072553807532E+01 -0.3665019147225E+01  0.0000000000000E+00
-0.1072557394699E+01 -0.3593914649887E+01  0.0000000000000E+00
-0.1072560981898E+01 -0.3522809524803E+01  0.0000000000000E+00
-0.1072564569037E+01 -0.3451705587777E+01  0.0000000000000E+00
-0.1072568156206E+01 -0.3380601047615E+01  0.0000000000000E+00
-0.1072571743371E+01 -0.3309496585365E+01  0.0000000000000E+00
-0.1072575330532E+01 -0.3238392213680E+01  0.0000000000000E+00
-0.1072578917695E+01 -0.3167287806114E+01  0.0000000000000E+00
-0.1072582504859E+01 -0.3096183366749E+01  0.0000000000000E+00
-0.1072604987210E+01 -0.3025078866253E+01  0.0000000000000E+00
-0.1072768067061E+01 -0.2953974594875E+01  0.0000000000000E+00
-0.1073240734738E+01 -0.2882871888659E+01  0.0000000000000E+00
-0.1074177036625E+01 -0.2811774024513E+01  0.0000000000000E+00
-0.1075690363951E+01 -0.2740686684501E+01  0.0000000000000E+00
-0.1077853442627E+01 -0.2669617014531E+01  0.0000000000000E+00
-0.1080712774083E+01 -0.2598573344661E+01  0.0000000000000E+00
-0.1084305312776E+01 -0.2527564663401E+01  0.0000000000000E+00
-0.1088672864462E+01 -0.2456601685752E+01  0.0000000000000E+00
-0.1093872940397E+01 -0.2385697993847E+01  0.0000000000000E+00
-0.1099902305238E+01 -0.2314863405415E+01  0.0000000000000E+00
-0.1106676648231E+01 -0.2244099678337E+01  0.0000000000000E+00
-0.1114135782912E+01 -0.2173408489510E+01  0.0000000000000E+00
-0.1122244705194E+01 -0.2102792618679E+01  0.0000000000000E+00
-0.1130991992091E+01 -0.2032256967667E+01  0.0000000000000E+00
-0.1140395174223E+01 -0.1961810429153E+01  0.0000000000000E+00
-0.1150524750544E+01 -0.1891470211900E+01  0.0000000000000E+00
-0.1045006744548E+01 -0.4660372386096E+01  0.0000000000000E+00
-0.1045013489082E+01 -0.4589157794926E+01  0.0000000000000E+00
-0.1045020233658E+01 -0.4517942766438E+01  0.0000000000000E+00
-0.1045026978215E+01 -0.4446727937600E+01  0.0000000000000E+00
-0.1045033722770E+01 -0.4375513122924E+01  0.0000000000000E+00
-0.1045040467328E+01 -0.4304298281489E+01  0.0000000000000E+00
-0.1045047211882E+01 -0.4233083482143E+01  0.0000000000000E+00
-0.1045053956438E+01 -0.4161868656690E+01  0.0000000000000E+00
-0.1045060700994E+01 -0.4090653836468E+01  0.0000000000000E+00
-0.1045067445549E+01 -0.4019439024110E+01  0.0000000000000E+00
-0.1045074190105E+01 -0.3948224196846E+01  0.0000000000000E+00
-0.1045080934660E+01 -0.3877009392935E+01  0.0000000000000E+00
-0.1045087679217E+01 -0.3805794557944E+01  0.0000000000000E+00
-0.1045094423780E+01 -0.3734579664855E+01  0.0000000000000E+00
-0.1045101168341E+01 -0.3663364792032E+01  0.0000000000000E+00
-0.1045107912893E+01 -0.3592150004402E+01  0.0000000000000E+00
-0.1045114657506E+01 -0.3520934588052E+01  0.0000000000000E+00
-0.1045121402005E+01 -0.3449720361602E+01  0.0000000000000E+00
-0.1045128146562E+01 -0.3378505531081E+01  0.0000000000000E+00
-0.1045134891112E+01 -0.3307290778593E+01  0.0000000000000E+00
-0.1045141635652E+01 -0.3236076116811E+01  0.0000000000000E+00
-0.1045148380197E+01 -0.3164861419091E+01  0.0000000000000E+00
-0.1045155124744E+01 -0.3093646689524E+01  0.0000000000000E+00
-0.1045180279185E+01 -0.3022431898726E+01  0.0000000000000E+00
-0.1045342420071E+01 -0.2951217337114E+01  0.0000000000000E+00
-0.1045806197445E+01 -0.2880004340854E+01  0.0000000000000E+00
-0.1046721701225E+01 -0.2808796186706E+01  0.0000000000000E+00
-0.1048199410343E+01 -0.2737598556815E+01  0.0000000000000E+00
-0.1050310182850E+01 -0.2666418596963E+01  0.0000000000000E+00
-0.1053099325844E+01 -0.2595264637382E+01  0.0000000000000E+00
-0.1056602844668E+01 -0.2524145666314E+01  0.0000000000000E+00
-0.1060861471353E+01 -0.2453072398792E+01  0.0000000000000E+00
-0.1065931240050E+01 -0.2382058417274E+01  0.0000000000000E+00
-0.1071808998522E+01 -0.2311113539101E+01  0.0000000000000E+00
-0.1078412601419E+01 -0.2240239522158E+01  0.0000000000000E+00
-0.1085683408080E+01 -0.2169438043419E+01  0.0000000000000E+00
-0.1093587313453E+01 -0.2098711882551E+01  0.0000000000000E+00
-0.1102113187936E+01 -0.2028065941388E+01  0.0000000000000E+00
-0.1111278111887E+01 -0.1957509112984E+01  0.0000000000000E+00
-0.1121150773592E+01 -0.1887058606097E+01  0.0000000000000E+00
-0.1017509482115E+01 -0.4660264886424E+01  0.0000000000000E+00
-0.1017518964210E+01 -0.4588942795806E+01  0.0000000000000E+00
-0.1017528446364E+01 -0.4517620267209E+01  0.0000000000000E+00
-0.1017537928491E+01 -0.4446297938565E+01  0.0000000000000E+00
-0.1017547410616E+01 -0.4374975624103E+01  0.0000000000000E+00
-0.1017556892744E+01 -0.4303653282842E+01  0.0000000000000E+00
-0.1017566374867E+01 -0.4232330983734E+01  0.0000000000000E+00
-0.1017575856993E+01 -0.4161008658479E+01  0.0000000000000E+00
-0.1017585339119E+01 -0.4089686338463E+01  0.0000000000000E+00
-0.1017594821244E+01 -0.4018364026323E+01  0.0000000000000E+00
-0.1017604303371E+01 -0.3947041699254E+01  0.0000000000000E+00
-0.1017613785494E+01 -0.3875719395574E+01  0.0000000000000E+00
-0.1017623267622E+01 -0.3804397060767E+01  0.0000000000000E+00
-0.1017632749757E+01 -0.3733074667774E+01  0.0000000000000E+00
-0.1017642231890E+01 -0.3661752295078E+01  0.0000000000000E+00
-0.1017651714011E+01 -0.3590430007703E+01  0.0000000000000E+00
-0.1017661196216E+01 -0.3519107090659E+01  0.0000000000000E+00
-0.1017670678263E+01 -0.3447785365312E+01  0.0000000000000E+00
-0.1017680160390E+01 -0.3376463034981E+01  0.0000000000000E+00
-0.1017689642507E+01 -0.3305140782802E+01  0.0000000000000E+00
-0.1017699124612E+01 -0.3233818621464E+01  0.0000000000000E+00
-0.1017708606721E+01 -0.3162496424136E+01  0.0000000000000E+00
-0.1017718088835E+01 -0.3091174194911E+01  0.0000000000000E+00
-0.1017745495548E+01 -0.3019851904360E+01  0.0000000000000E+00
-0.1017906277653E+01 -0.2948529843060E+01  0.0000000000000E+00
-0.1018360744909E+01 -0.2877209347299E+01  0.0000000000000E+00
-0.1019255030769E+01 -0.2805893693688E+01  0.0000000000000E+00
-0.1020696701869E+01 -0.2734588564456E+01  0.0000000000000E+00
-0.1022754748397E+01 -0.2663301105260E+01  0.0000000000000E+00
-0.1025473283124E+01 -0.2592039646501E+01  0.0000000000000E+00
-0.1028887362274E+01 -0.2520813176160E+01  0.0000000000000E+00
-0.1033036644157E+01 -0.2449632409301E+01  0.0000000000000E+00
-0.1037975685816E+01 -0.2378510928701E+01  0.0000000000000E+00
-0.1043701418122E+01 -0.2307458551321E+01  0.0000000000000E+00
-0.1050133861127E+01 -0.2236477035050E+01  0.0000000000000E+00
-0.1057215919976E+01 -0.2165568056937E+01  0.0000000000000E+00
-0.1064914388649E+01 -0.2094734396573E+01  0.0000000000000E+00
-0.1073218430927E+01 -0.2023980955804E+01  0.0000000000000E+00
-0.1082144676909E+01 -0.1953316628048E+01  0.0000000000000E+00
-0.1091760004215E+01 -0.1882758622058E+01  0.0000000000000E+00
-0.9900118099064E+00 -0.4660160183698E+01  0.0000000000000E+00
-0.9900236197882E+00 -0.4588733390572E+01  0.0000000000000E+00
-0.9900354297426E+00 -0.4517306158826E+01  0.0000000000000E+00
-0.9900472396638E+00 -0.4445879127324E+01  0.0000000000000E+00
-0.9900590495827E+00 -0.4374452110027E+01  0.0000000000000E+00
-0.9900708595060E+00 -0.4303025065890E+01  0.0000000000000E+00
-0.9900826694223E+00 -0.4231598063968E+01  0.0000000000000E+00
-0.9900944793430E+00 -0.4160171035861E+01  0.0000000000000E+00
-0.9901062892628E+00 -0.4088744013001E+01  0.0000000000000E+00
-0.9901180991813E+00 -0.4017316998028E+01  0.0000000000000E+00
-0.9901299091023E+00 -0.3945889968104E+01  0.0000000000000E+00
-0.9901417190194E+00 -0.3874462961605E+01  0.0000000000000E+00
-0.9901535289416E+00 -0.3803035923932E+01  0.0000000000000E+00
-0.9901653388735E+00 -0.3731608827986E+01  0.0000000000000E+00
-0.9901771488020E+00 -0.3660181752369E+01  0.0000000000000E+00
-0.9901889587164E+00 -0.3588754762198E+01  0.0000000000000E+00
-0.9902007687351E+00 -0.3517327141434E+01  0.0000000000000E+00
-0.9902125785564E+00 -0.3445900714115E+01  0.0000000000000E+00
-0.9902243884779E+00 -0.3374473680925E+01  0.0000000000000E+00
-0.9902361983865E+00 -0.3303046726000E+01  0.0000000000000E+00
-0.9902480082800E+00 -0.3231619862052E+01  0.0000000000000E+00
-0.9902598181795E+00 -0.3160192962059E+01  0.0000000000000E+00
-0.9902716280843E+00 -0.3088766030123E+01  0.0000000000000E+00
-0.9903008772941E+00 -0.3017339036768E+01  0.0000000000000E+00
-0.9904598908441E+00 -0.2945912272726E+01  0.0000000000000E+00
-0.9909046382074E+00 -0.2874487074405E+01  0.0000000000000E+00
-0.9917772963762E+00 -0.2803066718274E+01  0.0000000000000E+00
-0.9931825196868E+00 -0.2731656886637E+01  0.0000000000000E+00
-0.9951874304676E+00 -0.2660264725035E+01  0.0000000000000E+00
-0.9978349471605E+00 -0.2588898564031E+01  0.0000000000000E+00
-0.1001159176873E+01 -0.2517567391354E+01  0.0000000000000E+00
-0.1005198704189E+01 -0.2446281922097E+01  0.0000000000000E+00
-0.1010006609051E+01 -0.2375055739345E+01  0.0000000000000E+00
-0.1015579905431E+01 -0.2303898659692E+01  0.0000000000000E+00
-0.1021840778788E+01 -0.2232812441032E+01  0.0000000000000E+00
-0.1028733680069E+01 -0.2161798760483E+01  0.0000000000000E+00
-0.1036226302287E+01 -0.2090860397566E+01  0.0000000000000E+00
-0.1044308102607E+01 -0.2020002254134E+01  0.0000000000000E+00
-0.1052995260869E+01 -0.1949233223964E+01  0.0000000000000E+00
-0.1062352844026E+01 -0.1878570515803E+01  0.0000000000000E+00
-0.9625137375235E+00 -0.4660058284100E+01  0.0000000000000E+00
-0.9625274750185E+00 -0.4588529591588E+01  0.0000000000000E+00
-0.9625412125977E+00 -0.4517000459829E+01  0.0000000000000E+00
-0.9625549501385E+00 -0.4445471528601E+01  0.0000000000000E+00
-0.9625686876766E+00 -0.4373942611598E+01  0.0000000000000E+00
-0.9625824252198E+00 -0.4302413667716E+01  0.0000000000000E+00
-0.9625961627548E+00 -0.4230884766111E+01  0.0000000000000E+00
-0.9626099002950E+00 -0.4159355838283E+01  0.0000000000000E+00
-0.9626236378341E+00 -0.4087826915708E+01  0.0000000000000E+00
-0.9626373753717E+00 -0.4016298001032E+01  0.0000000000000E+00
-0.9626511129121E+00 -0.3944769071385E+01  0.0000000000000E+00
-0.9626648504481E+00 -0.3873240165195E+01  0.0000000000000E+00
-0.9626785879900E+00 -0.3801711227786E+01  0.0000000000000E+00
-0.9626923255432E+00 -0.3730182232023E+01  0.0000000000000E+00
-0.9627060630925E+00 -0.3658653256616E+01  0.0000000000000E+00
-0.9627198006253E+00 -0.3587124366778E+01  0.0000000000000E+00
-0.9627335382794E+00 -0.3515594845447E+01  0.0000000000000E+00
-0.9627472757039E+00 -0.3444066519263E+01  0.0000000000000E+00
-0.9627610132450E+00 -0.3372537586345E+01  0.0000000000000E+00
-0.9627747507711E+00 -0.3301008731803E+01  0.0000000000000E+00
-0.9627884882796E+00 -0.3229479968367E+01  0.0000000000000E+00
-0.9628022257951E+00 -0.3157951168836E+01  0.0000000000000E+00
-0.9628159633167E+00 -0.3086422337316E+01  0.0000000000000E+00
-0.9628466548485E+00 -0.3014893444285E+01  0.0000000000000E+00
-0.9630034996671E+00 -0.2943364780630E+01  0.0000000000000E+00
-0.9634381269610E+00 -0.2871837682872E+01  0.0000000000000E+00
-0.9642887572571E+00 -0.2800315427341E+01  0.0000000000000E+00
-0.9656571325932E+00 -0.2728803696419E+01  0.0000000000000E+00
-0.9676085074361E+00 -0.2657309635530E+01  0.0000000000000E+00
-0.9701846058996E+00 -0.2585841575395E+01  0.0000000000000E+00
-0.9734185859714E+00 -0.2514408503499E+01  0.0000000000000E+00
-0.9773479585130E+00 -0.2443021134961E+01  0.0000000000000E+00
-0.9820243263633E+00 -0.2371693053170E+01  0.0000000000000E+00
-0.9874447865971E+00 -0.2300434074359E+01  0.0000000000000E+00
-0.9935336900779E+00 -0.2229245956427E+01  0.0000000000000E+00
-0.1000237033557E+01 -0.2158130376562E+01  0.0000000000000E+00
-0.1007523409081E+01 -0.2087090114213E+01  0.0000000000000E+00
-0.1015382567198E+01 -0.2016130071245E+01  0.0000000000000E+00
-0.1023830237492E+01 -0.1945259141781E+01  0.0000000000000E+00
-0.1032929676247E+01 -0.1874494534560E+01  0.0000000000000E+00
-0.9350152757427E+00 -0.4659959193825E+01  0.0000000000000E+00
-0.9350305514535E+00 -0.4588331411245E+01  0.0000000000000E+00
-0.9350458272582E+00 -0.4516703188809E+01  0.0000000000000E+00
-0.9350611030201E+00 -0.4445075167182E+01  0.0000000000000E+00
-0.9350763787789E+00 -0.4373447159799E+01  0.0000000000000E+00
-0.9350916545434E+00 -0.4301819125501E+01  0.0000000000000E+00
-0.9351069302989E+00 -0.4230191133537E+01  0.0000000000000E+00
-0.9351222060600E+00 -0.4158563115315E+01  0.0000000000000E+00
-0.9351374818200E+00 -0.4086935102354E+01  0.0000000000000E+00
-0.9351527575783E+00 -0.4015307097302E+01  0.0000000000000E+00
-0.9351680333398E+00 -0.3943679077257E+01  0.0000000000000E+00
-0.9351833090963E+00 -0.3872051080703E+01  0.0000000000000E+00
-0.9351985848595E+00 -0.3800423052887E+01  0.0000000000000E+00
-0.9352138606351E+00 -0.3728794966635E+01  0.0000000000000E+00
-0.9352291364064E+00 -0.3657166900768E+01  0.0000000000000E+00
-0.9352444121594E+00 -0.3585538920588E+01  0.0000000000000E+00
-0.9352596880473E+00 -0.3513910308040E+01  0.0000000000000E+00
-0.9352749636799E+00 -0.3442282892296E+01  0.0000000000000E+00
-0.9352902394421E+00 -0.3370654868976E+01  0.0000000000000E+00
-0.9353055151876E+00 -0.3299026924142E+01  0.0000000000000E+00
-0.9353207909136E+00 -0.3227399070539E+01  0.0000000000000E+00
-0.9353360666473E+00 -0.3155771180791E+01  0.0000000000000E+00
-0.9353513423878E+00 -0.3084143259010E+01  0.0000000000000E+00
-0.9353830868434E+00 -0.3012515275629E+01  0.0000000000000E+00
-0.9355373735330E+00 -0.2940887521685E+01  0.0000000000000E+00
-0.9359614913613E+00 -0.2869261333809E+01  0.0000000000000E+00
-0.9367897043898E+00 -0.2797639988196E+01  0.0000000000000E+00
-0.9381208423587E+00 -0.2726029167304E+01  0.0000000000000E+00
-0.9400182918724E+00 -0.2654436016443E+01  0.0000000000000E+00
-0.9425225827175E+00 -0.2582868866489E+01  0.0000000000000E+00
-0.9456659237619E+00 -0.2511336704686E+01  0.0000000000000E+00
-0.9494847521435E+00 -0.2439850246183E+01  0.0000000000000E+00
-0.9540291935997E+00 -0.2368423074660E+01  0.0000000000000E+00
-0.9592964283062E+00 -0.2297065006004E+01  0.0000000000000E+00
-0.9652129725315E+00 -0.2225777798115E+01  0.0000000000000E+00
-0.9717263688312E+00 -0.2154563128249E+01  0.0000000000000E+00
-0.9788061082853E+00 -0.2083423775788E+01  0.0000000000000E+00
-0.9864422348236E+00 -0.2012364642606E+01  0.0000000000000E+00
-0.9946500277763E+00 -0.1941394623162E+01  0.0000000000000E+00
-0.1003490932759E+01 -0.1870530926191E+01  0.0000000000000E+00
-0.9075164348415E+00 -0.4659862918834E+01  0.0000000000000E+00
-0.9075328696488E+00 -0.4588138861463E+01  0.0000000000000E+00
-0.9075493045571E+00 -0.4516414363646E+01  0.0000000000000E+00
-0.9075657394192E+00 -0.4444690066907E+01  0.0000000000000E+00
-0.9075821742781E+00 -0.4372965784431E+01  0.0000000000000E+00
-0.9075986091431E+00 -0.4301241475005E+01  0.0000000000000E+00
-0.9076150439985E+00 -0.4229517207969E+01  0.0000000000000E+00
-0.9076314788598E+00 -0.4157792914640E+01  0.0000000000000E+00
-0.9076479137200E+00 -0.4086068626578E+01  0.0000000000000E+00
-0.9076643485783E+00 -0.4014344346436E+01  0.0000000000000E+00
-0.9076807834401E+00 -0.3942620051282E+01  0.0000000000000E+00
-0.9076972182965E+00 -0.3870895779649E+01  0.0000000000000E+00
-0.9077136531601E+00 -0.3799171476713E+01  0.0000000000000E+00
-0.9077300880371E+00 -0.3727447115263E+01  0.0000000000000E+00
-0.9077465229094E+00 -0.3655722774225E+01  0.0000000000000E+00
-0.9077629577620E+00 -0.3583998518988E+01  0.0000000000000E+00
-0.9077793927597E+00 -0.3512273630535E+01  0.0000000000000E+00
-0.9077958274829E+00 -0.3440549940493E+01  0.0000000000000E+00
-0.9078122623454E+00 -0.3368825642059E+01  0.0000000000000E+00
-0.9078286971899E+00 -0.3297101422216E+01  0.0000000000000E+00
-0.9078451320135E+00 -0.3225377293728E+01  0.0000000000000E+00
-0.9078615668454E+00 -0.3153653129045E+01  0.0000000000000E+00
-0.9078780016846E+00 -0.3081928932287E+01  0.0000000000000E+00
-0.9079104199434E+00 -0.3010204673842E+01  0.0000000000000E+00
-0.9080617693840E+00 -0.2938480644892E+01  0.0000000000000E+00
-0.9084749986280E+00 -0.2866758182177E+01  0.0000000000000E+00
-0.9092804152714E+00 -0.2795040561762E+01  0.0000000000000E+00
-0.9105739367573E+00 -0.2723333466175E+01  0.0000000000000E+00
-0.9124170818274E+00 -0.2651644040617E+01  0.0000000000000E+00
-0.9148491859419E+00 -0.2579980616114E+01  0.0000000000000E+00
-0.9179015088477E+00 -0.2508352179677E+01  0.0000000000000E+00
-0.9216094139598E+00 -0.2436769446484E+01  0.0000000000000E+00
-0.9260215499149E+00 -0.2365246000499E+01  0.0000000000000E+00
-0.9311351799888E+00 -0.2293791657267E+01  0.0000000000000E+00
-0.9368789858541E+00 -0.2222408174696E+01  0.0000000000000E+00
-0.9432020558717E+00 -0.2151097230106E+01  0.0000000000000E+00
-0.9500747801533E+00 -0.2079861602812E+01  0.0000000000000E+00
-0.9574874960124E+00 -0.2008706194698E+01  0.0000000000000E+00
-0.9654550325253E+00 -0.1937639900549E+01  0.0000000000000E+00
-0.9740370246404E+00 -0.1866679929097E+01  0.0000000000000E+00
-0.8800172251723E+00 -0.4659769464936E+01  0.0000000000000E+00
-0.8800344503086E+00 -0.4587951953862E+01  0.0000000000000E+00
-0.8800516755508E+00 -0.4516134001767E+01  0.0000000000000E+00
-0.8800689007447E+00 -0.4444316251013E+01  0.0000000000000E+00
-0.8800861259351E+00 -0.4372498514541E+01  0.0000000000000E+00
-0.8801033511320E+00 -0.4300680751083E+01  0.0000000000000E+00
-0.8801205763187E+00 -0.4228863030071E+01  0.0000000000000E+00
-0.8801378015118E+00 -0.4157045282730E+01  0.0000000000000E+00
-0.8801550267036E+00 -0.4085227540665E+01  0.0000000000000E+00
-0.8801722518934E+00 -0.4013409806530E+01  0.0000000000000E+00
-0.8801894770869E+00 -0.3941592057363E+01  0.0000000000000E+00
-0.8802067022748E+00 -0.3869774331747E+01  0.0000000000000E+00
-0.8802239274701E+00 -0.3797956574788E+01  0.0000000000000E+00
-0.8802411526795E+00 -0.3726138759238E+01  0.0000000000000E+00
-0.8802583778840E+00 -0.3654320964127E+01  0.0000000000000E+00
-0.8802756030679E+00 -0.3582503254930E+01  0.0000000000000E+00
-0.8802928284039E+00 -0.3510684911690E+01  0.0000000000000E+00
-0.8803100534520E+00 -0.3438867768424E+01  0.0000000000000E+00
-0.8803272786463E+00 -0.3367050015972E+01  0.0000000000000E+00
-0.8803445038217E+00 -0.3295232342214E+01  0.0000000000000E+00
-0.8803617289752E+00 -0.3223414759930E+01  0.0000000000000E+00
-0.8803789541373E+00 -0.3151597141404E+01  0.0000000000000E+00
-0.8803961793072E+00 -0.3079779490761E+01  0.0000000000000E+00
-0.8804289026007E+00 -0.3007961778347E+01  0.0000000000000E+00
-0.8805769460245E+00 -0.2936144295485E+01  0.0000000000000E+00
-0.8809789179176E+00 -0.2864328379021E+01  0.0000000000000E+00
-0.8817611694101E+00 -0.2792517304890E+01  0.0000000000000E+00
-0.8830167056487E+00 -0.2720716755693E+01  0.0000000000000E+00
-0.8848051775121E+00 -0.2648933876522E+01  0.0000000000000E+00
-0.8871647261348E+00 -0.2577176998550E+01  0.0000000000000E+00
-0.8901256621418E+00 -0.2505455108563E+01  0.0000000000000E+00
-0.8937222752253E+00 -0.2433778921763E+01  0.0000000000000E+00
-0.8980017369228E+00 -0.2362162022393E+01  0.0000000000000E+00
-0.9029613936084E+00 -0.2290614225668E+01  0.0000000000000E+00
-0.9085320923593E+00 -0.2219137289498E+01  0.0000000000000E+00
-0.9146644673410E+00 -0.2147732891269E+01  0.0000000000000E+00
-0.9213298076975E+00 -0.2076403810231E+01  0.0000000000000E+00
-0.9285187441254E+00 -0.2005154948275E+01  0.0000000000000E+00
-0.9362456554485E+00 -0.1933995200506E+01  0.0000000000000E+00
-0.9445683659478E+00 -0.1862941775651E+01  0.0000000000000E+00
-0.8525176569623E+00 -0.4659678837762E+01  0.0000000000000E+00
-0.8525353138878E+00 -0.4587770699704E+01  0.0000000000000E+00
-0.8525529709217E+00 -0.4515862120068E+01  0.0000000000000E+00
-0.8525706279061E+00 -0.4443953742027E+01  0.0000000000000E+00
-0.8525882848871E+00 -0.4372045378286E+01  0.0000000000000E+00
-0.8526059418746E+00 -0.4300136987525E+01  0.0000000000000E+00
-0.8526235988517E+00 -0.4228228639263E+01  0.0000000000000E+00
-0.8526412558353E+00 -0.4156320264640E+01  0.0000000000000E+00
-0.8526589128176E+00 -0.4084411895299E+01  0.0000000000000E+00
-0.8526765697980E+00 -0.4012503533897E+01  0.0000000000000E+00
-0.8526942267820E+00 -0.3940595157445E+01  0.0000000000000E+00
-0.8527118837602E+00 -0.3868686804574E+01  0.0000000000000E+00
-0.8527295407462E+00 -0.3796778420320E+01  0.0000000000000E+00
-0.8527471977466E+00 -0.3724869977402E+01  0.0000000000000E+00
-0.8527648547419E+00 -0.3652961554948E+01  0.0000000000000E+00
-0.8527825117161E+00 -0.3581053218515E+01  0.0000000000000E+00
-0.8528001688462E+00 -0.3509144247241E+01  0.0000000000000E+00
-0.8528178256813E+00 -0.3437236477454E+01  0.0000000000000E+00
-0.8528354826661E+00 -0.3365328097713E+01  0.0000000000000E+00
-0.8528531396316E+00 -0.3293419796766E+01  0.0000000000000E+00
-0.8528707965746E+00 -0.3221511587407E+01  0.0000000000000E+00
-0.8528884535265E+00 -0.3149603341761E+01  0.0000000000000E+00
-0.8529061104864E+00 -0.3077695063957E+01  0.0000000000000E+00
-0.8529387802737E+00 -0.3005786724301E+01  0.0000000000000E+00
-0.8530831591395E+00 -0.2933878614253E+01  0.0000000000000E+00
-0.8534735151404E+00 -0.2861972070759E+01  0.0000000000000E+00
-0.8542322429400E+00 -0.2790070369632E+01  0.0000000000000E+00
-0.8554494353881E+00 -0.2718179193539E+01  0.0000000000000E+00
-0.8571828755004E+00 -0.2646305687471E+01  0.0000000000000E+00
-0.8594695100855E+00 -0.2574458182743E+01  0.0000000000000E+00
-0.8623387006461E+00 -0.2502645665919E+01  0.0000000000000E+00
-0.8658236631514E+00 -0.2430878852229E+01  0.0000000000000E+00
-0.8699700920406E+00 -0.2359171326182E+01  0.0000000000000E+00
-0.8747754167849E+00 -0.2287532902676E+01  0.0000000000000E+00
-0.8801726498660E+00 -0.2215965339624E+01  0.0000000000000E+00
-0.8861139712552E+00 -0.2144470314473E+01  0.0000000000000E+00
-0.8925715691276E+00 -0.2073050606409E+01  0.0000000000000E+00
-0.8995363675637E+00 -0.2001711117336E+01  0.0000000000000E+00
-0.9070222951358E+00 -0.1930460742663E+01  0.0000000000000E+00
-0.9150853654571E+00 -0.1859316691115E+01  0.0000000000000E+00
-0.8250177407139E+00 -0.4659591042819E+01  0.0000000000000E+00
-0.8250354813908E+00 -0.4587595110000E+01  0.0000000000000E+00
-0.8250532221767E+00 -0.4515598735065E+01  0.0000000000000E+00
-0.8250709629128E+00 -0.4443602561971E+01  0.0000000000000E+00
-0.8250887036454E+00 -0.4371606403194E+01  0.0000000000000E+00
-0.8251064443847E+00 -0.4299610217364E+01  0.0000000000000E+00
-0.8251241851135E+00 -0.4227614074085E+01  0.0000000000000E+00
-0.8251419258488E+00 -0.4155617904413E+01  0.0000000000000E+00
-0.8251596665828E+00 -0.4083621740029E+01  0.0000000000000E+00
-0.8251774073148E+00 -0.4011625583594E+01  0.0000000000000E+00
-0.8251951480505E+00 -0.3939629412091E+01  0.0000000000000E+00
-0.8252128887805E+00 -0.3867633264198E+01  0.0000000000000E+00
-0.8252306295181E+00 -0.3795637084882E+01  0.0000000000000E+00
-0.8252483702703E+00 -0.3723640846831E+01  0.0000000000000E+00
-0.8252661110174E+00 -0.3651644629270E+01  0.0000000000000E+00
-0.8252838517432E+00 -0.3579648497835E+01  0.0000000000000E+00
-0.8253015926257E+00 -0.3507651730783E+01  0.0000000000000E+00
-0.8253193332118E+00 -0.3435656166686E+01  0.0000000000000E+00
-0.8253370739484E+00 -0.3363659991889E+01  0.0000000000000E+00
-0.8253548146655E+00 -0.3291663895982E+01  0.0000000000000E+00
-0.8253725553600E+00 -0.3219667891776E+01  0.0000000000000E+00
-0.8253902960635E+00 -0.3147671851239E+01  0.0000000000000E+00
-0.8254080367749E+00 -0.3075675778504E+01  0.0000000000000E+00
-0.8254403050173E+00 -0.3003679643838E+01  0.0000000000000E+00
-0.8255806712862E+00 -0.2931683738833E+01  0.0000000000000E+00
-0.8259590633559E+00 -0.2859689400535E+01  0.0000000000000E+00
-0.8266939194225E+00 -0.2787699904637E+01  0.0000000000000E+00
-0.8278724200392E+00 -0.2715720933871E+01  0.0000000000000E+00
-0.8295504803575E+00 -0.2643759633128E+01  0.0000000000000E+00
-0.8317638528612E+00 -0.2571824333859E+01  0.0000000000000E+00
-0.8345409499295E+00 -0.2499924022419E+01  0.0000000000000E+00
-0.8379139138084E+00 -0.2428069414060E+01  0.0000000000000E+00
-0.8419269618398E+00 -0.2356274093551E+01  0.0000000000000E+00
-0.8465776065910E+00 -0.2284547875482E+01  0.0000000000000E+00
-0.8518010259485E+00 -0.2212892517768E+01  0.0000000000000E+00
-0.8575509456891E+00 -0.2141309697916E+01  0.0000000000000E+00
-0.8638004530197E+00 -0.2069802195054E+01  0.0000000000000E+00
-0.8705407654042E+00 -0.1998374911091E+01  0.0000000000000E+00
-0.8777853611645E+00 -0.1927036741736E+01  0.0000000000000E+00
-0.8855884432463E+00 -0.1855804895709E+01  0.0000000000000E+00
-0.7975174872200E+00 -0.4659506085482E+01  0.0000000000000E+00
-0.7975349744037E+00 -0.4587425195502E+01  0.0000000000000E+00
-0.7975524616947E+00 -0.4515343862885E+01  0.0000000000000E+00
-0.7975699489366E+00 -0.4443262732347E+01  0.0000000000000E+00
-0.7975874361751E+00 -0.4371181616143E+01  0.0000000000000E+00
-0.7976049234202E+00 -0.4299100472854E+01  0.0000000000000E+00
-0.7976224106549E+00 -0.4227019372167E+01  0.0000000000000E+00
-0.7976398978961E+00 -0.4154938245055E+01  0.0000000000000E+00
-0.7976573851359E+00 -0.4082857123237E+01  0.0000000000000E+00
-0.7976748723739E+00 -0.4010776009378E+01  0.0000000000000E+00
-0.7976923596155E+00 -0.3938694880433E+01  0.0000000000000E+00
-0.7977098468513E+00 -0.3866613775126E+01  0.0000000000000E+00
-0.7977273340948E+00 -0.3794532638359E+01  0.0000000000000E+00
-0.7977448213526E+00 -0.3722451442787E+01  0.0000000000000E+00
-0.7977623086053E+00 -0.3650370267730E+01  0.0000000000000E+00
-0.7977797958372E+00 -0.3578289178900E+01  0.0000000000000E+00
-0.7977972832234E+00 -0.3506207453703E+01  0.0000000000000E+00
-0.7978147703175E+00 -0.3434126932881E+01  0.0000000000000E+00
-0.7978322575599E+00 -0.3362045800638E+01  0.0000000000000E+00
-0.7978497447831E+00 -0.3289964747379E+01  0.0000000000000E+00
-0.7978672319841E+00 -0.3217883785928E+01  0.0000000000000E+00
-0.7978847191938E+00 -0.3145802788103E+01  0.0000000000000E+00
-0.7979022064114E+00 -0.3073721758043E+01  0.0000000000000E+00
-0.7979337358632E+00 -0.3001640665976E+01  0.0000000000000E+00
-0.7980697522901E+00 -0.2929559803621E+01  0.0000000000000E+00
-0.7984358431845E+00 -0.2857480508120E+01  0.0000000000000E+00
-0.7991464902748E+00 -0.2785406055050E+01  0.0000000000000E+00
-0.8002859618180E+00 -0.2713342127208E+01  0.0000000000000E+00
-0.8019083051015E+00 -0.2641295869387E+01  0.0000000000000E+00
-0.8040480782847E+00 -0.2569275613171E+01  0.0000000000000E+00
-0.8067327446223E+00 -0.2497290344709E+01  0.0000000000000E+00
-0.8099933726376E+00 -0.2425350779278E+01  0.0000000000000E+00
-0.8138727025763E+00 -0.2353470501899E+01  0.0000000000000E+00
-0.8183683301003E+00 -0.2281659326859E+01  0.0000000000000E+00
-0.8234175985009E+00 -0.2209919012080E+01  0.0000000000000E+00
-0.8289757793607E+00 -0.2138251235127E+01  0.0000000000000E+00
-0.8350168589179E+00 -0.2066658775066E+01  0.0000000000000E+00
-0.8415323480198E+00 -0.1995146533818E+01  0.0000000000000E+00
-0.8485352747396E+00 -0.1923723407379E+01  0.0000000000000E+00
-0.8560780313548E+00 -0.1852406604464E+01  0.0000000000000E+00
-0.7700169071112E+00 -0.4659423970938E+01  0.0000000000000E+00
-0.7700338141872E+00 -0.4587260966585E+01  0.0000000000000E+00
-0.7700507213671E+00 -0.4515097519091E+01  0.0000000000000E+00
-0.7700676284995E+00 -0.4442934273906E+01  0.0000000000000E+00
-0.7700845356285E+00 -0.4370771043071E+01  0.0000000000000E+00
-0.7701014427640E+00 -0.4298607785120E+01  0.0000000000000E+00
-0.7701183498894E+00 -0.4226444569820E+01  0.0000000000000E+00
-0.7701352570210E+00 -0.4154281328065E+01  0.0000000000000E+00
-0.7701521641514E+00 -0.4082118091610E+01  0.0000000000000E+00
-0.7701690712799E+00 -0.4009954863123E+01  0.0000000000000E+00
-0.7701859784119E+00 -0.3937791619533E+01  0.0000000000000E+00
-0.7702028855385E+00 -0.3865628399607E+01  0.0000000000000E+00
-0.7702197926723E+00 -0.3793465148187E+01  0.0000000000000E+00
-0.7702366998200E+00 -0.3721301837894E+01  0.0000000000000E+00
-0.7702536069629E+00 -0.3649138548138E+01  0.0000000000000E+00
-0.7702705140855E+00 -0.3576975344709E+01  0.0000000000000E+00
-0.7702874213574E+00 -0.3504811504187E+01  0.0000000000000E+00
-0.7703043283468E+00 -0.3432648869413E+01  0.0000000000000E+00
-0.7703212354797E+00 -0.3360485622521E+01  0.0000000000000E+00
-0.7703381425940E+00 -0.3288322454703E+01  0.0000000000000E+00
-0.7703550496867E+00 -0.3216159378797E+01  0.0000000000000E+00
-0.7703719567880E+00 -0.3143996266477E+01  0.0000000000000E+00
-0.7703888638969E+00 -0.3071833121884E+01  0.0000000000000E+00
-0.7704193279429E+00 -0.2999669915210E+01  0.0000000000000E+00
-0.7705506679129E+00 -0.2927506938299E+01  0.0000000000000E+00
-0.7709041310181E+00 -0.2855345528385E+01  0.0000000000000E+00
-0.7715902425191E+00 -0.2783188960931E+01  0.0000000000000E+00
-0.7726903583770E+00 -0.2711042918797E+01  0.0000000000000E+00
-0.7742566580147E+00 -0.2638914546683E+01  0.0000000000000E+00
-0.7763225052677E+00 -0.2566812176300E+01  0.0000000000000E+00
-0.7789144142657E+00 -0.2494744793600E+01  0.0000000000000E+00
-0.7820623798096E+00 -0.2422723113881E+01  0.0000000000000E+00
-0.7858076650495E+00 -0.2350760722408E+01  0.0000000000000E+00
-0.7901479487410E+00 -0.2278867433179E+01  0.0000000000000E+00
-0.7950227395800E+00 -0.2207045004120E+01  0.0000000000000E+00
-0.8003888549551E+00 -0.2135295112850E+01  0.0000000000000E+00
-0.8062211801355E+00 -0.2063620538380E+01  0.0000000000000E+00
-0.8125115193522E+00 -0.1992026182637E+01  0.0000000000000E+00
-0.8192724504302E+00 -0.1920520941899E+01  0.0000000000000E+00
-0.8265545549795E+00 -0.1849122024875E+01  0.0000000000000E+00
-0.7425160110831E+00 -0.4659344704214E+01  0.0000000000000E+00
-0.7425320221329E+00 -0.4587102433304E+01  0.0000000000000E+00
-0.7425480332810E+00 -0.4514859718765E+01  0.0000000000000E+00
-0.7425640443842E+00 -0.4442617206757E+01  0.0000000000000E+00
-0.7425800554842E+00 -0.4370374709116E+01  0.0000000000000E+00
-0.7425960665902E+00 -0.4298132184328E+01  0.0000000000000E+00
-0.7426120776868E+00 -0.4225889702238E+01  0.0000000000000E+00
-0.7426280887892E+00 -0.4153647193664E+01  0.0000000000000E+00
-0.7426440998905E+00 -0.4081404690396E+01  0.0000000000000E+00
-0.7426601109900E+00 -0.4009162195105E+01  0.0000000000000E+00
-0.7426761220928E+00 -0.3936919684694E+01  0.0000000000000E+00
-0.7426921331904E+00 -0.3864677197973E+01  0.0000000000000E+00
-0.7427081442950E+00 -0.3792434679724E+01  0.0000000000000E+00
-0.7427241554126E+00 -0.3720192102536E+01  0.0000000000000E+00
-0.7427401665257E+00 -0.3647949545909E+01  0.0000000000000E+00
-0.7427561776197E+00 -0.3575707075704E+01  0.0000000000000E+00
-0.7427721888549E+00 -0.3503463967706E+01  0.0000000000000E+00
-0.7427881998227E+00 -0.3431222066779E+01  0.0000000000000E+00
-0.7428042109263E+00 -0.3358979553063E+01  0.0000000000000E+00
-0.7428202220123E+00 -0.3286737118507E+01  0.0000000000000E+00
-0.7428362330780E+00 -0.3214494775965E+01  0.0000000000000E+00
-0.7428522441517E+00 -0.3142252396968E+01  0.0000000000000E+00
-0.7428682552326E+00 -0.3070009985662E+01  0.0000000000000E+00
-0.7428973379532E+00 -0.2997767512206E+01  0.0000000000000E+00
-0.7430236855472E+00 -0.2925525268560E+01  0.0000000000000E+00
-0.7433642049450E+00 -0.2853284592048E+01  0.0000000000000E+00
-0.7440254649391E+00 -0.2781048758026E+01  0.0000000000000E+00
-0.7450859091951E+00 -0.2708823449412E+01  0.0000000000000E+00
-0.7465958492710E+00 -0.2636615810817E+01  0.0000000000000E+00
-0.7485874546793E+00 -0.2564434174075E+01  0.0000000000000E+00
-0.7510862904237E+00 -0.2492287524946E+01  0.0000000000000E+00
-0.7541212775826E+00 -0.2420186578752E+01  0.0000000000000E+00
-0.7577322022120E+00 -0.2348144920990E+01  0.0000000000000E+00
-0.7619168261599E+00 -0.2276172365381E+01  0.0000000000000E+00
-0.7666168235266E+00 -0.2204270669853E+01  0.0000000000000E+00
-0.7717905575071E+00 -0.2132441512079E+01  0.0000000000000E+00
-0.7774138124011E+00 -0.2060687671016E+01  0.0000000000000E+00
-0.7834786858233E+00 -0.1989014048599E+01  0.0000000000000E+00
-0.7899973053517E+00 -0.1917429541373E+01  0.0000000000000E+00
-0.7970184419288E+00 -0.1845951358046E+01  0.0000000000000E+00
-0.7150148098282E+00 -0.4659268290171E+01  0.0000000000000E+00
-0.7150296196255E+00 -0.4586949605377E+01  0.0000000000000E+00
-0.7150444295138E+00 -0.4514630476484E+01  0.0000000000000E+00
-0.7150592393606E+00 -0.4442311550338E+01  0.0000000000000E+00
-0.7150740492044E+00 -0.4369992638572E+01  0.0000000000000E+00
-0.7150888590538E+00 -0.4297673699632E+01  0.0000000000000E+00
-0.7151036688944E+00 -0.4225354803435E+01  0.0000000000000E+00
-0.7151184787405E+00 -0.4153035880725E+01  0.0000000000000E+00
-0.7151332885855E+00 -0.4080716963328E+01  0.0000000000000E+00
-0.7151480984288E+00 -0.4008398053915E+01  0.0000000000000E+00
-0.7151629082753E+00 -0.3936079129367E+01  0.0000000000000E+00
-0.7151777181168E+00 -0.3863760228534E+01  0.0000000000000E+00
-0.7151925279649E+00 -0.3791441296138E+01  0.0000000000000E+00
-0.7152073378250E+00 -0.3719122304743E+01  0.0000000000000E+00
-0.7152221476809E+00 -0.3646803333930E+01  0.0000000000000E+00
-0.7152369575191E+00 -0.3574484449629E+01  0.0000000000000E+00
-0.7152517674881E+00 -0.3502164926862E+01  0.0000000000000E+00
-0.7152665772096E+00 -0.3429846612442E+01  0.0000000000000E+00
-0.7152813870567E+00 -0.3357527684586E+01  0.0000000000000E+00
-0.7152961968876E+00 -0.3285208835972E+01  0.0000000000000E+00
-0.7153110066996E+00 -0.3212890079470E+01  0.0000000000000E+00
-0.7153258165191E+00 -0.3140571286475E+01  0.0000000000000E+00
-0.7153406263452E+00 -0.3068252461137E+01  0.0000000000000E+00
-0.7153680225135E+00 -0.2995933573580E+01  0.0000000000000E+00
-0.7154890725045E+00 -0.2923614915879E+01  0.0000000000000E+00
-0.7158163429684E+00 -0.2851297825445E+01  0.0000000000000E+00
-0.7164524462290E+00 -0.2778985577529E+01  0.0000000000000E+00
-0.7174729136566E+00 -0.2706683855107E+01  0.0000000000000E+00
-0.7189261889441E+00 -0.2634399802702E+01  0.0000000000000E+00
-0.7208432472812E+00 -0.2562141752268E+01  0.0000000000000E+00
-0.7232487045449E+00 -0.2489918689380E+01  0.0000000000000E+00
-0.7261704080913E+00 -0.2417741329381E+01  0.0000000000000E+00
-0.7296466668831E+00 -0.2345623257995E+01  0.0000000000000E+00
-0.7336753258596E+00 -0.2273574288674E+01  0.0000000000000E+00
-0.7382002245257E+00 -0.2201596179347E+01  0.0000000000000E+00
-0.7431812718828E+00 -0.2129690607742E+01  0.0000000000000E+00
-0.7485951512610E+00 -0.2057860352761E+01  0.0000000000000E+00
-0.7544342536587E+00 -0.1986110316347E+01  0.0000000000000E+00
-0.7607102564081E+00 -0.1914449395305E+01  0.0000000000000E+00
-0.7674701197840E+00 -0.1842894798340E+01  0.0000000000000E+00
-0.6875133140180E+00 -0.4659194733497E+01  0.0000000000000E+00
-0.6875266280083E+00 -0.4586802492181E+01  0.0000000000000E+00
-0.6875399420804E+00 -0.4514409806315E+01  0.0000000000000E+00
-0.6875532561151E+00 -0.4442017323401E+01  0.0000000000000E+00
-0.6875665701472E+00 -0.4369624854884E+01  0.0000000000000E+00
-0.6875798841843E+00 -0.4297232359164E+01  0.0000000000000E+00
-0.6875931982135E+00 -0.4224839906230E+01  0.0000000000000E+00
-0.6876065122476E+00 -0.4152447426757E+01  0.0000000000000E+00
-0.6876198262808E+00 -0.4080054952602E+01  0.0000000000000E+00
-0.6876331403124E+00 -0.4007662486439E+01  0.0000000000000E+00
-0.6876464543469E+00 -0.3935270005125E+01  0.0000000000000E+00
-0.6876597683769E+00 -0.3862877547551E+01  0.0000000000000E+00
-0.6876730824128E+00 -0.3790485058383E+01  0.0000000000000E+00
-0.6876863964596E+00 -0.3718092510154E+01  0.0000000000000E+00
-0.6876997105025E+00 -0.3645699982529E+01  0.0000000000000E+00
-0.6877130245296E+00 -0.3573307541504E+01  0.0000000000000E+00
-0.6877263386741E+00 -0.3500914461363E+01  0.0000000000000E+00
-0.6877396525963E+00 -0.3428522590798E+01  0.0000000000000E+00
-0.6877529666313E+00 -0.3356130106173E+01  0.0000000000000E+00
-0.6877662806518E+00 -0.3283737700872E+01  0.0000000000000E+00
-0.6877795946553E+00 -0.3211345387775E+01  0.0000000000000E+00
-0.6877929086655E+00 -0.3138953038149E+01  0.0000000000000E+00
-0.6878062226817E+00 -0.3066560656146E+01  0.0000000000000E+00
-0.6878316377421E+00 -0.2994168211858E+01  0.0000000000000E+00
-0.6879470955743E+00 -0.2921775997472E+01  0.0000000000000E+00
-0.6882608225479E+00 -0.2849385350480E+01  0.0000000000000E+00
-0.6888714745171E+00 -0.2776999546033E+01  0.0000000000000E+00
-0.6898516705568E+00 -0.2704624267162E+01  0.0000000000000E+00
-0.6912479864942E+00 -0.2632266658308E+01  0.0000000000000E+00
-0.6930902031963E+00 -0.2559935051537E+01  0.0000000000000E+00
-0.6954019874130E+00 -0.2487638432247E+01  0.0000000000000E+00
-0.6982101127777E+00 -0.2415387515803E+01  0.0000000000000E+00
-0.7015514111604E+00 -0.2343195888146E+01  0.0000000000000E+00
-0.7054238105909E+00 -0.2271073362469E+01  0.0000000000000E+00
-0.7097733159789E+00 -0.2199021696703E+01  0.0000000000000E+00
-0.7145613821325E+00 -0.2127042568627E+01  0.0000000000000E+00
-0.7197655914124E+00 -0.2055138757093E+01  0.0000000000000E+00
-0.7253786282006E+00 -0.1983315164049E+01  0.0000000000000E+00
-0.7314117195845E+00 -0.1911580686551E+01  0.0000000000000E+00
-0.7379100151708E+00 -0.1839952533300E+01  0.0000000000000E+00
-0.6600115347780E+00 -0.4659124038756E+01  0.0000000000000E+00
-0.6600230695320E+00 -0.4586661102847E+01  0.0000000000000E+00
-0.6600346043568E+00 -0.4514197721954E+01  0.0000000000000E+00
-0.6600461391493E+00 -0.4441734544211E+01  0.0000000000000E+00
-0.6600576739395E+00 -0.4369271380878E+01  0.0000000000000E+00
-0.6600692087340E+00 -0.4296808190316E+01  0.0000000000000E+00
-0.6600807435217E+00 -0.4224345042582E+01  0.0000000000000E+00
-0.6600922783136E+00 -0.4151881868284E+01  0.0000000000000E+00
-0.6601038131047E+00 -0.4079418699308E+01  0.0000000000000E+00
-0.6601153478945E+00 -0.4006955538333E+01  0.0000000000000E+00
-0.6601268826867E+00 -0.3934492362191E+01  0.0000000000000E+00
-0.6601384174751E+00 -0.3862029209812E+01  0.0000000000000E+00
-0.6601499522686E+00 -0.3789566025808E+01  0.0000000000000E+00
-0.6601614870715E+00 -0.3717102782687E+01  0.0000000000000E+00
-0.6601730218711E+00 -0.3644639560188E+01  0.0000000000000E+00
-0.6601845566569E+00 -0.3572176424375E+01  0.0000000000000E+00
-0.6601960915445E+00 -0.3499712648821E+01  0.0000000000000E+00
-0.6602076262394E+00 -0.3427250084026E+01  0.0000000000000E+00
-0.6602191610322E+00 -0.3354786904570E+01  0.0000000000000E+00
-0.6602306958123E+00 -0.3282323804515E+01  0.0000000000000E+00
-0.6602422305777E+00 -0.3209860796755E+01  0.0000000000000E+00
-0.6602537653490E+00 -0.3137397752429E+01  0.0000000000000E+00
-0.6602653001253E+00 -0.3064934675696E+01  0.0000000000000E+00
-0.6602884506478E+00 -0.2992471536614E+01  0.0000000000000E+00
-0.6603980328915E+00 -0.2920008627477E+01  0.0000000000000E+00
-0.6606979329459E+00 -0.2847547285856E+01  0.0000000000000E+00
-0.6612828501955E+00 -0.2775090786807E+01  0.0000000000000E+00
-0.6622224914199E+00 -0.2702644813413E+01  0.0000000000000E+00
-0.6635615645806E+00 -0.2630216510033E+01  0.0000000000000E+00
-0.6653286562223E+00 -0.2557814208847E+01  0.0000000000000E+00
-0.6675464839670E+00 -0.2485446895079E+01  0.0000000000000E+00
-0.6702407477259E+00 -0.2413125284116E+01  0.0000000000000E+00
-0.6734468022770E+00 -0.2340862962106E+01  0.0000000000000E+00
-0.6771626587394E+00 -0.2268669741993E+01  0.0000000000000E+00
-0.6813364874278E+00 -0.2196547381714E+01  0.0000000000000E+00
-0.6859312889571E+00 -0.2124497559093E+01  0.0000000000000E+00
-0.6909255447183E+00 -0.2052523052934E+01  0.0000000000000E+00
-0.6963122324769E+00 -0.1980628765193E+01  0.0000000000000E+00
-0.7021021290765E+00 -0.1908823593166E+01  0.0000000000000E+00
-0.7083385734561E+00 -0.1837124745548E+01  0.0000000000000E+00
-0.6325094830437E+00 -0.4659056210321E+01  0.0000000000000E+00
-0.6325189660676E+00 -0.4586525446119E+01  0.0000000000000E+00
-0.6325284491498E+00 -0.4513994236516E+01  0.0000000000000E+00
-0.6325379322054E+00 -0.4441463230253E+01  0.0000000000000E+00
-0.6325474152591E+00 -0.4368932238414E+01  0.0000000000000E+00
-0.6325568983163E+00 -0.4296401219321E+01  0.0000000000000E+00
-0.6325663813680E+00 -0.4223870243095E+01  0.0000000000000E+00
-0.6325758644231E+00 -0.4151339240280E+01  0.0000000000000E+00
-0.6325853474776E+00 -0.4078808242792E+01  0.0000000000000E+00
-0.6325948305309E+00 -0.4006277253313E+01  0.0000000000000E+00
-0.6326043135863E+00 -0.3933746248653E+01  0.0000000000000E+00
-0.6326137966386E+00 -0.3861215267778E+01  0.0000000000000E+00
-0.6326232796950E+00 -0.3788684255248E+01  0.0000000000000E+00
-0.6326327627591E+00 -0.3716153183546E+01  0.0000000000000E+00
-0.6326422458206E+00 -0.3643622132486E+01  0.0000000000000E+00
-0.6326517288707E+00 -0.3571091168192E+01  0.0000000000000E+00
-0.6326612120045E+00 -0.3498559563559E+01  0.0000000000000E+00
-0.6326706949798E+00 -0.3426029170817E+01  0.0000000000000E+00
-0.6326801780356E+00 -0.3353498162840E+01  0.0000000000000E+00
-0.6326896610811E+00 -0.3280967234338E+01  0.0000000000000E+00
-0.6326991441144E+00 -0.3208436398218E+01  0.0000000000000E+00
-0.6327086271525E+00 -0.3135905525497E+01  0.0000000000000E+00
-0.6327181101949E+00 -0.3063374620339E+01  0.0000000000000E+00
-0.6327387236849E+00 -0.2990843652771E+01  0.0000000000000E+00
-0.6328421578459E+00 -0.2918312915189E+01  0.0000000000000E+00
-0.6331279584877E+00 -0.2845783745241E+01  0.0000000000000E+00
-0.6336868685247E+00 -0.2773259417889E+01  0.0000000000000E+00
-0.6345856824418E+00 -0.2700745616269E+01  0.0000000000000E+00
-0.6358672403342E+00 -0.2628249484662E+01  0.0000000000000E+00
-0.6375589344252E+00 -0.2555779355352E+01  0.0000000000000E+00
-0.6396825332080E+00 -0.2483344213402E+01  0.0000000000000E+00
-0.6422626628715E+00 -0.2410954774215E+01  0.0000000000000E+00
-0.6453332011029E+00 -0.2338624624143E+01  0.0000000000000E+00
-0.6488922421098E+00 -0.2266363575889E+01  0.0000000000000E+00
-0.6528901216113E+00 -0.2194173387393E+01  0.0000000000000E+00
-0.6572913860296E+00 -0.2122055736525E+01  0.0000000000000E+00
-0.6620754157856E+00 -0.2050013402043E+01  0.0000000000000E+00
-0.6672354820285E+00 -0.1978051285908E+01  0.0000000000000E+00
-0.6727819113590E+00 -0.1906178285648E+01  0.0000000000000E+00
-0.6787562320482E+00 -0.1834411609955E+01  0.0000000000000E+00
-0.6050071698059E+00 -0.4658991252397E+01  0.0000000000000E+00
-0.6050143395968E+00 -0.4586395530405E+01  0.0000000000000E+00
-0.6050215094317E+00 -0.4513799362613E+01  0.0000000000000E+00
-0.6050286792466E+00 -0.4441203398345E+01  0.0000000000000E+00
-0.6050358490600E+00 -0.4368607448512E+01  0.0000000000000E+00
-0.6050430188761E+00 -0.4296011471401E+01  0.0000000000000E+00
-0.6050501886880E+00 -0.4223415537196E+01  0.0000000000000E+00
-0.6050573585025E+00 -0.4150819576378E+01  0.0000000000000E+00
-0.6050645283165E+00 -0.4078223620892E+01  0.0000000000000E+00
-0.6050716981297E+00 -0.4005627673422E+01  0.0000000000000E+00
-0.6050788679444E+00 -0.3933031710757E+01  0.0000000000000E+00
-0.6050860377568E+00 -0.3860435771899E+01  0.0000000000000E+00
-0.6050932075722E+00 -0.3787839801358E+01  0.0000000000000E+00
-0.6051003773936E+00 -0.3715243771590E+01  0.0000000000000E+00
-0.6051075472128E+00 -0.3642647762484E+01  0.0000000000000E+00
-0.6051147170236E+00 -0.3570051840222E+01  0.0000000000000E+00
-0.6051218868976E+00 -0.3497455277047E+01  0.0000000000000E+00
-0.6051290566518E+00 -0.3424859926848E+01  0.0000000000000E+00
-0.6051362264668E+00 -0.3352263960863E+01  0.0000000000000E+00
-0.6051433962740E+00 -0.3279668074425E+01  0.0000000000000E+00
-0.6051505660720E+00 -0.3207072280451E+01  0.0000000000000E+00
-0.6051577358736E+00 -0.3134476449843E+01  0.0000000000000E+00
-0.6051649056785E+00 -0.3061880586770E+01  0.0000000000000E+00
-0.6051827206324E+00 -0.2989284661228E+01  0.0000000000000E+00
-0.6052797452072E+00 -0.2916688965711E+01  0.0000000000000E+00
-0.6055511849337E+00 -0.2844094837942E+01  0.0000000000000E+00
-0.6060838262558E+00 -0.2771505552792E+01  0.0000000000000E+00
-0.6069415513641E+00 -0.2698926793447E+01  0.0000000000000E+00
-0.6081653324871E+00 -0.2626365704114E+01  0.0000000000000E+00
-0.6097813675272E+00 -0.2553830617177E+01  0.0000000000000E+00
-0.6118104758481E+00 -0.2481330517544E+01  0.0000000000000E+00
-0.6142762099169E+00 -0.2408876120636E+01  0.0000000000000E+00
-0.6172109703304E+00 -0.2336481012995E+01  0.0000000000000E+00
-0.6206129343837E+00 -0.2264155007098E+01  0.0000000000000E+00
-0.6244346032008E+00 -0.2191899860885E+01  0.0000000000000E+00
-0.6286420690109E+00 -0.2119717252272E+01  0.0000000000000E+00
-0.6332156112646E+00 -0.2047609959972E+01  0.0000000000000E+00
-0.6381487944950E+00 -0.1975582885952E+01  0.0000000000000E+00
-0.6434514950607E+00 -0.1903644927961E+01  0.0000000000000E+00
-0.6491634305650E+00 -0.1831813294687E+01  0.0000000000000E+00
-0.5775046061084E+00 -0.4658929169017E+01  0.0000000000000E+00
-0.5775092122072E+00 -0.4586271363775E+01  0.0000000000000E+00
-0.5775138183343E+00 -0.4513613112352E+01  0.0000000000000E+00
-0.5775184244485E+00 -0.4440955064626E+01  0.0000000000000E+00
-0.5775230305618E+00 -0.4368297031349E+01  0.0000000000000E+00
-0.5775276366768E+00 -0.4295638970769E+01  0.0000000000000E+00
-0.5775322427890E+00 -0.4222980953132E+01  0.0000000000000E+00
-0.5775368489030E+00 -0.4150322908860E+01  0.0000000000000E+00
-0.5775414550166E+00 -0.4077664869924E+01  0.0000000000000E+00
-0.5775460611297E+00 -0.4005006839010E+01  0.0000000000000E+00
-0.5775506672438E+00 -0.3932348792890E+01  0.0000000000000E+00
-0.5775552733564E+00 -0.3859690770596E+01  0.0000000000000E+00
-0.5775598794710E+00 -0.3787032716592E+01  0.0000000000000E+00
-0.5775644855893E+00 -0.3714374603311E+01  0.0000000000000E+00
-0.5775690917063E+00 -0.3641716510709E+01  0.0000000000000E+00
-0.5775736978178E+00 -0.3569058505025E+01  0.0000000000000E+00
-0.5775783039700E+00 -0.3496399857880E+01  0.0000000000000E+00
-0.5775829100452E+00 -0.3423742424750E+01  0.0000000000000E+00
-0.5775875161595E+00 -0.3351084375306E+01  0.0000000000000E+00
-0.5775921222688E+00 -0.3278426405476E+01  0.0000000000000E+00
-0.5775967283721E+00 -0.3205768528191E+01  0.0000000000000E+00
-0.5776013344778E+00 -0.3133110614240E+01  0.0000000000000E+00
-0.5776059405856E+00 -0.3060452667796E+01  0.0000000000000E+00
-0.5776207065436E+00 -0.2987794658827E+01  0.0000000000000E+00
-0.5777110710727E+00 -0.2915136879922E+01  0.0000000000000E+00
-0.5779678994248E+00 -0.2842480668871E+01  0.0000000000000E+00
-0.5784740215735E+00 -0.2769829300463E+01  0.0000000000000E+00
-0.5792904074149E+00 -0.2697188457929E+01  0.0000000000000E+00
-0.5804561613110E+00 -0.2624565285406E+01  0.0000000000000E+00
-0.5819962868433E+00 -0.2551968115375E+01  0.0000000000000E+00
-0.5839306542459E+00 -0.2479405932593E+01  0.0000000000000E+00
-0.5862817422636E+00 -0.2406889452499E+01  0.0000000000000E+00
-0.5890804744040E+00 -0.2334432261820E+01  0.0000000000000E+00
-0.5923251110489E+00 -0.2262044172811E+01  0.0000000000000E+00
-0.5959703187267E+00 -0.2189726943418E+01  0.0000000000000E+00
-0.5999837354740E+00 -0.2117482251598E+01  0.0000000000000E+00
-0.6043465397710E+00 -0.2045312876019E+01  0.0000000000000E+00
-0.6090525895346E+00 -0.1973223718658E+01  0.0000000000000E+00
-0.6141113108821E+00 -0.1901223677472E+01  0.0000000000000E+00
-0.6195606107491E+00 -0.1829329961147E+01  0.0000000000000E+00
-0.5500018030462E+00 -0.4658869964047E+01  0.0000000000000E+00
-0.5500036060886E+00 -0.4586152953959E+01  0.0000000000000E+00
-0.5500054091420E+00 -0.4513435497326E+01  0.0000000000000E+00
-0.5500072121905E+00 -0.4440718244555E+01  0.0000000000000E+00
-0.5500090152385E+00 -0.4368001006246E+01  0.0000000000000E+00
-0.5500108182873E+00 -0.4295283740612E+01  0.0000000000000E+00
-0.5500126213350E+00 -0.4222566517955E+01  0.0000000000000E+00
-0.5500144243833E+00 -0.4149849268642E+01  0.0000000000000E+00
-0.5500162274315E+00 -0.4077132024669E+01  0.0000000000000E+00
-0.5500180304795E+00 -0.4004414788725E+01  0.0000000000000E+00
-0.5500198335279E+00 -0.3931697537561E+01  0.0000000000000E+00
-0.5500216365757E+00 -0.3858980310244E+01  0.0000000000000E+00
-0.5500234396243E+00 -0.3786263051191E+01  0.0000000000000E+00
-0.5500252426743E+00 -0.3713545732813E+01  0.0000000000000E+00
-0.5500270457239E+00 -0.3640828435130E+01  0.0000000000000E+00
-0.5500288487712E+00 -0.3568111224436E+01  0.0000000000000E+00
-0.5500306518345E+00 -0.3495393371759E+01  0.0000000000000E+00
-0.5500324548677E+00 -0.3422676734085E+01  0.0000000000000E+00
-0.5500342579162E+00 -0.3349959479596E+01  0.0000000000000E+00
-0.5500360609627E+00 -0.3277242304786E+01  0.0000000000000E+00
-0.5500378640069E+00 -0.3204525222595E+01  0.0000000000000E+00
-0.5500396670520E+00 -0.3131808103709E+01  0.0000000000000E+00
-0.5500414700979E+00 -0.3059090952303E+01  0.0000000000000E+00
-0.5500529476950E+00 -0.2986373738320E+01  0.0000000000000E+00
-0.5501364128136E+00 -0.2913656754436E+01  0.0000000000000E+00
-0.5503783904272E+00 -0.2840941338509E+01  0.0000000000000E+00
-0.5508577540385E+00 -0.2768230765247E+01  0.0000000000000E+00
-0.5516325612498E+00 -0.2695530717925E+01  0.0000000000000E+00
-0.5527400485558E+00 -0.2622848340613E+01  0.0000000000000E+00
-0.5542040252180E+00 -0.2550191965884E+01  0.0000000000000E+00
-0.5560434123399E+00 -0.2477570578353E+01  0.0000000000000E+00
-0.5582796149445E+00 -0.2404994893474E+01  0.0000000000000E+00
-0.5609420794508E+00 -0.2332478498149E+01  0.0000000000000E+00
-0.5640291493261E+00 -0.2260031204427E+01  0.0000000000000E+00
-0.5674976565036E+00 -0.2187654770253E+01  0.0000000000000E+00
-0.5713167848275E+00 -0.2115350873628E+01  0.0000000000000E+00
-0.5754686118071E+00 -0.2043122293177E+01  0.0000000000000E+00
-0.5799472887431E+00 -0.1970973930881E+01  0.0000000000000E+00
-0.5847617915126E+00 -0.1898914684902E+01  0.0000000000000E+00
-0.5899482163835E+00 -0.1826961763921E+01  0.0000000000000E+00
-0.5225031123729E+00 -0.4658813981278E+01  0.0000000000000E+00
-0.5225062247393E+00 -0.4586040988536E+01  0.0000000000000E+00
-0.5225093371249E+00 -0.4513267548907E+01  0.0000000000000E+00
-0.5225124495017E+00 -0.4440494313297E+01  0.0000000000000E+00
-0.5225155618779E+00 -0.4367721092158E+01  0.0000000000000E+00
-0.5225186742552E+00 -0.4294947843675E+01  0.0000000000000E+00
-0.5225217866308E+00 -0.4222174638202E+01  0.0000000000000E+00
-0.5225248990074E+00 -0.4149401406051E+01  0.0000000000000E+00
-0.5225280113839E+00 -0.4076628179245E+01  0.0000000000000E+00
-0.5225311237600E+00 -0.4003854960475E+01  0.0000000000000E+00
-0.5225342361367E+00 -0.3931081726473E+01  0.0000000000000E+00
-0.5225373485124E+00 -0.3858308516336E+01  0.0000000000000E+00
-0.5225404608895E+00 -0.3785535274437E+01  0.0000000000000E+00
-0.5225435732691E+00 -0.3712761973169E+01  0.0000000000000E+00
-0.5225466856479E+00 -0.3639988692612E+01  0.0000000000000E+00
-0.5225497980229E+00 -0.3567215499111E+01  0.0000000000000E+00
-0.5225529104254E+00 -0.3494441663132E+01  0.0000000000000E+00
-0.5225560227759E+00 -0.3421669043092E+01  0.0000000000000E+00
-0.5225591351527E+00 -0.3348895805762E+01  0.0000000000000E+00
-0.5225622475262E+00 -0.3276122648172E+01  0.0000000000000E+00
-0.5225653598957E+00 -0.3203349583273E+01  0.0000000000000E+00
-0.5225684722668E+00 -0.3130576481651E+01  0.0000000000000E+00
-0.5225715846393E+00 -0.3057803347483E+01  0.0000000000000E+00
-0.5225838878364E+00 -0.2985030150688E+01  0.0000000000000E+00
-0.5226645791765E+00 -0.2912257184026E+01  0.0000000000000E+00
-0.5228958573808E+00 -0.2839485785418E+01  0.0000000000000E+00
-0.5233526522770E+00 -0.2766719229496E+01  0.0000000000000E+00
-0.5240901185848E+00 -0.2693963199577E+01  0.0000000000000E+00
-0.5251436309752E+00 -0.2621224839666E+01  0.0000000000000E+00
-0.5265358082435E+00 -0.2548512482425E+01  0.0000000000000E+00
-0.5282846254413E+00 -0.2475835112332E+01  0.0000000000000E+00
-0.5304104173394E+00 -0.2403203444858E+01  0.0000000000000E+00
-0.5329411580310E+00 -0.2330631067071E+01  0.0000000000000E+00
-0.5358752738152E+00 -0.2258127790822E+01  0.0000000000000E+00
-0.5391717550294E+00 -0.2185695374059E+01  0.0000000000000E+00
-0.5428013263252E+00 -0.2113335494818E+01  0.0000000000000E+00
-0.5467469613379E+00 -0.2041050931690E+01  0.0000000000000E+00
-0.5510031038032E+00 -0.1968846586659E+01  0.0000000000000E+00
-0.5555782807994E+00 -0.1896731358076E+01  0.0000000000000E+00
-0.5605067837800E+00 -0.1824722454622E+01  0.0000000000000E+00
-0.4950042080534E+00 -0.4658760848519E+01  0.0000000000000E+00
-0.4950084160981E+00 -0.4585934723130E+01  0.0000000000000E+00
-0.4950126241686E+00 -0.4513108150526E+01  0.0000000000000E+00
-0.4950168322273E+00 -0.4440281782090E+01  0.0000000000000E+00
-0.4950210402851E+00 -0.4367455428137E+01  0.0000000000000E+00
-0.4950252483446E+00 -0.4294629046819E+01  0.0000000000000E+00
-0.4950294564015E+00 -0.4221802708543E+01  0.0000000000000E+00
-0.4950336644600E+00 -0.4148976343569E+01  0.0000000000000E+00
-0.4950378725182E+00 -0.4076149983944E+01  0.0000000000000E+00
-0.4950420805759E+00 -0.4003323632361E+01  0.0000000000000E+00
-0.4950462886345E+00 -0.3930497265535E+01  0.0000000000000E+00
-0.4950504966917E+00 -0.3857670922591E+01  0.0000000000000E+00
-0.4950547047508E+00 -0.3784844547863E+01  0.0000000000000E+00
-0.4950589128133E+00 -0.3712018113721E+01  0.0000000000000E+00
-0.4950631208746E+00 -0.3639191700306E+01  0.0000000000000E+00
-0.4950673289308E+00 -0.3566365374010E+01  0.0000000000000E+00
-0.4950715370242E+00 -0.3493538404768E+01  0.0000000000000E+00
-0.4950757450473E+00 -0.3420712652352E+01  0.0000000000000E+00
-0.4950799531061E+00 -0.3347886282195E+01  0.0000000000000E+00
-0.4950841611603E+00 -0.3275059991837E+01  0.0000000000000E+00
-0.4950883692091E+00 -0.3202233794237E+01  0.0000000000000E+00
-0.4950925772601E+00 -0.3129407559887E+01  0.0000000000000E+00
-0.4950967853129E+00 -0.3056581292968E+01  0.0000000000000E+00
-0.4951097004640E+00 -0.2983754963374E+01  0.0000000000000E+00
-0.4951874043817E+00 -0.2910928863946E+01  0.0000000000000E+00
-0.4954077695377E+00 -0.2838104332664E+01  0.0000000000000E+00
-0.4958417820870E+00 -0.2765284644087E+01  0.0000000000000E+00
-0.4965416938684E+00 -0.2692475481572E+01  0.0000000000000E+00
-0.4975410177298E+00 -0.2619683989065E+01  0.0000000000000E+00
-0.4988611820019E+00 -0.2546918499309E+01  0.0000000000000E+00
-0.5005192156838E+00 -0.2474187996655E+01  0.0000000000000E+00
-0.5025343832951E+00 -0.2401503196589E+01  0.0000000000000E+00
-0.5049331866049E+00 -0.2328877686334E+01  0.0000000000000E+00
-0.5077141347430E+00 -0.2256321277556E+01  0.0000000000000E+00
-0.5108383764496E+00 -0.2183835728204E+01  0.0000000000000E+00
-0.5142781771833E+00 -0.2111422716353E+01  0.0000000000000E+00
-0.5180174067047E+00 -0.2039085020552E+01  0.0000000000000E+00
-0.5220508011842E+00 -0.1966827542795E+01  0.0000000000000E+00
-0.5263864389021E+00 -0.1894659181612E+01  0.0000000000000E+00
-0.5310568064991E+00 -0.1822597145681E+01  0.0000000000000E+00
-0.4675051002525E+00 -0.4658710568986E+01  0.0000000000000E+00
-0.4675102004944E+00 -0.4585834164169E+01  0.0000000000000E+00
-0.4675153007675E+00 -0.4512957311829E+01  0.0000000000000E+00
-0.4675204010264E+00 -0.4440080663798E+01  0.0000000000000E+00
-0.4675255012843E+00 -0.4367204030259E+01  0.0000000000000E+00
-0.4675306015441E+00 -0.4294327369336E+01  0.0000000000000E+00
-0.4675357018008E+00 -0.4221450751485E+01  0.0000000000000E+00
-0.4675408020595E+00 -0.4148574106919E+01  0.0000000000000E+00
-0.4675459023178E+00 -0.4075697467704E+01  0.0000000000000E+00
-0.4675510025755E+00 -0.4002820836537E+01  0.0000000000000E+00
-0.4675561028342E+00 -0.3929944190116E+01  0.0000000000000E+00
-0.4675612030913E+00 -0.3857067567594E+01  0.0000000000000E+00
-0.4675663033506E+00 -0.3784190913266E+01  0.0000000000000E+00
-0.4675714036141E+00 -0.3711314199484E+01  0.0000000000000E+00
-0.4675765038762E+00 -0.3638437506442E+01  0.0000000000000E+00
-0.4675816041321E+00 -0.3565560900580E+01  0.0000000000000E+00
-0.4675867044331E+00 -0.3492683651327E+01  0.0000000000000E+00
-0.4675918046488E+00 -0.3419807619741E+01  0.0000000000000E+00
-0.4675969049078E+00 -0.3346930969987E+01  0.0000000000000E+00
-0.4676020051612E+00 -0.3274054400087E+01  0.0000000000000E+00
-0.4676071054081E+00 -0.3201177923009E+01  0.0000000000000E+00
-0.4676122056576E+00 -0.3128301409157E+01  0.0000000000000E+00
-0.4676173059094E+00 -0.3055424862712E+01  0.0000000000000E+00
-0.4676306295327E+00 -0.2982548253547E+01  0.0000000000000E+00
-0.4677051425463E+00 -0.2909671874579E+01  0.0000000000000E+00
-0.4679143911723E+00 -0.2836797063844E+01  0.0000000000000E+00
-0.4683254178920E+00 -0.2763927095833E+01  0.0000000000000E+00
-0.4689875716638E+00 -0.2691067653940E+01  0.0000000000000E+00
-0.4699325035119E+00 -0.2618225882054E+01  0.0000000000000E+00
-0.4711804513026E+00 -0.2545410112997E+01  0.0000000000000E+00
-0.4727474979822E+00 -0.2472629330997E+01  0.0000000000000E+00
-0.4746518378190E+00 -0.2399894251555E+01  0.0000000000000E+00
-0.4769185002582E+00 -0.2327218462044E+01  0.0000000000000E+00
-0.4795460772598E+00 -0.2254611773950E+01  0.0000000000000E+00
-0.4824978759672E+00 -0.2182075945228E+01  0.0000000000000E+00
-0.4857477026460E+00 -0.2109612653982E+01  0.0000000000000E+00
-0.4892803231818E+00 -0.2037224678732E+01  0.0000000000000E+00
-0.4930907661800E+00 -0.1964916921473E+01  0.0000000000000E+00
-0.4971866611237E+00 -0.1892698280907E+01  0.0000000000000E+00
-0.5015986898404E+00 -0.1820585965710E+01  0.0000000000000E+00
-0.4400057998211E+00 -0.4658663145781E+01  0.0000000000000E+00
-0.4400115996301E+00 -0.4585739317857E+01  0.0000000000000E+00
-0.4400173994747E+00 -0.4512815042119E+01  0.0000000000000E+00
-0.4400231993031E+00 -0.4439890970823E+01  0.0000000000000E+00
-0.4400289991303E+00 -0.4366966914029E+01  0.0000000000000E+00
-0.4400347989596E+00 -0.4294042829833E+01  0.0000000000000E+00
-0.4400405987856E+00 -0.4221118788737E+01  0.0000000000000E+00
-0.4400463986137E+00 -0.4148194720907E+01  0.0000000000000E+00
-0.4400521984413E+00 -0.4075270658434E+01  0.0000000000000E+00
-0.4400579982683E+00 -0.4002346604013E+01  0.0000000000000E+00
-0.4400637980966E+00 -0.3929422534328E+01  0.0000000000000E+00
-0.4400695979229E+00 -0.3856498488558E+01  0.0000000000000E+00
-0.4400753977517E+00 -0.3783574410961E+01  0.0000000000000E+00
-0.4400811975853E+00 -0.3710650273871E+01  0.0000000000000E+00
-0.4400869974173E+00 -0.3637726157535E+01  0.0000000000000E+00
-0.4400927972423E+00 -0.3564802128435E+01  0.0000000000000E+00
-0.4400985971185E+00 -0.3491877455526E+01  0.0000000000000E+00
-0.4401043968978E+00 -0.3418954001076E+01  0.0000000000000E+00
-0.4401101967263E+00 -0.3346029928056E+01  0.0000000000000E+00
-0.4401159965484E+00 -0.3273105934943E+01  0.0000000000000E+00
-0.4401217963631E+00 -0.3200182034711E+01  0.0000000000000E+00
-0.4401275961808E+00 -0.3127258097681E+01  0.0000000000000E+00
-0.4401333960011E+00 -0.3054334128038E+01  0.0000000000000E+00
-0.4401469354660E+00 -0.2981410095632E+01  0.0000000000000E+00
-0.4402180649440E+00 -0.2908486293451E+01  0.0000000000000E+00
-0.4404160044070E+00 -0.2835564059586E+01  0.0000000000000E+00
-0.4408038526617E+00 -0.2762646668462E+01  0.0000000000000E+00
-0.4414280557851E+00 -0.2689739803510E+01  0.0000000000000E+00
-0.4423184029774E+00 -0.2616850608563E+01  0.0000000000000E+00
-0.4434939416404E+00 -0.2543987416518E+01  0.0000000000000E+00
-0.4449698086669E+00 -0.2471159211489E+01  0.0000000000000E+00
-0.4467631280738E+00 -0.2398376708990E+01  0.0000000000000E+00
-0.4488974569826E+00 -0.2325653496533E+01  0.0000000000000E+00
-0.4513714701828E+00 -0.2252999385440E+01  0.0000000000000E+00
-0.4541506332215E+00 -0.2180416133664E+01  0.0000000000000E+00
-0.4572102931718E+00 -0.2107905419345E+01  0.0000000000000E+00
-0.4605361120445E+00 -0.2035470020967E+01  0.0000000000000E+00
-0.4641234108799E+00 -0.1963114840532E+01  0.0000000000000E+00
-0.4679793703646E+00 -0.1890848776901E+01  0.0000000000000E+00
-0.4721328675123E+00 -0.1818689038749E+01  0.0000000000000E+00
-0.4125063188255E+00 -0.4658618581908E+01  0.0000000000000E+00
-0.4125126376377E+00 -0.4585650190204E+01  0.0000000000000E+00
-0.4125189564888E+00 -0.4512681350412E+01  0.0000000000000E+00
-0.4125252753222E+00 -0.4439712715187E+01  0.0000000000000E+00
-0.4125315941543E+00 -0.4366744094473E+01  0.0000000000000E+00
-0.4125379129888E+00 -0.4293775446340E+01  0.0000000000000E+00
-0.4125442318196E+00 -0.4220806841334E+01  0.0000000000000E+00
-0.4125505506527E+00 -0.4147838209578E+01  0.0000000000000E+00
-0.4125568694853E+00 -0.4074869583181E+01  0.0000000000000E+00
-0.4125631883172E+00 -0.4001900964841E+01  0.0000000000000E+00
-0.4125695071504E+00 -0.3928932331228E+01  0.0000000000000E+00
-0.4125758259816E+00 -0.3855963721545E+01  0.0000000000000E+00
-0.4125821448155E+00 -0.3782995080015E+01  0.0000000000000E+00
-0.4125884636546E+00 -0.3710026378956E+01  0.0000000000000E+00
-0.4125947824919E+00 -0.3637057698663E+01  0.0000000000000E+00
-0.4126011013216E+00 -0.3564089105661E+01  0.0000000000000E+00
-0.4126074202071E+00 -0.3491119868455E+01  0.0000000000000E+00
-0.4126137389871E+00 -0.3418151850454E+01  0.0000000000000E+00
-0.4126200578206E+00 -0.3345183213504E+01  0.0000000000000E+00
-0.4126263766472E+00 -0.3272214656509E+01  0.0000000000000E+00
-0.4126326954657E+00 -0.3199246192453E+01  0.0000000000000E+00
-0.4126390142875E+00 -0.3126277691576E+01  0.0000000000000E+00
-0.4126453331121E+00 -0.3053309158066E+01  0.0000000000000E+00
-0.4126589078544E+00 -0.2980340561753E+01  0.0000000000000E+00
-0.4127264732346E+00 -0.2907372195693E+01  0.0000000000000E+00
-0.4129129229765E+00 -0.2834405398026E+01  0.0000000000000E+00
-0.4132774122137E+00 -0.2761443443115E+01  0.0000000000000E+00
-0.4138634841439E+00 -0.2688492014427E+01  0.0000000000000E+00
-0.4146990661436E+00 -0.2615558255743E+01  0.0000000000000E+00
-0.4158020151508E+00 -0.2542650500030E+01  0.0000000000000E+00
-0.4171865220053E+00 -0.2469777731294E+01  0.0000000000000E+00
-0.4188686404727E+00 -0.2396950665061E+01  0.0000000000000E+00
-0.4208704553524E+00 -0.2324182888976E+01  0.0000000000000E+00
-0.4231907242625E+00 -0.2251484214202E+01  0.0000000000000E+00
-0.4257970711529E+00 -0.2178856398696E+01  0.0000000000000E+00
-0.4286663839034E+00 -0.2106301120627E+01  0.0000000000000E+00
-0.4317852206497E+00 -0.2033821158450E+01  0.0000000000000E+00
-0.4351491948666E+00 -0.1961421414169E+01  0.0000000000000E+00
-0.4387650384451E+00 -0.1889110786798E+01  0.0000000000000E+00
-0.4426598235861E+00 -0.1816906485009E+01  0.0000000000000E+00
-0.3850066669832E+00 -0.4658576880046E+01  0.0000000000000E+00
-0.3850133339525E+00 -0.4585566786567E+01  0.0000000000000E+00
-0.3850200009627E+00 -0.4512556244743E+01  0.0000000000000E+00
-0.3850266679543E+00 -0.4439545907604E+01  0.0000000000000E+00
-0.3850333349445E+00 -0.4366535584984E+01  0.0000000000000E+00
-0.3850400019372E+00 -0.4293525234929E+01  0.0000000000000E+00
-0.3850466689260E+00 -0.4220514928026E+01  0.0000000000000E+00
-0.3850533359172E+00 -0.4147504594357E+01  0.0000000000000E+00
-0.3850600029079E+00 -0.4074494266050E+01  0.0000000000000E+00
-0.3850666698979E+00 -0.4001483945806E+01  0.0000000000000E+00
-0.3850733368893E+00 -0.3928473610280E+01  0.0000000000000E+00
-0.3850800038785E+00 -0.3855463298697E+01  0.0000000000000E+00
-0.3850866708707E+00 -0.3782452955249E+01  0.0000000000000E+00
-0.3850933378682E+00 -0.3709442552238E+01  0.0000000000000E+00
-0.3851000048639E+00 -0.3636432170005E+01  0.0000000000000E+00
-0.3851066718516E+00 -0.3563421875112E+01  0.0000000000000E+00
-0.3851133388981E+00 -0.3490410935648E+01  0.0000000000000E+00
-0.3851200058333E+00 -0.3417401216084E+01  0.0000000000000E+00
-0.3851266728250E+00 -0.3344390877219E+01  0.0000000000000E+00
-0.3851333398094E+00 -0.3271380618355E+01  0.0000000000000E+00
-0.3851400067853E+00 -0.3198370452482E+01  0.0000000000000E+00
-0.3851466737645E+00 -0.3125360249768E+01  0.0000000000000E+00
-0.3851533407468E+00 -0.3052350014401E+01  0.0000000000000E+00
-0.3851667799195E+00 -0.2979339716195E+01  0.0000000000000E+00
-0.3852306103528E+00 -0.2906329648266E+01  0.0000000000000E+00
-0.3854053995203E+00 -0.2833321148803E+01  0.0000000000000E+00
-0.3857463588799E+00 -0.2760317492112E+01  0.0000000000000E+00
-0.3862941287481E+00 -0.2687324361690E+01  0.0000000000000E+00
-0.3870747746768E+00 -0.2614348901271E+01  0.0000000000000E+00
-0.3881049631399E+00 -0.2541399443887E+01  0.0000000000000E+00
-0.3893979389227E+00 -0.2468484973444E+01  0.0000000000000E+00
-0.3909686855394E+00 -0.2395616205479E+01  0.0000000000000E+00
-0.3928378154667E+00 -0.2322806727761E+01  0.0000000000000E+00
-0.3950041691510E+00 -0.2250066351305E+01  0.0000000000000E+00
-0.3974375289459E+00 -0.2177396834071E+01  0.0000000000000E+00
-0.4001163235393E+00 -0.2104799854255E+01  0.0000000000000E+00
-0.4030280071917E+00 -0.2032278190284E+01  0.0000000000000E+00
-0.4061684858133E+00 -0.1959836744166E+01  0.0000000000000E+00
-0.4095440424992E+00 -0.1887484415058E+01  0.0000000000000E+00
-0.4131799446368E+00 -0.1815238411627E+01  0.0000000000000E+00
-0.3575068566982E+00 -0.4658538042865E+01  0.0000000000000E+00
-0.3575137133821E+00 -0.4585489112285E+01  0.0000000000000E+00
-0.3575205701081E+00 -0.4512439733123E+01  0.0000000000000E+00
-0.3575274268148E+00 -0.4439390558754E+01  0.0000000000000E+00
-0.3575342835202E+00 -0.4366341398912E+01  0.0000000000000E+00
-0.3575411402282E+00 -0.4293292211620E+01  0.0000000000000E+00
-0.3575479969321E+00 -0.4220243067503E+01  0.0000000000000E+00
-0.3575548536386E+00 -0.4147193896606E+01  0.0000000000000E+00
-0.3575617103445E+00 -0.4074144731074E+01  0.0000000000000E+00
-0.3575685670497E+00 -0.4001095573609E+01  0.0000000000000E+00
-0.3575754237563E+00 -0.3928046400854E+01  0.0000000000000E+00
-0.3575822804607E+00 -0.3854997252054E+01  0.0000000000000E+00
-0.3575891371681E+00 -0.3781948071373E+01  0.0000000000000E+00
-0.3575959938810E+00 -0.3708898831097E+01  0.0000000000000E+00
-0.3576028505920E+00 -0.3635849611611E+01  0.0000000000000E+00
-0.3576097072948E+00 -0.3562800479510E+01  0.0000000000000E+00
-0.3576165640582E+00 -0.3489750702496E+01  0.0000000000000E+00
-0.3576234207069E+00 -0.3416702146031E+01  0.0000000000000E+00
-0.3576302774139E+00 -0.3343652969935E+01  0.0000000000000E+00
-0.3576371341133E+00 -0.3270603873882E+01  0.0000000000000E+00
-0.3576439908040E+00 -0.3197554870871E+01  0.0000000000000E+00
-0.3576508474981E+00 -0.3124505830998E+01  0.0000000000000E+00
-0.3576577041953E+00 -0.3051456758456E+01  0.0000000000000E+00
-0.3576708493558E+00 -0.2978407623039E+01  0.0000000000000E+00
-0.3577307864007E+00 -0.2905358717923E+01  0.0000000000000E+00
-0.3578937565552E+00 -0.2832311381340E+01  0.0000000000000E+00
-0.3582110276026E+00 -0.2759268887544E+01  0.0000000000000E+00
-0.3587203369794E+00 -0.2686236920060E+01  0.0000000000000E+00
-0.3594458884130E+00 -0.2613222622579E+01  0.0000000000000E+00
-0.3604031579141E+00 -0.2540234328192E+01  0.0000000000000E+00
-0.3616044442134E+00 -0.2467281020712E+01  0.0000000000000E+00
-0.3630636605739E+00 -0.2394373415687E+01  0.0000000000000E+00
-0.3647999471507E+00 -0.2321525101001E+01  0.0000000000000E+00
-0.3668122272178E+00 -0.2248745887532E+01  0.0000000000000E+00
-0.3690724415322E+00 -0.2176037533241E+01  0.0000000000000E+00
-0.3715605595890E+00 -0.2103401716352E+01  0.0000000000000E+00
-0.3742649317735E+00 -0.2030841215263E+01  0.0000000000000E+00
-0.3771817564307E+00 -0.1958360931988E+01  0.0000000000000E+00
-0.3803168678611E+00 -0.1885969765814E+01  0.0000000000000E+00
-0.3836937286386E+00 -0.1813684925408E+01  0.0000000000000E+00
-0.3300068987676E+00 -0.4658502072758E+01  0.0000000000000E+00
-0.3300137975208E+00 -0.4585417172147E+01  0.0000000000000E+00
-0.3300206963164E+00 -0.4512331822732E+01  0.0000000000000E+00
-0.3300275950926E+00 -0.4439246678212E+01  0.0000000000000E+00
-0.3300344938675E+00 -0.4366161548225E+01  0.0000000000000E+00
-0.3300413926450E+00 -0.4293076390776E+01  0.0000000000000E+00
-0.3300482914184E+00 -0.4219991276521E+01  0.0000000000000E+00
-0.3300551901943E+00 -0.4146906135475E+01  0.0000000000000E+00
-0.3300620889697E+00 -0.4073820999796E+01  0.0000000000000E+00
-0.3300689877443E+00 -0.4000735872187E+01  0.0000000000000E+00
-0.3300758865204E+00 -0.3927650729281E+01  0.0000000000000E+00
-0.3300827852943E+00 -0.3854565610343E+01  0.0000000000000E+00
-0.3300896840711E+00 -0.3781480459507E+01  0.0000000000000E+00
-0.3300965828536E+00 -0.3708395249047E+01  0.0000000000000E+00
-0.3301034816341E+00 -0.3635310059386E+01  0.0000000000000E+00
-0.3301103804063E+00 -0.3562224957155E+01  0.0000000000000E+00
-0.3301172792395E+00 -0.3489139209693E+01  0.0000000000000E+00
-0.3301241779574E+00 -0.3416054683381E+01  0.0000000000000E+00
-0.3301310767338E+00 -0.3342969537132E+01  0.0000000000000E+00
-0.3301379755026E+00 -0.3269884470966E+01  0.0000000000000E+00
-0.3301448742627E+00 -0.3196799497888E+01  0.0000000000000E+00
-0.3301517730262E+00 -0.3123714487929E+01  0.0000000000000E+00
-0.3301586717929E+00 -0.3050629445286E+01  0.0000000000000E+00
-0.3301713752953E+00 -0.2977544339735E+01  0.0000000000000E+00
-0.3302272713064E+00 -0.2904459464508E+01  0.0000000000000E+00
-0.3303782748028E+00 -0.2831376157875E+01  0.0000000000000E+00
-0.3306717098932E+00 -0.2758297694042E+01  0.0000000000000E+00
-0.3311424111341E+00 -0.2685229756563E+01  0.0000000000000E+00
-0.3318127204285E+00 -0.2612179489085E+01  0.0000000000000E+00
-0.3326969233240E+00 -0.2539155224757E+01  0.0000000000000E+00
-0.3338063724964E+00 -0.2466165947304E+01  0.0000000000000E+00
-0.3351539109577E+00 -0.2393222372285E+01  0.0000000000000E+00
-0.3367572065418E+00 -0.2320338087689E+01  0.0000000000000E+00
-0.3386152653497E+00 -0.2247522904270E+01  0.0000000000000E+00
-0.3407021865415E+00 -0.2174778579988E+01  0.0000000000000E+00
-0.3429994804201E+00 -0.2102106793092E+01  0.0000000000000E+00
-0.3454963934951E+00 -0.2029510321956E+01  0.0000000000000E+00
-0.3481894165466E+00 -0.1956994068596E+01  0.0000000000000E+00
-0.3510839350807E+00 -0.1884566932422E+01  0.0000000000000E+00
-0.3542016068581E+00 -0.1812246122100E+01  0.0000000000000E+00
-0.3025068041260E+00 -0.4658468971956E+01  0.0000000000000E+00
-0.3025136082379E+00 -0.4585350970612E+01  0.0000000000000E+00
-0.3025204123915E+00 -0.4512232520260E+01  0.0000000000000E+00
-0.3025272165261E+00 -0.4439114274896E+01  0.0000000000000E+00
-0.3025340206593E+00 -0.4365996044072E+01  0.0000000000000E+00
-0.3025408247951E+00 -0.4292877785773E+01  0.0000000000000E+00
-0.3025476289268E+00 -0.4219759570689E+01  0.0000000000000E+00
-0.3025544330610E+00 -0.4146641328800E+01  0.0000000000000E+00
-0.3025612371948E+00 -0.4073523092281E+01  0.0000000000000E+00
-0.3025680413278E+00 -0.4000404863836E+01  0.0000000000000E+00
-0.3025748454622E+00 -0.3927286620088E+01  0.0000000000000E+00
-0.3025816495944E+00 -0.3854168400317E+01  0.0000000000000E+00
-0.3025884537295E+00 -0.3781050148635E+01  0.0000000000000E+00
-0.3025952578702E+00 -0.3707931837301E+01  0.0000000000000E+00
-0.3026020620090E+00 -0.3634813546776E+01  0.0000000000000E+00
-0.3026088661396E+00 -0.3561695343720E+01  0.0000000000000E+00
-0.3026156703303E+00 -0.3488576495141E+01  0.0000000000000E+00
-0.3026224744073E+00 -0.3415458868265E+01  0.0000000000000E+00
-0.3026292785420E+00 -0.3342340621172E+01  0.0000000000000E+00
-0.3026360826693E+00 -0.3269222454198E+01  0.0000000000000E+00
-0.3026428867879E+00 -0.3196104380354E+01  0.0000000000000E+00
-0.3026496909099E+00 -0.3122986269612E+01  0.0000000000000E+00
-0.3026564950350E+00 -0.3049868126171E+01  0.0000000000000E+00
-0.3026686201683E+00 -0.2976749919793E+01  0.0000000000000E+00
-0.3027203384337E+00 -0.2903631943759E+01  0.0000000000000E+00
-0.3028592385586E+00 -0.2830515536376E+01  0.0000000000000E+00
-0.3031287009763E+00 -0.2757403971806E+01  0.0000000000000E+00
-0.3035606573625E+00 -0.2684302933626E+01  0.0000000000000E+00
-0.3041755877955E+00 -0.2611219565447E+01  0.0000000000000E+00
-0.3049865873595E+00 -0.2538162200469E+01  0.0000000000000E+00
-0.3060040626750E+00 -0.2465139822337E+01  0.0000000000000E+00
-0.3072397865029E+00 -0.2392163146619E+01  0.0000000000000E+00
-0.3087099543557E+00 -0.2319245761402E+01  0.0000000000000E+00
-0.3104136551612E+00 -0.2246397477324E+01  0.0000000000000E+00
-0.3123271464832E+00 -0.2173620052345E+01  0.0000000000000E+00
-0.3144334794324E+00 -0.2100915164739E+01  0.0000000000000E+00
-0.3167227966432E+00 -0.2028285592855E+01  0.0000000000000E+00
-0.3191918813306E+00 -0.1955736238713E+01  0.0000000000000E+00
-0.3218456702067E+00 -0.1883276001836E+01  0.0000000000000E+00
-0.3247040162189E+00 -0.1810922090887E+01  0.0000000000000E+00
-0.2750065847907E+00 -0.4658438742560E+01  0.0000000000000E+00
-0.2750131695678E+00 -0.4585290511882E+01  0.0000000000000E+00
-0.2750197543852E+00 -0.4512141832011E+01  0.0000000000000E+00
-0.2750263391843E+00 -0.4438993357213E+01  0.0000000000000E+00
-0.2750329239819E+00 -0.4365844896960E+01  0.0000000000000E+00
-0.2750395087821E+00 -0.4292696409222E+01  0.0000000000000E+00
-0.2750460935784E+00 -0.4219547964716E+01  0.0000000000000E+00
-0.2750526783771E+00 -0.4146399493394E+01  0.0000000000000E+00
-0.2750592631753E+00 -0.4073251027445E+01  0.0000000000000E+00
-0.2750658479728E+00 -0.4000102569572E+01  0.0000000000000E+00
-0.2750724327716E+00 -0.3926954096390E+01  0.0000000000000E+00
-0.2750790175683E+00 -0.3853805647195E+01  0.0000000000000E+00
-0.2750856023679E+00 -0.3780657166076E+01  0.0000000000000E+00
-0.2750921871729E+00 -0.3707508625281E+01  0.0000000000000E+00
-0.2750987719759E+00 -0.3634360105303E+01  0.0000000000000E+00
-0.2751053567711E+00 -0.3561211672831E+01  0.0000000000000E+00
-0.2751119416245E+00 -0.3488062594568E+01  0.0000000000000E+00
-0.2751185263678E+00 -0.3414914738513E+01  0.0000000000000E+00
-0.2751251111669E+00 -0.3341766261985E+01  0.0000000000000E+00
-0.2751316959589E+00 -0.3268617865609E+01  0.0000000000000E+00
-0.2751382807424E+00 -0.3195469562401E+01  0.0000000000000E+00
-0.2751448655293E+00 -0.3122321222281E+01  0.0000000000000E+00
-0.2751514503191E+00 -0.3049172849447E+01  0.0000000000000E+00
-0.2751628723896E+00 -0.2976024413650E+01  0.0000000000000E+00
-0.2752102882170E+00 -0.2902876208215E+01  0.0000000000000E+00
-0.2753369602811E+00 -0.2829729571484E+01  0.0000000000000E+00
-0.2755823253407E+00 -0.2756587777576E+01  0.0000000000000E+00
-0.2759754121923E+00 -0.2683456510093E+01  0.0000000000000E+00
-0.2765348390895E+00 -0.2610342912610E+01  0.0000000000000E+00
-0.2772725106540E+00 -0.2537255318374E+01  0.0000000000000E+00
-0.2781978874511E+00 -0.2464202710958E+01  0.0000000000000E+00
-0.2793216719906E+00 -0.2391195805938E+01  0.0000000000000E+00
-0.2806585874648E+00 -0.2318248191491E+01  0.0000000000000E+00
-0.2822078056280E+00 -0.2245369678147E+01  0.0000000000000E+00
-0.2839477424465E+00 -0.2172562023869E+01  0.0000000000000E+00
-0.2858629898386E+00 -0.2099826906950E+01  0.0000000000000E+00
-0.2879445865631E+00 -0.2027167105719E+01  0.0000000000000E+00
-0.2901896082697E+00 -0.1954587522199E+01  0.0000000000000E+00
-0.2926025428774E+00 -0.1882097056015E+01  0.0000000000000E+00
-0.2952014385204E+00 -0.1809712915830E+01  0.0000000000000E+00
-0.2475062510879E+00 -0.4658411386417E+01  0.0000000000000E+00
-0.2475125021628E+00 -0.4585235799654E+01  0.0000000000000E+00
-0.2475187532761E+00 -0.4512059763530E+01  0.0000000000000E+00
-0.2475250043718E+00 -0.4438883932554E+01  0.0000000000000E+00
-0.2475312554664E+00 -0.4365708116131E+01  0.0000000000000E+00
-0.2475375065632E+00 -0.4292532272210E+01  0.0000000000000E+00
-0.2475437576564E+00 -0.4219356471539E+01  0.0000000000000E+00
-0.2475500087518E+00 -0.4146180644042E+01  0.0000000000000E+00
-0.2475562598468E+00 -0.4073004821919E+01  0.0000000000000E+00
-0.2475625109411E+00 -0.3999829007876E+01  0.0000000000000E+00
-0.2475687620368E+00 -0.3926653178517E+01  0.0000000000000E+00
-0.2475750131303E+00 -0.3853477373156E+01  0.0000000000000E+00
-0.2475812642266E+00 -0.3780301535857E+01  0.0000000000000E+00
-0.2475875153280E+00 -0.3707125638860E+01  0.0000000000000E+00
-0.2475937664276E+00 -0.3633949762689E+01  0.0000000000000E+00
-0.2476000175198E+00 -0.3560773974055E+01  0.0000000000000E+00
-0.2476062686671E+00 -0.3487597539390E+01  0.0000000000000E+00
-0.2476125197100E+00 -0.3414422327390E+01  0.0000000000000E+00
-0.2476187708059E+00 -0.3341246494684E+01  0.0000000000000E+00
-0.2476250218949E+00 -0.3268070742161E+01  0.0000000000000E+00
-0.2476312729760E+00 -0.3194895082840E+01  0.0000000000000E+00
-0.2476375240603E+00 -0.3121719386594E+01  0.0000000000000E+00
-0.2476437751473E+00 -0.3048543657622E+01  0.0000000000000E+00
-0.2476543797871E+00 -0.2975367865661E+01  0.0000000000000E+00
-0.2476973788073E+00 -0.2902192304079E+01  0.0000000000000E+00
-0.2478117084387E+00 -0.2829018311249E+01  0.0000000000000E+00
-0.2480328617639E+00 -0.2755849161253E+01  0.0000000000000E+00
-0.2483869646989E+00 -0.2682690537711E+01  0.0000000000000E+00
-0.2488907736722E+00 -0.2609549584168E+01  0.0000000000000E+00
-0.2495550028424E+00 -0.2536434633916E+01  0.0000000000000E+00
-0.2503881667191E+00 -0.2463354670459E+01  0.0000000000000E+00
-0.2513998975606E+00 -0.2390320409382E+01  0.0000000000000E+00
-0.2526034462390E+00 -0.2317345438943E+01  0.0000000000000E+00
-0.2539980673341E+00 -0.2244439569574E+01  0.0000000000000E+00
-0.2555643352162E+00 -0.2171604559242E+01  0.0000000000000E+00
-0.2572883826116E+00 -0.2098842086256E+01  0.0000000000000E+00
-0.2591621444036E+00 -0.2026154928927E+01  0.0000000000000E+00
-0.2611829886770E+00 -0.1953547989281E+01  0.0000000000000E+00
-0.2633549545578E+00 -0.1881030167037E+01  0.0000000000000E+00
-0.2656942853663E+00 -0.1808618670854E+01  0.0000000000000E+00
-0.2200058151317E+00 -0.4658386905273E+01  0.0000000000000E+00
-0.2200116302512E+00 -0.4585186837416E+01  0.0000000000000E+00
-0.2200174454065E+00 -0.4511986320049E+01  0.0000000000000E+00
-0.2200232605455E+00 -0.4438786007899E+01  0.0000000000000E+00
-0.2200290756833E+00 -0.4365585710305E+01  0.0000000000000E+00
-0.2200348908233E+00 -0.4292385385205E+01  0.0000000000000E+00
-0.2200407059598E+00 -0.4219185103369E+01  0.0000000000000E+00
-0.2200465210985E+00 -0.4145984794698E+01  0.0000000000000E+00
-0.2200523362367E+00 -0.4072784491403E+01  0.0000000000000E+00
-0.2200581513744E+00 -0.3999584196191E+01  0.0000000000000E+00
-0.2200639665132E+00 -0.3926383885658E+01  0.0000000000000E+00
-0.2200697816501E+00 -0.3853183599130E+01  0.0000000000000E+00
-0.2200755967896E+00 -0.3779983280655E+01  0.0000000000000E+00
-0.2200814119338E+00 -0.3706782902461E+01  0.0000000000000E+00
-0.2200872270764E+00 -0.3633582545100E+01  0.0000000000000E+00
-0.2200930422120E+00 -0.3560382275305E+01  0.0000000000000E+00
-0.2200988573989E+00 -0.3487181359263E+01  0.0000000000000E+00
-0.2201046724887E+00 -0.3413981666295E+01  0.0000000000000E+00
-0.2201104876278E+00 -0.3340781352414E+01  0.0000000000000E+00
-0.2201163027605E+00 -0.3267581118742E+01  0.0000000000000E+00
-0.2201221178858E+00 -0.3194380978304E+01  0.0000000000000E+00
-0.2201279330141E+00 -0.3121180800927E+01  0.0000000000000E+00
-0.2201337481449E+00 -0.3047980590815E+01  0.0000000000000E+00
-0.2201434331007E+00 -0.2974780317691E+01  0.0000000000000E+00
-0.2201819130612E+00 -0.2901580274962E+01  0.0000000000000E+00
-0.2202837980092E+00 -0.2828381801026E+01  0.0000000000000E+00
-0.2204806373518E+00 -0.2755188169933E+01  0.0000000000000E+00
-0.2207956541254E+00 -0.2682005065322E+01  0.0000000000000E+00
-0.2212437429334E+00 -0.2608839630710E+01  0.0000000000000E+00
-0.2218344274720E+00 -0.2535700199426E+01  0.0000000000000E+00
-0.2225752761947E+00 -0.2462595754916E+01  0.0000000000000E+00
-0.2234748511090E+00 -0.2389537012771E+01  0.0000000000000E+00
-0.2245449307669E+00 -0.2316537561322E+01  0.0000000000000E+00
-0.2257848525739E+00 -0.2243607210915E+01  0.0000000000000E+00
-0.2271773493033E+00 -0.2170747719517E+01  0.0000000000000E+00
-0.2287100944895E+00 -0.2097960765455E+01  0.0000000000000E+00
-0.2303759191400E+00 -0.2025249127022E+01  0.0000000000000E+00
-0.2321724837746E+00 -0.1952617706247E+01  0.0000000000000E+00
-0.2341033787265E+00 -0.1880075402931E+01  0.0000000000000E+00
-0.2361830425028E+00 -0.1807639425734E+01  0.0000000000000E+00
-0.1925052879758E+00 -0.4658365300648E+01  0.0000000000000E+00
-0.1925105759406E+00 -0.4585143628212E+01  0.0000000000000E+00
-0.1925158639379E+00 -0.4511921506133E+01  0.0000000000000E+00
-0.1925211519204E+00 -0.4438699589331E+01  0.0000000000000E+00
-0.1925264399018E+00 -0.4365477687090E+01  0.0000000000000E+00
-0.1925317278851E+00 -0.4292255757335E+01  0.0000000000000E+00
-0.1925370158654E+00 -0.4219033870856E+01  0.0000000000000E+00
-0.1925423038476E+00 -0.4145811957534E+01  0.0000000000000E+00
-0.1925475918294E+00 -0.4072590049591E+01  0.0000000000000E+00
-0.1925528798106E+00 -0.3999368149732E+01  0.0000000000000E+00
-0.1925581677930E+00 -0.3926146234548E+01  0.0000000000000E+00
-0.1925634557736E+00 -0.3852924343376E+01  0.0000000000000E+00
-0.1925687437565E+00 -0.3779702420247E+01  0.0000000000000E+00
-0.1925740317437E+00 -0.3706480437382E+01  0.0000000000000E+00
-0.1925793197294E+00 -0.3633258475356E+01  0.0000000000000E+00
-0.1925846077088E+00 -0.3560036600922E+01  0.0000000000000E+00
-0.1925898957349E+00 -0.3486814080050E+01  0.0000000000000E+00
-0.1925951836726E+00 -0.3413592782614E+01  0.0000000000000E+00
-0.1926004716552E+00 -0.3340370864080E+01  0.0000000000000E+00
-0.1926057596320E+00 -0.3267149025780E+01  0.0000000000000E+00
-0.1926110476020E+00 -0.3193927280741E+01  0.0000000000000E+00
-0.1926163355748E+00 -0.3120705498753E+01  0.0000000000000E+00
-0.1926216235498E+00 -0.3047483684019E+01  0.0000000000000E+00
-0.1926302976219E+00 -0.2974261806254E+01  0.0000000000000E+00
-0.1926641673231E+00 -0.2901040158897E+01  0.0000000000000E+00
-0.1927535163882E+00 -0.2827820080371E+01  0.0000000000000E+00
-0.1929259505487E+00 -0.2754604844696E+01  0.0000000000000E+00
-0.1932017899616E+00 -0.2681400135527E+01  0.0000000000000E+00
-0.1935940674049E+00 -0.2608213096357E+01  0.0000000000000E+00
-0.1941111161126E+00 -0.2535052060547E+01  0.0000000000000E+00
-0.1947595584820E+00 -0.2461926011493E+01  0.0000000000000E+00
-0.1955468862697E+00 -0.2388845664791E+01  0.0000000000000E+00
-0.1964834057080E+00 -0.2315824608836E+01  0.0000000000000E+00
-0.1975685370274E+00 -0.2242872653898E+01  0.0000000000000E+00
-0.1987871714047E+00 -0.2169991557945E+01  0.0000000000000E+00
-0.2001285231822E+00 -0.2097182999318E+01  0.0000000000000E+00
-0.2015863194915E+00 -0.2024449756296E+01  0.0000000000000E+00
-0.2031585132875E+00 -0.1951796730910E+01  0.0000000000000E+00
-0.2048482461110E+00 -0.1879232823034E+01  0.0000000000000E+00
-0.2066681516558E+00 -0.1806775241326E+01  0.0000000000000E+00
-0.1650046808342E+00 -0.4658346573894E+01  0.0000000000000E+00
-0.1650093616587E+00 -0.4585106174743E+01  0.0000000000000E+00
-0.1650140425120E+00 -0.4511865325833E+01  0.0000000000000E+00
-0.1650187233521E+00 -0.4438624682253E+01  0.0000000000000E+00
-0.1650234041912E+00 -0.4365384053239E+01  0.0000000000000E+00
-0.1650280850322E+00 -0.4292143396702E+01  0.0000000000000E+00
-0.1650327658704E+00 -0.4218902783454E+01  0.0000000000000E+00
-0.1650374467102E+00 -0.4145662143355E+01  0.0000000000000E+00
-0.1650421275498E+00 -0.4072421508636E+01  0.0000000000000E+00
-0.1650468083888E+00 -0.3999180882004E+01  0.0000000000000E+00
-0.1650514892288E+00 -0.3925940240043E+01  0.0000000000000E+00
-0.1650561700673E+00 -0.3852699622099E+01  0.0000000000000E+00
-0.1650608509078E+00 -0.3779458972191E+01  0.0000000000000E+00
-0.1650655317521E+00 -0.3706218262532E+01  0.0000000000000E+00
-0.1650702125951E+00 -0.3632977573716E+01  0.0000000000000E+00
-0.1650748934325E+00 -0.3559736972516E+01  0.0000000000000E+00
-0.1650795743113E+00 -0.3486495724711E+01  0.0000000000000E+00
-0.1650842551118E+00 -0.3413255700655E+01  0.0000000000000E+00
-0.1650889359520E+00 -0.3340015055344E+01  0.0000000000000E+00
-0.1650936167871E+00 -0.3266774490286E+01  0.0000000000000E+00
-0.1650982976162E+00 -0.3193534018513E+01  0.0000000000000E+00
-0.1651029784477E+00 -0.3120293509782E+01  0.0000000000000E+00
-0.1651076592813E+00 -0.3047052968296E+01  0.0000000000000E+00
-0.1651152424838E+00 -0.2973812363763E+01  0.0000000000000E+00
-0.1651444219395E+00 -0.2900571989649E+01  0.0000000000000E+00
-0.1652211551347E+00 -0.2827333184399E+01  0.0000000000000E+00
-0.1653691041251E+00 -0.2754099222006E+01  0.0000000000000E+00
-0.1656056861875E+00 -0.2680875786140E+01  0.0000000000000E+00
-0.1659420722746E+00 -0.2607670020273E+01  0.0000000000000E+00
-0.1663854051581E+00 -0.2534490257795E+01  0.0000000000000E+00
-0.1669413611788E+00 -0.2461345482056E+01  0.0000000000000E+00
-0.1676163618420E+00 -0.2388246408658E+01  0.0000000000000E+00
-0.1684192410609E+00 -0.2315206626052E+01  0.0000000000000E+00
-0.1693495018906E+00 -0.2242235944441E+01  0.0000000000000E+00
-0.1703941939114E+00 -0.2169336121793E+01  0.0000000000000E+00
-0.1715440722738E+00 -0.2096508836464E+01  0.0000000000000E+00
-0.1727937602337E+00 -0.2023756866719E+01  0.0000000000000E+00
-0.1741415031809E+00 -0.1951085114590E+01  0.0000000000000E+00
-0.1755899938642E+00 -0.1878502480015E+01  0.0000000000000E+00
-0.1771500611639E+00 -0.1806026171652E+01  0.0000000000000E+00
-0.1375040054788E+00 -0.4658330726195E+01  0.0000000000000E+00
-0.1375080109493E+00 -0.4585074479377E+01  0.0000000000000E+00
-0.1375120164444E+00 -0.4511817782703E+01  0.0000000000000E+00
-0.1375160219283E+00 -0.4438561291404E+01  0.0000000000000E+00
-0.1375200274113E+00 -0.4365304814673E+01  0.0000000000000E+00
-0.1375240328959E+00 -0.4292048310415E+01  0.0000000000000E+00
-0.1375280383781E+00 -0.4218791849453E+01  0.0000000000000E+00
-0.1375320438618E+00 -0.4145535361636E+01  0.0000000000000E+00
-0.1375360493451E+00 -0.4072278879200E+01  0.0000000000000E+00
-0.1375400548281E+00 -0.3999022404852E+01  0.0000000000000E+00
-0.1375440603118E+00 -0.3925765915171E+01  0.0000000000000E+00
-0.1375480657943E+00 -0.3852509449514E+01  0.0000000000000E+00
-0.1375520712785E+00 -0.3779252951886E+01  0.0000000000000E+00
-0.1375560767660E+00 -0.3705996394492E+01  0.0000000000000E+00
-0.1375600822523E+00 -0.3632739857948E+01  0.0000000000000E+00
-0.1375640877338E+00 -0.3559483409037E+01  0.0000000000000E+00
-0.1375680932507E+00 -0.3486226313383E+01  0.0000000000000E+00
-0.1375720987007E+00 -0.3412970441741E+01  0.0000000000000E+00
-0.1375761041846E+00 -0.3339713948710E+01  0.0000000000000E+00
-0.1375801096642E+00 -0.3266457535950E+01  0.0000000000000E+00
-0.1375841151387E+00 -0.3193201216495E+01  0.0000000000000E+00
-0.1375881206152E+00 -0.3119944860073E+01  0.0000000000000E+00
-0.1375921260934E+00 -0.3046688470890E+01  0.0000000000000E+00
-0.1375985502126E+00 -0.2973432018646E+01  0.0000000000000E+00
-0.1376229712097E+00 -0.2900175796830E+01  0.0000000000000E+00
-0.1376870203236E+00 -0.2826921143905E+01  0.0000000000000E+00
-0.1378104159346E+00 -0.2753671333843E+01  0.0000000000000E+00
-0.1380076724401E+00 -0.2680432050327E+01  0.0000000000000E+00
-0.1382880989677E+00 -0.2607210436809E+01  0.0000000000000E+00
-0.1386576478271E+00 -0.2534014826704E+01  0.0000000000000E+00
-0.1391210493026E+00 -0.2460854203325E+01  0.0000000000000E+00
-0.1396836546487E+00 -0.2387739282277E+01  0.0000000000000E+00
-0.1403528254594E+00 -0.2314683652058E+01  0.0000000000000E+00
-0.1411281476146E+00 -0.2241697122816E+01  0.0000000000000E+00
-0.1419988290975E+00 -0.2168781452520E+01  0.0000000000000E+00
-0.1429571658668E+00 -0.2095938319535E+01  0.0000000000000E+00
-0.1439986773022E+00 -0.2023170502116E+01  0.0000000000000E+00
-0.1451219012286E+00 -0.1950482902297E+01  0.0000000000000E+00
-0.1463290816030E+00 -0.1877884420070E+01  0.0000000000000E+00
-0.1476292424924E+00 -0.1805392264092E+01  0.0000000000000E+00
-0.1100032727679E+00 -0.4658317758532E+01  0.0000000000000E+00
-0.1100065455290E+00 -0.4585048544080E+01  0.0000000000000E+00
-0.1100098183102E+00 -0.4511778879691E+01  0.0000000000000E+00
-0.1100130910822E+00 -0.4438509420714E+01  0.0000000000000E+00
-0.1100163638535E+00 -0.4365239976307E+01  0.0000000000000E+00
-0.1100196366261E+00 -0.4291970504368E+01  0.0000000000000E+00
-0.1100229093967E+00 -0.4218701075733E+01  0.0000000000000E+00
-0.1100261821686E+00 -0.4145431620239E+01  0.0000000000000E+00
-0.1100294549402E+00 -0.4072162170125E+01  0.0000000000000E+00
-0.1100327277114E+00 -0.3998892728102E+01  0.0000000000000E+00
-0.1100360004834E+00 -0.3925623270744E+01  0.0000000000000E+00
-0.1100392732542E+00 -0.3852353837413E+01  0.0000000000000E+00
-0.1100425460265E+00 -0.3779084372104E+01  0.0000000000000E+00
-0.1100458188015E+00 -0.3705814847021E+01  0.0000000000000E+00
-0.1100490915755E+00 -0.3632545342790E+01  0.0000000000000E+00
-0.1100523643456E+00 -0.3559275926208E+01  0.0000000000000E+00
-0.1100556371446E+00 -0.3486005862769E+01  0.0000000000000E+00
-0.1100589098889E+00 -0.3412737023558E+01  0.0000000000000E+00
-0.1100621826610E+00 -0.3339467562849E+01  0.0000000000000E+00
-0.1100654554295E+00 -0.3266198182424E+01  0.0000000000000E+00
-0.1100687281938E+00 -0.3192928895321E+01  0.0000000000000E+00
-0.1100720009598E+00 -0.3119659571245E+01  0.0000000000000E+00
-0.1100752737272E+00 -0.3046390214401E+01  0.0000000000000E+00
-0.1100804814074E+00 -0.2973120794485E+01  0.0000000000000E+00
-0.1101000865895E+00 -0.2899851605005E+01  0.0000000000000E+00
-0.1101513942642E+00 -0.2826583984439E+01  0.0000000000000E+00
-0.1102501791352E+00 -0.2753321206740E+01  0.0000000000000E+00
-0.1104080527204E+00 -0.2680068955602E+01  0.0000000000000E+00
-0.1106324623216E+00 -0.2606834374461E+01  0.0000000000000E+00
-0.1109281697863E+00 -0.2533625796754E+01  0.0000000000000E+00
-0.1112989593421E+00 -0.2460452205761E+01  0.0000000000000E+00
-0.1117491119923E+00 -0.2387324317091E+01  0.0000000000000E+00
-0.1122845170118E+00 -0.2314255719281E+01  0.0000000000000E+00
-0.1129048431049E+00 -0.2241256222433E+01  0.0000000000000E+00
-0.1136014566584E+00 -0.2168327584516E+01  0.0000000000000E+00
-0.1143681944392E+00 -0.2095471483905E+01  0.0000000000000E+00
-0.1152014719513E+00 -0.2022690698846E+01  0.0000000000000E+00
-0.1161001194546E+00 -0.1949990131373E+01  0.0000000000000E+00
-0.1170659321143E+00 -0.1877378681522E+01  0.0000000000000E+00
-0.1181061291839E+00 -0.1804873557950E+01  0.0000000000000E+00
-0.8250249454314E-01 -0.4658307671731E+01  0.0000000000000E+00
-0.8250498908109E-01 -0.4585028370497E+01  0.0000000000000E+00
-0.8250748363435E-01 -0.4511748619267E+01  0.0000000000000E+00
-0.8250997818062E-01 -0.4438469073475E+01  0.0000000000000E+00
-0.8251247272640E-01 -0.4365189542255E+01  0.0000000000000E+00
-0.8251496727311E-01 -0.4291909983500E+01  0.0000000000000E+00
-0.8251746181835E-01 -0.4218630468056E+01  0.0000000000000E+00
-0.8251995636450E-01 -0.4145350925747E+01  0.0000000000000E+00
-0.8252245091047E-01 -0.4072071388821E+01  0.0000000000000E+00
-0.8252494545616E-01 -0.3998791859985E+01  0.0000000000000E+00
-0.8252744000238E-01 -0.3925512315813E+01  0.0000000000000E+00
-0.8252993454778E-01 -0.3852232795671E+01  0.0000000000000E+00
-0.8253242909426E-01 -0.3778953243548E+01  0.0000000000000E+00
-0.8253492364278E-01 -0.3705673631641E+01  0.0000000000000E+00
-0.8253741819059E-01 -0.3632394040589E+01  0.0000000000000E+00
-0.8253991273542E-01 -0.3559114537199E+01  0.0000000000000E+00
-0.8254240730227E-01 -0.3485834386862E+01  0.0000000000000E+00
-0.8254490182744E-01 -0.3412555460923E+01  0.0000000000000E+00
-0.8254739637377E-01 -0.3339275913399E+01  0.0000000000000E+00
-0.8254989091737E-01 -0.3265996446170E+01  0.0000000000000E+00
-0.8255238545779E-01 -0.3192717072277E+01  0.0000000000000E+00
-0.8255487999946E-01 -0.3119437661405E+01  0.0000000000000E+00
-0.8255737454226E-01 -0.3046158217761E+01  0.0000000000000E+00
-0.8256132026964E-01 -0.2972878711036E+01  0.0000000000000E+00
-0.8257606412342E-01 -0.2899599434752E+01  0.0000000000000E+00
-0.8261458484651E-01 -0.2826321727400E+01  0.0000000000000E+00
-0.8268871346684E-01 -0.2753048862920E+01  0.0000000000000E+00
-0.8280715862262E-01 -0.2679786525011E+01  0.0000000000000E+00
-0.8297550579031E-01 -0.2606541857099E+01  0.0000000000000E+00
-0.8319732635544E-01 -0.2533323192637E+01  0.0000000000000E+00
-0.8347545848869E-01 -0.2460139514879E+01  0.0000000000000E+00
-0.8381311294265E-01 -0.2387001539440E+01  0.0000000000000E+00
-0.8421470667327E-01 -0.2313922854883E+01  0.0000000000000E+00
-0.8467999120903E-01 -0.2240913271277E+01  0.0000000000000E+00
-0.8520249134003E-01 -0.2167974546591E+01  0.0000000000000E+00
-0.8577758464144E-01 -0.2095108359206E+01  0.0000000000000E+00
-0.8640258274117E-01 -0.2022317487362E+01  0.0000000000000E+00
-0.8707660833415E-01 -0.1949606833093E+01  0.0000000000000E+00
-0.8780100779414E-01 -0.1876985296471E+01  0.0000000000000E+00
-0.8858119556126E-01 -0.1804470086151E+01  0.0000000000000E+00
-0.5500168202915E-01 -0.4658300466420E+01  0.0000000000000E+00
-0.5500336405479E-01 -0.4585013959890E+01  0.0000000000000E+00
-0.5500504609076E-01 -0.4511727003319E+01  0.0000000000000E+00
-0.5500672812202E-01 -0.4438440252207E+01  0.0000000000000E+00
-0.5500841015294E-01 -0.4365153515669E+01  0.0000000000000E+00
-0.5501009218450E-01 -0.4291866751592E+01  0.0000000000000E+00
-0.5501177421506E-01 -0.4218580030830E+01  0.0000000000000E+00
-0.5501345624623E-01 -0.4145293283201E+01  0.0000000000000E+00
-0.5501513827729E-01 -0.4072006540956E+01  0.0000000000000E+00
-0.5501682030815E-01 -0.3998719806802E+01  0.0000000000000E+00
-0.5501850233937E-01 -0.3925433057309E+01  0.0000000000000E+00
-0.5502018437004E-01 -0.3852146331850E+01  0.0000000000000E+00
-0.5502186640144E-01 -0.3778859574406E+01  0.0000000000000E+00
-0.5502354843422E-01 -0.3705572757172E+01  0.0000000000000E+00
-0.5502523046651E-01 -0.3632285960796E+01  0.0000000000000E+00
-0.5502691249680E-01 -0.3558999252090E+01  0.0000000000000E+00
-0.5502859454193E-01 -0.3485711896373E+01  0.0000000000000E+00
-0.5503027655896E-01 -0.3412425765174E+01  0.0000000000000E+00
-0.5503195859026E-01 -0.3339139012330E+01  0.0000000000000E+00
-0.5503364061971E-01 -0.3265852339789E+01  0.0000000000000E+00
-0.5503532264702E-01 -0.3192565760592E+01  0.0000000000000E+00
-0.5503700467518E-01 -0.3119279144413E+01  0.0000000000000E+00
-0.5503868670409E-01 -0.3045992495459E+01  0.0000000000000E+00
-0.5504133618940E-01 -0.2972705783417E+01  0.0000000000000E+00
-0.5505118442552E-01 -0.2899419301821E+01  0.0000000000000E+00
-0.5507688390763E-01 -0.2826134389170E+01  0.0000000000000E+00
-0.5512632198758E-01 -0.2752854319392E+01  0.0000000000000E+00
-0.5520530442408E-01 -0.2679584776194E+01  0.0000000000000E+00
-0.5531755486806E-01 -0.2606332902993E+01  0.0000000000000E+00
-0.5546545424311E-01 -0.2533107033253E+01  0.0000000000000E+00
-0.5565089466302E-01 -0.2459916150211E+01  0.0000000000000E+00
-0.5587601662944E-01 -0.2386770969482E+01  0.0000000000000E+00
-0.5614376477954E-01 -0.2313685079654E+01  0.0000000000000E+00
-0.5645397346590E-01 -0.2240668290768E+01  0.0000000000000E+00
-0.5680232588196E-01 -0.2167722360794E+01  0.0000000000000E+00
-0.5718574041112E-01 -0.2094848968118E+01  0.0000000000000E+00
-0.5760242480531E-01 -0.2022050890974E+01  0.0000000000000E+00
-0.5805179419448E-01 -0.1949333031399E+01  0.0000000000000E+00
-0.5853474616100E-01 -0.1876704289487E+01  0.0000000000000E+00
-0.5905489033159E-01 -0.1804181873893E+01  0.0000000000000E+00
-0.2750084664702E-01 -0.4658296143052E+01  0.0000000000000E+00
-0.2750169329227E-01 -0.4585005313163E+01  0.0000000000000E+00
-0.2750253994273E-01 -0.4511714033207E+01  0.0000000000000E+00
-0.2750338659081E-01 -0.4438422958722E+01  0.0000000000000E+00
-0.2750423323872E-01 -0.4365131898811E+01  0.0000000000000E+00
-0.2750507988695E-01 -0.4291840811361E+01  0.0000000000000E+00
-0.2750592653468E-01 -0.4218549767228E+01  0.0000000000000E+00
-0.2750677318272E-01 -0.4145258696226E+01  0.0000000000000E+00
-0.2750761983069E-01 -0.4071967630608E+01  0.0000000000000E+00
-0.2750846647858E-01 -0.3998676573082E+01  0.0000000000000E+00
-0.2750931312664E-01 -0.3925385500216E+01  0.0000000000000E+00
-0.2751015977442E-01 -0.3852094451385E+01  0.0000000000000E+00
-0.2751100642257E-01 -0.3778803370567E+01  0.0000000000000E+00
-0.2751185307142E-01 -0.3705512229957E+01  0.0000000000000E+00
-0.2751269972002E-01 -0.3632221110204E+01  0.0000000000000E+00
-0.2751354636761E-01 -0.3558930078128E+01  0.0000000000000E+00
-0.2751439302267E-01 -0.3485638399002E+01  0.0000000000000E+00
-0.2751523966359E-01 -0.3412347944467E+01  0.0000000000000E+00
-0.2751608631169E-01 -0.3339056868249E+01  0.0000000000000E+00
-0.2751693295887E-01 -0.3265765872339E+01  0.0000000000000E+00
-0.2751777960496E-01 -0.3192474969780E+01  0.0000000000000E+00
-0.2751862625148E-01 -0.3119184030236E+01  0.0000000000000E+00
-0.2751947289838E-01 -0.3045893057915E+01  0.0000000000000E+00
-0.2752080327345E-01 -0.2972602022502E+01  0.0000000000000E+00
-0.2752573302372E-01 -0.2899311217538E+01  0.0000000000000E+00
-0.2753858839655E-01 -0.2826021981525E+01  0.0000000000000E+00
-0.2756331306764E-01 -0.2752737588388E+01  0.0000000000000E+00
-0.2760280991616E-01 -0.2679463721835E+01  0.0000000000000E+00
-0.2765894076745E-01 -0.2606207525280E+01  0.0000000000000E+00
-0.2773289608320E-01 -0.2532977332192E+01  0.0000000000000E+00
-0.2782562192022E-01 -0.2459782125798E+01  0.0000000000000E+00
-0.2793818852921E-01 -0.2386632621716E+01  0.0000000000000E+00
-0.2807206822860E-01 -0.2313542408544E+01  0.0000000000000E+00
-0.2822717819500E-01 -0.2240521296308E+01  0.0000000000000E+00
-0.2840136002522E-01 -0.2167571042980E+01  0.0000000000000E+00
-0.2859307291094E-01 -0.2094693326949E+01  0.0000000000000E+00
-0.2880142072809E-01 -0.2021890926444E+01  0.0000000000000E+00
-0.2902611104167E-01 -0.1949168743503E+01  0.0000000000000E+00
-0.2926759264271E-01 -0.1876535678237E+01  0.0000000000000E+00
-0.2952767034453E-01 -0.1804008939299E+01  0.0000000000000E+00
 0.1341298275034E-09 -0.4658294701900E+01  0.0000000000000E+00
 0.2682591870488E-09 -0.4585002430862E+01  0.0000000000000E+00
 0.4023893957001E-09 -0.4511709709747E+01  0.0000000000000E+00
 0.5365190323347E-09 -0.4438417194108E+01  0.0000000000000E+00
 0.6706488701749E-09 -0.4365124693044E+01  0.0000000000000E+00
 0.8047787882590E-09 -0.4291832164439E+01  0.0000000000000E+00
 0.9389088597081E-09 -0.4218539679152E+01  0.0000000000000E+00
 0.1073038524398E-08 -0.4145247166996E+01  0.0000000000000E+00
 0.1207168262094E-08 -0.4071954660224E+01  0.0000000000000E+00
 0.1341298234168E-08 -0.3998662161544E+01  0.0000000000000E+00
 0.1475428013433E-08 -0.3925369647524E+01  0.0000000000000E+00
 0.1609557830157E-08 -0.3852077157540E+01  0.0000000000000E+00
 0.1743687652334E-08 -0.3778784635568E+01  0.0000000000000E+00
 0.1877817310913E-08 -0.3705492053802E+01  0.0000000000000E+00
 0.2011947706894E-08 -0.3632199492894E+01  0.0000000000000E+00
 0.2146077408419E-08 -0.3558907019664E+01  0.0000000000000E+00
 0.2280208426415E-08 -0.3485613899373E+01  0.0000000000000E+00
 0.2414336888433E-08 -0.3412322003696E+01  0.0000000000000E+00
 0.2548466840620E-08 -0.3339029486324E+01  0.0000000000000E+00
 0.2682596584237E-08 -0.3265737049261E+01  0.0000000000000E+00
 0.2816726205452E-08 -0.3192444705551E+01  0.0000000000000E+00
 0.2950855619598E-08 -0.3119152324855E+01  0.0000000000000E+00
 0.3084985484792E-08 -0.3045859911382E+01  0.0000000000000E+00
 0.3219175371806E-08 -0.2972567434816E+01  0.0000000000000E+00
 0.3353698962349E-08 -0.2899275188699E+01  0.0000000000000E+00
 0.3488929411804E-08 -0.2825984511537E+01  0.0000000000000E+00
 0.3625244941819E-08 -0.2752698677250E+01  0.0000000000000E+00
 0.3762956809338E-08 -0.2679423369550E+01  0.0000000000000E+00
 0.3902297487834E-08 -0.2606165731846E+01  0.0000000000000E+00
 0.4043435735482E-08 -0.2532934097612E+01  0.0000000000000E+00
 0.4186557962945E-08 -0.2459737450072E+01  0.0000000000000E+00
 0.4331879569796E-08 -0.2386586504841E+01  0.0000000000000E+00
 0.4479654772516E-08 -0.2313494850525E+01  0.0000000000000E+00
 0.4629287928948E-08 -0.2240472297144E+01  0.0000000000000E+00
 0.4780639145247E-08 -0.2167520602668E+01  0.0000000000000E+00
 0.4933757342576E-08 -0.2094641445488E+01  0.0000000000000E+00
 0.5088733100688E-08 -0.2021837603833E+01  0.0000000000000E+00
 0.5245556969086E-08 -0.1949113979741E+01  0.0000000000000E+00
 0.5404454514473E-08 -0.1876479473326E+01  0.0000000000000E+00
 0.5565503903438E-08 -0.1803951293244E+01  0.0000000000000E+00
 0.2750084691528E-01 -0.4658296143053E+01  0.0000000000000E+00
 0.2750169382879E-01 -0.4585005313166E+01  0.0000000000000E+00
 0.2750254074750E-01 -0.4511714033210E+01  0.0000000000000E+00
 0.2750338766384E-01 -0.4438422958726E+01  0.0000000000000E+00
 0.2750423458000E-01 -0.4365131898817E+01  0.0000000000000E+00
 0.2750508149649E-01 -0.4291840811368E+01  0.0000000000000E+00
 0.2750592841248E-01 -0.4218549767235E+01  0.0000000000000E+00
 0.2750677532877E-01 -0.4145258696235E+01  0.0000000000000E+00
 0.2750762224501E-01 -0.4071967630618E+01  0.0000000000000E+00
 0.2750846916115E-01 -0.3998676573093E+01  0.0000000000000E+00
 0.2750931607747E-01 -0.3925385500228E+01  0.0000000000000E+00
 0.2751016299351E-01 -0.3852094451398E+01  0.0000000000000E+00
 0.2751100990992E-01 -0.3778803370582E+01  0.0000000000000E+00
 0.2751185682702E-01 -0.3705512229972E+01  0.0000000000000E+00
 0.2751270374388E-01 -0.3632221110221E+01  0.0000000000000E+00
 0.2751355065973E-01 -0.3558930078145E+01  0.0000000000000E+00
 0.2751439758305E-01 -0.3485638399021E+01  0.0000000000000E+00
 0.2751524449223E-01 -0.3412347944487E+01  0.0000000000000E+00
 0.2751609140858E-01 -0.3339056868270E+01  0.0000000000000E+00
 0.2751693832401E-01 -0.3265765872362E+01  0.0000000000000E+00
 0.2751778523836E-01 -0.3192474969803E+01  0.0000000000000E+00
 0.2751863215314E-01 -0.3119184030260E+01  0.0000000000000E+00
 0.2751947906830E-01 -0.3045893057940E+01  0.0000000000000E+00
 0.2752080971174E-01 -0.2972602022528E+01  0.0000000000000E+00
 0.2752573973106E-01 -0.2899311217565E+01  0.0000000000000E+00
 0.2753859537435E-01 -0.2826021981554E+01  0.0000000000000E+00
 0.2756332031807E-01 -0.2752737588418E+01  0.0000000000000E+00
 0.2760281744201E-01 -0.2679463721866E+01  0.0000000000000E+00
 0.2765894857198E-01 -0.2606207525312E+01  0.0000000000000E+00
 0.2773290417001E-01 -0.2532977332225E+01  0.0000000000000E+00
 0.2782563029327E-01 -0.2459782125833E+01  0.0000000000000E+00
 0.2793819719290E-01 -0.2386632621751E+01  0.0000000000000E+00
 0.2807207718784E-01 -0.2313542408580E+01  0.0000000000000E+00
 0.2822718745350E-01 -0.2240521296346E+01  0.0000000000000E+00
 0.2840136958642E-01 -0.2167571043019E+01  0.0000000000000E+00
 0.2859308277837E-01 -0.2094693326988E+01  0.0000000000000E+00
 0.2880143090548E-01 -0.2021890926485E+01  0.0000000000000E+00
 0.2902612153270E-01 -0.1949168743545E+01  0.0000000000000E+00
 0.2926760345153E-01 -0.1876535678280E+01  0.0000000000000E+00
 0.2952768147545E-01 -0.1804008939343E+01  0.0000000000000E+00
 0.5500168229740E-01 -0.4658300466422E+01  0.0000000000000E+00
 0.5500336459129E-01 -0.4585013959894E+01  0.0000000000000E+00
 0.5500504689552E-01 -0.4511727003325E+01  0.0000000000000E+00
 0.5500672919502E-01 -0.4438440252216E+01  0.0000000000000E+00
 0.5500841149420E-01 -0.4365153515680E+01  0.0000000000000E+00
 0.5501009379400E-01 -0.4291866751605E+01  0.0000000000000E+00
 0.5501177609281E-01 -0.4218580030846E+01  0.0000000000000E+00
 0.5501345839224E-01 -0.4145293283219E+01  0.0000000000000E+00
 0.5501514069154E-01 -0.4072006540976E+01  0.0000000000000E+00
 0.5501682299066E-01 -0.3998719806824E+01  0.0000000000000E+00
 0.5501850529013E-01 -0.3925433057334E+01  0.0000000000000E+00
 0.5502018758905E-01 -0.3852146331877E+01  0.0000000000000E+00
 0.5502186988871E-01 -0.3778859574434E+01  0.0000000000000E+00
 0.5502355218973E-01 -0.3705572757203E+01  0.0000000000000E+00
 0.5502523449028E-01 -0.3632285960829E+01  0.0000000000000E+00
 0.5502691678881E-01 -0.3558999252125E+01  0.0000000000000E+00
 0.5502859910220E-01 -0.3485711896410E+01  0.0000000000000E+00
 0.5503028138748E-01 -0.3412425765214E+01  0.0000000000000E+00
 0.5503196368702E-01 -0.3339139012372E+01  0.0000000000000E+00
 0.5503364598473E-01 -0.3265852339833E+01  0.0000000000000E+00
 0.5503532828029E-01 -0.3192565760638E+01  0.0000000000000E+00
 0.5503701057670E-01 -0.3119279144462E+01  0.0000000000000E+00
 0.5503869287386E-01 -0.3045992495510E+01  0.0000000000000E+00
 0.5504134262754E-01 -0.2972705783470E+01  0.0000000000000E+00
 0.5505119113270E-01 -0.2899419301877E+01  0.0000000000000E+00
 0.5507689088526E-01 -0.2826134389227E+01  0.0000000000000E+00
 0.5512632923783E-01 -0.2752854319452E+01  0.0000000000000E+00
 0.5520531194975E-01 -0.2679584776256E+01  0.0000000000000E+00
 0.5531756267240E-01 -0.2606332903057E+01  0.0000000000000E+00
 0.5546546232972E-01 -0.2533107033319E+01  0.0000000000000E+00
 0.5565090303586E-01 -0.2459916150279E+01  0.0000000000000E+00
 0.5587602529292E-01 -0.2386770969553E+01  0.0000000000000E+00
 0.5614377373856E-01 -0.2313685079727E+01  0.0000000000000E+00
 0.5645398272418E-01 -0.2240668290843E+01  0.0000000000000E+00
 0.5680233544293E-01 -0.2167722360871E+01  0.0000000000000E+00
 0.5718575027832E-01 -0.2094848968198E+01  0.0000000000000E+00
 0.5760243498245E-01 -0.2022050891056E+01  0.0000000000000E+00
 0.5805180468526E-01 -0.1949333031483E+01  0.0000000000000E+00
 0.5853475696956E-01 -0.1876704289573E+01  0.0000000000000E+00
 0.5905490146225E-01 -0.1804181873982E+01  0.0000000000000E+00
 0.8250249481138E-01 -0.4658307671734E+01  0.0000000000000E+00
 0.8250498961757E-01 -0.4585028370504E+01  0.0000000000000E+00
 0.8250748443907E-01 -0.4511748619277E+01  0.0000000000000E+00
 0.8250997925358E-01 -0.4438469073488E+01  0.0000000000000E+00
 0.8251247406760E-01 -0.4365189542272E+01  0.0000000000000E+00
 0.8251496888255E-01 -0.4291909983520E+01  0.0000000000000E+00
 0.8251746369603E-01 -0.4218630468079E+01  0.0000000000000E+00
 0.8251995851042E-01 -0.4145350925774E+01  0.0000000000000E+00
 0.8252245332463E-01 -0.4072071388851E+01  0.0000000000000E+00
 0.8252494813856E-01 -0.3998791860019E+01  0.0000000000000E+00
 0.8252744295302E-01 -0.3925512315849E+01  0.0000000000000E+00
 0.8252993776665E-01 -0.3852232795711E+01  0.0000000000000E+00
 0.8253243258138E-01 -0.3778953243591E+01  0.0000000000000E+00
 0.8253492739814E-01 -0.3705673631687E+01  0.0000000000000E+00
 0.8253742221419E-01 -0.3632394040639E+01  0.0000000000000E+00
 0.8253991702726E-01 -0.3559114537252E+01  0.0000000000000E+00
 0.8254241186235E-01 -0.3485834386918E+01  0.0000000000000E+00
 0.8254490665576E-01 -0.3412555460983E+01  0.0000000000000E+00
 0.8254740147033E-01 -0.3339275913462E+01  0.0000000000000E+00
 0.8254989628217E-01 -0.3265996446236E+01  0.0000000000000E+00
 0.8255239109082E-01 -0.3192717072346E+01  0.0000000000000E+00
 0.8255488590074E-01 -0.3119437661478E+01  0.0000000000000E+00
 0.8255738071177E-01 -0.3046158217837E+01  0.0000000000000E+00
 0.8256132670752E-01 -0.2972878711115E+01  0.0000000000000E+00
 0.8257607083032E-01 -0.2899599434835E+01  0.0000000000000E+00
 0.8261459182386E-01 -0.2826321727487E+01  0.0000000000000E+00
 0.8268872071680E-01 -0.2753048863010E+01  0.0000000000000E+00
 0.8280716614798E-01 -0.2679786525104E+01  0.0000000000000E+00
 0.8297551359434E-01 -0.2606541857195E+01  0.0000000000000E+00
 0.8319733444172E-01 -0.2533323192736E+01  0.0000000000000E+00
 0.8347546686119E-01 -0.2460139514982E+01  0.0000000000000E+00
 0.8381312160577E-01 -0.2387001539546E+01  0.0000000000000E+00
 0.8421471563193E-01 -0.2313922854993E+01  0.0000000000000E+00
 0.8468000046694E-01 -0.2240913271390E+01  0.0000000000000E+00
 0.8520250090062E-01 -0.2167974546707E+01  0.0000000000000E+00
 0.8577759450824E-01 -0.2095108359326E+01  0.0000000000000E+00
 0.8640259291791E-01 -0.2022317487484E+01  0.0000000000000E+00
 0.8707661882451E-01 -0.1949606833219E+01  0.0000000000000E+00
 0.8780101860228E-01 -0.1876985296600E+01  0.0000000000000E+00
 0.8858120669148E-01 -0.1804470086283E+01  0.0000000000000E+00
 0.1100032730361E+00 -0.4658317758537E+01  0.0000000000000E+00
 0.1100065460654E+00 -0.4585048544088E+01  0.0000000000000E+00
 0.1100098191148E+00 -0.4511778879705E+01  0.0000000000000E+00
 0.1100130921551E+00 -0.4438509420732E+01  0.0000000000000E+00
 0.1100163651946E+00 -0.4365239976329E+01  0.0000000000000E+00
 0.1100196382354E+00 -0.4291970504395E+01  0.0000000000000E+00
 0.1100229112743E+00 -0.4218701075764E+01  0.0000000000000E+00
 0.1100261843144E+00 -0.4145431620274E+01  0.0000000000000E+00
 0.1100294573542E+00 -0.4072162170165E+01  0.0000000000000E+00
 0.1100327303937E+00 -0.3998892728146E+01  0.0000000000000E+00
 0.1100360034338E+00 -0.3925623270792E+01  0.0000000000000E+00
 0.1100392764729E+00 -0.3852353837466E+01  0.0000000000000E+00
 0.1100425495134E+00 -0.3779084372162E+01  0.0000000000000E+00
 0.1100458225566E+00 -0.3705814847083E+01  0.0000000000000E+00
 0.1100490955988E+00 -0.3632545342856E+01  0.0000000000000E+00
 0.1100523686372E+00 -0.3559275926279E+01  0.0000000000000E+00
 0.1100556417044E+00 -0.3486005862844E+01  0.0000000000000E+00
 0.1100589147169E+00 -0.3412737023638E+01  0.0000000000000E+00
 0.1100621877572E+00 -0.3339467562933E+01  0.0000000000000E+00
 0.1100654607940E+00 -0.3266198182512E+01  0.0000000000000E+00
 0.1100687338265E+00 -0.3192928895414E+01  0.0000000000000E+00
 0.1100720068607E+00 -0.3119659571342E+01  0.0000000000000E+00
 0.1100752798964E+00 -0.3046390214503E+01  0.0000000000000E+00
 0.1100804878449E+00 -0.2973120794592E+01  0.0000000000000E+00
 0.1101000932960E+00 -0.2899851605116E+01  0.0000000000000E+00
 0.1101514012411E+00 -0.2826583984554E+01  0.0000000000000E+00
 0.1102501863848E+00 -0.2753321206860E+01  0.0000000000000E+00
 0.1104080602454E+00 -0.2680068955726E+01  0.0000000000000E+00
 0.1106324701252E+00 -0.2606834374589E+01  0.0000000000000E+00
 0.1109281778722E+00 -0.2533625796887E+01  0.0000000000000E+00
 0.1112989677141E+00 -0.2460452205898E+01  0.0000000000000E+00
 0.1117491206549E+00 -0.2387324317233E+01  0.0000000000000E+00
 0.1122845259700E+00 -0.2314255719427E+01  0.0000000000000E+00
 0.1129048523623E+00 -0.2241256222584E+01  0.0000000000000E+00
 0.1136014662184E+00 -0.2168327584671E+01  0.0000000000000E+00
 0.1143682043055E+00 -0.2095471484065E+01  0.0000000000000E+00
 0.1152014821275E+00 -0.2022690699010E+01  0.0000000000000E+00
 0.1161001299444E+00 -0.1949990131541E+01  0.0000000000000E+00
 0.1170659429218E+00 -0.1877378681695E+01  0.0000000000000E+00
 0.1181061403135E+00 -0.1804873558127E+01  0.0000000000000E+00
 0.1375040057470E+00 -0.4658330726200E+01  0.0000000000000E+00
 0.1375080114857E+00 -0.4585074479388E+01  0.0000000000000E+00
 0.1375120172490E+00 -0.4511817782720E+01  0.0000000000000E+00
 0.1375160230011E+00 -0.4438561291426E+01  0.0000000000000E+00
 0.1375200287523E+00 -0.4365304814701E+01  0.0000000000000E+00
 0.1375240345051E+00 -0.4292048310448E+01  0.0000000000000E+00
 0.1375280402555E+00 -0.4218791849492E+01  0.0000000000000E+00
 0.1375320460074E+00 -0.4145535361680E+01  0.0000000000000E+00
 0.1375360517590E+00 -0.4072278879250E+01  0.0000000000000E+00
 0.1375400575101E+00 -0.3999022404907E+01  0.0000000000000E+00
 0.1375440632621E+00 -0.3925765915232E+01  0.0000000000000E+00
 0.1375480690127E+00 -0.3852509449581E+01  0.0000000000000E+00
 0.1375520747651E+00 -0.3779252951958E+01  0.0000000000000E+00
 0.1375560805208E+00 -0.3705996394570E+01  0.0000000000000E+00
 0.1375600862754E+00 -0.3632739858031E+01  0.0000000000000E+00
 0.1375640920251E+00 -0.3559483409126E+01  0.0000000000000E+00
 0.1375680978102E+00 -0.3486226313477E+01  0.0000000000000E+00
 0.1375721035284E+00 -0.3412970441841E+01  0.0000000000000E+00
 0.1375761092805E+00 -0.3339713948815E+01  0.0000000000000E+00
 0.1375801150283E+00 -0.3266457536060E+01  0.0000000000000E+00
 0.1375841207710E+00 -0.3193201216611E+01  0.0000000000000E+00
 0.1375881265157E+00 -0.3119944860195E+01  0.0000000000000E+00
 0.1375921322621E+00 -0.3046688471017E+01  0.0000000000000E+00
 0.1375985566497E+00 -0.2973432018779E+01  0.0000000000000E+00
 0.1376229779157E+00 -0.2900175796968E+01  0.0000000000000E+00
 0.1376870273001E+00 -0.2826921144049E+01  0.0000000000000E+00
 0.1378104231836E+00 -0.2753671333993E+01  0.0000000000000E+00
 0.1380076799644E+00 -0.2680432050482E+01  0.0000000000000E+00
 0.1382881067707E+00 -0.2607210436969E+01  0.0000000000000E+00
 0.1386576559123E+00 -0.2534014826870E+01  0.0000000000000E+00
 0.1391210576740E+00 -0.2460854203496E+01  0.0000000000000E+00
 0.1396836633107E+00 -0.2387739282454E+01  0.0000000000000E+00
 0.1403528344169E+00 -0.2314683652241E+01  0.0000000000000E+00
 0.1411281568713E+00 -0.2241697123004E+01  0.0000000000000E+00
 0.1419988386569E+00 -0.2168781452713E+01  0.0000000000000E+00
 0.1429571757323E+00 -0.2095938319734E+01  0.0000000000000E+00
 0.1439986874777E+00 -0.2023170502321E+01  0.0000000000000E+00
 0.1451219117177E+00 -0.1950482902508E+01  0.0000000000000E+00
 0.1463290924098E+00 -0.1877884420286E+01  0.0000000000000E+00
 0.1476292536212E+00 -0.1805392264313E+01  0.0000000000000E+00
 0.1650046811024E+00 -0.4658346573901E+01  0.0000000000000E+00
 0.1650093621951E+00 -0.4585106174756E+01  0.0000000000000E+00
 0.1650140433165E+00 -0.4511865325853E+01  0.0000000000000E+00
 0.1650187244248E+00 -0.4438624682280E+01  0.0000000000000E+00
 0.1650234055322E+00 -0.4365384053272E+01  0.0000000000000E+00
 0.1650280866413E+00 -0.4292143396742E+01  0.0000000000000E+00
 0.1650327677476E+00 -0.4218902783500E+01  0.0000000000000E+00
 0.1650374488557E+00 -0.4145662143408E+01  0.0000000000000E+00
 0.1650421299634E+00 -0.4072421508696E+01  0.0000000000000E+00
 0.1650468110706E+00 -0.3999180882070E+01  0.0000000000000E+00
 0.1650514921788E+00 -0.3925940240116E+01  0.0000000000000E+00
 0.1650561732855E+00 -0.3852699622179E+01  0.0000000000000E+00
 0.1650608543942E+00 -0.3779458972278E+01  0.0000000000000E+00
 0.1650655355067E+00 -0.3706218262625E+01  0.0000000000000E+00
 0.1650702166179E+00 -0.3632977573816E+01  0.0000000000000E+00
 0.1650748977234E+00 -0.3559736972622E+01  0.0000000000000E+00
 0.1650795788703E+00 -0.3486495724824E+01  0.0000000000000E+00
 0.1650842599390E+00 -0.3413255700775E+01  0.0000000000000E+00
 0.1650889410474E+00 -0.3340015055470E+01  0.0000000000000E+00
 0.1650936221507E+00 -0.3266774490419E+01  0.0000000000000E+00
 0.1650983032480E+00 -0.3193534018653E+01  0.0000000000000E+00
 0.1651029843477E+00 -0.3120293509928E+01  0.0000000000000E+00
 0.1651076654495E+00 -0.3047052968449E+01  0.0000000000000E+00
 0.1651152489203E+00 -0.2973812363923E+01  0.0000000000000E+00
 0.1651444286449E+00 -0.2900571989815E+01  0.0000000000000E+00
 0.1652211621105E+00 -0.2827333184571E+01  0.0000000000000E+00
 0.1653691113735E+00 -0.2754099222185E+01  0.0000000000000E+00
 0.1656056937112E+00 -0.2680875786326E+01  0.0000000000000E+00
 0.1659420800769E+00 -0.2607670020465E+01  0.0000000000000E+00
 0.1663854132426E+00 -0.2534490257994E+01  0.0000000000000E+00
 0.1669413695495E+00 -0.2461345482262E+01  0.0000000000000E+00
 0.1676163705033E+00 -0.2388246408871E+01  0.0000000000000E+00
 0.1684192500176E+00 -0.2315206626271E+01  0.0000000000000E+00
 0.1693495111465E+00 -0.2242235944667E+01  0.0000000000000E+00
 0.1703942034699E+00 -0.2169336122026E+01  0.0000000000000E+00
 0.1715440821385E+00 -0.2096508836703E+01  0.0000000000000E+00
 0.1727937704082E+00 -0.2023756866964E+01  0.0000000000000E+00
 0.1741415136690E+00 -0.1951085114842E+01  0.0000000000000E+00
 0.1755900046701E+00 -0.1878502480274E+01  0.0000000000000E+00
 0.1771500722917E+00 -0.1806026171918E+01  0.0000000000000E+00
 0.1925052882440E+00 -0.4658365300656E+01  0.0000000000000E+00
 0.1925105764769E+00 -0.4585143628228E+01  0.0000000000000E+00
 0.1925158647424E+00 -0.4511921506156E+01  0.0000000000000E+00
 0.1925211529930E+00 -0.4438699589362E+01  0.0000000000000E+00
 0.1925264412425E+00 -0.4365477687129E+01  0.0000000000000E+00
 0.1925317294941E+00 -0.4292255757381E+01  0.0000000000000E+00
 0.1925370177425E+00 -0.4219033870910E+01  0.0000000000000E+00
 0.1925423059928E+00 -0.4145811957596E+01  0.0000000000000E+00
 0.1925475942428E+00 -0.4072590049661E+01  0.0000000000000E+00
 0.1925528824922E+00 -0.3999368149810E+01  0.0000000000000E+00
 0.1925581707427E+00 -0.3926146234633E+01  0.0000000000000E+00
 0.1925634589914E+00 -0.3852924343469E+01  0.0000000000000E+00
 0.1925687472425E+00 -0.3779702420348E+01  0.0000000000000E+00
 0.1925740354978E+00 -0.3706480437491E+01  0.0000000000000E+00
 0.1925793237517E+00 -0.3633258475472E+01  0.0000000000000E+00
 0.1925846119993E+00 -0.3560036601046E+01  0.0000000000000E+00
 0.1925899002935E+00 -0.3486814080182E+01  0.0000000000000E+00
 0.1925951884994E+00 -0.3413592782753E+01  0.0000000000000E+00
 0.1926004767501E+00 -0.3340370864228E+01  0.0000000000000E+00
 0.1926057649950E+00 -0.3267149025935E+01  0.0000000000000E+00
 0.1926110532332E+00 -0.3193927280904E+01  0.0000000000000E+00
 0.1926163414741E+00 -0.3120705498923E+01  0.0000000000000E+00
 0.1926216297173E+00 -0.3047483684197E+01  0.0000000000000E+00
 0.1926303040577E+00 -0.2974261806440E+01  0.0000000000000E+00
 0.1926641740278E+00 -0.2901040159091E+01  0.0000000000000E+00
 0.1927535233632E+00 -0.2827820080573E+01  0.0000000000000E+00
 0.1929259577963E+00 -0.2754604844905E+01  0.0000000000000E+00
 0.1932017974845E+00 -0.2681400135744E+01  0.0000000000000E+00
 0.1935940752064E+00 -0.2608213096582E+01  0.0000000000000E+00
 0.1941111241963E+00 -0.2535052060780E+01  0.0000000000000E+00
 0.1947595668518E+00 -0.2461926011733E+01  0.0000000000000E+00
 0.1955468949300E+00 -0.2388845665039E+01  0.0000000000000E+00
 0.1964834146637E+00 -0.2315824609092E+01  0.0000000000000E+00
 0.1975685462823E+00 -0.2242872654162E+01  0.0000000000000E+00
 0.1987871809622E+00 -0.2169991558216E+01  0.0000000000000E+00
 0.2001285330459E+00 -0.2097182999597E+01  0.0000000000000E+00
 0.2015863296650E+00 -0.2024449756583E+01  0.0000000000000E+00
 0.2031585237745E+00 -0.1951796731204E+01  0.0000000000000E+00
 0.2048482569157E+00 -0.1879232823336E+01  0.0000000000000E+00
 0.2066681627825E+00 -0.1806775241636E+01  0.0000000000000E+00
 0.2200058153998E+00 -0.4658386905282E+01  0.0000000000000E+00
 0.2200116307875E+00 -0.4585186837434E+01  0.0000000000000E+00
 0.2200174462108E+00 -0.4511986320076E+01  0.0000000000000E+00
 0.2200232616179E+00 -0.4438786007934E+01  0.0000000000000E+00
 0.2200290770239E+00 -0.4365585710349E+01  0.0000000000000E+00
 0.2200348924320E+00 -0.4292385385258E+01  0.0000000000000E+00
 0.2200407078366E+00 -0.4219185103431E+01  0.0000000000000E+00
 0.2200465232434E+00 -0.4145984794769E+01  0.0000000000000E+00
 0.2200523386498E+00 -0.4072784491483E+01  0.0000000000000E+00
 0.2200581540556E+00 -0.3999584196280E+01  0.0000000000000E+00
 0.2200639694625E+00 -0.3926383885756E+01  0.0000000000000E+00
 0.2200697848676E+00 -0.3853183599236E+01  0.0000000000000E+00
 0.2200756002751E+00 -0.3779983280770E+01  0.0000000000000E+00
 0.2200814156875E+00 -0.3706782902585E+01  0.0000000000000E+00
 0.2200872310981E+00 -0.3633582545232E+01  0.0000000000000E+00
 0.2200930465019E+00 -0.3560382275447E+01  0.0000000000000E+00
 0.2200988619569E+00 -0.3487181359413E+01  0.0000000000000E+00
 0.2201046773148E+00 -0.3413981666454E+01  0.0000000000000E+00
 0.2201104927220E+00 -0.3340781352582E+01  0.0000000000000E+00
 0.2201163081229E+00 -0.3267581118919E+01  0.0000000000000E+00
 0.2201221235163E+00 -0.3194380978490E+01  0.0000000000000E+00
 0.2201279389127E+00 -0.3121180801122E+01  0.0000000000000E+00
 0.2201337543117E+00 -0.3047980591018E+01  0.0000000000000E+00
 0.2201434395357E+00 -0.2974780317904E+01  0.0000000000000E+00
 0.2201819197651E+00 -0.2901580275183E+01  0.0000000000000E+00
 0.2202838049834E+00 -0.2828381801256E+01  0.0000000000000E+00
 0.2204806445985E+00 -0.2755188170172E+01  0.0000000000000E+00
 0.2207956616474E+00 -0.2682005065570E+01  0.0000000000000E+00
 0.2212437507339E+00 -0.2608839630967E+01  0.0000000000000E+00
 0.2218344355546E+00 -0.2535700199692E+01  0.0000000000000E+00
 0.2225752845634E+00 -0.2462595755191E+01  0.0000000000000E+00
 0.2234748597682E+00 -0.2389537013054E+01  0.0000000000000E+00
 0.2245449397216E+00 -0.2316537561614E+01  0.0000000000000E+00
 0.2257848618277E+00 -0.2243607211216E+01  0.0000000000000E+00
 0.2271773588597E+00 -0.2170747719827E+01  0.0000000000000E+00
 0.2287101043520E+00 -0.2097960765773E+01  0.0000000000000E+00
 0.2303759293123E+00 -0.2025249127350E+01  0.0000000000000E+00
 0.2321724942604E+00 -0.1952617706584E+01  0.0000000000000E+00
 0.2341033895299E+00 -0.1880075403276E+01  0.0000000000000E+00
 0.2361830536282E+00 -0.1807639426087E+01  0.0000000000000E+00
 0.2475062513560E+00 -0.4658411386427E+01  0.0000000000000E+00
 0.2475125026990E+00 -0.4585235799674E+01  0.0000000000000E+00
 0.2475187540803E+00 -0.4512059763560E+01  0.0000000000000E+00
 0.2475250054442E+00 -0.4438883932594E+01  0.0000000000000E+00
 0.2475312568068E+00 -0.4365708116181E+01  0.0000000000000E+00
 0.2475375081717E+00 -0.4292532272270E+01  0.0000000000000E+00
 0.2475437595330E+00 -0.4219356471609E+01  0.0000000000000E+00
 0.2475500108965E+00 -0.4146180644121E+01  0.0000000000000E+00
 0.2475562622596E+00 -0.4073004822009E+01  0.0000000000000E+00
 0.2475625136220E+00 -0.3999829007976E+01  0.0000000000000E+00
 0.2475687649857E+00 -0.3926653178627E+01  0.0000000000000E+00
 0.2475750163473E+00 -0.3853477373275E+01  0.0000000000000E+00
 0.2475812677117E+00 -0.3780301535987E+01  0.0000000000000E+00
 0.2475875190812E+00 -0.3707125639000E+01  0.0000000000000E+00
 0.2475937704489E+00 -0.3633949762838E+01  0.0000000000000E+00
 0.2476000218091E+00 -0.3560773974215E+01  0.0000000000000E+00
 0.2476062732245E+00 -0.3487597539559E+01  0.0000000000000E+00
 0.2476125245354E+00 -0.3414422327569E+01  0.0000000000000E+00
 0.2476187758994E+00 -0.3341246494873E+01  0.0000000000000E+00
 0.2476250272566E+00 -0.3268070742360E+01  0.0000000000000E+00
 0.2476312786057E+00 -0.3194895083049E+01  0.0000000000000E+00
 0.2476375299581E+00 -0.3121719386813E+01  0.0000000000000E+00
 0.2476437813132E+00 -0.3048543657851E+01  0.0000000000000E+00
 0.2476543862212E+00 -0.2975367865900E+01  0.0000000000000E+00
 0.2476973855103E+00 -0.2902192304328E+01  0.0000000000000E+00
 0.2478117154120E+00 -0.2829018311508E+01  0.0000000000000E+00
 0.2480328690096E+00 -0.2755849161521E+01  0.0000000000000E+00
 0.2483869722199E+00 -0.2682690537989E+01  0.0000000000000E+00
 0.2488907814716E+00 -0.2609549584457E+01  0.0000000000000E+00
 0.2495550109240E+00 -0.2536434634215E+01  0.0000000000000E+00
 0.2503881750867E+00 -0.2463354670768E+01  0.0000000000000E+00
 0.2513999062187E+00 -0.2390320409700E+01  0.0000000000000E+00
 0.2526034551925E+00 -0.2317345439271E+01  0.0000000000000E+00
 0.2539980765867E+00 -0.2244439569913E+01  0.0000000000000E+00
 0.2555643447712E+00 -0.2171604559590E+01  0.0000000000000E+00
 0.2572883924727E+00 -0.2098842086614E+01  0.0000000000000E+00
 0.2591621545745E+00 -0.2026154929295E+01  0.0000000000000E+00
 0.2611829991614E+00 -0.1953547989660E+01  0.0000000000000E+00
 0.2633549653598E+00 -0.1881030167425E+01  0.0000000000000E+00
 0.2656942964902E+00 -0.1808618671252E+01  0.0000000000000E+00
 0.2750065850588E+00 -0.4658438742571E+01  0.0000000000000E+00
 0.2750131701039E+00 -0.4585290511904E+01  0.0000000000000E+00
 0.2750197551894E+00 -0.4512141832045E+01  0.0000000000000E+00
 0.2750263402564E+00 -0.4438993357257E+01  0.0000000000000E+00
 0.2750329253222E+00 -0.4365844897016E+01  0.0000000000000E+00
 0.2750395103904E+00 -0.4292696409288E+01  0.0000000000000E+00
 0.2750460954547E+00 -0.4219547964793E+01  0.0000000000000E+00
 0.2750526805214E+00 -0.4146399493482E+01  0.0000000000000E+00
 0.2750592655877E+00 -0.4073251027544E+01  0.0000000000000E+00
 0.2750658506532E+00 -0.4000102569683E+01  0.0000000000000E+00
 0.2750724357201E+00 -0.3926954096512E+01  0.0000000000000E+00
 0.2750790207848E+00 -0.3853805647328E+01  0.0000000000000E+00
 0.2750856058524E+00 -0.3780657166220E+01  0.0000000000000E+00
 0.2750921909254E+00 -0.3707508625436E+01  0.0000000000000E+00
 0.2750987759965E+00 -0.3634360105469E+01  0.0000000000000E+00
 0.2751053610598E+00 -0.3561211673007E+01  0.0000000000000E+00
 0.2751119461812E+00 -0.3488062594756E+01  0.0000000000000E+00
 0.2751185311925E+00 -0.3414914738712E+01  0.0000000000000E+00
 0.2751251162597E+00 -0.3341766262195E+01  0.0000000000000E+00
 0.2751317013197E+00 -0.3268617865830E+01  0.0000000000000E+00
 0.2751382863713E+00 -0.3195469562633E+01  0.0000000000000E+00
 0.2751448714262E+00 -0.3122321222524E+01  0.0000000000000E+00
 0.2751514564841E+00 -0.3049172849702E+01  0.0000000000000E+00
 0.2751628788227E+00 -0.2976024413916E+01  0.0000000000000E+00
 0.2752102949189E+00 -0.2902876208491E+01  0.0000000000000E+00
 0.2753369672533E+00 -0.2829729571771E+01  0.0000000000000E+00
 0.2755823325853E+00 -0.2756587777875E+01  0.0000000000000E+00
 0.2759754197121E+00 -0.2683456510402E+01  0.0000000000000E+00
 0.2765348468877E+00 -0.2610342912930E+01  0.0000000000000E+00
 0.2772725187343E+00 -0.2537255318706E+01  0.0000000000000E+00
 0.2781978958174E+00 -0.2464202711301E+01  0.0000000000000E+00
 0.2793216806473E+00 -0.2391195806292E+01  0.0000000000000E+00
 0.2806585964169E+00 -0.2318248191856E+01  0.0000000000000E+00
 0.2822078148791E+00 -0.2245369678523E+01  0.0000000000000E+00
 0.2839477520001E+00 -0.2172562024256E+01  0.0000000000000E+00
 0.2858629996983E+00 -0.2099826907348E+01  0.0000000000000E+00
 0.2879445967325E+00 -0.2027167106128E+01  0.0000000000000E+00
 0.2901896187525E+00 -0.1954587522619E+01  0.0000000000000E+00
 0.2926025536778E+00 -0.1882097056446E+01  0.0000000000000E+00
 0.2952014496426E+00 -0.1809712916272E+01  0.0000000000000E+00
 0.3025068043940E+00 -0.4658468971968E+01  0.0000000000000E+00
 0.3025136087739E+00 -0.4585350970636E+01  0.0000000000000E+00
 0.3025204131955E+00 -0.4512232520297E+01  0.0000000000000E+00
 0.3025272175981E+00 -0.4439114274945E+01  0.0000000000000E+00
 0.3025340219993E+00 -0.4365996044133E+01  0.0000000000000E+00
 0.3025408264030E+00 -0.4292877785846E+01  0.0000000000000E+00
 0.3025476308028E+00 -0.4219759570774E+01  0.0000000000000E+00
 0.3025544352050E+00 -0.4146641328897E+01  0.0000000000000E+00
 0.3025612396067E+00 -0.4073523092391E+01  0.0000000000000E+00
 0.3025680440077E+00 -0.4000404863958E+01  0.0000000000000E+00
 0.3025748484101E+00 -0.3927286620221E+01  0.0000000000000E+00
 0.3025816528103E+00 -0.3854168400463E+01  0.0000000000000E+00
 0.3025884572134E+00 -0.3781050148793E+01  0.0000000000000E+00
 0.3025952616221E+00 -0.3707931837471E+01  0.0000000000000E+00
 0.3026020660289E+00 -0.3634813546959E+01  0.0000000000000E+00
 0.3026088704275E+00 -0.3561695343915E+01  0.0000000000000E+00
 0.3026156748862E+00 -0.3488576495348E+01  0.0000000000000E+00
 0.3026224792312E+00 -0.3415458868484E+01  0.0000000000000E+00
 0.3026292836339E+00 -0.3342340621403E+01  0.0000000000000E+00
 0.3026360880292E+00 -0.3269222454441E+01  0.0000000000000E+00
 0.3026428924158E+00 -0.3196104380609E+01  0.0000000000000E+00
 0.3026496968058E+00 -0.3122986269880E+01  0.0000000000000E+00
 0.3026565011989E+00 -0.3049868126451E+01  0.0000000000000E+00
 0.3026686266003E+00 -0.2976749920085E+01  0.0000000000000E+00
 0.3027203451345E+00 -0.2903631944063E+01  0.0000000000000E+00
 0.3028592455296E+00 -0.2830515536692E+01  0.0000000000000E+00
 0.3031287082196E+00 -0.2757403972134E+01  0.0000000000000E+00
 0.3035606648810E+00 -0.2684302933966E+01  0.0000000000000E+00
 0.3041755955924E+00 -0.2611219565799E+01  0.0000000000000E+00
 0.3049865954384E+00 -0.2538162200834E+01  0.0000000000000E+00
 0.3060040710399E+00 -0.2465139822714E+01  0.0000000000000E+00
 0.3072397951582E+00 -0.2392163147008E+01  0.0000000000000E+00
 0.3087099633062E+00 -0.2319245761804E+01  0.0000000000000E+00
 0.3104136644108E+00 -0.2246397477737E+01  0.0000000000000E+00
 0.3123271560352E+00 -0.2173620052771E+01  0.0000000000000E+00
 0.3144334892904E+00 -0.2100915165177E+01  0.0000000000000E+00
 0.3167228068109E+00 -0.2028285593305E+01  0.0000000000000E+00
 0.3191918918116E+00 -0.1955736239175E+01  0.0000000000000E+00
 0.3218456810053E+00 -0.1883276002310E+01  0.0000000000000E+00
 0.3247040273393E+00 -0.1810922091373E+01  0.0000000000000E+00
 0.3300068990355E+00 -0.4658502072771E+01  0.0000000000000E+00
 0.3300137980567E+00 -0.4585417172174E+01  0.0000000000000E+00
 0.3300206971202E+00 -0.4512331822772E+01  0.0000000000000E+00
 0.3300275961644E+00 -0.4439246678265E+01  0.0000000000000E+00
 0.3300344952072E+00 -0.4366161548291E+01  0.0000000000000E+00
 0.3300413942526E+00 -0.4293076390855E+01  0.0000000000000E+00
 0.3300482932940E+00 -0.4219991276614E+01  0.0000000000000E+00
 0.3300551923378E+00 -0.4146906135581E+01  0.0000000000000E+00
 0.3300620913812E+00 -0.4073820999915E+01  0.0000000000000E+00
 0.3300689904238E+00 -0.4000735872320E+01  0.0000000000000E+00
 0.3300758894678E+00 -0.3927650729427E+01  0.0000000000000E+00
 0.3300827885096E+00 -0.3854565610502E+01  0.0000000000000E+00
 0.3300896875544E+00 -0.3781480459680E+01  0.0000000000000E+00
 0.3300965866048E+00 -0.3708395249233E+01  0.0000000000000E+00
 0.3301034856532E+00 -0.3635310059585E+01  0.0000000000000E+00
 0.3301103846934E+00 -0.3562224957367E+01  0.0000000000000E+00
 0.3301172837945E+00 -0.3489139209918E+01  0.0000000000000E+00
 0.3301241827804E+00 -0.3416054683619E+01  0.0000000000000E+00
 0.3301310818247E+00 -0.3342969537384E+01  0.0000000000000E+00
 0.3301379808615E+00 -0.3269884471232E+01  0.0000000000000E+00
 0.3301448798895E+00 -0.3196799498167E+01  0.0000000000000E+00
 0.3301517789210E+00 -0.3123714488221E+01  0.0000000000000E+00
 0.3301586779556E+00 -0.3050629445591E+01  0.0000000000000E+00
 0.3301713817261E+00 -0.2977544340053E+01  0.0000000000000E+00
 0.3302272780059E+00 -0.2904459464839E+01  0.0000000000000E+00
 0.3303782817725E+00 -0.2831376158220E+01  0.0000000000000E+00
 0.3306717171352E+00 -0.2758297694401E+01  0.0000000000000E+00
 0.3311424186512E+00 -0.2685229756934E+01  0.0000000000000E+00
 0.3318127282240E+00 -0.2612179489470E+01  0.0000000000000E+00
 0.3326969314014E+00 -0.2539155225155E+01  0.0000000000000E+00
 0.3338063808598E+00 -0.2466165947716E+01  0.0000000000000E+00
 0.3351539196114E+00 -0.2393222372710E+01  0.0000000000000E+00
 0.3367572154907E+00 -0.2320338088127E+01  0.0000000000000E+00
 0.3386152745975E+00 -0.2247522904721E+01  0.0000000000000E+00
 0.3407021960918E+00 -0.2174778580452E+01  0.0000000000000E+00
 0.3429994902762E+00 -0.2102106793569E+01  0.0000000000000E+00
 0.3454964036609E+00 -0.2029510322446E+01  0.0000000000000E+00
 0.3481894270257E+00 -0.1956994069100E+01  0.0000000000000E+00
 0.3510839458773E+00 -0.1884566932939E+01  0.0000000000000E+00
 0.3542016179765E+00 -0.1812246122631E+01  0.0000000000000E+00
 0.3575068569661E+00 -0.4658538042879E+01  0.0000000000000E+00
 0.3575137139178E+00 -0.4585489112314E+01  0.0000000000000E+00
 0.3575205709117E+00 -0.4512439733166E+01  0.0000000000000E+00
 0.3575274278864E+00 -0.4439390558811E+01  0.0000000000000E+00
 0.3575342848597E+00 -0.4366341398983E+01  0.0000000000000E+00
 0.3575411418356E+00 -0.4293292211706E+01  0.0000000000000E+00
 0.3575479988074E+00 -0.4220243067603E+01  0.0000000000000E+00
 0.3575548557817E+00 -0.4147193896721E+01  0.0000000000000E+00
 0.3575617127555E+00 -0.4074144731204E+01  0.0000000000000E+00
 0.3575685697286E+00 -0.4001095573752E+01  0.0000000000000E+00
 0.3575754267031E+00 -0.3928046401012E+01  0.0000000000000E+00
 0.3575822836754E+00 -0.3854997252227E+01  0.0000000000000E+00
 0.3575891406506E+00 -0.3781948071560E+01  0.0000000000000E+00
 0.3575959976315E+00 -0.3708898831298E+01  0.0000000000000E+00
 0.3576028546104E+00 -0.3635849611826E+01  0.0000000000000E+00
 0.3576097115811E+00 -0.3562800479740E+01  0.0000000000000E+00
 0.3576165686123E+00 -0.3489750702740E+01  0.0000000000000E+00
 0.3576234255290E+00 -0.3416702146290E+01  0.0000000000000E+00
 0.3576302825038E+00 -0.3343652970208E+01  0.0000000000000E+00
 0.3576371394711E+00 -0.3270603874170E+01  0.0000000000000E+00
 0.3576439964297E+00 -0.3197554871173E+01  0.0000000000000E+00
 0.3576508533917E+00 -0.3124505831314E+01  0.0000000000000E+00
 0.3576577103568E+00 -0.3051456758786E+01  0.0000000000000E+00
 0.3576708557852E+00 -0.2978407623384E+01  0.0000000000000E+00
 0.3577307930988E+00 -0.2905358718283E+01  0.0000000000000E+00
 0.3578937635234E+00 -0.2832311381714E+01  0.0000000000000E+00
 0.3582110348432E+00 -0.2759268887932E+01  0.0000000000000E+00
 0.3587203444949E+00 -0.2686236920463E+01  0.0000000000000E+00
 0.3594458962068E+00 -0.2613222622996E+01  0.0000000000000E+00
 0.3604031659898E+00 -0.2540234328623E+01  0.0000000000000E+00
 0.3616044525750E+00 -0.2467281021158E+01  0.0000000000000E+00
 0.3630636692258E+00 -0.2394373416147E+01  0.0000000000000E+00
 0.3647999560978E+00 -0.2321525101475E+01  0.0000000000000E+00
 0.3668122364638E+00 -0.2248745888021E+01  0.0000000000000E+00
 0.3690724510805E+00 -0.2176037533744E+01  0.0000000000000E+00
 0.3715605694432E+00 -0.2103401716869E+01  0.0000000000000E+00
 0.3742649419373E+00 -0.2030841215795E+01  0.0000000000000E+00
 0.3771817669077E+00 -0.1958360932534E+01  0.0000000000000E+00
 0.3803168786556E+00 -0.1885969766374E+01  0.0000000000000E+00
 0.3836937397548E+00 -0.1813684925983E+01  0.0000000000000E+00
 0.3850066672510E+00 -0.4658576880061E+01  0.0000000000000E+00
 0.3850133344881E+00 -0.4585566786598E+01  0.0000000000000E+00
 0.3850200017662E+00 -0.4512556244790E+01  0.0000000000000E+00
 0.3850266690256E+00 -0.4439545907666E+01  0.0000000000000E+00
 0.3850333362836E+00 -0.4366535585061E+01  0.0000000000000E+00
 0.3850400035442E+00 -0.4293525235022E+01  0.0000000000000E+00
 0.3850466708008E+00 -0.4220514928134E+01  0.0000000000000E+00
 0.3850533380599E+00 -0.4147504594480E+01  0.0000000000000E+00
 0.3850600053184E+00 -0.4074494266190E+01  0.0000000000000E+00
 0.3850666725763E+00 -0.4001483945960E+01  0.0000000000000E+00
 0.3850733398355E+00 -0.3928473610450E+01  0.0000000000000E+00
 0.3850800070925E+00 -0.3855463298882E+01  0.0000000000000E+00
 0.3850866743525E+00 -0.3782452955450E+01  0.0000000000000E+00
 0.3850933416179E+00 -0.3709442552454E+01  0.0000000000000E+00
 0.3851000088814E+00 -0.3636432170237E+01  0.0000000000000E+00
 0.3851066761369E+00 -0.3563421875359E+01  0.0000000000000E+00
 0.3851133434512E+00 -0.3490410935911E+01  0.0000000000000E+00
 0.3851200106542E+00 -0.3417401216363E+01  0.0000000000000E+00
 0.3851266779138E+00 -0.3344390877513E+01  0.0000000000000E+00
 0.3851333451660E+00 -0.3271380618664E+01  0.0000000000000E+00
 0.3851400124097E+00 -0.3198370452807E+01  0.0000000000000E+00
 0.3851466796568E+00 -0.3125360250108E+01  0.0000000000000E+00
 0.3851533469069E+00 -0.3052350014757E+01  0.0000000000000E+00
 0.3851667863476E+00 -0.2979339716566E+01  0.0000000000000E+00
 0.3852306170495E+00 -0.2906329648653E+01  0.0000000000000E+00
 0.3854054064870E+00 -0.2833321149205E+01  0.0000000000000E+00
 0.3857463661188E+00 -0.2760317492529E+01  0.0000000000000E+00
 0.3862941362620E+00 -0.2687324362123E+01  0.0000000000000E+00
 0.3870747824689E+00 -0.2614348901720E+01  0.0000000000000E+00
 0.3881049712139E+00 -0.2541399444351E+01  0.0000000000000E+00
 0.3893979472826E+00 -0.2468484973924E+01  0.0000000000000E+00
 0.3909686941895E+00 -0.2395616205974E+01  0.0000000000000E+00
 0.3928378244118E+00 -0.2322806728271E+01  0.0000000000000E+00
 0.3950041783950E+00 -0.2250066351831E+01  0.0000000000000E+00
 0.3974375384922E+00 -0.2177396834612E+01  0.0000000000000E+00
 0.4001163333914E+00 -0.2104799854812E+01  0.0000000000000E+00
 0.4030280173533E+00 -0.2032278190856E+01  0.0000000000000E+00
 0.4061684962881E+00 -0.1959836744754E+01  0.0000000000000E+00
 0.4095440532914E+00 -0.1887484415661E+01  0.0000000000000E+00
 0.4131799557506E+00 -0.1815238412246E+01  0.0000000000000E+00
 0.4125063190932E+00 -0.4658618581925E+01  0.0000000000000E+00
 0.4125126381733E+00 -0.4585650190237E+01  0.0000000000000E+00
 0.4125189572921E+00 -0.4512681350462E+01  0.0000000000000E+00
 0.4125252763933E+00 -0.4439712715254E+01  0.0000000000000E+00
 0.4125315954932E+00 -0.4366744094556E+01  0.0000000000000E+00
 0.4125379145954E+00 -0.4293775446440E+01  0.0000000000000E+00
 0.4125442336940E+00 -0.4220806841450E+01  0.0000000000000E+00
 0.4125505527948E+00 -0.4147838209710E+01  0.0000000000000E+00
 0.4125568718952E+00 -0.4074869583330E+01  0.0000000000000E+00
 0.4125631909949E+00 -0.4001900965006E+01  0.0000000000000E+00
 0.4125695100959E+00 -0.3928932331410E+01  0.0000000000000E+00
 0.4125758291948E+00 -0.3855963721744E+01  0.0000000000000E+00
 0.4125821482965E+00 -0.3782995080231E+01  0.0000000000000E+00
 0.4125884674034E+00 -0.3710026379188E+01  0.0000000000000E+00
 0.4125947865084E+00 -0.3637057698912E+01  0.0000000000000E+00
 0.4126011056059E+00 -0.3564089105926E+01  0.0000000000000E+00
 0.4126074247592E+00 -0.3491119868737E+01  0.0000000000000E+00
 0.4126137438069E+00 -0.3418151850752E+01  0.0000000000000E+00
 0.4126200629082E+00 -0.3345183213819E+01  0.0000000000000E+00
 0.4126263820025E+00 -0.3272214656840E+01  0.0000000000000E+00
 0.4126327010889E+00 -0.3199246192801E+01  0.0000000000000E+00
 0.4126390201784E+00 -0.3126277691941E+01  0.0000000000000E+00
 0.4126453392707E+00 -0.3053309158447E+01  0.0000000000000E+00
 0.4126589142810E+00 -0.2980340562151E+01  0.0000000000000E+00
 0.4127264799297E+00 -0.2907372196107E+01  0.0000000000000E+00
 0.4129129299416E+00 -0.2834405398456E+01  0.0000000000000E+00
 0.4132774194510E+00 -0.2761443443563E+01  0.0000000000000E+00
 0.4138634916560E+00 -0.2688492014891E+01  0.0000000000000E+00
 0.4146990739339E+00 -0.2615558256224E+01  0.0000000000000E+00
 0.4158020232230E+00 -0.2542650500527E+01  0.0000000000000E+00
 0.4171865303632E+00 -0.2469777731808E+01  0.0000000000000E+00
 0.4188686491207E+00 -0.2396950665591E+01  0.0000000000000E+00
 0.4208704642954E+00 -0.2324182889523E+01  0.0000000000000E+00
 0.4231907335043E+00 -0.2251484214766E+01  0.0000000000000E+00
 0.4257970806970E+00 -0.2178856399276E+01  0.0000000000000E+00
 0.4286663937532E+00 -0.2106301121224E+01  0.0000000000000E+00
 0.4317852308089E+00 -0.2033821159063E+01  0.0000000000000E+00
 0.4351492053391E+00 -0.1961421414798E+01  0.0000000000000E+00
 0.4387650492349E+00 -0.1889110787444E+01  0.0000000000000E+00
 0.4426598346975E+00 -0.1816906485672E+01  0.0000000000000E+00
 0.4400058000888E+00 -0.4658663145799E+01  0.0000000000000E+00
 0.4400116001655E+00 -0.4585739317892E+01  0.0000000000000E+00
 0.4400174002778E+00 -0.4512815042172E+01  0.0000000000000E+00
 0.4400232003739E+00 -0.4439890970894E+01  0.0000000000000E+00
 0.4400290004688E+00 -0.4366966914117E+01  0.0000000000000E+00
 0.4400348005658E+00 -0.4294042829939E+01  0.0000000000000E+00
 0.4400406006595E+00 -0.4221118788861E+01  0.0000000000000E+00
 0.4400464007553E+00 -0.4148194721049E+01  0.0000000000000E+00
 0.4400522008506E+00 -0.4075270658593E+01  0.0000000000000E+00
 0.4400580009453E+00 -0.4002346604189E+01  0.0000000000000E+00
 0.4400638010413E+00 -0.3929422534522E+01  0.0000000000000E+00
 0.4400696011353E+00 -0.3856498488770E+01  0.0000000000000E+00
 0.4400754012318E+00 -0.3783574411191E+01  0.0000000000000E+00
 0.4400812013331E+00 -0.3710650274118E+01  0.0000000000000E+00
 0.4400870014328E+00 -0.3637726157800E+01  0.0000000000000E+00
 0.4400928015255E+00 -0.3564802128718E+01  0.0000000000000E+00
 0.4400986016694E+00 -0.3491877455827E+01  0.0000000000000E+00
 0.4401044017164E+00 -0.3418954001394E+01  0.0000000000000E+00
 0.4401102018126E+00 -0.3346029928392E+01  0.0000000000000E+00
 0.4401160019024E+00 -0.3273105935296E+01  0.0000000000000E+00
 0.4401218019848E+00 -0.3200182035083E+01  0.0000000000000E+00
 0.4401276020702E+00 -0.3127258098070E+01  0.0000000000000E+00
 0.4401334021582E+00 -0.3054334128444E+01  0.0000000000000E+00
 0.4401469418909E+00 -0.2981410096056E+01  0.0000000000000E+00
 0.4402180716374E+00 -0.2908486293893E+01  0.0000000000000E+00
 0.4404160113703E+00 -0.2835564060045E+01  0.0000000000000E+00
 0.4408038598970E+00 -0.2762646668939E+01  0.0000000000000E+00
 0.4414280632953E+00 -0.2689739804005E+01  0.0000000000000E+00
 0.4423184107658E+00 -0.2616850609075E+01  0.0000000000000E+00
 0.4434939497105E+00 -0.2543987417048E+01  0.0000000000000E+00
 0.4449698170227E+00 -0.2471159212037E+01  0.0000000000000E+00
 0.4467631367197E+00 -0.2398376709555E+01  0.0000000000000E+00
 0.4488974659235E+00 -0.2325653497116E+01  0.0000000000000E+00
 0.4513714794224E+00 -0.2252999386040E+01  0.0000000000000E+00
 0.4541506427632E+00 -0.2180416134282E+01  0.0000000000000E+00
 0.4572103030192E+00 -0.2107905419981E+01  0.0000000000000E+00
 0.4605361222013E+00 -0.2035470021620E+01  0.0000000000000E+00
 0.4641234213498E+00 -0.1963114841203E+01  0.0000000000000E+00
 0.4679793811517E+00 -0.1890848777590E+01  0.0000000000000E+00
 0.4721328786209E+00 -0.1818689039456E+01  0.0000000000000E+00
 0.4675051005201E+00 -0.4658710569005E+01  0.0000000000000E+00
 0.4675102010296E+00 -0.4585834164207E+01  0.0000000000000E+00
 0.4675153015704E+00 -0.4512957311885E+01  0.0000000000000E+00
 0.4675204020969E+00 -0.4440080663873E+01  0.0000000000000E+00
 0.4675255026224E+00 -0.4367204030353E+01  0.0000000000000E+00
 0.4675306031498E+00 -0.4294327369449E+01  0.0000000000000E+00
 0.4675357036742E+00 -0.4221450751617E+01  0.0000000000000E+00
 0.4675408042005E+00 -0.4148574107069E+01  0.0000000000000E+00
 0.4675459047264E+00 -0.4075697467873E+01  0.0000000000000E+00
 0.4675510052517E+00 -0.4002820836724E+01  0.0000000000000E+00
 0.4675561057781E+00 -0.3929944190322E+01  0.0000000000000E+00
 0.4675612063029E+00 -0.3857067567819E+01  0.0000000000000E+00
 0.4675663068298E+00 -0.3784190913510E+01  0.0000000000000E+00
 0.4675714073609E+00 -0.3711314199746E+01  0.0000000000000E+00
 0.4675765078906E+00 -0.3638437506723E+01  0.0000000000000E+00
 0.4675816084142E+00 -0.3565560900880E+01  0.0000000000000E+00
 0.4675867089827E+00 -0.3492683651646E+01  0.0000000000000E+00
 0.4675918094661E+00 -0.3419807620078E+01  0.0000000000000E+00
 0.4675969099927E+00 -0.3346930970343E+01  0.0000000000000E+00
 0.4676020105138E+00 -0.3274054400462E+01  0.0000000000000E+00
 0.4676071110283E+00 -0.3201177923403E+01  0.0000000000000E+00
 0.4676122115455E+00 -0.3128301409569E+01  0.0000000000000E+00
 0.4676173120649E+00 -0.3055424863144E+01  0.0000000000000E+00
 0.4676306359560E+00 -0.2982548253998E+01  0.0000000000000E+00
 0.4677051492379E+00 -0.2909671875048E+01  0.0000000000000E+00
 0.4679143981338E+00 -0.2836797064332E+01  0.0000000000000E+00
 0.4683254251255E+00 -0.2763927096339E+01  0.0000000000000E+00
 0.4689875791721E+00 -0.2691067654466E+01  0.0000000000000E+00
 0.4699325112982E+00 -0.2618225882598E+01  0.0000000000000E+00
 0.4711804593705E+00 -0.2545410113560E+01  0.0000000000000E+00
 0.4727475063358E+00 -0.2472629331579E+01  0.0000000000000E+00
 0.4746518464626E+00 -0.2399894252155E+01  0.0000000000000E+00
 0.4769185091967E+00 -0.2327218462663E+01  0.0000000000000E+00
 0.4795460864969E+00 -0.2254611774588E+01  0.0000000000000E+00
 0.4824978855064E+00 -0.2182075945884E+01  0.0000000000000E+00
 0.4857477124908E+00 -0.2109612654658E+01  0.0000000000000E+00
 0.4892803333359E+00 -0.2037224679426E+01  0.0000000000000E+00
 0.4930907766471E+00 -0.1964916922187E+01  0.0000000000000E+00
 0.4971866719080E+00 -0.1892698281639E+01  0.0000000000000E+00
 0.5015987009462E+00 -0.1820585966460E+01  0.0000000000000E+00
 0.4950042083210E+00 -0.4658760848539E+01  0.0000000000000E+00
 0.4950084166332E+00 -0.4585934723169E+01  0.0000000000000E+00
 0.4950126249712E+00 -0.4513108150585E+01  0.0000000000000E+00
 0.4950168332975E+00 -0.4440281782170E+01  0.0000000000000E+00
 0.4950210416229E+00 -0.4367455428237E+01  0.0000000000000E+00
 0.4950252499499E+00 -0.4294629046938E+01  0.0000000000000E+00
 0.4950294582744E+00 -0.4221802708682E+01  0.0000000000000E+00
 0.4950336666004E+00 -0.4148976343728E+01  0.0000000000000E+00
 0.4950378749262E+00 -0.4076149984123E+01  0.0000000000000E+00
 0.4950420832514E+00 -0.4003323632559E+01  0.0000000000000E+00
 0.4950462915776E+00 -0.3930497265753E+01  0.0000000000000E+00
 0.4950504999024E+00 -0.3857670922829E+01  0.0000000000000E+00
 0.4950547082290E+00 -0.3784844548121E+01  0.0000000000000E+00
 0.4950589165590E+00 -0.3712018113999E+01  0.0000000000000E+00
 0.4950631248879E+00 -0.3639191700604E+01  0.0000000000000E+00
 0.4950673332117E+00 -0.3566365374328E+01  0.0000000000000E+00
 0.4950715415726E+00 -0.3493538405106E+01  0.0000000000000E+00
 0.4950757498633E+00 -0.3420712652710E+01  0.0000000000000E+00
 0.4950799581896E+00 -0.3347886282572E+01  0.0000000000000E+00
 0.4950841665114E+00 -0.3275059992234E+01  0.0000000000000E+00
 0.4950883748277E+00 -0.3202233794654E+01  0.0000000000000E+00
 0.4950925831462E+00 -0.3129407560324E+01  0.0000000000000E+00
 0.4950967914666E+00 -0.3056581293425E+01  0.0000000000000E+00
 0.4951097068853E+00 -0.2983754963851E+01  0.0000000000000E+00
 0.4951874110714E+00 -0.2910928864443E+01  0.0000000000000E+00
 0.4954077764972E+00 -0.2838104333180E+01  0.0000000000000E+00
 0.4958417893184E+00 -0.2765284644623E+01  0.0000000000000E+00
 0.4965417013745E+00 -0.2692475482128E+01  0.0000000000000E+00
 0.4975410255139E+00 -0.2619683989641E+01  0.0000000000000E+00
 0.4988611900675E+00 -0.2546918499905E+01  0.0000000000000E+00
 0.5005192240350E+00 -0.2474187997271E+01  0.0000000000000E+00
 0.5025343919363E+00 -0.2401503197224E+01  0.0000000000000E+00
 0.5049331955409E+00 -0.2328877686990E+01  0.0000000000000E+00
 0.5077141439775E+00 -0.2256321278231E+01  0.0000000000000E+00
 0.5108383859861E+00 -0.2183835728900E+01  0.0000000000000E+00
 0.5142781870254E+00 -0.2111422717068E+01  0.0000000000000E+00
 0.5180174168560E+00 -0.2039085021287E+01  0.0000000000000E+00
 0.5220508116484E+00 -0.1966827543550E+01  0.0000000000000E+00
 0.5263864496834E+00 -0.1894659182387E+01  0.0000000000000E+00
 0.5310568176018E+00 -0.1822597146475E+01  0.0000000000000E+00
 0.5225031126404E+00 -0.4658813981299E+01  0.0000000000000E+00
 0.5225062252743E+00 -0.4586040988578E+01  0.0000000000000E+00
 0.5225093379273E+00 -0.4513267548970E+01  0.0000000000000E+00
 0.5225124505716E+00 -0.4440494313380E+01  0.0000000000000E+00
 0.5225155632152E+00 -0.4367721092263E+01  0.0000000000000E+00
 0.5225186758601E+00 -0.4294947843801E+01  0.0000000000000E+00
 0.5225217885031E+00 -0.4222174638349E+01  0.0000000000000E+00
 0.5225249011472E+00 -0.4149401406219E+01  0.0000000000000E+00
 0.5225280137911E+00 -0.4076628179434E+01  0.0000000000000E+00
 0.5225311264347E+00 -0.4003854960684E+01  0.0000000000000E+00
 0.5225342390789E+00 -0.3931081726703E+01  0.0000000000000E+00
 0.5225373517221E+00 -0.3858308516587E+01  0.0000000000000E+00
 0.5225404643666E+00 -0.3785535274710E+01  0.0000000000000E+00
 0.5225435770137E+00 -0.3712761973463E+01  0.0000000000000E+00
 0.5225466896599E+00 -0.3639988692926E+01  0.0000000000000E+00
 0.5225498023024E+00 -0.3567215499446E+01  0.0000000000000E+00
 0.5225529149724E+00 -0.3494441663489E+01  0.0000000000000E+00
 0.5225560275903E+00 -0.3421669043470E+01  0.0000000000000E+00
 0.5225591402347E+00 -0.3348895806160E+01  0.0000000000000E+00
 0.5225622528757E+00 -0.3276122648591E+01  0.0000000000000E+00
 0.5225653655126E+00 -0.3203349583713E+01  0.0000000000000E+00
 0.5225684781512E+00 -0.3130576482112E+01  0.0000000000000E+00
 0.5225715907911E+00 -0.3057803347965E+01  0.0000000000000E+00
 0.5225838942559E+00 -0.2985030151191E+01  0.0000000000000E+00
 0.5226645858642E+00 -0.2912257184550E+01  0.0000000000000E+00
 0.5228958643382E+00 -0.2839485785963E+01  0.0000000000000E+00
 0.5233526595062E+00 -0.2766719230062E+01  0.0000000000000E+00
 0.5240901260887E+00 -0.2693963200164E+01  0.0000000000000E+00
 0.5251436387569E+00 -0.2621224840274E+01  0.0000000000000E+00
 0.5265358163068E+00 -0.2548512483054E+01  0.0000000000000E+00
 0.5282846337900E+00 -0.2475835112982E+01  0.0000000000000E+00
 0.5304104259779E+00 -0.2403203445529E+01  0.0000000000000E+00
 0.5329411669643E+00 -0.2330631067763E+01  0.0000000000000E+00
 0.5358752830470E+00 -0.2258127791534E+01  0.0000000000000E+00
 0.5391717645631E+00 -0.2185695374792E+01  0.0000000000000E+00
 0.5428013361643E+00 -0.2113335495573E+01  0.0000000000000E+00
 0.5467469714862E+00 -0.2041050932465E+01  0.0000000000000E+00
 0.5510031142644E+00 -0.1968846587455E+01  0.0000000000000E+00
 0.5555782915776E+00 -0.1896731358894E+01  0.0000000000000E+00
 0.5605067948795E+00 -0.1824722455461E+01  0.0000000000000E+00
 0.5500018033136E+00 -0.4658869964069E+01  0.0000000000000E+00
 0.5500036066233E+00 -0.4586152954003E+01  0.0000000000000E+00
 0.5500054099442E+00 -0.4513435497392E+01  0.0000000000000E+00
 0.5500072132600E+00 -0.4440718244644E+01  0.0000000000000E+00
 0.5500090165755E+00 -0.4368001006356E+01  0.0000000000000E+00
 0.5500108198916E+00 -0.4295283740744E+01  0.0000000000000E+00
 0.5500126232067E+00 -0.4222566518110E+01  0.0000000000000E+00
 0.5500144265224E+00 -0.4149849268818E+01  0.0000000000000E+00
 0.5500162298380E+00 -0.4077132024867E+01  0.0000000000000E+00
 0.5500180331534E+00 -0.4004414788945E+01  0.0000000000000E+00
 0.5500198364692E+00 -0.3931697537804E+01  0.0000000000000E+00
 0.5500216397843E+00 -0.3858980310509E+01  0.0000000000000E+00
 0.5500234431003E+00 -0.3786263051477E+01  0.0000000000000E+00
 0.5500252464177E+00 -0.3713545733121E+01  0.0000000000000E+00
 0.5500270497347E+00 -0.3640828435461E+01  0.0000000000000E+00
 0.5500288530494E+00 -0.3568111224789E+01  0.0000000000000E+00
 0.5500306563801E+00 -0.3495393372134E+01  0.0000000000000E+00
 0.5500324596807E+00 -0.3422676734482E+01  0.0000000000000E+00
 0.5500342629965E+00 -0.3349959480015E+01  0.0000000000000E+00
 0.5500360663104E+00 -0.3277242305227E+01  0.0000000000000E+00
 0.5500378696220E+00 -0.3204525223058E+01  0.0000000000000E+00
 0.5500396729345E+00 -0.3131808104194E+01  0.0000000000000E+00
 0.5500414762478E+00 -0.3059090952810E+01  0.0000000000000E+00
 0.5500529541124E+00 -0.2986373738849E+01  0.0000000000000E+00
 0.5501364194992E+00 -0.2913656754987E+01  0.0000000000000E+00
 0.5503783973824E+00 -0.2840941339082E+01  0.0000000000000E+00
 0.5508577612655E+00 -0.2768230765842E+01  0.0000000000000E+00
 0.5516325687513E+00 -0.2695530718543E+01  0.0000000000000E+00
 0.5527400563351E+00 -0.2622848341252E+01  0.0000000000000E+00
 0.5542040332787E+00 -0.2550191966546E+01  0.0000000000000E+00
 0.5560434206860E+00 -0.2477570579036E+01  0.0000000000000E+00
 0.5582796235804E+00 -0.2404994894179E+01  0.0000000000000E+00
 0.5609420883813E+00 -0.2332478498877E+01  0.0000000000000E+00
 0.5640291585551E+00 -0.2260031205176E+01  0.0000000000000E+00
 0.5674976660344E+00 -0.2187654771025E+01  0.0000000000000E+00
 0.5713167946636E+00 -0.2115350874421E+01  0.0000000000000E+00
 0.5754686219523E+00 -0.2043122293992E+01  0.0000000000000E+00
 0.5799472992011E+00 -0.1970973931719E+01  0.0000000000000E+00
 0.5847618022875E+00 -0.1898914685761E+01  0.0000000000000E+00
 0.5899482274796E+00 -0.1826961764802E+01  0.0000000000000E+00
 0.5775046063623E+00 -0.4658929169039E+01  0.0000000000000E+00
 0.5775092127151E+00 -0.4586271363819E+01  0.0000000000000E+00
 0.5775138190961E+00 -0.4513613112418E+01  0.0000000000000E+00
 0.5775184254642E+00 -0.4440955064714E+01  0.0000000000000E+00
 0.5775230318314E+00 -0.4368297031459E+01  0.0000000000000E+00
 0.5775276382004E+00 -0.4295638970901E+01  0.0000000000000E+00
 0.5775322445666E+00 -0.4222980953286E+01  0.0000000000000E+00
 0.5775368509345E+00 -0.4150322909036E+01  0.0000000000000E+00
 0.5775414573020E+00 -0.4077664870122E+01  0.0000000000000E+00
 0.5775460636691E+00 -0.4005006839230E+01  0.0000000000000E+00
 0.5775506700371E+00 -0.3932348793131E+01  0.0000000000000E+00
 0.5775552764036E+00 -0.3859690770860E+01  0.0000000000000E+00
 0.5775598827721E+00 -0.3787032716878E+01  0.0000000000000E+00
 0.5775644891444E+00 -0.3714374603619E+01  0.0000000000000E+00
 0.5775690955153E+00 -0.3641716511039E+01  0.0000000000000E+00
 0.5775737018808E+00 -0.3569058505377E+01  0.0000000000000E+00
 0.5775783082869E+00 -0.3496399858254E+01  0.0000000000000E+00
 0.5775829146160E+00 -0.3423742425146E+01  0.0000000000000E+00
 0.5775875209843E+00 -0.3351084375724E+01  0.0000000000000E+00
 0.5775921273474E+00 -0.3278426405916E+01  0.0000000000000E+00
 0.5775967337047E+00 -0.3205768528653E+01  0.0000000000000E+00
 0.5776013400644E+00 -0.3133110614724E+01  0.0000000000000E+00
 0.5776059464261E+00 -0.3060452668301E+01  0.0000000000000E+00
 0.5776207126381E+00 -0.2987794659355E+01  0.0000000000000E+00
 0.5777110774219E+00 -0.2915136880472E+01  0.0000000000000E+00
 0.5779679060300E+00 -0.2842480669443E+01  0.0000000000000E+00
 0.5784740284367E+00 -0.2769829301057E+01  0.0000000000000E+00
 0.5792904145389E+00 -0.2697188458545E+01  0.0000000000000E+00
 0.5804561686988E+00 -0.2624565286044E+01  0.0000000000000E+00
 0.5819962944983E+00 -0.2551968116035E+01  0.0000000000000E+00
 0.5839306621719E+00 -0.2479405933275E+01  0.0000000000000E+00
 0.5862817504648E+00 -0.2406889453203E+01  0.0000000000000E+00
 0.5890804828851E+00 -0.2334432262545E+01  0.0000000000000E+00
 0.5923251198134E+00 -0.2262044173559E+01  0.0000000000000E+00
 0.5959703277778E+00 -0.2189726944188E+01  0.0000000000000E+00
 0.5999837448152E+00 -0.2117482252390E+01  0.0000000000000E+00
 0.6043465494057E+00 -0.2045312876833E+01  0.0000000000000E+00
 0.6090525994664E+00 -0.1973223719494E+01  0.0000000000000E+00
 0.6141113211150E+00 -0.1901223678329E+01  0.0000000000000E+00
 0.6195606212872E+00 -0.1829329962027E+01  0.0000000000000E+00
 0.6050071700463E+00 -0.4658991252418E+01  0.0000000000000E+00
 0.6050143400778E+00 -0.4586395530448E+01  0.0000000000000E+00
 0.6050215101532E+00 -0.4513799362679E+01  0.0000000000000E+00
 0.6050286802085E+00 -0.4441203398432E+01  0.0000000000000E+00
 0.6050358502624E+00 -0.4368607448621E+01  0.0000000000000E+00
 0.6050430203191E+00 -0.4296011471532E+01  0.0000000000000E+00
 0.6050501903714E+00 -0.4223415537349E+01  0.0000000000000E+00
 0.6050573604264E+00 -0.4150819576553E+01  0.0000000000000E+00
 0.6050645304809E+00 -0.4078223621089E+01  0.0000000000000E+00
 0.6050717005346E+00 -0.4005627673640E+01  0.0000000000000E+00
 0.6050788705898E+00 -0.3933031710997E+01  0.0000000000000E+00
 0.6050860406426E+00 -0.3860435772161E+01  0.0000000000000E+00
 0.6050932106985E+00 -0.3787839801641E+01  0.0000000000000E+00
 0.6051003807603E+00 -0.3715243771896E+01  0.0000000000000E+00
 0.6051075508201E+00 -0.3642647762811E+01  0.0000000000000E+00
 0.6051147208713E+00 -0.3570051840571E+01  0.0000000000000E+00
 0.6051218909858E+00 -0.3497455277418E+01  0.0000000000000E+00
 0.6051290609805E+00 -0.3424859927241E+01  0.0000000000000E+00
 0.6051362310360E+00 -0.3352263961278E+01  0.0000000000000E+00
 0.6051434010836E+00 -0.3279668074861E+01  0.0000000000000E+00
 0.6051505711222E+00 -0.3207072280909E+01  0.0000000000000E+00
 0.6051577411643E+00 -0.3134476450324E+01  0.0000000000000E+00
 0.6051649112096E+00 -0.3061880587272E+01  0.0000000000000E+00
 0.6051827264041E+00 -0.2989284661751E+01  0.0000000000000E+00
 0.6052797512201E+00 -0.2916688966257E+01  0.0000000000000E+00
 0.6055511911890E+00 -0.2844094838509E+01  0.0000000000000E+00
 0.6060838327555E+00 -0.2771505553381E+01  0.0000000000000E+00
 0.6069415581107E+00 -0.2698926794058E+01  0.0000000000000E+00
 0.6081653394835E+00 -0.2626365704746E+01  0.0000000000000E+00
 0.6097813747766E+00 -0.2553830617832E+01  0.0000000000000E+00
 0.6118104833542E+00 -0.2481330518221E+01  0.0000000000000E+00
 0.6142762176836E+00 -0.2408876121334E+01  0.0000000000000E+00
 0.6172109783622E+00 -0.2336481013715E+01  0.0000000000000E+00
 0.6206129426840E+00 -0.2264155007840E+01  0.0000000000000E+00
 0.6244346117725E+00 -0.2191899861649E+01  0.0000000000000E+00
 0.6286420778573E+00 -0.2119717253058E+01  0.0000000000000E+00
 0.6332156203890E+00 -0.2047609960779E+01  0.0000000000000E+00
 0.6381488039008E+00 -0.1975582886781E+01  0.0000000000000E+00
 0.6434515047517E+00 -0.1903644928812E+01  0.0000000000000E+00
 0.6491634405451E+00 -0.1831813295560E+01  0.0000000000000E+00
 0.6325094832707E+00 -0.4659056210343E+01  0.0000000000000E+00
 0.6325189665217E+00 -0.4586525446162E+01  0.0000000000000E+00
 0.6325284498309E+00 -0.4513994236580E+01  0.0000000000000E+00
 0.6325379331135E+00 -0.4441463230339E+01  0.0000000000000E+00
 0.6325474163943E+00 -0.4368932238522E+01  0.0000000000000E+00
 0.6325568996786E+00 -0.4296401219450E+01  0.0000000000000E+00
 0.6325663829573E+00 -0.4223870243246E+01  0.0000000000000E+00
 0.6325758662394E+00 -0.4151339240452E+01  0.0000000000000E+00
 0.6325853495209E+00 -0.4078808242986E+01  0.0000000000000E+00
 0.6325948328014E+00 -0.4006277253528E+01  0.0000000000000E+00
 0.6326043160838E+00 -0.3933746248890E+01  0.0000000000000E+00
 0.6326137993631E+00 -0.3861215268037E+01  0.0000000000000E+00
 0.6326232826465E+00 -0.3788684255529E+01  0.0000000000000E+00
 0.6326327659377E+00 -0.3716153183848E+01  0.0000000000000E+00
 0.6326422492262E+00 -0.3643622132809E+01  0.0000000000000E+00
 0.6326517325033E+00 -0.3571091168537E+01  0.0000000000000E+00
 0.6326612158642E+00 -0.3498559563925E+01  0.0000000000000E+00
 0.6326706990666E+00 -0.3426029171205E+01  0.0000000000000E+00
 0.6326801823494E+00 -0.3353498163249E+01  0.0000000000000E+00
 0.6326896656219E+00 -0.3280967234769E+01  0.0000000000000E+00
 0.6326991488823E+00 -0.3208436398670E+01  0.0000000000000E+00
 0.6327086321474E+00 -0.3135905525971E+01  0.0000000000000E+00
 0.6327181154168E+00 -0.3063374620834E+01  0.0000000000000E+00
 0.6327387291340E+00 -0.2990843653288E+01  0.0000000000000E+00
 0.6328421635227E+00 -0.2918312915727E+01  0.0000000000000E+00
 0.6331279643934E+00 -0.2845783745801E+01  0.0000000000000E+00
 0.6336868746610E+00 -0.2773259418471E+01  0.0000000000000E+00
 0.6345856888113E+00 -0.2700745616872E+01  0.0000000000000E+00
 0.6358672469395E+00 -0.2628249485287E+01  0.0000000000000E+00
 0.6375589412693E+00 -0.2555779355998E+01  0.0000000000000E+00
 0.6396825402943E+00 -0.2483344214070E+01  0.0000000000000E+00
 0.6422626702039E+00 -0.2410954774905E+01  0.0000000000000E+00
 0.6453332086857E+00 -0.2338624624854E+01  0.0000000000000E+00
 0.6488922499460E+00 -0.2266363576622E+01  0.0000000000000E+00
 0.6528901297038E+00 -0.2194173388147E+01  0.0000000000000E+00
 0.6572913943814E+00 -0.2122055737301E+01  0.0000000000000E+00
 0.6620754243999E+00 -0.2050013402840E+01  0.0000000000000E+00
 0.6672354909085E+00 -0.1978051286727E+01  0.0000000000000E+00
 0.6727819205084E+00 -0.1906178286488E+01  0.0000000000000E+00
 0.6787562414707E+00 -0.1834411610816E+01  0.0000000000000E+00
 0.6600115349916E+00 -0.4659124038777E+01  0.0000000000000E+00
 0.6600230699592E+00 -0.4586661102889E+01  0.0000000000000E+00
 0.6600346049976E+00 -0.4514197722017E+01  0.0000000000000E+00
 0.6600461400037E+00 -0.4441734544296E+01  0.0000000000000E+00
 0.6600576750075E+00 -0.4369271380984E+01  0.0000000000000E+00
 0.6600692100156E+00 -0.4296808190443E+01  0.0000000000000E+00
 0.6600807450169E+00 -0.4224345042731E+01  0.0000000000000E+00
 0.6600922800224E+00 -0.4151881868453E+01  0.0000000000000E+00
 0.6601038150271E+00 -0.4079418699498E+01  0.0000000000000E+00
 0.6601153500305E+00 -0.4006955538544E+01  0.0000000000000E+00
 0.6601268850364E+00 -0.3934492362423E+01  0.0000000000000E+00
 0.6601384200384E+00 -0.3862029210066E+01  0.0000000000000E+00
 0.6601499550455E+00 -0.3789566026083E+01  0.0000000000000E+00
 0.6601614900620E+00 -0.3717102782983E+01  0.0000000000000E+00
 0.6601730250752E+00 -0.3644639560506E+01  0.0000000000000E+00
 0.6601845600746E+00 -0.3572176424713E+01  0.0000000000000E+00
 0.6601960951758E+00 -0.3499712649181E+01  0.0000000000000E+00
 0.6602076300843E+00 -0.3427250084407E+01  0.0000000000000E+00
 0.6602191650907E+00 -0.3354786904972E+01  0.0000000000000E+00
 0.6602307000844E+00 -0.3282323804938E+01  0.0000000000000E+00
 0.6602422350634E+00 -0.3209860797199E+01  0.0000000000000E+00
 0.6602537700482E+00 -0.3137397752895E+01  0.0000000000000E+00
 0.6602653050382E+00 -0.3064934676183E+01  0.0000000000000E+00
 0.6602884557744E+00 -0.2992471537122E+01  0.0000000000000E+00
 0.6603980382323E+00 -0.2920008628006E+01  0.0000000000000E+00
 0.6606979385021E+00 -0.2847547286406E+01  0.0000000000000E+00
 0.6612828559686E+00 -0.2775090787378E+01  0.0000000000000E+00
 0.6622224974123E+00 -0.2702644814005E+01  0.0000000000000E+00
 0.6635615707948E+00 -0.2630216510647E+01  0.0000000000000E+00
 0.6653286626613E+00 -0.2557814209481E+01  0.0000000000000E+00
 0.6675464906339E+00 -0.2485446895735E+01  0.0000000000000E+00
 0.6702407546242E+00 -0.2413125284793E+01  0.0000000000000E+00
 0.6734468094109E+00 -0.2340862962804E+01  0.0000000000000E+00
 0.6771626661118E+00 -0.2268669742713E+01  0.0000000000000E+00
 0.6813364950413E+00 -0.2196547382455E+01  0.0000000000000E+00
 0.6859312968146E+00 -0.2124497559855E+01  0.0000000000000E+00
 0.6909255528227E+00 -0.2052523053717E+01  0.0000000000000E+00
 0.6963122408314E+00 -0.1980628765997E+01  0.0000000000000E+00
 0.7021021376845E+00 -0.1908823593990E+01  0.0000000000000E+00
 0.7083385823212E+00 -0.1837124746394E+01  0.0000000000000E+00
 0.6875133142182E+00 -0.4659194733517E+01  0.0000000000000E+00
 0.6875266284087E+00 -0.4586802492222E+01  0.0000000000000E+00
 0.6875399426809E+00 -0.4514409806377E+01  0.0000000000000E+00
 0.6875532569158E+00 -0.4442017323484E+01  0.0000000000000E+00
 0.6875665711481E+00 -0.4369624854987E+01  0.0000000000000E+00
 0.6875798853854E+00 -0.4297232359288E+01  0.0000000000000E+00
 0.6875931996148E+00 -0.4224839906374E+01  0.0000000000000E+00
 0.6876065138490E+00 -0.4152447426922E+01  0.0000000000000E+00
 0.6876198280823E+00 -0.4080054952788E+01  0.0000000000000E+00
 0.6876331423142E+00 -0.4007662486646E+01  0.0000000000000E+00
 0.6876464565488E+00 -0.3935270005352E+01  0.0000000000000E+00
 0.6876597707790E+00 -0.3862877547799E+01  0.0000000000000E+00
 0.6876730850151E+00 -0.3790485058651E+01  0.0000000000000E+00
 0.6876863992620E+00 -0.3718092510443E+01  0.0000000000000E+00
 0.6876997135052E+00 -0.3645699982838E+01  0.0000000000000E+00
 0.6877130277324E+00 -0.3573307541834E+01  0.0000000000000E+00
 0.6877263420771E+00 -0.3500914461714E+01  0.0000000000000E+00
 0.6877396561994E+00 -0.3428522591170E+01  0.0000000000000E+00
 0.6877529704346E+00 -0.3356130106565E+01  0.0000000000000E+00
 0.6877662846553E+00 -0.3283737701285E+01  0.0000000000000E+00
 0.6877795988589E+00 -0.3211345388209E+01  0.0000000000000E+00
 0.6877929130693E+00 -0.3138953038603E+01  0.0000000000000E+00
 0.6878062272857E+00 -0.3066560656621E+01  0.0000000000000E+00
 0.6878316425464E+00 -0.2994168212354E+01  0.0000000000000E+00
 0.6879471005793E+00 -0.2921775997988E+01  0.0000000000000E+00
 0.6882608277547E+00 -0.2849385351017E+01  0.0000000000000E+00
 0.6888714799273E+00 -0.2776999546590E+01  0.0000000000000E+00
 0.6898516761724E+00 -0.2704624267741E+01  0.0000000000000E+00
 0.6912479923176E+00 -0.2632266658906E+01  0.0000000000000E+00
 0.6930902092303E+00 -0.2559935052156E+01  0.0000000000000E+00
 0.6954019936605E+00 -0.2487638432887E+01  0.0000000000000E+00
 0.6982101192422E+00 -0.2415387516464E+01  0.0000000000000E+00
 0.7015514178457E+00 -0.2343195888828E+01  0.0000000000000E+00
 0.7054238174997E+00 -0.2271073363171E+01  0.0000000000000E+00
 0.7097733231136E+00 -0.2199021697426E+01  0.0000000000000E+00
 0.7145613894959E+00 -0.2127042569371E+01  0.0000000000000E+00
 0.7197655990073E+00 -0.2055138757856E+01  0.0000000000000E+00
 0.7253786360298E+00 -0.1983315164833E+01  0.0000000000000E+00
 0.7314117276514E+00 -0.1911580687357E+01  0.0000000000000E+00
 0.7379100234788E+00 -0.1839952534126E+01  0.0000000000000E+00
 0.7150148100149E+00 -0.4659268290191E+01  0.0000000000000E+00
 0.7150296199990E+00 -0.4586949605417E+01  0.0000000000000E+00
 0.7150444300741E+00 -0.4514630476544E+01  0.0000000000000E+00
 0.7150592401076E+00 -0.4442311550418E+01  0.0000000000000E+00
 0.7150740501382E+00 -0.4369992638672E+01  0.0000000000000E+00
 0.7150888601743E+00 -0.4297673699752E+01  0.0000000000000E+00
 0.7151036702017E+00 -0.4225354803575E+01  0.0000000000000E+00
 0.7151184802345E+00 -0.4153035880886E+01  0.0000000000000E+00
 0.7151332902662E+00 -0.4080716963508E+01  0.0000000000000E+00
 0.7151481002963E+00 -0.4008398054116E+01  0.0000000000000E+00
 0.7151629103295E+00 -0.3936079129587E+01  0.0000000000000E+00
 0.7151777203579E+00 -0.3863760228774E+01  0.0000000000000E+00
 0.7151925303927E+00 -0.3791441296399E+01  0.0000000000000E+00
 0.7152073404395E+00 -0.3719122305024E+01  0.0000000000000E+00
 0.7152221504822E+00 -0.3646803334230E+01  0.0000000000000E+00
 0.7152369605072E+00 -0.3574484449950E+01  0.0000000000000E+00
 0.7152517706629E+00 -0.3502164927202E+01  0.0000000000000E+00
 0.7152665805711E+00 -0.3429846612803E+01  0.0000000000000E+00
 0.7152813906050E+00 -0.3357527684966E+01  0.0000000000000E+00
 0.7152962006226E+00 -0.3285208836373E+01  0.0000000000000E+00
 0.7153110106214E+00 -0.3212890079891E+01  0.0000000000000E+00
 0.7153258206276E+00 -0.3140571286916E+01  0.0000000000000E+00
 0.7153406306405E+00 -0.3068252461598E+01  0.0000000000000E+00
 0.7153680269957E+00 -0.2995933574060E+01  0.0000000000000E+00
 0.7154890771739E+00 -0.2923614916380E+01  0.0000000000000E+00
 0.7158163478261E+00 -0.2851297825966E+01  0.0000000000000E+00
 0.7164524512764E+00 -0.2778985578070E+01  0.0000000000000E+00
 0.7174729188955E+00 -0.2706683855668E+01  0.0000000000000E+00
 0.7189261943769E+00 -0.2634399803283E+01  0.0000000000000E+00
 0.7208432529104E+00 -0.2562141752869E+01  0.0000000000000E+00
 0.7232487103733E+00 -0.2489918690001E+01  0.0000000000000E+00
 0.7261704141222E+00 -0.2417741330022E+01  0.0000000000000E+00
 0.7296466731201E+00 -0.2345623258656E+01  0.0000000000000E+00
 0.7336753323051E+00 -0.2273574289355E+01  0.0000000000000E+00
 0.7382002311820E+00 -0.2201596180048E+01  0.0000000000000E+00
 0.7431812787523E+00 -0.2129690608463E+01  0.0000000000000E+00
 0.7485951583465E+00 -0.2057860353502E+01  0.0000000000000E+00
 0.7544342609629E+00 -0.1986110317108E+01  0.0000000000000E+00
 0.7607102639342E+00 -0.1914449396087E+01  0.0000000000000E+00
 0.7674701275352E+00 -0.1842894799141E+01  0.0000000000000E+00
 0.7425160112565E+00 -0.4659344704234E+01  0.0000000000000E+00
 0.7425320224796E+00 -0.4587102433343E+01  0.0000000000000E+00
 0.7425480338010E+00 -0.4514859718823E+01  0.0000000000000E+00
 0.7425640450775E+00 -0.4442617206834E+01  0.0000000000000E+00
 0.7425800563509E+00 -0.4370374709212E+01  0.0000000000000E+00
 0.7425960676302E+00 -0.4298132184444E+01  0.0000000000000E+00
 0.7426120789002E+00 -0.4225889702373E+01  0.0000000000000E+00
 0.7426280901759E+00 -0.4153647193819E+01  0.0000000000000E+00
 0.7426441014505E+00 -0.4081404690570E+01  0.0000000000000E+00
 0.7426601127234E+00 -0.4009162195299E+01  0.0000000000000E+00
 0.7426761239995E+00 -0.3936919684906E+01  0.0000000000000E+00
 0.7426921352705E+00 -0.3864677198205E+01  0.0000000000000E+00
 0.7427081465484E+00 -0.3792434679975E+01  0.0000000000000E+00
 0.7427241578394E+00 -0.3720192102807E+01  0.0000000000000E+00
 0.7427401691258E+00 -0.3647949546199E+01  0.0000000000000E+00
 0.7427561803931E+00 -0.3575707076013E+01  0.0000000000000E+00
 0.7427721918017E+00 -0.3503463968034E+01  0.0000000000000E+00
 0.7427882029428E+00 -0.3431222067126E+01  0.0000000000000E+00
 0.7428042142197E+00 -0.3358979553430E+01  0.0000000000000E+00
 0.7428202254791E+00 -0.3286737118893E+01  0.0000000000000E+00
 0.7428362367181E+00 -0.3214494776370E+01  0.0000000000000E+00
 0.7428522479651E+00 -0.3142252397393E+01  0.0000000000000E+00
 0.7428682592193E+00 -0.3070009986107E+01  0.0000000000000E+00
 0.7428973421134E+00 -0.2997767512669E+01  0.0000000000000E+00
 0.7430236898812E+00 -0.2925525269043E+01  0.0000000000000E+00
 0.7433642094537E+00 -0.2853284592550E+01  0.0000000000000E+00
 0.7440254696239E+00 -0.2781048758547E+01  0.0000000000000E+00
 0.7450859140576E+00 -0.2708823449953E+01  0.0000000000000E+00
 0.7465958543135E+00 -0.2636615811377E+01  0.0000000000000E+00
 0.7485874599040E+00 -0.2564434174655E+01  0.0000000000000E+00
 0.7510862958333E+00 -0.2492287525545E+01  0.0000000000000E+00
 0.7541212831801E+00 -0.2420186579370E+01  0.0000000000000E+00
 0.7577322080008E+00 -0.2348144921627E+01  0.0000000000000E+00
 0.7619168321423E+00 -0.2276172366038E+01  0.0000000000000E+00
 0.7666168297047E+00 -0.2204270670529E+01  0.0000000000000E+00
 0.7717905638831E+00 -0.2132441512775E+01  0.0000000000000E+00
 0.7774138189777E+00 -0.2060687671731E+01  0.0000000000000E+00
 0.7834786926029E+00 -0.1989014049333E+01  0.0000000000000E+00
 0.7899973123374E+00 -0.1917429542126E+01  0.0000000000000E+00
 0.7970184491235E+00 -0.1845951358818E+01  0.0000000000000E+00
 0.7700169072712E+00 -0.4659423970956E+01  0.0000000000000E+00
 0.7700338145071E+00 -0.4587260966622E+01  0.0000000000000E+00
 0.7700507218469E+00 -0.4515097519146E+01  0.0000000000000E+00
 0.7700676291392E+00 -0.4442934273980E+01  0.0000000000000E+00
 0.7700845364282E+00 -0.4370771043164E+01  0.0000000000000E+00
 0.7701014437236E+00 -0.4298607785231E+01  0.0000000000000E+00
 0.7701183510089E+00 -0.4226444569949E+01  0.0000000000000E+00
 0.7701352583005E+00 -0.4154281328213E+01  0.0000000000000E+00
 0.7701521655908E+00 -0.4082118091776E+01  0.0000000000000E+00
 0.7701690728792E+00 -0.4009954863308E+01  0.0000000000000E+00
 0.7701859801712E+00 -0.3937791619736E+01  0.0000000000000E+00
 0.7702028874577E+00 -0.3865628399829E+01  0.0000000000000E+00
 0.7702197947515E+00 -0.3793465148427E+01  0.0000000000000E+00
 0.7702367020591E+00 -0.3721301838152E+01  0.0000000000000E+00
 0.7702536093619E+00 -0.3649138548415E+01  0.0000000000000E+00
 0.7702705166445E+00 -0.3576975345005E+01  0.0000000000000E+00
 0.7702874240763E+00 -0.3504811504502E+01  0.0000000000000E+00
 0.7703043312257E+00 -0.3432648869745E+01  0.0000000000000E+00
 0.7703212385184E+00 -0.3360485622873E+01  0.0000000000000E+00
 0.7703381457926E+00 -0.3288322455072E+01  0.0000000000000E+00
 0.7703550530453E+00 -0.3216159379186E+01  0.0000000000000E+00
 0.7703719603066E+00 -0.3143996266884E+01  0.0000000000000E+00
 0.7703888675754E+00 -0.3071833122309E+01  0.0000000000000E+00
 0.7704193317813E+00 -0.2999669915654E+01  0.0000000000000E+00
 0.7705506719117E+00 -0.2927506938761E+01  0.0000000000000E+00
 0.7709041351781E+00 -0.2855345528865E+01  0.0000000000000E+00
 0.7715902468416E+00 -0.2783188961430E+01  0.0000000000000E+00
 0.7726903628635E+00 -0.2711042919314E+01  0.0000000000000E+00
 0.7742566626671E+00 -0.2638914547219E+01  0.0000000000000E+00
 0.7763225100882E+00 -0.2566812176855E+01  0.0000000000000E+00
 0.7789144192568E+00 -0.2494744794173E+01  0.0000000000000E+00
 0.7820623849740E+00 -0.2422723114472E+01  0.0000000000000E+00
 0.7858076703905E+00 -0.2350760723017E+01  0.0000000000000E+00
 0.7901479542606E+00 -0.2278867433808E+01  0.0000000000000E+00
 0.7950227452801E+00 -0.2207045004767E+01  0.0000000000000E+00
 0.8003888608380E+00 -0.2135295113515E+01  0.0000000000000E+00
 0.8062211862034E+00 -0.2063620539063E+01  0.0000000000000E+00
 0.8125115256075E+00 -0.1992026183340E+01  0.0000000000000E+00
 0.8192724568757E+00 -0.1920520942619E+01  0.0000000000000E+00
 0.8265545616180E+00 -0.1849122025614E+01  0.0000000000000E+00
 0.7975174873666E+00 -0.4659506085499E+01  0.0000000000000E+00
 0.7975349746967E+00 -0.4587425195538E+01  0.0000000000000E+00
 0.7975524621343E+00 -0.4515343862938E+01  0.0000000000000E+00
 0.7975699495228E+00 -0.4443262732417E+01  0.0000000000000E+00
 0.7975874369078E+00 -0.4371181616231E+01  0.0000000000000E+00
 0.7976049242994E+00 -0.4299100472959E+01  0.0000000000000E+00
 0.7976224116807E+00 -0.4227019372289E+01  0.0000000000000E+00
 0.7976398990684E+00 -0.4154938245195E+01  0.0000000000000E+00
 0.7976573864548E+00 -0.4082857123395E+01  0.0000000000000E+00
 0.7976748738393E+00 -0.4010776009554E+01  0.0000000000000E+00
 0.7976923612274E+00 -0.3938694880626E+01  0.0000000000000E+00
 0.7977098486098E+00 -0.3866613775336E+01  0.0000000000000E+00
 0.7977273359998E+00 -0.3794532638587E+01  0.0000000000000E+00
 0.7977448234041E+00 -0.3722451443033E+01  0.0000000000000E+00
 0.7977623108034E+00 -0.3650370267993E+01  0.0000000000000E+00
 0.7977797981818E+00 -0.3578289179181E+01  0.0000000000000E+00
 0.7977972857146E+00 -0.3506207454001E+01  0.0000000000000E+00
 0.7978147729552E+00 -0.3434126933196E+01  0.0000000000000E+00
 0.7978322603441E+00 -0.3362045800972E+01  0.0000000000000E+00
 0.7978497477139E+00 -0.3289964747730E+01  0.0000000000000E+00
 0.7978672350614E+00 -0.3217883786296E+01  0.0000000000000E+00
 0.7978847224177E+00 -0.3145802788489E+01  0.0000000000000E+00
 0.7979022097818E+00 -0.3073721758446E+01  0.0000000000000E+00
 0.7979337393802E+00 -0.3001640666396E+01  0.0000000000000E+00
 0.7980697559540E+00 -0.2929559804059E+01  0.0000000000000E+00
 0.7984358469961E+00 -0.2857480508576E+01  0.0000000000000E+00
 0.7991464942352E+00 -0.2785406055523E+01  0.0000000000000E+00
 0.8002859659286E+00 -0.2713342127699E+01  0.0000000000000E+00
 0.8019083093641E+00 -0.2641295869896E+01  0.0000000000000E+00
 0.8040480827013E+00 -0.2569275613697E+01  0.0000000000000E+00
 0.8067327491951E+00 -0.2497290345253E+01  0.0000000000000E+00
 0.8099933773693E+00 -0.2425350779840E+01  0.0000000000000E+00
 0.8138727074699E+00 -0.2353470502477E+01  0.0000000000000E+00
 0.8183683351576E+00 -0.2281659327455E+01  0.0000000000000E+00
 0.8234176037235E+00 -0.2209919012694E+01  0.0000000000000E+00
 0.8289757847507E+00 -0.2138251235758E+01  0.0000000000000E+00
 0.8350168644774E+00 -0.2066658775715E+01  0.0000000000000E+00
 0.8415323537512E+00 -0.1995146534484E+01  0.0000000000000E+00
 0.8485352806454E+00 -0.1923723408063E+01  0.0000000000000E+00
 0.8560780374376E+00 -0.1852406605166E+01  0.0000000000000E+00
 0.8250177408470E+00 -0.4659591042836E+01  0.0000000000000E+00
 0.8250354816571E+00 -0.4587595110033E+01  0.0000000000000E+00
 0.8250532225761E+00 -0.4515598735114E+01  0.0000000000000E+00
 0.8250709634454E+00 -0.4443602562037E+01  0.0000000000000E+00
 0.8250887043112E+00 -0.4371606403276E+01  0.0000000000000E+00
 0.8251064451836E+00 -0.4299610217462E+01  0.0000000000000E+00
 0.8251241860456E+00 -0.4227614074200E+01  0.0000000000000E+00
 0.8251419269140E+00 -0.4155617904545E+01  0.0000000000000E+00
 0.8251596677812E+00 -0.4083621740177E+01  0.0000000000000E+00
 0.8251774086463E+00 -0.4011625583759E+01  0.0000000000000E+00
 0.8251951495152E+00 -0.3939629412272E+01  0.0000000000000E+00
 0.8252128903783E+00 -0.3867633264395E+01  0.0000000000000E+00
 0.8252306312491E+00 -0.3795637085097E+01  0.0000000000000E+00
 0.8252483721344E+00 -0.3723640847062E+01  0.0000000000000E+00
 0.8252661130147E+00 -0.3651644629517E+01  0.0000000000000E+00
 0.8252838538737E+00 -0.3579648498099E+01  0.0000000000000E+00
 0.8253015948893E+00 -0.3507651731063E+01  0.0000000000000E+00
 0.8253193356086E+00 -0.3435656166982E+01  0.0000000000000E+00
 0.8253370764783E+00 -0.3363659992202E+01  0.0000000000000E+00
 0.8253548173285E+00 -0.3291663896312E+01  0.0000000000000E+00
 0.8253725581562E+00 -0.3219667892122E+01  0.0000000000000E+00
 0.8253902989928E+00 -0.3147671851602E+01  0.0000000000000E+00
 0.8254080398374E+00 -0.3075675778883E+01  0.0000000000000E+00
 0.8254403082130E+00 -0.3003679644234E+01  0.0000000000000E+00
 0.8255806746155E+00 -0.2931683739246E+01  0.0000000000000E+00
 0.8259590668194E+00 -0.2859689400964E+01  0.0000000000000E+00
 0.8266939230211E+00 -0.2787699905082E+01  0.0000000000000E+00
 0.8278724237742E+00 -0.2715720934332E+01  0.0000000000000E+00
 0.8295504842306E+00 -0.2643759633606E+01  0.0000000000000E+00
 0.8317638568742E+00 -0.2571824334354E+01  0.0000000000000E+00
 0.8345409540844E+00 -0.2499924022930E+01  0.0000000000000E+00
 0.8379139181077E+00 -0.2428069414587E+01  0.0000000000000E+00
 0.8419269662863E+00 -0.2356274094095E+01  0.0000000000000E+00
 0.8465776111862E+00 -0.2284547876042E+01  0.0000000000000E+00
 0.8518010306940E+00 -0.2212892518345E+01  0.0000000000000E+00
 0.8575509505866E+00 -0.2141309698510E+01  0.0000000000000E+00
 0.8638004580713E+00 -0.2069802195663E+01  0.0000000000000E+00
 0.8705407706120E+00 -0.1998374911717E+01  0.0000000000000E+00
 0.8777853665310E+00 -0.1927036742379E+01  0.0000000000000E+00
 0.8855884487738E+00 -0.1855804896368E+01  0.0000000000000E+00
 0.8525176570821E+00 -0.4659678837778E+01  0.0000000000000E+00
 0.8525353141273E+00 -0.4587770699734E+01  0.0000000000000E+00
 0.8525529712811E+00 -0.4515862120114E+01  0.0000000000000E+00
 0.8525706283853E+00 -0.4443953742088E+01  0.0000000000000E+00
 0.8525882854860E+00 -0.4372045378363E+01  0.0000000000000E+00
 0.8526059425933E+00 -0.4300136987617E+01  0.0000000000000E+00
 0.8526235996902E+00 -0.4228228639370E+01  0.0000000000000E+00
 0.8526412567936E+00 -0.4156320264763E+01  0.0000000000000E+00
 0.8526589138956E+00 -0.4084411895437E+01  0.0000000000000E+00
 0.8526765709957E+00 -0.4012503534050E+01  0.0000000000000E+00
 0.8526942280996E+00 -0.3940595157614E+01  0.0000000000000E+00
 0.8527118851976E+00 -0.3868686804758E+01  0.0000000000000E+00
 0.8527295423033E+00 -0.3796778420520E+01  0.0000000000000E+00
 0.8527471994235E+00 -0.3724869977616E+01  0.0000000000000E+00
 0.8527648565386E+00 -0.3652961555178E+01  0.0000000000000E+00
 0.8527825136326E+00 -0.3581053218760E+01  0.0000000000000E+00
 0.8528001708824E+00 -0.3509144247501E+01  0.0000000000000E+00
 0.8528178278373E+00 -0.3437236477730E+01  0.0000000000000E+00
 0.8528354849419E+00 -0.3365328098005E+01  0.0000000000000E+00
 0.8528531420272E+00 -0.3293419797072E+01  0.0000000000000E+00
 0.8528707990900E+00 -0.3221511587729E+01  0.0000000000000E+00
 0.8528884561617E+00 -0.3149603342098E+01  0.0000000000000E+00
 0.8529061132413E+00 -0.3077695064310E+01  0.0000000000000E+00
 0.8529387831484E+00 -0.3005786724669E+01  0.0000000000000E+00
 0.8530831621344E+00 -0.2933878614636E+01  0.0000000000000E+00
 0.8534735182559E+00 -0.2861972071157E+01  0.0000000000000E+00
 0.8542322461771E+00 -0.2790070370046E+01  0.0000000000000E+00
 0.8554494387479E+00 -0.2718179193968E+01  0.0000000000000E+00
 0.8571828789842E+00 -0.2646305687916E+01  0.0000000000000E+00
 0.8594695136951E+00 -0.2574458183202E+01  0.0000000000000E+00
 0.8623387043834E+00 -0.2502645666394E+01  0.0000000000000E+00
 0.8658236670186E+00 -0.2430878852720E+01  0.0000000000000E+00
 0.8699700960402E+00 -0.2359171326688E+01  0.0000000000000E+00
 0.8747754209183E+00 -0.2287532903197E+01  0.0000000000000E+00
 0.8801726541347E+00 -0.2215965340160E+01  0.0000000000000E+00
 0.8861139756606E+00 -0.2144470315024E+01  0.0000000000000E+00
 0.8925715736717E+00 -0.2073050606976E+01  0.0000000000000E+00
 0.8995363722484E+00 -0.2001711117918E+01  0.0000000000000E+00
 0.9070222999633E+00 -0.1930460743261E+01  0.0000000000000E+00
 0.9150853704297E+00 -0.1859316691727E+01  0.0000000000000E+00
 0.8800172252787E+00 -0.4659769464950E+01  0.0000000000000E+00
 0.8800344505215E+00 -0.4587951953890E+01  0.0000000000000E+00
 0.8800516758700E+00 -0.4516134001809E+01  0.0000000000000E+00
 0.8800689011703E+00 -0.4444316251069E+01  0.0000000000000E+00
 0.8800861264672E+00 -0.4372498514612E+01  0.0000000000000E+00
 0.8801033517705E+00 -0.4300680751167E+01  0.0000000000000E+00
 0.8801205770637E+00 -0.4228863030169E+01  0.0000000000000E+00
 0.8801378023631E+00 -0.4157045282843E+01  0.0000000000000E+00
 0.8801550276613E+00 -0.4085227540792E+01  0.0000000000000E+00
 0.8801722529576E+00 -0.4013409806670E+01  0.0000000000000E+00
 0.8801894782575E+00 -0.3941592057517E+01  0.0000000000000E+00
 0.8802067035518E+00 -0.3869774331916E+01  0.0000000000000E+00
 0.8802239288535E+00 -0.3797956574971E+01  0.0000000000000E+00
 0.8802411541693E+00 -0.3726138759435E+01  0.0000000000000E+00
 0.8802583794803E+00 -0.3654320964338E+01  0.0000000000000E+00
 0.8802756047706E+00 -0.3582503255154E+01  0.0000000000000E+00
 0.8802928302130E+00 -0.3510684911929E+01  0.0000000000000E+00
 0.8803100553675E+00 -0.3438867768677E+01  0.0000000000000E+00
 0.8803272806682E+00 -0.3367050016239E+01  0.0000000000000E+00
 0.8803445059500E+00 -0.3295232342495E+01  0.0000000000000E+00
 0.8803617312099E+00 -0.3223414760225E+01  0.0000000000000E+00
 0.8803789564785E+00 -0.3151597141714E+01  0.0000000000000E+00
 0.8803961817547E+00 -0.3079779491084E+01  0.0000000000000E+00
 0.8804289051548E+00 -0.3007961778684E+01  0.0000000000000E+00
 0.8805769486853E+00 -0.2936144295837E+01  0.0000000000000E+00
 0.8809789206855E+00 -0.2864328379386E+01  0.0000000000000E+00
 0.8817611722860E+00 -0.2792517305270E+01  0.0000000000000E+00
 0.8830167086335E+00 -0.2720716756086E+01  0.0000000000000E+00
 0.8848051806072E+00 -0.2648933876929E+01  0.0000000000000E+00
 0.8871647293415E+00 -0.2577176998972E+01  0.0000000000000E+00
 0.8901256654619E+00 -0.2505455108999E+01  0.0000000000000E+00
 0.8937222786608E+00 -0.2433778922213E+01  0.0000000000000E+00
 0.8980017404761E+00 -0.2362162022856E+01  0.0000000000000E+00
 0.9029613972806E+00 -0.2290614226146E+01  0.0000000000000E+00
 0.9085320961515E+00 -0.2219137289990E+01  0.0000000000000E+00
 0.9146644712548E+00 -0.2147732891775E+01  0.0000000000000E+00
 0.9213298117345E+00 -0.2076403810750E+01  0.0000000000000E+00
 0.9285187482873E+00 -0.2005154948809E+01  0.0000000000000E+00
 0.9362456597375E+00 -0.1933995201054E+01  0.0000000000000E+00
 0.9445683703660E+00 -0.1862941776213E+01  0.0000000000000E+00
 0.9075164349346E+00 -0.4659862918846E+01  0.0000000000000E+00
 0.9075328698350E+00 -0.4588138861488E+01  0.0000000000000E+00
 0.9075493048363E+00 -0.4516414363684E+01  0.0000000000000E+00
 0.9075657397915E+00 -0.4444690066958E+01  0.0000000000000E+00
 0.9075821747434E+00 -0.4372965784495E+01  0.0000000000000E+00
 0.9075986097015E+00 -0.4301241475081E+01  0.0000000000000E+00
 0.9076150446499E+00 -0.4229517208058E+01  0.0000000000000E+00
 0.9076314796044E+00 -0.4157792914741E+01  0.0000000000000E+00
 0.9076479145576E+00 -0.4086068626692E+01  0.0000000000000E+00
 0.9076643495090E+00 -0.4014344346563E+01  0.0000000000000E+00
 0.9076807844639E+00 -0.3942620051422E+01  0.0000000000000E+00
 0.9076972194133E+00 -0.3870895779802E+01  0.0000000000000E+00
 0.9077136543699E+00 -0.3799171476878E+01  0.0000000000000E+00
 0.9077300893400E+00 -0.3727447115440E+01  0.0000000000000E+00
 0.9077465243053E+00 -0.3655722774415E+01  0.0000000000000E+00
 0.9077629592511E+00 -0.3583998519191E+01  0.0000000000000E+00
 0.9077793943419E+00 -0.3512273630750E+01  0.0000000000000E+00
 0.9077958291580E+00 -0.3440549940721E+01  0.0000000000000E+00
 0.9078122641136E+00 -0.3368825642300E+01  0.0000000000000E+00
 0.9078286990512E+00 -0.3297101422470E+01  0.0000000000000E+00
 0.9078451339679E+00 -0.3225377293994E+01  0.0000000000000E+00
 0.9078615688929E+00 -0.3153653129324E+01  0.0000000000000E+00
 0.9078780038252E+00 -0.3081928932578E+01  0.0000000000000E+00
 0.9079104221770E+00 -0.3010204674146E+01  0.0000000000000E+00
 0.9080617717110E+00 -0.2938480645209E+01  0.0000000000000E+00
 0.9084750010487E+00 -0.2866758182507E+01  0.0000000000000E+00
 0.9092804177864E+00 -0.2795040562104E+01  0.0000000000000E+00
 0.9105739393675E+00 -0.2723333466530E+01  0.0000000000000E+00
 0.9124170845339E+00 -0.2651644040984E+01  0.0000000000000E+00
 0.9148491887460E+00 -0.2579980616494E+01  0.0000000000000E+00
 0.9179015117509E+00 -0.2508352180070E+01  0.0000000000000E+00
 0.9216094169639E+00 -0.2436769446890E+01  0.0000000000000E+00
 0.9260215530222E+00 -0.2365246000917E+01  0.0000000000000E+00
 0.9311351832001E+00 -0.2293791657698E+01  0.0000000000000E+00
 0.9368789891704E+00 -0.2222408175140E+01  0.0000000000000E+00
 0.9432020592942E+00 -0.2151097230562E+01  0.0000000000000E+00
 0.9500747836836E+00 -0.2079861603281E+01  0.0000000000000E+00
 0.9574874996521E+00 -0.2008706195179E+01  0.0000000000000E+00
 0.9654550362763E+00 -0.1937639901043E+01  0.0000000000000E+00
 0.9740370285046E+00 -0.1866679929603E+01  0.0000000000000E+00
 0.9350152758224E+00 -0.4659959193836E+01  0.0000000000000E+00
 0.9350305516130E+00 -0.4588331411267E+01  0.0000000000000E+00
 0.9350458274974E+00 -0.4516703188842E+01  0.0000000000000E+00
 0.9350611033390E+00 -0.4445075167227E+01  0.0000000000000E+00
 0.9350763791775E+00 -0.4373447159855E+01  0.0000000000000E+00
 0.9350916550218E+00 -0.4301819125568E+01  0.0000000000000E+00
 0.9351069308570E+00 -0.4230191133616E+01  0.0000000000000E+00
 0.9351222066979E+00 -0.4158563115405E+01  0.0000000000000E+00
 0.9351374825376E+00 -0.4086935102455E+01  0.0000000000000E+00
 0.9351527583756E+00 -0.4015307097413E+01  0.0000000000000E+00
 0.9351680342168E+00 -0.3943679077380E+01  0.0000000000000E+00
 0.9351833100531E+00 -0.3872051080837E+01  0.0000000000000E+00
 0.9351985858960E+00 -0.3800423053032E+01  0.0000000000000E+00
 0.9352138617513E+00 -0.3728794966791E+01  0.0000000000000E+00
 0.9352291376023E+00 -0.3657166900936E+01  0.0000000000000E+00
 0.9352444134350E+00 -0.3585538920767E+01  0.0000000000000E+00
 0.9352596894026E+00 -0.3513910308230E+01  0.0000000000000E+00
 0.9352749651150E+00 -0.3442282892497E+01  0.0000000000000E+00
 0.9352902409569E+00 -0.3370654869188E+01  0.0000000000000E+00
 0.9353055167821E+00 -0.3299026924365E+01  0.0000000000000E+00
 0.9353207925879E+00 -0.3227399070774E+01  0.0000000000000E+00
 0.9353360684013E+00 -0.3155771181037E+01  0.0000000000000E+00
 0.9353513442216E+00 -0.3084143259268E+01  0.0000000000000E+00
 0.9353830887569E+00 -0.3012515275898E+01  0.0000000000000E+00
 0.9355373755264E+00 -0.2940887521964E+01  0.0000000000000E+00
 0.9359614934350E+00 -0.2869261334099E+01  0.0000000000000E+00
 0.9367897065442E+00 -0.2797639988499E+01  0.0000000000000E+00
 0.9381208445946E+00 -0.2726029167618E+01  0.0000000000000E+00
 0.9400182941908E+00 -0.2654436016767E+01  0.0000000000000E+00
 0.9425225851194E+00 -0.2582868866825E+01  0.0000000000000E+00
 0.9456659262486E+00 -0.2511336705033E+01  0.0000000000000E+00
 0.9494847547168E+00 -0.2439850246541E+01  0.0000000000000E+00
 0.9540291962613E+00 -0.2368423075029E+01  0.0000000000000E+00
 0.9592964310570E+00 -0.2297065006384E+01  0.0000000000000E+00
 0.9652129753722E+00 -0.2225777798506E+01  0.0000000000000E+00
 0.9717263717630E+00 -0.2154563128652E+01  0.0000000000000E+00
 0.9788061113094E+00 -0.2083423776202E+01  0.0000000000000E+00
 0.9864422379415E+00 -0.2012364643031E+01  0.0000000000000E+00
 0.9946500309898E+00 -0.1941394623598E+01  0.0000000000000E+00
 0.1003490936070E+01 -0.1870530926638E+01  0.0000000000000E+00
 0.9625137375899E+00 -0.4660058284109E+01  0.0000000000000E+00
 0.9625274751513E+00 -0.4588529591607E+01  0.0000000000000E+00
 0.9625412127970E+00 -0.4517000459858E+01  0.0000000000000E+00
 0.9625549504041E+00 -0.4445471528639E+01  0.0000000000000E+00
 0.9625686880086E+00 -0.4373942611646E+01  0.0000000000000E+00
 0.9625824256182E+00 -0.4302413667774E+01  0.0000000000000E+00
 0.9625961632197E+00 -0.4230884766178E+01  0.0000000000000E+00
 0.9626099008262E+00 -0.4159355838359E+01  0.0000000000000E+00
 0.9626236384317E+00 -0.4087826915795E+01  0.0000000000000E+00
 0.9626373760357E+00 -0.4016298001128E+01  0.0000000000000E+00
 0.9626511136426E+00 -0.3944769071490E+01  0.0000000000000E+00
 0.9626648512449E+00 -0.3873240165310E+01  0.0000000000000E+00
 0.9626785888533E+00 -0.3801711227911E+01  0.0000000000000E+00
 0.9626923264728E+00 -0.3730182232157E+01  0.0000000000000E+00
 0.9627060640885E+00 -0.3658653256760E+01  0.0000000000000E+00
 0.9627198016877E+00 -0.3587124366931E+01  0.0000000000000E+00
 0.9627335394082E+00 -0.3515594845610E+01  0.0000000000000E+00
 0.9627472768992E+00 -0.3444066519436E+01  0.0000000000000E+00
 0.9627610145067E+00 -0.3372537586527E+01  0.0000000000000E+00
 0.9627747520991E+00 -0.3301008731995E+01  0.0000000000000E+00
 0.9627884896741E+00 -0.3229479968569E+01  0.0000000000000E+00
 0.9628022272560E+00 -0.3157951169047E+01  0.0000000000000E+00
 0.9628159648440E+00 -0.3086422337537E+01  0.0000000000000E+00
 0.9628466564423E+00 -0.3014893444515E+01  0.0000000000000E+00
 0.9630035013274E+00 -0.2943364780869E+01  0.0000000000000E+00
 0.9634381286881E+00 -0.2871837683121E+01  0.0000000000000E+00
 0.9642887590514E+00 -0.2800315427600E+01  0.0000000000000E+00
 0.9656571344553E+00 -0.2728803696687E+01  0.0000000000000E+00
 0.9676085093668E+00 -0.2657309635808E+01  0.0000000000000E+00
 0.9701846078996E+00 -0.2585841575683E+01  0.0000000000000E+00
 0.9734185880421E+00 -0.2514408503796E+01  0.0000000000000E+00
 0.9773479606558E+00 -0.2443021135268E+01  0.0000000000000E+00
 0.9820243285798E+00 -0.2371693053486E+01  0.0000000000000E+00
 0.9874447888878E+00 -0.2300434074685E+01  0.0000000000000E+00
 0.9935336924435E+00 -0.2229245956763E+01  0.0000000000000E+00
 0.1000237035998E+01 -0.2158130376907E+01  0.0000000000000E+00
 0.1007523411600E+01 -0.2087090114568E+01  0.0000000000000E+00
 0.1015382569795E+01 -0.2016130071610E+01  0.0000000000000E+00
 0.1023830240168E+01 -0.1945259142154E+01  0.0000000000000E+00
 0.1032929679005E+01 -0.1874494534943E+01  0.0000000000000E+00
 0.9900118099595E+00 -0.4660160183706E+01  0.0000000000000E+00
 0.9900236198944E+00 -0.4588733390588E+01  0.0000000000000E+00
 0.9900354299019E+00 -0.4517306158849E+01  0.0000000000000E+00
 0.9900472398762E+00 -0.4445879127356E+01  0.0000000000000E+00
 0.9900590498481E+00 -0.4374452110066E+01  0.0000000000000E+00
 0.9900708598246E+00 -0.4303025065937E+01  0.0000000000000E+00
 0.9900826697940E+00 -0.4231598064023E+01  0.0000000000000E+00
 0.9900944797677E+00 -0.4160171035925E+01  0.0000000000000E+00
 0.9901062897406E+00 -0.4088744013072E+01  0.0000000000000E+00
 0.9901180997122E+00 -0.4017316998107E+01  0.0000000000000E+00
 0.9901299096863E+00 -0.3945889968191E+01  0.0000000000000E+00
 0.9901417196565E+00 -0.3874462961699E+01  0.0000000000000E+00
 0.9901535296318E+00 -0.3803035924034E+01  0.0000000000000E+00
 0.9901653396168E+00 -0.3731608828097E+01  0.0000000000000E+00
 0.9901771495984E+00 -0.3660181752487E+01  0.0000000000000E+00
 0.9901889595659E+00 -0.3588754762324E+01  0.0000000000000E+00
 0.9902007696377E+00 -0.3517327141568E+01  0.0000000000000E+00
 0.9902125795121E+00 -0.3445900714257E+01  0.0000000000000E+00
 0.9902243894867E+00 -0.3374473681074E+01  0.0000000000000E+00
 0.9902361994483E+00 -0.3303046726158E+01  0.0000000000000E+00
 0.9902480093950E+00 -0.3231619862217E+01  0.0000000000000E+00
 0.9902598193475E+00 -0.3160192962233E+01  0.0000000000000E+00
 0.9902716293054E+00 -0.3088766030305E+01  0.0000000000000E+00
 0.9903008785684E+00 -0.3017339036957E+01  0.0000000000000E+00
 0.9904598921716E+00 -0.2945912272923E+01  0.0000000000000E+00
 0.9909046395882E+00 -0.2874487074610E+01  0.0000000000000E+00
 0.9917772978107E+00 -0.2803066718486E+01  0.0000000000000E+00
 0.9931825211753E+00 -0.2731656886858E+01  0.0000000000000E+00
 0.9951874320109E+00 -0.2660264725264E+01  0.0000000000000E+00
 0.9978349487592E+00 -0.2588898564268E+01  0.0000000000000E+00
 0.1001159178528E+01 -0.2517567391599E+01  0.0000000000000E+00
 0.1005198705901E+01 -0.2446281922349E+01  0.0000000000000E+00
 0.1010006610822E+01 -0.2375055739605E+01  0.0000000000000E+00
 0.1015579907262E+01 -0.2303898659960E+01  0.0000000000000E+00
 0.1021840780679E+01 -0.2232812441308E+01  0.0000000000000E+00
 0.1028733682020E+01 -0.2161798760767E+01  0.0000000000000E+00
 0.1036226304300E+01 -0.2090860397857E+01  0.0000000000000E+00
 0.1044308104682E+01 -0.2020002254434E+01  0.0000000000000E+00
 0.1052995263009E+01 -0.1949233224272E+01  0.0000000000000E+00
 0.1062352846232E+01 -0.1878570516118E+01  0.0000000000000E+00
 0.1017509482155E+01 -0.4660264886430E+01  0.0000000000000E+00
 0.1017518964290E+01 -0.4588942795818E+01  0.0000000000000E+00
 0.1017528446483E+01 -0.4517620267227E+01  0.0000000000000E+00
 0.1017537928650E+01 -0.4446297938589E+01  0.0000000000000E+00
 0.1017547410815E+01 -0.4374975624134E+01  0.0000000000000E+00
 0.1017556892983E+01 -0.4303653282878E+01  0.0000000000000E+00
 0.1017566375146E+01 -0.4232330983776E+01  0.0000000000000E+00
 0.1017575857312E+01 -0.4161008658528E+01  0.0000000000000E+00
 0.1017585339477E+01 -0.4089686338518E+01  0.0000000000000E+00
 0.1017594821642E+01 -0.4018364026383E+01  0.0000000000000E+00
 0.1017604303808E+01 -0.3947041699321E+01  0.0000000000000E+00
 0.1017613785972E+01 -0.3875719395647E+01  0.0000000000000E+00
 0.1017623268139E+01 -0.3804397060846E+01  0.0000000000000E+00
 0.1017632750314E+01 -0.3733074667859E+01  0.0000000000000E+00
 0.1017642232487E+01 -0.3661752295169E+01  0.0000000000000E+00
 0.1017651714648E+01 -0.3590430007800E+01  0.0000000000000E+00
 0.1017661196893E+01 -0.3519107090763E+01  0.0000000000000E+00
 0.1017670678979E+01 -0.3447785365421E+01  0.0000000000000E+00
 0.1017680161146E+01 -0.3376463035097E+01  0.0000000000000E+00
 0.1017689643303E+01 -0.3305140782923E+01  0.0000000000000E+00
 0.1017699125447E+01 -0.3233818621592E+01  0.0000000000000E+00
 0.1017708607596E+01 -0.3162496424270E+01  0.0000000000000E+00
 0.1017718089750E+01 -0.3091174195051E+01  0.0000000000000E+00
 0.1017745496503E+01 -0.3019851904506E+01  0.0000000000000E+00
 0.1017906278648E+01 -0.2948529843212E+01  0.0000000000000E+00
 0.1018360745944E+01 -0.2877209347457E+01  0.0000000000000E+00
 0.1019255031844E+01 -0.2805893693852E+01  0.0000000000000E+00
 0.1020696702984E+01 -0.2734588564626E+01  0.0000000000000E+00
 0.1022754749553E+01 -0.2663301105436E+01  0.0000000000000E+00
 0.1025473284322E+01 -0.2592039646683E+01  0.0000000000000E+00
 0.1028887363514E+01 -0.2520813176348E+01  0.0000000000000E+00
 0.1033036645440E+01 -0.2449632409496E+01  0.0000000000000E+00
 0.1037975687144E+01 -0.2378510928901E+01  0.0000000000000E+00
 0.1043701419494E+01 -0.2307458551527E+01  0.0000000000000E+00
 0.1050133862544E+01 -0.2236477035263E+01  0.0000000000000E+00
 0.1057215921438E+01 -0.2165568057156E+01  0.0000000000000E+00
 0.1064914390158E+01 -0.2094734396797E+01  0.0000000000000E+00
 0.1073218432483E+01 -0.2023980956034E+01  0.0000000000000E+00
 0.1082144678514E+01 -0.1953316628284E+01  0.0000000000000E+00
 0.1091760005868E+01 -0.1882758622300E+01  0.0000000000000E+00
 0.1045006744575E+01 -0.4660372386100E+01  0.0000000000000E+00
 0.1045013489135E+01 -0.4589157794934E+01  0.0000000000000E+00
 0.1045020233737E+01 -0.4517942766450E+01  0.0000000000000E+00
 0.1045026978321E+01 -0.4446727937617E+01  0.0000000000000E+00
 0.1045033722903E+01 -0.4375513122945E+01  0.0000000000000E+00
 0.1045040467487E+01 -0.4304298281514E+01  0.0000000000000E+00
 0.1045047212067E+01 -0.4233083482172E+01  0.0000000000000E+00
 0.1045053956650E+01 -0.4161868656724E+01  0.0000000000000E+00
 0.1045060701232E+01 -0.4090653836506E+01  0.0000000000000E+00
 0.1045067445814E+01 -0.4019439024151E+01  0.0000000000000E+00
 0.1045074190397E+01 -0.3948224196891E+01  0.0000000000000E+00
 0.1045080934978E+01 -0.3877009392985E+01  0.0000000000000E+00
 0.1045087679562E+01 -0.3805794557998E+01  0.0000000000000E+00
 0.1045094424151E+01 -0.3734579664913E+01  0.0000000000000E+00
 0.1045101168738E+01 -0.3663364792095E+01  0.0000000000000E+00
 0.1045107913318E+01 -0.3592150004468E+01  0.0000000000000E+00
 0.1045114657956E+01 -0.3520934588123E+01  0.0000000000000E+00
 0.1045121402483E+01 -0.3449720361677E+01  0.0000000000000E+00
 0.1045128147066E+01 -0.3378505531160E+01  0.0000000000000E+00
 0.1045134891642E+01 -0.3307290778676E+01  0.0000000000000E+00
 0.1045141636209E+01 -0.3236076116898E+01  0.0000000000000E+00
 0.1045148380780E+01 -0.3164861419183E+01  0.0000000000000E+00
 0.1045155125354E+01 -0.3093646689619E+01  0.0000000000000E+00
 0.1045180279821E+01 -0.3022431898826E+01  0.0000000000000E+00
 0.1045342420734E+01 -0.2951217337218E+01  0.0000000000000E+00
 0.1045806198134E+01 -0.2880004340962E+01  0.0000000000000E+00
 0.1046721701941E+01 -0.2808796186818E+01  0.0000000000000E+00
 0.1048199411086E+01 -0.2737598556931E+01  0.0000000000000E+00
 0.1050310183620E+01 -0.2666418597083E+01  0.0000000000000E+00
 0.1053099326642E+01 -0.2595264637507E+01  0.0000000000000E+00
 0.1056602845493E+01 -0.2524145666443E+01  0.0000000000000E+00
 0.1060861472207E+01 -0.2453072398925E+01  0.0000000000000E+00
 0.1065931240934E+01 -0.2382058417411E+01  0.0000000000000E+00
 0.1071808999436E+01 -0.2311113539242E+01  0.0000000000000E+00
 0.1078412602362E+01 -0.2240239522303E+01  0.0000000000000E+00
 0.1085683409054E+01 -0.2169438043568E+01  0.0000000000000E+00
 0.1093587314458E+01 -0.2098711882704E+01  0.0000000000000E+00
 0.1102113188972E+01 -0.2028065941545E+01  0.0000000000000E+00
 0.1111278112956E+01 -0.1957509113146E+01  0.0000000000000E+00
 0.1121150774694E+01 -0.1887058606262E+01  0.0000000000000E+00
 0.1072503587178E+01 -0.4660482676316E+01  0.0000000000000E+00
 0.1072507174348E+01 -0.4589378375137E+01  0.0000000000000E+00
 0.1072510761541E+01 -0.4518273637316E+01  0.0000000000000E+00
 0.1072514348723E+01 -0.4447169098837E+01  0.0000000000000E+00
 0.1072517935905E+01 -0.4376064574498E+01  0.0000000000000E+00
 0.1072521523088E+01 -0.4304960023440E+01  0.0000000000000E+00
 0.1072525110269E+01 -0.4233855514407E+01  0.0000000000000E+00
 0.1072528697451E+01 -0.4162750979308E+01  0.0000000000000E+00
 0.1072532284633E+01 -0.4091646449431E+01  0.0000000000000E+00
 0.1072535871815E+01 -0.4020541927405E+01  0.0000000000000E+00
 0.1072539458997E+01 -0.3949437390497E+01  0.0000000000000E+00
 0.1072543046178E+01 -0.3878332876907E+01  0.0000000000000E+00
 0.1072546633361E+01 -0.3807228332284E+01  0.0000000000000E+00
 0.1072550220546E+01 -0.3736123729652E+01  0.0000000000000E+00
 0.1072553807731E+01 -0.3665019147257E+01  0.0000000000000E+00
 0.1072557394911E+01 -0.3593914649921E+01  0.0000000000000E+00
 0.1072560982123E+01 -0.3522809524840E+01  0.0000000000000E+00
 0.1072564569275E+01 -0.3451705587815E+01  0.0000000000000E+00
 0.1072568156458E+01 -0.3380601047655E+01  0.0000000000000E+00
 0.1072571743636E+01 -0.3309496585407E+01  0.0000000000000E+00
 0.1072575330810E+01 -0.3238392213725E+01  0.0000000000000E+00
 0.1072578917986E+01 -0.3167287806161E+01  0.0000000000000E+00
 0.1072582505164E+01 -0.3096183366798E+01  0.0000000000000E+00
 0.1072604987528E+01 -0.3025078866304E+01  0.0000000000000E+00
 0.1072768067392E+01 -0.2953974594929E+01  0.0000000000000E+00
 0.1073240735083E+01 -0.2882871888714E+01  0.0000000000000E+00
 0.1074177036982E+01 -0.2811774024571E+01  0.0000000000000E+00
 0.1075690364322E+01 -0.2740686684561E+01  0.0000000000000E+00
 0.1077853443011E+01 -0.2669617014592E+01  0.0000000000000E+00
 0.1080712774480E+01 -0.2598573344725E+01  0.0000000000000E+00
 0.1084305313187E+01 -0.2527564663467E+01  0.0000000000000E+00
 0.1088672864887E+01 -0.2456601685821E+01  0.0000000000000E+00
 0.1093872940837E+01 -0.2385697993918E+01  0.0000000000000E+00
 0.1099902305694E+01 -0.2314863405488E+01  0.0000000000000E+00
 0.1106676648702E+01 -0.2244099678411E+01  0.0000000000000E+00
 0.1114135783397E+01 -0.2173408489587E+01  0.0000000000000E+00
 0.1122244705695E+01 -0.2102792618758E+01  0.0000000000000E+00
 0.1130991992608E+01 -0.2032256967748E+01  0.0000000000000E+00
 0.1140395174757E+01 -0.1961810429236E+01  0.0000000000000E+00
 0.1150524751096E+01 -0.1891470211985E+01  0.0000000000000E+00
-0.5660382933727E+00 -0.1689691761343E+01  0.0000000000000E+00
-0.5663123720575E+00 -0.1626506538788E+01  0.0000000000000E+00
-0.5667790339879E+00 -0.1563322491581E+01  0.0000000000000E+00
-0.5674663936241E+00 -0.1500140613648E+01  0.0000000000000E+00
-0.5684046240156E+00 -0.1436962158218E+01  0.0000000000000E+00
-0.5696222518212E+00 -0.1373788927613E+01  0.0000000000000E+00
-0.5711380830886E+00 -0.1310622648082E+01  0.0000000000000E+00
-0.5729469100487E+00 -0.1247464856343E+01  0.0000000000000E+00
-0.5750009089678E+00 -0.1184315217396E+01  0.0000000000000E+00
-0.5771979571333E+00 -0.1121170853713E+01  0.0000000000000E+00
-0.5793950052231E+00 -0.1058026490028E+01  0.0000000000000E+00
-0.5814490039253E+00 -0.9948768510738E+00  0.0000000000000E+00
-0.5832578305519E+00 -0.9317190593259E+00  0.0000000000000E+00
-0.5847736613987E+00 -0.8685527797851E+00  0.0000000000000E+00
-0.5859912887235E+00 -0.8053795491707E+00  0.0000000000000E+00
-0.5869295185944E+00 -0.7422010937332E+00  0.0000000000000E+00
-0.5876168776851E+00 -0.6790192157949E+00  0.0000000000000E+00
-0.5880835390555E+00 -0.6158351685841E+00  0.0000000000000E+00
-0.5883576171726E+00 -0.5526499460259E+00  0.0000000000000E+00
-0.5363253834601E+00 -0.1687245125446E+01  0.0000000000000E+00
-0.5366119768712E+00 -0.1623791708043E+01  0.0000000000000E+00
-0.5370810175640E+00 -0.1560339466072E+01  0.0000000000000E+00
-0.5377591402814E+00 -0.1496889393551E+01  0.0000000000000E+00
-0.5386749300523E+00 -0.1433442743371E+01  0.0000000000000E+00
-0.5398554120886E+00 -0.1370001318292E+01  0.0000000000000E+00
-0.5413184027050E+00 -0.1306566843974E+01  0.0000000000000E+00
-0.5430589681685E+00 -0.1243140857698E+01  0.0000000000000E+00
-0.5450318018343E+00 -0.1179723023941E+01  0.0000000000000E+00
-0.5471401558424E+00 -0.1116310465411E+01  0.0000000000000E+00
-0.5492485097748E+00 -0.1052897906879E+01  0.0000000000000E+00
-0.5512213432236E+00 -0.9894800731148E+00  0.0000000000000E+00
-0.5529619083535E+00 -0.9260540868295E+00  0.0000000000000E+00
-0.5544248985495E+00 -0.8626196125025E+00  0.0000000000000E+00
-0.5556053801049E+00 -0.7991781874149E+00  0.0000000000000E+00
-0.5565211693552E+00 -0.7357315372274E+00  0.0000000000000E+00
-0.5571992915272E+00 -0.6722814647015E+00  0.0000000000000E+00
-0.5576683316600E+00 -0.6088292227269E+00  0.0000000000000E+00
-0.5579549245034E+00 -0.5453758053214E+00  0.0000000000000E+00
-0.5065999670663E+00 -0.1684928561672E+01  0.0000000000000E+00
-0.5068949115904E+00 -0.1621220039384E+01  0.0000000000000E+00
-0.5073621674199E+00 -0.1557512692609E+01  0.0000000000000E+00
-0.5080268895799E+00 -0.1493807515451E+01  0.0000000000000E+00
-0.5089160750712E+00 -0.1430105760479E+01  0.0000000000000E+00
-0.5100552476636E+00 -0.1366409230871E+01  0.0000000000000E+00
-0.5114612339286E+00 -0.1302719651727E+01  0.0000000000000E+00
-0.5131293741780E+00 -0.1239038560861E+01  0.0000000000000E+00
-0.5150168788513E+00 -0.1175365622255E+01  0.0000000000000E+00
-0.5170323749522E+00 -0.1111697958841E+01  0.0000000000000E+00
-0.5190478709775E+00 -0.1048030295425E+01  0.0000000000000E+00
-0.5209353754338E+00 -0.9843573568131E+00  0.0000000000000E+00
-0.5226035153497E+00 -0.9206762659386E+00  0.0000000000000E+00
-0.5240095011942E+00 -0.8569866867857E+00  0.0000000000000E+00
-0.5251486733057E+00 -0.7932901571698E+00  0.0000000000000E+00
-0.5260378582764E+00 -0.7295884021909E+00  0.0000000000000E+00
-0.5267025798910E+00 -0.6658832250280E+00  0.0000000000000E+00
-0.5271698351604E+00 -0.6021758782489E+00  0.0000000000000E+00
-0.5274647791169E+00 -0.5384673559593E+00  0.0000000000000E+00
-0.4768626705487E+00 -0.1682742416099E+01  0.0000000000000E+00
-0.4771619844321E+00 -0.1618792097827E+01  0.0000000000000E+00
-0.4776234736490E+00 -0.1554842955143E+01  0.0000000000000E+00
-0.4782708135087E+00 -0.1490895982235E+01  0.0000000000000E+00
-0.4791294129793E+00 -0.1426952431367E+01  0.0000000000000E+00
-0.4802232943955E+00 -0.1363014106112E+01  0.0000000000000E+00
-0.4815682945772E+00 -0.1299082731039E+01  0.0000000000000E+00
-0.4831600278892E+00 -0.1235159844468E+01  0.0000000000000E+00
-0.4849582218467E+00 -0.1171245109912E+01  0.0000000000000E+00
-0.4868768783191E+00 -0.1107335650514E+01  0.0000000000000E+00
-0.4887955347158E+00 -0.1043426191114E+01  0.0000000000000E+00
-0.4905937284563E+00 -0.9795114565527E+00  0.0000000000000E+00
-0.4921854614348E+00 -0.9155885699739E+00  0.0000000000000E+00
-0.4935304611959E+00 -0.8516571948924E+00  0.0000000000000E+00
-0.4946243421312E+00 -0.7877188696299E+00  0.0000000000000E+00
-0.4954829410813E+00 -0.7237753187550E+00  0.0000000000000E+00
-0.4961302803955E+00 -0.6598283458425E+00  0.0000000000000E+00
-0.4965917690524E+00 -0.5958792031548E+00  0.0000000000000E+00
-0.4968910823681E+00 -0.5319288848814E+00  0.0000000000000E+00
-0.4471141738714E+00 -0.1680687021658E+01  0.0000000000000E+00
-0.4474140589931E+00 -0.1616508426019E+01  0.0000000000000E+00
-0.4478659834921E+00 -0.1552331006037E+01  0.0000000000000E+00
-0.4484921429651E+00 -0.1488155755982E+01  0.0000000000000E+00
-0.4493163583450E+00 -0.1423983927828E+01  0.0000000000000E+00
-0.4503611505400E+00 -0.1359817325524E+01  0.0000000000000E+00
-0.4516413666112E+00 -0.1295657673134E+01  0.0000000000000E+00
-0.4531528949840E+00 -0.1231506509458E+01  0.0000000000000E+00
-0.4548579802386E+00 -0.1167363497567E+01  0.0000000000000E+00
-0.4566759991053E+00 -0.1103225760801E+01  0.0000000000000E+00
-0.4584940178964E+00 -0.1039088024033E+01  0.0000000000000E+00
-0.4601991029340E+00 -0.9749450121357E+00  0.0000000000000E+00
-0.4617106309733E+00 -0.9107938484529E+00  0.0000000000000E+00
-0.4629908466239E+00 -0.8466341960555E+00  0.0000000000000E+00
-0.4640356383381E+00 -0.7824675937435E+00  0.0000000000000E+00
-0.4648598531975E+00 -0.7182957655835E+00  0.0000000000000E+00
-0.4654860121251E+00 -0.6541205155242E+00  0.0000000000000E+00
-0.4659379360640E+00 -0.5899430955397E+00  0.0000000000000E+00
-0.4662378206180E+00 -0.5257644998984E+00  0.0000000000000E+00
-0.4173550630559E+00 -0.1678762688173E+01  0.0000000000000E+00
-0.4176519113029E+00 -0.1614369533789E+01  0.0000000000000E+00
-0.4180906629569E+00 -0.1549977555129E+01  0.0000000000000E+00
-0.4186920339012E+00 -0.1485587746537E+01  0.0000000000000E+00
-0.4194782570266E+00 -0.1421201359716E+01  0.0000000000000E+00
-0.4204703518181E+00 -0.1356820198965E+01  0.0000000000000E+00
-0.4216821755688E+00 -0.1292445987879E+01  0.0000000000000E+00
-0.4231098907729E+00 -0.1228080265706E+01  0.0000000000000E+00
-0.4247182590719E+00 -0.1163722695099E+01  0.0000000000000E+00
-0.4264320320686E+00 -0.1099370399588E+01  0.0000000000000E+00
-0.4281458049896E+00 -0.1035018104075E+01  0.0000000000000E+00
-0.4297541730716E+00 -0.9706605334635E+00  0.0000000000000E+00
-0.4311818879422E+00 -0.9062948112837E+00  0.0000000000000E+00
-0.4323937112723E+00 -0.8419206001903E+00  0.0000000000000E+00
-0.4333858055829E+00 -0.7775394394327E+00  0.0000000000000E+00
-0.4341720281878E+00 -0.7131530526057E+00  0.0000000000000E+00
-0.4347733985867E+00 -0.6487632440093E+00  0.0000000000000E+00
-0.4352121496806E+00 -0.5843712653468E+00  0.0000000000000E+00
-0.4355089973599E+00 -0.5199781109607E+00  0.0000000000000E+00
-0.3875860504174E+00 -0.1676969717501E+01  0.0000000000000E+00
-0.3878764553724E+00 -0.1612375915377E+01  0.0000000000000E+00
-0.3882986277719E+00 -0.1547783289039E+01  0.0000000000000E+00
-0.3888718037880E+00 -0.1483192832901E+01  0.0000000000000E+00
-0.3896166282662E+00 -0.1418605798412E+01  0.0000000000000E+00
-0.3905526192750E+00 -0.1354023990201E+01  0.0000000000000E+00
-0.3916926443324E+00 -0.1289449131420E+01  0.0000000000000E+00
-0.3930331400086E+00 -0.1224882761738E+01  0.0000000000000E+00
-0.3945413849981E+00 -0.1160324543420E+01  0.0000000000000E+00
-0.3961475057755E+00 -0.1095771600169E+01  0.0000000000000E+00
-0.3977536264772E+00 -0.1031218656915E+01  0.0000000000000E+00
-0.3992618712497E+00 -0.9666604385923E+00  0.0000000000000E+00
-0.4006023665923E+00 -0.9020940689044E+00  0.0000000000000E+00
-0.4017423912293E+00 -0.8375192101168E+00  0.0000000000000E+00
-0.4026783817572E+00 -0.7729374018990E+00  0.0000000000000E+00
-0.4034232057148E+00 -0.7083503674049E+00  0.0000000000000E+00
-0.4039963811855E+00 -0.6437599112629E+00  0.0000000000000E+00
-0.4044185530250E+00 -0.5791672849229E+00  0.0000000000000E+00
-0.4047089574122E+00 -0.5145734827968E+00  0.0000000000000E+00
-0.3578077848507E+00 -0.1675308389248E+01  0.0000000000000E+00
-0.3580885470070E+00 -0.1610528031852E+01  0.0000000000000E+00
-0.3584909406433E+00 -0.1545748850301E+01  0.0000000000000E+00
-0.3590327222207E+00 -0.1480971839072E+01  0.0000000000000E+00
-0.3597329485350E+00 -0.1416198249379E+01  0.0000000000000E+00
-0.3606096362428E+00 -0.1351429886156E+01  0.0000000000000E+00
-0.3616746630801E+00 -0.1286668472146E+01  0.0000000000000E+00
-0.3629247396993E+00 -0.1221915547408E+01  0.0000000000000E+00
-0.3643296618428E+00 -0.1157170773845E+01  0.0000000000000E+00
-0.3658249308613E+00 -0.1092431275322E+01  0.0000000000000E+00
-0.3673201998042E+00 -0.1027691776797E+01  0.0000000000000E+00
-0.3687251217307E+00 -0.9629470032288E+00  0.0000000000000E+00
-0.3699751980164E+00 -0.8981940784852E+00  0.0000000000000E+00
-0.3710402244331E+00 -0.8334326644688E+00  0.0000000000000E+00
-0.3719169116601E+00 -0.7686643012399E+00  0.0000000000000E+00
-0.3726171374538E+00 -0.7038907115421E+00  0.0000000000000E+00
-0.3731589184858E+00 -0.6391137003095E+00  0.0000000000000E+00
-0.3735613115620E+00 -0.5743345187563E+00  0.0000000000000E+00
-0.3738420731506E+00 -0.5095541613588E+00  0.0000000000000E+00
-0.3280209322967E+00 -0.1673778966441E+01  0.0000000000000E+00
-0.3282890703009E+00 -0.1608826317856E+01  0.0000000000000E+00
-0.3286687038227E+00 -0.1543874845170E+01  0.0000000000000E+00
-0.3291761096142E+00 -0.1478925542919E+01  0.0000000000000E+00
-0.3298287564176E+00 -0.1413979662100E+01  0.0000000000000E+00
-0.3306431594830E+00 -0.1349039007928E+01  0.0000000000000E+00
-0.3316302067577E+00 -0.1284105302768E+01  0.0000000000000E+00
-0.3327868829826E+00 -0.1219180087040E+01  0.0000000000000E+00
-0.3340855009420E+00 -0.1154263022312E+01  0.0000000000000E+00
-0.3354669368643E+00 -0.1089351232600E+01  0.0000000000000E+00
-0.3368483727111E+00 -0.1024439442887E+01  0.0000000000000E+00
-0.3381469904534E+00 -0.9595223781546E+00  0.0000000000000E+00
-0.3393036663448E+00 -0.8945971624215E+00  0.0000000000000E+00
-0.3402907131989E+00 -0.8296634572558E+00  0.0000000000000E+00
-0.3411051157835E+00 -0.7647228030786E+00  0.0000000000000E+00
-0.3417577620663E+00 -0.6997769222548E+00  0.0000000000000E+00
-0.3422651673124E+00 -0.6348276200005E+00  0.0000000000000E+00
-0.3426448002742E+00 -0.5698761473125E+00  0.0000000000000E+00
-0.3429129377106E+00 -0.5049234987264E+00  0.0000000000000E+00
-0.2982262059385E+00 -0.1672381694973E+01  0.0000000000000E+00
-0.2984789576442E+00 -0.1607271179011E+01  0.0000000000000E+00
-0.2988330689080E+00 -0.1542161838997E+01  0.0000000000000E+00
-0.2993033367739E+00 -0.1477054669522E+01  0.0000000000000E+00
-0.2999056419273E+00 -0.1411950921383E+01  0.0000000000000E+00
-0.3006549982166E+00 -0.1346852400053E+01  0.0000000000000E+00
-0.3015613037944E+00 -0.1281760827552E+01  0.0000000000000E+00
-0.3026218174963E+00 -0.1216677744629E+01  0.0000000000000E+00
-0.3038113691420E+00 -0.1151602812546E+01  0.0000000000000E+00
-0.3050762098397E+00 -0.1086533155457E+01  0.0000000000000E+00
-0.3063410504618E+00 -0.1021463498367E+01  0.0000000000000E+00
-0.3075306018905E+00 -0.9563885662797E+00  0.0000000000000E+00
-0.3085911152588E+00 -0.8913054833521E+00  0.0000000000000E+00
-0.3094974204161E+00 -0.8262139108455E+00  0.0000000000000E+00
-0.3102467762245E+00 -0.7611153895116E+00  0.0000000000000E+00
-0.3108490808573E+00 -0.6960116413682E+00  0.0000000000000E+00
-0.3113193481778E+00 -0.6309044718900E+00  0.0000000000000E+00
-0.3116734588816E+00 -0.5657951318742E+00  0.0000000000000E+00
-0.3119262100196E+00 -0.5006846159113E+00  0.0000000000000E+00
-0.2684242591111E+00 -0.1671116799086E+01  0.0000000000000E+00
-0.2686590939796E+00 -0.1605862988030E+01  0.0000000000000E+00
-0.2689851524448E+00 -0.1540610352966E+01  0.0000000000000E+00
-0.2694157518426E+00 -0.1475359888535E+01  0.0000000000000E+00
-0.2699651847983E+00 -0.1410112845353E+01  0.0000000000000E+00
-0.2706469637623E+00 -0.1344871029129E+01  0.0000000000000E+00
-0.2714699970866E+00 -0.1279636161565E+01  0.0000000000000E+00
-0.2724318177065E+00 -0.1214409783713E+01  0.0000000000000E+00
-0.2735097724737E+00 -0.1149191556555E+01  0.0000000000000E+00
-0.2746554873792E+00 -0.1083978604371E+01  0.0000000000000E+00
-0.2758012022091E+00 -0.1018765652186E+01  0.0000000000000E+00
-0.2768791567593E+00 -0.9535474250252E+00  0.0000000000000E+00
-0.2778409770457E+00 -0.8883210471688E+00  0.0000000000000E+00
-0.2786640099495E+00 -0.8230861796004E+00  0.0000000000000E+00
-0.2793457884325E+00 -0.7578443633719E+00  0.0000000000000E+00
-0.2798952208677E+00 -0.6925973201861E+00  0.0000000000000E+00
-0.2803258197201E+00 -0.6273468557523E+00  0.0000000000000E+00
-0.2806518776252E+00 -0.5620942206867E+00  0.0000000000000E+00
-0.2808867119260E+00 -0.4968404096294E+00  0.0000000000000E+00
-0.2386158232353E+00 -0.1669984486219E+01  0.0000000000000E+00
-0.2388304441249E+00 -0.1604602088268E+01  0.0000000000000E+00
-0.2391261526536E+00 -0.1539220866350E+01  0.0000000000000E+00
-0.2395147864510E+00 -0.1473841815148E+01  0.0000000000000E+00
-0.2400090500797E+00 -0.1408466185117E+01  0.0000000000000E+00
-0.2406209545962E+00 -0.1343095782177E+01  0.0000000000000E+00
-0.2413584185475E+00 -0.1277732327748E+01  0.0000000000000E+00
-0.2422192489735E+00 -0.1212377363149E+01  0.0000000000000E+00
-0.2431833097518E+00 -0.1147030549114E+01  0.0000000000000E+00
-0.2442076017572E+00 -0.1081689010035E+01  0.0000000000000E+00
-0.2452318936869E+00 -0.1016347470955E+01  0.0000000000000E+00
-0.2461959542483E+00 -0.9510006569173E+00  0.0000000000000E+00
-0.2470567843406E+00 -0.8856456923147E+00  0.0000000000000E+00
-0.2477942478714E+00 -0.8202822378808E+00  0.0000000000000E+00
-0.2484061519071E+00 -0.7549118349370E+00  0.0000000000000E+00
-0.2489004150152E+00 -0.6895362049032E+00  0.0000000000000E+00
-0.2492890482672E+00 -0.6241571536992E+00  0.0000000000000E+00
-0.2495847562358E+00 -0.5587759317790E+00  0.0000000000000E+00
-0.2497993765577E+00 -0.4933935338269E+00  0.0000000000000E+00
-0.2088015918171E+00 -0.1668984941864E+01  0.0000000000000E+00
-0.2089939423704E+00 -0.1603488788333E+01  0.0000000000000E+00
-0.2092572446060E+00 -0.1537993810870E+01  0.0000000000000E+00
-0.2096018564480E+00 -0.1472501004198E+01  0.0000000000000E+00
-0.2100388943936E+00 -0.1407011618628E+01  0.0000000000000E+00
-0.2105788681090E+00 -0.1341527460266E+01  0.0000000000000E+00
-0.2112287063315E+00 -0.1276050250282E+01  0.0000000000000E+00
-0.2119864902098E+00 -0.1210581530234E+01  0.0000000000000E+00
-0.2128346006438E+00 -0.1145120960635E+01  0.0000000000000E+00
-0.2137354133933E+00 -0.1079665665975E+01  0.0000000000000E+00
-0.2146362260672E+00 -0.1014210371315E+01  0.0000000000000E+00
-0.2154843362842E+00 -0.9487498017129E+00  0.0000000000000E+00
-0.2162421198289E+00 -0.8832810816616E+00  0.0000000000000E+00
-0.2168919576308E+00 -0.8178038716736E+00  0.0000000000000E+00
-0.2174319308654E+00 -0.7523197133084E+00  0.0000000000000E+00
-0.2178689682905E+00 -0.6868303277357E+00  0.0000000000000E+00
-0.2182135795869E+00 -0.6213375210618E+00  0.0000000000000E+00
-0.2184768812625E+00 -0.5558425435970E+00  0.0000000000000E+00
-0.2186692312481E+00 -0.4903463900649E+00  0.0000000000000E+00
-0.1789822699684E+00 -0.1668118331209E+01  0.0000000000000E+00
-0.1791505394161E+00 -0.1602523363227E+01  0.0000000000000E+00
-0.1793796245881E+00 -0.1536929571344E+01  0.0000000000000E+00
-0.1796784037030E+00 -0.1471337950318E+01  0.0000000000000E+00
-0.1800564051905E+00 -0.1405749750333E+01  0.0000000000000E+00
-0.1805226373288E+00 -0.1340166777658E+01  0.0000000000000E+00
-0.1810830390415E+00 -0.1274590753246E+01  0.0000000000000E+00
-0.1817359655899E+00 -0.1209023218861E+01  0.0000000000000E+00
-0.1824663148931E+00 -0.1143463834825E+01  0.0000000000000E+00
-0.1832418375987E+00 -0.1077909725716E+01  0.0000000000000E+00
-0.1840173602287E+00 -0.1012355616605E+01  0.0000000000000E+00
-0.1847477093150E+00 -0.9467962325665E+00  0.0000000000000E+00
-0.1854006355298E+00 -0.8812286981792E+00  0.0000000000000E+00
-0.1859610368220E+00 -0.8156526737635E+00  0.0000000000000E+00
-0.1864272684794E+00 -0.7500697010859E+00  0.0000000000000E+00
-0.1868052694463E+00 -0.6844815010990E+00  0.0000000000000E+00
-0.1871040480158E+00 -0.6188898800707E+00  0.0000000000000E+00
-0.1873331326277E+00 -0.5532960881865E+00  0.0000000000000E+00
-0.1875014015077E+00 -0.4877011202043E+00  0.0000000000000E+00
-0.1491585906986E+00 -0.1667384798938E+01  0.0000000000000E+00
-0.1493012179629E+00 -0.1601706053757E+01  0.0000000000000E+00
-0.1494945249966E+00 -0.1536028484701E+01  0.0000000000000E+00
-0.1497459103137E+00 -0.1470353086556E+01  0.0000000000000E+00
-0.1500633142746E+00 -0.1404681109403E+01  0.0000000000000E+00
-0.1504542437727E+00 -0.1339014359645E+01  0.0000000000000E+00
-0.1509236479144E+00 -0.1273354558052E+01  0.0000000000000E+00
-0.1514701560771E+00 -0.1207703246565E+01  0.0000000000000E+00
-0.1520811831954E+00 -0.1142060085341E+01  0.0000000000000E+00
-0.1527298548045E+00 -0.1076422199032E+01  0.0000000000000E+00
-0.1533785263379E+00 -0.1010784312722E+01  0.0000000000000E+00
-0.1539895532392E+00 -0.9451411514961E+00  0.0000000000000E+00
-0.1545360610683E+00 -0.8794898400065E+00  0.0000000000000E+00
-0.1550054647896E+00 -0.8138300384108E+00  0.0000000000000E+00
-0.1553963938067E+00 -0.7481632886510E+00  0.0000000000000E+00
-0.1557137972470E+00 -0.6824913114955E+00  0.0000000000000E+00
-0.1559651820187E+00 -0.6168159133492E+00  0.0000000000000E+00
-0.1561584884923E+00 -0.5511383442921E+00  0.0000000000000E+00
-0.1563011151890E+00 -0.4854595991108E+00  0.0000000000000E+00
-0.1193312533689E+00 -0.1666784467333E+01  0.0000000000000E+00
-0.1194469324420E+00 -0.1601037064197E+01  0.0000000000000E+00
-0.1196031553282E+00 -0.1535290837207E+01  0.0000000000000E+00
-0.1198058408375E+00 -0.1469546781173E+01  0.0000000000000E+00
-0.1200613412589E+00 -0.1403806146089E+01  0.0000000000000E+00
-0.1203756621029E+00 -0.1338070738472E+01  0.0000000000000E+00
-0.1207527626561E+00 -0.1272342278939E+01  0.0000000000000E+00
-0.1211915464142E+00 -0.1206622309575E+01  0.0000000000000E+00
-0.1216819453254E+00 -0.1140910490406E+01  0.0000000000000E+00
-0.1222024598146E+00 -0.1075203946141E+01  0.0000000000000E+00
-0.1227229742282E+00 -0.1009497401875E+01  0.0000000000000E+00
-0.1232133729224E+00 -0.9437855827039E+00  0.0000000000000E+00
-0.1236521563469E+00 -0.8780656133384E+00  0.0000000000000E+00
-0.1240292564796E+00 -0.8123371538032E+00  0.0000000000000E+00
-0.1243435768427E+00 -0.7466017461841E+00  0.0000000000000E+00
-0.1245990767436E+00 -0.6808611110984E+00  0.0000000000000E+00
-0.1248017617074E+00 -0.6151170550636E+00  0.0000000000000E+00
-0.1249579840336E+00 -0.5493708280728E+00  0.0000000000000E+00
-0.1250736625389E+00 -0.4836234249364E+00  0.0000000000000E+00
-0.8950100053862E-01 -0.1666317437650E+01  0.0000000000000E+00
-0.8958868171560E-01 -0.1600516563313E+01  0.0000000000000E+00
-0.8970677075129E-01 -0.1534716865139E+01  0.0000000000000E+00
-0.8985970675196E-01 -0.1468919337956E+01  0.0000000000000E+00
-0.9005225393426E-01 -0.1403125231690E+01  0.0000000000000E+00
-0.9028891642774E-01 -0.1337336352946E+01  0.0000000000000E+00
-0.9057266369673E-01 -0.1271554422224E+01  0.0000000000000E+00
-0.9090267335780E-01 -0.1205780981720E+01  0.0000000000000E+00
-0.9127139437015E-01 -0.1140015691357E+01  0.0000000000000E+00
-0.9166270204846E-01 -0.1074255675890E+01  0.0000000000000E+00
-0.9205400965113E-01 -0.1008495660424E+01  0.0000000000000E+00
-0.9242273044648E-01 -0.9427303700588E+00  0.0000000000000E+00
-0.9275273977399E-01 -0.8769569295541E+00  0.0000000000000E+00
-0.9303648662245E-01 -0.8111749988302E+00  0.0000000000000E+00
-0.9327314863504E-01 -0.7453861200848E+00  0.0000000000000E+00
-0.9346569529677E-01 -0.6795920138176E+00  0.0000000000000E+00
-0.9361863075200E-01 -0.6137944866337E+00  0.0000000000000E+00
-0.9373671922766E-01 -0.5479947884587E+00  0.0000000000000E+00
-0.9382439983693E-01 -0.4821939141214E+00  0.0000000000000E+00
-0.5966855245610E-01 -0.1665983788540E+01  0.0000000000000E+00
-0.5972744638703E-01 -0.1600144682577E+01  0.0000000000000E+00
-0.5980661222241E-01 -0.1534306752788E+01  0.0000000000000E+00
-0.5990900936510E-01 -0.1468470994015E+01  0.0000000000000E+00
-0.6003781395841E-01 -0.1402638656136E+01  0.0000000000000E+00
-0.6019602875215E-01 -0.1336811545818E+01  0.0000000000000E+00
-0.6038563338675E-01 -0.1270991383477E+01  0.0000000000000E+00
-0.6060607960119E-01 -0.1205179711391E+01  0.0000000000000E+00
-0.6085233336420E-01 -0.1139376189405E+01  0.0000000000000E+00
-0.6111364488103E-01 -0.1073577942312E+01  0.0000000000000E+00
-0.6137495632221E-01 -0.1007779695218E+01  0.0000000000000E+00
-0.6162120986821E-01 -0.9419761732318E+00  0.0000000000000E+00
-0.6184165574910E-01 -0.8761645011445E+00  0.0000000000000E+00
-0.6203125996316E-01 -0.8103443388026E+00  0.0000000000000E+00
-0.6218947427602E-01 -0.7445172284838E+00  0.0000000000000E+00
-0.6231827834875E-01 -0.6786848906039E+00  0.0000000000000E+00
-0.6242067494601E-01 -0.6128491318304E+00  0.0000000000000E+00
-0.6249984022135E-01 -0.5470112020407E+00  0.0000000000000E+00
-0.6255873358457E-01 -0.4811720960768E+00  0.0000000000000E+00
-0.2983463937156E-01 -0.1665783576456E+01  0.0000000000000E+00
-0.2986421868488E-01 -0.1599921516320E+01  0.0000000000000E+00
-0.2990393394841E-01 -0.1534060632365E+01  0.0000000000000E+00
-0.2995526486180E-01 -0.1468201919441E+01  0.0000000000000E+00
-0.3001979949427E-01 -0.1402346627397E+01  0.0000000000000E+00
-0.3009903921680E-01 -0.1336496562938E+01  0.0000000000000E+00
-0.3019397384468E-01 -0.1270653446429E+01  0.0000000000000E+00
-0.3030432924049E-01 -0.1204818820196E+01  0.0000000000000E+00
-0.3042758838143E-01 -0.1138992344041E+01  0.0000000000000E+00
-0.3055837636388E-01 -0.1073171142774E+01  0.0000000000000E+00
-0.3068916427068E-01 -0.1007349941507E+01  0.0000000000000E+00
-0.3081242319462E-01 -0.9415234653514E+00  0.0000000000000E+00
-0.3092277825687E-01 -0.8756888391178E+00  0.0000000000000E+00
-0.3101771246422E-01 -0.8098457226084E+00  0.0000000000000E+00
-0.3109695170586E-01 -0.7439956581489E+00  0.0000000000000E+00
-0.3116148581776E-01 -0.6781403661046E+00  0.0000000000000E+00
-0.3121281618571E-01 -0.6122816531806E+00  0.0000000000000E+00
-0.3125253088920E-01 -0.5464207692254E+00  0.0000000000000E+00
-0.3128210963481E-01 -0.4805587090888E+00  0.0000000000000E+00
 0.5155270087001E-08 -0.1665716835338E+01  0.0000000000000E+00
 0.4584959248036E-08 -0.1599847121274E+01  0.0000000000000E+00
 0.4018463788390E-08 -0.1533978583394E+01  0.0000000000000E+00
 0.3459266960008E-08 -0.1468112216549E+01  0.0000000000000E+00
 0.2912509139835E-08 -0.1402249270580E+01  0.0000000000000E+00
 0.2385637097306E-08 -0.1336391552204E+01  0.0000000000000E+00
 0.1889015036877E-08 -0.1270540781768E+01  0.0000000000000E+00
 0.1435985996629E-08 -0.1204698501615E+01  0.0000000000000E+00
 0.1041351357948E-08 -0.1138864371533E+01  0.0000000000000E+00
 0.7174784364422E-09 -0.1073035516338E+01  0.0000000000000E+00
 0.4692480349616E-09 -0.1007206661143E+01  0.0000000000000E+00
 0.2916179217409E-09 -0.9413725310599E+00  0.0000000000000E+00
 0.1721480478919E-09 -0.8755302509073E+00  0.0000000000000E+00
 0.9605795782101E-10 -0.8096794804718E+00  0.0000000000000E+00
 0.5007320361460E-10 -0.7438217620953E+00  0.0000000000000E+00
 0.2389664209818E-10 -0.6779588161260E+00  0.0000000000000E+00
 0.1013582257418E-10 -0.6120924492818E+00  0.0000000000000E+00
 0.3684745325373E-11 -0.5462239114012E+00  0.0000000000000E+00
 0.1082611060245E-11 -0.4803541973369E+00  0.0000000000000E+00
 0.2983464968201E-01 -0.1665783576500E+01  0.0000000000000E+00
 0.2986422785471E-01 -0.1599921516362E+01  0.0000000000000E+00
 0.2990394198526E-01 -0.1534060632404E+01  0.0000000000000E+00
 0.2995527178026E-01 -0.1468201919478E+01  0.0000000000000E+00
 0.3001980531922E-01 -0.1402346627432E+01  0.0000000000000E+00
 0.3009904398801E-01 -0.1336496562970E+01  0.0000000000000E+00
 0.3019397762265E-01 -0.1270653446458E+01  0.0000000000000E+00
 0.3030433211240E-01 -0.1204818820222E+01  0.0000000000000E+00
 0.3042759046408E-01 -0.1138992344063E+01  0.0000000000000E+00
 0.3055837779879E-01 -0.1073171142794E+01  0.0000000000000E+00
 0.3068916520914E-01 -0.1007349941524E+01  0.0000000000000E+00
 0.3081242377782E-01 -0.9415234653661E+00  0.0000000000000E+00
 0.3092277860113E-01 -0.8756888391304E+00  0.0000000000000E+00
 0.3101771265631E-01 -0.8098457226190E+00  0.0000000000000E+00
 0.3109695180599E-01 -0.7439956581577E+00  0.0000000000000E+00
 0.3116148586553E-01 -0.6781403661116E+00  0.0000000000000E+00
 0.3121281620596E-01 -0.6122816531859E+00  0.0000000000000E+00
 0.3125253089656E-01 -0.5464207692289E+00  0.0000000000000E+00
 0.3128210963697E-01 -0.4805587090906E+00  0.0000000000000E+00
 0.5966856276630E-01 -0.1665983788628E+01  0.0000000000000E+00
 0.5972745555662E-01 -0.1600144682660E+01  0.0000000000000E+00
 0.5980662025903E-01 -0.1534306752866E+01  0.0000000000000E+00
 0.5990901628335E-01 -0.1468470994089E+01  0.0000000000000E+00
 0.6003781978316E-01 -0.1402638656205E+01  0.0000000000000E+00
 0.6019603352318E-01 -0.1336811545881E+01  0.0000000000000E+00
 0.6038563716454E-01 -0.1270991383534E+01  0.0000000000000E+00
 0.6060608247295E-01 -0.1205179711442E+01  0.0000000000000E+00
 0.6085233544670E-01 -0.1139376189450E+01  0.0000000000000E+00
 0.6111364631580E-01 -0.1073577942351E+01  0.0000000000000E+00
 0.6137495726055E-01 -0.1007779695252E+01  0.0000000000000E+00
 0.6162121045131E-01 -0.9419761732611E+00  0.0000000000000E+00
 0.6184165609327E-01 -0.8761645011696E+00  0.0000000000000E+00
 0.6203126015517E-01 -0.8103443388238E+00  0.0000000000000E+00
 0.6218947437608E-01 -0.7445172285014E+00  0.0000000000000E+00
 0.6231827839647E-01 -0.6786848906179E+00  0.0000000000000E+00
 0.6242067496623E-01 -0.6128491318409E+00  0.0000000000000E+00
 0.6249984022868E-01 -0.5470112020477E+00  0.0000000000000E+00
 0.6255873358672E-01 -0.4811720960803E+00  0.0000000000000E+00
 0.8950101084839E-01 -0.1666317437781E+01  0.0000000000000E+00
 0.8958869088479E-01 -0.1600516563438E+01  0.0000000000000E+00
 0.8970677878753E-01 -0.1534716865257E+01  0.0000000000000E+00
 0.8985971366985E-01 -0.1468919338067E+01  0.0000000000000E+00
 0.9005225975868E-01 -0.1403125231793E+01  0.0000000000000E+00
 0.9028892119845E-01 -0.1337336353041E+01  0.0000000000000E+00
 0.9057266747424E-01 -0.1271554422310E+01  0.0000000000000E+00
 0.9090267622929E-01 -0.1205780981797E+01  0.0000000000000E+00
 0.9127139645241E-01 -0.1140015691424E+01  0.0000000000000E+00
 0.9166270348301E-01 -0.1074255675949E+01  0.0000000000000E+00
 0.9205401058927E-01 -0.1008495660475E+01  0.0000000000000E+00
 0.9242273102939E-01 -0.9427303701028E+00  0.0000000000000E+00
 0.9275274011800E-01 -0.8769569295918E+00  0.0000000000000E+00
 0.9303648681432E-01 -0.8111749988621E+00  0.0000000000000E+00
 0.9327314873499E-01 -0.7453861201111E+00  0.0000000000000E+00
 0.9346569534440E-01 -0.6795920138386E+00  0.0000000000000E+00
 0.9361863077215E-01 -0.6137944866494E+00  0.0000000000000E+00
 0.9373671923494E-01 -0.5479947884691E+00  0.0000000000000E+00
 0.9382439983905E-01 -0.4821939141266E+00  0.0000000000000E+00
 0.1193312636781E+00 -0.1666784467507E+01  0.0000000000000E+00
 0.1194469416106E+00 -0.1601037064363E+01  0.0000000000000E+00
 0.1196031633639E+00 -0.1535290837365E+01  0.0000000000000E+00
 0.1198058477548E+00 -0.1469546781322E+01  0.0000000000000E+00
 0.1200613470828E+00 -0.1403806146227E+01  0.0000000000000E+00
 0.1203756668731E+00 -0.1338070738599E+01  0.0000000000000E+00
 0.1207527664332E+00 -0.1272342279054E+01  0.0000000000000E+00
 0.1211915492853E+00 -0.1206622309678E+01  0.0000000000000E+00
 0.1216819474073E+00 -0.1140910490496E+01  0.0000000000000E+00
 0.1222024612488E+00 -0.1075203946219E+01  0.0000000000000E+00
 0.1227229751660E+00 -0.1009497401943E+01  0.0000000000000E+00
 0.1232133735050E+00 -0.9437855827625E+00  0.0000000000000E+00
 0.1236521566907E+00 -0.8780656133886E+00  0.0000000000000E+00
 0.1240292566713E+00 -0.8123371538457E+00  0.0000000000000E+00
 0.1243435769425E+00 -0.7466017462192E+00  0.0000000000000E+00
 0.1245990767911E+00 -0.6808611111264E+00  0.0000000000000E+00
 0.1248017617275E+00 -0.6151170550845E+00  0.0000000000000E+00
 0.1249579840408E+00 -0.5493708280868E+00  0.0000000000000E+00
 0.1250736625410E+00 -0.4836234249434E+00  0.0000000000000E+00
 0.1491586010070E+00 -0.1667384799156E+01  0.0000000000000E+00
 0.1493012271308E+00 -0.1601706053965E+01  0.0000000000000E+00
 0.1494945330316E+00 -0.1536028484898E+01  0.0000000000000E+00
 0.1497459172305E+00 -0.1470353086742E+01  0.0000000000000E+00
 0.1500633200979E+00 -0.1404681109575E+01  0.0000000000000E+00
 0.1504542485424E+00 -0.1339014359804E+01  0.0000000000000E+00
 0.1509236516910E+00 -0.1273354558196E+01  0.0000000000000E+00
 0.1514701589477E+00 -0.1207703246693E+01  0.0000000000000E+00
 0.1520811852768E+00 -0.1142060085454E+01  0.0000000000000E+00
 0.1527298562383E+00 -0.1076422199130E+01  0.0000000000000E+00
 0.1533785272754E+00 -0.1010784312807E+01  0.0000000000000E+00
 0.1539895538216E+00 -0.9451411515694E+00  0.0000000000000E+00
 0.1545360614118E+00 -0.8794898400693E+00  0.0000000000000E+00
 0.1550054649810E+00 -0.8138300384639E+00  0.0000000000000E+00
 0.1553963939063E+00 -0.7481632886949E+00  0.0000000000000E+00
 0.1557137972944E+00 -0.6824913115305E+00  0.0000000000000E+00
 0.1559651820386E+00 -0.6168159133754E+00  0.0000000000000E+00
 0.1561584884995E+00 -0.5511383443096E+00  0.0000000000000E+00
 0.1563011151911E+00 -0.4854595991195E+00  0.0000000000000E+00
 0.1789822802759E+00 -0.1668118331470E+01  0.0000000000000E+00
 0.1791505485831E+00 -0.1602523363477E+01  0.0000000000000E+00
 0.1793796326223E+00 -0.1536929571581E+01  0.0000000000000E+00
 0.1796784106189E+00 -0.1471337950540E+01  0.0000000000000E+00
 0.1800564110131E+00 -0.1405749750540E+01  0.0000000000000E+00
 0.1805226420978E+00 -0.1340166777849E+01  0.0000000000000E+00
 0.1810830428174E+00 -0.1274590753418E+01  0.0000000000000E+00
 0.1817359684599E+00 -0.1209023219015E+01  0.0000000000000E+00
 0.1824663169740E+00 -0.1143463834961E+01  0.0000000000000E+00
 0.1832418390321E+00 -0.1077909725833E+01  0.0000000000000E+00
 0.1840173611658E+00 -0.1012355616707E+01  0.0000000000000E+00
 0.1847477098969E+00 -0.9467962326544E+00  0.0000000000000E+00
 0.1854006358730E+00 -0.8812286982545E+00  0.0000000000000E+00
 0.1859610370131E+00 -0.8156526738272E+00  0.0000000000000E+00
 0.1864272685787E+00 -0.7500697011386E+00  0.0000000000000E+00
 0.1868052694934E+00 -0.6844815011410E+00  0.0000000000000E+00
 0.1871040480356E+00 -0.6188898801021E+00  0.0000000000000E+00
 0.1873331326348E+00 -0.5532960882075E+00  0.0000000000000E+00
 0.1875014015097E+00 -0.4877011202147E+00  0.0000000000000E+00
 0.2088016021235E+00 -0.1668984942169E+01  0.0000000000000E+00
 0.2089939515364E+00 -0.1603488788624E+01  0.0000000000000E+00
 0.2092572526392E+00 -0.1537993811146E+01  0.0000000000000E+00
 0.2096018633630E+00 -0.1472501004457E+01  0.0000000000000E+00
 0.2100389002153E+00 -0.1407011618869E+01  0.0000000000000E+00
 0.2105788728772E+00 -0.1341527460488E+01  0.0000000000000E+00
 0.2112287101067E+00 -0.1276050250483E+01  0.0000000000000E+00
 0.2119864930791E+00 -0.1210581530413E+01  0.0000000000000E+00
 0.2128346027241E+00 -0.1145120960792E+01  0.0000000000000E+00
 0.2137354148261E+00 -0.1079665666113E+01  0.0000000000000E+00
 0.2146362270037E+00 -0.1014210371434E+01  0.0000000000000E+00
 0.2154843368657E+00 -0.9487498018155E+00  0.0000000000000E+00
 0.2162421201716E+00 -0.8832810817495E+00  0.0000000000000E+00
 0.2168919578216E+00 -0.8178038717479E+00  0.0000000000000E+00
 0.2174319309644E+00 -0.7523197133698E+00  0.0000000000000E+00
 0.2178689683374E+00 -0.6868303277847E+00  0.0000000000000E+00
 0.2182135796066E+00 -0.6213375210985E+00  0.0000000000000E+00
 0.2184768812695E+00 -0.5558425436214E+00  0.0000000000000E+00
 0.2186692312501E+00 -0.4903463900771E+00  0.0000000000000E+00
 0.2386158335404E+00 -0.1669984486568E+01  0.0000000000000E+00
 0.2388304532896E+00 -0.1604602088601E+01  0.0000000000000E+00
 0.2391261606856E+00 -0.1539220866665E+01  0.0000000000000E+00
 0.2395147933649E+00 -0.1473841815444E+01  0.0000000000000E+00
 0.2400090559004E+00 -0.1408466185393E+01  0.0000000000000E+00
 0.2406209593635E+00 -0.1343095782431E+01  0.0000000000000E+00
 0.2413584223218E+00 -0.1277732327977E+01  0.0000000000000E+00
 0.2422192518420E+00 -0.1212377363354E+01  0.0000000000000E+00
 0.2431833118313E+00 -0.1147030549294E+01  0.0000000000000E+00
 0.2442076031893E+00 -0.1081689010192E+01  0.0000000000000E+00
 0.2452318946228E+00 -0.1016347471091E+01  0.0000000000000E+00
 0.2461959548292E+00 -0.9510006570345E+00  0.0000000000000E+00
 0.2470567846829E+00 -0.8856456924151E+00  0.0000000000000E+00
 0.2477942480618E+00 -0.8202822379657E+00  0.0000000000000E+00
 0.2484061520058E+00 -0.7549118350073E+00  0.0000000000000E+00
 0.2489004150619E+00 -0.6895362049592E+00  0.0000000000000E+00
 0.2492890482866E+00 -0.6241571537411E+00  0.0000000000000E+00
 0.2495847562426E+00 -0.5587759318069E+00  0.0000000000000E+00
 0.2497993765596E+00 -0.4933935338409E+00  0.0000000000000E+00
 0.2684242694147E+00 -0.1671116799478E+01  0.0000000000000E+00
 0.2686591031430E+00 -0.1605862988404E+01  0.0000000000000E+00
 0.2689851604755E+00 -0.1540610353321E+01  0.0000000000000E+00
 0.2694157587553E+00 -0.1475359888869E+01  0.0000000000000E+00
 0.2699651906179E+00 -0.1410112845663E+01  0.0000000000000E+00
 0.2706469685284E+00 -0.1344871029414E+01  0.0000000000000E+00
 0.2714700008599E+00 -0.1279636161824E+01  0.0000000000000E+00
 0.2724318205741E+00 -0.1214409783944E+01  0.0000000000000E+00
 0.2735097745524E+00 -0.1149191556758E+01  0.0000000000000E+00
 0.2746554888105E+00 -0.1083978604548E+01  0.0000000000000E+00
 0.2758012031444E+00 -0.1018765652339E+01  0.0000000000000E+00
 0.2768791573396E+00 -0.9535474251570E+00  0.0000000000000E+00
 0.2778409773874E+00 -0.8883210472817E+00  0.0000000000000E+00
 0.2786640101394E+00 -0.8230861796958E+00  0.0000000000000E+00
 0.2793457885309E+00 -0.7578443634509E+00  0.0000000000000E+00
 0.2798952209140E+00 -0.6925973202491E+00  0.0000000000000E+00
 0.2803258197392E+00 -0.6273468557994E+00  0.0000000000000E+00
 0.2806518776318E+00 -0.5620942207181E+00  0.0000000000000E+00
 0.2808867119278E+00 -0.4968404096451E+00  0.0000000000000E+00
 0.2982262162405E+00 -0.1672381695408E+01  0.0000000000000E+00
 0.2984789668060E+00 -0.1607271179427E+01  0.0000000000000E+00
 0.2988330769373E+00 -0.1542161839391E+01  0.0000000000000E+00
 0.2993033436852E+00 -0.1477054669892E+01  0.0000000000000E+00
 0.2999056477456E+00 -0.1411950921727E+01  0.0000000000000E+00
 0.3006550029816E+00 -0.1346852400370E+01  0.0000000000000E+00
 0.3015613075666E+00 -0.1281760827839E+01  0.0000000000000E+00
 0.3026218203629E+00 -0.1216677744886E+01  0.0000000000000E+00
 0.3038113712198E+00 -0.1151602812772E+01  0.0000000000000E+00
 0.3050762112702E+00 -0.1086533155653E+01  0.0000000000000E+00
 0.3063410513962E+00 -0.1021463498536E+01  0.0000000000000E+00
 0.3075306024701E+00 -0.9563885664261E+00  0.0000000000000E+00
 0.3085911155999E+00 -0.8913054834775E+00  0.0000000000000E+00
 0.3094974206055E+00 -0.8262139109515E+00  0.0000000000000E+00
 0.3102467763224E+00 -0.7611153895993E+00  0.0000000000000E+00
 0.3108490809033E+00 -0.6960116414382E+00  0.0000000000000E+00
 0.3113193481967E+00 -0.6309044719423E+00  0.0000000000000E+00
 0.3116734588881E+00 -0.5657951319091E+00  0.0000000000000E+00
 0.3119262100213E+00 -0.5006846159287E+00  0.0000000000000E+00
 0.3280209425970E+00 -0.1673778966920E+01  0.0000000000000E+00
 0.3282890794610E+00 -0.1608826318313E+01  0.0000000000000E+00
 0.3286687118504E+00 -0.1543874845604E+01  0.0000000000000E+00
 0.3291761165241E+00 -0.1478925543327E+01  0.0000000000000E+00
 0.3298287622345E+00 -0.1413979662479E+01  0.0000000000000E+00
 0.3306431642467E+00 -0.1349039008277E+01  0.0000000000000E+00
 0.3316302105286E+00 -0.1284105303084E+01  0.0000000000000E+00
 0.3327868858481E+00 -0.1219180087322E+01  0.0000000000000E+00
 0.3340855030187E+00 -0.1154263022560E+01  0.0000000000000E+00
 0.3354669382939E+00 -0.1089351232816E+01  0.0000000000000E+00
 0.3368483736447E+00 -0.1024439443074E+01  0.0000000000000E+00
 0.3381469910323E+00 -0.9595223783156E+00  0.0000000000000E+00
 0.3393036666853E+00 -0.8945971625594E+00  0.0000000000000E+00
 0.3402907133878E+00 -0.8296634573724E+00  0.0000000000000E+00
 0.3411051158809E+00 -0.7647228031751E+00  0.0000000000000E+00
 0.3417577621119E+00 -0.6997769223317E+00  0.0000000000000E+00
 0.3422651673310E+00 -0.6348276200581E+00  0.0000000000000E+00
 0.3426448002805E+00 -0.5698761473508E+00  0.0000000000000E+00
 0.3429129377122E+00 -0.5049234987456E+00  0.0000000000000E+00
 0.3578077951490E+00 -0.1675308389770E+01  0.0000000000000E+00
 0.3580885561653E+00 -0.1610528032351E+01  0.0000000000000E+00
 0.3584909486692E+00 -0.1545748850774E+01  0.0000000000000E+00
 0.3590327291289E+00 -0.1480971839517E+01  0.0000000000000E+00
 0.3597329543503E+00 -0.1416198249793E+01  0.0000000000000E+00
 0.3606096410050E+00 -0.1351429886536E+01  0.0000000000000E+00
 0.3616746668497E+00 -0.1286668472490E+01  0.0000000000000E+00
 0.3629247425635E+00 -0.1221915547716E+01  0.0000000000000E+00
 0.3643296639184E+00 -0.1157170774115E+01  0.0000000000000E+00
 0.3658249322898E+00 -0.1092431275557E+01  0.0000000000000E+00
 0.3673202007369E+00 -0.1027691777001E+01  0.0000000000000E+00
 0.3687251223088E+00 -0.9629470034044E+00  0.0000000000000E+00
 0.3699751983561E+00 -0.8981940786356E+00  0.0000000000000E+00
 0.3710402246213E+00 -0.8334326645960E+00  0.0000000000000E+00
 0.3719169117570E+00 -0.7686643013451E+00  0.0000000000000E+00
 0.3726171374990E+00 -0.7038907116260E+00  0.0000000000000E+00
 0.3731589185041E+00 -0.6391137003723E+00  0.0000000000000E+00
 0.3735613115680E+00 -0.5743345187982E+00  0.0000000000000E+00
 0.3738420731521E+00 -0.5095541613797E+00  0.0000000000000E+00
 0.3875860607136E+00 -0.1676969718067E+01  0.0000000000000E+00
 0.3878764645286E+00 -0.1612375915917E+01  0.0000000000000E+00
 0.3882986357959E+00 -0.1547783289551E+01  0.0000000000000E+00
 0.3888718106944E+00 -0.1483192833383E+01  0.0000000000000E+00
 0.3896166340798E+00 -0.1418605798860E+01  0.0000000000000E+00
 0.3905526240356E+00 -0.1354023990612E+01  0.0000000000000E+00
 0.3916926481006E+00 -0.1289449131793E+01  0.0000000000000E+00
 0.3930331428715E+00 -0.1224882762071E+01  0.0000000000000E+00
 0.3945413870725E+00 -0.1160324543713E+01  0.0000000000000E+00
 0.3961475072028E+00 -0.1095771600424E+01  0.0000000000000E+00
 0.3977536274088E+00 -0.1031218657136E+01  0.0000000000000E+00
 0.3992618718269E+00 -0.9666604387825E+00  0.0000000000000E+00
 0.4006023669313E+00 -0.9020940690673E+00  0.0000000000000E+00
 0.4017423914168E+00 -0.8375192102545E+00  0.0000000000000E+00
 0.4026783818535E+00 -0.7729374020130E+00  0.0000000000000E+00
 0.4034232057596E+00 -0.7083503674957E+00  0.0000000000000E+00
 0.4039963812035E+00 -0.6437599113309E+00  0.0000000000000E+00
 0.4044185530308E+00 -0.5791672849682E+00  0.0000000000000E+00
 0.4047089574136E+00 -0.5145734828194E+00  0.0000000000000E+00
 0.4173550733497E+00 -0.1678762688782E+01  0.0000000000000E+00
 0.4176519204570E+00 -0.1614369534370E+01  0.0000000000000E+00
 0.4180906709789E+00 -0.1549977555680E+01  0.0000000000000E+00
 0.4186920408057E+00 -0.1485587747055E+01  0.0000000000000E+00
 0.4194782628384E+00 -0.1421201360198E+01  0.0000000000000E+00
 0.4204703565771E+00 -0.1356820199408E+01  0.0000000000000E+00
 0.4216821793354E+00 -0.1292445988280E+01  0.0000000000000E+00
 0.4231098936343E+00 -0.1228080266064E+01  0.0000000000000E+00
 0.4247182611449E+00 -0.1163722695415E+01  0.0000000000000E+00
 0.4264320334947E+00 -0.1099370399863E+01  0.0000000000000E+00
 0.4281458059202E+00 -0.1035018104312E+01  0.0000000000000E+00
 0.4297541736479E+00 -0.9706605336683E+00  0.0000000000000E+00
 0.4311818882803E+00 -0.9062948114591E+00  0.0000000000000E+00
 0.4323937114591E+00 -0.8419206003386E+00  0.0000000000000E+00
 0.4333858056787E+00 -0.7775394395554E+00  0.0000000000000E+00
 0.4341720282321E+00 -0.7131530527035E+00  0.0000000000000E+00
 0.4347733986043E+00 -0.6487632440825E+00  0.0000000000000E+00
 0.4352121496862E+00 -0.5843712653956E+00  0.0000000000000E+00
 0.4355089973612E+00 -0.5199781109850E+00  0.0000000000000E+00
 0.4471141841628E+00 -0.1680687022310E+01  0.0000000000000E+00
 0.4474140681448E+00 -0.1616508426641E+01  0.0000000000000E+00
 0.4478659915118E+00 -0.1552331006628E+01  0.0000000000000E+00
 0.4484921498675E+00 -0.1488155756537E+01  0.0000000000000E+00
 0.4493163641549E+00 -0.1423983928345E+01  0.0000000000000E+00
 0.4503611552972E+00 -0.1359817325998E+01  0.0000000000000E+00
 0.4516413703761E+00 -0.1295657673564E+01  0.0000000000000E+00
 0.4531528978439E+00 -0.1231506509842E+01  0.0000000000000E+00
 0.4548579823102E+00 -0.1167363497905E+01  0.0000000000000E+00
 0.4566760005302E+00 -0.1103225761095E+01  0.0000000000000E+00
 0.4584940188258E+00 -0.1039088024287E+01  0.0000000000000E+00
 0.4601991035092E+00 -0.9749450123550E+00  0.0000000000000E+00
 0.4617106313106E+00 -0.9107938486407E+00  0.0000000000000E+00
 0.4629908468100E+00 -0.8466341962143E+00  0.0000000000000E+00
 0.4640356384332E+00 -0.7824675938748E+00  0.0000000000000E+00
 0.4648598532412E+00 -0.7182957656882E+00  0.0000000000000E+00
 0.4654860121423E+00 -0.6541205156026E+00  0.0000000000000E+00
 0.4659379360693E+00 -0.5899430955919E+00  0.0000000000000E+00
 0.4662378206191E+00 -0.5257644999245E+00  0.0000000000000E+00
 0.4768626808375E+00 -0.1682742416794E+01  0.0000000000000E+00
 0.4771619935814E+00 -0.1618792098491E+01  0.0000000000000E+00
 0.4776234816665E+00 -0.1554842955773E+01  0.0000000000000E+00
 0.4782708204089E+00 -0.1490895982827E+01  0.0000000000000E+00
 0.4791294187871E+00 -0.1426952431917E+01  0.0000000000000E+00
 0.4802232991507E+00 -0.1363014106618E+01  0.0000000000000E+00
 0.4815682983403E+00 -0.1299082731497E+01  0.0000000000000E+00
 0.4831600307474E+00 -0.1235159844877E+01  0.0000000000000E+00
 0.4849582239168E+00 -0.1171245110272E+01  0.0000000000000E+00
 0.4868768797426E+00 -0.1107335650828E+01  0.0000000000000E+00
 0.4887955356439E+00 -0.1043426191385E+01  0.0000000000000E+00
 0.4905937290304E+00 -0.9795114567866E+00  0.0000000000000E+00
 0.4921854617710E+00 -0.9155885701742E+00  0.0000000000000E+00
 0.4935304613811E+00 -0.8516571950617E+00  0.0000000000000E+00
 0.4946243422257E+00 -0.7877188697700E+00  0.0000000000000E+00
 0.4954829411245E+00 -0.7237753188667E+00  0.0000000000000E+00
 0.4961302804124E+00 -0.6598283459261E+00  0.0000000000000E+00
 0.4965917690575E+00 -0.5958792032105E+00  0.0000000000000E+00
 0.4968910823691E+00 -0.5319288849093E+00  0.0000000000000E+00
 0.5065999773523E+00 -0.1684928562411E+01  0.0000000000000E+00
 0.5068949207371E+00 -0.1621220040089E+01  0.0000000000000E+00
 0.5073621754349E+00 -0.1557512693277E+01  0.0000000000000E+00
 0.5080268964777E+00 -0.1493807516079E+01  0.0000000000000E+00
 0.5089160808768E+00 -0.1430105761064E+01  0.0000000000000E+00
 0.5100552524167E+00 -0.1366409231408E+01  0.0000000000000E+00
 0.5114612376898E+00 -0.1302719652214E+01  0.0000000000000E+00
 0.5131293770345E+00 -0.1239038561295E+01  0.0000000000000E+00
 0.5150168809198E+00 -0.1175365622638E+01  0.0000000000000E+00
 0.5170323763743E+00 -0.1111697959174E+01  0.0000000000000E+00
 0.5190478719044E+00 -0.1048030295713E+01  0.0000000000000E+00
 0.5209353760067E+00 -0.9843573570614E+00  0.0000000000000E+00
 0.5226035156849E+00 -0.9206762661513E+00  0.0000000000000E+00
 0.5240095013785E+00 -0.8569866869656E+00  0.0000000000000E+00
 0.5251486733994E+00 -0.7932901573186E+00  0.0000000000000E+00
 0.5260378583190E+00 -0.7295884023095E+00  0.0000000000000E+00
 0.5267025799074E+00 -0.6658832251168E+00  0.0000000000000E+00
 0.5271698351652E+00 -0.6021758783080E+00  0.0000000000000E+00
 0.5274647791177E+00 -0.5384673559889E+00  0.0000000000000E+00
 0.5363253937430E+00 -0.1687245126228E+01  0.0000000000000E+00
 0.5366119860150E+00 -0.1623791708789E+01  0.0000000000000E+00
 0.5370810255763E+00 -0.1560339466780E+01  0.0000000000000E+00
 0.5377591471768E+00 -0.1496889394217E+01  0.0000000000000E+00
 0.5386749358556E+00 -0.1433442743990E+01  0.0000000000000E+00
 0.5398554168395E+00 -0.1370001318861E+01  0.0000000000000E+00
 0.5413184064642E+00 -0.1306566844490E+01  0.0000000000000E+00
 0.5430589710231E+00 -0.1243140858158E+01  0.0000000000000E+00
 0.5450318039010E+00 -0.1179723024346E+01  0.0000000000000E+00
 0.5471401572628E+00 -0.1116310465763E+01  0.0000000000000E+00
 0.5492485107003E+00 -0.1052897907183E+01  0.0000000000000E+00
 0.5512213437952E+00 -0.9894800733776E+00  0.0000000000000E+00
 0.5529619086877E+00 -0.9260540870546E+00  0.0000000000000E+00
 0.5544248987329E+00 -0.8626196126929E+00  0.0000000000000E+00
 0.5556053801978E+00 -0.7991781875723E+00  0.0000000000000E+00
 0.5565211693972E+00 -0.7357315373529E+00  0.0000000000000E+00
 0.5571992915431E+00 -0.6722814647954E+00  0.0000000000000E+00
 0.5576683316644E+00 -0.6088292227895E+00  0.0000000000000E+00
 0.5579549245041E+00 -0.5453758053527E+00  0.0000000000000E+00
 0.5660383036526E+00 -0.1689691762168E+01  0.0000000000000E+00
 0.5663123811983E+00 -0.1626506539575E+01  0.0000000000000E+00
 0.5667790419974E+00 -0.1563322492327E+01  0.0000000000000E+00
 0.5674664005168E+00 -0.1500140614350E+01  0.0000000000000E+00
 0.5684046298164E+00 -0.1436962158871E+01  0.0000000000000E+00
 0.5696222565698E+00 -0.1373788928213E+01  0.0000000000000E+00
 0.5711380868456E+00 -0.1310622648626E+01  0.0000000000000E+00
 0.5729469129013E+00 -0.1247464856829E+01  0.0000000000000E+00
 0.5750009110328E+00 -0.1184315217823E+01  0.0000000000000E+00
 0.5771979585521E+00 -0.1121170854085E+01  0.0000000000000E+00
 0.5793950061471E+00 -0.1058026490350E+01  0.0000000000000E+00
 0.5814490044956E+00 -0.9948768513511E+00  0.0000000000000E+00
 0.5832578308849E+00 -0.9317190595634E+00  0.0000000000000E+00
 0.5847736615812E+00 -0.8685527799859E+00  0.0000000000000E+00
 0.5859912888156E+00 -0.8053795493368E+00  0.0000000000000E+00
 0.5869295186357E+00 -0.7422010938657E+00  0.0000000000000E+00
 0.5876168777006E+00 -0.6790192158940E+00  0.0000000000000E+00
 0.5880835390597E+00 -0.6158351686501E+00  0.0000000000000E+00
 0.5883576171732E+00 -0.5526499460589E+00  0.0000000000000E+00
-0.1182610616184E+01 -0.1709938151910E+01  0.0000000000000E+00
-0.1206840600949E+01 -0.1599271303952E+01  0.0000000000000E+00
-0.1234987980858E+01 -0.1489562273115E+01  0.0000000000000E+00
-0.1268147886288E+01 -0.1381306365269E+01  0.0000000000000E+00
-0.1307801009883E+01 -0.1275324724782E+01  0.0000000000000E+00
-0.1353020462603E+01 -0.1171637126831E+01  0.0000000000000E+00
-0.1397268459649E+01 -0.1067515066351E+01  0.0000000000000E+00
-0.1437122473078E+01 -0.9615813592161E+00  0.0000000000000E+00
-0.1472550192246E+01 -0.8540374650362E+00  0.0000000000000E+00
-0.1503921191345E+01 -0.7452053677059E+00  0.0000000000000E+00
-0.1531272791497E+01 -0.6352674555980E+00  0.0000000000000E+00
-0.1554282707568E+01 -0.5243175831196E+00  0.0000000000000E+00
-0.1572939532414E+01 -0.4125357734460E+00  0.0000000000000E+00
-0.1586992041029E+01 -0.3000702231276E+00  0.0000000000000E+00
-0.1595657715404E+01 -0.1870553481994E+00  0.0000000000000E+00
-0.1598364296081E+01 -0.7373369945448E-01  0.0000000000000E+00
-0.1596500729268E+01  0.3959193470411E-01  0.0000000000000E+00
-0.1576465557885E+01  0.1508144777421E+00  0.0000000000000E+00
-0.1525097607493E+01  0.2508838507572E+00  0.0000000000000E+00
-0.1151849224518E+01 -0.1708018429854E+01  0.0000000000000E+00
-0.1174810817950E+01 -0.1599917521458E+01  0.0000000000000E+00
-0.1201494297363E+01 -0.1492724079797E+01  0.0000000000000E+00
-0.1232938712419E+01 -0.1386907393241E+01  0.0000000000000E+00
-0.1270548496269E+01 -0.1283245453469E+01  0.0000000000000E+00
-0.1313447122937E+01 -0.1181757097507E+01  0.0000000000000E+00
-0.1355441944237E+01 -0.1079857510625E+01  0.0000000000000E+00
-0.1393290276807E+01 -0.9762420726324E+00  0.0000000000000E+00
-0.1426958860821E+01 -0.8711016241228E+00  0.0000000000000E+00
-0.1456792161492E+01 -0.7647410505408E+00  0.0000000000000E+00
-0.1482817610549E+01 -0.6573328628486E+00  0.0000000000000E+00
-0.1504721960076E+01 -0.5489656979899E+00  0.0000000000000E+00
-0.1522488745507E+01 -0.4398099530286E+00  0.0000000000000E+00
-0.1535877314757E+01 -0.3300060065687E+00  0.0000000000000E+00
-0.1544146046571E+01 -0.2196812801132E+00  0.0000000000000E+00
-0.1546753842042E+01 -0.1090656515018E+00  0.0000000000000E+00
-0.1545018125930E+01  0.1553936656996E-02  0.0000000000000E+00
-0.1526054989336E+01  0.1101813215066E+00  0.0000000000000E+00
-0.1477397507004E+01  0.2082426775406E+00  0.0000000000000E+00
-0.1121071481666E+01 -0.1706207396943E+01  0.0000000000000E+00
-0.1142765544784E+01 -0.1600666705050E+01  0.0000000000000E+00
-0.1167985984722E+01 -0.1495983129601E+01  0.0000000000000E+00
-0.1197715770410E+01 -0.1392599941581E+01  0.0000000000000E+00
-0.1233283075506E+01 -0.1291251980047E+01  0.0000000000000E+00
-0.1273861737223E+01 -0.1191957143015E+01  0.0000000000000E+00
-0.1313604243862E+01 -0.1092274306747E+01  0.0000000000000E+00
-0.1349447756621E+01 -0.9909714150146E+00  0.0000000000000E+00
-0.1381358066526E+01 -0.8882286892072E+00  0.0000000000000E+00
-0.1409654529800E+01 -0.7843339163719E+00  0.0000000000000E+00
-0.1434354688775E+01 -0.6794497301018E+00  0.0000000000000E+00
-0.1455154332752E+01 -0.5736595498896E+00  0.0000000000000E+00
-0.1472031939748E+01 -0.4671241466607E+00  0.0000000000000E+00
-0.1484757430585E+01 -0.3599760811308E+00  0.0000000000000E+00
-0.1492630080751E+01 -0.2523357803654E+00  0.0000000000000E+00
-0.1495139951914E+01 -0.1444204490327E+00  0.0000000000000E+00
-0.1493532947327E+01 -0.3650118443096E-01  0.0000000000000E+00
-0.1475642704875E+01  0.6953675537040E-01  0.0000000000000E+00
-0.1429696548673E+01  0.1655957997913E+00  0.0000000000000E+00
-0.1090277778680E+01 -0.1704505302474E+01  0.0000000000000E+00
-0.1110705151904E+01 -0.1601519090901E+01  0.0000000000000E+00
-0.1134463392784E+01 -0.1499339645572E+01  0.0000000000000E+00
-0.1162479389508E+01 -0.1398384220211E+01  0.0000000000000E+00
-0.1196005056235E+01 -0.1299344501311E+01  0.0000000000000E+00
-0.1234264593488E+01 -0.1202237447020E+01  0.0000000000000E+00
-0.1271755625938E+01 -0.1104765625254E+01  0.0000000000000E+00
-0.1305595159327E+01 -0.1005769543773E+01  0.0000000000000E+00
-0.1335748035559E+01 -0.9054188045732E+00  0.0000000000000E+00
-0.1362508501866E+01 -0.8039840963573E+00  0.0000000000000E+00
-0.1385884211173E+01 -0.7016181753908E+00  0.0000000000000E+00
-0.1405579989997E+01 -0.5983992437282E+00  0.0000000000000E+00
-0.1421569258942E+01 -0.4944784461285E+00  0.0000000000000E+00
-0.1433632511731E+01 -0.3899805254777E+00  0.0000000000000E+00
-0.1441109920573E+01 -0.2850189144976E+00  0.0000000000000E+00
-0.1443522707747E+01 -0.1797981444669E+00  0.0000000000000E+00
-0.1442045254927E+01 -0.7457346785855E-01  0.0000000000000E+00
-0.1425228745440E+01  0.2888075313570E-01  0.0000000000000E+00
-0.1381994752957E+01  0.1229432044031E+00  0.0000000000000E+00
-0.1059468488513E+01 -0.1702912387231E+01  0.0000000000000E+00
-0.1078629992469E+01 -0.1602474907163E+01  0.0000000000000E+00
-0.1100926854868E+01 -0.1502793843219E+01  0.0000000000000E+00
-0.1127229883123E+01 -0.1404260431974E+01  0.0000000000000E+00
-0.1158714731872E+01 -0.1307523207410E+01  0.0000000000000E+00
-0.1194655965084E+01 -0.1212598186943E+01  0.0000000000000E+00
-0.1229896343770E+01 -0.1117331630845E+01  0.0000000000000E+00
-0.1261732718247E+01 -0.1020636610909E+01  0.0000000000000E+00
-0.1290128981326E+01 -0.9226721095494E+00  0.0000000000000E+00
-0.1315354271230E+01 -0.8236917171689E+00  0.0000000000000E+00
-0.1337406351476E+01 -0.7238383127460E+00  0.0000000000000E+00
-0.1355999085795E+01 -0.6231848809079E+00  0.0000000000000E+00
-0.1371100837377E+01 -0.5218729402175E+00  0.0000000000000E+00
-0.1382502672845E+01 -0.4200194157871E+00  0.0000000000000E+00
-0.1389585661121E+01 -0.3177307460877E+00  0.0000000000000E+00
-0.1391902185134E+01 -0.2151987887865E+00  0.0000000000000E+00
-0.1390555104895E+01 -0.1126629520127E+00  0.0000000000000E+00
-0.1374813148038E+01 -0.1178671098245E-01  0.0000000000000E+00
-0.1334292138156E+01  0.8028487832643E-01  0.0000000000000E+00
-0.1028644031902E+01 -0.1701428892511E+01  0.0000000000000E+00
-0.1046540465220E+01 -0.1603534382381E+01  0.0000000000000E+00
-0.1067376747767E+01 -0.1506345938346E+01  0.0000000000000E+00
-0.1091967606169E+01 -0.1410228779957E+01  0.0000000000000E+00
-0.1121412435542E+01 -0.1315788288743E+01  0.0000000000000E+00
-0.1155036163413E+01 -0.1223039540529E+01  0.0000000000000E+00
-0.1188026687019E+01 -0.1129972488601E+01  0.0000000000000E+00
-0.1217860701239E+01 -0.1035572768820E+01  0.0000000000000E+00
-0.1244501149814E+01 -0.9399887438216E+00  0.0000000000000E+00
-0.1268192061956E+01 -0.8434569057652E+00  0.0000000000000E+00
-0.1288921311765E+01 -0.7461102563833E+00  0.0000000000000E+00
-0.1306411800184E+01 -0.6480165628883E+00  0.0000000000000E+00
-0.1320626833000E+01 -0.5493077176197E+00  0.0000000000000E+00
-0.1331368049718E+01 -0.4500928279743E+00  0.0000000000000E+00
-0.1338057415963E+01 -0.3504713382674E+00  0.0000000000000E+00
-0.1340278475341E+01 -0.2506224323349E+00  0.0000000000000E+00
-0.1339062566136E+01 -0.1507696744498E+00  0.0000000000000E+00
-0.1324395959008E+01 -0.5246566180157E-01  0.0000000000000E+00
-0.1286588727643E+01  0.3762080931293E-01  0.0000000000000E+00
-0.9978048091164E+00 -0.1700055050454E+01  0.0000000000000E+00
-0.1014436949344E+01 -0.1604697736472E+01  0.0000000000000E+00
-0.1033813429585E+01 -0.1509996138651E+01  0.0000000000000E+00
-0.1056692895666E+01 -0.1416289459633E+01  0.0000000000000E+00
-0.1084098483174E+01 -0.1324139928563E+01  0.0000000000000E+00
-0.1115405483312E+01 -0.1233561678802E+01  0.0000000000000E+00
-0.1146146929431E+01 -0.1142688357325E+01  0.0000000000000E+00
-0.1173979360959E+01 -0.1050578164083E+01  0.0000000000000E+00
-0.1198864772593E+01 -0.9573688417442E+00  0.0000000000000E+00
-0.1221022084529E+01 -0.8632797842780E+00  0.0000000000000E+00
-0.1240429281443E+01 -0.7684341162128E+00  0.0000000000000E+00
-0.1256818301491E+01 -0.6728943873585E+00  0.0000000000000E+00
-0.1270147393055E+01 -0.5767828638030E+00  0.0000000000000E+00
-0.1280228768520E+01 -0.4802008352871E+00  0.0000000000000E+00
-0.1286525290197E+01 -0.3832407520642E+00  0.0000000000000E+00
-0.1288651662395E+01 -0.2860691239199E+00  0.0000000000000E+00
-0.1287567701612E+01 -0.1888936717586E+00  0.0000000000000E+00
-0.1273977220288E+01 -0.9315612371048E-01  0.0000000000000E+00
-0.1238884542376E+01 -0.5049014836916E-02  0.0000000000000E+00
-0.9669512233292E+00 -0.1698791087330E+01  0.0000000000000E+00
-0.9823198267800E+00 -0.1605965183794E+01  0.0000000000000E+00
-0.1000237261024E+01 -0.1513744646577E+01  0.0000000000000E+00
-0.1021406091078E+01 -0.1422442661535E+01  0.0000000000000E+00
-0.1046773192995E+01 -0.1332578305487E+01  0.0000000000000E+00
-0.1075764221763E+01 -0.1244164768467E+01  0.0000000000000E+00
-0.1104257346747E+01 -0.1155479391803E+01  0.0000000000000E+00
-0.1130088951907E+01 -0.1065652939568E+01  0.0000000000000E+00
-0.1153220082925E+01 -0.9748125342746E+00  0.0000000000000E+00
-0.1173844550973E+01 -0.8831604717515E+00  0.0000000000000E+00
-0.1191930451300E+01 -0.7908099993657E+00  0.0000000000000E+00
-0.1207218759270E+01 -0.6978184495369E+00  0.0000000000000E+00
-0.1219662665868E+01 -0.6042984620743E+00  0.0000000000000E+00
-0.1229084956349E+01 -0.5103435091204E+00  0.0000000000000E+00
-0.1234989389694E+01 -0.4160390469624E+00  0.0000000000000E+00
-0.1237021830944E+01 -0.3215389111147E+00  0.0000000000000E+00
-0.1236070574753E+01 -0.2270349796020E+00  0.0000000000000E+00
-0.1223556974129E+01 -0.1338581204802E+00  0.0000000000000E+00
-0.1191179603475E+01 -0.4772460601326E-01  0.0000000000000E+00
-0.9360836724979E+00 -0.1697637222502E+01  0.0000000000000E+00
-0.9501894744693E+00 -0.1607336932178E+01  0.0000000000000E+00
-0.9666485979921E+00 -0.1517591658418E+01  0.0000000000000E+00
-0.9861075272542E+00 -0.1428688570411E+01  0.0000000000000E+00
-0.1009436878761E+01 -0.1341103592706E+01  0.0000000000000E+00
-0.1036112671401E+01 -0.1254848971143E+01  0.0000000000000E+00
-0.1062358210486E+01 -0.1168345742088E+01  0.0000000000000E+00
-0.1086189724515E+01 -0.1080797233774E+01  0.0000000000000E+00
-0.1107567310176E+01 -0.9923199483614E+00  0.0000000000000E+00
-0.1126659669612E+01 -0.9030990835921E+00  0.0000000000000E+00
-0.1143425008638E+01 -0.8132380097123E+00  0.0000000000000E+00
-0.1157613339827E+01 -0.7227888417635E+00  0.0000000000000E+00
-0.1169172796767E+01 -0.6318545932468E+00  0.0000000000000E+00
-0.1177936737578E+01 -0.5405209187650E+00  0.0000000000000E+00
-0.1183449817901E+01 -0.4488662807332E+00  0.0000000000000E+00
-0.1185389063541E+01 -0.3570318401726E+00  0.0000000000000E+00
-0.1184571247236E+01 -0.2651936327164E+00  0.0000000000000E+00
-0.1173135261469E+01 -0.1745716753379E+00  0.0000000000000E+00
-0.1143473931327E+01 -0.9040597589074E-01  0.0000000000000E+00
-0.9052025656608E+00 -0.1696593670407E+01  0.0000000000000E+00
-0.9180462799102E+00 -0.1608813184770E+01  0.0000000000000E+00
-0.9330478064465E+00 -0.1521537366029E+01  0.0000000000000E+00
-0.9507975486092E+00 -0.1435027366826E+01  0.0000000000000E+00
-0.9720898633460E+00 -0.1349715959497E+01  0.0000000000000E+00
-0.9964511335561E+00 -0.1265614444814E+01  0.0000000000000E+00
-0.1020449800433E+01 -0.1181287554874E+01  0.0000000000000E+00
-0.1042281937024E+01 -0.1096011182100E+01  0.0000000000000E+00
-0.1061906691047E+01 -0.1009891208114E+01  0.0000000000000E+00
-0.1079467655605E+01 -0.9230957326186E+00  0.0000000000000E+00
-0.1094913147077E+01 -0.8357182487808E+00  0.0000000000000E+00
-0.1108002215241E+01 -0.7478056542760E+00  0.0000000000000E+00
-0.1118677936293E+01 -0.6594513362685E+00  0.0000000000000E+00
-0.1126784241210E+01 -0.5707331318790E+00  0.0000000000000E+00
-0.1131906682287E+01 -0.4817225097452E+00  0.0000000000000E+00
-0.1133753446117E+01 -0.3925479561725E+00  0.0000000000000E+00
-0.1133069783463E+01 -0.3033696648919E+00  0.0000000000000E+00
-0.1122712125213E+01 -0.2152968108032E+00  0.0000000000000E+00
-0.1095767547380E+01 -0.1330931357309E+00  0.0000000000000E+00
-0.8743083235843E+00 -0.1695660640404E+01  0.0000000000000E+00
-0.8858906417741E+00 -0.1610394139888E+01  0.0000000000000E+00
-0.8994352629835E+00 -0.1525581956693E+01  0.0000000000000E+00
-0.9154765096915E+00 -0.1441459227032E+01  0.0000000000000E+00
-0.9347324792844E+00 -0.1358415571095E+01  0.0000000000000E+00
-0.9567799187723E+00 -0.1276461343713E+01  0.0000000000000E+00
-0.9785324051374E+00 -0.1194304973383E+01  0.0000000000000E+00
-0.9983658559628E+00 -0.1111294916756E+01  0.0000000000000E+00
-0.1016238470020E+01 -0.1027526434715E+01  0.0000000000000E+00
-0.1032268731369E+01 -0.9431505289813E+00  0.0000000000000E+00
-0.1046395066944E+01 -0.8582508156835E+00  0.0000000000000E+00
-0.1058385563728E+01 -0.7728689751435E+00  0.0000000000000E+00
-0.1068178240529E+01 -0.6870887681605E+00  0.0000000000000E+00
-0.1075627601174E+01 -0.6009802144323E+00  0.0000000000000E+00
-0.1080360094597E+01 -0.5146077889146E+00  0.0000000000000E+00
-0.1082115068208E+01 -0.4280873029753E+00  0.0000000000000E+00
-0.1081566250735E+01 -0.3415631089346E+00  0.0000000000000E+00
-0.1072287610372E+01 -0.2560335486556E+00  0.0000000000000E+00
-0.1048060474216E+01 -0.1757860963612E+00  0.0000000000000E+00
-0.8434013602891E+00 -0.1694838334539E+01  0.0000000000000E+00
-0.8537229522776E+00 -0.1612079988939E+01  0.0000000000000E+00
-0.8658113380143E+00 -0.1529725611177E+01  0.0000000000000E+00
-0.8801447591061E+00 -0.1447984321162E+01  0.0000000000000E+00
-0.8973650533733E+00 -0.1367202586994E+01  0.0000000000000E+00
-0.9170993320358E+00 -0.1287389816692E+01  0.0000000000000E+00
-0.9366063077746E+00 -0.1207398135830E+01  0.0000000000000E+00
-0.9544417426990E+00 -0.1126648565315E+01  0.0000000000000E+00
-0.9705628866563E+00 -0.1045225745102E+01  0.0000000000000E+00
-0.9850631146560E+00 -0.9632635789787E+00  0.0000000000000E+00
-0.9978709641868E+00 -0.8808358060813E+00  0.0000000000000E+00
-0.1008763559434E+01 -0.7979788893896E+00  0.0000000000000E+00
-0.1017673861820E+01 -0.7147669633096E+00  0.0000000000000E+00
-0.1024466948015E+01 -0.6312622301750E+00  0.0000000000000E+00
-0.1028810163580E+01 -0.5475221713554E+00  0.0000000000000E+00
-0.1030474016764E+01 -0.4636499230587E+00  0.0000000000000E+00
-0.1030060714210E+01 -0.3797739966868E+00  0.0000000000000E+00
-0.1021861760353E+01 -0.2967819101190E+00  0.0000000000000E+00
-0.1000352733534E+01 -0.2184848683968E+00  0.0000000000000E+00
-0.8124820923393E+00 -0.1694126948634E+01  0.0000000000000E+00
-0.8215436060466E+00 -0.1613870917436E+01  0.0000000000000E+00
-0.8321764042262E+00 -0.1533968504685E+01  0.0000000000000E+00
-0.8448026476007E+00 -0.1454602814107E+01  0.0000000000000E+00
-0.8599879144201E+00 -0.1376077161776E+01  0.0000000000000E+00
-0.8774096802096E+00 -0.1298400008021E+01  0.0000000000000E+00
-0.8946717932639E+00 -0.1220567176174E+01  0.0000000000000E+00
-0.9105098602098E+00 -0.1142072251424E+01  0.0000000000000E+00
-0.9248801819917E+00 -0.1062989252608E+01  0.0000000000000E+00
-0.9378510245649E+00 -0.9834349856361E+00  0.0000000000000E+00
-0.9493410359662E+00 -0.9034733126893E+00  0.0000000000000E+00
-0.9591363775820E+00 -0.8231354794195E+00  0.0000000000000E+00
-0.9671649534541E+00 -0.7424859938115E+00  0.0000000000000E+00
-0.9733024130866E+00 -0.6615792408938E+00  0.0000000000000E+00
-0.9772569986568E+00 -0.5804657085455E+00  0.0000000000000E+00
-0.9788303792791E+00 -0.4992358575917E+00  0.0000000000000E+00
-0.9785532394554E+00 -0.4180023590096E+00  0.0000000000000E+00
-0.9714346188367E+00 -0.3375419157624E+00  0.0000000000000E+00
-0.9526443471667E+00 -0.2611894621254E+00  0.0000000000000E+00
-0.7815509360540E+00 -0.1693526671952E+01  0.0000000000000E+00
-0.7893529974569E+00 -0.1615767104683E+01  0.0000000000000E+00
-0.7985308340446E+00 -0.1538310806561E+01  0.0000000000000E+00
-0.8094505256421E+00 -0.1461314865248E+01  0.0000000000000E+00
-0.8226013909215E+00 -0.1385039444855E+01  0.0000000000000E+00
-0.8377112698082E+00 -0.1309492057141E+01  0.0000000000000E+00
-0.8527291461403E+00 -0.1233812223881E+01  0.0000000000000E+00
-0.8665704710604E+00 -0.1157566094584E+01  0.0000000000000E+00
-0.8791905966306E+00 -0.1080817066771E+01  0.0000000000000E+00
-0.8906326797461E+00 -0.1003664848526E+01  0.0000000000000E+00
-0.9008054789872E+00 -0.9261634251201E+00  0.0000000000000E+00
-0.9095041929406E+00 -0.8483388248877E+00  0.0000000000000E+00
-0.9166516682694E+00 -0.7702459293638E+00  0.0000000000000E+00
-0.9221341273071E+00 -0.6919313063309E+00  0.0000000000000E+00
-0.9257007088365E+00 -0.6134384502728E+00  0.0000000000000E+00
-0.9271842428608E+00 -0.5348451464090E+00  0.0000000000000E+00
-0.9270438916883E+00 -0.4562482257846E+00  0.0000000000000E+00
-0.9210062292211E+00 -0.3783135855268E+00  0.0000000000000E+00
-0.9049353367833E+00 -0.3038998875393E+00  0.0000000000000E+00
-0.7506083067926E+00 -0.1693037687126E+01  0.0000000000000E+00
-0.7571515199521E+00 -0.1617768723708E+01  0.0000000000000E+00
-0.7648749989831E+00 -0.1542752680226E+01  0.0000000000000E+00
-0.7740887427956E+00 -0.1468120628396E+01  0.0000000000000E+00
-0.7852058104717E+00 -0.1394089580419E+01  0.0000000000000E+00
-0.7980044064311E+00 -0.1320666098610E+01  0.0000000000000E+00
-0.8107786500141E+00 -0.1247133403882E+01  0.0000000000000E+00
-0.8226238368907E+00 -0.1173130210103E+01  0.0000000000000E+00
-0.8334943702607E+00 -0.1098709293284E+01  0.0000000000000E+00
-0.8434082979516E+00 -0.1023953263733E+01  0.0000000000000E+00
-0.8522644890822E+00 -0.9489062298512E+00  0.0000000000000E+00
-0.8598671794387E+00 -0.8735890026696E+00  0.0000000000000E+00
-0.8661341583082E+00 -0.7980468372435E+00  0.0000000000000E+00
-0.8709622208482E+00 -0.7223184841673E+00  0.0000000000000E+00
-0.8741414024410E+00 -0.6464404446253E+00  0.0000000000000E+00
-0.8755356940038E+00 -0.5704778280057E+00  0.0000000000000E+00
-0.8755327355947E+00 -0.4945116259155E+00  0.0000000000000E+00
-0.8705766344891E+00 -0.4190969387318E+00  0.0000000000000E+00
-0.8572257238154E+00 -0.3466161543434E+00  0.0000000000000E+00
-0.7196546383067E+00 -0.1692660171955E+01  0.0000000000000E+00
-0.7249395845113E+00 -0.1619875942931E+01  0.0000000000000E+00
-0.7312092872703E+00 -0.1547294284722E+01  0.0000000000000E+00
-0.7387176645684E+00 -0.1475020253223E+01  0.0000000000000E+00
-0.7478015158933E+00 -0.1403227708788E+01  0.0000000000000E+00
-0.7582894102453E+00 -0.1331922263408E+01  0.0000000000000E+00
-0.7688206023893E+00 -0.1260530837814E+01  0.0000000000000E+00
-0.7786702325147E+00 -0.1188764710264E+01  0.0000000000000E+00
-0.7877917549782E+00 -0.1116666035064E+01  0.0000000000000E+00
-0.7961781085352E+00 -0.1044300324802E+01  0.0000000000000E+00
-0.8037182728390E+00 -0.9717018110512E+00  0.0000000000000E+00
-0.8102255208740E+00 -0.8988860875506E+00  0.0000000000000E+00
-0.8156125845540E+00 -0.8258887828474E+00  0.0000000000000E+00
-0.8197868318547E+00 -0.7527408304077E+00  0.0000000000000E+00
-0.8225791947468E+00 -0.6794717382122E+00  0.0000000000000E+00
-0.8238848250832E+00 -0.6061339395944E+00  0.0000000000000E+00
-0.8240198406246E+00 -0.5327925872182E+00  0.0000000000000E+00
-0.8201458810983E+00 -0.4598919938240E+00  0.0000000000000E+00
-0.8095155315770E+00 -0.3893382716925E+00  0.0000000000000E+00
-0.6886903565093E+00 -0.1692394296717E+01  0.0000000000000E+00
-0.6927175946182E+00 -0.1622088923663E+01  0.0000000000000E+00
-0.6975340799601E+00 -0.1551935772397E+01  0.0000000000000E+00
-0.7033376495840E+00 -0.1482013883113E+01  0.0000000000000E+00
-0.7103888433793E+00 -0.1412453964381E+01  0.0000000000000E+00
-0.7185665950094E+00 -0.1343260676984E+01  0.0000000000000E+00
-0.7268552945909E+00 -0.1274004642159E+01  0.0000000000000E+00
-0.7347099268254E+00 -0.1204469702582E+01  0.0000000000000E+00
-0.7420829972449E+00 -0.1134687390663E+01  0.0000000000000E+00
-0.7489423355285E+00 -0.1064706121319E+01  0.0000000000000E+00
-0.7551670318599E+00 -0.9945502493410E+00  0.0000000000000E+00
-0.7605793964204E+00 -0.9242301511863E+00  0.0000000000000E+00
-0.7650871037535E+00 -0.8537718288664E+00  0.0000000000000E+00
-0.7686080946470E+00 -0.7831983987784E+00  0.0000000000000E+00
-0.7710141976503E+00 -0.7125323757957E+00  0.0000000000000E+00
-0.7722317255725E+00 -0.6418135169728E+00  0.0000000000000E+00
-0.7725052738312E+00 -0.5710911365270E+00  0.0000000000000E+00
-0.7697140137222E+00 -0.5006987686882E+00  0.0000000000000E+00
-0.7618047823999E+00 -0.4320662485312E+00  0.0000000000000E+00
-0.6577158894649E+00 -0.1692240225162E+01  0.0000000000000E+00
-0.6604859557950E+00 -0.1624407821033E+01  0.0000000000000E+00
-0.6638497600319E+00 -0.1556677289756E+01  0.0000000000000E+00
-0.6679490582789E+00 -0.1489101655950E+01  0.0000000000000E+00
-0.6729681308228E+00 -0.1421768476460E+01  0.0000000000000E+00
-0.6788362760697E+00 -0.1354681459979E+01  0.0000000000000E+00
-0.6848830194189E+00 -0.1287554928934E+01  0.0000000000000E+00
-0.6907431900779E+00 -0.1220245290453E+01  0.0000000000000E+00
-0.6963683447720E+00 -0.1152773454854E+01  0.0000000000000E+00
-0.7017012040992E+00 -0.1085170739436E+01  0.0000000000000E+00
-0.7066109687703E+00 -0.1017451622250E+01  0.0000000000000E+00
-0.7109289861621E+00 -0.9496212624844E+00  0.0000000000000E+00
-0.7145578734505E+00 -0.8816960355872E+00  0.0000000000000E+00
-0.7174261442299E+00 -0.8136912409452E+00  0.0000000000000E+00
-0.7194465236187E+00 -0.7456224004210E+00  0.0000000000000E+00
-0.7205764854021E+00 -0.6775165945656E+00  0.0000000000000E+00
-0.7209891026108E+00 -0.6094072996466E+00  0.0000000000000E+00
-0.7192810772636E+00 -0.5415172805228E+00  0.0000000000000E+00
-0.7140934987308E+00 -0.4748000934607E+00  0.0000000000000E+00
-0.6267316673077E+00 -0.1692198114453E+01  0.0000000000000E+00
-0.6282450755248E+00 -0.1626832783928E+01  0.0000000000000E+00
-0.6301567123173E+00 -0.1561518977415E+01  0.0000000000000E+00
-0.6325522528331E+00 -0.1496283704073E+01  0.0000000000000E+00
-0.6355397177521E+00 -0.1431171369089E+01  0.0000000000000E+00
-0.6390987702994E+00 -0.1366184728180E+01  0.0000000000000E+00
-0.6429040710920E+00 -0.1301181805651E+01  0.0000000000000E+00
-0.6467702938377E+00 -0.1236091573113E+01  0.0000000000000E+00
-0.6506480464722E+00 -0.1170924318597E+01  0.0000000000000E+00
-0.6544549405083E+00 -0.1105694261838E+01  0.0000000000000E+00
-0.6580502871802E+00 -0.1040406004188E+01  0.0000000000000E+00
-0.6612744710591E+00 -0.9750594875815E+00  0.0000000000000E+00
-0.6640250519556E+00 -0.9096614608717E+00  0.0000000000000E+00
-0.6662411162656E+00 -0.8442194064959E+00  0.0000000000000E+00
-0.6678762856675E+00 -0.7787418534021E+00  0.0000000000000E+00
-0.6689191949418E+00 -0.7132432054128E+00  0.0000000000000E+00
-0.6694713946900E+00 -0.6477411013437E+00  0.0000000000000E+00
-0.6688471168461E+00 -0.5823475458340E+00  0.0000000000000E+00
-0.6663817031269E+00 -0.5175398147359E+00  0.0000000000000E+00
 0.6267316770671E+00 -0.1692198115309E+01  0.0000000000000E+00
 0.6282450842043E+00 -0.1626832784735E+01  0.0000000000000E+00
 0.6301567199257E+00 -0.1561518978170E+01  0.0000000000000E+00
 0.6325522593862E+00 -0.1496283704774E+01  0.0000000000000E+00
 0.6355397232755E+00 -0.1431171369731E+01  0.0000000000000E+00
 0.6390987748289E+00 -0.1366184728759E+01  0.0000000000000E+00
 0.6429040746811E+00 -0.1301181806162E+01  0.0000000000000E+00
 0.6467702965677E+00 -0.1236091573554E+01  0.0000000000000E+00
 0.6506480484535E+00 -0.1170924318967E+01  0.0000000000000E+00
 0.6544549418750E+00 -0.1105694262141E+01  0.0000000000000E+00
 0.6580502880753E+00 -0.1040406004428E+01  0.0000000000000E+00
 0.6612744716160E+00 -0.9750594877654E+00  0.0000000000000E+00
 0.6640250522846E+00 -0.9096614610038E+00  0.0000000000000E+00
 0.6662411164480E+00 -0.8442194065791E+00  0.0000000000000E+00
 0.6678762857589E+00 -0.7787418534389E+00  0.0000000000000E+00
 0.6689191949800E+00 -0.7132432054044E+00  0.0000000000000E+00
 0.6694713946944E+00 -0.6477411012908E+00  0.0000000000000E+00
 0.6688471167994E+00 -0.5823475457445E+00  0.0000000000000E+00
 0.6663817030200E+00 -0.5175398146315E+00  0.0000000000000E+00
 0.6577158987074E+00 -0.1692240226002E+01  0.0000000000000E+00
 0.6604859640163E+00 -0.1624407821814E+01  0.0000000000000E+00
 0.6638497672423E+00 -0.1556677290478E+01  0.0000000000000E+00
 0.6679490644955E+00 -0.1489101656609E+01  0.0000000000000E+00
 0.6729681360715E+00 -0.1421768477054E+01  0.0000000000000E+00
 0.6788362803826E+00 -0.1354681460503E+01  0.0000000000000E+00
 0.6848830228425E+00 -0.1287554929381E+01  0.0000000000000E+00
 0.6907431926874E+00 -0.1220245290822E+01  0.0000000000000E+00
 0.6963683466717E+00 -0.1152773455142E+01  0.0000000000000E+00
 0.7017012054155E+00 -0.1085170739648E+01  0.0000000000000E+00
 0.7066109696382E+00 -0.1017451622390E+01  0.0000000000000E+00
 0.7109289867072E+00 -0.9496212625587E+00  0.0000000000000E+00
 0.7145578737767E+00 -0.8816960355999E+00  0.0000000000000E+00
 0.7174261444133E+00 -0.8136912408991E+00  0.0000000000000E+00
 0.7194465237104E+00 -0.7456224003186E+00  0.0000000000000E+00
 0.7205764854380E+00 -0.6775165944084E+00  0.0000000000000E+00
 0.7209891026047E+00 -0.6094072994359E+00  0.0000000000000E+00
 0.7192810771664E+00 -0.5415172802740E+00  0.0000000000000E+00
 0.7140934985165E+00 -0.4748000932170E+00  0.0000000000000E+00
 0.6886903652351E+00 -0.1692394297536E+01  0.0000000000000E+00
 0.6927176023816E+00 -0.1622088924415E+01  0.0000000000000E+00
 0.6975340867727E+00 -0.1551935773080E+01  0.0000000000000E+00
 0.7033376554643E+00 -0.1482013883727E+01  0.0000000000000E+00
 0.7103888483534E+00 -0.1412453964924E+01  0.0000000000000E+00
 0.7185665991058E+00 -0.1343260677450E+01  0.0000000000000E+00
 0.7268552978490E+00 -0.1274004642540E+01  0.0000000000000E+00
 0.7347099293146E+00 -0.1204469702875E+01  0.0000000000000E+00
 0.7420829990631E+00 -0.1134687390868E+01  0.0000000000000E+00
 0.7489423367946E+00 -0.1064706121439E+01  0.0000000000000E+00
 0.7551670327006E+00 -0.9945502493794E+00  0.0000000000000E+00
 0.7605793969537E+00 -0.9242301511490E+00  0.0000000000000E+00
 0.7650871040769E+00 -0.8537718287581E+00  0.0000000000000E+00
 0.7686080948315E+00 -0.7831983986016E+00  0.0000000000000E+00
 0.7710141977424E+00 -0.7125323755530E+00  0.0000000000000E+00
 0.7722317256061E+00 -0.6418135166660E+00  0.0000000000000E+00
 0.7725052738146E+00 -0.5710911361576E+00  0.0000000000000E+00
 0.7697140135745E+00 -0.5006987682796E+00  0.0000000000000E+00
 0.7618047820783E+00 -0.4320662481480E+00  0.0000000000000E+00
 0.7196546465161E+00 -0.1692660172748E+01  0.0000000000000E+00
 0.7249395918170E+00 -0.1619875943648E+01  0.0000000000000E+00
 0.7312092936854E+00 -0.1547294285363E+01  0.0000000000000E+00
 0.7387176701125E+00 -0.1475020253788E+01  0.0000000000000E+00
 0.7478015205931E+00 -0.1403227709276E+01  0.0000000000000E+00
 0.7582894141255E+00 -0.1331922263812E+01  0.0000000000000E+00
 0.7688206054822E+00 -0.1260530838125E+01  0.0000000000000E+00
 0.7786702348837E+00 -0.1188764710478E+01  0.0000000000000E+00
 0.7877917567151E+00 -0.1116666035182E+01  0.0000000000000E+00
 0.7961781097513E+00 -0.1044300324826E+01  0.0000000000000E+00
 0.8037182736528E+00 -0.9717018109855E+00  0.0000000000000E+00
 0.8102255213957E+00 -0.8988860874001E+00  0.0000000000000E+00
 0.8156125848748E+00 -0.8258887826165E+00  0.0000000000000E+00
 0.8197868320404E+00 -0.7527408300988E+00  0.0000000000000E+00
 0.8225791948393E+00 -0.6794717378281E+00  0.0000000000000E+00
 0.8238848251146E+00 -0.6061339391370E+00  0.0000000000000E+00
 0.8240198405976E+00 -0.5327925866896E+00  0.0000000000000E+00
 0.8201458809002E+00 -0.4598919932551E+00  0.0000000000000E+00
 0.8095155311481E+00 -0.3893382711694E+00  0.0000000000000E+00
 0.7506083144858E+00 -0.1693037687890E+01  0.0000000000000E+00
 0.7571515268004E+00 -0.1617768724388E+01  0.0000000000000E+00
 0.7648750050008E+00 -0.1542752680822E+01  0.0000000000000E+00
 0.7740887480037E+00 -0.1468120628908E+01  0.0000000000000E+00
 0.7852058148974E+00 -0.1394089580847E+01  0.0000000000000E+00
 0.7980044100952E+00 -0.1320666098949E+01  0.0000000000000E+00
 0.8107786529419E+00 -0.1247133404121E+01  0.0000000000000E+00
 0.8226238391398E+00 -0.1173130210237E+01  0.0000000000000E+00
 0.8334943719163E+00 -0.1098709293313E+01  0.0000000000000E+00
 0.8434082991177E+00 -0.1023953263659E+01  0.0000000000000E+00
 0.8522644898690E+00 -0.9489062296793E+00  0.0000000000000E+00
 0.8598671799488E+00 -0.8735890024040E+00  0.0000000000000E+00
 0.8661341586265E+00 -0.7980468368884E+00  0.0000000000000E+00
 0.8709622210352E+00 -0.7223184837249E+00  0.0000000000000E+00
 0.8741414025340E+00 -0.6464404440986E+00  0.0000000000000E+00
 0.8755356940330E+00 -0.5704778273969E+00  0.0000000000000E+00
 0.8755327355573E+00 -0.4945116252270E+00  0.0000000000000E+00
 0.8705766342406E+00 -0.4190969380022E+00  0.0000000000000E+00
 0.8572257232791E+00 -0.3466161536803E+00  0.0000000000000E+00
 0.7815509432313E+00 -0.1693526672682E+01  0.0000000000000E+00
 0.7893530038481E+00 -0.1615767105320E+01  0.0000000000000E+00
 0.7985308396653E+00 -0.1538310807107E+01  0.0000000000000E+00
 0.8094505305145E+00 -0.1461314865704E+01  0.0000000000000E+00
 0.8226013950733E+00 -0.1385039445222E+01  0.0000000000000E+00
 0.8377112732565E+00 -0.1309492057412E+01  0.0000000000000E+00
 0.8527291489033E+00 -0.1233812224044E+01  0.0000000000000E+00
 0.8665704731897E+00 -0.1157566094634E+01  0.0000000000000E+00
 0.8791905982052E+00 -0.1080817066708E+01  0.0000000000000E+00
 0.8906326808624E+00 -0.1003664848353E+01  0.0000000000000E+00
 0.9008054797473E+00 -0.9261634248400E+00  0.0000000000000E+00
 0.9095041934393E+00 -0.8483388245051E+00  0.0000000000000E+00
 0.9166516685853E+00 -0.7702459288830E+00  0.0000000000000E+00
 0.9221341274954E+00 -0.6919313057536E+00  0.0000000000000E+00
 0.9257007089301E+00 -0.6134384496025E+00  0.0000000000000E+00
 0.9271842428878E+00 -0.5348451456479E+00  0.0000000000000E+00
 0.9270438916406E+00 -0.4562482249355E+00  0.0000000000000E+00
 0.9210062289222E+00 -0.3783135846360E+00  0.0000000000000E+00
 0.9049353361397E+00 -0.3038998867360E+00  0.0000000000000E+00
 0.8124820990011E+00 -0.1694126949326E+01  0.0000000000000E+00
 0.8215436119809E+00 -0.1613870918028E+01  0.0000000000000E+00
 0.8321764094502E+00 -0.1533968505178E+01  0.0000000000000E+00
 0.8448026521377E+00 -0.1454602814503E+01  0.0000000000000E+00
 0.8599879182983E+00 -0.1376077162078E+01  0.0000000000000E+00
 0.8774096834423E+00 -0.1298400008221E+01  0.0000000000000E+00
 0.8946717958622E+00 -0.1220567176258E+01  0.0000000000000E+00
 0.9105098622195E+00 -0.1142072251388E+01  0.0000000000000E+00
 0.9248801834856E+00 -0.1062989252451E+01  0.0000000000000E+00
 0.9378510256317E+00 -0.9834349853607E+00  0.0000000000000E+00
 0.9493410366997E+00 -0.9034733122990E+00  0.0000000000000E+00
 0.9591363780693E+00 -0.8231354789182E+00  0.0000000000000E+00
 0.9671649537677E+00 -0.7424859932034E+00  0.0000000000000E+00
 0.9733024132764E+00 -0.6615792401804E+00  0.0000000000000E+00
 0.9772569987510E+00 -0.5804657077303E+00  0.0000000000000E+00
 0.9788303793041E+00 -0.4992358566774E+00  0.0000000000000E+00
 0.9785532393974E+00 -0.4180023579992E+00  0.0000000000000E+00
 0.9714346184875E+00 -0.3375419147100E+00  0.0000000000000E+00
 0.9526443464158E+00 -0.2611894611816E+00  0.0000000000000E+00
 0.8434013664357E+00 -0.1694838335189E+01  0.0000000000000E+00
 0.8537229577554E+00 -0.1612079989481E+01  0.0000000000000E+00
 0.8658113428418E+00 -0.1529725611613E+01  0.0000000000000E+00
 0.8801447633080E+00 -0.1447984321494E+01  0.0000000000000E+00
 0.8973650569782E+00 -0.1367202587227E+01  0.0000000000000E+00
 0.9170993350532E+00 -0.1287389816818E+01  0.0000000000000E+00
 0.9366063102086E+00 -0.1207398135833E+01  0.0000000000000E+00
 0.9544417445893E+00 -0.1126648565190E+01  0.0000000000000E+00
 0.9705628880695E+00 -0.1045225744848E+01  0.0000000000000E+00
 0.9850631156734E+00 -0.9632635785991E+00  0.0000000000000E+00
 0.9978709648940E+00 -0.8808358055787E+00  0.0000000000000E+00
 0.1008763559910E+01 -0.7979788887677E+00  0.0000000000000E+00
 0.1017673862132E+01 -0.7147669625726E+00  0.0000000000000E+00
 0.1024466948207E+01 -0.6312622293241E+00  0.0000000000000E+00
 0.1028810163675E+01 -0.5475221703943E+00  0.0000000000000E+00
 0.1030474016787E+01 -0.4636499219902E+00  0.0000000000000E+00
 0.1030060714142E+01 -0.3797739955145E+00  0.0000000000000E+00
 0.1021861759954E+01 -0.2967819089046E+00  0.0000000000000E+00
 0.1000352732676E+01 -0.2184848673123E+00  0.0000000000000E+00
 0.8743083292160E+00 -0.1695660641007E+01  0.0000000000000E+00
 0.8858906467958E+00 -0.1610394140375E+01  0.0000000000000E+00
 0.8994352674149E+00 -0.1525581957067E+01  0.0000000000000E+00
 0.9154765135586E+00 -0.1441459227297E+01  0.0000000000000E+00
 0.9347324826162E+00 -0.1358415571256E+01  0.0000000000000E+00
 0.9567799215746E+00 -0.1276461343761E+01  0.0000000000000E+00
 0.9785324074072E+00 -0.1194304973301E+01  0.0000000000000E+00
 0.9983658577340E+00 -0.1111294916539E+01  0.0000000000000E+00
 0.1016238471353E+01 -0.1027526434362E+01  0.0000000000000E+00
 0.1032268732337E+01 -0.9431505284951E+00  0.0000000000000E+00
 0.1046395067625E+01 -0.8582508150666E+00  0.0000000000000E+00
 0.1058385564193E+01 -0.7728689743992E+00  0.0000000000000E+00
 0.1068178240839E+01 -0.6870887672930E+00  0.0000000000000E+00
 0.1075627601367E+01 -0.6009802134425E+00  0.0000000000000E+00
 0.1080360094693E+01 -0.5146077878065E+00  0.0000000000000E+00
 0.1082115068229E+01 -0.4280873017517E+00  0.0000000000000E+00
 0.1081566250656E+01 -0.3415631075997E+00  0.0000000000000E+00
 0.1072287609923E+01 -0.2560335472787E+00  0.0000000000000E+00
 0.1048060473251E+01 -0.1757860951357E+00  0.0000000000000E+00
 0.9052025707781E+00 -0.1696593670959E+01  0.0000000000000E+00
 0.9180462844761E+00 -0.1608813185199E+01  0.0000000000000E+00
 0.9330478104822E+00 -0.1521537366339E+01  0.0000000000000E+00
 0.9507975521418E+00 -0.1435027367020E+01  0.0000000000000E+00
 0.9720898664051E+00 -0.1349715959582E+01  0.0000000000000E+00
 0.9964511361435E+00 -0.1265614444782E+01  0.0000000000000E+00
 0.1020449802539E+01 -0.1181287554705E+01  0.0000000000000E+00
 0.1042281938676E+01 -0.1096011181789E+01  0.0000000000000E+00
 0.1061906692299E+01 -0.1009891207660E+01  0.0000000000000E+00
 0.1079467656524E+01 -0.9230957320237E+00  0.0000000000000E+00
 0.1094913147732E+01 -0.8357182480476E+00  0.0000000000000E+00
 0.1108002215695E+01 -0.7478056534076E+00  0.0000000000000E+00
 0.1118677936601E+01 -0.6594513352690E+00  0.0000000000000E+00
 0.1126784241405E+01 -0.5707331307489E+00  0.0000000000000E+00
 0.1131906682383E+01 -0.4817225084889E+00  0.0000000000000E+00
 0.1133753446136E+01 -0.3925479547930E+00  0.0000000000000E+00
 0.1133069783374E+01 -0.3033696633937E+00  0.0000000000000E+00
 0.1122712124713E+01 -0.2152968092632E+00  0.0000000000000E+00
 0.1095767546307E+01 -0.1330931343643E+00  0.0000000000000E+00
 0.9360836771012E+00 -0.1697637222998E+01  0.0000000000000E+00
 0.9501894785799E+00 -0.1607336932545E+01  0.0000000000000E+00
 0.9666486016325E+00 -0.1517591658659E+01  0.0000000000000E+00
 0.9861075304526E+00 -0.1428688570531E+01  0.0000000000000E+00
 0.1009436881547E+01 -0.1341103592713E+01  0.0000000000000E+00
 0.1036112673774E+01 -0.1254848971027E+01  0.0000000000000E+00
 0.1062358212428E+01 -0.1168345741829E+01  0.0000000000000E+00
 0.1086189726049E+01 -0.1080797233366E+01  0.0000000000000E+00
 0.1107567311349E+01 -0.9923199478029E+00  0.0000000000000E+00
 0.1126659670482E+01 -0.9030990828862E+00  0.0000000000000E+00
 0.1143425009267E+01 -0.8132380088607E+00  0.0000000000000E+00
 0.1157613340271E+01 -0.7227888407692E+00  0.0000000000000E+00
 0.1169172797073E+01 -0.6318545921137E+00  0.0000000000000E+00
 0.1177936737775E+01 -0.5405209174934E+00  0.0000000000000E+00
 0.1183449817999E+01 -0.4488662793275E+00  0.0000000000000E+00
 0.1185389063559E+01 -0.3570318386362E+00  0.0000000000000E+00
 0.1184571247138E+01 -0.2651936310542E+00  0.0000000000000E+00
 0.1173135260919E+01 -0.1745716736346E+00  0.0000000000000E+00
 0.1143473930147E+01 -0.9040597438278E-01  0.0000000000000E+00
 0.9669512274189E+00 -0.1698791087767E+01  0.0000000000000E+00
 0.9823198304356E+00 -0.1605965184095E+01  0.0000000000000E+00
 0.1000237264269E+01 -0.1513744646745E+01  0.0000000000000E+00
 0.1021406093943E+01 -0.1422442661578E+01  0.0000000000000E+00
 0.1046773195509E+01 -0.1332578305411E+01  0.0000000000000E+00
 0.1075764223922E+01 -0.1244164768264E+01  0.0000000000000E+00
 0.1104257348526E+01 -0.1155479391450E+01  0.0000000000000E+00
 0.1130088953323E+01 -0.1065652939060E+01  0.0000000000000E+00
 0.1153220084018E+01 -0.9748125336096E+00  0.0000000000000E+00
 0.1173844551794E+01 -0.8831604709323E+00  0.0000000000000E+00
 0.1191930451903E+01 -0.7908099983938E+00  0.0000000000000E+00
 0.1207218759703E+01 -0.6978184484149E+00  0.0000000000000E+00
 0.1219662666172E+01 -0.6042984608059E+00  0.0000000000000E+00
 0.1229084956548E+01 -0.5103435077058E+00  0.0000000000000E+00
 0.1234989389793E+01 -0.4160390454063E+00  0.0000000000000E+00
 0.1237021830960E+01 -0.3215389094206E+00  0.0000000000000E+00
 0.1236070574644E+01 -0.2270349777752E+00  0.0000000000000E+00
 0.1223556973529E+01 -0.1338581186130E+00  0.0000000000000E+00
 0.1191179602188E+01 -0.4772460436371E-01  0.0000000000000E+00
 0.9978048126931E+00 -0.1700055050828E+01  0.0000000000000E+00
 0.1014436952546E+01 -0.1604697736702E+01  0.0000000000000E+00
 0.1033813432435E+01 -0.1509996138743E+01  0.0000000000000E+00
 0.1056692898198E+01 -0.1416289459594E+01  0.0000000000000E+00
 0.1084098485417E+01 -0.1324139928402E+01  0.0000000000000E+00
 0.1115405485257E+01 -0.1233561678510E+01  0.0000000000000E+00
 0.1146146931048E+01 -0.1142688356877E+01  0.0000000000000E+00
 0.1173979362256E+01 -0.1050578163472E+01  0.0000000000000E+00
 0.1198864773607E+01 -0.9573688409702E+00  0.0000000000000E+00
 0.1221022085302E+01 -0.8632797833433E+00  0.0000000000000E+00
 0.1240429282021E+01 -0.7684341151186E+00  0.0000000000000E+00
 0.1256818301914E+01 -0.6728943861069E+00  0.0000000000000E+00
 0.1270147393358E+01 -0.5767828623979E+00  0.0000000000000E+00
 0.1280228768722E+01 -0.4802008337283E+00  0.0000000000000E+00
 0.1286525290297E+01 -0.3832407503566E+00  0.0000000000000E+00
 0.1288651662409E+01 -0.2860691220672E+00  0.0000000000000E+00
 0.1287567701494E+01 -0.1888936697665E+00  0.0000000000000E+00
 0.1273977219637E+01 -0.9315612167893E-01  0.0000000000000E+00
 0.1238884540982E+01 -0.5049013045557E-02  0.0000000000000E+00
 0.1028644034966E+01 -0.1701428892817E+01  0.0000000000000E+00
 0.1046540467967E+01 -0.1603534382536E+01  0.0000000000000E+00
 0.1067376750223E+01 -0.1506345938358E+01  0.0000000000000E+00
 0.1091967608368E+01 -0.1410228779832E+01  0.0000000000000E+00
 0.1121412437513E+01 -0.1315788288493E+01  0.0000000000000E+00
 0.1155036165145E+01 -0.1223039540143E+01  0.0000000000000E+00
 0.1188026688472E+01 -0.1129972488054E+01  0.0000000000000E+00
 0.1217860702418E+01 -0.1035572768105E+01  0.0000000000000E+00
 0.1244501150748E+01 -0.9399887429363E+00  0.0000000000000E+00
 0.1268192062681E+01 -0.8434569047128E+00  0.0000000000000E+00
 0.1288921312318E+01 -0.7461102551647E+00  0.0000000000000E+00
 0.1306411800597E+01 -0.6480165615055E+00  0.0000000000000E+00
 0.1320626833301E+01 -0.5493077160762E+00  0.0000000000000E+00
 0.1331368049922E+01 -0.4500928262700E+00  0.0000000000000E+00
 0.1338057416065E+01 -0.3504713364071E+00  0.0000000000000E+00
 0.1340278475353E+01 -0.2506224303227E+00  0.0000000000000E+00
 0.1339062566007E+01 -0.1507696722917E+00  0.0000000000000E+00
 0.1324395958307E+01 -0.5246565960526E-01  0.0000000000000E+00
 0.1286588726141E+01  0.3762081124632E-01  0.0000000000000E+00
 0.1059468491065E+01 -0.1702912387465E+01  0.0000000000000E+00
 0.1078629994763E+01 -0.1602474907241E+01  0.0000000000000E+00
 0.1100926856931E+01 -0.1502793843147E+01  0.0000000000000E+00
 0.1127229884989E+01 -0.1404260431761E+01  0.0000000000000E+00
 0.1158714733573E+01 -0.1307523207068E+01  0.0000000000000E+00
 0.1194655966603E+01 -0.1212598186461E+01  0.0000000000000E+00
 0.1229896345061E+01 -0.1117331630195E+01  0.0000000000000E+00
 0.1261732719309E+01 -0.1020636610086E+01  0.0000000000000E+00
 0.1290128982182E+01 -0.9226721085503E+00  0.0000000000000E+00
 0.1315354271908E+01 -0.8236917159966E+00  0.0000000000000E+00
 0.1337406352004E+01 -0.7238383114011E+00  0.0000000000000E+00
 0.1355999086198E+01 -0.6231848793920E+00  0.0000000000000E+00
 0.1371100837678E+01 -0.5218729385342E+00  0.0000000000000E+00
 0.1382502673051E+01 -0.4200194139358E+00  0.0000000000000E+00
 0.1389585661224E+01 -0.3177307440737E+00  0.0000000000000E+00
 0.1391902185146E+01 -0.2151987866139E+00  0.0000000000000E+00
 0.1390555104757E+01 -0.1126629496880E+00  0.0000000000000E+00
 0.1374813147288E+01 -0.1178670862095E-01  0.0000000000000E+00
 0.1334292136548E+01  0.8028488040207E-01  0.0000000000000E+00
 0.1090277780720E+01 -0.1704505302632E+01  0.0000000000000E+00
 0.1110705153744E+01 -0.1601519090897E+01  0.0000000000000E+00
 0.1134463394454E+01 -0.1499339645413E+01  0.0000000000000E+00
 0.1162479391042E+01 -0.1398384219907E+01  0.0000000000000E+00
 0.1196005057665E+01 -0.1299344500874E+01  0.0000000000000E+00
 0.1234264594794E+01 -0.1202237446439E+01  0.0000000000000E+00
 0.1271755627067E+01 -0.1104765624500E+01  0.0000000000000E+00
 0.1305595160272E+01 -0.1005769542839E+01  0.0000000000000E+00
 0.1335748036337E+01 -0.9054188034578E+00  0.0000000000000E+00
 0.1362508502496E+01 -0.8039840950629E+00  0.0000000000000E+00
 0.1385884211676E+01 -0.7016181739175E+00  0.0000000000000E+00
 0.1405579990391E+01 -0.5983992420775E+00  0.0000000000000E+00
 0.1421569259242E+01 -0.4944784443039E+00  0.0000000000000E+00
 0.1433632511940E+01 -0.3899805234782E+00  0.0000000000000E+00
 0.1441109920678E+01 -0.2850189123287E+00  0.0000000000000E+00
 0.1443522707758E+01 -0.1797981421330E+00  0.0000000000000E+00
 0.1442045254780E+01 -0.7457346536650E-01  0.0000000000000E+00
 0.1425228744639E+01  0.2888075566284E-01  0.0000000000000E+00
 0.1381994751242E+01  0.1229432066213E+00  0.0000000000000E+00
 0.1121071483195E+01 -0.1706207397020E+01  0.0000000000000E+00
 0.1142765546172E+01 -0.1600666704959E+01  0.0000000000000E+00
 0.1167985985999E+01 -0.1495983129350E+01  0.0000000000000E+00
 0.1197715771612E+01 -0.1392599941181E+01  0.0000000000000E+00
 0.1233283076667E+01 -0.1291251979511E+01  0.0000000000000E+00
 0.1273861738317E+01 -0.1191957142331E+01  0.0000000000000E+00
 0.1313604244830E+01 -0.1092274305885E+01  0.0000000000000E+00
 0.1349447757450E+01 -0.9909714139681E+00  0.0000000000000E+00
 0.1381358067225E+01 -0.8882286879731E+00  0.0000000000000E+00
 0.1409654530383E+01 -0.7843339149532E+00  0.0000000000000E+00
 0.1434354689253E+01 -0.6794497284982E+00  0.0000000000000E+00
 0.1455154333136E+01 -0.5736595481023E+00  0.0000000000000E+00
 0.1472031940047E+01 -0.4671241446931E+00  0.0000000000000E+00
 0.1484757430797E+01 -0.3599760789818E+00  0.0000000000000E+00
 0.1492630080857E+01 -0.2523357780405E+00  0.0000000000000E+00
 0.1495139951924E+01 -0.1444204465366E+00  0.0000000000000E+00
 0.1493532947170E+01 -0.3650118177095E-01  0.0000000000000E+00
 0.1475642704025E+01  0.6953675806361E-01  0.0000000000000E+00
 0.1429696546851E+01  0.1655958021522E+00  0.0000000000000E+00
 0.1151849225537E+01 -0.1708018429846E+01  0.0000000000000E+00
 0.1174810818886E+01 -0.1599917521276E+01  0.0000000000000E+00
 0.1201494298248E+01 -0.1492724079452E+01  0.0000000000000E+00
 0.1232938713290E+01 -0.1386907392741E+01  0.0000000000000E+00
 0.1270548497160E+01 -0.1283245452831E+01  0.0000000000000E+00
 0.1313447123819E+01 -0.1181757096718E+01  0.0000000000000E+00
 0.1355441945044E+01 -0.1079857509653E+01  0.0000000000000E+00
 0.1393290277519E+01 -0.9762420714703E+00  0.0000000000000E+00
 0.1426958861442E+01 -0.8711016227676E+00  0.0000000000000E+00
 0.1456792162028E+01 -0.7647410489956E+00  0.0000000000000E+00
 0.1482817611003E+01 -0.6573328611127E+00  0.0000000000000E+00
 0.1504721960451E+01 -0.5489656960643E+00  0.0000000000000E+00
 0.1522488745806E+01 -0.4398099509165E+00  0.0000000000000E+00
 0.1535877314972E+01 -0.3300060042687E+00  0.0000000000000E+00
 0.1544146046680E+01 -0.2196812776313E+00  0.0000000000000E+00
 0.1546753842050E+01 -0.1090656488427E+00  0.0000000000000E+00
 0.1545018125764E+01  0.1553939485620E-02  0.0000000000000E+00
 0.1526054988436E+01  0.1101813243664E+00  0.0000000000000E+00
 0.1477397505075E+01  0.2082426800443E+00  0.0000000000000E+00
 0.1182610616693E+01 -0.1709938151813E+01  0.0000000000000E+00
 0.1206840601434E+01 -0.1599271303676E+01  0.0000000000000E+00
 0.1234987981351E+01 -0.1489562272670E+01  0.0000000000000E+00
 0.1268147886829E+01 -0.1381306364667E+01  0.0000000000000E+00
 0.1307801010505E+01 -0.1275324724039E+01  0.0000000000000E+00
 0.1353020463274E+01 -0.1171637125933E+01  0.0000000000000E+00
 0.1397268460295E+01 -0.1067515065265E+01  0.0000000000000E+00
 0.1437122473674E+01 -0.9615813579356E+00  0.0000000000000E+00
 0.1472550192790E+01 -0.8540374635575E+00  0.0000000000000E+00
 0.1503921191834E+01 -0.7452053660319E+00  0.0000000000000E+00
 0.1531272791928E+01 -0.6352674537278E+00  0.0000000000000E+00
 0.1554282707934E+01 -0.5243175810539E+00  0.0000000000000E+00
 0.1572939532713E+01 -0.4125357711880E+00  0.0000000000000E+00
 0.1586992041247E+01 -0.3000702206755E+00  0.0000000000000E+00
 0.1595657715515E+01 -0.1870553455593E+00  0.0000000000000E+00
 0.1598364296089E+01 -0.7373369663145E-01  0.0000000000000E+00
 0.1596500729092E+01  0.3959193770200E-01  0.0000000000000E+00
 0.1576465556935E+01  0.1508144807688E+00  0.0000000000000E+00
 0.1525097605457E+01  0.2508838534040E+00  0.0000000000000E+00
-0.6299559715430E+00 -0.4448788635045E+00  0.0000000000000E+00
-0.6714480734955E+00 -0.4002935756204E+00  0.0000000000000E+00
-0.7129401754481E+00 -0.3557082877364E+00  0.0000000000000E+00
-0.7544322774006E+00 -0.3111229998524E+00  0.0000000000000E+00
-0.7959243793531E+00 -0.2665377119684E+00  0.0000000000000E+00
-0.8374164813057E+00 -0.2219524240844E+00  0.0000000000000E+00
-0.8789085832582E+00 -0.1773671362004E+00  0.0000000000000E+00
-0.9204006852108E+00 -0.1327818483163E+00  0.0000000000000E+00
-0.9618927871633E+00 -0.8819656043232E-01  0.0000000000000E+00
-0.1003384889116E+01 -0.4361127254831E-01  0.0000000000000E+00
-0.1044876991068E+01  0.9740153357094E-03  0.0000000000000E+00
-0.1086369093021E+01  0.4555930321973E-01  0.0000000000000E+00
-0.1127861194973E+01  0.9014459110374E-01  0.0000000000000E+00
-0.1169353296926E+01  0.1347298789878E+00  0.0000000000000E+00
-0.1210845398879E+01  0.1793151668718E+00  0.0000000000000E+00
-0.1252337500831E+01  0.2239004547558E+00  0.0000000000000E+00
-0.1293829602784E+01  0.2684857426398E+00  0.0000000000000E+00
-0.1335321704736E+01  0.3130710305238E+00  0.0000000000000E+00
-0.1376813806689E+01  0.3576563184078E+00  0.0000000000000E+00
-0.5974622415961E+00 -0.4366441451899E+00  0.0000000000000E+00
-0.6368419585758E+00 -0.3913664749580E+00  0.0000000000000E+00
-0.6762216755556E+00 -0.3460888047261E+00  0.0000000000000E+00
-0.7156013925353E+00 -0.3008111344942E+00  0.0000000000000E+00
-0.7549811095150E+00 -0.2555334642623E+00  0.0000000000000E+00
-0.7943608264947E+00 -0.2102557940303E+00  0.0000000000000E+00
-0.8337405434744E+00 -0.1649781237984E+00  0.0000000000000E+00
-0.8731202604541E+00 -0.1197004535665E+00  0.0000000000000E+00
-0.9124999774338E+00 -0.7442278333461E-01  0.0000000000000E+00
-0.9518796944135E+00 -0.2914511310269E-01  0.0000000000000E+00
-0.9912594113932E+00  0.1613255712922E-01  0.0000000000000E+00
-0.1030639128373E+01  0.6141022736114E-01  0.0000000000000E+00
-0.1070018845353E+01  0.1066878975930E+00  0.0000000000000E+00
-0.1109398562332E+01  0.1519655678250E+00  0.0000000000000E+00
-0.1148778279312E+01  0.1972432380569E+00  0.0000000000000E+00
-0.1188157996292E+01  0.2425209082888E+00  0.0000000000000E+00
-0.1227537713272E+01  0.2877985785207E+00  0.0000000000000E+00
-0.1266917430251E+01  0.3330762487526E+00  0.0000000000000E+00
-0.1306297147231E+01  0.3783539189845E+00  0.0000000000000E+00
-0.5647851637629E+00 -0.4291779471807E+00  0.0000000000000E+00
-0.6019607642087E+00 -0.3835976335802E+00  0.0000000000000E+00
-0.6391363646544E+00 -0.3380173199797E+00  0.0000000000000E+00
-0.6763119651002E+00 -0.2924370063792E+00  0.0000000000000E+00
-0.7134875655459E+00 -0.2468566927788E+00  0.0000000000000E+00
-0.7506631659917E+00 -0.2012763791783E+00  0.0000000000000E+00
-0.7878387664375E+00 -0.1556960655778E+00  0.0000000000000E+00
-0.8250143668832E+00 -0.1101157519773E+00  0.0000000000000E+00
-0.8621899673290E+00 -0.6453543837680E-01  0.0000000000000E+00
-0.8993655677748E+00 -0.1895512477632E-01  0.0000000000000E+00
-0.9365411682205E+00  0.2662518882417E-01  0.0000000000000E+00
-0.9737167686663E+00  0.7220550242466E-01  0.0000000000000E+00
-0.1010892369112E+01  0.1177858160251E+00  0.0000000000000E+00
-0.1048067969558E+01  0.1633661296256E+00  0.0000000000000E+00
-0.1085243570004E+01  0.2089464432261E+00  0.0000000000000E+00
-0.1122419170449E+01  0.2545267568266E+00  0.0000000000000E+00
-0.1159594770895E+01  0.3001070704271E+00  0.0000000000000E+00
-0.1196770371341E+01  0.3456873840276E+00  0.0000000000000E+00
-0.1233945971787E+01  0.3912676976281E+00  0.0000000000000E+00
-0.5319747863850E+00 -0.4224941396796E+00  0.0000000000000E+00
-0.5669005038771E+00 -0.3770102860137E+00  0.0000000000000E+00
-0.6018262213692E+00 -0.3315264323477E+00  0.0000000000000E+00
-0.6367519388613E+00 -0.2860425786818E+00  0.0000000000000E+00
-0.6716776563534E+00 -0.2405587250158E+00  0.0000000000000E+00
-0.7066033738455E+00 -0.1950748713499E+00  0.0000000000000E+00
-0.7415290913375E+00 -0.1495910176839E+00  0.0000000000000E+00
-0.7764548088296E+00 -0.1041071640180E+00  0.0000000000000E+00
-0.8113805263217E+00 -0.5862331035200E-01  0.0000000000000E+00
-0.8463062438138E+00 -0.1313945668605E-01  0.0000000000000E+00
-0.8812319613059E+00  0.3234439697990E-01  0.0000000000000E+00
-0.9161576787979E+00  0.7782825064585E-01  0.0000000000000E+00
-0.9510833962900E+00  0.1233121043118E+00  0.0000000000000E+00
-0.9860091137821E+00  0.1687959579778E+00  0.0000000000000E+00
-0.1020934831274E+01  0.2142798116437E+00  0.0000000000000E+00
-0.1055860548766E+01  0.2597636653097E+00  0.0000000000000E+00
-0.1090786266258E+01  0.3052475189756E+00  0.0000000000000E+00
-0.1125711983750E+01  0.3507313726416E+00  0.0000000000000E+00
-0.1160637701243E+01  0.3962152263075E+00  0.0000000000000E+00
-0.4990802666255E+00 -0.4165840327232E+00  0.0000000000000E+00
-0.5317553219230E+00 -0.3715827348048E+00  0.0000000000000E+00
-0.5644303772205E+00 -0.3265814368864E+00  0.0000000000000E+00
-0.5971054325179E+00 -0.2815801389680E+00  0.0000000000000E+00
-0.6297804878154E+00 -0.2365788410496E+00  0.0000000000000E+00
-0.6624555431129E+00 -0.1915775431312E+00  0.0000000000000E+00
-0.6951305984104E+00 -0.1465762452128E+00  0.0000000000000E+00
-0.7278056537078E+00 -0.1015749472944E+00  0.0000000000000E+00
-0.7604807090053E+00 -0.5657364937598E-01  0.0000000000000E+00
-0.7931557643028E+00 -0.1157235145757E-01  0.0000000000000E+00
-0.8258308196003E+00  0.3342894646083E-01  0.0000000000000E+00
-0.8585058748978E+00  0.7843024437923E-01  0.0000000000000E+00
-0.8911809301952E+00  0.1234315422976E+00  0.0000000000000E+00
-0.9238559854927E+00  0.1684328402160E+00  0.0000000000000E+00
-0.9565310407902E+00  0.2134341381344E+00  0.0000000000000E+00
-0.9892060960877E+00  0.2584354360528E+00  0.0000000000000E+00
-0.1021881151385E+01  0.3034367339713E+00  0.0000000000000E+00
-0.1054556206683E+01  0.3484380318897E+00  0.0000000000000E+00
-0.1087231261980E+01  0.3934393298081E+00  0.0000000000000E+00
-0.4661358894282E+00 -0.4113546120754E+00  0.0000000000000E+00
-0.4965895947067E+00 -0.3671248415236E+00  0.0000000000000E+00
-0.5270432999851E+00 -0.3228950709718E+00  0.0000000000000E+00
-0.5574970052636E+00 -0.2786653004201E+00  0.0000000000000E+00
-0.5879507105420E+00 -0.2344355298683E+00  0.0000000000000E+00
-0.6184044158205E+00 -0.1902057593165E+00  0.0000000000000E+00
-0.6488581210989E+00 -0.1459759887648E+00  0.0000000000000E+00
-0.6793118263774E+00 -0.1017462182130E+00  0.0000000000000E+00
-0.7097655316558E+00 -0.5751644766124E-01  0.0000000000000E+00
-0.7402192369343E+00 -0.1328667710947E-01  0.0000000000000E+00
-0.7706729422127E+00  0.3094309344230E-01  0.0000000000000E+00
-0.8011266474912E+00  0.7517286399407E-01  0.0000000000000E+00
-0.8315803527696E+00  0.1194026345458E+00  0.0000000000000E+00
-0.8620340580481E+00  0.1636324050976E+00  0.0000000000000E+00
-0.8924877633265E+00  0.2078621756494E+00  0.0000000000000E+00
-0.9229414686050E+00  0.2520919462011E+00  0.0000000000000E+00
-0.9533951738834E+00  0.2963217167529E+00  0.0000000000000E+00
-0.9838488791619E+00  0.3405514873047E+00  0.0000000000000E+00
-0.1014302584440E+01  0.3847812578564E+00  0.0000000000000E+00
-0.4331566793992E+00 -0.4067328540872E+00  0.0000000000000E+00
-0.4614288249452E+00 -0.3634866017615E+00  0.0000000000000E+00
-0.4897009704912E+00 -0.3202403494357E+00  0.0000000000000E+00
-0.5179731160371E+00 -0.2769940971100E+00  0.0000000000000E+00
-0.5462452615831E+00 -0.2337478447842E+00  0.0000000000000E+00
-0.5745174071291E+00 -0.1905015924585E+00  0.0000000000000E+00
-0.6027895526750E+00 -0.1472553401327E+00  0.0000000000000E+00
-0.6310616982210E+00 -0.1040090878070E+00  0.0000000000000E+00
-0.6593338437670E+00 -0.6076283548125E-01  0.0000000000000E+00
-0.6876059893129E+00 -0.1751658315551E-01  0.0000000000000E+00
-0.7158781348589E+00  0.2572966917024E-01  0.0000000000000E+00
-0.7441502804048E+00  0.6897592149599E-01  0.0000000000000E+00
-0.7724224259508E+00  0.1122221738217E+00  0.0000000000000E+00
-0.8006945714968E+00  0.1554684261475E+00  0.0000000000000E+00
-0.8289667170427E+00  0.1987146784732E+00  0.0000000000000E+00
-0.8572388625887E+00  0.2419609307990E+00  0.0000000000000E+00
-0.8855110081347E+00  0.2852071831247E+00  0.0000000000000E+00
-0.9137831536806E+00  0.3284534354505E+00  0.0000000000000E+00
-0.9420552992266E+00  0.3716996877762E+00  0.0000000000000E+00
-0.4001452660089E+00 -0.4026538267990E+00  0.0000000000000E+00
-0.4262736922835E+00 -0.3605344241827E+00  0.0000000000000E+00
-0.4524021185581E+00 -0.3184150215665E+00  0.0000000000000E+00
-0.4785305448327E+00 -0.2762956189502E+00  0.0000000000000E+00
-0.5046589711073E+00 -0.2341762163340E+00  0.0000000000000E+00
-0.5307873973819E+00 -0.1920568137177E+00  0.0000000000000E+00
-0.5569158236565E+00 -0.1499374111015E+00  0.0000000000000E+00
-0.5830442499311E+00 -0.1078180084852E+00  0.0000000000000E+00
-0.6091726762057E+00 -0.6569860586900E-01  0.0000000000000E+00
-0.6353011024803E+00 -0.2357920325275E-01  0.0000000000000E+00
-0.6614295287548E+00  0.1854019936350E-01  0.0000000000000E+00
-0.6875579550294E+00  0.6065960197974E-01  0.0000000000000E+00
-0.7136863813040E+00  0.1027790045960E+00  0.0000000000000E+00
-0.7398148075786E+00  0.1448984072122E+00  0.0000000000000E+00
-0.7659432338532E+00  0.1870178098285E+00  0.0000000000000E+00
-0.7920716601278E+00  0.2291372124447E+00  0.0000000000000E+00
-0.8182000864024E+00  0.2712566150610E+00  0.0000000000000E+00
-0.8443285126770E+00  0.3133760176772E+00  0.0000000000000E+00
-0.8704569389516E+00  0.3554954202935E+00  0.0000000000000E+00
-0.3670941282270E+00 -0.3990479117006E+00  0.0000000000000E+00
-0.3911043433766E+00 -0.3581255480735E+00  0.0000000000000E+00
-0.4151145585263E+00 -0.3172031844463E+00  0.0000000000000E+00
-0.4391247736759E+00 -0.2762808208192E+00  0.0000000000000E+00
-0.4631349888256E+00 -0.2353584571920E+00  0.0000000000000E+00
-0.4871452039753E+00 -0.1944360935648E+00  0.0000000000000E+00
-0.5111554191249E+00 -0.1535137299377E+00  0.0000000000000E+00
-0.5351656342746E+00 -0.1125913663105E+00  0.0000000000000E+00
-0.5591758494243E+00 -0.7166900268338E-01  0.0000000000000E+00
-0.5831860645739E+00 -0.3074663905622E-01  0.0000000000000E+00
-0.6071962797236E+00  0.1017572457094E-01  0.0000000000000E+00
-0.6312064948732E+00  0.5109808819809E-01  0.0000000000000E+00
-0.6552167100229E+00  0.9202045182525E-01  0.0000000000000E+00
-0.6792269251726E+00  0.1329428154524E+00  0.0000000000000E+00
-0.7032371403222E+00  0.1738651790796E+00  0.0000000000000E+00
-0.7272473554719E+00  0.2147875427067E+00  0.0000000000000E+00
-0.7512575706216E+00  0.2557099063339E+00  0.0000000000000E+00
-0.7752677857712E+00  0.2966322699610E+00  0.0000000000000E+00
-0.7992780009209E+00  0.3375546335882E+00  0.0000000000000E+00
-0.3339899907783E+00 -0.3958444358955E+00  0.0000000000000E+00
-0.3558893495395E+00 -0.3561153468993E+00  0.0000000000000E+00
-0.3777887083006E+00 -0.3163862579032E+00  0.0000000000000E+00
-0.3996880670618E+00 -0.2766571689070E+00  0.0000000000000E+00
-0.4215874258230E+00 -0.2369280799109E+00  0.0000000000000E+00
-0.4434867845841E+00 -0.1971989909147E+00  0.0000000000000E+00
-0.4653861433453E+00 -0.1574699019185E+00  0.0000000000000E+00
-0.4872855021064E+00 -0.1177408129224E+00  0.0000000000000E+00
-0.5091848608676E+00 -0.7801172392620E-01  0.0000000000000E+00
-0.5310842196287E+00 -0.3828263493003E-01  0.0000000000000E+00
-0.5529835783899E+00  0.1446454066132E-02  0.0000000000000E+00
-0.5748829371510E+00  0.4117554306230E-01  0.0000000000000E+00
-0.5967822959122E+00  0.8090463205846E-01  0.0000000000000E+00
-0.6186816546733E+00  0.1206337210546E+00  0.0000000000000E+00
-0.6405810134345E+00  0.1603628100508E+00  0.0000000000000E+00
-0.6624803721956E+00  0.2000918990470E+00  0.0000000000000E+00
-0.6843797309568E+00  0.2398209880431E+00  0.0000000000000E+00
-0.7062790897179E+00  0.2795500770393E+00  0.0000000000000E+00
-0.7281784484791E+00  0.3192791660354E+00  0.0000000000000E+00
-0.3008163579508E+00 -0.3929631427710E+00  0.0000000000000E+00
-0.3205906658870E+00 -0.3543402622484E+00  0.0000000000000E+00
-0.3403649738232E+00 -0.3157173817257E+00  0.0000000000000E+00
-0.3601392817595E+00 -0.2770945012030E+00  0.0000000000000E+00
-0.3799135896957E+00 -0.2384716206803E+00  0.0000000000000E+00
-0.3996878976320E+00 -0.1998487401576E+00  0.0000000000000E+00
-0.4194622055682E+00 -0.1612258596350E+00  0.0000000000000E+00
-0.4392365135044E+00 -0.1226029791123E+00  0.0000000000000E+00
-0.4590108214407E+00 -0.8398009858960E-01  0.0000000000000E+00
-0.4787851293769E+00 -0.4535721806692E-01  0.0000000000000E+00
-0.4985594373131E+00 -0.6734337544235E-02  0.0000000000000E+00
-0.5183337452494E+00  0.3188854297845E-01  0.0000000000000E+00
-0.5381080531856E+00  0.7051142350113E-01  0.0000000000000E+00
-0.5578823611218E+00  0.1091343040238E+00  0.0000000000000E+00
-0.5776566690581E+00  0.1477571845465E+00  0.0000000000000E+00
-0.5974309769943E+00  0.1863800650692E+00  0.0000000000000E+00
-0.6172052849306E+00  0.2250029455919E+00  0.0000000000000E+00
-0.6369795928668E+00  0.2636258261145E+00  0.0000000000000E+00
-0.6567539008030E+00  0.3022487066372E+00  0.0000000000000E+00
-0.2675697753590E+00 -0.3903634585794E+00  0.0000000000000E+00
-0.2851962171292E+00 -0.3527163567611E+00  0.0000000000000E+00
-0.3028226588994E+00 -0.3150692549428E+00  0.0000000000000E+00
-0.3204491006696E+00 -0.2774221531245E+00  0.0000000000000E+00
-0.3380755424398E+00 -0.2397750513062E+00  0.0000000000000E+00
-0.3557019842100E+00 -0.2021279494878E+00  0.0000000000000E+00
-0.3733284259802E+00 -0.1644808476695E+00  0.0000000000000E+00
-0.3909548677504E+00 -0.1268337458512E+00  0.0000000000000E+00
-0.4085813095206E+00 -0.8918664403293E-01  0.0000000000000E+00
-0.4262077512908E+00 -0.5153954221463E-01  0.0000000000000E+00
-0.4438341930610E+00 -0.1389244039632E-01  0.0000000000000E+00
-0.4614606348312E+00  0.2375466142199E-01  0.0000000000000E+00
-0.4790870766014E+00  0.6140176324029E-01  0.0000000000000E+00
-0.4967135183717E+00  0.9904886505860E-01  0.0000000000000E+00
-0.5143399601419E+00  0.1366959668769E+00  0.0000000000000E+00
-0.5319664019121E+00  0.1743430686952E+00  0.0000000000000E+00
-0.5495928436823E+00  0.2119901705135E+00  0.0000000000000E+00
-0.5672192854525E+00  0.2496372723318E+00  0.0000000000000E+00
-0.5848457272227E+00  0.2872843741501E+00  0.0000000000000E+00
-0.2342578969919E+00 -0.3880438745316E+00  0.0000000000000E+00
-0.2497160431228E+00 -0.3512380881835E+00  0.0000000000000E+00
-0.2651741892537E+00 -0.3144323018355E+00  0.0000000000000E+00
-0.2806323353846E+00 -0.2776265154874E+00  0.0000000000000E+00
-0.2960904815155E+00 -0.2408207291393E+00  0.0000000000000E+00
-0.3115486276463E+00 -0.2040149427913E+00  0.0000000000000E+00
-0.3270067737772E+00 -0.1672091564432E+00  0.0000000000000E+00
-0.3424649199081E+00 -0.1304033700952E+00  0.0000000000000E+00
-0.3579230660390E+00 -0.9359758374711E-01  0.0000000000000E+00
-0.3733812121699E+00 -0.5679179739905E-01  0.0000000000000E+00
-0.3888393583008E+00 -0.1998601105098E-01  0.0000000000000E+00
-0.4042975044317E+00  0.1681977529708E-01  0.0000000000000E+00
-0.4197556505626E+00  0.5362556164514E-01  0.0000000000000E+00
-0.4352137966935E+00  0.9043134799320E-01  0.0000000000000E+00
-0.4506719428244E+00  0.1272371343413E+00  0.0000000000000E+00
-0.4661300889553E+00  0.1640429206893E+00  0.0000000000000E+00
-0.4815882350862E+00  0.2008487070374E+00  0.0000000000000E+00
-0.4970463812171E+00  0.2376544933854E+00  0.0000000000000E+00
-0.5125045273480E+00  0.2744602797335E+00  0.0000000000000E+00
-0.2008905517879E+00 -0.3860140358384E+00  0.0000000000000E+00
-0.2141644306440E+00 -0.3499224952607E+00  0.0000000000000E+00
-0.2274383095000E+00 -0.3138309546829E+00  0.0000000000000E+00
-0.2407121883561E+00 -0.2777394141052E+00  0.0000000000000E+00
-0.2539860672121E+00 -0.2416478735275E+00  0.0000000000000E+00
-0.2672599460682E+00 -0.2055563329498E+00  0.0000000000000E+00
-0.2805338249242E+00 -0.1694647923721E+00  0.0000000000000E+00
-0.2938077037803E+00 -0.1333732517943E+00  0.0000000000000E+00
-0.3070815826363E+00 -0.9728171121661E-01  0.0000000000000E+00
-0.3203554614924E+00 -0.6119017063889E-01  0.0000000000000E+00
-0.3336293403484E+00 -0.2509863006116E-01  0.0000000000000E+00
-0.3469032192045E+00  0.1099291051656E-01  0.0000000000000E+00
-0.3601770980605E+00  0.4708445109428E-01  0.0000000000000E+00
-0.3734509769166E+00  0.8317599167200E-01  0.0000000000000E+00
-0.3867248557726E+00  0.1192675322497E+00  0.0000000000000E+00
-0.3999987346287E+00  0.1553590728274E+00  0.0000000000000E+00
-0.4132726134847E+00  0.1914506134052E+00  0.0000000000000E+00
-0.4265464923408E+00  0.2275421539829E+00  0.0000000000000E+00
-0.4398203711968E+00  0.2636336945606E+00  0.0000000000000E+00
-0.1674771093533E+00 -0.3842843495524E+00  0.0000000000000E+00
-0.1785546413643E+00 -0.3487884211107E+00  0.0000000000000E+00
-0.1896321733754E+00 -0.3132924926690E+00  0.0000000000000E+00
-0.2007097053864E+00 -0.2777965642273E+00  0.0000000000000E+00
-0.2117872373974E+00 -0.2423006357856E+00  0.0000000000000E+00
-0.2228647694084E+00 -0.2068047073439E+00  0.0000000000000E+00
-0.2339423014194E+00 -0.1713087789022E+00  0.0000000000000E+00
-0.2450198334305E+00 -0.1358128504605E+00  0.0000000000000E+00
-0.2560973654415E+00 -0.1003169220188E+00  0.0000000000000E+00
-0.2671748974525E+00 -0.6482099357711E-01  0.0000000000000E+00
-0.2782524294635E+00 -0.2932506513542E-01  0.0000000000000E+00
-0.2893299614745E+00  0.6170863306275E-02  0.0000000000000E+00
-0.3004074934856E+00  0.4166679174797E-01  0.0000000000000E+00
-0.3114850254966E+00  0.7716272018966E-01  0.0000000000000E+00
-0.3225625575076E+00  0.1126586486314E+00  0.0000000000000E+00
-0.3336400895186E+00  0.1481545770730E+00  0.0000000000000E+00
-0.3447176215296E+00  0.1836505055147E+00  0.0000000000000E+00
-0.3557951535407E+00  0.2191464339564E+00  0.0000000000000E+00
-0.3668726855517E+00  0.2546423623981E+00  0.0000000000000E+00
-0.1340261091775E+00 -0.3828631734966E+00  0.0000000000000E+00
-0.1428982089424E+00 -0.3478509012348E+00  0.0000000000000E+00
-0.1517703087072E+00 -0.3128386289729E+00  0.0000000000000E+00
-0.1606424084721E+00 -0.2778263567111E+00  0.0000000000000E+00
-0.1695145082369E+00 -0.2428140844493E+00  0.0000000000000E+00
-0.1783866080018E+00 -0.2078018121875E+00  0.0000000000000E+00
-0.1872587077666E+00 -0.1727895399257E+00  0.0000000000000E+00
-0.1961308075315E+00 -0.1377772676639E+00  0.0000000000000E+00
-0.2050029072963E+00 -0.1027649954021E+00  0.0000000000000E+00
-0.2138750070612E+00 -0.6775272314032E-01  0.0000000000000E+00
-0.2227471068260E+00 -0.3274045087851E-01  0.0000000000000E+00
-0.2316192065909E+00  0.2271821383293E-02  0.0000000000000E+00
-0.2404913063557E+00  0.3728409364510E-01  0.0000000000000E+00
-0.2493634061206E+00  0.7229636590690E-01  0.0000000000000E+00
-0.2582355058855E+00  0.1073086381687E+00  0.0000000000000E+00
-0.2671076056503E+00  0.1423209104305E+00  0.0000000000000E+00
-0.2759797054152E+00  0.1773331826923E+00  0.0000000000000E+00
-0.2848518051800E+00  0.2123454549541E+00  0.0000000000000E+00
-0.2937239049449E+00  0.2473577272159E+00  0.0000000000000E+00
-0.1005454709900E+00 -0.3817562677518E+00  0.0000000000000E+00
-0.1072053602565E+00 -0.3471200718438E+00  0.0000000000000E+00
-0.1138652495230E+00 -0.3124838759358E+00  0.0000000000000E+00
-0.1205251387895E+00 -0.2778476800278E+00  0.0000000000000E+00
-0.1271850280560E+00 -0.2432114841198E+00  0.0000000000000E+00
-0.1338449173226E+00 -0.2085752882118E+00  0.0000000000000E+00
-0.1405048065891E+00 -0.1739390923039E+00  0.0000000000000E+00
-0.1471646958556E+00 -0.1393028963959E+00  0.0000000000000E+00
-0.1538245851221E+00 -0.1046667004879E+00  0.0000000000000E+00
-0.1604844743886E+00 -0.7003050457989E-01  0.0000000000000E+00
-0.1671443636552E+00 -0.3539430867190E-01  0.0000000000000E+00
-0.1738042529217E+00 -0.7581127639063E-03  0.0000000000000E+00
-0.1804641421882E+00  0.3387808314408E-01  0.0000000000000E+00
-0.1871240314547E+00  0.6851427905207E-01  0.0000000000000E+00
-0.1937839207212E+00  0.1031504749601E+00  0.0000000000000E+00
-0.2004438099878E+00  0.1377866708681E+00  0.0000000000000E+00
-0.2071036992543E+00  0.1724228667760E+00  0.0000000000000E+00
-0.2137635885208E+00  0.2070590626840E+00  0.0000000000000E+00
-0.2204234777873E+00  0.2416952585920E+00  0.0000000000000E+00
-0.6704270627605E-01 -0.3809667730720E+00  0.0000000000000E+00
-0.7148545141935E-01 -0.3466011322144E+00  0.0000000000000E+00
-0.7592819656265E-01 -0.3122354913569E+00  0.0000000000000E+00
-0.8037094170595E-01 -0.2778698504993E+00  0.0000000000000E+00
-0.8481368684925E-01 -0.2435042096418E+00  0.0000000000000E+00
-0.8925643199255E-01 -0.2091385687842E+00  0.0000000000000E+00
-0.9369917713585E-01 -0.1747729279267E+00  0.0000000000000E+00
-0.9814192227916E-01 -0.1404072870692E+00  0.0000000000000E+00
-0.1025846674225E+00 -0.1060416462116E+00  0.0000000000000E+00
-0.1070274125658E+00 -0.7167600535406E-01  0.0000000000000E+00
-0.1114701577091E+00 -0.3731036449652E-01  0.0000000000000E+00
-0.1159129028524E+00 -0.2944723638973E-02  0.0000000000000E+00
-0.1203556479957E+00  0.3142091721857E-01  0.0000000000000E+00
-0.1247983931390E+00  0.6578655807612E-01  0.0000000000000E+00
-0.1292411382823E+00  0.1001521989337E+00  0.0000000000000E+00
-0.1336838834256E+00  0.1345178397912E+00  0.0000000000000E+00
-0.1381266285689E+00  0.1688834806488E+00  0.0000000000000E+00
-0.1425693737122E+00  0.2032491215063E+00  0.0000000000000E+00
-0.1470121188555E+00  0.2376147623638E+00  0.0000000000000E+00
-0.3352511022345E-01 -0.3804951770728E+00  0.0000000000000E+00
-0.3574736497451E-01 -0.3462942814123E+00  0.0000000000000E+00
-0.3796961972557E-01 -0.3120933857518E+00  0.0000000000000E+00
-0.4019187447663E-01 -0.2778924900913E+00  0.0000000000000E+00
-0.4241412922770E-01 -0.2436915944307E+00  0.0000000000000E+00
-0.4463638397876E-01 -0.2094906987702E+00  0.0000000000000E+00
-0.4685863872982E-01 -0.1752898031097E+00  0.0000000000000E+00
-0.4908089348088E-01 -0.1410889074492E+00  0.0000000000000E+00
-0.5130314823194E-01 -0.1068880117887E+00  0.0000000000000E+00
-0.5352540298300E-01 -0.7268711612818E-01  0.0000000000000E+00
-0.5574765773406E-01 -0.3848622046767E-01  0.0000000000000E+00
-0.5796991248513E-01 -0.4285324807156E-02  0.0000000000000E+00
-0.6019216723619E-01  0.2991557085336E-01  0.0000000000000E+00
-0.6241442198725E-01  0.6411646651387E-01  0.0000000000000E+00
-0.6463667673831E-01  0.9831736217438E-01  0.0000000000000E+00
-0.6685893148937E-01  0.1325182578349E+00  0.0000000000000E+00
-0.6908118624043E-01  0.1667191534954E+00  0.0000000000000E+00
-0.7130344099149E-01  0.2009200491559E+00  0.0000000000000E+00
-0.7352569574256E-01  0.2351209448164E+00  0.0000000000000E+00
-0.9110412026432E-10 -0.3803390679715E+00  0.0000000000000E+00
-0.1822078997847E-09 -0.3461942289011E+00  0.0000000000000E+00
-0.2733118597163E-09 -0.3120493898306E+00  0.0000000000000E+00
-0.3644157225034E-09 -0.2779045507602E+00  0.0000000000000E+00
-0.4555196408017E-09 -0.2437597116898E+00  0.0000000000000E+00
-0.5466234480776E-09 -0.2096148726194E+00  0.0000000000000E+00
-0.6377270888201E-09 -0.1754700335490E+00  0.0000000000000E+00
-0.7288309516072E-09 -0.1413251944785E+00  0.0000000000000E+00
-0.8199347588832E-09 -0.1071803554081E+00  0.0000000000000E+00
-0.9110384551368E-09 -0.7303551633770E-01  0.0000000000000E+00
-0.1002142373435E-08 -0.3889067726728E-01  0.0000000000000E+00
-0.1093246125200E-08 -0.4745838196866E-02  0.0000000000000E+00
-0.1184349710431E-08  0.2939900087355E-01  0.0000000000000E+00
-0.1275453573218E-08  0.6354383994397E-01  0.0000000000000E+00
-0.1366557602539E-08  0.9768867901439E-01  0.0000000000000E+00
-0.1457661298793E-08  0.1318335180848E+00  0.0000000000000E+00
-0.1548765106068E-08  0.1659783571552E+00  0.0000000000000E+00
-0.1639868913344E-08  0.2001231962256E+00  0.0000000000000E+00
-0.1730972498576E-08  0.2342680352961E+00  0.0000000000000E+00
 0.3352511004131E-01 -0.3804951770771E+00  0.0000000000000E+00
 0.3574736461023E-01 -0.3462942814209E+00  0.0000000000000E+00
 0.3796961917915E-01 -0.3120933857647E+00  0.0000000000000E+00
 0.4019187374807E-01 -0.2778924901086E+00  0.0000000000000E+00
 0.4241412831699E-01 -0.2436915944524E+00  0.0000000000000E+00
 0.4463638288591E-01 -0.2094906987962E+00  0.0000000000000E+00
 0.4685863745483E-01 -0.1752898031400E+00  0.0000000000000E+00
 0.4908089202375E-01 -0.1410889074838E+00  0.0000000000000E+00
 0.5130314659267E-01 -0.1068880118276E+00  0.0000000000000E+00
 0.5352540116158E-01 -0.7268711617143E-01  0.0000000000000E+00
 0.5574765573050E-01 -0.3848622051524E-01  0.0000000000000E+00
 0.5796991029942E-01 -0.4285324859053E-02  0.0000000000000E+00
 0.6019216486834E-01  0.2991557079713E-01  0.0000000000000E+00
 0.6241441943726E-01  0.6411646645332E-01  0.0000000000000E+00
 0.6463667400618E-01  0.9831736210951E-01  0.0000000000000E+00
 0.6685892857510E-01  0.1325182577657E+00  0.0000000000000E+00
 0.6908118314402E-01  0.1667191534219E+00  0.0000000000000E+00
 0.7130343771294E-01  0.2009200490781E+00  0.0000000000000E+00
 0.7352569228186E-01  0.2351209447343E+00  0.0000000000000E+00
 0.6704270609402E-01 -0.3809667730804E+00  0.0000000000000E+00
 0.7148545105530E-01 -0.3466011322313E+00  0.0000000000000E+00
 0.7592819601657E-01 -0.3122354913822E+00  0.0000000000000E+00
 0.8037094097785E-01 -0.2778698505331E+00  0.0000000000000E+00
 0.8481368593912E-01 -0.2435042096840E+00  0.0000000000000E+00
 0.8925643090040E-01 -0.2091385688349E+00  0.0000000000000E+00
 0.9369917586167E-01 -0.1747729279858E+00  0.0000000000000E+00
 0.9814192082294E-01 -0.1404072871367E+00  0.0000000000000E+00
 0.1025846657842E+00 -0.1060416462876E+00  0.0000000000000E+00
 0.1070274107455E+00 -0.7167600543851E-01  0.0000000000000E+00
 0.1114701557068E+00 -0.3731036458941E-01  0.0000000000000E+00
 0.1159129006680E+00 -0.2944723740310E-02  0.0000000000000E+00
 0.1203556456293E+00  0.3142091710879E-01  0.0000000000000E+00
 0.1247983905906E+00  0.6578655795789E-01  0.0000000000000E+00
 0.1292411355519E+00  0.1001521988070E+00  0.0000000000000E+00
 0.1336838805131E+00  0.1345178396561E+00  0.0000000000000E+00
 0.1381266254744E+00  0.1688834805052E+00  0.0000000000000E+00
 0.1425693704357E+00  0.2032491213543E+00  0.0000000000000E+00
 0.1470121153970E+00  0.2376147622034E+00  0.0000000000000E+00
 0.1005454708081E+00 -0.3817562677643E+00  0.0000000000000E+00
 0.1072053598928E+00 -0.3471200718688E+00  0.0000000000000E+00
 0.1138652489775E+00 -0.3124838759733E+00  0.0000000000000E+00
 0.1205251380622E+00 -0.2778476800778E+00  0.0000000000000E+00
 0.1271850271469E+00 -0.2432114841823E+00  0.0000000000000E+00
 0.1338449162316E+00 -0.2085752882868E+00  0.0000000000000E+00
 0.1405048053162E+00 -0.1739390923913E+00  0.0000000000000E+00
 0.1471646944009E+00 -0.1393028964959E+00  0.0000000000000E+00
 0.1538245834856E+00 -0.1046667006004E+00  0.0000000000000E+00
 0.1604844725703E+00 -0.7003050470487E-01  0.0000000000000E+00
 0.1671443616550E+00 -0.3539430880938E-01  0.0000000000000E+00
 0.1738042507397E+00 -0.7581129138917E-03  0.0000000000000E+00
 0.1804641398244E+00  0.3387808298160E-01  0.0000000000000E+00
 0.1871240289091E+00  0.6851427887709E-01  0.0000000000000E+00
 0.1937839179937E+00  0.1031504747726E+00  0.0000000000000E+00
 0.2004438070784E+00  0.1377866706681E+00  0.0000000000000E+00
 0.2071036961631E+00  0.1724228665636E+00  0.0000000000000E+00
 0.2137635852478E+00  0.2070590624591E+00  0.0000000000000E+00
 0.2204234743325E+00  0.2416952583545E+00  0.0000000000000E+00
 0.1340261089962E+00 -0.3828631735131E+00  0.0000000000000E+00
 0.1428982085797E+00 -0.3478509012679E+00  0.0000000000000E+00
 0.1517703081632E+00 -0.3128386290227E+00  0.0000000000000E+00
 0.1606424077467E+00 -0.2778263567775E+00  0.0000000000000E+00
 0.1695145073302E+00 -0.2428140845323E+00  0.0000000000000E+00
 0.1783866069137E+00 -0.2078018122871E+00  0.0000000000000E+00
 0.1872587064972E+00 -0.1727895400418E+00  0.0000000000000E+00
 0.1961308060807E+00 -0.1377772677966E+00  0.0000000000000E+00
 0.2050029056642E+00 -0.1027649955514E+00  0.0000000000000E+00
 0.2138750052477E+00 -0.6775272330619E-01  0.0000000000000E+00
 0.2227471048312E+00 -0.3274045106098E-01  0.0000000000000E+00
 0.2316192044147E+00  0.2271821184241E-02  0.0000000000000E+00
 0.2404913039982E+00  0.3728409342946E-01  0.0000000000000E+00
 0.2493634035817E+00  0.7229636567468E-01  0.0000000000000E+00
 0.2582355031652E+00  0.1073086379199E+00  0.0000000000000E+00
 0.2671076027487E+00  0.1423209101651E+00  0.0000000000000E+00
 0.2759797023322E+00  0.1773331824103E+00  0.0000000000000E+00
 0.2848518019157E+00  0.2123454546555E+00  0.0000000000000E+00
 0.2937239014992E+00  0.2473577269008E+00  0.0000000000000E+00
 0.1674771091722E+00 -0.3842843495732E+00  0.0000000000000E+00
 0.1785546410022E+00 -0.3487884211524E+00  0.0000000000000E+00
 0.1896321728322E+00 -0.3132924927316E+00  0.0000000000000E+00
 0.2007097046621E+00 -0.2777965643107E+00  0.0000000000000E+00
 0.2117872364921E+00 -0.2423006358899E+00  0.0000000000000E+00
 0.2228647683220E+00 -0.2068047074691E+00  0.0000000000000E+00
 0.2339423001520E+00 -0.1713087790483E+00  0.0000000000000E+00
 0.2450198319819E+00 -0.1358128506275E+00  0.0000000000000E+00
 0.2560973638119E+00 -0.1003169222066E+00  0.0000000000000E+00
 0.2671748956418E+00 -0.6482099378580E-01  0.0000000000000E+00
 0.2782524274718E+00 -0.2932506536498E-01  0.0000000000000E+00
 0.2893299593017E+00  0.6170863055847E-02  0.0000000000000E+00
 0.3004074911317E+00  0.4166679147667E-01  0.0000000000000E+00
 0.3114850229616E+00  0.7716271989750E-01  0.0000000000000E+00
 0.3225625547916E+00  0.1126586483183E+00  0.0000000000000E+00
 0.3336400866215E+00  0.1481545767391E+00  0.0000000000000E+00
 0.3447176184515E+00  0.1836505051600E+00  0.0000000000000E+00
 0.3557951502814E+00  0.2191464335808E+00  0.0000000000000E+00
 0.3668726821114E+00  0.2546423620016E+00  0.0000000000000E+00
 0.2008905516076E+00 -0.3860140358638E+00  0.0000000000000E+00
 0.2141644302833E+00 -0.3499224953114E+00  0.0000000000000E+00
 0.2274383089590E+00 -0.3138309547591E+00  0.0000000000000E+00
 0.2407121876348E+00 -0.2777394142068E+00  0.0000000000000E+00
 0.2539860663105E+00 -0.2416478736544E+00  0.0000000000000E+00
 0.2672599449862E+00 -0.2055563331021E+00  0.0000000000000E+00
 0.2805338236619E+00 -0.1694647925498E+00  0.0000000000000E+00
 0.2938077023376E+00 -0.1333732519975E+00  0.0000000000000E+00
 0.3070815810133E+00 -0.9728171144512E-01  0.0000000000000E+00
 0.3203554596891E+00 -0.6119017089279E-01  0.0000000000000E+00
 0.3336293383648E+00 -0.2509863034046E-01  0.0000000000000E+00
 0.3469032170405E+00  0.1099291021187E-01  0.0000000000000E+00
 0.3601770957162E+00  0.4708445076420E-01  0.0000000000000E+00
 0.3734509743919E+00  0.8317599131653E-01  0.0000000000000E+00
 0.3867248530677E+00  0.1192675318689E+00  0.0000000000000E+00
 0.3999987317434E+00  0.1553590724212E+00  0.0000000000000E+00
 0.4132726104191E+00  0.1914506129735E+00  0.0000000000000E+00
 0.4265464890948E+00  0.2275421535259E+00  0.0000000000000E+00
 0.4398203677705E+00  0.2636336940782E+00  0.0000000000000E+00
 0.2342578968120E+00 -0.3880438745619E+00  0.0000000000000E+00
 0.2497160427631E+00 -0.3512380882442E+00  0.0000000000000E+00
 0.2651741887142E+00 -0.3144323019265E+00  0.0000000000000E+00
 0.2806323346653E+00 -0.2776265156088E+00  0.0000000000000E+00
 0.2960904806164E+00 -0.2408207292911E+00  0.0000000000000E+00
 0.3115486265674E+00 -0.2040149429734E+00  0.0000000000000E+00
 0.3270067725185E+00 -0.1672091566557E+00  0.0000000000000E+00
 0.3424649184696E+00 -0.1304033703380E+00  0.0000000000000E+00
 0.3579230644207E+00 -0.9359758402027E-01  0.0000000000000E+00
 0.3733812103718E+00 -0.5679179770256E-01  0.0000000000000E+00
 0.3888393563228E+00 -0.1998601138485E-01  0.0000000000000E+00
 0.4042975022739E+00  0.1681977493286E-01  0.0000000000000E+00
 0.4197556482250E+00  0.5362556125056E-01  0.0000000000000E+00
 0.4352137941761E+00  0.9043134756827E-01  0.0000000000000E+00
 0.4506719401272E+00  0.1272371338860E+00  0.0000000000000E+00
 0.4661300860782E+00  0.1640429202037E+00  0.0000000000000E+00
 0.4815882320293E+00  0.2008487065214E+00  0.0000000000000E+00
 0.4970463779804E+00  0.2376544928391E+00  0.0000000000000E+00
 0.5125045239315E+00  0.2744602791568E+00  0.0000000000000E+00
 0.2675697751805E+00 -0.3903634586150E+00  0.0000000000000E+00
 0.2851962167721E+00 -0.3527163568323E+00  0.0000000000000E+00
 0.3028226583638E+00 -0.3150692550497E+00  0.0000000000000E+00
 0.3204490999555E+00 -0.2774221532670E+00  0.0000000000000E+00
 0.3380755415472E+00 -0.2397750514843E+00  0.0000000000000E+00
 0.3557019831389E+00 -0.2021279497017E+00  0.0000000000000E+00
 0.3733284247305E+00 -0.1644808479190E+00  0.0000000000000E+00
 0.3909548663222E+00 -0.1268337461363E+00  0.0000000000000E+00
 0.4085813079139E+00 -0.8918664435365E-01  0.0000000000000E+00
 0.4262077495056E+00 -0.5153954257098E-01  0.0000000000000E+00
 0.4438341910973E+00 -0.1389244078831E-01  0.0000000000000E+00
 0.4614606326889E+00  0.2375466099436E-01  0.0000000000000E+00
 0.4790870742806E+00  0.6140176277703E-01  0.0000000000000E+00
 0.4967135158723E+00  0.9904886455970E-01  0.0000000000000E+00
 0.5143399574640E+00  0.1366959663424E+00  0.0000000000000E+00
 0.5319663990557E+00  0.1743430681250E+00  0.0000000000000E+00
 0.5495928406473E+00  0.2119901699077E+00  0.0000000000000E+00
 0.5672192822390E+00  0.2496372716904E+00  0.0000000000000E+00
 0.5848457238307E+00  0.2872843734730E+00  0.0000000000000E+00
 0.3008163577734E+00 -0.3929631428122E+00  0.0000000000000E+00
 0.3205906655322E+00 -0.3543402623307E+00  0.0000000000000E+00
 0.3403649732910E+00 -0.3157173818492E+00  0.0000000000000E+00
 0.3601392810498E+00 -0.2770945013677E+00  0.0000000000000E+00
 0.3799135888087E+00 -0.2384716208863E+00  0.0000000000000E+00
 0.3996878965675E+00 -0.1998487404048E+00  0.0000000000000E+00
 0.4194622043263E+00 -0.1612258599233E+00  0.0000000000000E+00
 0.4392365120851E+00 -0.1226029794418E+00  0.0000000000000E+00
 0.4590108198439E+00 -0.8398009896027E-01  0.0000000000000E+00
 0.4787851276028E+00 -0.4535721847878E-01  0.0000000000000E+00
 0.4985594353616E+00 -0.6734337997284E-02  0.0000000000000E+00
 0.5183337431204E+00  0.3188854248421E-01  0.0000000000000E+00
 0.5381080508792E+00  0.7051142296571E-01  0.0000000000000E+00
 0.5578823586381E+00  0.1091343034472E+00  0.0000000000000E+00
 0.5776566663969E+00  0.1477571839287E+00  0.0000000000000E+00
 0.5974309741557E+00  0.1863800644102E+00  0.0000000000000E+00
 0.6172052819145E+00  0.2250029448917E+00  0.0000000000000E+00
 0.6369795896734E+00  0.2636258253732E+00  0.0000000000000E+00
 0.6567538974322E+00  0.3022487058547E+00  0.0000000000000E+00
 0.3339899906020E+00 -0.3958444359414E+00  0.0000000000000E+00
 0.3558893491867E+00 -0.3561153469911E+00  0.0000000000000E+00
 0.3777887077715E+00 -0.3163862580408E+00  0.0000000000000E+00
 0.3996880663563E+00 -0.2766571690905E+00  0.0000000000000E+00
 0.4215874249411E+00 -0.2369280801402E+00  0.0000000000000E+00
 0.4434867835259E+00 -0.1971989911899E+00  0.0000000000000E+00
 0.4653861421107E+00 -0.1574699022396E+00  0.0000000000000E+00
 0.4872855006954E+00 -0.1177408132894E+00  0.0000000000000E+00
 0.5091848592802E+00 -0.7801172433906E-01  0.0000000000000E+00
 0.5310842178650E+00 -0.3828263538877E-01  0.0000000000000E+00
 0.5529835764498E+00  0.1446453561517E-02  0.0000000000000E+00
 0.5748829350346E+00  0.4117554251181E-01  0.0000000000000E+00
 0.5967822936193E+00  0.8090463146210E-01  0.0000000000000E+00
 0.6186816522041E+00  0.1206337204124E+00  0.0000000000000E+00
 0.6405810107889E+00  0.1603628093627E+00  0.0000000000000E+00
 0.6624803693737E+00  0.2000918983130E+00  0.0000000000000E+00
 0.6843797279585E+00  0.2398209872633E+00  0.0000000000000E+00
 0.7062790865433E+00  0.2795500762135E+00  0.0000000000000E+00
 0.7281784451280E+00  0.3192791651638E+00  0.0000000000000E+00
 0.3670941280509E+00 -0.3990479117477E+00  0.0000000000000E+00
 0.3911043430246E+00 -0.3581255481675E+00  0.0000000000000E+00
 0.4151145579982E+00 -0.3172031845874E+00  0.0000000000000E+00
 0.4391247729718E+00 -0.2762808210073E+00  0.0000000000000E+00
 0.4631349879455E+00 -0.2353584574271E+00  0.0000000000000E+00
 0.4871452029191E+00 -0.1944360938470E+00  0.0000000000000E+00
 0.5111554178927E+00 -0.1535137302669E+00  0.0000000000000E+00
 0.5351656328664E+00 -0.1125913666867E+00  0.0000000000000E+00
 0.5591758478400E+00 -0.7166900310660E-01  0.0000000000000E+00
 0.5831860628136E+00 -0.3074663952647E-01  0.0000000000000E+00
 0.6071962777873E+00  0.1017572405366E-01  0.0000000000000E+00
 0.6312064927609E+00  0.5109808763380E-01  0.0000000000000E+00
 0.6552167077345E+00  0.9202045121393E-01  0.0000000000000E+00
 0.6792269227082E+00  0.1329428147941E+00  0.0000000000000E+00
 0.7032371376818E+00  0.1738651783742E+00  0.0000000000000E+00
 0.7272473526555E+00  0.2147875419543E+00  0.0000000000000E+00
 0.7512575676291E+00  0.2557099055345E+00  0.0000000000000E+00
 0.7752677826027E+00  0.2966322691146E+00  0.0000000000000E+00
 0.7992779975764E+00  0.3375546326947E+00  0.0000000000000E+00
 0.4001452658322E+00 -0.4026538268434E+00  0.0000000000000E+00
 0.4262736919301E+00 -0.3605344242716E+00  0.0000000000000E+00
 0.4524021180279E+00 -0.3184150216998E+00  0.0000000000000E+00
 0.4785305441258E+00 -0.2762956191280E+00  0.0000000000000E+00
 0.5046589702237E+00 -0.2341762165562E+00  0.0000000000000E+00
 0.5307873963216E+00 -0.1920568139844E+00  0.0000000000000E+00
 0.5569158224194E+00 -0.1499374114126E+00  0.0000000000000E+00
 0.5830442485173E+00 -0.1078180088408E+00  0.0000000000000E+00
 0.6091726746152E+00 -0.6569860626900E-01  0.0000000000000E+00
 0.6353011007131E+00 -0.2357920369720E-01  0.0000000000000E+00
 0.6614295268109E+00  0.1854019887460E-01  0.0000000000000E+00
 0.6875579529088E+00  0.6065960144641E-01  0.0000000000000E+00
 0.7136863790067E+00  0.1027790040182E+00  0.0000000000000E+00
 0.7398148051046E+00  0.1448984065900E+00  0.0000000000000E+00
 0.7659432312024E+00  0.1870178091618E+00  0.0000000000000E+00
 0.7920716573003E+00  0.2291372117336E+00  0.0000000000000E+00
 0.8182000833982E+00  0.2712566143054E+00  0.0000000000000E+00
 0.8443285094961E+00  0.3133760168772E+00  0.0000000000000E+00
 0.8704569355939E+00  0.3554954194490E+00  0.0000000000000E+00
 0.4331566792210E+00 -0.4067328541253E+00  0.0000000000000E+00
 0.4614288245888E+00 -0.3634866018376E+00  0.0000000000000E+00
 0.4897009699565E+00 -0.3202403495500E+00  0.0000000000000E+00
 0.5179731153242E+00 -0.2769940972623E+00  0.0000000000000E+00
 0.5462452606920E+00 -0.2337478449747E+00  0.0000000000000E+00
 0.5745174060597E+00 -0.1905015926870E+00  0.0000000000000E+00
 0.6027895514275E+00 -0.1472553403993E+00  0.0000000000000E+00
 0.6310616967952E+00 -0.1040090881117E+00  0.0000000000000E+00
 0.6593338421629E+00 -0.6076283582400E-01  0.0000000000000E+00
 0.6876059875307E+00 -0.1751658353633E-01  0.0000000000000E+00
 0.7158781328984E+00  0.2572966875133E-01  0.0000000000000E+00
 0.7441502782662E+00  0.6897592103899E-01  0.0000000000000E+00
 0.7724224236339E+00  0.1122221733267E+00  0.0000000000000E+00
 0.8006945690017E+00  0.1554684256143E+00  0.0000000000000E+00
 0.8289667143694E+00  0.1987146779020E+00  0.0000000000000E+00
 0.8572388597371E+00  0.2419609301896E+00  0.0000000000000E+00
 0.8855110051049E+00  0.2852071824773E+00  0.0000000000000E+00
 0.9137831504726E+00  0.3284534347650E+00  0.0000000000000E+00
 0.9420552958404E+00  0.3716996870526E+00  0.0000000000000E+00
 0.4661358892480E+00 -0.4113546121035E+00  0.0000000000000E+00
 0.4965895943463E+00 -0.3671248415798E+00  0.0000000000000E+00
 0.5270432994446E+00 -0.3228950710562E+00  0.0000000000000E+00
 0.5574970045428E+00 -0.2786653005325E+00  0.0000000000000E+00
 0.5879507096411E+00 -0.2344355300089E+00  0.0000000000000E+00
 0.6184044147394E+00 -0.1902057594852E+00  0.0000000000000E+00
 0.6488581198376E+00 -0.1459759889615E+00  0.0000000000000E+00
 0.6793118249359E+00 -0.1017462184379E+00  0.0000000000000E+00
 0.7097655300342E+00 -0.5751644791423E-01  0.0000000000000E+00
 0.7402192351324E+00 -0.1328667739058E-01  0.0000000000000E+00
 0.7706729402307E+00  0.3094309313308E-01  0.0000000000000E+00
 0.8011266453290E+00  0.7517286365674E-01  0.0000000000000E+00
 0.8315803504272E+00  0.1194026341804E+00  0.0000000000000E+00
 0.8620340555255E+00  0.1636324047041E+00  0.0000000000000E+00
 0.8924877606238E+00  0.2078621752277E+00  0.0000000000000E+00
 0.9229414657220E+00  0.2520919457514E+00  0.0000000000000E+00
 0.9533951708203E+00  0.2963217162750E+00  0.0000000000000E+00
 0.9838488759186E+00  0.3405514867987E+00  0.0000000000000E+00
 0.1014302581017E+01  0.3847812573223E+00  0.0000000000000E+00
 0.4990802664438E+00 -0.4165840327379E+00  0.0000000000000E+00
 0.5317553215595E+00 -0.3715827348342E+00  0.0000000000000E+00
 0.5644303766752E+00 -0.3265814369305E+00  0.0000000000000E+00
 0.5971054317909E+00 -0.2815801390268E+00  0.0000000000000E+00
 0.6297804869067E+00 -0.2365788411232E+00  0.0000000000000E+00
 0.6624555420224E+00 -0.1915775432195E+00  0.0000000000000E+00
 0.6951305971381E+00 -0.1465762453158E+00  0.0000000000000E+00
 0.7278056522539E+00 -0.1015749474121E+00  0.0000000000000E+00
 0.7604807073696E+00 -0.5657364950839E-01  0.0000000000000E+00
 0.7931557624853E+00 -0.1157235160470E-01  0.0000000000000E+00
 0.8258308176011E+00  0.3342894629900E-01  0.0000000000000E+00
 0.8585058727168E+00  0.7843024420269E-01  0.0000000000000E+00
 0.8911809278325E+00  0.1234315421064E+00  0.0000000000000E+00
 0.9238559829483E+00  0.1684328400101E+00  0.0000000000000E+00
 0.9565310380640E+00  0.2134341379138E+00  0.0000000000000E+00
 0.9892060931797E+00  0.2584354358175E+00  0.0000000000000E+00
 0.1021881148295E+01  0.3034367337211E+00  0.0000000000000E+00
 0.1054556203411E+01  0.3484380316248E+00  0.0000000000000E+00
 0.1087231258527E+01  0.3934393295285E+00  0.0000000000000E+00
 0.5319747862026E+00 -0.4224941396770E+00  0.0000000000000E+00
 0.5669005035122E+00 -0.3770102860085E+00  0.0000000000000E+00
 0.6018262208219E+00 -0.3315264323400E+00  0.0000000000000E+00
 0.6367519381315E+00 -0.2860425786714E+00  0.0000000000000E+00
 0.6716776554412E+00 -0.2405587250029E+00  0.0000000000000E+00
 0.7066033727508E+00 -0.1950748713344E+00  0.0000000000000E+00
 0.7415290900604E+00 -0.1495910176658E+00  0.0000000000000E+00
 0.7764548073701E+00 -0.1041071639973E+00  0.0000000000000E+00
 0.8113805246797E+00 -0.5862331032874E-01  0.0000000000000E+00
 0.8463062419894E+00 -0.1313945666021E-01  0.0000000000000E+00
 0.8812319592990E+00  0.3234439700833E-01  0.0000000000000E+00
 0.9161576766086E+00  0.7782825067687E-01  0.0000000000000E+00
 0.9510833939183E+00  0.1233121043454E+00  0.0000000000000E+00
 0.9860091112279E+00  0.1687959580139E+00  0.0000000000000E+00
 0.1020934828538E+01  0.2142798116825E+00  0.0000000000000E+00
 0.1055860545847E+01  0.2597636653510E+00  0.0000000000000E+00
 0.1090786263157E+01  0.3052475190195E+00  0.0000000000000E+00
 0.1125711980466E+01  0.3507313726881E+00  0.0000000000000E+00
 0.1160637697776E+01  0.3962152263566E+00  0.0000000000000E+00
 0.5647851635818E+00 -0.4291779471573E+00  0.0000000000000E+00
 0.6019607638464E+00 -0.3835976335334E+00  0.0000000000000E+00
 0.6391363641111E+00 -0.3380173199096E+00  0.0000000000000E+00
 0.6763119643757E+00 -0.2924370062857E+00  0.0000000000000E+00
 0.7134875646404E+00 -0.2468566926618E+00  0.0000000000000E+00
 0.7506631649050E+00 -0.2012763790380E+00  0.0000000000000E+00
 0.7878387651697E+00 -0.1556960654141E+00  0.0000000000000E+00
 0.8250143654344E+00 -0.1101157517902E+00  0.0000000000000E+00
 0.8621899656990E+00 -0.6453543816633E-01  0.0000000000000E+00
 0.8993655659637E+00 -0.1895512454246E-01  0.0000000000000E+00
 0.9365411662283E+00  0.2662518908141E-01  0.0000000000000E+00
 0.9737167664930E+00  0.7220550270529E-01  0.0000000000000E+00
 0.1010892366758E+01  0.1177858163292E+00  0.0000000000000E+00
 0.1048067967022E+01  0.1633661299530E+00  0.0000000000000E+00
 0.1085243567287E+01  0.2089464435769E+00  0.0000000000000E+00
 0.1122419167552E+01  0.2545267572008E+00  0.0000000000000E+00
 0.1159594767816E+01  0.3001070708247E+00  0.0000000000000E+00
 0.1196770368081E+01  0.3456873844485E+00  0.0000000000000E+00
 0.1233945968346E+01  0.3912676980724E+00  0.0000000000000E+00
 0.5974622414189E+00 -0.4366441451446E+00  0.0000000000000E+00
 0.6368419582214E+00 -0.3913664748674E+00  0.0000000000000E+00
 0.6762216750239E+00 -0.3460888045901E+00  0.0000000000000E+00
 0.7156013918264E+00 -0.3008111343129E+00  0.0000000000000E+00
 0.7549811086289E+00 -0.2555334640357E+00  0.0000000000000E+00
 0.7943608254314E+00 -0.2102557937584E+00  0.0000000000000E+00
 0.8337405422339E+00 -0.1649781234812E+00  0.0000000000000E+00
 0.8731202590364E+00 -0.1197004532040E+00  0.0000000000000E+00
 0.9124999758389E+00 -0.7442278292673E-01  0.0000000000000E+00
 0.9518796926414E+00 -0.2914511264950E-01  0.0000000000000E+00
 0.9912594094439E+00  0.1613255762773E-01  0.0000000000000E+00
 0.1030639126246E+01  0.6141022790496E-01  0.0000000000000E+00
 0.1070018843049E+01  0.1066878981822E+00  0.0000000000000E+00
 0.1109398559851E+01  0.1519655684594E+00  0.0000000000000E+00
 0.1148778276654E+01  0.1972432387367E+00  0.0000000000000E+00
 0.1188157993456E+01  0.2425209090139E+00  0.0000000000000E+00
 0.1227537710259E+01  0.2877985792911E+00  0.0000000000000E+00
 0.1266917427061E+01  0.3330762495684E+00  0.0000000000000E+00
 0.1306297143864E+01  0.3783539198456E+00  0.0000000000000E+00
 0.6299559713731E+00 -0.4448788634348E+00  0.0000000000000E+00
 0.6714480731557E+00 -0.4002935754811E+00  0.0000000000000E+00
 0.7129401749383E+00 -0.3557082875275E+00  0.0000000000000E+00
 0.7544322767209E+00 -0.3111229995738E+00  0.0000000000000E+00
 0.7959243785035E+00 -0.2665377116201E+00  0.0000000000000E+00
 0.8374164802861E+00 -0.2219524236665E+00  0.0000000000000E+00
 0.8789085820687E+00 -0.1773671357128E+00  0.0000000000000E+00
 0.9204006838513E+00 -0.1327818477591E+00  0.0000000000000E+00
 0.9618927856339E+00 -0.8819655980548E-01  0.0000000000000E+00
 0.1003384887417E+01 -0.4361127185182E-01  0.0000000000000E+00
 0.1044876989199E+01  0.9740161018480E-03  0.0000000000000E+00
 0.1086369090982E+01  0.4555930405551E-01  0.0000000000000E+00
 0.1127861192764E+01  0.9014459200918E-01  0.0000000000000E+00
 0.1169353294547E+01  0.1347298799628E+00  0.0000000000000E+00
 0.1210845396330E+01  0.1793151679165E+00  0.0000000000000E+00
 0.1252337498112E+01  0.2239004558702E+00  0.0000000000000E+00
 0.1293829599895E+01  0.2684857438238E+00  0.0000000000000E+00
 0.1335321701677E+01  0.3130710317775E+00  0.0000000000000E+00
 0.1376813803460E+01  0.3576563197312E+00  0.0000000000000E+00
</DataArray>
</Points>
<Cells>
<DataArray type="Int64" Name="connectivity" format="ascii">
0 11 438 243
243 438 439 244
244 439 440 245
245 440 441 246
246 441 442 247
247 442 443 248
248 443 444 249
249 444 445 250
250 445 446 251
251 446 447 252
252 447 448 253
253 448 449 254
254 449 450 255
255 450 451 256
256 451 452 257
257 452 453 258
258 453 454 259
259 454 455 260
260 455 456 261
261 456 457 262
262 457 458 263
263 458 459 264
264 459 460 265
265 460 461 266
266 461 462 267
267 462 463 268
268 463 464 269
269 464 465 270
270 465 466 271
271 466 467 272
272 467 468 273
273 468 469 274
274 469 470 275
275 470 471 276
276 471 472 277
277 472 473 278
278 473 474 279
279 474 475 280
280 475 476 281
281 476 477 282
282 477 89 3
11 12 478 438
438 478 479 439
439 479 480 440
440 480 481 441
441 481 482 442
442 482 483 443
443 483 484 444
444 484 485 445
445 485 486 446
446 486 487 447
447 487 488 448
448 488 489 449
449 489 490 450
450 490 491 451
451 491 492 452
452 492 493 453
453 493 494 454
454 494 495 455
455 495 496 456
456 496 497 457
457 497 498 458
458 498 499 459
459 499 500 460
460 500 501 461
461 501 502 462
462 502 503 463
463 503 504 464
464 504 505 465
465 505 506 466
466 506 507 467
467 507 508 468
468 508 509 469
469 509 510 470
470 510 511 471
471 511 512 472
472 512 513 473
473 513 514 474
474 514 515 475
475 515 516 476
476 516 517 477
477 517 90 89
12 13 518 478
478 518 519 479
479 519 520 480
480 520 521 481
481 521 522 482
482 522 523 483
483 523 524 484
484 524 525 485
485 525 526 486
486 526 527 487
487 527 528 488
488 528 529 489
489 529 530 490
490 530 531 491
491 531 532 492
492 532 533 493
493 533 534 494
494 534 535 495
495 535 536 496
496 536 537 497
497 537 538 498
498 538 539 499
499 539 540 500
500 540 541 501
501 541 542 502
502 542 543 503
503 543 544 504
504 544 545 505
505 545 546 506
506 546 547 507
507 547 548 508
508 548 549 509
509 549 550 510
510 550 551 511
511 551 552 512
512 552 553 513
513 553 554 514
514 554 555 515
515 555 556 516
516 556 557 517
517 557 91 90
13 14 558 518
518 558 559 519
519 559 560 520
520 560 561 521
521 561 562 522
522 562 563 523
523 563 564 524
524 564 565 525
525 565 566 526
526 566 567 527
527 567 568 528
528 568 569 529
529 569 570 530
530 570 571 531
531 571 572 532
532 572 573 533
533 573 574 534
534 574 575 535
535 575 576 536
536 576 577 537
537 577 578 538
538 578 579 539
539 579 580 540
540 580 581 541
541 581 582 542
542 582 583 543
543 583 584 544
544 584 585 545
545 585 586 546
546 586 587 547
547 587 588 548
548 588 589 549
549 589 590 550
550 590 591 551
551 591 592 552
552 592 593 553
553 593 594 554
554 594 595 555
555 595 596 556
556 596 597 557
557 597 92 91
14 15 598 558
558 598 599 559
559 599 600 560
560 600 601 561
561 601 602 562
562 602 603 563
563 603 604 564
564 604 605 565
565 605 606 566
566 606 607 567
567 607 608 568
568 608 609 569
569 609 610 570
570 610 611 571
571 611 612 572
572 612 613 573
573 613 614 574
574 614 615 575
575 615 616 576
576 616 617 577
577 617 618 578
578 618 619 579
579 619 620 580
580 620 621 581
581 621 622 582
582 622 623 583
583 623 624 584
584 624 625 585
585 625 626 586
586 626 627 587
587 627 628 588
588 628 629 589
589 629 630 590
590 630 631 591
591 631 632 592
592 632 633 593
593 633 634 594
594 634 635 595
595 635 636 596
596 636 637 597
597 637 93 92
15 16 638 598
598 638 639 599
599 639 640 600
600 640 641 601
601 641 642 602
602 642 643 603
603 643 644 604
604 644 645 605
605 645 646 606
606 646 647 607
607 647 648 608
608 648 649 609
609 649 650 610
610 650 651 611
611 651 652 612
612 652 653 613
613 653 654 614
614 654 655 615
615 655 656 616
616 656 657 617
617 657 658 618
618 658 659 619
619 659 660 620
620 660 661 621
621 661 662 622
622 662 663 623
623 663 664 624
624 664 665 625
625 665 666 626
626 666 667 627
627 667 668 628
628 668 669 629
629 669 670 630
630 670 671 631
631 671 672 632
632 672 673 633
633 673 674 634
634 674 675 635
635 675 676 636
636 676 677 637
637 677 94 93
16 17 678 638
638 678 679 639
639 679 680 640
640 680 681 641
641 681 682 642
642 682 683 643
643 683 684 644
644 684 685 645
645 685 686 646
646 686 687 647
647 687 688 648
648 688 689 649
649 689 690 650
650 690 691 651
651 691 692 652
652 692 693 653
653 693 694 654
654 694 695 655
655 695 696 656
656 696 697 657
657 697 698 658
658 698 699 659
659 699 700 660
660 700 701 661
661 701 702 662
662 702 703 663
663 703 704 664
664 704 705 665
665 705 706 666
666 706 707 667
667 707 708 668
668 708 709 669
669 709 710 670
670 710 711 671
671 711 712 672
672 712 713 673
673 713 714 674
674 714 715 675
675 715 716 676
676 716 717 677
677 717 95 94
17 18 718 678
678 718 719 679
679 719 720 680
680 720 721 681
681 721 722 682
682 722 723 683
683 723 724 684
684 724 725 685
685 725 726 686
686 726 727 687
687 727 728 688
688 728 729 689
689 729 730 690
690 730 731 691
691 731 732 692
692 732 733 693
693 733 734 694
694 734 735 695
695 735 736 696
696 736 737 697
697 737 738 698
698 738 739 699
699 739 740 700
700 740 741 701
701 741 742 702
702 742 743 703
703 743 744 704
704 744 745 705
705 745 746 706
706 746 747 707
707 747 748 708
708 748 749 709
709 749 750 710
710 750 751 711
711 751 752 712
712 752 753 713
713 753 754 714
714 754 755 715
715 755 756 716
716 756 757 717
717 757 96 95
18 19 758 718
718 758 759 719
719 759 760 720
720 760 761 721
721 761 762 722
722 762 763 723
723 763 764 724
724 764 765 725
725 765 766 726
726 766 767 727
727 767 768 728
728 768 769 729
729 769 770 730
730 770 771 731
731 771 772 732
732 772 773 733
733 773 774 734
734 774 775 735
735 775 776 736
736 776 777 737
737 777 778 738
738 778 779 739
739 779 780 740
740 780 781 741
741 781 782 742
742 782 783 743
743 783 784 744
744 784 785 745
745 785 786 746
746 786 787 747
747 787 788 748
748 788 789 749
749 789 790 750
750 790 791 751
751 791 792 752
752 792 793 753
753 793 794 754
754 794 795 755
755 795 796 756
756 796 797 757
757 797 97 96
19 20 798 758
758 798 799 759
759 799 800 760
760 800 801 761
761 801 802 762
762 802 803 763
763 803 804 764
764 804 805 765
765 805 806 766
766 806 807 767
767 807 808 768
768 808 809 769
769 809 810 770
770 810 811 771
771 811 812 772
772 812 813 773
773 813 814 774
774 814 815 775
775 815 816 776
776 816 817 777
777 817 818 778
778 818 819 779
779 819 820 780
780 820 821 781
781 821 822 782
782 822 823 783
783 823 824 784
784 824 825 785
785 825 826 786
786 826 827 787
787 827 828 788
788 828 829 789
789 829 830 790
790 830 831 791
791 831 832 792
792 832 833 793
793 833 834 794
794 834 835 795
795 835 836 796
796 836 837 797
797 837 98 97
20 21 838 798
798 838 839 799
799 839 840 800
800 840 841 801
801 841 842 802
802 842 843 803
803 843 844 804
804 844 845 805
805 845 846 806
806 846 847 807
807 847 848 808
808 848 849 809
809 849 850 810
810 850 851 811
811 851 852 812
812 852 853 813
813 853 854 814
814 854 855 815
815 855 856 816
816 856 857 817
817 857 858 818
818 858 859 819
819 859 860 820
820 860 861 821
821 861 862 822
822 862 863 823
823 863 864 824
824 864 865 825
825 865 866 826
826 866 867 827
827 867 868 828
828 868 869 829
829 869 870 830
830 870 871 831
831 871 872 832
832 872 873 833
833 873 874 834
834 874 875 835
835 875 876 836
836 876 877 837
837 877 99 98
21 22 878 838
838 878 879 839
839 879 880 840
840 880 881 841
841 881 882 842
842 882 883 843
843 883 884 844
844 884 885 845
845 885 886 846
846 886 887 847
847 887 888 848
848 888 889 849
849 889 890 850
850 890 891 851
851 891 892 852
852 892 893 853
853 893 894 854
854 894 895 855
855 895 896 856
856 896 897 857
857 897 898 858
858 898 899 859
859 899 900 860
860 900 901 861
861 901 902 862
862 902 903 863
863 903 904 864
864 904 905 865
865 905 906 866
866 906 907 867
867 907 908 868
868 908 909 869
869 909 910 870
870 910 911 871
871 911 912 872
872 912 913 873
873 913 914 874
874 914 915 875
875 915 916 876
876 916 917 877
877 917 100 99
22 23 918 878
878 918 919 879
879 919 920 880
880 920 921 881
881 921 922 882
882 922 923 883
883 923 924 884
884 924 925 885
885 925 926 886
886 926 927 887
887 927 928 888
888 928 929 889
889 929 930 890
890 930 931 891
891 931 932 892
892 932 933 893
893 933 934 894
894 934 935 895
895 935 936 896
896 936 937 897
897 937 938 898
898 938 939 899
899 939 940 900
900 940 941 901
901 941 942 902
902 942 943 903
903 943 944 904
904 944 945 905
905 945 946 906
906 946 947 907
907 947 948 908
908 948 949 909
909 949 950 910
910 950 951 911
911 951 952 912
912 952 953 913
913 953 954 914
914 954 955 915
915 955 956 916
916 956 957 917
917 957 101 100
23 24 958 918
918 958 959 919
919 959 960 920
920 960 961 921
921 961 962 922
922 962 963 923
923 963 964 924
924 964 965 925
925 965 966 926
926 966 967 927
927 967 968 928
928 968 969 929
929 969 970 930
930 970 971 931
931 971 972 932
932 972 973 933
933 973 974 934
934 974 975 935
935 975 976 936
936 976 977 937
937 977 978 938
938 978 979 939
939 979 980 940
940 980 981 941
941 981 982 942
942 982 983 943
943 983 984 944
944 984 985 945
945 985 986 946
946 986 987 947
947 987 988 948
948 988 989 949
949 989 990 950
950 990 991 951
951 991 992 952
952 992 993 953
953 993 994 954
954 994 995 955
955 995 996 956
956 996 997 957
957 997 102 101
24 25 998 958
958 998 999 959
959 999 1000 960
960 1000 1001 961
961 1001 1002 962
962 1002 1003 963
963 1003 1004 964
964 1004 1005 965
965 1005 1006 966
966 1006 1007 967
967 1007 1008 968
968 1008 1009 969
969 1009 1010 970
970 1010 1011 971
971 1011 1012 972
972 1012 1013 973
973 1013 1014 974
974 1014 1015 975
975 1015 1016 976
976 1016 1017 977
977 1017 1018 978
978 1018 1019 979
979 1019 1020 980
980 1020 1021 981
981 1021 1022 982
982 1022 1023 983
983 1023 1024 984
984 1024 1025 985
985 1025 1026 986
986 1026 1027 987
987 1027 1028 988
988 1028 1029 989
989 1029 1030 990
990 1030 1031 991
991 1031 1032 992
992 1032 1033 993
993 1033 1034 994
994 1034 1035 995
995 1035 1036 996
996 1036 1037 997
997 1037 103 102
25 26 1038 998
998 1038 1039 999
999 1039 1040 1000
1000 1040 1041 1001
1001 1041 1042 1002
1002 1042 1043 1003
1003 1043 1044 1004
1004 1044 1045 1005
1005 1045 1046 1006
1006 1046 1047 1007
1007 1047 1048 1008
1008 1048 1049 1009
1009 1049 1050 1010
1010 1050 1051 1011
1011 1051 1052 1012
1012 1052 1053 1013
1013 1053 1054 1014
1014 1054 1055 1015
1015 1055 1056 1016
1016 1056 1057 1017
1017 1057 1058 1018
1018 1058 1059 1019
1019 1059 1060 1020
1020 1060 1061 1021
1021 1061 1062 1022
1022 1062 1063 1023
1023 1063 1064 1024
1024 1064 1065 1025
1025 1065 1066 1026
1026 1066 1067 1027
1027 1067 1068 1028
1028 1068 1069 1029
1029 1069 1070 1030
1030 1070 1071 1031
1031 1071 1072 1032
1032 1072 1073 1033
1033 1073 1074 1034
1034 1074 1075 1035
1035 1075 1076 1036
1036 1076 1077 1037
1037 1077 104 103
26 27 1078 1038
1038 1078 1079 1039
1039 1079 1080 1040
1040 1080 1081 1041
1041 1081 1082 1042
1042 1082 1083 1043
1043 1083 1084 1044
1044 1084 1085 1045
1045 1085 1086 1046
1046 1086 1087 1047
1047 1087 1088 1048
1048 1088 1089 1049
1049 1089 1090 1050
1050 1090 1091 1051
1051 1091 1092 1052
1052 1092 1093 1053
1053 1093 1094 1054
1054 1094 1095 1055
1055 1095 1096 1056
1056 1096 1097 1057
1057 1097 1098 1058
1058 1098 1099 1059
1059 1099 1100 1060
1060 1100 1101 1061
1061 1101 1102 1062
1062 1102 1103 1063
1063 1103 1104 1064
1064 1104 1105 1065
1065 1105 1106 1066
1066 1106 1107 1067
1067 1107 1108 1068
1068 1108 1109 1069
1069 1109 1110 1070
1070 1110 1111 1071
1071 1111 1112 1072
1072 1112 1113 1073
1073 1113 1114 1074
1074 1114 1115 1075
1075 1115 1116 1076
1076 1116 1117 1077
1077 1117 105 104
27 28 1118 1078
1078 1118 1119 1079
1079 1119 1120 1080
1080 1120 1121 1081
1081 1121 1122 1082
1082 1122 1123 1083
1083 1123 1124 1084
1084 1124 1125 1085
1085 1125 1126 1086
1086 1126 1127 1087
1087 1127 1128 1088
1088 1128 1129 1089
1089 1129 1130 1090
1090 1130 1131 1091
1091 1131 1132 1092
1092 1132 1133 1093
1093 1133 1134 1094
1094 1134 1135 1095
1095 1135 1136 1096
1096 1136 1137 1097
1097 1137 1138 1098
1098 1138 1139 1099
1099 1139 1140 1100
1100 1140 1141 1101
1101 1141 1142 1102
1102 1142 1143 1103
1103 1143 1144 1104
1104 1144 1145 1105
1105 1145 1146 1106
1106 1146 1147 1107
1107 1147 1148 1108
1108 1148 1149 1109
1109 1149 1150 1110
1110 1150 1151 1111
1111 1151 1152 1112
1112 1152 1153 1113
1113 1153 1154 1114
1114 1154 1155 1115
1115 1155 1156 1116
1116 1156 1157 1117
1117 1157 106 105
28 29 1158 1118
1118 1158 1159 1119
1119 1159 1160 1120
1120 1160 1161 1121
1121 1161 1162 1122
1122 1162 1163 1123
1123 1163 1164 1124
1124 1164 1165 1125
1125 1165 1166 1126
1126 1166 1167 1127
1127 1167 1168 1128
1128 1168 1169 1129
1129 1169 1170 1130
1130 1170 1171 1131
1131 1171 1172 1132
1132 1172 1173 1133
1133 1173 1174 1134
1134 1174 1175 1135
1135 1175 1176 1136
1136 1176 1177 1137
1137 1177 1178 1138
1138 1178 1179 1139
1139 1179 1180 1140
1140 1180 1181 1141
1141 1181 1182 1142
1142 1182 1183 1143
1143 1183 1184 1144
1144 1184 1185 1145
1145 1185 1186 1146
1146 1186 1187 1147
1147 1187 1188 1148
1148 1188 1189 1149
1149 1189 1190 1150
1150 1190 1191 1151
1151 1191 1192 1152
1152 1192 1193 1153
1153 1193 1194 1154
1154 1194 1195 1155
1155 1195 1196 1156
1156 1196 1197 1157
1157 1197 107 106
29 30 1198 1158
1158 1198 1199 1159
1159 1199 1200 1160
1160 1200 1201 1161
1161 1201 1202 1162
1162 1202 1203 1163
1163 1203 1204 1164
1164 1204 1205 1165
1165 1205 1206 1166
1166 1206 1207 1167
1167 1207 1208 1168
1168 1208 1209 1169
1169 1209 1210 1170
1170 1210 1211 1171
1171 1211 1212 1172
1172 1212 1213 1173
1173 1213 1214 1174
1174 1214 1215 1175
1175 1215 1216 1176
1176 1216 1217 1177
1177 1217 1218 1178
1178 1218 1219 1179
1179 1219 1220 1180
1180 1220 1221 1181
1181 1221 1222 1182
1182 1222 1223 1183
1183 1223 1224 1184
1184 1224 1225 1185
1185 1225 1226 1186
1186 1226 1227 1187
1187 1227 1228 1188
1188 1228 1229 1189
1189 1229 1230 1190
1190 1230 1231 1191
1191 1231 1232 1192
1192 1232 1233 1193
1193 1233 1234 1194
1194 1234 1235 1195
1195 1235 1236 1196
1196 1236 1237 1197
1197 1237 4 107
30 31 1238 1198
1198 1238 1239 1199
1199 1239 1240 1200
1200 1240 1241 1201
1201 1241 1242 1202
1202 1242 1243 1203
1203 1243 1244 1204
1204 1244 1245 1205
1205 1245 1246 1206
1206 1246 1247 1207
1207 1247 1248 1208
1208 1248 1249 1209
1209 1249 1250 1210
1210 1250 1251 1211
1211 1251 1252 1212
1212 1252 1253 1213
1213 1253 1254 1214
1214 1254 1255 1215
1215 1255 1256 1216
1216 1256 1257 1217
1217 1257 1258 1218
1218 1258 1259 1219
1219 1259 1260 1220
1220 1260 1261 1221
1221 1261 1262 1222
1222 1262 1263 1223
1223 1263 1264 1224
1224 1264 1265 1225
1225 1265 1266 1226
1226 1266 1267 1227
1227 1267 1268 1228
1228 1268 1269 1229
1229 1269 1270 1230
1230 1270 1271 1231
1231 1271 1272 1232
1232 1272 1273 1233
1233 1273 1274 1234
1234 1274 1275 1235
1235 1275 1276 1236
1236 1276 1277 1237
1237 1277 108 4
31 32 1278 1238
1238 1278 1279 1239
1239 1279 1280 1240
1240 1280 1281 1241
1241 1281 1282 1242
1242 1282 1283 1243
1243 1283 1284 1244
1244 1284 1285 1245
1245 1285 1286 1246
1246 1286 1287 1247
1247 1287 1288 1248
1248 1288 1289 1249
1249 1289 1290 1250
1250 1290 1291 1251
1251 1291 1292 1252
1252 1292 1293 1253
1253 1293 1294 1254
1254 1294 1295 1255
1255 1295 1296 1256
1256 1296 1297 1257
1257 1297 1298 1258
1258 1298 1299 1259
1259 1299 1300 1260
1260 1300 1301 1261
1261 1301 1302 1262
1262 1302 1303 1263
1263 1303 1304 1264
1264 1304 1305 1265
1265 1305 1306 1266
1266 1306 1307 1267
1267 1307 1308 1268
1268 1308 1309 1269
1269 1309 1310 1270
1270 1310 1311 1271
1271 1311 1312 1272
1272 1312 1313 1273
1273 1313 1314 1274
1274 1314 1315 1275
1275 1315 1316 1276
1276 1316 1317 1277
1277 1317 109 108
32 33 1318 1278
1278 1318 1319 1279
1279 1319 1320 1280
1280 1320 1321 1281
1281 1321 1322 1282
1282 1322 1323 1283
1283 1323 1324 1284
1284 1324 1325 1285
1285 1325 1326 1286
1286 1326 1327 1287
1287 1327 1328 1288
1288 1328 1329 1289
1289 1329 1330 1290
1290 1330 1331 1291
1291 1331 1332 1292
1292 1332 1333 1293
1293 1333 1334 1294
1294 1334 1335 1295
1295 1335 1336 1296
1296 1336 1337 1297
1297 1337 1338 1298
1298 1338 1339 1299
1299 1339 1340 1300
1300 1340 1341 1301
1301 1341 1342 1302
1302 1342 1343 1303
1303 1343 1344 1304
1304 1344 1345 1305
1305 1345 1346 1306
1306 1346 1347 1307
1307 1347 1348 1308
1308 1348 1349 1309
1309 1349 1350 1310
1310 1350 1351 1311
1311 1351 1352 1312
1312 1352 1353 1313
1313 1353 1354 1314
1314 1354 1355 1315
1315 1355 1356 1316
1316 1356 1357 1317
1317 1357 110 109
33 34 1358 1318
1318 1358 1359 1319
1319 1359 1360 1320
1320 1360 1361 1321
1321 1361 1362 1322
1322 1362 1363 1323
1323 1363 1364 1324
1324 1364 1365 1325
1325 1365 1366 1326
1326 1366 1367 1327
1327 1367 1368 1328
1328 1368 1369 1329
1329 1369 1370 1330
1330 1370 1371 1331
1331 1371 1372 1332
1332 1372 1373 1333
1333 1373 1374 1334
1334 1374 1375 1335
1335 1375 1376 1336
1336 1376 1377 1337
1337 1377 1378 1338
1338 1378 1379 1339
1339 1379 1380 1340
1340 1380 1381 1341
1341 1381 1382 1342
1342 1382 1383 1343
1343 1383 1384 1344
1344 1384 1385 1345
1345 1385 1386 1346
1346 1386 1387 1347
1347 1387 1388 1348
1348 1388 1389 1349
1349 1389 1390 1350
1350 1390 1391 1351
1351 1391 1392 1352
1352 1392 1393 1353
1353 1393 1394 1354
1354 1394 1395 1355
1355 1395 1396 1356
1356 1396 1397 1357
1357 1397 111 110
34 35 1398 1358
1358 1398 1399 1359
1359 1399 1400 1360
1360 1400 1401 1361
1361 1401 1402 1362
1362 1402 1403 1363
1363 1403 1404 1364
1364 1404 1405 1365
1365 1405 1406 1366
1366 1406 1407 1367
1367 1407 1408 1368
1368 1408 1409 1369
1369 1409 1410 1370
1370 1410 1411 1371
1371 1411 1412 1372
1372 1412 1413 1373
1373 1413 1414 1374
1374 1414 1415 1375
1375 1415 1416 1376
1376 1416 1417 1377
1377 1417 1418 1378
1378 1418 1419 1379
1379 1419 1420 1380
1380 1420 1421 1381
1381 1421 1422 1382
1382 1422 1423 1383
1383 1423 1424 1384
1384 1424 1425 1385
1385 1425 1426 1386
1386 1426 1427 1387
1387 1427 1428 1388
1388 1428 1429 1389
1389 1429 1430 1390
1390 1430 1431 1391
1391 1431 1432 1392
1392 1432 1433 1393
1393 1433 1434 1394
1394 1434 1435 1395
1395 1435 1436 1396
1396 1436 1437 1397
1397 1437 112 111
35 36 1438 1398
1398 1438 1439 1399
1399 1439 1440 1400
1400 1440 1441 1401
1401 1441 1442 1402
1402 1442 1443 1403
1403 1443 1444 1404
1404 1444 1445 1405
1405 1445 1446 1406
1406 1446 1447 1407
1407 1447 1448 1408
1408 1448 1449 1409
1409 1449 1450 1410
1410 1450 1451 1411
1411 1451 1452 1412
1412 1452 1453 1413
1413 1453 1454 1414
1414 1454 1455 1415
1415 1455 1456 1416
1416 1456 1457 1417
1417 1457 1458 1418
1418 1458 1459 1419
1419 1459 1460 1420
1420 1460 1461 1421
1421 1461 1462 1422
1422 1462 1463 1423
1423 1463 1464 1424
1424 1464 1465 1425
1425 1465 1466 1426
1426 1466 1467 1427
1427 1467 1468 1428
1428 1468 1469 1429
1429 1469 1470 1430
1430 1470 1471 1431
1431 1471 1472 1432
1432 1472 1473 1433
1433 1473 1474 1434
1434 1474 1475 1435
1435 1475 1476 1436
1436 1476 1477 1437
1437 1477 113 112
36 37 1478 1438
1438 1478 1479 1439
1439 1479 1480 1440
1440 1480 1481 1441
1441 1481 1482 1442
1442 1482 1483 1443
1443 1483 1484 1444
1444 1484 1485 1445
1445 1485 1486 1446
1446 1486 1487 1447
1447 1487 1488 1448
1448 1488 1489 1449
1449 1489 1490 1450
1450 1490 1491 1451
1451 1491 1492 1452
1452 1492 1493 1453
1453 1493 1494 1454
1454 1494 1495 1455
1455 1495 1496 1456
1456 1496 1497 1457
1457 1497 1498 1458
1458 1498 1499 1459
1459 1499 1500 1460
1460 1500 1501 1461
1461 1501 1502 1462
1462 1502 1503 1463
1463 1503 1504 1464
1464 1504 1505 1465
1465 1505 1506 1466
1466 1506 1507 1467
1467 1507 1508 1468
1468 1508 1509 1469
1469 1509 1510 1470
1470 1510 1511 1471
1471 1511 1512 1472
1472 1512 1513 1473
1473 1513 1514 1474
1474 1514 1515 1475
1475 1515 1516 1476
1476 1516 1517 1477
1477 1517 114 113
37 38 1518 1478
1478 1518 1519 1479
1479 1519 1520 1480
1480 1520 1521 1481
1481 1521 1522 1482
1482 1522 1523 1483
1483 1523 1524 1484
1484 1524 1525 1485
1485 1525 1526 1486
1486 1526 1527 1487
1487 1527 1528 1488
1488 1528 1529 1489
1489 1529 1530 1490
1490 1530 1531 1491
1491 1531 1532 1492
1492 1532 1533 1493
1493 1533 1534 1494
1494 1534 1535 1495
1495 1535 1536 1496
1496 1536 1537 1497
1497 1537 1538 1498
1498 1538 1539 1499
1499 1539 1540 1500
1500 1540 1541 1501
1501 1541 1542 1502
1502 1542 1543 1503
1503 1543 1544 1504
1504 1544 1545 1505
1505 1545 1546 1506
1506 1546 1547 1507
1507 1547 1548 1508
1508 1548 1549 1509
1509 1549 1550 1510
1510 1550 1551 1511
1511 1551 1552 1512
1512 1552 1553 1513
1513 1553 1554 1514
1514 1554 1555 1515
1515 1555 1556 1516
1516 1556 1557 1517
1517 1557 115 114
38 39 1558 1518
1518 1558 1559 1519
1519 1559 1560 1520
1520 1560 1561 1521
1521 1561 1562 1522
1522 1562 1563 1523
1523 1563 1564 1524
1524 1564 1565 1525
1525 1565 1566 1526
1526 1566 1567 1527
1527 1567 1568 1528
1528 1568 1569 1529
1529 1569 1570 1530
1530 1570 1571 1531
1531 1571 1572 1532
1532 1572 1573 1533
1533 1573 1574 1534
1534 1574 1575 1535
1535 1575 1576 1536
1536 1576 1577 1537
1537 1577 1578 1538
1538 1578 1579 1539
1539 1579 1580 1540
1540 1580 1581 1541
1541 1581 1582 1542
1542 1582 1583 1543
1543 1583 1584 1544
1544 1584 1585 1545
1545 1585 1586 1546
1546 1586 1587 1547
1547 1587 1588 1548
1548 1588 1589 1549
1549 1589 1590 1550
1550 1590 1591 1551
1551 1591 1592 1552
1552 1592 1593 1553
1553 1593 1594 1554
1554 1594 1595 1555
1555 1595 1596 1556
1556 1596 1597 1557
1557 1597 116 115
39 40 1598 1558
1558 1598 1599 1559
1559 1599 1600 1560
1560 1600 1601 1561
1561 1601 1602 1562
1562 1602 1603 1563
1563 1603 1604 1564
1564 1604 1605 1565
1565 1605 1606 1566
1566 1606 1607 1567
1567 1607 1608 1568
1568 1608 1609 1569
1569 1609 1610 1570
1570 1610 1611 1571
1571 1611 1612 1572
1572 1612 1613 1573
1573 1613 1614 1574
1574 1614 1615 1575
1575 1615 1616 1576
1576 1616 1617 1577
1577 1617 1618 1578
1578 1618 1619 1579
1579 1619 1620 1580
1580 1620 1621 1581
1581 1621 1622 1582
1582 1622 1623 1583
1583 1623 1624 1584
1584 1624 1625 1585
1585 1625 1626 1586
1586 1626 1627 1587
1587 1627 1628 1588
1588 1628 1629 1589
1589 1629 1630 1590
1590 1630 1631 1591
1591 1631 1632 1592
1592 1632 1633 1593
1593 1633 1634 1594
1594 1634 1635 1595
1595 1635 1636 1596
1596 1636 1637 1597
1597 1637 117 116
40 41 1638 1598
1598 1638 1639 1599
1599 1639 1640 1600
1600 1640 1641 1601
1601 1641 1642 1602
1602 1642 1643 1603
1603 1643 1644 1604
1604 1644 1645 1605
1605 1645 1646 1606
1606 1646 1647 1607
1607 1647 1648 1608
1608 1648 1649 1609
1609 1649 1650 1610
1610 1650 1651 1611
1611 1651 1652 1612
1612 1652 1653 1613
1613 1653 1654 1614
1614 1654 1655 1615
1615 1655 1656 1616
1616 1656 1657 1617
1617 1657 1658 1618
1618 1658 1659 1619
1619 1659 1660 1620
1620 1660 1661 1621
1621 1661 1662 1622
1622 1662 1663 1623
1623 1663 1664 1624
1624 1664 1665 1625
1625 1665 1666 1626
1626 1666 1667 1627
1627 1667 1668 1628
1628 1668 1669 1629
1629 1669 1670 1630
1630 1670 1671 1631
1631 1671 1672 1632
1632 1672 1673 1633
1633 1673 1674 1634
1634 1674 1675 1635
1635 1675 1676 1636
1636 1676 1677 1637
1637 1677 118 117
41 42 1678 1638
1638 1678 1679 1639
1639 1679 1680 1640
1640 1680 1681 1641
1641 1681 1682 1642
1642 1682 1683 1643
1643 1683 1684 1644
1644 1684 1685 1645
1645 1685 1686 1646
1646 1686 1687 1647
1647 1687 1688 1648
1648 1688 1689 1649
1649 1689 1690 1650
1650 1690 1691 1651
1651 1691 1692 1652
1652 1692 1693 1653
1653 1693 1694 1654
1654 1694 1695 1655
1655 1695 1696 1656
1656 1696 1697 1657
1657 1697 1698 1658
1658 1698 1699 1659
1659 1699 1700 1660
1660 1700 1701 1661
1661 1701 1702 1662
1662 1702 1703 1663
1663 1703 1704 1664
1664 1704 1705 1665
1665 1705 1706 1666
1666 1706 1707 1667
1667 1707 1708 1668
1668 1708 1709 1669
1669 1709 1710 1670
1670 1710 1711 1671
1671 1711 1712 1672
1672 1712 1713 1673
1673 1713 1714 1674
1674 1714 1715 1675
1675 1715 1716 1676
1676 1716 1717 1677
1677 1717 119 118
42 43 1718 1678
1678 1718 1719 1679
1679 1719 1720 1680
1680 1720 1721 1681
1681 1721 1722 1682
1682 1722 1723 1683
1683 1723 1724 1684
1684 1724 1725 1685
1685 1725 1726 1686
1686 1726 1727 1687
1687 1727 1728 1688
1688 1728 1729 1689
1689 1729 1730 1690
1690 1730 1731 1691
1691 1731 1732 1692
1692 1732 1733 1693
1693 1733 1734 1694
1694 1734 1735 1695
1695 1735 1736 1696
1696 1736 1737 1697
1697 1737 1738 1698
1698 1738 1739 1699
1699 1739 1740 1700
1700 1740 1741 1701
1701 1741 1742 1702
1702 1742 1743 1703
1703 1743 1744 1704
1704 1744 1745 1705
1705 1745 1746 1706
1706 1746 1747 1707
1707 1747 1748 1708
1708 1748 1749 1709
1709 1749 1750 1710
1710 1750 1751 1711
1711 1751 1752 1712
1712 1752 1753 1713
1713 1753 1754 1714
1714 1754 1755 1715
1715 1755 1756 1716
1716 1756 1757 1717
1717 1757 120 119
43 44 1758 1718
1718 1758 1759 1719
1719 1759 1760 1720
1720 1760 1761 1721
1721 1761 1762 1722
1722 1762 1763 1723
1723 1763 1764 1724
1724 1764 1765 1725
1725 1765 1766 1726
1726 1766 1767 1727
1727 1767 1768 1728
1728 1768 1769 1729
1729 1769 1770 1730
1730 1770 1771 1731
1731 1771 1772 1732
1732 1772 1773 1733
1733 1773 1774 1734
1734 1774 1775 1735
1735 1775 1776 1736
1736 1776 1777 1737
1737 1777 1778 1738
1738 1778 1779 1739
1739 1779 1780 1740
1740 1780 1781 1741
1741 1781 1782 1742
1742 1782 1783 1743
1743 1783 1784 1744
1744 1784 1785 1745
1745 1785 1786 1746
1746 1786 1787 1747
1747 1787 1788 1748
1748 1788 1789 1749
1749 1789 1790 1750
1750 1790 1791 1751
1751 1791 1792 1752
1752 1792 1793 1753
1753 1793 1794 1754
1754 1794 1795 1755
1755 1795 1796 1756
1756 1796 1797 1757
1757 1797 121 120
44 45 1798 1758
1758 1798 1799 1759
1759 1799 1800 1760
1760 1800 1801 1761
1761 1801 1802 1762
1762 1802 1803 1763
1763 1803 1804 1764
1764 1804 1805 1765
1765 1805 1806 1766
1766 1806 1807 1767
1767 1807 1808 1768
1768 1808 1809 1769
1769 1809 1810 1770
1770 1810 1811 1771
1771 1811 1812 1772
1772 1812 1813 1773
1773 1813 1814 1774
1774 1814 1815 1775
1775 1815 1816 1776
1776 1816 1817 1777
1777 1817 1818 1778
1778 1818 1819 1779
1779 1819 1820 1780
1780 1820 1821 1781
1781 1821 1822 1782
1782 1822 1823 1783
1783 1823 1824 1784
1784 1824 1825 1785
1785 1825 1826 1786
1786 1826 1827 1787
1787 1827 1828 1788
1788 1828 1829 1789
1789 1829 1830 1790
1790 1830 1831 1791
1791 1831 1832 1792
1792 1832 1833 1793
1793 1833 1834 1794
1794 1834 1835 1795
1795 1835 1836 1796
1796 1836 1837 1797
1797 1837 122 121
45 46 1838 1798
1798 1838 1839 1799
1799 1839 1840 1800
1800 1840 1841 1801
1801 1841 1842 1802
1802 1842 1843 1803
1803 1843 1844 1804
1804 1844 1845 1805
1805 1845 1846 1806
1806 1846 1847 1807
1807 1847 1848 1808
1808 1848 1849 1809
1809 1849 1850 1810
1810 1850 1851 1811
1811 1851 1852 1812
1812 1852 1853 1813
1813 1853 1854 1814
1814 1854 1855 1815
1815 1855 1856 1816
1816 1856 1857 1817
1817 1857 1858 1818
1818 1858 1859 1819
1819 1859 1860 1820
1820 1860 1861 1821
1821 1861 1862 1822
1822 1862 1863 1823
1823 1863 1864 1824
1824 1864 1865 1825
1825 1865 1866 1826
1826 1866 1867 1827
1827 1867 1868 1828
1828 1868 1869 1829
1829 1869 1870 1830
1830 1870 1871 1831
1831 1871 1872 1832
1832 1872 1873 1833
1833 1873 1874 1834
1834 1874 1875 1835
1835 1875 1876 1836
1836 1876 1877 1837
1837 1877 123 122
46 47 1878 1838
1838 1878 1879 1839
1839 1879 1880 1840
1840 1880 1881 1841
1841 1881 1882 1842
1842 1882 1883 1843
1843 1883 1884 1844
1844 1884 1885 1845
1845 1885 1886 1846
1846 1886 1887 1847
1847 1887 1888 1848
1848 1888 1889 1849
1849 1889 1890 1850
1850 1890 1891 1851
1851 1891 1892 1852
1852 1892 1893 1853
1853 1893 1894 1854
1854 1894 1895 1855
1855 1895 1896 1856
1856 1896 1897 1857
1857 1897 1898 1858
1858 1898 1899 1859
1859 1899 1900 1860
1860 1900 1901 1861
1861 1901 1902 1862
1862 1902 1903 1863
1863 1903 1904 1864
1864 1904 1905 1865
1865 1905 1906 1866
1866 1906 1907 1867
1867 1907 1908 1868
1868 1908 1909 1869
1869 1909 1910 1870
1870 1910 1911 1871
1871 1911 1912 1872
1872 1912 1913 1873
1873 1913 1914 1874
1874 1914 1915 1875
1875 1915 1916 1876
1876 1916 1917 1877
1877 1917 124 123
47 48 1918 1878
1878 1918 1919 1879
1879 1919 1920 1880
1880 1920 1921 1881
1881 1921 1922 1882
1882 1922 1923 1883
1883 1923 1924 1884
1884 1924 1925 1885
1885 1925 1926 1886
1886 1926 1927 1887
1887 1927 1928 1888
1888 1928 1929 1889
1889 1929 1930 1890
1890 1930 1931 1891
1891 1931 1932 1892
1892 1932 1933 1893
1893 1933 1934 1894
1894 1934 1935 1895
1895 1935 1936 1896
1896 1936 1937 1897
1897 1937 1938 1898
1898 1938 1939 1899
1899 1939 1940 1900
1900 1940 1941 1901
1901 1941 1942 1902
1902 1942 1943 1903
1903 1943 1944 1904
1904 1944 1945 1905
1905 1945 1946 1906
1906 1946 1947 1907
1907 1947 1948 1908
1908 1948 1949 1909
1909 1949 1950 1910
1910 1950 1951 1911
1911 1951 1952 1912
1912 1952 1953 1913
1913 1953 1954 1914
1914 1954 1955 1915
1915 1955 1956 1916
1916 1956 1957 1917
1917 1957 125 124
48 49 1958 1918
1918 1958 1959 1919
1919 1959 1960 1920
1920 1960 1961 1921
1921 1961 1962 1922
1922 1962 1963 1923
1923 1963 1964 1924
1924 1964 1965 1925
1925 1965 1966 1926
1926 1966 1967 1927
1927 1967 1968 1928
1928 1968 1969 1929
1929 1969 1970 1930
1930 1970 1971 1931
1931 1971 1972 1932
1932 1972 1973 1933
1933 1973 1974 1934
1934 1974 1975 1935
1935 1975 1976 1936
1936 1976 1977 1937
1937 1977 1978 1938
1938 1978 1979 1939
1939 1979 1980 1940
1940 1980 1981 1941
1941 1981 1982 1942
1942 1982 1983 1943
1943 1983 1984 1944
1944 1984 1985 1945
1945 1985 1986 1946
1946 1986 1987 1947
1947 1987 1988 1948
1948 1988 1989 1949
1949 1989 1990 1950
1950 1990 1991 1951
1951 1991 1992 1952
1952 1992 1993 1953
1953 1993 1994 1954
1954 1994 1995 1955
1955 1995 1996 1956
1956 1996 1997 1957
1957 1997 126 125
49 1 1998 1958
1958 1998 1999 1959
1959 1999 2000 1960
1960 2000 2001 1961
1961 2001 2002 1962
1962 2002 2003 1963
1963 2003 2004 1964
1964 2004 2005 1965
1965 2005 2006 1966
1966 2006 2007 1967
1967 2007 2008 1968
1968 2008 2009 1969
1969 2009 2010 1970
1970 2010 2011 1971
1971 2011 2012 1972
1972 2012 2013 1973
1973 2013 2014 1974
1974 2014 2015 1975
1975 2015 2016 1976
1976 2016 2017 1977
1977 2017 2018 1978
1978 2018 2019 1979
1979 2019 2020 1980
1980 2020 2021 1981
1981 2021 2022 1982
1982 2022 2023 1983
1983 2023 2024 1984
1984 2024 2025 1985
1985 2025 2026 1986
1986 2026 2027 1987
1987 2027 2028 1988
1988 2028 2029 1989
1989 2029 2030 1990
1990 2030 2031 1991
1991 2031 2032 1992
1992 2032 2033 1993
1993 2033 2034 1994
1994 2034 2035 1995
1995 2035 2036 1996
1996 2036 2037 1997
1997 2037 127 126
1 50 2038 1998
1998 2038 2039 1999
1999 2039 2040 2000
2000 2040 2041 2001
2001 2041 2042 2002
2002 2042 2043 2003
2003 2043 2044 2004
2004 2044 2045 2005
2005 2045 2046 2006
2006 2046 2047 2007
2007 2047 2048 2008
2008 2048 2049 2009
2009 2049 2050 2010
2010 2050 2051 2011
2011 2051 2052 2012
2012 2052 2053 2013
2013 2053 2054 2014
2014 2054 2055 2015
2015 2055 2056 2016
2016 2056 2057 2017
2017 2057 2058 2018
2018 2058 2059 2019
2019 2059 2060 2020
2020 2060 2061 2021
2021 2061 2062 2022
2022 2062 2063 2023
2023 2063 2064 2024
2024 2064 2065 2025
2025 2065 2066 2026
2026 2066 2067 2027
2027 2067 2068 2028
2028 2068 2069 2029
2029 2069 2070 2030
2030 2070 2071 2031
2031 2071 2072 2032
2032 2072 2073 2033
2033 2073 2074 2034
2034 2074 2075 2035
2035 2075 2076 2036
2036 2076 2077 2037
2037 2077 128 127
50 51 2078 2038
2038 2078 2079 2039
2039 2079 2080 2040
2040 2080 2081 2041
2041 2081 2082 2042
2042 2082 2083 2043
2043 2083 2084 2044
2044 2084 2085 2045
2045 2085 2086 2046
2046 2086 2087 2047
2047 2087 2088 2048
2048 2088 2089 2049
2049 2089 2090 2050
2050 2090 2091 2051
2051 2091 2092 2052
2052 2092 2093 2053
2053 2093 2094 2054
2054 2094 2095 2055
2055 2095 2096 2056
2056 2096 2097 2057
2057 2097 2098 2058
2058 2098 2099 2059
2059 2099 2100 2060
2060 2100 2101 2061
2061 2101 2102 2062
2062 2102 2103 2063
2063 2103 2104 2064
2064 2104 2105 2065
2065 2105 2106 2066
2066 2106 2107 2067
2067 2107 2108 2068
2068 2108 2109 2069
2069 2109 2110 2070
2070 2110 2111 2071
2071 2111 2112 2072
2072 2112 2113 2073
2073 2113 2114 2074
2074 2114 2115 2075
2075 2115 2116 2076
2076 2116 2117 2077
2077 2117 129 128
51 52 2118 2078
2078 2118 2119 2079
2079 2119 2120 2080
2080 2120 2121 2081
2081 2121 2122 2082
2082 2122 2123 2083
2083 2123 2124 2084
2084 2124 2125 2085
2085 2125 2126 2086
2086 2126 2127 2087
2087 2127 2128 2088
2088 2128 2129 2089
2089 2129 2130 2090
2090 2130 2131 2091
2091 2131 2132 2092
2092 2132 2133 2093
2093 2133 2134 2094
2094 2134 2135 2095
2095 2135 2136 2096
2096 2136 2137 2097
2097 2137 2138 2098
2098 2138 2139 2099
2099 2139 2140 2100
2100 2140 2141 2101
2101 2141 2142 2102
2102 2142 2143 2103
2103 2143 2144 2104
2104 2144 2145 2105
2105 2145 2146 2106
2106 2146 2147 2107
2107 2147 2148 2108
2108 2148 2149 2109
2109 2149 2150 2110
2110 2150 2151 2111
2111 2151 2152 2112
2112 2152 2153 2113
2113 2153 2154 2114
2114 2154 2155 2115
2115 2155 2156 2116
2116 2156 2157 2117
2117 2157 130 129
52 53 2158 2118
2118 2158 2159 2119
2119 2159 2160 2120
2120 2160 2161 2121
2121 2161 2162 2122
2122 2162 2163 2123
2123 2163 2164 2124
2124 2164 2165 2125
2125 2165 2166 2126
2126 2166 2167 2127
2127 2167 2168 2128
2128 2168 2169 2129
2129 2169 2170 2130
2130 2170 2171 2131
2131 2171 2172 2132
2132 2172 2173 2133
2133 2173 2174 2134
2134 2174 2175 2135
2135 2175 2176 2136
2136 2176 2177 2137
2137 2177 2178 2138
2138 2178 2179 2139
2139 2179 2180 2140
2140 2180 2181 2141
2141 2181 2182 2142
2142 2182 2183 2143
2143 2183 2184 2144
2144 2184 2185 2145
2145 2185 2186 2146
2146 2186 2187 2147
2147 2187 2188 2148
2148 2188 2189 2149
2149 2189 2190 2150
2150 2190 2191 2151
2151 2191 2192 2152
2152 2192 2193 2153
2153 2193 2194 2154
2154 2194 2195 2155
2155 2195 2196 2156
2156 2196 2197 2157
2157 2197 131 130
53 54 2198 2158
2158 2198 2199 2159
2159 2199 2200 2160
2160 2200 2201 2161
2161 2201 2202 2162
2162 2202 2203 2163
2163 2203 2204 2164
2164 2204 2205 2165
2165 2205 2206 2166
2166 2206 2207 2167
2167 2207 2208 2168
2168 2208 2209 2169
2169 2209 2210 2170
2170 2210 2211 2171
2171 2211 2212 2172
2172 2212 2213 2173
2173 2213 2214 2174
2174 2214 2215 2175
2175 2215 2216 2176
2176 2216 2217 2177
2177 2217 2218 2178
2178 2218 2219 2179
2179 2219 2220 2180
2180 2220 2221 2181
2181 2221 2222 2182
2182 2222 2223 2183
2183 2223 2224 2184
2184 2224 2225 2185
2185 2225 2226 2186
2186 2226 2227 2187
2187 2227 2228 2188
2188 2228 2229 2189
2189 2229 2230 2190
2190 2230 2231 2191
2191 2231 2232 2192
2192 2232 2233 2193
2193 2233 2234 2194
2194 2234 2235 2195
2195 2235 2236 2196
2196 2236 2237 2197
2197 2237 132 131
54 55 2238 2198
2198 2238 2239 2199
2199 2239 2240 2200
2200 2240 2241 2201
2201 2241 2242 2202
2202 2242 2243 2203
2203 2243 2244 2204
2204 2244 2245 2205
2205 2245 2246 2206
2206 2246 2247 2207
2207 2247 2248 2208
2208 2248 2249 2209
2209 2249 2250 2210
2210 2250 2251 2211
2211 2251 2252 2212
2212 2252 2253 2213
2213 2253 2254 2214
2214 2254 2255 2215
2215 2255 2256 2216
2216 2256 2257 2217
2217 2257 2258 2218
2218 2258 2259 2219
2219 2259 2260 2220
2220 2260 2261 2221
2221 2261 2262 2222
2222 2262 2263 2223
2223 2263 2264 2224
2224 2264 2265 2225
2225 2265 2266 2226
2226 2266 2267 2227
2227 2267 2268 2228
2228 2268 2269 2229
2229 2269 2270 2230
2230 2270 2271 2231
2231 2271 2272 2232
2232 2272 2273 2233
2233 2273 2274 2234
2234 2274 2275 2235
2235 2275 2276 2236
2236 2276 2277 2237
2237 2277 133 132
55 56 2278 2238
2238 2278 2279 2239
2239 2279 2280 2240
2240 2280 2281 2241
2241 2281 2282 2242
2242 2282 2283 2243
2243 2283 2284 2244
2244 2284 2285 2245
2245 2285 2286 2246
2246 2286 2287 2247
2247 2287 2288 2248
2248 2288 2289 2249
2249 2289 2290 2250
2250 2290 2291 2251
2251 2291 2292 2252
2252 2292 2293 2253
2253 2293 2294 2254
2254 2294 2295 2255
2255 2295 2296 2256
2256 2296 2297 2257
2257 2297 2298 2258
2258 2298 2299 2259
2259 2299 2300 2260
2260 2300 2301 2261
2261 2301 2302 2262
2262 2302 2303 2263
2263 2303 2304 2264
2264 2304 2305 2265
2265 2305 2306 2266
2266 2306 2307 2267
2267 2307 2308 2268
2268 2308 2309 2269
2269 2309 2310 2270
2270 2310 2311 2271
2271 2311 2312 2272
2272 2312 2313 2273
2273 2313 2314 2274
2274 2314 2315 2275
2275 2315 2316 2276
2276 2316 2317 2277
2277 2317 134 133
56 57 2318 2278
2278 2318 2319 2279
2279 2319 2320 2280
2280 2320 2321 2281
2281 2321 2322 2282
2282 2322 2323 2283
2283 2323 2324 2284
2284 2324 2325 2285
2285 2325 2326 2286
2286 2326 2327 2287
2287 2327 2328 2288
2288 2328 2329 2289
2289 2329 2330 2290
2290 2330 2331 2291
2291 2331 2332 2292
2292 2332 2333 2293
2293 2333 2334 2294
2294 2334 2335 2295
2295 2335 2336 2296
2296 2336 2337 2297
2297 2337 2338 2298
2298 2338 2339 2299
2299 2339 2340 2300
2300 2340 2341 2301
2301 2341 2342 2302
2302 2342 2343 2303
2303 2343 2344 2304
2304 2344 2345 2305
2305 2345 2346 2306
2306 2346 2347 2307
2307 2347 2348 2308
2308 2348 2349 2309
2309 2349 2350 2310
2310 2350 2351 2311
2311 2351 2352 2312
2312 2352 2353 2313
2313 2353 2354 2314
2314 2354 2355 2315
2315 2355 2356 2316
2316 2356 2357 2317
2317 2357 135 134
57 58 2358 2318
2318 2358 2359 2319
2319 2359 2360 2320
2320 2360 2361 2321
2321 2361 2362 2322
2322 2362 2363 2323
2323 2363 2364 2324
2324 2364 2365 2325
2325 2365 2366 2326
2326 2366 2367 2327
2327 2367 2368 2328
2328 2368 2369 2329
2329 2369 2370 2330
2330 2370 2371 2331
2331 2371 2372 2332
2332 2372 2373 2333
2333 2373 2374 2334
2334 2374 2375 2335
2335 2375 2376 2336
2336 2376 2377 2337
2337 2377 2378 2338
2338 2378 2379 2339
2339 2379 2380 2340
2340 2380 2381 2341
2341 2381 2382 2342
2342 2382 2383 2343
2343 2383 2384 2344
2344 2384 2385 2345
2345 2385 2386 2346
2346 2386 2387 2347
2347 2387 2388 2348
2348 2388 2389 2349
2349 2389 2390 2350
2350 2390 2391 2351
2351 2391 2392 2352
2352 2392 2393 2353
2353 2393 2394 2354
2354 2394 2395 2355
2355 2395 2396 2356
2356 2396 2397 2357
2357 2397 136 135
58 59 2398 2358
2358 2398 2399 2359
2359 2399 2400 2360
2360 2400 2401 2361
2361 2401 2402 2362
2362 2402 2403 2363
2363 2403 2404 2364
2364 2404 2405 2365
2365 2405 2406 2366
2366 2406 2407 2367
2367 2407 2408 2368
2368 2408 2409 2369
2369 2409 2410 2370
2370 2410 2411 2371
2371 2411 2412 2372
2372 2412 2413 2373
2373 2413 2414 2374
2374 2414 2415 2375
2375 2415 2416 2376
2376 2416 2417 2377
2377 2417 2418 2378
2378 2418 2419 2379
2379 2419 2420 2380
2380 2420 2421 2381
2381 2421 2422 2382
2382 2422 2423 2383
2383 2423 2424 2384
2384 2424 2425 2385
2385 2425 2426 2386
2386 2426 2427 2387
2387 2427 2428 2388
2388 2428 2429 2389
2389 2429 2430 2390
2390 2430 2431 2391
2391 2431 2432 2392
2392 2432 2433 2393
2393 2433 2434 2394
2394 2434 2435 2395
2395 2435 2436 2396
2396 2436 2437 2397
2397 2437 137 136
59 60 2438 2398
2398 2438 2439 2399
2399 2439 2440 2400
2400 2440 2441 2401
2401 2441 2442 2402
2402 2442 2443 2403
2403 2443 2444 2404
2404 2444 2445 2405
2405 2445 2446 2406
2406 2446 2447 2407
2407 2447 2448 2408
2408 2448 2449 2409
2409 2449 2450 2410
2410 2450 2451 2411
2411 2451 2452 2412
2412 2452 2453 2413
2413 2453 2454 2414
2414 2454 2455 2415
2415 2455 2456 2416
2416 2456 2457 2417
2417 2457 2458 2418
2418 2458 2459 2419
2419 2459 2460 2420
2420 2460 2461 2421
2421 2461 2462 2422
2422 2462 2463 2423
2423 2463 2464 2424
2424 2464 2465 2425
2425 2465 2466 2426
2426 2466 2467 2427
2427 2467 2468 2428
2428 2468 2469 2429
2429 2469 2470 2430
2430 2470 2471 2431
2431 2471 2472 2432
2432 2472 2473 2433
2433 2473 2474 2434
2434 2474 2475 2435
2435 2475 2476 2436
2436 2476 2477 2437
2437 2477 138 137
60 61 2478 2438
2438 2478 2479 2439
2439 2479 2480 2440
2440 2480 2481 2441
2441 2481 2482 2442
2442 2482 2483 2443
2443 2483 2484 2444
2444 2484 2485 2445
2445 2485 2486 2446
2446 2486 2487 2447
2447 2487 2488 2448
2448 2488 2489 2449
2449 2489 2490 2450
2450 2490 2491 2451
2451 2491 2492 2452
2452 2492 2493 2453
2453 2493 2494 2454
2454 2494 2495 2455
2455 2495 2496 2456
2456 2496 2497 2457
2457 2497 2498 2458
2458 2498 2499 2459
2459 2499 2500 2460
2460 2500 2501 2461
2461 2501 2502 2462
2462 2502 2503 2463
2463 2503 2504 2464
2464 2504 2505 2465
2465 2505 2506 2466
2466 2506 2507 2467
2467 2507 2508 2468
2468 2508 2509 2469
2469 2509 2510 2470
2470 2510 2511 2471
2471 2511 2512 2472
2472 2512 2513 2473
2473 2513 2514 2474
2474 2514 2515 2475
2475 2515 2516 2476
2476 2516 2517 2477
2477 2517 139 138
61 62 2518 2478
2478 2518 2519 2479
2479 2519 2520 2480
2480 2520 2521 2481
2481 2521 2522 2482
2482 2522 2523 2483
2483 2523 2524 2484
2484 2524 2525 2485
2485 2525 2526 2486
2486 2526 2527 2487
2487 2527 2528 2488
2488 2528 2529 2489
2489 2529 2530 2490
2490 2530 2531 2491
2491 2531 2532 2492
2492 2532 2533 2493
2493 2533 2534 2494
2494 2534 2535 2495
2495 2535 2536 2496
2496 2536 2537 2497
2497 2537 2538 2498
2498 2538 2539 2499
2499 2539 2540 2500
2500 2540 2541 2501
2501 2541 2542 2502
2502 2542 2543 2503
2503 2543 2544 2504
2504 2544 2545 2505
2505 2545 2546 2506
2506 2546 2547 2507
2507 2547 2548 2508
2508 2548 2549 2509
2509 2549 2550 2510
2510 2550 2551 2511
2511 2551 2552 2512
2512 2552 2553 2513
2513 2553 2554 2514
2514 2554 2555 2515
2515 2555 2556 2516
2516 2556 2557 2517
2517 2557 140 139
62 63 2558 2518
2518 2558 2559 2519
2519 2559 2560 2520
2520 2560 2561 2521
2521 2561 2562 2522
2522 2562 2563 2523
2523 2563 2564 2524
2524 2564 2565 2525
2525 2565 2566 2526
2526 2566 2567 2527
2527 2567 2568 2528
2528 2568 2569 2529
2529 2569 2570 2530
2530 2570 2571 2531
2531 2571 2572 2532
2532 2572 2573 2533
2533 2573 2574 2534
2534 2574 2575 2535
2535 2575 2576 2536
2536 2576 2577 2537
2537 2577 2578 2538
2538 2578 2579 2539
2539 2579 2580 2540
2540 2580 2581 2541
2541 2581 2582 2542
2542 2582 2583 2543
2543 2583 2584 2544
2544 2584 2585 2545
2545 2585 2586 2546
2546 2586 2587 2547
2547 2587 2588 2548
2548 2588 2589 2549
2549 2589 2590 2550
2550 2590 2591 2551
2551 2591 2592 2552
2552 2592 2593 2553
2553 2593 2594 2554
2554 2594 2595 2555
2555 2595 2596 2556
2556 2596 2597 2557
2557 2597 141 140
63 64 2598 2558
2558 2598 2599 2559
2559 2599 2600 2560
2560 2600 2601 2561
2561 2601 2602 2562
2562 2602 2603 2563
2563 2603 2604 2564
2564 2604 2605 2565
2565 2605 2606 2566
2566 2606 2607 2567
2567 2607 2608 2568
2568 2608 2609 2569
2569 2609 2610 2570
2570 2610 2611 2571
2571 2611 2612 2572
2572 2612 2613 2573
2573 2613 2614 2574
2574 2614 2615 2575
2575 2615 2616 2576
2576 2616 2617 2577
2577 2617 2618 2578
2578 2618 2619 2579
2579 2619 2620 2580
2580 2620 2621 2581
2581 2621 2622 2582
2582 2622 2623 2583
2583 2623 2624 2584
2584 2624 2625 2585
2585 2625 2626 2586
2586 2626 2627 2587
2587 2627 2628 2588
2588 2628 2629 2589
2589 2629 2630 2590
2590 2630 2631 2591
2591 2631 2632 2592
2592 2632 2633 2593
2593 2633 2634 2594
2594 2634 2635 2595
2595 2635 2636 2596
2596 2636 2637 2597
2597 2637 142 141
64 65 2638 2598
2598 2638 2639 2599
2599 2639 2640 2600
2600 2640 2641 2601
2601 2641 2642 2602
2602 2642 2643 2603
2603 2643 2644 2604
2604 2644 2645 2605
2605 2645 2646 2606
2606 2646 2647 2607
2607 2647 2648 2608
2608 2648 2649 2609
2609 2649 2650 2610
2610 2650 2651 2611
2611 2651 2652 2612
2612 2652 2653 2613
2613 2653 2654 2614
2614 2654 2655 2615
2615 2655 2656 2616
2616 2656 2657 2617
2617 2657 2658 2618
2618 2658 2659 2619
2619 2659 2660 2620
2620 2660 2661 2621
2621 2661 2662 2622
2622 2662 2663 2623
2623 2663 2664 2624
2624 2664 2665 2625
2625 2665 2666 2626
2626 2666 2667 2627
2627 2667 2668 2628
2628 2668 2669 2629
2629 2669 2670 2630
2630 2670 2671 2631
2631 2671 2672 2632
2632 2672 2673 2633
2633 2673 2674 2634
2634 2674 2675 2635
2635 2675 2676 2636
2636 2676 2677 2637
2637 2677 143 142
65 66 2678 2638
2638 2678 2679 2639
2639 2679 2680 2640
2640 2680 2681 2641
2641 2681 2682 2642
2642 2682 2683 2643
2643 2683 2684 2644
2644 2684 2685 2645
2645 2685 2686 2646
2646 2686 2687 2647
2647 2687 2688 2648
2648 2688 2689 2649
2649 2689 2690 2650
2650 2690 2691 2651
2651 2691 2692 2652
2652 2692 2693 2653
2653 2693 2694 2654
2654 2694 2695 2655
2655 2695 2696 2656
2656 2696 2697 2657
2657 2697 2698 2658
2658 2698 2699 2659
2659 2699 2700 2660
2660 2700 2701 2661
2661 2701 2702 2662
2662 2702 2703 2663
2663 2703 2704 2664
2664 2704 2705 2665
2665 2705 2706 2666
2666 2706 2707 2667
2667 2707 2708 2668
2668 2708 2709 2669
2669 2709 2710 2670
2670 2710 2711 2671
2671 2711 2712 2672
2672 2712 2713 2673
2673 2713 2714 2674
2674 2714 2715 2675
2675 2715 2716 2676
2676 2716 2717 2677
2677 2717 144 143
66 67 2718 2678
2678 2718 2719 2679
2679 2719 2720 2680
2680 2720 2721 2681
2681 2721 2722 2682
2682 2722 2723 2683
2683 2723 2724 2684
2684 2724 2725 2685
2685 2725 2726 2686
2686 2726 2727 2687
2687 2727 2728 2688
2688 2728 2729 2689
2689 2729 2730 2690
2690 2730 2731 2691
2691 2731 2732 2692
2692 2732 2733 2693
2693 2733 2734 2694
2694 2734 2735 2695
2695 2735 2736 2696
2696 2736 2737 2697
2697 2737 2738 2698
2698 2738 2739 2699
2699 2739 2740 2700
2700 2740 2741 2701
2701 2741 2742 2702
2702 2742 2743 2703
2703 2743 2744 2704
2704 2744 2745 2705
2705 2745 2746 2706
2706 2746 2747 2707
2707 2747 2748 2708
2708 2748 2749 2709
2709 2749 2750 2710
2710 2750 2751 2711
2711 2751 2752 2712
2712 2752 2753 2713
2713 2753 2754 2714
2714 2754 2755 2715
2715 2755 2756 2716
2716 2756 2757 2717
2717 2757 145 144
67 68 2758 2718
2718 2758 2759 2719
2719 2759 2760 2720
2720 2760 2761 2721
2721 2761 2762 2722
2722 2762 2763 2723
2723 2763 2764 2724
2724 2764 2765 2725
2725 2765 2766 2726
2726 2766 2767 2727
2727 2767 2768 2728
2728 2768 2769 2729
2729 2769 2770 2730
2730 2770 2771 2731
2731 2771 2772 2732
2732 2772 2773 2733
2733 2773 2774 2734
2734 2774 2775 2735
2735 2775 2776 2736
2736 2776 2777 2737
2737 2777 2778 2738
2738 2778 2779 2739
2739 2779 2780 2740
2740 2780 2781 2741
2741 2781 2782 2742
2742 2782 2783 2743
2743 2783 2784 2744
2744 2784 2785 2745
2745 2785 2786 2746
2746 2786 2787 2747
2747 2787 2788 2748
2748 2788 2789 2749
2749 2789 2790 2750
2750 2790 2791 2751
2751 2791 2792 2752
2752 2792 2793 2753
2753 2793 2794 2754
2754 2794 2795 2755
2755 2795 2796 2756
2756 2796 2797 2757
2757 2797 146 145
68 69 2798 2758
2758 2798 2799 2759
2759 2799 2800 2760
2760 2800 2801 2761
2761 2801 2802 2762
2762 2802 2803 2763
2763 2803 2804 2764
2764 2804 2805 2765
2765 2805 2806 2766
2766 2806 2807 2767
2767 2807 2808 2768
2768 2808 2809 2769
2769 2809 2810 2770
2770 2810 2811 2771
2771 2811 2812 2772
2772 2812 2813 2773
2773 2813 2814 2774
2774 2814 2815 2775
2775 2815 2816 2776
2776 2816 2817 2777
2777 2817 2818 2778
2778 2818 2819 2779
2779 2819 2820 2780
2780 2820 2821 2781
2781 2821 2822 2782
2782 2822 2823 2783
2783 2823 2824 2784
2784 2824 2825 2785
2785 2825 2826 2786
2786 2826 2827 2787
2787 2827 2828 2788
2788 2828 2829 2789
2789 2829 2830 2790
2790 2830 2831 2791
2791 2831 2832 2792
2792 2832 2833 2793
2793 2833 2834 2794
2794 2834 2835 2795
2795 2835 2836 2796
2796 2836 2837 2797
2797 2837 5 146
69 70 2838 2798
2798 2838 2839 2799
2799 2839 2840 2800
2800 2840 2841 2801
2801 2841 2842 2802
2802 2842 2843 2803
2803 2843 2844 2804
2804 2844 2845 2805
2805 2845 2846 2806
2806 2846 2847 2807
2807 2847 2848 2808
2808 2848 2849 2809
2809 2849 2850 2810
2810 2850 2851 2811
2811 2851 2852 2812
2812 2852 2853 2813
2813 2853 2854 2814
2814 2854 2855 2815
2815 2855 2856 2816
2816 2856 2857 2817
2817 2857 2858 2818
2818 2858 2859 2819
2819 2859 2860 2820
2820 2860 2861 2821
2821 2861 2862 2822
2822 2862 2863 2823
2823 2863 2864 2824
2824 2864 2865 2825
2825 2865 2866 2826
2826 2866 2867 2827
2827 2867 2868 2828
2828 2868 2869 2829
2829 2869 2870 2830
2830 2870 2871 2831
2831 2871 2872 2832
2832 2872 2873 2833
2833 2873 2874 2834
2834 2874 2875 2835
2835 2875 2876 2836
2836 2876 2877 2837
2837 2877 147 5
70 71 2878 2838
2838 2878 2879 2839
2839 2879 2880 2840
2840 2880 2881 2841
2841 2881 2882 2842
2842 2882 2883 2843
2843 2883 2884 2844
2844 2884 2885 2845
2845 2885 2886 2846
2846 2886 2887 2847
2847 2887 2888 2848
2848 2888 2889 2849
2849 2889 2890 2850
2850 2890 2891 2851
2851 2891 2892 2852
2852 2892 2893 2853
2853 2893 2894 2854
2854 2894 2895 2855
2855 2895 2896 2856
2856 2896 2897 2857
2857 2897 2898 2858
2858 2898 2899 2859
2859 2899 2900 2860
2860 2900 2901 2861
2861 2901 2902 2862
2862 2902 2903 2863
2863 2903 2904 2864
2864 2904 2905 2865
2865 2905 2906 2866
2866 2906 2907 2867
2867 2907 2908 2868
2868 2908 2909 2869
2869 2909 2910 2870
2870 2910 2911 2871
2871 2911 2912 2872
2872 2912 2913 2873
2873 2913 2914 2874
2874 2914 2915 2875
2875 2915 2916 2876
2876 2916 2917 2877
2877 2917 148 147
71 72 2918 2878
2878 2918 2919 2879
2879 2919 2920 2880
2880 2920 2921 2881
2881 2921 2922 2882
2882 2922 2923 2883
2883 2923 2924 2884
2884 2924 2925 2885
2885 2925 2926 2886
2886 2926 2927 2887
2887 2927 2928 2888
2888 2928 2929 2889
2889 2929 2930 2890
2890 2930 2931 2891
2891 2931 2932 2892
2892 2932 2933 2893
2893 2933 2934 2894
2894 2934 2935 2895
2895 2935 2936 2896
2896 2936 2937 2897
2897 2937 2938 2898
2898 2938 2939 2899
2899 2939 2940 2900
2900 2940 2941 2901
2901 2941 2942 2902
2902 2942 2943 2903
2903 2943 2944 2904
2904 2944 2945 2905
2905 2945 2946 2906
2906 2946 2947 2907
2907 2947 2948 2908
2908 2948 2949 2909
2909 2949 2950 2910
2910 2950 2951 2911
2911 2951 2952 2912
2912 2952 2953 2913
2913 2953 2954 2914
2914 2954 2955 2915
2915 2955 2956 2916
2916 2956 2957 2917
2917 2957 149 148
72 73 2958 2918
2918 2958 2959 2919
2919 2959 2960 2920
2920 2960 2961 2921
2921 2961 2962 2922
2922 2962 2963 2923
2923 2963 2964 2924
2924 2964 2965 2925
2925 2965 2966 2926
2926 2966 2967 2927
2927 2967 2968 2928
2928 2968 2969 2929
2929 2969 2970 2930
2930 2970 2971 2931
2931 2971 2972 2932
2932 2972 2973 2933
2933 2973 2974 2934
2934 2974 2975 2935
2935 2975 2976 2936
2936 2976 2977 2937
2937 2977 2978 2938
2938 2978 2979 2939
2939 2979 2980 2940
2940 2980 2981 2941
2941 2981 2982 2942
2942 2982 2983 2943
2943 2983 2984 2944
2944 2984 2985 2945
2945 2985 2986 2946
2946 2986 2987 2947
2947 2987 2988 2948
2948 2988 2989 2949
2949 2989 2990 2950
2950 2990 2991 2951
2951 2991 2992 2952
2952 2992 2993 2953
2953 2993 2994 2954
2954 2994 2995 2955
2955 2995 2996 2956
2956 2996 2997 2957
2957 2997 150 149
73 74 2998 2958
2958 2998 2999 2959
2959 2999 3000 2960
2960 3000 3001 2961
2961 3001 3002 2962
2962 3002 3003 2963
2963 3003 3004 2964
2964 3004 3005 2965
2965 3005 3006 2966
2966 3006 3007 2967
2967 3007 3008 2968
2968 3008 3009 2969
2969 3009 3010 2970
2970 3010 3011 2971
2971 3011 3012 2972
2972 3012 3013 2973
2973 3013 3014 2974
2974 3014 3015 2975
2975 3015 3016 2976
2976 3016 3017 2977
2977 3017 3018 2978
2978 3018 3019 2979
2979 3019 3020 2980
2980 3020 3021 2981
2981 3021 3022 2982
2982 3022 3023 2983
2983 3023 3024 2984
2984 3024 3025 2985
2985 3025 3026 2986
2986 3026 3027 2987
2987 3027 3028 2988
2988 3028 3029 2989
2989 3029 3030 2990
2990 3030 3031 2991
2991 3031 3032 2992
2992 3032 3033 2993
2993 3033 3034 2994
2994 3034 3035 2995
2995 3035 3036 2996
2996 3036 3037 2997
2997 3037 151 150
74 75 3038 2998
2998 3038 3039 2999
2999 3039 3040 3000
3000 3040 3041 3001
3001 3041 3042 3002
3002 3042 3043 3003
3003 3043 3044 3004
3004 3044 3045 3005
3005 3045 3046 3006
3006 3046 3047 3007
3007 3047 3048 3008
3008 3048 3049 3009
3009 3049 3050 3010
3010 3050 3051 3011
3011 3051 3052 3012
3012 3052 3053 3013
3013 3053 3054 3014
3014 3054 3055 3015
3015 3055 3056 3016
3016 3056 3057 3017
3017 3057 3058 3018
3018 3058 3059 3019
3019 3059 3060 3020
3020 3060 3061 3021
3021 3061 3062 3022
3022 3062 3063 3023
3023 3063 3064 3024
3024 3064 3065 3025
3025 3065 3066 3026
3026 3066 3067 3027
3027 3067 3068 3028
3028 3068 3069 3029
3029 3069 3070 3030
3030 3070 3071 3031
3031 3071 3072 3032
3032 3072 3073 3033
3033 3073 3074 3034
3034 3074 3075 3035
3035 3075 3076 3036
3036 3076 3077 3037
3037 3077 152 151
75 76 3078 3038
3038 3078 3079 3039
3039 3079 3080 3040
3040 3080 3081 3041
3041 3081 3082 3042
3042 3082 3083 3043
3043 3083 3084 3044
3044 3084 3085 3045
3045 3085 3086 3046
3046 3086 3087 3047
3047 3087 3088 3048
3048 3088 3089 3049
3049 3089 3090 3050
3050 3090 3091 3051
3051 3091 3092 3052
3052 3092 3093 3053
3053 3093 3094 3054
3054 3094 3095 3055
3055 3095 3096 3056
3056 3096 3097 3057
3057 3097 3098 3058
3058 3098 3099 3059
3059 3099 3100 3060
3060 3100 3101 3061
3061 3101 3102 3062
3062 3102 3103 3063
3063 3103 3104 3064
3064 3104 3105 3065
3065 3105 3106 3066
3066 3106 3107 3067
3067 3107 3108 3068
3068 3108 3109 3069
3069 3109 3110 3070
3070 3110 3111 3071
3071 3111 3112 3072
3072 3112 3113 3073
3073 3113 3114 3074
3074 3114 3115 3075
3075 3115 3116 3076
3076 3116 3117 3077
3077 3117 153 152
76 77 3118 3078
3078 3118 3119 3079
3079 3119 3120 3080
3080 3120 3121 3081
3081 3121 3122 3082
3082 3122 3123 3083
3083 3123 3124 3084
3084 3124 3125 3085
3085 3125 3126 3086
3086 3126 3127 3087
3087 3127 3128 3088
3088 3128 3129 3089
3089 3129 3130 3090
3090 3130 3131 3091
3091 3131 3132 3092
3092 3132 3133 3093
3093 3133 3134 3094
3094 3134 3135 3095
3095 3135 3136 3096
3096 3136 3137 3097
3097 3137 3138 3098
3098 3138 3139 3099
3099 3139 3140 3100
3100 3140 3141 3101
3101 3141 3142 3102
3102 3142 3143 3103
3103 3143 3144 3104
3104 3144 3145 3105
3105 3145 3146 3106
3106 3146 3147 3107
3107 3147 3148 3108
3108 3148 3149 3109
3109 3149 3150 3110
3110 3150 3151 3111
3111 3151 3152 3112
3112 3152 3153 3113
3113 3153 3154 3114
3114 3154 3155 3115
3115 3155 3156 3116
3116 3156 3157 3117
3117 3157 154 153
77 78 3158 3118
3118 3158 3159 3119
3119 3159 3160 3120
3120 3160 3161 3121
3121 3161 3162 3122
3122 3162 3163 3123
3123 3163 3164 3124
3124 3164 3165 3125
3125 3165 3166 3126
3126 3166 3167 3127
3127 3167 3168 3128
3128 3168 3169 3129
3129 3169 3170 3130
3130 3170 3171 3131
3131 3171 3172 3132
3132 3172 3173 3133
3133 3173 3174 3134
3134 3174 3175 3135
3135 3175 3176 3136
3136 3176 3177 3137
3137 3177 3178 3138
3138 3178 3179 3139
3139 3179 3180 3140
3140 3180 3181 3141
3141 3181 3182 3142
3142 3182 3183 3143
3143 3183 3184 3144
3144 3184 3185 3145
3145 3185 3186 3146
3146 3186 3187 3147
3147 3187 3188 3148
3148 3188 3189 3149
3149 3189 3190 3150
3150 3190 3191 3151
3151 3191 3192 3152
3152 3192 3193 3153
3153 3193 3194 3154
3154 3194 3195 3155
3155 3195 3196 3156
3156 3196 3197 3157
3157 3197 155 154
78 79 3198 3158
3158 3198 3199 3159
3159 3199 3200 3160
3160 3200 3201 3161
3161 3201 3202 3162
3162 3202 3203 3163
3163 3203 3204 3164
3164 3204 3205 3165
3165 3205 3206 3166
3166 3206 3207 3167
3167 3207 3208 3168
3168 3208 3209 3169
3169 3209 3210 3170
3170 3210 3211 3171
3171 3211 3212 3172
3172 3212 3213 3173
3173 3213 3214 3174
3174 3214 3215 3175
3175 3215 3216 3176
3176 3216 3217 3177
3177 3217 3218 3178
3178 3218 3219 3179
3179 3219 3220 3180
3180 3220 3221 3181
3181 3221 3222 3182
3182 3222 3223 3183
3183 3223 3224 3184
3184 3224 3225 3185
3185 3225 3226 3186
3186 3226 3227 3187
3187 3227 3228 3188
3188 3228 3229 3189
3189 3229 3230 3190
3190 3230 3231 3191
3191 3231 3232 3192
3192 3232 3233 3193
3193 3233 3234 3194
3194 3234 3235 3195
3195 3235 3236 3196
3196 3236 3237 3197
3197 3237 156 155
79 80 3238 3198
3198 3238 3239 3199
3199 3239 3240 3200
3200 3240 3241 3201
3201 3241 3242 3202
3202 3242 3243 3203
3203 3243 3244 3204
3204 3244 3245 3205
3205 3245 3246 3206
3206 3246 3247 3207
3207 3247 3248 3208
3208 3248 3249 3209
3209 3249 3250 3210
3210 3250 3251 3211
3211 3251 3252 3212
3212 3252 3253 3213
3213 3253 3254 3214
3214 3254 3255 3215
3215 3255 3256 3216
3216 3256 3257 3217
3217 3257 3258 3218
3218 3258 3259 3219
3219 3259 3260 3220
3220 3260 3261 3221
3221 3261 3262 3222
3222 3262 3263 3223
3223 3263 3264 3224
3224 3264 3265 3225
3225 3265 3266 3226
3226 3266 3267 3227
3227 3267 3268 3228
3228 3268 3269 3229
3229 3269 3270 3230
3230 3270 3271 3231
3231 3271 3272 3232
3232 3272 3273 3233
3233 3273 3274 3234
3234 3274 3275 3235
3235 3275 3276 3236
3236 3276 3277 3237
3237 3277 157 156
80 81 3278 3238
3238 3278 3279 3239
3239 3279 3280 3240
3240 3280 3281 3241
3241 3281 3282 3242
3242 3282 3283 3243
3243 3283 3284 3244
3244 3284 3285 3245
3245 3285 3286 3246
3246 3286 3287 3247
3247 3287 3288 3248
3248 3288 3289 3249
3249 3289 3290 3250
3250 3290 3291 3251
3251 3291 3292 3252
3252 3292 3293 3253
3253 3293 3294 3254
3254 3294 3295 3255
3255 3295 3296 3256
3256 3296 3297 3257
3257 3297 3298 3258
3258 3298 3299 3259
3259 3299 3300 3260
3260 3300 3301 3261
3261 3301 3302 3262
3262 3302 3303 3263
3263 3303 3304 3264
3264 3304 3305 3265
3265 3305 3306 3266
3266 3306 3307 3267
3267 3307 3308 3268
3268 3308 3309 3269
3269 3309 3310 3270
3270 3310 3311 3271
3271 3311 3312 3272
3272 3312 3313 3273
3273 3313 3314 3274
3274 3314 3315 3275
3275 3315 3316 3276
3276 3316 3317 3277
3277 3317 158 157
81 82 3318 3278
3278 3318 3319 3279
3279 3319 3320 3280
3280 3320 3321 3281
3281 3321 3322 3282
3282 3322 3323 3283
3283 3323 3324 3284
3284 3324 3325 3285
3285 3325 3326 3286
3286 3326 3327 3287
3287 3327 3328 3288
3288 3328 3329 3289
3289 3329 3330 3290
3290 3330 3331 3291
3291 3331 3332 3292
3292 3332 3333 3293
3293 3333 3334 3294
3294 3334 3335 3295
3295 3335 3336 3296
3296 3336 3337 3297
3297 3337 3338 3298
3298 3338 3339 3299
3299 3339 3340 3300
3300 3340 3341 3301
3301 3341 3342 3302
3302 3342 3343 3303
3303 3343 3344 3304
3304 3344 3345 3305
3305 3345 3346 3306
3306 3346 3347 3307
3307 3347 3348 3308
3308 3348 3349 3309
3309 3349 3350 3310
3310 3350 3351 3311
3311 3351 3352 3312
3312 3352 3353 3313
3313 3353 3354 3314
3314 3354 3355 3315
3315 3355 3356 3316
3316 3356 3357 3317
3317 3357 159 158
82 83 3358 3318
3318 3358 3359 3319
3319 3359 3360 3320
3320 3360 3361 3321
3321 3361 3362 3322
3322 3362 3363 3323
3323 3363 3364 3324
3324 3364 3365 3325
3325 3365 3366 3326
3326 3366 3367 3327
3327 3367 3368 3328
3328 3368 3369 3329
3329 3369 3370 3330
3330 3370 3371 3331
3331 3371 3372 3332
3332 3372 3373 3333
3333 3373 3374 3334
3334 3374 3375 3335
3335 3375 3376 3336
3336 3376 3377 3337
3337 3377 3378 3338
3338 3378 3379 3339
3339 3379 3380 3340
3340 3380 3381 3341
3341 3381 3382 3342
3342 3382 3383 3343
3343 3383 3384 3344
3344 3384 3385 3345
3345 3385 3386 3346
3346 3386 3387 3347
3347 3387 3388 3348
3348 3388 3389 3349
3349 3389 3390 3350
3350 3390 3391 3351
3351 3391 3392 3352
3352 3392 3393 3353
3353 3393 3394 3354
3354 3394 3395 3355
3355 3395 3396 3356
3356 3396 3397 3357
3357 3397 160 159
83 84 3398 3358
3358 3398 3399 3359
3359 3399 3400 3360
3360 3400 3401 3361
3361 3401 3402 3362
3362 3402 3403 3363
3363 3403 3404 3364
3364 3404 3405 3365
3365 3405 3406 3366
3366 3406 3407 3367
3367 3407 3408 3368
3368 3408 3409 3369
3369 3409 3410 3370
3370 3410 3411 3371
3371 3411 3412 3372
3372 3412 3413 3373
3373 3413 3414 3374
3374 3414 3415 3375
3375 3415 3416 3376
3376 3416 3417 3377
3377 3417 3418 3378
3378 3418 3419 3379
3379 3419 3420 3380
3380 3420 3421 3381
3381 3421 3422 3382
3382 3422 3423 3383
3383 3423 3424 3384
3384 3424 3425 3385
3385 3425 3426 3386
3386 3426 3427 3387
3387 3427 3428 3388
3388 3428 3429 3389
3389 3429 3430 3390
3390 3430 3431 3391
3391 3431 3432 3392
3392 3432 3433 3393
3393 3433 3434 3394
3394 3434 3435 3395
3395 3435 3436 3396
3396 3436 3437 3397
3397 3437 161 160
84 85 3438 3398
3398 3438 3439 3399
3399 3439 3440 3400
3400 3440 3441 3401
3401 3441 3442 3402
3402 3442 3443 3403
3403 3443 3444 3404
3404 3444 3445 3405
3405 3445 3446 3406
3406 3446 3447 3407
3407 3447 3448 3408
3408 3448 3449 3409
3409 3449 3450 3410
3410 3450 3451 3411
3411 3451 3452 3412
3412 3452 3453 3413
3413 3453 3454 3414
3414 3454 3455 3415
3415 3455 3456 3416
3416 3456 3457 3417
3417 3457 3458 3418
3418 3458 3459 3419
3419 3459 3460 3420
3420 3460 3461 3421
3421 3461 3462 3422
3422 3462 3463 3423
3423 3463 3464 3424
3424 3464 3465 3425
3425 3465 3466 3426
3426 3466 3467 3427
3427 3467 3468 3428
3428 3468 3469 3429
3429 3469 3470 3430
3430 3470 3471 3431
3431 3471 3472 3432
3432 3472 3473 3433
3433 3473 3474 3434
3434 3474 3475 3435
3435 3475 3476 3436
3436 3476 3477 3437
3437 3477 162 161
85 86 3478 3438
3438 3478 3479 3439
3439 3479 3480 3440
3440 3480 3481 3441
3441 3481 3482 3442
3442 3482 3483 3443
3443 3483 3484 3444
3444 3484 3485 3445
3445 3485 3486 3446
3446 3486 3487 3447
3447 3487 3488 3448
3448 3488 3489 3449
3449 3489 3490 3450
3450 3490 3491 3451
3451 3491 3492 3452
3452 3492 3493 3453
3453 3493 3494 3454
3454 3494 3495 3455
3455 3495 3496 3456
3456 3496 3497 3457
3457 3497 3498 3458
3458 3498 3499 3459
3459 3499 3500 3460
3460 3500 3501 3461
3461 3501 3502 3462
3462 3502 3503 3463
3463 3503 3504 3464
3464 3504 3505 3465
3465 3505 3506 3466
3466 3506 3507 3467
3467 3507 3508 3468
3468 3508 3509 3469
3469 3509 3510 3470
3470 3510 3511 3471
3471 3511 3512 3472
3472 3512 3513 3473
3473 3513 3514 3474
3474 3514 3515 3475
3475 3515 3516 3476
3476 3516 3517 3477
3477 3517 163 162
86 87 3518 3478
3478 3518 3519 3479
3479 3519 3520 3480
3480 3520 3521 3481
3481 3521 3522 3482
3482 3522 3523 3483
3483 3523 3524 3484
3484 3524 3525 3485
3485 3525 3526 3486
3486 3526 3527 3487
3487 3527 3528 3488
3488 3528 3529 3489
3489 3529 3530 3490
3490 3530 3531 3491
3491 3531 3532 3492
3492 3532 3533 3493
3493 3533 3534 3494
3494 3534 3535 3495
3495 3535 3536 3496
3496 3536 3537 3497
3497 3537 3538 3498
3498 3538 3539 3499
3499 3539 3540 3500
3500 3540 3541 3501
3501 3541 3542 3502
3502 3542 3543 3503
3503 3543 3544 3504
3504 3544 3545 3505
3505 3545 3546 3506
3506 3546 3547 3507
3507 3547 3548 3508
3508 3548 3549 3509
3509 3549 3550 3510
3510 3550 3551 3511
3511 3551 3552 3512
3512 3552 3553 3513
3513 3553 3554 3514
3514 3554 3555 3515
3515 3555 3556 3516
3516 3556 3557 3517
3517 3557 164 163
87 88 3558 3518
3518 3558 3559 3519
3519 3559 3560 3520
3520 3560 3561 3521
3521 3561 3562 3522
3522 3562 3563 3523
3523 3563 3564 3524
3524 3564 3565 3525
3525 3565 3566 3526
3526 3566 3567 3527
3527 3567 3568 3528
3528 3568 3569 3529
3529 3569 3570 3530
3530 3570 3571 3531
3531 3571 3572 3532
3532 3572 3573 3533
3533 3573 3574 3534
3534 3574 3575 3535
3535 3575 3576 3536
3536 3576 3577 3537
3537 3577 3578 3538
3538 3578 3579 3539
3539 3579 3580 3540
3540 3580 3581 3541
3541 3581 3582 3542
3542 3582 3583 3543
3543 3583 3584 3544
3544 3584 3585 3545
3545 3585 3586 3546
3546 3586 3587 3547
3547 3587 3588 3548
3548 3588 3589 3549
3549 3589 3590 3550
3550 3590 3591 3551
3551 3591 3592 3552
3552 3592 3593 3553
3553 3593 3594 3554
3554 3594 3595 3555
3555 3595 3596 3556
3556 3596 3597 3557
3557 3597 165 164
88 2 322 3558
3558 322 321 3559
3559 321 320 3560
3560 320 319 3561
3561 319 318 3562
3562 318 317 3563
3563 317 316 3564
3564 316 315 3565
3565 315 314 3566
3566 314 313 3567
3567 313 312 3568
3568 312 311 3569
3569 311 310 3570
3570 310 309 3571
3571 309 308 3572
3572 308 307 3573
3573 307 306 3574
3574 306 305 3575
3575 305 304 3576
3576 304 303 3577
3577 303 302 3578
3578 302 301 3579
3579 301 300 3580
3580 300 299 3581
3581 299 298 3582
3582 298 297 3583
3583 297 296 3584
3584 296 295 3585
3585 295 294 3586
3586 294 293 3587
3587 293 292 3588
3588 292 291 3589
3589 291 290 3590
3590 290 289 3591
3591 289 288 3592
3592 288 287 3593
3593 287 286 3594
3594 286 285 3595
3595 285 284 3596
3596 284 283 3597
3597 283 6 165
4 108 3598 380
380 3598 3599 379
379 3599 3600 378
378 3600 3601 377
377 3601 3602 376
376 3602 3603 375
375 3603 3604 374
374 3604 3605 373
373 3605 3606 372
372 3606 3607 371
371 3607 3608 370
370 3608 3609 369
369 3609 3610 368
368 3610 3611 367
367 3611 3612 366
366 3612 3613 365
365 3613 3614 364
364 3614 3615 363
363 3615 3616 362
362 3616 323 9
108 109 3617 3598
3598 3617 3618 3599
3599 3618 3619 3600
3600 3619 3620 3601
3601 3620 3621 3602
3602 3621 3622 3603
3603 3622 3623 3604
3604 3623 3624 3605
3605 3624 3625 3606
3606 3625 3626 3607
3607 3626 3627 3608
3608 3627 3628 3609
3609 3628 3629 3610
3610 3629 3630 3611
3611 3630 3631 3612
3612 3631 3632 3613
3613 3632 3633 3614
3614 3633 3634 3615
3615 3634 3635 3616
3616 3635 324 323
109 110 3636 3617
3617 3636 3637 3618
3618 3637 3638 3619
3619 3638 3639 3620
3620 3639 3640 3621
3621 3640 3641 3622
3622 3641 3642 3623
3623 3642 3643 3624
3624 3643 3644 3625
3625 3644 3645 3626
3626 3645 3646 3627
3627 3646 3647 3628
3628 3647 3648 3629
3629 3648 3649 3630
3630 3649 3650 3631
3631 3650 3651 3632
3632 3651 3652 3633
3633 3652 3653 3634
3634 3653 3654 3635
3635 3654 325 324
110 111 3655 3636
3636 3655 3656 3637
3637 3656 3657 3638
3638 3657 3658 3639
3639 3658 3659 3640
3640 3659 3660 3641
3641 3660 3661 3642
3642 3661 3662 3643
3643 3662 3663 3644
3644 3663 3664 3645
3645 3664 3665 3646
3646 3665 3666 3647
3647 3666 3667 3648
3648 3667 3668 3649
3649 3668 3669 3650
3650 3669 3670 3651
3651 3670 3671 3652
3652 3671 3672 3653
3653 3672 3673 3654
3654 3673 326 325
111 112 3674 3655
3655 3674 3675 3656
3656 3675 3676 3657
3657 3676 3677 3658
3658 3677 3678 3659
3659 3678 3679 3660
3660 3679 3680 3661
3661 3680 3681 3662
3662 3681 3682 3663
3663 3682 3683 3664
3664 3683 3684 3665
3665 3684 3685 3666
3666 3685 3686 3667
3667 3686 3687 3668
3668 3687 3688 3669
3669 3688 3689 3670
3670 3689 3690 3671
3671 3690 3691 3672
3672 3691 3692 3673
3673 3692 327 326
112 113 3693 3674
3674 3693 3694 3675
3675 3694 3695 3676
3676 3695 3696 3677
3677 3696 3697 3678
3678 3697 3698 3679
3679 3698 3699 3680
3680 3699 3700 3681
3681 3700 3701 3682
3682 3701 3702 3683
3683 3702 3703 3684
3684 3703 3704 3685
3685 3704 3705 3686
3686 3705 3706 3687
3687 3706 3707 3688
3688 3707 3708 3689
3689 3708 3709 3690
3690 3709 3710 3691
3691 3710 3711 3692
3692 3711 328 327
113 114 3712 3693
3693 3712 3713 3694
3694 3713 3714 3695
3695 3714 3715 3696
3696 3715 3716 3697
3697 3716 3717 3698
3698 3717 3718 3699
3699 3718 3719 3700
3700 3719 3720 3701
3701 3720 3721 3702
3702 3721 3722 3703
3703 3722 3723 3704
3704 3723 3724 3705
3705 3724 3725 3706
3706 3725 3726 3707
3707 3726 3727 3708
3708 3727 3728 3709
3709 3728 3729 3710
3710 3729 3730 3711
3711 3730 329 328
114 115 3731 3712
3712 3731 3732 3713
3713 3732 3733 3714
3714 3733 3734 3715
3715 3734 3735 3716
3716 3735 3736 3717
3717 3736 3737 3718
3718 3737 3738 3719
3719 3738 3739 3720
3720 3739 3740 3721
3721 3740 3741 3722
3722 3741 3742 3723
3723 3742 3743 3724
3724 3743 3744 3725
3725 3744 3745 3726
3726 3745 3746 3727
3727 3746 3747 3728
3728 3747 3748 3729
3729 3748 3749 3730
3730 3749 330 329
115 116 3750 3731
3731 3750 3751 3732
3732 3751 3752 3733
3733 3752 3753 3734
3734 3753 3754 3735
3735 3754 3755 3736
3736 3755 3756 3737
3737 3756 3757 3738
3738 3757 3758 3739
3739 3758 3759 3740
3740 3759 3760 3741
3741 3760 3761 3742
3742 3761 3762 3743
3743 3762 3763 3744
3744 3763 3764 3745
3745 3764 3765 3746
3746 3765 3766 3747
3747 3766 3767 3748
3748 3767 3768 3749
3749 3768 331 330
116 117 3769 3750
3750 3769 3770 3751
3751 3770 3771 3752
3752 3771 3772 3753
3753 3772 3773 3754
3754 3773 3774 3755
3755 3774 3775 3756
3756 3775 3776 3757
3757 3776 3777 3758
3758 3777 3778 3759
3759 3778 3779 3760
3760 3779 3780 3761
3761 3780 3781 3762
3762 3781 3782 3763
3763 3782 3783 3764
3764 3783 3784 3765
3765 3784 3785 3766
3766 3785 3786 3767
3767 3786 3787 3768
3768 3787 332 331
117 118 3788 3769
3769 3788 3789 3770
3770 3789 3790 3771
3771 3790 3791 3772
3772 3791 3792 3773
3773 3792 3793 3774
3774 3793 3794 3775
3775 3794 3795 3776
3776 3795 3796 3777
3777 3796 3797 3778
3778 3797 3798 3779
3779 3798 3799 3780
3780 3799 3800 3781
3781 3800 3801 3782
3782 3801 3802 3783
3783 3802 3803 3784
3784 3803 3804 3785
3785 3804 3805 3786
3786 3805 3806 3787
3787 3806 333 332
118 119 3807 3788
3788 3807 3808 3789
3789 3808 3809 3790
3790 3809 3810 3791
3791 3810 3811 3792
3792 3811 3812 3793
3793 3812 3813 3794
3794 3813 3814 3795
3795 3814 3815 3796
3796 3815 3816 3797
3797 3816 3817 3798
3798 3817 3818 3799
3799 3818 3819 3800
3800 3819 3820 3801
3801 3820 3821 3802
3802 3821 3822 3803
3803 3822 3823 3804
3804 3823 3824 3805
3805 3824 3825 3806
3806 3825 334 333
119 120 3826 3807
3807 3826 3827 3808
3808 3827 3828 3809
3809 3828 3829 3810
3810 3829 3830 3811
3811 3830 3831 3812
3812 3831 3832 3813
3813 3832 3833 3814
3814 3833 3834 3815
3815 3834 3835 3816
3816 3835 3836 3817
3817 3836 3837 3818
3818 3837 3838 3819
3819 3838 3839 3820
3820 3839 3840 3821
3821 3840 3841 3822
3822 3841 3842 3823
3823 3842 3843 3824
3824 3843 3844 3825
3825 3844 335 334
120 121 3845 3826
3826 3845 3846 3827
3827 3846 3847 3828
3828 3847 3848 3829
3829 3848 3849 3830
3830 3849 3850 3831
3831 3850 3851 3832
3832 3851 3852 3833
3833 3852 3853 3834
3834 3853 3854 3835
3835 3854 3855 3836
3836 3855 3856 3837
3837 3856 3857 3838
3838 3857 3858 3839
3839 3858 3859 3840
3840 3859 3860 3841
3841 3860 3861 3842
3842 3861 3862 3843
3843 3862 3863 3844
3844 3863 336 335
121 122 3864 3845
3845 3864 3865 3846
3846 3865 3866 3847
3847 3866 3867 3848
3848 3867 3868 3849
3849 3868 3869 3850
3850 3869 3870 3851
3851 3870 3871 3852
3852 3871 3872 3853
3853 3872 3873 3854
3854 3873 3874 3855
3855 3874 3875 3856
3856 3875 3876 3857
3857 3876 3877 3858
3858 3877 3878 3859
3859 3878 3879 3860
3860 3879 3880 3861
3861 3880 3881 3862
3862 3881 3882 3863
3863 3882 337 336
122 123 3883 3864
3864 3883 3884 3865
3865 3884 3885 3866
3866 3885 3886 3867
3867 3886 3887 3868
3868 3887 3888 3869
3869 3888 3889 3870
3870 3889 3890 3871
3871 3890 3891 3872
3872 3891 3892 3873
3873 3892 3893 3874
3874 3893 3894 3875
3875 3894 3895 3876
3876 3895 3896 3877
3877 3896 3897 3878
3878 3897 3898 3879
3879 3898 3899 3880
3880 3899 3900 3881
3881 3900 3901 3882
3882 3901 338 337
123 124 3902 3883
3883 3902 3903 3884
3884 3903 3904 3885
3885 3904 3905 3886
3886 3905 3906 3887
3887 3906 3907 3888
3888 3907 3908 3889
3889 3908 3909 3890
3890 3909 3910 3891
3891 3910 3911 3892
3892 3911 3912 3893
3893 3912 3913 3894
3894 3913 3914 3895
3895 3914 3915 3896
3896 3915 3916 3897
3897 3916 3917 3898
3898 3917 3918 3899
3899 3918 3919 3900
3900 3919 3920 3901
3901 3920 339 338
124 125 3921 3902
3902 3921 3922 3903
3903 3922 3923 3904
3904 3923 3924 3905
3905 3924 3925 3906
3906 3925 3926 3907
3907 3926 3927 3908
3908 3927 3928 3909
3909 3928 3929 3910
3910 3929 3930 3911
3911 3930 3931 3912
3912 3931 3932 3913
3913 3932 3933 3914
3914 3933 3934 3915
3915 3934 3935 3916
3916 3935 3936 3917
3917 3936 3937 3918
3918 3937 3938 3919
3919 3938 3939 3920
3920 3939 340 339
125 126 3940 3921
3921 3940 3941 3922
3922 3941 3942 3923
3923 3942 3943 3924
3924 3943 3944 3925
3925 3944 3945 3926
3926 3945 3946 3927
3927 3946 3947 3928
3928 3947 3948 3929
3929 3948 3949 3930
3930 3949 3950 3931
3931 3950 3951 3932
3932 3951 3952 3933
3933 3952 3953 3934
3934 3953 3954 3935
3935 3954 3955 3936
3936 3955 3956 3937
3937 3956 3957 3938
3938 3957 3958 3939
3939 3958 341 340
126 127 3959 3940
3940 3959 3960 3941
3941 3960 3961 3942
3942 3961 3962 3943
3943 3962 3963 3944
3944 3963 3964 3945
3945 3964 3965 3946
3946 3965 3966 3947
3947 3966 3967 3948
3948 3967 3968 3949
3949 3968 3969 3950
3950 3969 3970 3951
3951 3970 3971 3952
3952 3971 3972 3953
3953 3972 3973 3954
3954 3973 3974 3955
3955 3974 3975 3956
3956 3975 3976 3957
3957 3976 3977 3958
3958 3977 342 341
127 128 3978 3959
3959 3978 3979 3960
3960 3979 3980 3961
3961 3980 3981 3962
3962 3981 3982 3963
3963 3982 3983 3964
3964 3983 3984 3965
3965 3984 3985 3966
3966 3985 3986 3967
3967 3986 3987 3968
3968 3987 3988 3969
3969 3988 3989 3970
3970 3989 3990 3971
3971 3990 3991 3972
3972 3991 3992 3973
3973 3992 3993 3974
3974 3993 3994 3975
3975 3994 3995 3976
3976 3995 3996 3977
3977 3996 343 342
128 129 3997 3978
3978 3997 3998 3979
3979 3998 3999 3980
3980 3999 4000 3981
3981 4000 4001 3982
3982 4001 4002 3983
3983 4002 4003 3984
3984 4003 4004 3985
3985 4004 4005 3986
3986 4005 4006 3987
3987 4006 4007 3988
3988 4007 4008 3989
3989 4008 4009 3990
3990 4009 4010 3991
3991 4010 4011 3992
3992 4011 4012 3993
3993 4012 4013 3994
3994 4013 4014 3995
3995 4014 4015 3996
3996 4015 344 343
129 130 4016 3997
3997 4016 4017 3998
3998 4017 4018 3999
3999 4018 4019 4000
4000 4019 4020 4001
4001 4020 4021 4002
4002 4021 4022 4003
4003 4022 4023 4004
4004 4023 4024 4005
4005 4024 4025 4006
4006 4025 4026 4007
4007 4026 4027 4008
4008 4027 4028 4009
4009 4028 4029 4010
4010 4029 4030 4011
4011 4030 4031 4012
4012 4031 4032 4013
4013 4032 4033 4014
4014 4033 4034 4015
4015 4034 345 344
130 131 4035 4016
4016 4035 4036 4017
4017 4036 4037 4018
4018 4037 4038 4019
4019 4038 4039 4020
4020 4039 4040 4021
4021 4040 4041 4022
4022 4041 4042 4023
4023 4042 4043 4024
4024 4043 4044 4025
4025 4044 4045 4026
4026 4045 4046 4027
4027 4046 4047 4028
4028 4047 4048 4029
4029 4048 4049 4030
4030 4049 4050 4031
4031 4050 4051 4032
4032 4051 4052 4033
4033 4052 4053 4034
4034 4053 346 345
131 132 4054 4035
4035 4054 4055 4036
4036 4055 4056 4037
4037 4056 4057 4038
4038 4057 4058 4039
4039 4058 4059 4040
4040 4059 4060 4041
4041 4060 4061 4042
4042 4061 4062 4043
4043 4062 4063 4044
4044 4063 4064 4045
4045 4064 4065 4046
4046 4065 4066 4047
4047 4066 4067 4048
4048 4067 4068 4049
4049 4068 4069 4050
4050 4069 4070 4051
4051 4070 4071 4052
4052 4071 4072 4053
4053 4072 347 346
132 133 4073 4054
4054 4073 4074 4055
4055 4074 4075 4056
4056 4075 4076 4057
4057 4076 4077 4058
4058 4077 4078 4059
4059 4078 4079 4060
4060 4079 4080 4061
4061 4080 4081 4062
4062 4081 4082 4063
4063 4082 4083 4064
4064 4083 4084 4065
4065 4084 4085 4066
4066 4085 4086 4067
4067 4086 4087 4068
4068 4087 4088 4069
4069 4088 4089 4070
4070 4089 4090 4071
4071 4090 4091 4072
4072 4091 348 347
133 134 4092 4073
4073 4092 4093 4074
4074 4093 4094 4075
4075 4094 4095 4076
4076 4095 4096 4077
4077 4096 4097 4078
4078 4097 4098 4079
4079 4098 4099 4080
4080 4099 4100 4081
4081 4100 4101 4082
4082 4101 4102 4083
4083 4102 4103 4084
4084 4103 4104 4085
4085 4104 4105 4086
4086 4105 4106 4087
4087 4106 4107 4088
4088 4107 4108 4089
4089 4108 4109 4090
4090 4109 4110 4091
4091 4110 349 348
134 135 4111 4092
4092 4111 4112 4093
4093 4112 4113 4094
4094 4113 4114 4095
4095 4114 4115 4096
4096 4115 4116 4097
4097 4116 4117 4098
4098 4117 4118 4099
4099 4118 4119 4100
4100 4119 4120 4101
4101 4120 4121 4102
4102 4121 4122 4103
4103 4122 4123 4104
4104 4123 4124 4105
4105 4124 4125 4106
4106 4125 4126 4107
4107 4126 4127 4108
4108 4127 4128 4109
4109 4128 4129 4110
4110 4129 350 349
135 136 4130 4111
4111 4130 4131 4112
4112 4131 4132 4113
4113 4132 4133 4114
4114 4133 4134 4115
4115 4134 4135 4116
4116 4135 4136 4117
4117 4136 4137 4118
4118 4137 4138 4119
4119 4138 4139 4120
4120 4139 4140 4121
4121 4140 4141 4122
4122 4141 4142 4123
4123 4142 4143 4124
4124 4143 4144 4125
4125 4144 4145 4126
4126 4145 4146 4127
4127 4146 4147 4128
4128 4147 4148 4129
4129 4148 351 350
136 137 4149 4130
4130 4149 4150 4131
4131 4150 4151 4132
4132 4151 4152 4133
4133 4152 4153 4134
4134 4153 4154 4135
4135 4154 4155 4136
4136 4155 4156 4137
4137 4156 4157 4138
4138 4157 4158 4139
4139 4158 4159 4140
4140 4159 4160 4141
4141 4160 4161 4142
4142 4161 4162 4143
4143 4162 4163 4144
4144 4163 4164 4145
4145 4164 4165 4146
4146 4165 4166 4147
4147 4166 4167 4148
4148 4167 352 351
137 138 4168 4149
4149 4168 4169 4150
4150 4169 4170 4151
4151 4170 4171 4152
4152 4171 4172 4153
4153 4172 4173 4154
4154 4173 4174 4155
4155 4174 4175 4156
4156 4175 4176 4157
4157 4176 4177 4158
4158 4177 4178 4159
4159 4178 4179 4160
4160 4179 4180 4161
4161 4180 4181 4162
4162 4181 4182 4163
4163 4182 4183 4164
4164 4183 4184 4165
4165 4184 4185 4166
4166 4185 4186 4167
4167 4186 353 352
138 139 4187 4168
4168 4187 4188 4169
4169 4188 4189 4170
4170 4189 4190 4171
4171 4190 4191 4172
4172 4191 4192 4173
4173 4192 4193 4174
4174 4193 4194 4175
4175 4194 4195 4176
4176 4195 4196 4177
4177 4196 4197 4178
4178 4197 4198 4179
4179 4198 4199 4180
4180 4199 4200 4181
4181 4200 4201 4182
4182 4201 4202 4183
4183 4202 4203 4184
4184 4203 4204 4185
4185 4204 4205 4186
4186 4205 354 353
139 140 4206 4187
4187 4206 4207 4188
4188 4207 4208 4189
4189 4208 4209 4190
4190 4209 4210 4191
4191 4210 4211 4192
4192 4211 4212 4193
4193 4212 4213 4194
4194 4213 4214 4195
4195 4214 4215 4196
4196 4215 4216 4197
4197 4216 4217 4198
4198 4217 4218 4199
4199 4218 4219 4200
4200 4219 4220 4201
4201 4220 4221 4202
4202 4221 4222 4203
4203 4222 4223 4204
4204 4223 4224 4205
4205 4224 355 354
140 141 4225 4206
4206 4225 4226 4207
4207 4226 4227 4208
4208 4227 4228 4209
4209 4228 4229 4210
4210 4229 4230 4211
4211 4230 4231 4212
4212 4231 4232 4213
4213 4232 4233 4214
4214 4233 4234 4215
4215 4234 4235 4216
4216 4235 4236 4217
4217 4236 4237 4218
4218 4237 4238 4219
4219 4238 4239 4220
4220 4239 4240 4221
4221 4240 4241 4222
4222 4241 4242 4223
4223 4242 4243 4224
4224 4243 356 355
141 142 4244 4225
4225 4244 4245 4226
4226 4245 4246 4227
4227 4246 4247 4228
4228 4247 4248 4229
4229 4248 4249 4230
4230 4249 4250 4231
4231 4250 4251 4232
4232 4251 4252 4233
4233 4252 4253 4234
4234 4253 4254 4235
4235 4254 4255 4236
4236 4255 4256 4237
4237 4256 4257 4238
4238 4257 4258 4239
4239 4258 4259 4240
4240 4259 4260 4241
4241 4260 4261 4242
4242 4261 4262 4243
4243 4262 357 356
142 143 4263 4244
4244 4263 4264 4245
4245 4264 4265 4246
4246 4265 4266 4247
4247 4266 4267 4248
4248 4267 4268 4249
4249 4268 4269 4250
4250 4269 4270 4251
4251 4270 4271 4252
4252 4271 4272 4253
4253 4272 4273 4254
4254 4273 4274 4255
4255 4274 4275 4256
4256 4275 4276 4257
4257 4276 4277 4258
4258 4277 4278 4259
4259 4278 4279 4260
4260 4279 4280 4261
4261 4280 4281 4262
4262 4281 358 357
143 144 4282 4263
4263 4282 4283 4264
4264 4283 4284 4265
4265 4284 4285 4266
4266 4285 4286 4267
4267 4286 4287 4268
4268 4287 4288 4269
4269 4288 4289 4270
4270 4289 4290 4271
4271 4290 4291 4272
4272 4291 4292 4273
4273 4292 4293 4274
4274 4293 4294 4275
4275 4294 4295 4276
4276 4295 4296 4277
4277 4296 4297 4278
4278 4297 4298 4279
4279 4298 4299 4280
4280 4299 4300 4281
4281 4300 359 358
144 145 4301 4282
4282 4301 4302 4283
4283 4302 4303 4284
4284 4303 4304 4285
4285 4304 4305 4286
4286 4305 4306 4287
4287 4306 4307 4288
4288 4307 4308 4289
4289 4308 4309 4290
4290 4309 4310 4291
4291 4310 4311 4292
4292 4311 4312 4293
4293 4312 4313 4294
4294 4313 4314 4295
4295 4314 4315 4296
4296 4315 4316 4297
4297 4316 4317 4298
4298 4317 4318 4299
4299 4318 4319 4300
4300 4319 360 359
145 146 4320 4301
4301 4320 4321 4302
4302 4321 4322 4303
4303 4322 4323 4304
4304 4323 4324 4305
4305 4324 4325 4306
4306 4325 4326 4307
4307 4326 4327 4308
4308 4327 4328 4309
4309 4328 4329 4310
4310 4329 4330 4311
4311 4330 4331 4312
4312 4331 4332 4313
4313 4332 4333 4314
4314 4333 4334 4315
4315 4334 4335 4316
4316 4335 4336 4317
4317 4336 4337 4318
4318 4337 4338 4319
4319 4338 361 360
146 5 399 4320
4320 399 398 4321
4321 398 397 4322
4322 397 396 4323
4323 396 395 4324
4324 395 394 4325
4325 394 393 4326
4326 393 392 4327
4327 392 391 4328
4328 391 390 4329
4329 390 389 4330
4330 389 388 4331
4331 388 387 4332
4332 387 386 4333
4333 386 385 4334
4334 385 384 4335
4335 384 383 4336
4336 383 382 4337
4337 382 381 4338
4338 381 10 361
3 89 4339 166
166 4339 4340 167
167 4340 4341 168
168 4341 4342 169
169 4342 4343 170
170 4343 4344 171
171 4344 4345 172
172 4345 4346 173
173 4346 4347 174
174 4347 4348 175
175 4348 4349 176
176 4349 4350 177
177 4350 4351 178
178 4351 4352 179
179 4352 4353 180
180 4353 4354 181
181 4354 4355 182
182 4355 4356 183
183 4356 4357 184
184 4357 418 7
89 90 4358 4339
4339 4358 4359 4340
4340 4359 4360 4341
4341 4360 4361 4342
4342 4361 4362 4343
4343 4362 4363 4344
4344 4363 4364 4345
4345 4364 4365 4346
4346 4365 4366 4347
4347 4366 4367 4348
4348 4367 4368 4349
4349 4368 4369 4350
4350 4369 4370 4351
4351 4370 4371 4352
4352 4371 4372 4353
4353 4372 4373 4354
4354 4373 4374 4355
4355 4374 4375 4356
4356 4375 4376 4357
4357 4376 417 418
90 91 4377 4358
4358 4377 4378 4359
4359 4378 4379 4360
4360 4379 4380 4361
4361 4380 4381 4362
4362 4381 4382 4363
4363 4382 4383 4364
4364 4383 4384 4365
4365 4384 4385 4366
4366 4385 4386 4367
4367 4386 4387 4368
4368 4387 4388 4369
4369 4388 4389 4370
4370 4389 4390 4371
4371 4390 4391 4372
4372 4391 4392 4373
4373 4392 4393 4374
4374 4393 4394 4375
4375 4394 4395 4376
4376 4395 416 417
91 92 4396 4377
4377 4396 4397 4378
4378 4397 4398 4379
4379 4398 4399 4380
4380 4399 4400 4381
4381 4400 4401 4382
4382 4401 4402 4383
4383 4402 4403 4384
4384 4403 4404 4385
4385 4404 4405 4386
4386 4405 4406 4387
4387 4406 4407 4388
4388 4407 4408 4389
4389 4408 4409 4390
4390 4409 4410 4391
4391 4410 4411 4392
4392 4411 4412 4393
4393 4412 4413 4394
4394 4413 4414 4395
4395 4414 415 416
92 93 4415 4396
4396 4415 4416 4397
4397 4416 4417 4398
4398 4417 4418 4399
4399 4418 4419 4400
4400 4419 4420 4401
4401 4420 4421 4402
4402 4421 4422 4403
4403 4422 4423 4404
4404 4423 4424 4405
4405 4424 4425 4406
4406 4425 4426 4407
4407 4426 4427 4408
4408 4427 4428 4409
4409 4428 4429 4410
4410 4429 4430 4411
4411 4430 4431 4412
4412 4431 4432 4413
4413 4432 4433 4414
4414 4433 414 415
93 94 4434 4415
4415 4434 4435 4416
4416 4435 4436 4417
4417 4436 4437 4418
4418 4437 4438 4419
4419 4438 4439 4420
4420 4439 4440 4421
4421 4440 4441 4422
4422 4441 4442 4423
4423 4442 4443 4424
4424 4443 4444 4425
4425 4444 4445 4426
4426 4445 4446 4427
4427 4446 4447 4428
4428 4447 4448 4429
4429 4448 4449 4430
4430 4449 4450 4431
4431 4450 4451 4432
4432 4451 4452 4433
4433 4452 413 414
94 95 4453 4434
4434 4453 4454 4435
4435 4454 4455 4436
4436 4455 4456 4437
4437 4456 4457 4438
4438 4457 4458 4439
4439 4458 4459 4440
4440 4459 4460 4441
4441 4460 4461 4442
4442 4461 4462 4443
4443 4462 4463 4444
4444 4463 4464 4445
4445 4464 4465 4446
4446 4465 4466 4447
4447 4466 4467 4448
4448 4467 4468 4449
4449 4468 4469 4450
4450 4469 4470 4451
4451 4470 4471 4452
4452 4471 412 413
95 96 4472 4453
4453 4472 4473 4454
4454 4473 4474 4455
4455 4474 4475 4456
4456 4475 4476 4457
4457 4476 4477 4458
4458 4477 4478 4459
4459 4478 4479 4460
4460 4479 4480 4461
4461 4480 4481 4462
4462 4481 4482 4463
4463 4482 4483 4464
4464 4483 4484 4465
4465 4484 4485 4466
4466 4485 4486 4467
4467 4486 4487 4468
4468 4487 4488 4469
4469 4488 4489 4470
4470 4489 4490 4471
4471 4490 411 412
96 97 4491 4472
4472 4491 4492 4473
4473 4492 4493 4474
4474 4493 4494 4475
4475 4494 4495 4476
4476 4495 4496 4477
4477 4496 4497 4478
4478 4497 4498 4479
4479 4498 4499 4480
4480 4499 4500 4481
4481 4500 4501 4482
4482 4501 4502 4483
4483 4502 4503 4484
4484 4503 4504 4485
4485 4504 4505 4486
4486 4505 4506 4487
4487 4506 4507 4488
4488 4507 4508 4489
4489 4508 4509 4490
4490 4509 410 411
97 98 4510 4491
4491 4510 4511 4492
4492 4511 4512 4493
4493 4512 4513 4494
4494 4513 4514 4495
4495 4514 4515 4496
4496 4515 4516 4497
4497 4516 4517 4498
4498 4517 4518 4499
4499 4518 4519 4500
4500 4519 4520 4501
4501 4520 4521 4502
4502 4521 4522 4503
4503 4522 4523 4504
4504 4523 4524 4505
4505 4524 4525 4506
4506 4525 4526 4507
4507 4526 4527 4508
4508 4527 4528 4509
4509 4528 409 410
98 99 4529 4510
4510 4529 4530 4511
4511 4530 4531 4512
4512 4531 4532 4513
4513 4532 4533 4514
4514 4533 4534 4515
4515 4534 4535 4516
4516 4535 4536 4517
4517 4536 4537 4518
4518 4537 4538 4519
4519 4538 4539 4520
4520 4539 4540 4521
4521 4540 4541 4522
4522 4541 4542 4523
4523 4542 4543 4524
4524 4543 4544 4525
4525 4544 4545 4526
4526 4545 4546 4527
4527 4546 4547 4528
4528 4547 408 409
99 100 4548 4529
4529 4548 4549 4530
4530 4549 4550 4531
4531 4550 4551 4532
4532 4551 4552 4533
4533 4552 4553 4534
4534 4553 4554 4535
4535 4554 4555 4536
4536 4555 4556 4537
4537 4556 4557 4538
4538 4557 4558 4539
4539 4558 4559 4540
4540 4559 4560 4541
4541 4560 4561 4542
4542 4561 4562 4543
4543 4562 4563 4544
4544 4563 4564 4545
4545 4564 4565 4546
4546 4565 4566 4547
4547 4566 407 408
100 101 4567 4548
4548 4567 4568 4549
4549 4568 4569 4550
4550 4569 4570 4551
4551 4570 4571 4552
4552 4571 4572 4553
4553 4572 4573 4554
4554 4573 4574 4555
4555 4574 4575 4556
4556 4575 4576 4557
4557 4576 4577 4558
4558 4577 4578 4559
4559 4578 4579 4560
4560 4579 4580 4561
4561 4580 4581 4562
4562 4581 4582 4563
4563 4582 4583 4564
4564 4583 4584 4565
4565 4584 4585 4566
4566 4585 406 407
101 102 4586 4567
4567 4586 4587 4568
4568 4587 4588 4569
4569 4588 4589 4570
4570 4589 4590 4571
4571 4590 4591 4572
4572 4591 4592 4573
4573 4592 4593 4574
4574 4593 4594 4575
4575 4594 4595 4576
4576 4595 4596 4577
4577 4596 4597 4578
4578 4597 4598 4579
4579 4598 4599 4580
4580 4599 4600 4581
4581 4600 4601 4582
4582 4601 4602 4583
4583 4602 4603 4584
4584 4603 4604 4585
4585 4604 405 406
102 103 4605 4586
4586 4605 4606 4587
4587 4606 4607 4588
4588 4607 4608 4589
4589 4608 4609 4590
4590 4609 4610 4591
4591 4610 4611 4592
4592 4611 4612 4593
4593 4612 4613 4594
4594 4613 4614 4595
4595 4614 4615 4596
4596 4615 4616 4597
4597 4616 4617 4598
4598 4617 4618 4599
4599 4618 4619 4600
4600 4619 4620 4601
4601 4620 4621 4602
4602 4621 4622 4603
4603 4622 4623 4604
4604 4623 404 405
103 104 4624 4605
4605 4624 4625 4606
4606 4625 4626 4607
4607 4626 4627 4608
4608 4627 4628 4609
4609 4628 4629 4610
4610 4629 4630 4611
4611 4630 4631 4612
4612 4631 4632 4613
4613 4632 4633 4614
4614 4633 4634 4615
4615 4634 4635 4616
4616 4635 4636 4617
4617 4636 4637 4618
4618 4637 4638 4619
4619 4638 4639 4620
4620 4639 4640 4621
4621 4640 4641 4622
4622 4641 4642 4623
4623 4642 403 404
104 105 4643 4624
4624 4643 4644 4625
4625 4644 4645 4626
4626 4645 4646 4627
4627 4646 4647 4628
4628 4647 4648 4629
4629 4648 4649 4630
4630 4649 4650 4631
4631 4650 4651 4632
4632 4651 4652 4633
4633 4652 4653 4634
4634 4653 4654 4635
4635 4654 4655 4636
4636 4655 4656 4637
4637 4656 4657 4638
4638 4657 4658 4639
4639 4658 4659 4640
4640 4659 4660 4641
4641 4660 4661 4642
4642 4661 402 403
105 106 4662 4643
4643 4662 4663 4644
4644 4663 4664 4645
4645 4664 4665 4646
4646 4665 4666 4647
4647 4666 4667 4648
4648 4667 4668 4649
4649 4668 4669 4650
4650 4669 4670 4651
4651 4670 4671 4652
4652 4671 4672 4653
4653 4672 4673 4654
4654 4673 4674 4655
4655 4674 4675 4656
4656 4675 4676 4657
4657 4676 4677 4658
4658 4677 4678 4659
4659 4678 4679 4660
4660 4679 4680 4661
4661 4680 401 402
106 107 4681 4662
4662 4681 4682 4663
4663 4682 4683 4664
4664 4683 4684 4665
4665 4684 4685 4666
4666 4685 4686 4667
4667 4686 4687 4668
4668 4687 4688 4669
4669 4688 4689 4670
4670 4689 4690 4671
4671 4690 4691 4672
4672 4691 4692 4673
4673 4692 4693 4674
4674 4693 4694 4675
4675 4694 4695 4676
4676 4695 4696 4677
4677 4696 4697 4678
4678 4697 4698 4679
4679 4698 4699 4680
4680 4699 400 401
107 4 380 4681
4681 380 379 4682
4682 379 378 4683
4683 378 377 4684
4684 377 376 4685
4685 376 375 4686
4686 375 374 4687
4687 374 373 4688
4688 373 372 4689
4689 372 371 4690
4690 371 370 4691
4691 370 369 4692
4692 369 368 4693
4693 368 367 4694
4694 367 366 4695
4695 366 365 4696
4696 365 364 4697
4697 364 363 4698
4698 363 362 4699
4699 362 9 400
5 147 4700 399
399 4700 4701 398
398 4701 4702 397
397 4702 4703 396
396 4703 4704 395
395 4704 4705 394
394 4705 4706 393
393 4706 4707 392
392 4707 4708 391
391 4708 4709 390
390 4709 4710 389
389 4710 4711 388
388 4711 4712 387
387 4712 4713 386
386 4713 4714 385
385 4714 4715 384
384 4715 4716 383
383 4716 4717 382
382 4717 4718 381
381 4718 419 10
147 148 4719 4700
4700 4719 4720 4701
4701 4720 4721 4702
4702 4721 4722 4703
4703 4722 4723 4704
4704 4723 4724 4705
4705 4724 4725 4706
4706 4725 4726 4707
4707 4726 4727 4708
4708 4727 4728 4709
4709 4728 4729 4710
4710 4729 4730 4711
4711 4730 4731 4712
4712 4731 4732 4713
4713 4732 4733 4714
4714 4733 4734 4715
4715 4734 4735 4716
4716 4735 4736 4717
4717 4736 4737 4718
4718 4737 420 419
148 149 4738 4719
4719 4738 4739 4720
4720 4739 4740 4721
4721 4740 4741 4722
4722 4741 4742 4723
4723 4742 4743 4724
4724 4743 4744 4725
4725 4744 4745 4726
4726 4745 4746 4727
4727 4746 4747 4728
4728 4747 4748 4729
4729 4748 4749 4730
4730 4749 4750 4731
4731 4750 4751 4732
4732 4751 4752 4733
4733 4752 4753 4734
4734 4753 4754 4735
4735 4754 4755 4736
4736 4755 4756 4737
4737 4756 421 420
149 150 4757 4738
4738 4757 4758 4739
4739 4758 4759 4740
4740 4759 4760 4741
4741 4760 4761 4742
4742 4761 4762 4743
4743 4762 4763 4744
4744 4763 4764 4745
4745 4764 4765 4746
4746 4765 4766 4747
4747 4766 4767 4748
4748 4767 4768 4749
4749 4768 4769 4750
4750 4769 4770 4751
4751 4770 4771 4752
4752 4771 4772 4753
4753 4772 4773 4754
4754 4773 4774 4755
4755 4774 4775 4756
4756 4775 422 421
150 151 4776 4757
4757 4776 4777 4758
4758 4777 4778 4759
4759 4778 4779 4760
4760 4779 4780 4761
4761 4780 4781 4762
4762 4781 4782 4763
4763 4782 4783 4764
4764 4783 4784 4765
4765 4784 4785 4766
4766 4785 4786 4767
4767 4786 4787 4768
4768 4787 4788 4769
4769 4788 4789 4770
4770 4789 4790 4771
4771 4790 4791 4772
4772 4791 4792 4773
4773 4792 4793 4774
4774 4793 4794 4775
4775 4794 423 422
151 152 4795 4776
4776 4795 4796 4777
4777 4796 4797 4778
4778 4797 4798 4779
4779 4798 4799 4780
4780 4799 4800 4781
4781 4800 4801 4782
4782 4801 4802 4783
4783 4802 4803 4784
4784 4803 4804 4785
4785 4804 4805 4786
4786 4805 4806 4787
4787 4806 4807 4788
4788 4807 4808 4789
4789 4808 4809 4790
4790 4809 4810 4791
4791 4810 4811 4792
4792 4811 4812 4793
4793 4812 4813 4794
4794 4813 424 423
152 153 4814 4795
4795 4814 4815 4796
4796 4815 4816 4797
4797 4816 4817 4798
4798 4817 4818 4799
4799 4818 4819 4800
4800 4819 4820 4801
4801 4820 4821 4802
4802 4821 4822 4803
4803 4822 4823 4804
4804 4823 4824 4805
4805 4824 4825 4806
4806 4825 4826 4807
4807 4826 4827 4808
4808 4827 4828 4809
4809 4828 4829 4810
4810 4829 4830 4811
4811 4830 4831 4812
4812 4831 4832 4813
4813 4832 425 424
153 154 4833 4814
4814 4833 4834 4815
4815 4834 4835 4816
4816 4835 4836 4817
4817 4836 4837 4818
4818 4837 4838 4819
4819 4838 4839 4820
4820 4839 4840 4821
4821 4840 4841 4822
4822 4841 4842 4823
4823 4842 4843 4824
4824 4843 4844 4825
4825 4844 4845 4826
4826 4845 4846 4827
4827 4846 4847 4828
4828 4847 4848 4829
4829 4848 4849 4830
4830 4849 4850 4831
4831 4850 4851 4832
4832 4851 426 425
154 155 4852 4833
4833 4852 4853 4834
4834 4853 4854 4835
4835 4854 4855 4836
4836 4855 4856 4837
4837 4856 4857 4838
4838 4857 4858 4839
4839 4858 4859 4840
4840 4859 4860 4841
4841 4860 4861 4842
4842 4861 4862 4843
4843 4862 4863 4844
4844 4863 4864 4845
4845 4864 4865 4846
4846 4865 4866 4847
4847 4866 4867 4848
4848 4867 4868 4849
4849 4868 4869 4850
4850 4869 4870 4851
4851 4870 427 426
155 156 4871 4852
4852 4871 4872 4853
4853 4872 4873 4854
4854 4873 4874 4855
4855 4874 4875 4856
4856 4875 4876 4857
4857 4876 4877 4858
4858 4877 4878 4859
4859 4878 4879 4860
4860 4879 4880 4861
4861 4880 4881 4862
4862 4881 4882 4863
4863 4882 4883 4864
4864 4883 4884 4865
4865 4884 4885 4866
4866 4885 4886 4867
4867 4886 4887 4868
4868 4887 4888 4869
4869 4888 4889 4870
4870 4889 428 427
156 157 4890 4871
4871 4890 4891 4872
4872 4891 4892 4873
4873 4892 4893 4874
4874 4893 4894 4875
4875 4894 4895 4876
4876 4895 4896 4877
4877 4896 4897 4878
4878 4897 4898 4879
4879 4898 4899 4880
4880 4899 4900 4881
4881 4900 4901 4882
4882 4901 4902 4883
4883 4902 4903 4884
4884 4903 4904 4885
4885 4904 4905 4886
4886 4905 4906 4887
4887 4906 4907 4888
4888 4907 4908 4889
4889 4908 429 428
157 158 4909 4890
4890 4909 4910 4891
4891 4910 4911 4892
4892 4911 4912 4893
4893 4912 4913 4894
4894 4913 4914 4895
4895 4914 4915 4896
4896 4915 4916 4897
4897 4916 4917 4898
4898 4917 4918 4899
4899 4918 4919 4900
4900 4919 4920 4901
4901 4920 4921 4902
4902 4921 4922 4903
4903 4922 4923 4904
4904 4923 4924 4905
4905 4924 4925 4906
4906 4925 4926 4907
4907 4926 4927 4908
4908 4927 430 429
158 159 4928 4909
4909 4928 4929 4910
4910 4929 4930 4911
4911 4930 4931 4912
4912 4931 4932 4913
4913 4932 4933 4914
4914 4933 4934 4915
4915 4934 4935 4916
4916 4935 4936 4917
4917 4936 4937 4918
4918 4937 4938 4919
4919 4938 4939 4920
4920 4939 4940 4921
4921 4940 4941 4922
4922 4941 4942 4923
4923 4942 4943 4924
4924 4943 4944 4925
4925 4944 4945 4926
4926 4945 4946 4927
4927 4946 431 430
159 160 4947 4928
4928 4947 4948 4929
4929 4948 4949 4930
4930 4949 4950 4931
4931 4950 4951 4932
4932 4951 4952 4933
4933 4952 4953 4934
4934 4953 4954 4935
4935 4954 4955 4936
4936 4955 4956 4937
4937 4956 4957 4938
4938 4957 4958 4939
4939 4958 4959 4940
4940 4959 4960 4941
4941 4960 4961 4942
4942 4961 4962 4943
4943 4962 4963 4944
4944 4963 4964 4945
4945 4964 4965 4946
4946 4965 432 431
160 161 4966 4947
4947 4966 4967 4948
4948 4967 4968 4949
4949 4968 4969 4950
4950 4969 4970 4951
4951 4970 4971 4952
4952 4971 4972 4953
4953 4972 4973 4954
4954 4973 4974 4955
4955 4974 4975 4956
4956 4975 4976 4957
4957 4976 4977 4958
4958 4977 4978 4959
4959 4978 4979 4960
4960 4979 4980 4961
4961 4980 4981 4962
4962 4981 4982 4963
4963 4982 4983 4964
4964 4983 4984 4965
4965 4984 433 432
161 162 4985 4966
4966 4985 4986 4967
4967 4986 4987 4968
4968 4987 4988 4969
4969 4988 4989 4970
4970 4989 4990 4971
4971 4990 4991 4972
4972 4991 4992 4973
4973 4992 4993 4974
4974 4993 4994 4975
4975 4994 4995 4976
4976 4995 4996 4977
4977 4996 4997 4978
4978 4997 4998 4979
4979 4998 4999 4980
4980 4999 5000 4981
4981 5000 5001 4982
4982 5001 5002 4983
4983 5002 5003 4984
4984 5003 434 433
162 163 5004 4985
4985 5004 5005 4986
4986 5005 5006 4987
4987 5006 5007 4988
4988 5007 5008 4989
4989 5008 5009 4990
4990 5009 5010 4991
4991 5010 5011 4992
4992 5011 5012 4993
4993 5012 5013 4994
4994 5013 5014 4995
4995 5014 5015 4996
4996 5015 5016 4997
4997 5016 5017 4998
4998 5017 5018 4999
4999 5018 5019 5000
5000 5019 5020 5001
5001 5020 5021 5002
5002 5021 5022 5003
5003 5022 435 434
163 164 5023 5004
5004 5023 5024 5005
5005 5024 5025 5006
5006 5025 5026 5007
5007 5026 5027 5008
5008 5027 5028 5009
5009 5028 5029 5010
5010 5029 5030 5011
5011 5030 5031 5012
5012 5031 5032 5013
5013 5032 5033 5014
5014 5033 5034 5015
5015 5034 5035 5016
5016 5035 5036 5017
5017 5036 5037 5018
5018 5037 5038 5019
5019 5038 5039 5020
5020 5039 5040 5021
5021 5040 5041 5022
5022 5041 436 435
164 165 5042 5023
5023 5042 5043 5024
5024 5043 5044 5025
5025 5044 5045 5026
5026 5045 5046 5027
5027 5046 5047 5028
5028 5047 5048 5029
5029 5048 5049 5030
5030 5049 5050 5031
5031 5050 5051 5032
5032 5051 5052 5033
5033 5052 5053 5034
5034 5053 5054 5035
5035 5054 5055 5036
5036 5055 5056 5037
5037 5056 5057 5038
5038 5057 5058 5039
5039 5058 5059 5040
5040 5059 5060 5041
5041 5060 437 436
165 6 242 5042
5042 242 241 5043
5043 241 240 5044
5044 240 239 5045
5045 239 238 5046
5046 238 237 5047
5047 237 236 5048
5048 236 235 5049
5049 235 234 5050
5050 234 233 5051
5051 233 232 5052
5052 232 231 5053
5053 231 230 5054
5054 230 229 5055
5055 229 228 5056
5056 228 227 5057
5057 227 226 5058
5058 226 225 5059
5059 225 224 5060
5060 224 8 437
9 323 5061 400
400 5061 5062 401
401 5062 5063 402
402 5063 5064 403
403 5064 5065 404
404 5065 5066 405
405 5066 5067 406
406 5067 5068 407
407 5068 5069 408
408 5069 5070 409
409 5070 5071 410
410 5071 5072 411
411 5072 5073 412
412 5073 5074 413
413 5074 5075 414
414 5075 5076 415
415 5076 5077 416
416 5077 5078 417
417 5078 5079 418
418 5079 185 7
323 324 5080 5061
5061 5080 5081 5062
5062 5081 5082 5063
5063 5082 5083 5064
5064 5083 5084 5065
5065 5084 5085 5066
5066 5085 5086 5067
5067 5086 5087 5068
5068 5087 5088 5069
5069 5088 5089 5070
5070 5089 5090 5071
5071 5090 5091 5072
5072 5091 5092 5073
5073 5092 5093 5074
5074 5093 5094 5075
5075 5094 5095 5076
5076 5095 5096 5077
5077 5096 5097 5078
5078 5097 5098 5079
5079 5098 186 185
324 325 5099 5080
5080 5099 5100 5081
5081 5100 5101 5082
5082 5101 5102 5083
5083 5102 5103 5084
5084 5103 5104 5085
5085 5104 5105 5086
5086 5105 5106 5087
5087 5106 5107 5088
5088 5107 5108 5089
5089 5108 5109 5090
5090 5109 5110 5091
5091 5110 5111 5092
5092 5111 5112 5093
5093 5112 5113 5094
5094 5113 5114 5095
5095 5114 5115 5096
5096 5115 5116 5097
5097 5116 5117 5098
5098 5117 187 186
325 326 5118 5099
5099 5118 5119 5100
5100 5119 5120 5101
5101 5120 5121 5102
5102 5121 5122 5103
5103 5122 5123 5104
5104 5123 5124 5105
5105 5124 5125 5106
5106 5125 5126 5107
5107 5126 5127 5108
5108 5127 5128 5109
5109 5128 5129 5110
5110 5129 5130 5111
5111 5130 5131 5112
5112 5131 5132 5113
5113 5132 5133 5114
5114 5133 5134 5115
5115 5134 5135 5116
5116 5135 5136 5117
5117 5136 188 187
326 327 5137 5118
5118 5137 5138 5119
5119 5138 5139 5120
5120 5139 5140 5121
5121 5140 5141 5122
5122 5141 5142 5123
5123 5142 5143 5124
5124 5143 5144 5125
5125 5144 5145 5126
5126 5145 5146 5127
5127 5146 5147 5128
5128 5147 5148 5129
5129 5148 5149 5130
5130 5149 5150 5131
5131 5150 5151 5132
5132 5151 5152 5133
5133 5152 5153 5134
5134 5153 5154 5135
5135 5154 5155 5136
5136 5155 189 188
327 328 5156 5137
5137 5156 5157 5138
5138 5157 5158 5139
5139 5158 5159 5140
5140 5159 5160 5141
5141 5160 5161 5142
5142 5161 5162 5143
5143 5162 5163 5144
5144 5163 5164 5145
5145 5164 5165 5146
5146 5165 5166 5147
5147 5166 5167 5148
5148 5167 5168 5149
5149 5168 5169 5150
5150 5169 5170 5151
5151 5170 5171 5152
5152 5171 5172 5153
5153 5172 5173 5154
5154 5173 5174 5155
5155 5174 190 189
328 329 5175 5156
5156 5175 5176 5157
5157 5176 5177 5158
5158 5177 5178 5159
5159 5178 5179 5160
5160 5179 5180 5161
5161 5180 5181 5162
5162 5181 5182 5163
5163 5182 5183 5164
5164 5183 5184 5165
5165 5184 5185 5166
5166 5185 5186 5167
5167 5186 5187 5168
5168 5187 5188 5169
5169 5188 5189 5170
5170 5189 5190 5171
5171 5190 5191 5172
5172 5191 5192 5173
5173 5192 5193 5174
5174 5193 191 190
329 330 5194 5175
5175 5194 5195 5176
5176 5195 5196 5177
5177 5196 5197 5178
5178 5197 5198 5179
5179 5198 5199 5180
5180 5199 5200 5181
5181 5200 5201 5182
5182 5201 5202 5183
5183 5202 5203 5184
5184 5203 5204 5185
5185 5204 5205 5186
5186 5205 5206 5187
5187 5206 5207 5188
5188 5207 5208 5189
5189 5208 5209 5190
5190 5209 5210 5191
5191 5210 5211 5192
5192 5211 5212 5193
5193 5212 192 191
330 331 5213 5194
5194 5213 5214 5195
5195 5214 5215 5196
5196 5215 5216 5197
5197 5216 5217 5198
5198 5217 5218 5199
5199 5218 5219 5200
5200 5219 5220 5201
5201 5220 5221 5202
5202 5221 5222 5203
5203 5222 5223 5204
5204 5223 5224 5205
5205 5224 5225 5206
5206 5225 5226 5207
5207 5226 5227 5208
5208 5227 5228 5209
5209 5228 5229 5210
5210 5229 5230 5211
5211 5230 5231 5212
5212 5231 193 192
331 332 5232 5213
5213 5232 5233 5214
5214 5233 5234 5215
5215 5234 5235 5216
5216 5235 5236 5217
5217 5236 5237 5218
5218 5237 5238 5219
5219 5238 5239 5220
5220 5239 5240 5221
5221 5240 5241 5222
5222 5241 5242 5223
5223 5242 5243 5224
5224 5243 5244 5225
5225 5244 5245 5226
5226 5245 5246 5227
5227 5246 5247 5228
5228 5247 5248 5229
5229 5248 5249 5230
5230 5249 5250 5231
5231 5250 194 193
332 333 5251 5232
5232 5251 5252 5233
5233 5252 5253 5234
5234 5253 5254 5235
5235 5254 5255 5236
5236 5255 5256 5237
5237 5256 5257 5238
5238 5257 5258 5239
5239 5258 5259 5240
5240 5259 5260 5241
5241 5260 5261 5242
5242 5261 5262 5243
5243 5262 5263 5244
5244 5263 5264 5245
5245 5264 5265 5246
5246 5265 5266 5247
5247 5266 5267 5248
5248 5267 5268 5249
5249 5268 5269 5250
5250 5269 195 194
333 334 5270 5251
5251 5270 5271 5252
5252 5271 5272 5253
5253 5272 5273 5254
5254 5273 5274 5255
5255 5274 5275 5256
5256 5275 5276 5257
5257 5276 5277 5258
5258 5277 5278 5259
5259 5278 5279 5260
5260 5279 5280 5261
5261 5280 5281 5262
5262 5281 5282 5263
5263 5282 5283 5264
5264 5283 5284 5265
5265 5284 5285 5266
5266 5285 5286 5267
5267 5286 5287 5268
5268 5287 5288 5269
5269 5288 196 195
334 335 5289 5270
5270 5289 5290 5271
5271 5290 5291 5272
5272 5291 5292 5273
5273 5292 5293 5274
5274 5293 5294 5275
5275 5294 5295 5276
5276 5295 5296 5277
5277 5296 5297 5278
5278 5297 5298 5279
5279 5298 5299 5280
5280 5299 5300 5281
5281 5300 5301 5282
5282 5301 5302 5283
5283 5302 5303 5284
5284 5303 5304 5285
5285 5304 5305 5286
5286 5305 5306 5287
5287 5306 5307 5288
5288 5307 197 196
335 336 5308 5289
5289 5308 5309 5290
5290 5309 5310 5291
5291 5310 5311 5292
5292 5311 5312 5293
5293 5312 5313 5294
5294 5313 5314 5295
5295 5314 5315 5296
5296 5315 5316 5297
5297 5316 5317 5298
5298 5317 5318 5299
5299 5318 5319 5300
5300 5319 5320 5301
5301 5320 5321 5302
5302 5321 5322 5303
5303 5322 5323 5304
5304 5323 5324 5305
5305 5324 5325 5306
5306 5325 5326 5307
5307 5326 198 197
336 337 5327 5308
5308 5327 5328 5309
5309 5328 5329 5310
5310 5329 5330 5311
5311 5330 5331 5312
5312 5331 5332 5313
5313 5332 5333 5314
5314 5333 5334 5315
5315 5334 5335 5316
5316 5335 5336 5317
5317 5336 5337 5318
5318 5337 5338 5319
5319 5338 5339 5320
5320 5339 5340 5321
5321 5340 5341 5322
5322 5341 5342 5323
5323 5342 5343 5324
5324 5343 5344 5325
5325 5344 5345 5326
5326 5345 199 198
337 338 5346 5327
5327 5346 5347 5328
5328 5347 5348 5329
5329 5348 5349 5330
5330 5349 5350 5331
5331 5350 5351 5332
5332 5351 5352 5333
5333 5352 5353 5334
5334 5353 5354 5335
5335 5354 5355 5336
5336 5355 5356 5337
5337 5356 5357 5338
5338 5357 5358 5339
5339 5358 5359 5340
5340 5359 5360 5341
5341 5360 5361 5342
5342 5361 5362 5343
5343 5362 5363 5344
5344 5363 5364 5345
5345 5364 200 199
338 339 5365 5346
5346 5365 5366 5347
5347 5366 5367 5348
5348 5367 5368 5349
5349 5368 5369 5350
5350 5369 5370 5351
5351 5370 5371 5352
5352 5371 5372 5353
5353 5372 5373 5354
5354 5373 5374 5355
5355 5374 5375 5356
5356 5375 5376 5357
5357 5376 5377 5358
5358 5377 5378 5359
5359 5378 5379 5360
5360 5379 5380 5361
5361 5380 5381 5362
5362 5381 5382 5363
5363 5382 5383 5364
5364 5383 201 200
339 340 5384 5365
5365 5384 5385 5366
5366 5385 5386 5367
5367 5386 5387 5368
5368 5387 5388 5369
5369 5388 5389 5370
5370 5389 5390 5371
5371 5390 5391 5372
5372 5391 5392 5373
5373 5392 5393 5374
5374 5393 5394 5375
5375 5394 5395 5376
5376 5395 5396 5377
5377 5396 5397 5378
5378 5397 5398 5379
5379 5398 5399 5380
5380 5399 5400 5381
5381 5400 5401 5382
5382 5401 5402 5383
5383 5402 202 201
340 341 5403 5384
5384 5403 5404 5385
5385 5404 5405 5386
5386 5405 5406 5387
5387 5406 5407 5388
5388 5407 5408 5389
5389 5408 5409 5390
5390 5409 5410 5391
5391 5410 5411 5392
5392 5411 5412 5393
5393 5412 5413 5394
5394 5413 5414 5395
5395 5414 5415 5396
5396 5415 5416 5397
5397 5416 5417 5398
5398 5417 5418 5399
5399 5418 5419 5400
5400 5419 5420 5401
5401 5420 5421 5402
5402 5421 203 202
341 342 5422 5403
5403 5422 5423 5404
5404 5423 5424 5405
5405 5424 5425 5406
5406 5425 5426 5407
5407 5426 5427 5408
5408 5427 5428 5409
5409 5428 5429 5410
5410 5429 5430 5411
5411 5430 5431 5412
5412 5431 5432 5413
5413 5432 5433 5414
5414 5433 5434 5415
5415 5434 5435 5416
5416 5435 5436 5417
5417 5436 5437 5418
5418 5437 5438 5419
5419 5438 5439 5420
5420 5439 5440 5421
5421 5440 204 203
342 343 5441 5422
5422 5441 5442 5423
5423 5442 5443 5424
5424 5443 5444 5425
5425 5444 5445 5426
5426 5445 5446 5427
5427 5446 5447 5428
5428 5447 5448 5429
5429 5448 5449 5430
5430 5449 5450 5431
5431 5450 5451 5432
5432 5451 5452 5433
5433 5452 5453 5434
5434 5453 5454 5435
5435 5454 5455 5436
5436 5455 5456 5437
5437 5456 5457 5438
5438 5457 5458 5439
5439 5458 5459 5440
5440 5459 205 204
343 344 5460 5441
5441 5460 5461 5442
5442 5461 5462 5443
5443 5462 5463 5444
5444 5463 5464 5445
5445 5464 5465 5446
5446 5465 5466 5447
5447 5466 5467 5448
5448 5467 5468 5449
5449 5468 5469 5450
5450 5469 5470 5451
5451 5470 5471 5452
5452 5471 5472 5453
5453 5472 5473 5454
5454 5473 5474 5455
5455 5474 5475 5456
5456 5475 5476 5457
5457 5476 5477 5458
5458 5477 5478 5459
5459 5478 206 205
344 345 5479 5460
5460 5479 5480 5461
5461 5480 5481 5462
5462 5481 5482 5463
5463 5482 5483 5464
5464 5483 5484 5465
5465 5484 5485 5466
5466 5485 5486 5467
5467 5486 5487 5468
5468 5487 5488 5469
5469 5488 5489 5470
5470 5489 5490 5471
5471 5490 5491 5472
5472 5491 5492 5473
5473 5492 5493 5474
5474 5493 5494 5475
5475 5494 5495 5476
5476 5495 5496 5477
5477 5496 5497 5478
5478 5497 207 206
345 346 5498 5479
5479 5498 5499 5480
5480 5499 5500 5481
5481 5500 5501 5482
5482 5501 5502 5483
5483 5502 5503 5484
5484 5503 5504 5485
5485 5504 5505 5486
5486 5505 5506 5487
5487 5506 5507 5488
5488 5507 5508 5489
5489 5508 5509 5490
5490 5509 5510 5491
5491 5510 5511 5492
5492 5511 5512 5493
5493 5512 5513 5494
5494 5513 5514 5495
5495 5514 5515 5496
5496 5515 5516 5497
5497 5516 208 207
346 347 5517 5498
5498 5517 5518 5499
5499 5518 5519 5500
5500 5519 5520 5501
5501 5520 5521 5502
5502 5521 5522 5503
5503 5522 5523 5504
5504 5523 5524 5505
5505 5524 5525 5506
5506 5525 5526 5507
5507 5526 5527 5508
5508 5527 5528 5509
5509 5528 5529 5510
5510 5529 5530 5511
5511 5530 5531 5512
5512 5531 5532 5513
5513 5532 5533 5514
5514 5533 5534 5515
5515 5534 5535 5516
5516 5535 209 208
347 348 5536 5517
5517 5536 5537 5518
5518 5537 5538 5519
5519 5538 5539 5520
5520 5539 5540 5521
5521 5540 5541 5522
5522 5541 5542 5523
5523 5542 5543 5524
5524 5543 5544 5525
5525 5544 5545 5526
5526 5545 5546 5527
5527 5546 5547 5528
5528 5547 5548 5529
5529 5548 5549 5530
5530 5549 5550 5531
5531 5550 5551 5532
5532 5551 5552 5533
5533 5552 5553 5534
5534 5553 5554 5535
5535 5554 210 209
348 349 5555 5536
5536 5555 5556 5537
5537 5556 5557 5538
5538 5557 5558 5539
5539 5558 5559 5540
5540 5559 5560 5541
5541 5560 5561 5542
5542 5561 5562 5543
5543 5562 5563 5544
5544 5563 5564 5545
5545 5564 5565 5546
5546 5565 5566 5547
5547 5566 5567 5548
5548 5567 5568 5549
5549 5568 5569 5550
5550 5569 5570 5551
5551 5570 5571 5552
5552 5571 5572 5553
5553 5572 5573 5554
5554 5573 211 210
349 350 5574 5555
5555 5574 5575 5556
5556 5575 5576 5557
5557 5576 5577 5558
5558 5577 5578 5559
5559 5578 5579 5560
5560 5579 5580 5561
5561 5580 5581 5562
5562 5581 5582 5563
5563 5582 5583 5564
5564 5583 5584 5565
5565 5584 5585 5566
5566 5585 5586 5567
5567 5586 5587 5568
5568 5587 5588 5569
5569 5588 5589 5570
5570 5589 5590 5571
5571 5590 5591 5572
5572 5591 5592 5573
5573 5592 212 211
350 351 5593 5574
5574 5593 5594 5575
5575 5594 5595 5576
5576 5595 5596 5577
5577 5596 5597 5578
5578 5597 5598 5579
5579 5598 5599 5580
5580 5599 5600 5581
5581 5600 5601 5582
5582 5601 5602 5583
5583 5602 5603 5584
5584 5603 5604 5585
5585 5604 5605 5586
5586 5605 5606 5587
5587 5606 5607 5588
5588 5607 5608 5589
5589 5608 5609 5590
5590 5609 5610 5591
5591 5610 5611 5592
5592 5611 213 212
351 352 5612 5593
5593 5612 5613 5594
5594 5613 5614 5595
5595 5614 5615 5596
5596 5615 5616 5597
5597 5616 5617 5598
5598 5617 5618 5599
5599 5618 5619 5600
5600 5619 5620 5601
5601 5620 5621 5602
5602 5621 5622 5603
5603 5622 5623 5604
5604 5623 5624 5605
5605 5624 5625 5606
5606 5625 5626 5607
5607 5626 5627 5608
5608 5627 5628 5609
5609 5628 5629 5610
5610 5629 5630 5611
5611 5630 214 213
352 353 5631 5612
5612 5631 5632 5613
5613 5632 5633 5614
5614 5633 5634 5615
5615 5634 5635 5616
5616 5635 5636 5617
5617 5636 5637 5618
5618 5637 5638 5619
5619 5638 5639 5620
5620 5639 5640 5621
5621 5640 5641 5622
5622 5641 5642 5623
5623 5642 5643 5624
5624 5643 5644 5625
5625 5644 5645 5626
5626 5645 5646 5627
5627 5646 5647 5628
5628 5647 5648 5629
5629 5648 5649 5630
5630 5649 215 214
353 354 5650 5631
5631 5650 5651 5632
5632 5651 5652 5633
5633 5652 5653 5634
5634 5653 5654 5635
5635 5654 5655 5636
5636 5655 5656 5637
5637 5656 5657 5638
5638 5657 5658 5639
5639 5658 5659 5640
5640 5659 5660 5641
5641 5660 5661 5642
5642 5661 5662 5643
5643 5662 5663 5644
5644 5663 5664 5645
5645 5664 5665 5646
5646 5665 5666 5647
5647 5666 5667 5648
5648 5667 5668 5649
5649 5668 216 215
354 355 5669 5650
5650 5669 5670 5651
5651 5670 5671 5652
5652 5671 5672 5653
5653 5672 5673 5654
5654 5673 5674 5655
5655 5674 5675 5656
5656 5675 5676 5657
5657 5676 5677 5658
5658 5677 5678 5659
5659 5678 5679 5660
5660 5679 5680 5661
5661 5680 5681 5662
5662 5681 5682 5663
5663 5682 5683 5664
5664 5683 5684 5665
5665 5684 5685 5666
5666 5685 5686 5667
5667 5686 5687 5668
5668 5687 217 216
355 356 5688 5669
5669 5688 5689 5670
5670 5689 5690 5671
5671 5690 5691 5672
5672 5691 5692 5673
5673 5692 5693 5674
5674 5693 5694 5675
5675 5694 5695 5676
5676 5695 5696 5677
5677 5696 5697 5678
5678 5697 5698 5679
5679 5698 5699 5680
5680 5699 5700 5681
5681 5700 5701 5682
5682 5701 5702 5683
5683 5702 5703 5684
5684 5703 5704 5685
5685 5704 5705 5686
5686 5705 5706 5687
5687 5706 218 217
356 357 5707 5688
5688 5707 5708 5689
5689 5708 5709 5690
5690 5709 5710 5691
5691 5710 5711 5692
5692 5711 5712 5693
5693 5712 5713 5694
5694 5713 5714 5695
5695 5714 5715 5696
5696 5715 5716 5697
5697 5716 5717 5698
5698 5717 5718 5699
5699 5718 5719 5700
5700 5719 5720 5701
5701 5720 5721 5702
5702 5721 5722 5703
5703 5722 5723 5704
5704 5723 5724 5705
5705 5724 5725 5706
5706 5725 219 218
357 358 5726 5707
5707 5726 5727 5708
5708 5727 5728 5709
5709 5728 5729 5710
5710 5729 5730 5711
5711 5730 5731 5712
5712 5731 5732 5713
5713 5732 5733 5714
5714 5733 5734 5715
5715 5734 5735 5716
5716 5735 5736 5717
5717 5736 5737 5718
5718 5737 5738 5719
5719 5738 5739 5720
5720 5739 5740 5721
5721 5740 5741 5722
5722 5741 5742 5723
5723 5742 5743 5724
5724 5743 5744 5725
5725 5744 220 219
358 359 5745 5726
5726 5745 5746 5727
5727 5746 5747 5728
5728 5747 5748 5729
5729 5748 5749 5730
5730 5749 5750 5731
5731 5750 5751 5732
5732 5751 5752 5733
5733 5752 5753 5734
5734 5753 5754 5735
5735 5754 5755 5736
5736 5755 5756 5737
5737 5756 5757 5738
5738 5757 5758 5739
5739 5758 5759 5740
5740 5759 5760 5741
5741 5760 5761 5742
5742 5761 5762 5743
5743 5762 5763 5744
5744 5763 221 220
359 360 5764 5745
5745 5764 5765 5746
5746 5765 5766 5747
5747 5766 5767 5748
5748 5767 5768 5749
5749 5768 5769 5750
5750 5769 5770 5751
5751 5770 5771 5752
5752 5771 5772 5753
5753 5772 5773 5754
5754 5773 5774 5755
5755 5774 5775 5756
5756 5775 5776 5757
5757 5776 5777 5758
5758 5777 5778 5759
5759 5778 5779 5760
5760 5779 5780 5761
5761 5780 5781 5762
5762 5781 5782 5763
5763 5782 222 221
360 361 5783 5764
5764 5783 5784 5765
5765 5784 5785 5766
5766 5785 5786 5767
5767 5786 5787 5768
5768 5787 5788 5769
5769 5788 5789 5770
5770 5789 5790 5771
5771 5790 5791 5772
5772 5791 5792 5773
5773 5792 5793 5774
5774 5793 5794 5775
5775 5794 5795 5776
5776 5795 5796 5777
5777 5796 5797 5778
5778 5797 5798 5779
5779 5798 5799 5780
5780 5799 5800 5781
5781 5800 5801 5782
5782 5801 223 222
361 10 419 5783
5783 419 420 5784
5784 420 421 5785
5785 421 422 5786
5786 422 423 5787
5787 423 424 5788
5788 424 425 5789
5789 425 426 5790
5790 426 427 5791
5791 427 428 5792
5792 428 429 5793
5793 429 430 5794
5794 430 431 5795
5795 431 432 5796
5796 432 433 5797
5797 433 434 5798
5798 434 435 5799
5799 435 436 5800
5800 436 437 5801
5801 437 8 223
</DataArray>
<DataArray type="Int64" Name="offsets" format="ascii">
4
8
12
16
20
24
28
32
36
40
44
48
52
56
60
64
68
72
76
80
84
88
92
96
100
104
108
112
116
120
124
128
132
136
140
144
148
152
156
160
164
168
172
176
180
184
188
192
196
200
204
208
212
216
220
224
228
232
236
240
244
248
252
256
260
264
268
272
276
280
284
288
292
296
300
304
308
312
316
320
324
328
332
336
340
344
348
352
356
360
364
368
372
376
380
384
388
392
396
400
404
408
412
416
420
424
428
432
436
440
444
448
452
456
460
464
468
472
476
480
484
488
492
496
500
504
508
512
516
520
524
528
532
536
540
544
548
552
556
560
564
568
572
576
580
584
588
592
596
600
604
608
612
616
620
624
628
632
636
640
644
648
652
656
660
664
668
672
676
680
684
688
692
696
700
704
708
712
716
720
724
728
732
736
740
744
748
752
756
760
764
768
772
776
780
784
788
792
796
800
804
808
812
816
820
824
828
832
836
840
844
848
852
856
860
864
868
872
876
880
884
888
892
896
900
904
908
912
916
920
924
928
932
936
940
944
948
952
956
960
964
968
972
976
980
984
988
992
996
1000
1004
1008
1012
1016
1020
1024
1028
1032
1036
1040
1044
1048
1052
1056
1060
1064
1068
1072
1076
1080
1084
1088
1092
1096
1100
1104
1108
1112
1116
1120
1124
1128
1132
1136
1140
1144
1148
1152
1156
1160
1164
1168
1172
1176
1180
1184
1188
1192
1196
1200
1204
1208
1212
1216
1220
1224
1228
1232
1236
1240
1244
1248
1252
1256
1260
1264
1268
1272
1276
1280
1284
1288
1292
1296
1300
1304
1308
1312
1316
1320
1324
1328
1332
1336
1340
1344
1348
1352
1356
1360
1364
1368
1372
1376
1380
1384
1388
1392
1396
1400
1404
1408
1412
1416
1420
1424
1428
1432
1436
1440
1444
1448
1452
1456
1460
1464
1468
1472
1476
1480
1484
1488
1492
1496
1500
1504
1508
1512
1516
1520
1524
1528
1532
1536
1540
1544
1548
1552
1556
1560
1564
1568
1572
1576
1580
1584
1588
1592
1596
1600
1604
1608
1612
1616
1620
1624
1628
1632
1636
1640
1644
1648
1652
1656
1660
1664
1668
1672
1676
1680
1684
1688
1692
1696
1700
1704
1708
1712
1716
1720
1724
1728
1732
1736
1740
1744
1748
1752
1756
1760
1764
1768
1772
1776
1780
1784
1788
1792
1796
1800
1804
1808
1812
1816
1820
1824
1828
1832
1836
1840
1844
1848
1852
1856
1860
1864
1868
1872
1876
1880
1884
1888
1892
1896
1900
1904
1908
1912
1916
1920
1924
1928
1932
1936
1940
1944
1948
1952
1956
1960
1964
1968
1972
1976
1980
1984
1988
1992
1996
2000
2004
2008
2012
2016
2020
2024
2028
2032
2036
2040
2044
2048
2052
2056
2060
2064
2068
2072
2076
2080
2084
2088
2092
2096
2100
2104
2108
2112
2116
2120
2124
2128
2132
2136
2140
2144
2148
2152
2156
2160
2164
2168
2172
2176
2180
2184
2188
2192
2196
2200
2204
2208
2212
2216
2220
2224
2228
2232
2236
2240
2244
2248
2252
2256
2260
2264
2268
2272
2276
2280
2284
2288
2292
2296
2300
2304
2308
2312
2316
2320
2324
2328
2332
2336
2340
2344
2348
2352
2356
2360
2364
2368
2372
2376
2380
2384
2388
2392
2396
2400
2404
2408
2412
2416
2420
2424
2428
2432
2436
2440
2444
2448
2452
2456
2460
2464
2468
2472
2476
2480
2484
2488
2492
2496
2500
2504
2508
2512
2516
2520
2524
2528
2532
2536
2540
2544
2548
2552
2556
2560
2564
2568
2572
2576
2580
2584
2588
2592
2596
2600
2604
2608
2612
2616
2620
2624
2628
2632
2636
2640
2644
2648
2652
2656
2660
2664
2668
2672
2676
2680
2684
2688
2692
2696
2700
2704
2708
2712
2716
2720
2724
2728
2732
2736
2740
2744
2748
2752
2756
2760
2764
2768
2772
2776
2780
2784
2788
2792
2796
2800
2804
2808
2812
2816
2820
2824
2828
2832
2836
2840
2844
2848
2852
2856
2860
2864
2868
2872
2876
2880
2884
2888
2892
2896
2900
2904
2908
2912
2916
2920
2924
2928
2932
2936
2940
2944
2948
2952
2956
2960
2964
2968
2972
2976
2980
2984
2988
2992
2996
3000
3004
3008
3012
3016
3020
3024
3028
3032
3036
3040
3044
3048
3052
3056
3060
3064
3068
3072
3076
3080
3084
3088
3092
3096
3100
3104
3108
3112
3116
3120
3124
3128
3132
3136
3140
3144
3148
3152
3156
3160
3164
3168
3172
3176
3180
3184
3188
3192
3196
3200
3204
3208
3212
3216
3220
3224
3228
3232
3236
3240
3244
3248
3252
3256
3260
3264
3268
3272
3276
3280
3284
3288
3292
3296
3300
3304
3308
3312
3316
3320
3324
3328
3332
3336
3340
3344
3348
3352
3356
3360
3364
3368
3372
3376
3380
3384
3388
3392
3396
3400
3404
3408
3412
3416
3420
3424
3428
3432
3436
3440
3444
3448
3452
3456
3460
3464
3468
3472
3476
3480
3484
3488
3492
3496
3500
3504
3508
3512
3516
3520
3524
3528
3532
3536
3540
3544
3548
3552
3556
3560
3564
3568
3572
3576
3580
3584
3588
3592
3596
3600
3604
3608
3612
3616
3620
3624
3628
3632
3636
3640
3644
3648
3652
3656
3660
3664
3668
3672
3676
3680
3684
3688
3692
3696
3700
3704
3708
3712
3716
3720
3724
3728
3732
3736
3740
3744
3748
3752
3756
3760
3764
3768
3772
3776
3780
3784
3788
3792
3796
3800
3804
3808
3812
3816
3820
3824
3828
3832
3836
3840
3844
3848
3852
3856
3860
3864
3868
3872
3876
3880
3884
3888
3892
3896
3900
3904
3908
3912
3916
3920
3924
3928
3932
3936
3940
3944
3948
3952
3956
3960
3964
3968
3972
3976
3980
3984
3988
3992
3996
4000
4004
4008
4012
4016
4020
4024
4028
4032
4036
4040
4044
4048
4052
4056
4060
4064
4068
4072
4076
4080
4084
4088
4092
4096
4100
4104
4108
4112
4116
4120
4124
4128
4132
4136
4140
4144
4148
4152
4156
4160
4164
4168
4172
4176
4180
4184
4188
4192
4196
4200
4204
4208
4212
4216
4220
4224
4228
4232
4236
4240
4244
4248
4252
4256
4260
4264
4268
4272
4276
4280
4284
4288
4292
4296
4300
4304
4308
4312
4316
4320
4324
4328
4332
4336
4340
4344
4348
4352
4356
4360
4364
4368
4372
4376
4380
4384
4388
4392
4396
4400
4404
4408
4412
4416
4420
4424
4428
4432
4436
4440
4444
4448
4452
4456
4460
4464
4468
4472
4476
4480
4484
4488
4492
4496
4500
4504
4508
4512
4516
4520
4524
4528
4532
4536
4540
4544
4548
4552
4556
4560
4564
4568
4572
4576
4580
4584
4588
4592
4596
4600
4604
4608
4612
4616
4620
4624
4628
4632
4636
4640
4644
4648
4652
4656
4660
4664
4668
4672
4676
4680
4684
4688
4692
4696
4700
4704
4708
4712
4716
4720
4724
4728
4732
4736
4740
4744
4748
4752
4756
4760
4764
4768
4772
4776
4780
4784
4788
4792
4796
4800
4804
4808
4812
4816
4820
4824
4828
4832
4836
4840
4844
4848
4852
4856
4860
4864
4868
4872
4876
4880
4884
4888
4892
4896
4900
4904
4908
4912
4916
4920
4924
4928
4932
4936
4940
4944
4948
4952
4956
4960
4964
4968
4972
4976
4980
4984
4988
4992
4996
5000
5004
5008
5012
5016
5020
5024
5028
5032
5036
5040
5044
5048
5052
5056
5060
5064
5068
5072
5076
5080
5084
5088
5092
5096
5100
5104
5108
5112
5116
5120
5124
5128
5132
5136
5140
5144
5148
5152
5156
5160
5164
5168
5172
5176
5180
5184
5188
5192
5196
5200
5204
5208
5212
5216
5220
5224
5228
5232
5236
5240
5244
5248
5252
5256
5260
5264
5268
5272
5276
5280
5284
5288
5292
5296
5300
5304
5308
5312
5316
5320
5324
5328
5332
5336
5340
5344
5348
5352
5356
5360
5364
5368
5372
5376
5380
5384
5388
5392
5396
5400
5404
5408
5412
5416
5420
5424
5428
5432
5436
5440
5444
5448
5452
5456
5460
5464
5468
5472
5476
5480
5484
5488
5492
5496
5500
5504
5508
5512
5516
5520
5524
5528
5532
5536
5540
5544
5548
5552
5556
5560
5564
5568
5572
5576
5580
5584
5588
5592
5596
5600
5604
5608
5612
5616
5620
5624
5628
5632
5636
5640
5644
5648
5652
5656
5660
5664
5668
5672
5676
5680
5684
5688
5692
5696
5700
5704
5708
5712
5716
5720
5724
5728
5732
5736
5740
5744
5748
5752
5756
5760
5764
5768
5772
5776
5780
5784
5788
5792
5796
5800
5804
5808
5812
5816
5820
5824
5828
5832
5836
5840
5844
5848
5852
5856
5860
5864
5868
5872
5876
5880
5884
5888
5892
5896
5900
5904
5908
5912
5916
5920
5924
5928
5932
5936
5940
5944
5948
5952
5956
5960
5964
5968
5972
5976
5980
5984
5988
5992
5996
6000
6004
6008
6012
6016
6020
6024
6028
6032
6036
6040
6044
6048
6052
6056
6060
6064
6068
6072
6076
6080
6084
6088
6092
6096
6100
6104
6108
6112
6116
6120
6124
6128
6132
6136
6140
6144
6148
6152
6156
6160
6164
6168
6172
6176
6180
6184
6188
6192
6196
6200
6204
6208
6212
6216
6220
6224
6228
6232
6236
6240
6244
6248
6252
6256
6260
6264
6268
6272
6276
6280
6284
6288
6292
6296
6300
6304
6308
6312
6316
6320
6324
6328
6332
6336
6340
6344
6348
6352
6356
6360
6364
6368
6372
6376
6380
6384
6388
6392
6396
6400
6404
6408
6412
6416
6420
6424
6428
6432
6436
6440
6444
6448
6452
6456
6460
6464
6468
6472
6476
6480
6484
6488
6492
6496
6500
6504
6508
6512
6516
6520
6524
6528
6532
6536
6540
6544
6548
6552
6556
6560
6564
6568
6572
6576
6580
6584
6588
6592
6596
6600
6604
6608
6612
6616
6620
6624
6628
6632
6636
6640
6644
6648
6652
6656
6660
6664
6668
6672
6676
6680
6684
6688
6692
6696
6700
6704
6708
6712
6716
6720
6724
6728
6732
6736
6740
6744
6748
6752
6756
6760
6764
6768
6772
6776
6780
6784
6788
6792
6796
6800
6804
6808
6812
6816
6820
6824
6828
6832
6836
6840
6844
6848
6852
6856
6860
6864
6868
6872
6876
6880
6884
6888
6892
6896
6900
6904
6908
6912
6916
6920
6924
6928
6932
6936
6940
6944
6948
6952
6956
6960
6964
6968
6972
6976
6980
6984
6988
6992
6996
7000
7004
7008
7012
7016
7020
7024
7028
7032
7036
7040
7044
7048
7052
7056
7060
7064
7068
7072
7076
7080
7084
7088
7092
7096
7100
7104
7108
7112
7116
7120
7124
7128
7132
7136
7140
7144
7148
7152
7156
7160
7164
7168
7172
7176
7180
7184
7188
7192
7196
7200
7204
7208
7212
7216
7220
7224
7228
7232
7236
7240
7244
7248
7252
7256
7260
7264
7268
7272
7276
7280
7284
7288
7292
7296
7300
7304
7308
7312
7316
7320
7324
7328
7332
7336
7340
7344
7348
7352
7356
7360
7364
7368
7372
7376
7380
7384
7388
7392
7396
7400
7404
7408
7412
7416
7420
7424
7428
7432
7436
7440
7444
7448
7452
7456
7460
7464
7468
7472
7476
7480
7484
7488
7492
7496
7500
7504
7508
7512
7516
7520
7524
7528
7532
7536
7540
7544
7548
7552
7556
7560
7564
7568
7572
7576
7580
7584
7588
7592
7596
7600
7604
7608
7612
7616
7620
7624
7628
7632
7636
7640
7644
7648
7652
7656
7660
7664
7668
7672
7676
7680
7684
7688
7692
7696
7700
7704
7708
7712
7716
7720
7724
7728
7732
7736
7740
7744
7748
7752
7756
7760
7764
7768
7772
7776
7780
7784
7788
7792
7796
7800
7804
7808
7812
7816
7820
7824
7828
7832
7836
7840
7844
7848
7852
7856
7860
7864
7868
7872
7876
7880
7884
7888
7892
7896
7900
7904
7908
7912
7916
7920
7924
7928
7932
7936
7940
7944
7948
7952
7956
7960
7964
7968
7972
7976
7980
7984
7988
7992
7996
8000
8004
8008
8012
8016
8020
8024
8028
8032
8036
8040
8044
8048
8052
8056
8060
8064
8068
8072
8076
8080
8084
8088
8092
8096
8100
8104
8108
8112
8116
8120
8124
8128
8132
8136
8140
8144
8148
8152
8156
8160
8164
8168
8172
8176
8180
8184
8188
8192
8196
8200
8204
8208
8212
8216
8220
8224
8228
8232
8236
8240
8244
8248
8252
8256
8260
8264
8268
8272
8276
8280
8284
8288
8292
8296
8300
8304
8308
8312
8316
8320
8324
8328
8332
8336
8340
8344
8348
8352
8356
8360
8364
8368
8372
8376
8380
8384
8388
8392
8396
8400
8404
8408
8412
8416
8420
8424
8428
8432
8436
8440
8444
8448
8452
8456
8460
8464
8468
8472
8476
8480
8484
8488
8492
8496
8500
8504
8508
8512
8516
8520
8524
8528
8532
8536
8540
8544
8548
8552
8556
8560
8564
8568
8572
8576
8580
8584
8588
8592
8596
8600
8604
8608
8612
8616
8620
8624
8628
8632
8636
8640
8644
8648
8652
8656
8660
8664
8668
8672
8676
8680
8684
8688
8692
8696
8700
8704
8708
8712
8716
8720
8724
8728
8732
8736
8740
8744
8748
8752
8756
8760
8764
8768
8772
8776
8780
8784
8788
8792
8796
8800
8804
8808
8812
8816
8820
8824
8828
8832
8836
8840
8844
8848
8852
8856
8860
8864
8868
8872
8876
8880
8884
8888
8892
8896
8900
8904
8908
8912
8916
8920
8924
8928
8932
8936
8940
8944
8948
8952
8956
8960
8964
8968
8972
8976
8980
8984
8988
8992
8996
9000
9004
9008
9012
9016
9020
9024
9028
9032
9036
9040
9044
9048
9052
9056
9060
9064
9068
9072
9076
9080
9084
9088
9092
9096
9100
9104
9108
9112
9116
9120
9124
9128
9132
9136
9140
9144
9148
9152
9156
9160
9164
9168
9172
9176
9180
9184
9188
9192
9196
9200
9204
9208
9212
9216
9220
9224
9228
9232
9236
9240
9244
9248
9252
9256
9260
9264
9268
9272
9276
9280
9284
9288
9292
9296
9300
9304
9308
9312
9316
9320
9324
9328
9332
9336
9340
9344
9348
9352
9356
9360
9364
9368
9372
9376
9380
9384
9388
9392
9396
9400
9404
9408
9412
9416
9420
9424
9428
9432
9436
9440
9444
9448
9452
9456
9460
9464
9468
9472
9476
9480
9484
9488
9492
9496
9500
9504
9508
9512
9516
9520
9524
9528
9532
9536
9540
9544
9548
9552
9556
9560
9564
9568
9572
9576
9580
9584
9588
9592
9596
9600
9604
9608
9612
9616
9620
9624
9628
9632
9636
9640
9644
9648
9652
9656
9660
9664
9668
9672
9676
9680
9684
9688
9692
9696
9700
9704
9708
9712
9716
9720
9724
9728
9732
9736
9740
9744
9748
9752
9756
9760
9764
9768
9772
9776
9780
9784
9788
9792
9796
9800
9804
9808
9812
9816
9820
9824
9828
9832
9836
9840
9844
9848
9852
9856
9860
9864
9868
9872
9876
9880
9884
9888
9892
9896
9900
9904
9908
9912
9916
9920
9924
9928
9932
9936
9940
9944
9948
9952
9956
9960
9964
9968
9972
9976
9980
9984
9988
9992
9996
10000
10004
10008
10012
10016
10020
10024
10028
10032
10036
10040
10044
10048
10052
10056
10060
10064
10068
10072
10076
10080
10084
10088
10092
10096
10100
10104
10108
10112
10116
10120
10124
10128
10132
10136
10140
10144
10148
10152
10156
10160
10164
10168
10172
10176
10180
10184
10188
10192
10196
10200
10204
10208
10212
10216
10220
10224
10228
10232
10236
10240
10244
10248
10252
10256
10260
10264
10268
10272
10276
10280
10284
10288
10292
10296
10300
10304
10308
10312
10316
10320
10324
10328
10332
10336
10340
10344
10348
10352
10356
10360
10364
10368
10372
10376
10380
10384
10388
10392
10396
10400
10404
10408
10412
10416
10420
10424
10428
10432
10436
10440
10444
10448
10452
10456
10460
10464
10468
10472
10476
10480
10484
10488
10492
10496
10500
10504
10508
10512
10516
10520
10524
10528
10532
10536
10540
10544
10548
10552
10556
10560
10564
10568
10572
10576
10580
10584
10588
10592
10596
10600
10604
10608
10612
10616
10620
10624
10628
10632
10636
10640
10644
10648
10652
10656
10660
10664
10668
10672
10676
10680
10684
10688
10692
10696
10700
10704
10708
10712
10716
10720
10724
10728
10732
10736
10740
10744
10748
10752
10756
10760
10764
10768
10772
10776
10780
10784
10788
10792
10796
10800
10804
10808
10812
10816
10820
10824
10828
10832
10836
10840
10844
10848
10852
10856
10860
10864
10868
10872
10876
10880
10884
10888
10892
10896
10900
10904
10908
10912
10916
10920
10924
10928
10932
10936
10940
10944
10948
10952
10956
10960
10964
10968
10972
10976
10980
10984
10988
10992
10996
11000
11004
11008
11012
11016
11020
11024
11028
11032
11036
11040
11044
11048
11052
11056
11060
11064
11068
11072
11076
11080
11084
11088
11092
11096
11100
11104
11108
11112
11116
11120
11124
11128
11132
11136
11140
11144
11148
11152
11156
11160
11164
11168
11172
11176
11180
11184
11188
11192
11196
11200
11204
11208
11212
11216
11220
11224
11228
11232
11236
11240
11244
11248
11252
11256
11260
11264
11268
11272
11276
11280
11284
11288
11292
11296
11300
11304
11308
11312
11316
11320
11324
11328
11332
11336
11340
11344
11348
11352
11356
11360
11364
11368
11372
11376
11380
11384
11388
11392
11396
11400
11404
11408
11412
11416
11420
11424
11428
11432
11436
11440
11444
11448
11452
11456
11460
11464
11468
11472
11476
11480
11484
11488
11492
11496
11500
11504
11508
11512
11516
11520
11524
11528
11532
11536
11540
11544
11548
11552
11556
11560
11564
11568
11572
11576
11580
11584
11588
11592
11596
11600
11604
11608
11612
11616
11620
11624
11628
11632
11636
11640
11644
11648
11652
11656
11660
11664
11668
11672
11676
11680
11684
11688
11692
11696
11700
11704
11708
11712
11716
11720
11724
11728
11732
11736
11740
11744
11748
11752
11756
11760
11764
11768
11772
11776
11780
11784
11788
11792
11796
11800
11804
11808
11812
11816
11820
11824
11828
11832
11836
11840
11844
11848
11852
11856
11860
11864
11868
11872
11876
11880
11884
11888
11892
11896
11900
11904
11908
11912
11916
11920
11924
11928
11932
11936
11940
11944
11948
11952
11956
11960
11964
11968
11972
11976
11980
11984
11988
11992
11996
12000
12004
12008
12012
12016
12020
12024
12028
12032
12036
12040
12044
12048
12052
12056
12060
12064
12068
12072
12076
12080
12084
12088
12092
12096
12100
12104
12108
12112
12116
12120
12124
12128
12132
12136
12140
12144
12148
12152
12156
12160
12164
12168
12172
12176
12180
12184
12188
12192
12196
12200
12204
12208
12212
12216
12220
12224
12228
12232
12236
12240
12244
12248
12252
12256
12260
12264
12268
12272
12276
12280
12284
12288
12292
12296
12300
12304
12308
12312
12316
12320
12324
12328
12332
12336
12340
12344
12348
12352
12356
12360
12364
12368
12372
12376
12380
12384
12388
12392
12396
12400
12404
12408
12412
12416
12420
12424
12428
12432
12436
12440
12444
12448
12452
12456
12460
12464
12468
12472
12476
12480
12484
12488
12492
12496
12500
12504
12508
12512
12516
12520
12524
12528
12532
12536
12540
12544
12548
12552
12556
12560
12564
12568
12572
12576
12580
12584
12588
12592
12596
12600
12604
12608
12612
12616
12620
12624
12628
12632
12636
12640
12644
12648
12652
12656
12660
12664
12668
12672
12676
12680
12684
12688
12692
12696
12700
12704
12708
12712
12716
12720
12724
12728
12732
12736
12740
12744
12748
12752
12756
12760
12764
12768
12772
12776
12780
12784
12788
12792
12796
12800
12804
12808
12812
12816
12820
12824
12828
12832
12836
12840
12844
12848
12852
12856
12860
12864
12868
12872
12876
12880
12884
12888
12892
12896
12900
12904
12908
12912
12916
12920
12924
12928
12932
12936
12940
12944
12948
12952
12956
12960
12964
12968
12972
12976
12980
12984
12988
12992
12996
13000
13004
13008
13012
13016
13020
13024
13028
13032
13036
13040
13044
13048
13052
13056
13060
13064
13068
13072
13076
13080
13084
13088
13092
13096
13100
13104
13108
13112
13116
13120
13124
13128
13132
13136
13140
13144
13148
13152
13156
13160
13164
13168
13172
13176
13180
13184
13188
13192
13196
13200
13204
13208
13212
13216
13220
13224
13228
13232
13236
13240
13244
13248
13252
13256
13260
13264
13268
13272
13276
13280
13284
13288
13292
13296
13300
13304
13308
13312
13316
13320
13324
13328
13332
13336
13340
13344
13348
13352
13356
13360
13364
13368
13372
13376
13380
13384
13388
13392
13396
13400
13404
13408
13412
13416
13420
13424
13428
13432
13436
13440
13444
13448
13452
13456
13460
13464
13468
13472
13476
13480
13484
13488
13492
13496
13500
13504
13508
13512
13516
13520
13524
13528
13532
13536
13540
13544
13548
13552
13556
13560
13564
13568
13572
13576
13580
13584
13588
13592
13596
13600
13604
13608
13612
13616
13620
13624
13628
13632
13636
13640
13644
13648
13652
13656
13660
13664
13668
13672
13676
13680
13684
13688
13692
13696
13700
13704
13708
13712
13716
13720
13724
13728
13732
13736
13740
13744
13748
13752
13756
13760
13764
13768
13772
13776
13780
13784
13788
13792
13796
13800
13804
13808
13812
13816
13820
13824
13828
13832
13836
13840
13844
13848
13852
13856
13860
13864
13868
13872
13876
13880
13884
13888
13892
13896
13900
13904
13908
13912
13916
13920
13924
13928
13932
13936
13940
13944
13948
13952
13956
13960
13964
13968
13972
13976
13980
13984
13988
13992
13996
14000
14004
14008
14012
14016
14020
14024
14028
14032
14036
14040
14044
14048
14052
14056
14060
14064
14068
14072
14076
14080
14084
14088
14092
14096
14100
14104
14108
14112
14116
14120
14124
14128
14132
14136
14140
14144
14148
14152
14156
14160
14164
14168
14172
14176
14180
14184
14188
14192
14196
14200
14204
14208
14212
14216
14220
14224
14228
14232
14236
14240
14244
14248
14252
14256
14260
14264
14268
14272
14276
14280
14284
14288
14292
14296
14300
14304
14308
14312
14316
14320
14324
14328
14332
14336
14340
14344
14348
14352
14356
14360
14364
14368
14372
14376
14380
14384
14388
14392
14396
14400
14404
14408
14412
14416
14420
14424
14428
14432
14436
14440
14444
14448
14452
14456
14460
14464
14468
14472
14476
14480
14484
14488
14492
14496
14500
14504
14508
14512
14516
14520
14524
14528
14532
14536
14540
14544
14548
14552
14556
14560
14564
14568
14572
14576
14580
14584
14588
14592
14596
14600
14604
14608
14612
14616
14620
14624
14628
14632
14636
14640
14644
14648
14652
14656
14660
14664
14668
14672
14676
14680
14684
14688
14692
14696
14700
14704
14708
14712
14716
14720
14724
14728
14732
14736
14740
14744
14748
14752
14756
14760
14764
14768
14772
14776
14780
14784
14788
14792
14796
14800
14804
14808
14812
14816
14820
14824
14828
14832
14836
14840
14844
14848
14852
14856
14860
14864
14868
14872
14876
14880
14884
14888
14892
14896
14900
14904
14908
14912
14916
14920
14924
14928
14932
14936
14940
14944
14948
14952
14956
14960
14964
14968
14972
14976
14980
14984
14988
14992
14996
15000
15004
15008
15012
15016
15020
15024
15028
15032
15036
15040
15044
15048
15052
15056
15060
15064
15068
15072
15076
15080
15084
15088
15092
15096
15100
15104
15108
15112
15116
15120
15124
15128
15132
15136
15140
15144
15148
15152
15156
15160
15164
15168
15172
15176
15180
15184
15188
15192
15196
15200
15204
15208
15212
15216
15220
15224
15228
15232
15236
15240
15244
15248
15252
15256
15260
15264
15268
15272
15276
15280
15284
15288
15292
15296
15300
15304
15308
15312
15316
15320
15324
15328
15332
15336
15340
15344
15348
15352
15356
15360
15364
15368
15372
15376
15380
15384
15388
15392
15396
15400
15404
15408
15412
15416
15420
15424
15428
15432
15436
15440
15444
15448
15452
15456
15460
15464
15468
15472
15476
15480
15484
15488
15492
15496
15500
15504
15508
15512
15516
15520
15524
15528
15532
15536
15540
15544
15548
15552
15556
15560
15564
15568
15572
15576
15580
15584
15588
15592
15596
15600
15604
15608
15612
15616
15620
15624
15628
15632
15636
15640
15644
15648
15652
15656
15660
15664
15668
15672
15676
15680
15684
15688
15692
15696
15700
15704
15708
15712
15716
15720
15724
15728
15732
15736
15740
15744
15748
15752
15756
15760
15764
15768
15772
15776
15780
15784
15788
15792
15796
15800
15804
15808
15812
15816
15820
15824
15828
15832
15836
15840
15844
15848
15852
15856
15860
15864
15868
15872
15876
15880
15884
15888
15892
15896
15900
15904
15908
15912
15916
15920
15924
15928
15932
15936
15940
15944
15948
15952
15956
15960
15964
15968
15972
15976
15980
15984
15988
15992
15996
16000
16004
16008
16012
16016
16020
16024
16028
16032
16036
16040
16044
16048
16052
16056
16060
16064
16068
16072
16076
16080
16084
16088
16092
16096
16100
16104
16108
16112
16116
16120
16124
16128
16132
16136
16140
16144
16148
16152
16156
16160
16164
16168
16172
16176
16180
16184
16188
16192
16196
16200
16204
16208
16212
16216
16220
16224
16228
16232
16236
16240
16244
16248
16252
16256
16260
16264
16268
16272
16276
16280
16284
16288
16292
16296
16300
16304
16308
16312
16316
16320
16324
16328
16332
16336
16340
16344
16348
16352
16356
16360
16364
16368
16372
16376
16380
16384
16388
16392
16396
16400
16404
16408
16412
16416
16420
16424
16428
16432
16436
16440
16444
16448
16452
16456
16460
16464
16468
16472
16476
16480
16484
16488
16492
16496
16500
16504
16508
16512
16516
16520
16524
16528
16532
16536
16540
16544
16548
16552
16556
16560
16564
16568
16572
16576
16580
16584
16588
16592
16596
16600
16604
16608
16612
16616
16620
16624
16628
16632
16636
16640
16644
16648
16652
16656
16660
16664
16668
16672
16676
16680
16684
16688
16692
16696
16700
16704
16708
16712
16716
16720
16724
16728
16732
16736
16740
16744
16748
16752
16756
16760
16764
16768
16772
16776
16780
16784
16788
16792
16796
16800
16804
16808
16812
16816
16820
16824
16828
16832
16836
16840
16844
16848
16852
16856
16860
16864
16868
16872
16876
16880
16884
16888
16892
16896
16900
16904
16908
16912
16916
16920
16924
16928
16932
16936
16940
16944
16948
16952
16956
16960
16964
16968
16972
16976
16980
16984
16988
16992
16996
17000
17004
17008
17012
17016
17020
17024
17028
17032
17036
17040
17044
17048
17052
17056
17060
17064
17068
17072
17076
17080
17084
17088
17092
17096
17100
17104
17108
17112
17116
17120
17124
17128
17132
17136
17140
17144
17148
17152
17156
17160
17164
17168
17172
17176
17180
17184
17188
17192
17196
17200
17204
17208
17212
17216
17220
17224
17228
17232
17236
17240
17244
17248
17252
17256
17260
17264
17268
17272
17276
17280
17284
17288
17292
17296
17300
17304
17308
17312
17316
17320
17324
17328
17332
17336
17340
17344
17348
17352
17356
17360
17364
17368
17372
17376
17380
17384
17388
17392
17396
17400
17404
17408
17412
17416
17420
17424
17428
17432
17436
17440
17444
17448
17452
17456
17460
17464
17468
17472
17476
17480
17484
17488
17492
17496
17500
17504
17508
17512
17516
17520
17524
17528
17532
17536
17540
17544
17548
17552
17556
17560
17564
17568
17572
17576
17580
17584
17588
17592
17596
17600
17604
17608
17612
17616
17620
17624
17628
17632
17636
17640
17644
17648
17652
17656
17660
17664
17668
17672
17676
17680
17684
17688
17692
17696
17700
17704
17708
17712
17716
17720
17724
17728
17732
17736
17740
17744
17748
17752
17756
17760
17764
17768
17772
17776
17780
17784
17788
17792
17796
17800
17804
17808
17812
17816
17820
17824
17828
17832
17836
17840
17844
17848
17852
17856
17860
17864
17868
17872
17876
17880
17884
17888
17892
17896
17900
17904
17908
17912
17916
17920
17924
17928
17932
17936
17940
17944
17948
17952
17956
17960
17964
17968
17972
17976
17980
17984
17988
17992
17996
18000
18004
18008
18012
18016
18020
18024
18028
18032
18036
18040
18044
18048
18052
18056
18060
18064
18068
18072
18076
18080
18084
18088
18092
18096
18100
18104
18108
18112
18116
18120
18124
18128
18132
18136
18140
18144
18148
18152
18156
18160
18164
18168
18172
18176
18180
18184
18188
18192
18196
18200
18204
18208
18212
18216
18220
18224
18228
18232
18236
18240
18244
18248
18252
18256
18260
18264
18268
18272
18276
18280
18284
18288
18292
18296
18300
18304
18308
18312
18316
18320
18324
18328
18332
18336
18340
18344
18348
18352
18356
18360
18364
18368
18372
18376
18380
18384
18388
18392
18396
18400
18404
18408
18412
18416
18420
18424
18428
18432
18436
18440
18444
18448
18452
18456
18460
18464
18468
18472
18476
18480
18484
18488
18492
18496
18500
18504
18508
18512
18516
18520
18524
18528
18532
18536
18540
18544
18548
18552
18556
18560
18564
18568
18572
18576
18580
18584
18588
18592
18596
18600
18604
18608
18612
18616
18620
18624
18628
18632
18636
18640
18644
18648
18652
18656
18660
18664
18668
18672
18676
18680
18684
18688
18692
18696
18700
18704
18708
18712
18716
18720
18724
18728
18732
18736
18740
18744
18748
18752
18756
18760
18764
18768
18772
18776
18780
18784
18788
18792
18796
18800
18804
18808
18812
18816
18820
18824
18828
18832
18836
18840
18844
18848
18852
18856
18860
18864
18868
18872
18876
18880
18884
18888
18892
18896
18900
18904
18908
18912
18916
18920
18924
18928
18932
18936
18940
18944
18948
18952
18956
18960
18964
18968
18972
18976
18980
18984
18988
18992
18996
19000
19004
19008
19012
19016
19020
19024
19028
19032
19036
19040
19044
19048
19052
19056
19060
19064
19068
19072
19076
19080
19084
19088
19092
19096
19100
19104
19108
19112
19116
19120
19124
19128
19132
19136
19140
19144
19148
19152
19156
19160
19164
19168
19172
19176
19180
19184
19188
19192
19196
19200
19204
19208
19212
19216
19220
19224
19228
19232
19236
19240
19244
19248
19252
19256
19260
19264
19268
19272
19276
19280
19284
19288
19292
19296
19300
19304
19308
19312
19316
19320
19324
19328
19332
19336
19340
19344
19348
19352
19356
19360
19364
19368
19372
19376
19380
19384
19388
19392
19396
19400
19404
19408
19412
19416
19420
19424
19428
19432
19436
19440
19444
19448
19452
19456
19460
19464
19468
19472
19476
19480
19484
19488
19492
19496
19500
19504
19508
19512
19516
19520
19524
19528
19532
19536
19540
19544
19548
19552
19556
19560
19564
19568
19572
19576
19580
19584
19588
19592
19596
19600
19604
19608
19612
19616
19620
19624
19628
19632
19636
19640
19644
19648
19652
19656
19660
19664
19668
19672
19676
19680
19684
19688
19692
19696
19700
19704
19708
19712
19716
19720
19724
19728
19732
19736
19740
19744
19748
19752
19756
19760
19764
19768
19772
19776
19780
19784
19788
19792
19796
19800
19804
19808
19812
19816
19820
19824
19828
19832
19836
19840
19844
19848
19852
19856
19860
19864
19868
19872
19876
19880
19884
19888
19892
19896
19900
19904
19908
19912
19916
19920
19924
19928
19932
19936
19940
19944
19948
19952
19956
19960
19964
19968
19972
19976
19980
19984
19988
19992
19996
20000
20004
20008
20012
20016
20020
20024
20028
20032
20036
20040
20044
20048
20052
20056
20060
20064
20068
20072
20076
20080
20084
20088
20092
20096
20100
20104
20108
20112
20116
20120
20124
20128
20132
20136
20140
20144
20148
20152
20156
20160
20164
20168
20172
20176
20180
20184
20188
20192
20196
20200
20204
20208
20212
20216
20220
20224
20228
20232
20236
20240
20244
20248
20252
20256
20260
20264
20268
20272
20276
20280
20284
20288
20292
20296
20300
20304
20308
20312
20316
20320
20324
20328
20332
20336
20340
20344
20348
20352
20356
20360
20364
20368
20372
20376
20380
20384
20388
20392
20396
20400
20404
20408
20412
20416
20420
20424
20428
20432
20436
20440
20444
20448
20452
20456
20460
20464
20468
20472
20476
20480
20484
20488
20492
20496
20500
20504
20508
20512
20516
20520
20524
20528
20532
20536
20540
20544
20548
20552
20556
20560
20564
20568
20572
20576
20580
20584
20588
20592
20596
20600
20604
20608
20612
20616
20620
20624
20628
20632
20636
20640
20644
20648
20652
20656
20660
20664
20668
20672
20676
20680
20684
20688
20692
20696
20700
20704
20708
20712
20716
20720
20724
20728
20732
20736
20740
20744
20748
20752
20756
20760
20764
20768
20772
20776
20780
20784
20788
20792
20796
20800
20804
20808
20812
20816
20820
20824
20828
20832
20836
20840
20844
20848
20852
20856
20860
20864
20868
20872
20876
20880
20884
20888
20892
20896
20900
20904
20908
20912
20916
20920
20924
20928
20932
20936
20940
20944
20948
20952
20956
20960
20964
20968
20972
20976
20980
20984
20988
20992
20996
21000
21004
21008
21012
21016
21020
21024
21028
21032
21036
21040
21044
21048
21052
21056
21060
21064
21068
21072
21076
21080
21084
21088
21092
21096
21100
21104
21108
21112
21116
21120
21124
21128
21132
21136
21140
21144
21148
21152
21156
21160
21164
21168
21172
21176
21180
21184
21188
21192
21196
21200
21204
21208
21212
21216
21220
21224
21228
21232
21236
21240
21244
21248
21252
21256
21260
21264
21268
21272
21276
21280
21284
21288
21292
21296
21300
21304
21308
21312
21316
21320
21324
21328
21332
21336
21340
21344
21348
21352
21356
21360
21364
21368
21372
21376
21380
21384
21388
21392
21396
21400
21404
21408
21412
21416
21420
21424
21428
21432
21436
21440
21444
21448
21452
21456
21460
21464
21468
21472
21476
21480
21484
21488
21492
21496
21500
21504
21508
21512
21516
21520
21524
21528
21532
21536
21540
21544
21548
21552
21556
21560
21564
21568
21572
21576
21580
21584
21588
21592
21596
21600
21604
21608
21612
21616
21620
21624
21628
21632
21636
21640
21644
21648
21652
21656
21660
21664
21668
21672
21676
21680
21684
21688
21692
21696
21700
21704
21708
21712
21716
21720
21724
21728
21732
21736
21740
21744
21748
21752
21756
21760
21764
21768
21772
21776
21780
21784
21788
21792
21796
21800
21804
21808
21812
21816
21820
21824
21828
21832
21836
21840
21844
21848
21852
21856
21860
21864
21868
21872
21876
21880
21884
21888
21892
21896
21900
21904
21908
21912
21916
21920
21924
21928
21932
21936
21940
21944
21948
21952
21956
21960
21964
21968
21972
21976
21980
21984
21988
21992
21996
22000
22004
22008
22012
22016
22020
22024
22028
22032
22036
22040
22044
22048
22052
22056
22060
22064
22068
22072
22076
22080
22084
22088
22092
22096
22100
22104
22108
22112
22116
22120
22124
22128
22132
22136
22140
22144
22148
22152
22156
22160
22164
22168
22172
22176
22180
22184
22188
22192
22196
22200
22204
22208
22212
22216
22220
22224
22228
22232
22236
22240
22244
22248
22252
22256
22260
22264
22268
22272
22276
22280
22284
22288
22292
22296
22300
22304
22308
22312
22316
22320
22324
22328
22332
22336
22340
22344
22348
22352
22356
22360
22364
22368
22372
22376
22380
22384
22388
22392
22396
22400
22404
22408
22412
22416
22420
22424
22428
22432
22436
22440
22444
22448
22452
22456
22460
22464
22468
22472
22476
22480
22484
22488
22492
22496
22500
22504
22508
22512
22516
22520
22524
22528
22532
22536
22540
22544
22548
22552
22556
22560
22564
22568
22572
22576
22580
22584
22588
22592
22596
22600
22604
22608
22612
22616
22620
22624
22628
22632
22636
22640
22644
22648
22652
22656
22660
22664
22668
22672
22676
22680
22684
22688
22692
22696
22700
22704
22708
22712
22716
22720
</DataArray>
<DataArray type="Int64" Name="types" format="ascii">
9
9
9
9
9
9
9
9
9
9
9
9
9
9
9
9
9
9
9
9
9
9
9
9
9
9
9
9
9
9
9
9
9
9
9
9
9
9
9
9
9
9
9
9
9
9
9
9
9
9
9
9
9
9
9
9
9
9
9
9
9
9
9
9
9
9
9
9
9
9
9
9
9
9
9
9
9
9
9
9
9
9
9
9
9
9
9
9
9
9
9
9
9
9
9
9
9
9
9
9
9
9
9
9
9
9
9
9
9
9
9
9
9
9
9
9
9
9
9
9
9
9
9
9
9
9
9
9
9
9
9
9
9
9
9
9
9
9
9
9
9
9
9
9
9
9
9
9
9
9
9
9
9
9
9
9
9
9
9
9
9
9
9
9
9
9
9
9
9
9
9
9
9
9
9
9
9
9
9
9
9
9
9
9
9
9
9
9
9
9
9
9
9
9
9
9
9
9
9
9
9
9
9
9
9
9
9
9
9
9
9
9
9
9
9
9
9
9
9
9
9
9
9
9
9
9
9
9
9
9
9
9
9
9
9
9
9
9
9
9
9
9
9
9
9
9
9
9
9
9
9
9
9
9
9
9
9
9
9
9
9
9
9
9
9
9
9
9
9
9
9
9
9
9
9
9
9
9
9
9
9
9
9
9
9
9
9
9
9
9
9
9
9
9
9
9
9
9
9
9
9
9
9
9
9
9
9
9
9
9
9
9
9
9
9
9
9
9
9
9
9
9
9
9
9
9
9
9
9
9
9
9
9
9
9
9
9
9
9
9
9
9
9
9
9
9
9
9
9
9
9
9
9
9
9
9
9
9
9
9
9
9
9
9
9
9
9
9
9
9
9
9
9
9
9
9
9
9
9
9
9
9
9
9
9
9
9
9
9
9
9
9
9
9
9
9
9
9
9
9
9
9
9
9
9
9
9
9
9
9
9
9
9
9
9
9
9
9
9
9
9
9
9
9
9
9
9
9
9
9
9
9
9
9
9
9
9
9
9
9
9
9
9
9
9
9
9
9
9
9
9
9
9
9
9
9
9
9
9
9
9
9
9
9
9
9
9
9
9
9
9
9
9
9
9
9
9
9
9
9
9
9
9
9
9
9
9
9
9
9
9
9
9
9
9
9
9
9
9
9
9
9
9
9
9
9
9
9
9
9
9
9
9
9
9
9
9
9
9
9
9
9
9
9
9
9
9
9
9
9
9
9
9
9
9
9
9
9
9
9
9
9
9
9
9
9
9
9
9
9
9
9
9
9
9
9
9
9
9
9
9
9
9
9
9
9
9
9
9
9
9
9
9
9
9
9
9
9
9
9
9
9
9
9
9
9
9
9
9
9
9
9
9
9
9
9
9
9
9
9
9
9
9
9
9
9
9
9
9
9
9
9
9
9
9
9
9
9
9
9
9
9
9
9
9
9
9
9
9
9
9
9
9
9
9
9
9
9
9
9
9
9
9
9
9
9
9
9
9
9
9
9
9
9
9
9
9
9
9
9
9
9
9
9
9
9
9
9
9
9
9
9
9
9
9
9
9
9
9
9
9
9
9
9
9
9
9
9
9
9
9
9
9
9
9
9
9
9
9
9
9
9
9
9
9
9
9
9
9
9
9
9
9
9
9
9
9
9
9
9
9
9
9
9
9
9
9
9
9
9
9
9
9
9
9
9
9
9
9
9
9
9
9
9
9
9
9
9
9
9
9
9
9
9
9
9
9
9
9
9
9
9
9
9
9
9
9
9
9
9
9
9
9
9
9
9
9
9
9
9
9
9
9
9
9
9
9
9
9
9
9
9
9
9
9
9
9
9
9
9
9
9
9
9
9
9
9
9
9
9
9
9
9
9
9
9
9
9
9
9
9
9
9
9
9
9
9
9
9
9
9
9
9
9
9
9
9
9
9
9
9
9
9
9
9
9
9
9
9
9
9
9
9
9
9
9
9
9
9
9
9
9
9
9
9
9
9
9
9
9
9
9
9
9
9
9
9
9
9
9
9
9
9
9
9
9
9
9
9
9
9
9
9
9
9
9
9
9
9
9
9
9
9
9
9
9
9
9
9
9
9
9
9
9
9
9
9
9
9
9
9
9
9
9
9
9
9
9
9
9
9
9
9
9
9
9
9
9
9
9
9
9
9
9
9
9
9
9
9
9
9
9
9
9
9
9
9
9
9
9
9
9
9
9
9
9
9
9
9
9
9
9
9
9
9
9
9
9
9
9
9
9
9
9
9
9
9
9
9
9
9
9
9
9
9
9
9
9
9
9
9
9
9
9
9
9
9
9
9
9
9
9
9
9
9
9
9
9
9
9
9
9
9
9
9
9
9
9
9
9
9
9
9
9
9
9
9
9
9
9
9
9
9
9
9
9
9
9
9
9
9
9
9
9
9
9
9
9
9
9
9
9
9
9
9
9
9
9
9
9
9
9
9
9
9
9
9
9
9
9
9
9
9
9
9
9
9
9
9
9
9
9
9
9
9
9
9
9
9
9
9
9
9
9
9
9
9
9
9
9
9
9
9
9
9
9
9
9
9
9
9
9
9
9
9
9
9
9
9
9
9
9
9
9
9
9
9
9
9
9
9
9
9
9
9
9
9
9
9
9
9
9
9
9
9
9
9
9
9
9
9
9
9
9
9
9
9
9
9
9
9
9
9
9
9
9
9
9
9
9
9
9
9
9
9
9
9
9
9
9
9
9
9
9
9
9
9
9
9
9
9
9
9
9
9
9
9
9
9
9
9
9
9
9
9
9
9
9
9
9
9
9
9
9
9
9
9
9
9
9
9
9
9
9
9
9
9
9
9
9
9
9
9
9
9
9
9
9
9
9
9
9
9
9
9
9
9
9
9
9
9
9
9
9
9
9
9
9
9
9
9
9
9
9
9
9
9
9
9
9
9
9
9
9
9
9
9
9
9
9
9
9
9
9
9
9
9
9
9
9
9
9
9
9
9
9
9
9
9
9
9
9
9
9
9
9
9
9
9
9
9
9
9
9
9
9
9
9
9
9
9
9
9
9
9
9
9
9
9
9
9
9
9
9
9
9
9
9
9
9
9
9
9
9
9
9
9
9
9
9
9
9
9
9
9
9
9
9
9
9
9
9
9
9
9
9
9
9
9
9
9
9
9
9
9
9
9
9
9
9
9
9
9
9
9
9
9
9
9
9
9
9
9
9
9
9
9
9
9
9
9
9
9
9
9
9
9
9
9
9
9
9
9
9
9
9
9
9
9
9
9
9
9
9
9
9
9
9
9
9
9
9
9
9
9
9
9
9
9
9
9
9
9
9
9
9
9
9
9
9
9
9
9
9
9
9
9
9
9
9
9
9
9
9
9
9
9
9
9
9
9
9
9
9
9
9
9
9
9
9
9
9
9
9
9
9
9
9
9
9
9
9
9
9
9
9
9
9
9
9
9
9
9
9
9
9
9
9
9
9
9
9
9
9
9
9
9
9
9
9
9
9
9
9
9
9
9
9
9
9
9
9
9
9
9
9
9
9
9
9
9
9
9
9
9
9
9
9
9
9
9
9
9
9
9
9
9
9
9
9
9
9
9
9
9
9
9
9
9
9
9
9
9
9
9
9
9
9
9
9
9
9
9
9
9
9
9
9
9
9
9
9
9
9
9
9
9
9
9
9
9
9
9
9
9
9
9
9
9
9
9
9
9
9
9
9
9
9
9
9
9
9
9
9
9
9
9
9
9
9
9
9
9
9
9
9
9
9
9
9
9
9
9
9
9
9
9
9
9
9
9
9
9
9
9
9
9
9
9
9
9
9
9
9
9
9
9
9
9
9
9
9
9
9
9
9
9
9
9
9
9
9
9
9
9
9
9
9
9
9
9
9
9
9
9
9
9
9
9
9
9
9
9
9
9
9
9
9
9
9
9
9
9
9
9
9
9
9
9
9
9
9
9
9
9
9
9
9
9
9
9
9
9
9
9
9
9
9
9
9
9
9
9
9
9
9
9
9
9
9
9
9
9
9
9
9
9
9
9
9
9
9
9
9
9
9
9
9
9
9
9
9
9
9
9
9
9
9
9
9
9
9
9
9
9
9
9
9
9
9
9
9
9
9
9
9
9
9
9
9
9
9
9
9
9
9
9
9
9
9
9
9
9
9
9
9
9
9
9
9
9
9
9
9
9
9
9
9
9
9
9
9
9
9
9
9
9
9
9
9
9
9
9
9
9
9
9
9
9
9
9
9
9
9
9
9
9
9
9
9
9
9
9
9
9
9
9
9
9
9
9
9
9
9
9
9
9
9
9
9
9
9
9
9
9
9
9
9
9
9
9
9
9
9
9
9
9
9
9
9
9
9
9
9
9
9
9
9
9
9
9
9
9
9
9
9
9
9
9
9
9
9
9
9
9
9
9
9
9
9
9
9
9
9
9
9
9
9
9
9
9
9
9
9
9
9
9
9
9
9
9
9
9
9
9
9
9
9
9
9
9
9
9
9
9
9
9
9
9
9
9
9
9
9
9
9
9
9
9
9
9
9
9
9
9
9
9
9
9
9
9
9
9
9
9
9
9
9
9
9
9
9
9
9
9
9
9
9
9
9
9
9
9
9
9
9
9
9
9
9
9
9
9
9
9
9
9
9
9
9
9
9
9
9
9
9
9
9
9
9
9
9
9
9
9
9
9
9
9
9
9
9
9
9
9
9
9
9
9
9
9
9
9
9
9
9
9
9
9
9
9
9
9
9
9
9
9
9
9
9
9
9
9
9
9
9
9
9
9
9
9
9
9
9
9
9
9
9
9
9
9
9
9
9
9
9
9
9
9
9
9
9
9
9
9
9
9
9
9
9
9
9
9
9
9
9
9
9
9
9
9
9
9
9
9
9
9
9
9
9
9
9
9
9
9
9
9
9
9
9
9
9
9
9
9
9
9
9
9
9
9
9
9
9
9
9
9
9
9
9
9
9
9
9
9
9
9
9
9
9
9
9
9
9
9
9
9
9
9
9
9
9
9
9
9
9
9
9
9
9
9
9
9
9
9
9
9
9
9
9
9
9
9
9
9
9
9
9
9
9
9
9
9
9
9
9
9
9
9
9
9
9
9
9
9
9
9
9
9
9
9
9
9
9
9
9
9
9
9
9
9
9
9
9
9
9
9
9
9
9
9
9
9
9
9
9
9
9
9
9
9
9
9
9
9
9
9
9
9
9
9
9
9
9
9
9
9
9
9
9
9
9
9
9
9
9
9
9
9
9
9
9
9
9
9
9
9
9
9
9
9
9
9
9
9
9
9
9
9
9
9
9
9
9
9
9
9
9
9
9
9
9
9
9
9
9
9
9
9
9
9
9
9
9
9
9
9
9
9
9
9
9
9
9
9
9
9
9
9
9
9
9
9
9
9
9
9
9
9
9
9
9
9
9
9
9
9
9
9
9
9
9
9
9
9
9
9
9
9
9
9
9
9
9
9
9
9
9
9
9
9
9
9
9
9
9
9
9
9
9
9
9
9
9
9
9
9
9
9
9
9
9
9
9
9
9
9
9
9
9
9
9
9
9
9
9
9
9
9
9
9
9
9
9
9
9
9
9
9
9
9
9
9
9
9
9
9
9
9
9
9
9
9
9
9
9
9
9
9
9
9
9
9
9
9
9
9
9
9
9
9
9
9
9
9
9
9
9
9
9
9
9
9
9
9
9
9
9
9
9
9
9
9
9
9
9
9
9
9
9
9
9
9
9
9
9
9
9
9
9
9
9
9
9
9
9
9
9
9
9
9
9
9
9
9
9
9
9
9
9
9
9
9
9
9
9
9
9
9
9
9
9
9
9
9
9
9
9
9
9
9
9
9
9
9
9
9
9
9
9
9
9
9
9
9
9
9
9
9
9
9
9
9
9
9
9
9
9
9
9
9
9
9
9
9
9
9
9
9
9
9
9
9
9
9
9
9
9
9
9
9
9
9
9
9
9
9
9
9
9
9
9
9
9
9
9
9
9
9
9
9
9
9
9
9
9
9
9
9
9
9
9
9
9
9
9
9
9
9
9
9
9
9
9
9
9
9
9
9
9
9
9
9
9
9
9
9
9
9
9
9
9
9
9
9
9
9
9
9
9
9
9
9
9
9
9
9
9
9
9
9
9
9
9
9
9
9
9
9
9
9
9
9
9
9
9
9
9
9
9
9
9
9
9
9
9
9
9
9
9
9
9
9
9
9
9
9
9
9
9
9
9
9
9
9
9
9
9
9
9
9
9
9
9
9
9
9
9
9
9
9
9
9
9
9
9
9
9
9
9
9
9
9
9
9
9
9
9
9
9
9
9
9
9
9
9
9
9
9
9
9
9
9
9
9
9
9
9
9
9
9
9
9
9
9
9
9
9
9
9
9
9
9
9
9
9
9
9
9
9
9
9
9
9
9
9
9
9
9
9
9
9
9
9
9
9
9
9
9
9
9
9
9
9
9
9
9
9
9
9
9
9
9
9
9
9
9
9
9
9
9
9
9
9
9
9
9
9
9
9
9
9
9
9
9
9
9
9
9
9
9
9
9
9
9
9
9
9
9
9
9
9
9
9
9
9
9
9
9
9
9
9
9
9
9
9
9
9
9
9
9
9
9
9
9
9
9
9
9
9
9
9
9
9
9
9
9
9
9
9
9
9
9
9
9
9
9
9
9
9
9
9
9
9
9
9
9
9
9
9
9
9
9
9
9
9
9
9
9
9
9
9
9
9
9
9
9
9
9
9
9
9
9
9
9
9
9
9
9
9
9
9
9
9
9
9
9
9
9
9
9
9
9
9
9
9
9
9
9
9
9
9
9
9
9
9
9
9
9
9
9
9
9
9
9
9
9
9
9
9
9
9
9
9
9
9
9
9
9
9
9
9
9
9
9
9
9
9
9
9
9
9
9
9
9
9
9
9
9
9
9
9
9
9
9
9
9
9
9
9
9
9
9
9
9
9
9
9
9
9
9
9
9
9
9
9
9
9
9
9
9
9
9
9
9
9
9
9
9
9
9
9
9
9
9
9
9
9
9
9
9
9
9
9
9
9
9
9
9
9
9
9
9
9
9
9
9
9
9
9
9
9
9
9
9
9
9
9
9
9
9
9
9
9
9
9
9
9
9
9
9
9
9
9
9
9
9
9
9
9
9
9
9
9
9
9
9
9
9
9
9
9
9
9
9
9
9
9
9
9
9
9
9
9
9
9
9
9
9
9
9
9
9
9
9
9
9
9
9
9
9
9
9
9
9
9
9
9
9
9
9
9
9
9
9
9
9
9
9
9
9
9
9
9
9
9
9
9
9
9
9
9
9
9
9
9
9
9
9
9
9
9
9
9
9
9
9
9
9
9
9
9
9
9
9
9
9
9
9
9
9
9
9
9
9
9
9
9
9
9
9
9
9
9
9
9
9
9
9
9
9
9
9
9
9
9
9
9
9
9
9
9
9
9
9
9
9
9
9
9
9
9
9
9
9
9
9
9
9
9
9
9
9
9
9
9
9
9
9
9
9
9
9
9
9
9
9
9
9
9
9
9
9
9
9
9
9
9
9
9
9
9
9
9
9
9
9
9
9
9
9
9
9
9
9
9
9
9
9
9
9
9
9
9
9
9
9
9
9
9
9
9
9
9
9
9
9
9
9
9
9
9
9
9
9
9
9
9
9
9
9
9
9
9
9
9
9
9
9
9
9
9
9
9
9
9
9
9
9
9
9
9
9
9
9
9
9
9
9
9
9
9
9
9
9
9
9
9
9
9
9
9
9
9
9
9
9
9
9
9
9
9
9
9
9
9
9
9
9
9
9
9
9
9
9
9
9
9
9
9
9
9
9
9
9
9
9
9
9
9
9
9
9
9
9
9
9
9
9
9
9
9
9
9
9
9
9
9
9
9
9
9
9
9
9
9
9
9
9
9
9
9
9
9
9
9
9
9
9
9
9
9
9
9
9
9
9
9
9
9
9
9
9
9
9
9
9
9
9
9
9
9
9
9
9
9
9
9
9
9
9
9
9
9
9
9
9
9
9
9
9
9
9
9
9
9
9
9
9
9
9
9
9
9
9
9
9
9
9
9
9
9
9
9
9
9
9
9
9
9
9
9
9
9
9
9
9
9
9
9
9
9
9
9
9
9
9
9
9
9
9
9
9
9
9
9
9
9
9
9
9
9
9
9
9
9
9
9
9
9
9
9
9
9
9
9
9
9
9
9
9
9
9
9
9
9
9
9
9
9
9
9
9
9
9
9
9
9
9
9
9
9
9
9
9
9
9
9
9
9
9
9
9
9
9
9
9
9
9
9
9
9
9
9
9
9
9
9
9
9
9
9
9
9
9
9
9
9
9
9
9
9
9
9
9
9
9
9
9
9
9
9
9
9
9
9
9
9
9
9
9
9
9
9
9
9
9
9
9
9
9
9
9
9
9
9
9
9
9
9
9
9
9
9
9
9
9
9
9
9
9
9
9
9
9
9
9
9
9
9
9
9
9
9
9
9
9
9
9
9
9
9
9
9
9
9
9
9
9
9
9
9
9
9
9
9
9
9
9
9
9
9
9
9
9
9
9
9
9
9
9
9
9
9
9
9
9
9
9
9
9
9
9
9
9
9
9
9
9
9
9
9
9
9
9
9
9
9
9
9
9
9
9
9
9
9
9
9
9
9
9
9
9
9
9
9
9
9
9
9
9
9
9
9
9
9
9
9
9
9
9
9
9
9
9
9
9
9
9
9
9
9
9
9
9
9
9
9
9
9
9
9
9
9
9
9
9
9
9
9
9
9
9
9
9
9
9
9
9
9
9
9
9
9
9
9
9
9
9
9
9
9
9
9
9
9
9
9
9
9
9
9
9
9
9
9
9
9
9
9
9
9
9
9
9
9
9
9
9
9
9
9
9
9
9
9
9
9
9
9
9
9
9
9
9
9
9
9
9
9
9
9
9
9
9
9
9
9
9
9
9
9
9
9
9
9
9
9
9
9
9
9
9
9
9
9
9
9
9
9
9
9
9
9
9
9
9
9
9
9
9
9
9
9
9
9
9
9
9
9
9
9
9
9
9
9
9
9
9
9
9
9
9
9
9
9
9
9
9
9
9
9
9
9
9
9
9
9
9
9
9
9
9
9
9
9
9
9
9
9
9
9
9
9
9
9
9
9
9
9
9
9
9
9
9
9
9
9
9
9
9
9
9
9
9
9
9
9
9
9
9
9
9
9
9
9
9
9
9
9
9
9
9
9
9
9
9
9
9
9
9
9
9
9
9
9
9
9
9
9
9
9
9
9
9
9
9
9
9
9
9
9
9
9
9
9
9
9
9
9
9
9
9
9
9
9
9
9
9
9
9
9
9
9
9
9
9
9
9
9
9
9
9
9
9
9
9
9
9
9
9
9
9
9
9
9
9
9
9
9
9
9
9
9
9
9
9
9
9
9
9
9
9
9
9
9
9
9
9
9
9
9
9
9
9
9
9
9
9
9
9
9
9
9
9
9
9
9
9
9
9
9
9
9
9
9
9
9
9
9
9
9
9
9
9
9
9
9
9
9
9
9
9
9
9
9
9
9
9
9
9
9
9
9
9
9
9
9
9
9
9
9
9
9
9
9
9
9
9
9
9
9
9
9
9
9
9
9
9
9
9
9
9
9
9
9
9
9
9
9
9
9
9
9
9
9
9
9
9
9
9
9
9
9
9
9
9
9
9
9
9
9
9
9
9
9
9
9
9
9
9
9
9
9
9
9
9
9
9
9
9
9
9
9
9
9
9
9
9
9
9
9
9
9
9
9
9
9
9
9
9
9
9
9
9
9
9
9
9
9
9
9
9
9
9
9
9
9
9
9
9
9
9
9
9
9
9
9
9
9
9
9
9
9
9
9
9
9
9
9
9
9
9
9
9
9
9
9
9
9
9
9
9
9
9
9
9
9
9
9
9
9
9
9
9
9
9
9
9
9
9
9
9
9
9
9
9
9
9
9
9
9
9
9
9
9
9
9
9
9
9
9
9
9
9
9
9
9
9
9
9
9
9
9
9
9
9
9
9
9
9
9
9
9
9
9
9
9
9
9
9
9
9
9
9
9
9
9
9
9
9
9
9
9
9
9
9
9
9
9
9
9
9
9
9
9
9
9
9
9
9
9
9
9
9
9
9
9
9
9
9
9
9
9
9
9
9
9
9
9
9
9
9
9
9
9
9
9
9
9
9
9
9
9
9
9
9
9
9
9
9
9
9
9
9
9
9
9
9
9
9
9
9
9
9
9
9
9
9
9
9
9
9
9
9
9
9
9
9
9
9
9
9
9
9
9
9
9
9
9
9
9
9
9
9
9
9
9
9
9
9
9
9
9
9
9
9
9
9
9
9
9
9
9
9
9
9
9
9
9
9
9
9
9
9
9
9
9
9
9
9
9
9
9
9
9
9
9
9
9
9
9
9
9
9
9
9
9
9
9
9
9
9
9
9
9
9
9
9
9
9
9
9
9
9
9
9
9
9
9
9
9
9
9
9
9
9
9
9
9
9
9
9
9
9
9
9
9
9
9
9
9
9
9
9
9
9
9
9
9
9
9
9
9
9
9
9
9
9
9
9
9
9
9
9
9
9
9
9
9
9
9
9
9
9
9
9
9
9
9
9
9
9
9
9
9
9
9
9
9
9
9
9
9
9
9
9
9
9
9
9
9
9
9
9
9
9
9
9
9
9
9
9
9
9
9
9
9
9
9
9
9
9
9
9
9
9
9
9
9
9
9
9
9
9
9
9
9
9
9
9
9
9
9
9
9
9
9
9
9
9
9
9
9
9
9
9
9
9
9
9
9
9
9
9
9
9
9
9
9
9
9
9
9
9
9
9
9
9
9
9
9
9
9
9
9
9
9
9
9
9
9
9
9
9
9
9
9
9
9
9
9
9
9
9
9
9
9
9
9
9
9
9
9
9
9
9
9
9
9
9
9
9
9
9
9
9
9
9
9
9
9
9
9
9
9
9
9
9
9
9
9
9
9
9
9
9
9
9
9
9
9
9
9
9
9
9
9
9
9
9
9
9
9
9
9
9
9
9
9
9
9
9
9
9
9
9
9
9
9
9
9
9
9
9
9
9
9
9
9
9
9
9
9
9
9
9
9
9
9
9
9
9
9
9
9
9
9
9
9
9
9
9
9
9
9
9
9
9
9
9
9
9
9
9
9
9
9
9
9
9
9
9
9
9
9
9
9
9
9
9
9
9
9
9
9
9
9
9
9
9
9
9
9
9
9
9
9
9
9
9
9
9
9
9
9
9
9
9
9
9
9
9
9
9
9
9
9
9
9
9
9
9
9
9
9
9
9
9
9
9
9
9
9
9
9
9
9
9
9
9
9
9
9
9
9
9
9
9
9
9
9
9
9
9
9
9
9
9
9
9
9
9
9
9
9
9
9
9
9
9
9
9
9
9
9
9
9
9
9
9
9
9
9
9
9
9
9
9
9
9
9
9
9
9
9
9
9
9
9
9
9
9
9
9
9
9
9
9
9
9
9
9
9
9
9
9
9
9
9
9
9
9
9
9
9
9
9
9
9
9
9
9
9
9
9
9
9
9
9
9
9
9
9
9
9
9
9
9
9
9
9
9
9
9
9
9
9
9
9
9
9
9
9
9
9
9
9
9
9
9
9
9
9
9
9
9
9
9
9
9
9
9
9
9
9
9
9
9
9
9
9
9
9
9
9
9
9
9
9
9
9
9
9
9
9
9
9
9
9
9
9
9
9
9
9
9
9
9
9
9
9
9
9
9
9
9
9
9
9
9
9
9
9
9
9
9
9
9
9
9
9
9
9
9
9
9
9
9
9
9
9
9
9
9
9
9
9
9
9
9
9
9
9
9
9
9
9
9
9
9
9
9
9
9
9
9
9
9
9
9
9
9
9
9
9
9
9
9
9
9
9
9
9
9
9
9
9
9
9
9
9
9
9
9
9
9
9
9
9
9
9
9
9
9
9
9
9
9
9
9
9
9
9
9
9
9
9
9
9
9
9
9
9
9
9
9
9
9
9
9
9
9
9
9
9
9
9
9
9
9
9
9
9
9
9
9
9
9
9
9
9
9
9
9
9
9
9
9
9
9
9
9
9
9
9
9
9
9
9
9
9
9
9
9
9
9
9
9
9
9
9
9
9
9
9
9
9
9
9
9
9
9
9
9
9
9
9
9
9
9
9
9
9
9
9
9
9
9
9
9
9
9
9
9
9
9
9
9
9
9
9
9
9
9
9
9
9
9
9
9
9
9
9
9
9
9
9
9
9
9
9
9
9
9
9
9
9
9
9
9
9
9
9
9
9
9
9
9
9
9
9
9
9
9
9
9
9
9
9
9
9
9
9
9
9
9
9
9
9
9
9
9
9
9
9
9
9
9
9
9
9
9
9
9
9
9
9
9
9
9
9
9
9
9
9
9
9
9
9
9
9
9
9
9
9
9
9
9
9
9
9
9
9
9
9
9
9
9
9
9
9
9
9
9
9
9
9
9
9
9
9
9
9
9
9
9
9
9
9
9
9
9
9
9
9
9
9
9
9
9
9
9
9
9
9
9
9
9
9
9
9
9
9
9
9
9
9
9
9
9
9
9
9
9
9
9
9
9
9
9
9
9
9
9
9
9
9
9
9
9
9
9
9
9
9
9
9
9
9
9
9
9
9
9
9
9
9
9
9
9
9
9
9
9
9
9
9
9
9
9
9
9
9
9
9
9
9
9
9
9
9
9
9
9
9
9
9
9
9
9
9
9
9
9
9
9
9
9
9
9
9
9
9
9
9
9
9
9
9
9
9
9
9
9
9
9
9
9
9
9
9
9
9
9
9
9
9
9
9
9
9
9
9
9
9
9
9
9
9
</DataArray>
</Cells>
<PointData Vectors="'U'">
<DataArray type="Float64" Name="U" NumberOfComponents="2" ComponentName0="U1" ComponentName1="U2" format="ascii">
 0.1535472352727E-37  0.3857486380061E-37
-0.2250756043824E-37 -0.1054470231916E-37
-0.4038165150326E-38  0.1010128289535E-37
 0.3210748646332E-01  0.1269611415601E-01
 0.3280973091287E-01  0.1742725982960E-02
 0.3784554059726E-01 -0.1996716974772E-01
 0.4464359731186E-01 -0.4411206208610E-01
 0.5326183033099E+00  0.1937392427238E+00
 0.9225701742862E+00 -0.6796800623852E+00
 0.2442428399109E+00 -0.4534131346331E-01
 0.5109734279195E+00 -0.3863552515943E+00
 0.1536929390101E-37  0.7108502051651E-37
 0.1501353028914E-37  0.6288259884071E-37
 0.1372710715890E-37  0.5762264517213E-37
 0.1231758288933E-37  0.5357540679149E-37
 0.1092817947856E-37  0.5018141622912E-37
 0.9585247922557E-38  0.4719609060769E-37
 0.8290357478053E-38  0.4449098216687E-37
 0.7039665557486E-38  0.4199032108419E-37
 0.5828564005388E-38  0.3964571137044E-37
 0.4652811718202E-38  0.3742438508361E-37
 0.3508748179444E-38  0.3530313453581E-37
 0.2393265093507E-38  0.3326492116867E-37
 0.1303724787037E-38  0.3129686231739E-37
 0.2378780858347E-39  0.2938897678897E-37
-0.8062055378350E-39  0.2753337161404E-37
-0.1830194416663E-38  0.2572369679279E-37
-0.2835539438884E-38  0.2395476926910E-37
-0.3823509376131E-38  0.2222230726753E-37
-0.4795217788984E-38  0.2052273990401E-37
-0.5751551891362E-38  0.1885311331513E-37
-0.6693636885827E-38  0.1720919551283E-37
-0.7622075623137E-38  0.1559003725117E-37
-0.8537562869574E-38  0.1399379026848E-37
-0.9440709837960E-38  0.1241886643475E-37
-0.1033206089251E-37  0.1086390521431E-37
-0.1121209983697E-37  0.9327743644243E-38
-0.1208125579528E-37  0.7809388026685E-38
-0.1293990782913E-37  0.6307995506891E-38
-0.1378838899220E-37  0.4822856025449E-38
-0.1462698978291E-37  0.3353377278188E-38
-0.1545596088039E-37  0.1899074876150E-38
-0.1627551566021E-37  0.4595596154783E-39
-0.1708583214030E-37 -0.9654688211306E-39
-0.1788705467715E-37 -0.2376230046114E-38
-0.1867929538394E-37 -0.3772869607068E-38
-0.1946263522163E-37 -0.5155462840674E-38
-0.2023712493791E-37 -0.6524021276461E-38
-0.2100278573622E-37 -0.7878494867484E-38
-0.2175960976935E-37 -0.9218776054663E-38
-0.2324657250070E-37 -0.1185605822209E-37
-0.2397655198886E-37 -0.1315257717545E-37
-0.2469737593144E-37 -0.1443394276050E-37
-0.2540889186981E-37 -0.1569978932794E-37
-0.2611091713541E-37 -0.1694970203459E-37
-0.2680323788567E-37 -0.1818321779563E-37
-0.2748560787102E-37 -0.1939982217887E-37
-0.2815774682443E-37 -0.2059895086944E-37
-0.2881933855248E-37 -0.2177998551369E-37
-0.2947002851672E-37 -0.2294225161367E-37
-0.3010942089280E-37 -0.2408501721200E-37
-0.3073707512409E-37 -0.2520748383275E-37
-0.3135250146571E-37 -0.2630878722011E-37
-0.3195515589198E-37 -0.2738798632289E-37
-0.3254443364687E-37 -0.2844405744245E-37
-0.3311966133896E-37 -0.2947588895225E-37
-0.3368008765427E-37 -0.3048226305185E-37
-0.3422487132120E-37 -0.3146185431807E-37
-0.3475306827429E-37 -0.3241321209074E-37
-0.3526364378299E-37 -0.3333474845608E-37
-0.3575590407384E-37 -0.3421517973098E-37
-0.3622797340165E-37 -0.3506166973791E-37
-0.3667825042309E-37 -0.3587208681407E-37
-0.3710485924645E-37 -0.3664409244977E-37
-0.3750557929294E-37 -0.3737513213112E-37
-0.3787774435696E-37 -0.3806244059785E-37
-0.3821809938160E-37 -0.3870307662533E-37
-0.3852259328877E-37 -0.3929401149003E-37
-0.3878607208042E-37 -0.3983232850476E-37
-0.3900181539401E-37 -0.4031563411014E-37
-0.3916082599360E-37 -0.4074289690808E-37
-0.3925073818580E-37 -0.4111618185371E-37
-0.3925418984643E-37 -0.4144434864370E-37
-0.3914667613375E-37 -0.4175137119100E-37
-0.3889509211998E-37 -0.4209649313348E-37
-0.3846429447736E-37 -0.4262831649395E-37
-0.3787073707989E-37 -0.4375196184051E-37
-0.3750819739373E-37 -0.4675828357344E-37
-0.4030928300434E-37 -0.5693426391651E-37
 0.3204696967952E-01  0.1193247594622E-01
 0.3201383560058E-01  0.1129187380290E-01
 0.3200179991658E-01  0.1070196511759E-01
 0.3200646949054E-01  0.1013686846652E-01
 0.3202348880573E-01  0.9585504394834E-02
 0.3204957822269E-01  0.9042514218728E-02
 0.3208244855698E-01  0.8505129186148E-02
 0.3212055433660E-01  0.7971840035881E-02
 0.3216286499501E-01  0.7441780387133E-02
 0.3220869623265E-01  0.6914423890836E-02
 0.3225759476447E-01  0.6389428742091E-02
 0.3230926183785E-01  0.5866554818473E-02
 0.3236350276762E-01  0.5345618880080E-02
 0.3242019353918E-01  0.4826469611939E-02
 0.3247925854018E-01  0.4308973924133E-02
 0.3254065582712E-01  0.3793010442074E-02
 0.3260436801610E-01  0.3278466807222E-02
 0.3267040150240E-01  0.2765244457464E-02
 0.3273878694920E-01  0.2253265438728E-02
 0.3288193312106E-01  0.1236136298890E-02
 0.3295686928005E-01  0.7296702315703E-03
 0.3303429301867E-01  0.2236138937791E-03
 0.3311419973166E-01 -0.2821101530034E-03
 0.3319660828818E-01 -0.7876050209543E-03
 0.3328154987625E-01 -0.1292995830581E-02
 0.3336905764260E-01 -0.1798417828066E-02
 0.3345916466325E-01 -0.2304016653109E-02
 0.3355190260878E-01 -0.2809945463890E-02
 0.3364730120425E-01 -0.3316363531982E-02
 0.3374538845756E-01 -0.3823438020542E-02
 0.3384619014869E-01 -0.4331341535175E-02
 0.3394973024836E-01 -0.4840254478839E-02
 0.3405603081134E-01 -0.5350364604351E-02
 0.3416511200058E-01 -0.5861867281221E-02
 0.3427699243452E-01 -0.6374967234983E-02
 0.3439168903805E-01 -0.6889877912874E-02
 0.3450921747513E-01 -0.7406823504179E-02
 0.3462959223089E-01 -0.7926039277770E-02
 0.3475282687970E-01 -0.8447772718029E-02
 0.3487893438637E-01 -0.8972284737773E-02
 0.3500792741138E-01 -0.9499850856497E-02
 0.3513981865136E-01 -0.1003076249222E-01
 0.3527462125147E-01 -0.1056532852366E-01
 0.3541234926324E-01 -0.1110387702310E-01
 0.3555301794317E-01 -0.1164675640749E-01
 0.3569664456118E-01 -0.1219433864492E-01
 0.3584324852535E-01 -0.1274701995853E-01
 0.3599285218674E-01 -0.1330522439912E-01
 0.3614548123840E-01 -0.1386940624449E-01
 0.3630116483254E-01 -0.1444005201625E-01
 0.3645993642331E-01 -0.1501768614435E-01
 0.3662183286947E-01 -0.1560287178740E-01
 0.3678689434552E-01 -0.1619621699913E-01
 0.3695516240141E-01 -0.1679837774961E-01
 0.3712667616067E-01 -0.1741005917409E-01
 0.3730146736838E-01 -0.1803201889480E-01
 0.3747955086589E-01 -0.1866505144480E-01
 0.3766091140306E-01 -0.1930994876979E-01
 0.3803477305053E-01 -0.2064355889326E-01
 0.3822957325837E-01 -0.2133619647311E-01
 0.3842967568980E-01 -0.2204638953244E-01
 0.3863525840901E-01 -0.2277584870072E-01
 0.3884665581524E-01 -0.2352651090449E-01
 0.3906435065967E-01 -0.2430062418348E-01
 0.3928898474836E-01 -0.2510082930333E-01
 0.3952139826796E-01 -0.2593027326381E-01
 0.3976269594816E-01 -0.2679276780230E-01
 0.4001435169618E-01 -0.2769302273809E-01
 0.4027837163822E-01 -0.2863700077495E-01
 0.4055754932169E-01 -0.2963247854661E-01
 0.4085586778313E-01 -0.3068997695893E-01
 0.4117913073034E-01 -0.3182438133455E-01
 0.4153593498071E-01 -0.3305793021654E-01
 0.4193910779220E-01 -0.3442610600986E-01
 0.4240758768285E-01 -0.3599029572171E-01
 0.4296896667069E-01 -0.3786818868794E-01
 0.4365928464896E-01 -0.4032899223210E-01
 0.4116911805319E-01  0.2381335100856E-01
 0.4390175557771E-01  0.3921935903863E-01
 0.4930588603463E-01  0.5696045452210E-01
 0.5880228848905E-01  0.7645802250391E-01
 0.7243779344108E-01  0.9721864451725E-01
 0.8995454395744E-01  0.1185791336045E+00
 0.1111132561606E+00  0.1388815134398E+00
 0.1353828720641E+00  0.1575136177048E+00
 0.1622828577748E+00  0.1746003472285E+00
 0.1915043194597E+00  0.1901812082381E+00
 0.2227958510172E+00  0.2041398821067E+00
 0.2559035110373E+00  0.2162531461506E+00
 0.2905460844608E+00  0.2264046482075E+00
 0.3264369758805E+00  0.2344105149682E+00
 0.3632663037723E+00  0.2399476628900E+00
 0.4006850724581E+00  0.2428023416884E+00
 0.4383902392565E+00  0.2434239773980E+00
 0.4752690757319E+00  0.2373171208143E+00
 0.5079934033389E+00  0.2204350181470E+00
 0.5425231392338E+00  0.1724152452371E+00
 0.5495163376096E+00  0.1500653426723E+00
 0.5541253023684E+00  0.1272158771230E+00
 0.5563451095448E+00  0.1041391545254E+00
 0.5563423136600E+00  0.8107709396605E-01
 0.5548112601322E+00  0.5811949082311E-01
 0.5523175090621E+00  0.3520080699773E-01
 0.5493816234072E+00  0.1212506654467E-01
 0.5465626077992E+00 -0.1144464540218E-01
 0.5444422592147E+00 -0.3598354821323E-01
 0.5436596731723E+00 -0.6213262146203E-01
 0.5445588371855E+00 -0.9064201180910E-01
 0.5471776276679E+00 -0.1226217565341E+00
 0.5519217429225E+00 -0.1601705601987E+00
 0.5590117483311E+00 -0.2035353520698E+00
 0.5681929636880E+00 -0.2501202495281E+00
 0.5794001330788E+00 -0.2976984220357E+00
 0.5926953197802E+00 -0.3448454054425E+00
 0.6081114645223E+00 -0.3905847844836E+00
 0.6256020409162E+00 -0.4342381296804E+00
 0.6450054280063E+00 -0.4753291149798E+00
 0.6660076815308E+00 -0.5134894539692E+00
 0.6882716101190E+00 -0.5484547661948E+00
 0.7114585056411E+00 -0.5800472976210E+00
 0.7352126636884E+00 -0.6081598782006E+00
 0.7591492372335E+00 -0.6327481038054E+00
 0.7828403764279E+00 -0.6538303332017E+00
 0.8057949283046E+00 -0.6714978864653E+00
 0.8274299545549E+00 -0.6859338104569E+00
 0.8470467934106E+00 -0.6973995682914E+00
 0.8638897823813E+00 -0.7060287772147E+00
 0.8774888295038E+00 -0.7116724945572E+00
 0.8879430513851E+00 -0.7141618993241E+00
 0.8957239763340E+00 -0.7134097867440E+00
 0.9015753858396E+00 -0.7095547798409E+00
 0.9063876687112E+00 -0.7030421776021E+00
 0.9110990893957E+00 -0.6947446038746E+00
 0.9160840866380E+00 -0.6863911045594E+00
 0.9203781795428E+00 -0.6806500346324E+00
 0.9212128014596E+00 -0.6848439072705E+00
 0.9115910167469E+00 -0.6926367160883E+00
 0.8940613556875E+00 -0.6972609850043E+00
 0.8706060967129E+00 -0.6976562954537E+00
 0.8428264592446E+00 -0.6953727936866E+00
 0.8111142015632E+00 -0.6894954626005E+00
 0.7760426960601E+00 -0.6796649675997E+00
 0.7381773849390E+00 -0.6657709952185E+00
 0.6979687087217E+00 -0.6476334043735E+00
 0.6557777591648E+00 -0.6249597134672E+00
 0.6118850638258E+00 -0.5975366012993E+00
 0.5664429302931E+00 -0.5648390886958E+00
 0.5196069684666E+00 -0.5256936533628E+00
 0.4718900457283E+00 -0.4782032858623E+00
 0.4239909561845E+00 -0.4222039393316E+00
 0.3752258487670E+00 -0.3614313060749E+00
 0.3233428016377E+00 -0.2968216658811E+00
 0.2642939385652E+00 -0.2266339336671E+00
 0.1904456098844E+00 -0.1420991345270E+00
 0.2333286245311E-03  0.4789760483060E-03
 0.3946431408716E-03  0.8645524020183E-03
 0.5676091685676E-03  0.1246158765670E-02
 0.7654141901732E-03  0.1624613197445E-02
 0.9959927404272E-03  0.2001308252853E-02
 0.1262839838948E-02  0.2376135837954E-02
 0.1568055048879E-02  0.2748596568197E-02
 0.1912748581442E-02  0.3118088558816E-02
 0.2297492973627E-02  0.3483989944760E-02
 0.2722500332295E-02  0.3845700959997E-02
 0.3187744983224E-02  0.4202654058172E-02
 0.3693033627089E-02  0.4554313800910E-02
 0.4238052158953E-02  0.4900172399531E-02
 0.4822393270717E-02  0.5239741873073E-02
 0.5445572655334E-02  0.5572545899937E-02
 0.6107038623583E-02  0.5898113069099E-02
 0.6806182449556E-02  0.6215973919382E-02
 0.7542303067407E-02  0.6525642583057E-02
 0.8314663068941E-02  0.6826641455290E-02
 0.9122417845907E-02  0.7118477691346E-02
 0.9964636253419E-02  0.7400665413891E-02
 0.1084028124522E-01  0.7672744350798E-02
 0.1174819790516E-01  0.7934349160056E-02
 0.1268720400803E-01  0.8185593606059E-02
 0.1365619931275E-01  0.8427956798879E-02
 0.1465396496765E-01  0.8663249833053E-02
 0.1567892089822E-01  0.8892909294887E-02
 0.1672903988479E-01  0.9117890194542E-02
 0.1780189499540E-01  0.9338857469555E-02
 0.1889475216417E-01  0.9556507567016E-02
 0.2000468300441E-01  0.9771877590471E-02
 0.2112866474391E-01  0.9986608193549E-02
 0.2226367420753E-01  0.1020311173630E-01
 0.2340688260665E-01  0.1042346406060E-01
 0.2455600292235E-01  0.1064946247239E-01
 0.2570959491696E-01  0.1088465355643E-01
 0.2686804933334E-01  0.1113487716164E-01
 0.2803372811856E-01  0.1140936031973E-01
 0.2922116253211E-01  0.1172371078121E-01
 0.3043347481923E-01  0.1212629610330E-01
 0.3755798968000E-01 -0.3992233960389E-01
 0.3478111290164E-01 -0.3725880525780E-01
 0.3241337366303E-01 -0.3527075652767E-01
 0.3041717966836E-01 -0.3358115590712E-01
 0.2862851718612E-01 -0.3208227902309E-01
 0.2699361380269E-01 -0.3071656744620E-01
 0.2547497989075E-01 -0.2944989684940E-01
 0.2405068779304E-01 -0.2826151922704E-01
 0.2270576435283E-01 -0.2713909451480E-01
 0.2142933219156E-01 -0.2607352801114E-01
 0.2021309708949E-01 -0.2505628691108E-01
 0.1905100942539E-01 -0.2408037782634E-01
 0.1793863312516E-01 -0.2314051694456E-01
 0.1687252299479E-01 -0.2223269179045E-01
 0.1584974384548E-01 -0.2135357087736E-01
 0.1486752551908E-01 -0.2049978300895E-01
 0.1392312294456E-01 -0.1966722556029E-01
 0.1301401922910E-01 -0.1885073529833E-01
 0.1213848439840E-01 -0.1804484555189E-01
 0.1129587740373E-01 -0.1724587938583E-01
 0.1048601760103E-01 -0.1645164948453E-01
 0.9708796783731E-02 -0.1566063056544E-01
 0.8964142927025E-02 -0.1487166752235E-01
 0.8252004925771E-02 -0.1408387056886E-01
 0.7572298463741E-02 -0.1329651635233E-01
 0.6924941993716E-02 -0.1250907162889E-01
 0.6309770903374E-02 -0.1172109430630E-01
 0.5726540183425E-02 -0.1093224351843E-01
 0.5174881876500E-02 -0.1014224743078E-01
 0.4654260455390E-02 -0.9350877178058E-02
 0.4163916586047E-02 -0.8557918699202E-02
 0.3702790933992E-02 -0.7763135867135E-02
 0.3269413002382E-02 -0.6966213839892E-02
 0.2861743534904E-02 -0.6166672985184E-02
 0.2476908183761E-02 -0.5363727048069E-02
 0.2110833504638E-02 -0.4556007395532E-02
 0.1757267183137E-02 -0.3741086985158E-02
 0.1407082936585E-02 -0.2914249712695E-02
 0.1041507442741E-02 -0.2064820160705E-02
 0.6314052662991E-03 -0.1177924132274E-02
 0.2481625253760E+00 -0.5384691259054E-01
 0.2521471125861E+00 -0.6258698098126E-01
 0.2562347202066E+00 -0.7155184548792E-01
 0.2604415024926E+00 -0.8073888216261E-01
 0.2647811244581E+00 -0.9014388311914E-01
 0.2692665599610E+00 -0.9976000184001E-01
 0.2739106073340E+00 -0.1095772585359E+00
 0.2787257986846E+00 -0.1195821717325E+00
 0.2837240428935E+00 -0.1297575428854E+00
 0.2889162495232E+00 -0.1400826114035E+00
 0.2943119165429E+00 -0.1505332621018E+00
 0.2999188059340E+00 -0.1610824471413E+00
 0.3057426994342E+00 -0.1717004640224E+00
 0.3117871741193E+00 -0.1823553561142E+00
 0.3180534000156E+00 -0.1930135225788E+00
 0.3245400219296E+00 -0.2036404039944E+00
 0.3312431247379E+00 -0.2142011308077E+00
 0.3381562807194E+00 -0.2246611193357E+00
 0.3452706626190E+00 -0.2349866205928E+00
 0.3525752114124E+00 -0.2451452239426E+00
 0.3600568431849E+00 -0.2551063000606E+00
 0.3677006674901E+00 -0.2648413318192E+00
 0.3754902259763E+00 -0.2743242274989E+00
 0.3834077366302E+00 -0.2835316118389E+00
 0.3914343407796E+00 -0.2924430555467E+00
 0.3995503437901E+00 -0.3010412453519E+00
 0.4077354414580E+00 -0.3093120976160E+00
 0.4159689210884E+00 -0.3172448132102E+00
 0.4242298409286E+00 -0.3248318825081E+00
 0.4324971510486E+00 -0.3320689998166E+00
 0.4407497457937E+00 -0.3389548591455E+00
 0.4489664790847E+00 -0.3454910208569E+00
 0.4571262476527E+00 -0.3516820206739E+00
 0.4652081192442E+00 -0.3575353523741E+00
 0.4731915620197E+00 -0.3630614853969E+00
 0.4810566158830E+00 -0.3682737929249E+00
 0.4887842484763E+00 -0.3731886394414E+00
 0.4963566079868E+00 -0.3778253725357E+00
 0.5037575150221E+00 -0.3822060582473E+00
 0.2243399440608E+00 -0.4206656638831E-01
 0.2049703893573E+00 -0.3887302908755E-01
 0.1861785252635E+00 -0.3570978206693E-01
 0.1680082369923E+00 -0.3259110343948E-01
 0.1505074155494E+00 -0.2954381379877E-01
 0.1337267151949E+00 -0.2659310760775E-01
 0.1177305995352E+00 -0.2375880153196E-01
 0.1025943921446E+00 -0.2105294438769E-01
 0.8840299133073E-01 -0.1847858980917E-01
 0.7525157738465E-01 -0.1603129393667E-01
 0.6324754173982E-01 -0.1370451427436E-01
 0.5251293760148E-01 -0.1149590184021E-01
 0.4318690609141E-01 -0.9409528399653E-02
 0.3542663574054E-01 -0.7452832647118E-02
 0.2940787815585E-01 -0.5632592637557E-02
 0.2532286430827E-01 -0.3951384385964E-02
 0.2337606085686E-01 -0.2400745540955E-02
 0.2379350228191E-01 -0.9579793344911E-03
 0.2683729369143E-01  0.4112407437395E-03
 0.4876334221412E+00 -0.3634829330635E+00
 0.4641224808720E+00 -0.3407056582721E+00
 0.4404139777917E+00 -0.3180360637033E+00
 0.4164867474074E+00 -0.2954981063867E+00
 0.3923331234788E+00 -0.2731195327820E+00
 0.3679533171535E+00 -0.2509325574706E+00
 0.3433525412134E+00 -0.2289804928847E+00
 0.3185493705178E+00 -0.2073244150702E+00
 0.2935826531675E+00 -0.1860488554303E+00
 0.2685157192536E+00 -0.1652649462485E+00
 0.2434326694937E+00 -0.1451070148746E+00
 0.2184273533645E+00 -0.1257247673228E+00
 0.1935961725531E+00 -0.1072782864011E+00
 0.1690443417169E+00 -0.8993928142059E-01
 0.1449034443390E+00 -0.7389325092896E-01
 0.1213410112863E+00 -0.5933655993875E-01
 0.9855668183998E-01 -0.4647306889031E-01
 0.7680489434250E-01 -0.3550973825060E-01
 0.5642445838415E-01 -0.2663598376716E-01
 0.2563362135884E+00 -0.3596805974756E-01
 0.2690867464649E+00 -0.2589159361693E-01
 0.2824818115864E+00 -0.1523725661979E-01
 0.2964524577880E+00 -0.4118220499971E-02
 0.3109161192221E+00  0.7364008019116E-02
 0.3257812050449E+00  0.1911664671634E-01
 0.3409499043033E+00  0.3105809342163E-01
 0.3563212655194E+00  0.4312065873159E-01
 0.3717952695966E+00  0.5525315281486E-01
 0.3872776108149E+00  0.6742270171724E-01
 0.4026847254805E+00  0.7961539135183E-01
 0.4179484566774E+00  0.9183538819738E-01
 0.4330196240516E+00  0.1041022981954E+00
 0.4478697214927E+00  0.1164467438617E+00
 0.4624900975840E+00  0.1289044948298E+00
 0.4768883752343E+00  0.1415099156574E+00
 0.4910824726693E+00  0.1542897779305E+00
 0.5050932288123E+00  0.1672584092844E+00
 0.5189364569912E+00  0.1804141087824E+00
 0.5415933922614E+00 -0.4121588676288E+00
 0.5721639479845E+00 -0.4377219327534E+00
 0.6025284946290E+00 -0.4628324197054E+00
 0.6325262562517E+00 -0.4872860273071E+00
 0.6619946490547E+00 -0.5108864219770E+00
 0.6907694098405E+00 -0.5334461243928E+00
 0.7186841655631E+00 -0.5547883628565E+00
 0.7455700013504E+00 -0.5747491425270E+00
 0.7712549959787E+00 -0.5931794051219E+00
 0.7955636627586E+00 -0.6099473152937E+00
 0.8183162868494E+00 -0.6249408711349E+00
 0.8393282511954E+00 -0.6380711889306E+00
 0.8584095951718E+00 -0.6492769948005E+00
 0.8753652808471E+00 -0.6585310914585E+00
 0.8899969942252E+00 -0.6658498901458E+00
 0.9021078798856E+00 -0.6713075961967E+00
 0.9115127597997E+00 -0.6750575840699E+00
 0.9180596174666E+00 -0.6773659075038E+00
 0.9216791577073E+00 -0.6786678631721E+00
 0.1874317022217E-03  0.4086514654856E-03
 0.3597909563283E-03  0.8049407974471E-03
 0.5319818965357E-03  0.1177250022780E-02
 0.7309066005808E-03  0.1544682619084E-02
 0.9622521219436E-03  0.1908439791402E-02
 0.1230111582113E-02  0.2269372143597E-02
 0.1536495853481E-02  0.2627369267732E-02
 0.1882549702538E-02  0.2982081376257E-02
 0.2268838825423E-02  0.3333045485862E-02
 0.2695572908757E-02  0.3679768195571E-02
 0.3162720697165E-02  0.4021755665565E-02
 0.3670083513790E-02  0.4358525392262E-02
 0.4217341986345E-02  0.4689609182263E-02
 0.4804083956715E-02  0.5014550269325E-02
 0.5429820641069E-02  0.5332898647254E-02
 0.6093996139111E-02  0.5644206817594E-02
 0.6795997528011E-02  0.5948028841732E-02
 0.7535119222390E-02  0.6243903600467E-02
 0.8310618623278E-02  0.6531380295706E-02
 0.9121644581824E-02  0.6809996218659E-02
 0.9967257222123E-02  0.7079299035595E-02
 0.1084640667175E-01  0.7338865722781E-02
 0.1175792321735E-01  0.7588337804072E-02
 0.1270061782531E-01  0.7827653820574E-02
 0.1367339955564E-01  0.8058070115586E-02
 0.1467505891260E-01  0.8281418651452E-02
 0.1570400555606E-01  0.8499332430152E-02
 0.1675817883613E-01  0.8713008520012E-02
 0.1783510064217E-01  0.8923314482225E-02
 0.1893197602896E-01  0.9131072068609E-02
 0.2004581281597E-01  0.9337359830330E-02
 0.2117352623234E-01  0.9543774159387E-02
 0.2231202515102E-01  0.9752659625135E-02
 0.2345840746848E-01  0.9966007245755E-02
 0.2461029979313E-01  0.1018528728973E-01
 0.2576631833341E-01  0.1041333735674E-01
 0.2692646029585E-01  0.1065479973602E-01
 0.2809523034759E-01  0.1091578536894E-01
 0.2927741931981E-01  0.1121047916258E-01
 0.3053586487435E-01  0.1152875779087E-01
 0.1543930038818E-03  0.3687178075110E-03
 0.3235581272805E-03  0.7464039426909E-03
 0.4981086414418E-03  0.1110434960450E-02
 0.6975207968358E-03  0.1465531863672E-02
 0.9298449133997E-03  0.1816207503284E-02
 0.1198716270076E-02  0.2163203766611E-02
 0.1506290920038E-02  0.2506796624937E-02
 0.1853699899253E-02  0.2846817621340E-02
 0.2241517613596E-02  0.3182944296260E-02
 0.2669951058867E-02  0.3514779587314E-02
 0.3138965939740E-02  0.3841900095612E-02
 0.3648359375879E-02  0.4163875788800E-02
 0.4197807718995E-02  0.4480279089080E-02
 0.4786894621754E-02  0.4790686117835E-02
 0.5415127293224E-02  0.5094675036964E-02
 0.6081945909405E-02  0.5391824018568E-02
 0.6786733584876E-02  0.5681711795747E-02
 0.7528780323934E-02  0.5963902782557E-02
 0.8307338491104E-02  0.6237972252554E-02
 0.9121550698221E-02  0.6503485337849E-02
 0.9970468979381E-02  0.6760017751978E-02
 0.1085303430502E-01  0.7007167140618E-02
 0.1176807997305E-01  0.7244553251603E-02
 0.1271442436521E-01  0.7472021023539E-02
 0.1369096053718E-01  0.7690714545842E-02
 0.1469645005238E-01  0.7902462905326E-02
 0.1572927551969E-01  0.8109011905587E-02
 0.1678734662804E-01  0.8311715667279E-02
 0.1786814991661E-01  0.8511580715775E-02
 0.1896884916461E-01  0.8709513376463E-02
 0.2008640811643E-01  0.8906606379724E-02
 0.2121769253340E-01  0.9104400828752E-02
 0.2235955809175E-01  0.9305120588167E-02
 0.2350906192071E-01  0.9510562542854E-02
 0.2466384642644E-01  0.9721806547031E-02
 0.2582248796836E-01  0.9940981480419E-02
 0.2698551661681E-01  0.1017109063661E-01
 0.2815629935549E-01  0.1041695123611E-01
 0.2934720413567E-01  0.1067911278878E-01
 0.3061965506708E-01  0.1095241296915E-01
 0.1296357900978E-03  0.3400489687907E-03
 0.2903284085281E-03  0.6950689029664E-03
 0.4654238937124E-03  0.1045457224878E-02
 0.6655851167641E-03  0.1387793451382E-02
 0.8987423443319E-03  0.1724853799084E-02
 0.1168650970256E-02  0.2057810856809E-02
 0.1477406435242E-02  0.2386984010787E-02
 0.1826162081374E-02  0.2712359918367E-02
 0.2215488983972E-02  0.3033718427165E-02
 0.2645594079835E-02  0.3350746095569E-02
 0.3116440107469E-02  0.3663083130712E-02
 0.3627820846924E-02  0.3970349561386E-02
 0.4179408987653E-02  0.4272158020369E-02
 0.4770784545437E-02  0.4568118177445E-02
 0.5401451163581E-02  0.4857837458504E-02
 0.6070845475324E-02  0.5140920806626E-02
 0.6778346979860E-02  0.5416972427382E-02
 0.7523241633880E-02  0.5685582477144E-02
 0.8304777285040E-02  0.5946351451438E-02
 0.9122091147945E-02  0.6198869916010E-02
 0.9974229089885E-02  0.6442736099566E-02
 0.1086012952889E-01  0.6677557157344E-02
 0.1177863567293E-01  0.6902934629794E-02
 0.1272857137898E-01  0.7118668284187E-02
 0.1370880171852E-01  0.7325840499456E-02
 0.1471804319631E-01  0.7526267896778E-02
 0.1575464140083E-01  0.7721753299924E-02
 0.1681647829537E-01  0.7913744507064E-02
 0.1790101562582E-01  0.8103335180485E-02
 0.1900539094250E-01  0.8291479657987E-02
 0.2012653887396E-01  0.8479261200443E-02
 0.2126129108350E-01  0.8668144611079E-02
 0.2240647045261E-01  0.8860194237516E-02
 0.2355913480243E-01  0.9056957806111E-02
 0.2471695651146E-01  0.9259121538577E-02
 0.2587867133876E-01  0.9468019506784E-02
 0.2704492030725E-01  0.9685609636630E-02
 0.2821989516367E-01  0.9913553097363E-02
 0.2942003937929E-01  0.1014908622580E-01
 0.3068689883754E-01  0.1039793923249E-01
 0.1102796049576E-03  0.3167159234811E-03
 0.2610056591750E-03  0.6495375675390E-03
 0.4345632717010E-03  0.9833483821191E-03
 0.6351329538982E-03  0.1311612480892E-02
 0.8690236258559E-03  0.1634638477954E-02
 0.1139909884521E-02  0.1953330879989E-02
 0.1449826080246E-02  0.2268026714262E-02
 0.1799907019624E-02  0.2578763602596E-02
 0.2190719560794E-02  0.2885396754680E-02
 0.2622466262883E-02  0.3187676904318E-02
 0.3095106567240E-02  0.3485299471332E-02
 0.3608430761452E-02  0.3777930348196E-02
 0.4162108146926E-02  0.4065220831854E-02
 0.4755715446213E-02  0.4346813917595E-02
 0.5388753125292E-02  0.4622346712159E-02
 0.6060654691383E-02  0.4891451507566E-02
 0.6770796489084E-02  0.5153758380499E-02
 0.7518461000495E-02  0.5408883122974E-02
 0.8302892379185E-02  0.5656450500294E-02
 0.9123223752749E-02  0.5896074251457E-02
 0.9978497730680E-02  0.6127370711604E-02
 0.1086765506980E-01  0.6349953248884E-02
 0.1178954963936E-01  0.6563415359248E-02
 0.1274300549836E-01  0.6767540112709E-02
 0.1372685419787E-01  0.6963372154482E-02
 0.1473976197238E-01  0.7152707644294E-02
 0.1578003354824E-01  0.7337368703139E-02
 0.1684552489588E-01  0.7518849757921E-02
 0.1793368053636E-01  0.7698290074253E-02
 0.1904162305927E-01  0.7876661026944E-02
 0.2016627070815E-01  0.8055014502371E-02
 0.2130443635493E-01  0.8234719548415E-02
 0.2245293311760E-01  0.8417657053980E-02
 0.2360884040907E-01  0.8605112997226E-02
 0.2476990893413E-01  0.8797373900932E-02
 0.2593501547315E-01  0.8995144058716E-02
 0.2710503037810E-01  0.9199320175395E-02
 0.2828512326817E-01  0.9409782826460E-02
 0.2949073383666E-01  0.9625548849016E-02
 0.3074384077560E-01  0.9858153195861E-02
 0.9462808268460E-04  0.2963095368369E-03
 0.2354097390092E-03  0.6081630015080E-03
 0.4059597909731E-03  0.9241976232505E-03
 0.6063042588991E-03  0.1237215222695E-02
 0.8407397658701E-03  0.1545697014240E-02
 0.1112510538986E-02  0.1849884003796E-02
 0.1423539774752E-02  0.2149999873960E-02
 0.1774913842481E-02  0.2446075885604E-02
 0.2167181632055E-02  0.2738003074424E-02
 0.2600536611469E-02  0.3025578398681E-02
 0.3074932440610E-02  0.3308541967855E-02
 0.3590155102753E-02  0.3586600352117E-02
 0.4145870281283E-02  0.3859441013427E-02
 0.4741651524609E-02  0.4126739338645E-02
 0.5376996415042E-02  0.4388161960401E-02
 0.6051335757676E-02  0.4643368654356E-02
 0.6764043292093E-02  0.4892015431715E-02
 0.7514398766446E-02  0.5133743406126E-02
 0.8301643692295E-02  0.5368200659183E-02
 0.9124908789635E-02  0.5595022202329E-02
 0.9983236267377E-02  0.5813840078166E-02
 0.1087557190394E-01  0.6024274766197E-02
 0.1180077836950E-01  0.6225921311064E-02
 0.1275767506659E-01  0.6418562403983E-02
 0.1374505826293E-01  0.6603215648770E-02
 0.1476154428137E-01  0.6781648774335E-02
 0.1580539729762E-01  0.6955676466502E-02
 0.1687444963791E-01  0.7126804903998E-02
 0.1796613437969E-01  0.7296186273680E-02
 0.1907756785698E-01  0.7464783358415E-02
 0.2020566271218E-01  0.7633598006766E-02
 0.2134722743718E-01  0.7803889031515E-02
 0.2249908232670E-01  0.7977346002080E-02
 0.2365834682300E-01  0.8154996610088E-02
 0.2482285983484E-01  0.8336782059532E-02
 0.2599162683687E-01  0.8522895378871E-02
 0.2716576210049E-01  0.8713484995323E-02
 0.2835057526823E-01  0.8908180897641E-02
 0.2955784966182E-01  0.9108630824931E-02
 0.3079547528442E-01  0.9327742975638E-02
 0.8164703826792E-04  0.2776718991912E-03
 0.2130846358856E-03  0.5697495279136E-03
 0.3797619608897E-03  0.8676925602549E-03
 0.5792351869771E-03  0.1164680012453E-02
 0.8139434709072E-03  0.1458119650351E-02
 0.1086472693259E-02  0.1747549087184E-02
 0.1398545027351E-02  0.2032962173748E-02
 0.1751167067798E-02  0.2314332950810E-02
 0.2144852568062E-02  0.2591555318528E-02
 0.2579778257134E-02  0.2864453325044E-02
 0.3055888372524E-02  0.3132801152324E-02
 0.3572962880407E-02  0.3396340072829E-02
 0.4130663166043E-02  0.3654790608276E-02
 0.4728559458235E-02  0.3907859045305E-02
 0.5366146635455E-02  0.4155240933623E-02
 0.6042853206895E-02  0.4396623305592E-02
 0.6758050917691E-02  0.4631687909593E-02
 0.7511017642637E-02  0.4860100740878E-02
 0.8300993468095E-02  0.5081532321658E-02
 0.9127108504383E-02  0.5295637612196E-02
 0.9988406876070E-02  0.5502063597170E-02
 0.1088384047078E-01  0.5700440323904E-02
 0.1181227821670E-01  0.5890371645019E-02
 0.1277253143556E-01  0.6071648676113E-02
 0.1376336174557E-01  0.6245265692714E-02
 0.1478333882884E-01  0.6412954218367E-02
 0.1583068917773E-01  0.6576501820454E-02
 0.1690322454737E-01  0.6737400497054E-02
 0.1799837133083E-01  0.6896790030430E-02
 0.1911324645220E-01  0.7055604108396E-02
 0.2024476594894E-01  0.7214779956329E-02
 0.2138974531576E-01  0.7375458297156E-02
 0.2254502398350E-01  0.7539139717898E-02
 0.2370776854610E-01  0.7706617035684E-02
 0.2487589669583E-01  0.7877554128958E-02
 0.2604851140337E-01  0.8051776492722E-02
 0.2722678843998E-01  0.8229118995981E-02
 0.2841532564226E-01  0.8409747233180E-02
 0.2962164729191E-01  0.8597220483329E-02
 0.3084491635473E-01  0.8803534101350E-02
 0.7067495874356E-04  0.2601814914586E-03
 0.1935559264253E-03  0.5334832125826E-03
 0.3559363891434E-03  0.8134302018587E-03
 0.5540037700694E-03  0.1093950261203E-02
 0.7886815887023E-03  0.1371943130262E-02
 0.1061814963800E-02  0.1646371935594E-02
 0.1374842607058E-02  0.1916952441806E-02
 0.1728655377964E-02  0.2183559825403E-02
 0.2123713683576E-02  0.2446064465110E-02
 0.2560167955131E-02  0.2704300130530E-02
 0.3037948215313E-02  0.2958064653065E-02
 0.3556825979728E-02  0.3207127867095E-02
 0.4116457198945E-02  0.3451239872876E-02
 0.4716408381170E-02  0.3690135990900E-02
 0.5356171752599E-02  0.3923539737095E-02
 0.6035173897895E-02  0.4151164896459E-02
 0.6752785211127E-02  0.4372718566758E-02
 0.7508282631341E-02  0.4587891120359E-02
 0.8300906117949E-02  0.4796374792250E-02
 0.9129786889432E-02  0.4997843740531E-02
 0.9993972695680E-02  0.5191960105587E-02
 0.1089242173003E-01  0.5378366130135E-02
 0.1182400689079E-01  0.5556679321490E-02
 0.1278752954159E-01  0.5726703359215E-02
 0.1378171885120E-01  0.5889409216002E-02
 0.1480510264505E-01  0.6046484964240E-02
 0.1585587406172E-01  0.6199676210066E-02
 0.1693182792024E-01  0.6350441445319E-02
 0.1803038805917E-01  0.6499888750037E-02
 0.1914867741527E-01  0.6648906959754E-02
 0.2028362237067E-01  0.6798358546343E-02
 0.2143205337682E-01  0.6949263993842E-02
 0.2259083493196E-01  0.7102945779741E-02
 0.2375717731361E-01  0.7259995730546E-02
 0.2492905407678E-01  0.7419874194040E-02
 0.2610559509713E-01  0.7582200499380E-02
 0.2728778359560E-01  0.7746828598843E-02
 0.2847898920654E-01  0.7914643106281E-02
 0.2968292809298E-01  0.8090179091549E-02
 0.3089395105581E-01  0.8283689508015E-02
 0.6126864736013E-04  0.2434773091238E-03
 0.1764048842710E-03  0.4988101640062E-03
 0.3343558113561E-03  0.7610318974453E-03
 0.5306259988348E-03  0.1024893863633E-02
 0.7649836283110E-03  0.1287152619305E-02
 0.1038551884261E-02  0.1546368956059E-02
 0.1352433702972E-02  0.1801990520711E-02
 0.1707369978285E-02  0.2053769945482E-02
 0.2103749315854E-02  0.2301534231910E-02
 0.2541685502643E-02  0.2545112558885E-02
 0.3021088705359E-02  0.2784316914367E-02
 0.3541718975613E-02  0.3018939761281E-02
 0.4103225301518E-02  0.3248757194382E-02
 0.4705169830683E-02  0.3473531487300E-02
 0.5347042061108E-02  0.3693012942460E-02
 0.6028266976990E-02  0.3906941396690E-02
 0.6748214273641E-02  0.4115048781596E-02
 0.7506160928597E-02  0.4317049326787E-02
 0.8301348077662E-02  0.4512656425513E-02
 0.9132909590733E-02  0.4701563119277E-02
 0.9999898071861E-02  0.4883447357235E-02
 0.1090127786200E-01  0.5057965766638E-02
 0.1183592419348E-01  0.5224752354258E-02
 0.1280262795899E-01  0.5383624637678E-02
 0.1380008910067E-01  0.5535528440998E-02
 0.1482679911168E-01  0.5682101903215E-02
 0.1588092286056E-01  0.5825037355913E-02
 0.1696024219580E-01  0.5965745420603E-02
 0.1806218207442E-01  0.6105288074466E-02
 0.1918387563494E-01  0.6244497816145E-02
 0.2032226444253E-01  0.6384156334266E-02
 0.2147419826404E-01  0.6525166439202E-02
 0.2263656666604E-01  0.6668688924931E-02
 0.2380661182708E-01  0.6815152533899E-02
 0.2498232760370E-01  0.6963888350638E-02
 0.2616277611500E-01  0.7114449580274E-02
 0.2734852904700E-01  0.7266883267117E-02
 0.2854154456181E-01  0.7422674560582E-02
 0.2974254191422E-01  0.7586620144676E-02
 0.3094356131599E-01  0.7767144285046E-02
 0.5311863119428E-04  0.2273365862053E-03
 0.1612817226438E-03  0.4653473477835E-03
 0.3148534696260E-03  0.7101756148361E-03
 0.5090696699504E-03  0.9573485035614E-03
 0.7428571151463E-03  0.1203694568082E-02
 0.1016690791618E-02  0.1447530538038E-02
 0.1331317971531E-02  0.1688079037336E-02
 0.1687303143805E-02  0.1924965438828E-02
 0.2084945945600E-02  0.2157960983513E-02
 0.2524313186319E-02  0.2386879447213E-02
 0.3005289125926E-02  0.2611538983221E-02
 0.3527618933558E-02  0.2831749286566E-02
 0.4090942803708E-02  0.3047308984079E-02
 0.4694817680251E-02  0.3258005158636E-02
 0.5338730139449E-02  0.3463613594093E-02
 0.6022103836074E-02  0.3663899356486E-02
 0.6744308408981E-02  0.3858618622184E-02
 0.7504621850633E-02  0.4047508977002E-02
 0.8302287730578E-02  0.4230304575863E-02
 0.9136443925849E-02  0.4406717301134E-02
 0.1000614881833E-01  0.4576441652310E-02
 0.1091037273248E-01  0.4739150198392E-02
 0.1184799236644E-01  0.4894494782247E-02
 0.1281778873804E-01  0.5042306321792E-02
 0.1381843643720E-01  0.5183502810542E-02
 0.1484839644663E-01  0.5319666855746E-02
 0.1590581075395E-01  0.5452428897452E-02
 0.1698845232024E-01  0.5583141115174E-02
 0.1809375048028E-01  0.5712808944059E-02
 0.1921885163658E-01  0.5842200729645E-02
 0.2036071531860E-01  0.5972014816900E-02
 0.2151621153944E-01  0.6103042338369E-02
 0.2268224991749E-01  0.6236301505798E-02
 0.2385608640965E-01  0.6372095725832E-02
 0.2503569132344E-01  0.6509692804224E-02
 0.2621996497052E-01  0.6648676039547E-02
 0.2740892689400E-01  0.6789333592114E-02
 0.2860316512135E-01  0.6933538291738E-02
 0.2980121730600E-01  0.7085911384927E-02
 0.3099427304906E-01  0.7253267834875E-02
 0.4600091306382E-04  0.2116149805985E-03
 0.1478997970807E-03  0.4328243598422E-03
 0.2972531012258E-03  0.6605979692057E-03
 0.4892705609757E-03  0.8911480125696E-03
 0.7222886134217E-03  0.1121491195038E-02
 0.9962299674562E-03  0.1349825944779E-02
 0.1311492090076E-02  0.1575205514772E-02
 0.1668447094473E-02  0.1797137958478E-02
 0.2067291414882E-02  0.2015333949740E-02
 0.2508035273172E-02  0.2229584738781E-02
 0.2990530979329E-02  0.2439708458045E-02
 0.3514505204419E-02  0.2645527436254E-02
 0.4079587316421E-02  0.2846859673223E-02
 0.4685328058149E-02  0.3043514985057E-02
 0.5331210791487E-02  0.3235293299528E-02
 0.6016658060222E-02  0.3421984033967E-02
 0.6741040065917E-02  0.3603366992352E-02
 0.7503636770041E-02  0.3779202653956E-02
 0.8303695363965E-02  0.3949245660315E-02
 0.9140358932906E-02  0.4113226824449E-02
 0.1001269241577E-01  0.4270857833997E-02
 0.1091967215105E-01  0.4421828134339E-02
 0.1186017618127E-01  0.4565807677034E-02
 0.1283297710606E-01  0.4702639379022E-02
 0.1383672843024E-01  0.4833210482062E-02
 0.1486986648605E-01  0.4959043382112E-02
 0.1593051579535E-01  0.5081700138045E-02
 0.1701644446346E-01  0.5202466857652E-02
 0.1812508904240E-01  0.5322285170235E-02
 0.1925361122303E-01  0.5441854465670E-02
 0.2039898938863E-01  0.5561789885768E-02
 0.2155811177051E-01  0.5682778963409E-02
 0.2272789918446E-01  0.5805716837910E-02
 0.2390559918428E-01  0.5930815733686E-02
 0.2508911309377E-01  0.6057331117135E-02
 0.2627710334087E-01  0.6184927335275E-02
 0.2746897530409E-01  0.6314107478509E-02
 0.2866410552811E-01  0.6446928193962E-02
 0.2985952840126E-01  0.6587613625038E-02
 0.3104636414339E-01  0.6741672341224E-02
 0.3974830530990E-04  0.1962150642006E-03
 0.1360252099110E-03  0.4010461574943E-03
 0.2813842122063E-03  0.6120866958265E-03
 0.4711458263254E-03  0.8261355818972E-03
 0.7032475233856E-03  0.1040452269319E-02
 0.9771583204796E-03  0.1253208854346E-02
 0.1292948852171E-02  0.1463344809455E-02
 0.1650793174761E-02  0.1670269802414E-02
 0.2050774286886E-02  0.1873635673234E-02
 0.2492837560138E-02  0.2073207631731E-02
 0.2976797682956E-02  0.2268799519720E-02
 0.3502359224450E-02  0.2460242663238E-02
 0.4069138601679E-02  0.2647371717949E-02
 0.4676679261400E-02  0.2830017331539E-02
 0.5324460984662E-02  0.3008002285102E-02
 0.6011905376126E-02  0.3181139471114E-02
 0.6738383789295E-02  0.3349231712357E-02
 0.7503179073032E-02  0.3512061965656E-02
 0.8305543157888E-02  0.3669405165873E-02
 0.9144625434445E-02  0.3821011181173E-02
 0.1001949815688E-01  0.3966609338815E-02
 0.1092914400156E-01  0.4105906369108E-02
 0.1187244289874E-01  0.4238589901080E-02
 0.1284816113231E-01  0.4364512972465E-02
 0.1385493560017E-01  0.4484529254590E-02
 0.1489118373015E-01  0.4600097149828E-02
 0.1595501785097E-01  0.4712705558326E-02
 0.1704420507274E-01  0.4823569187493E-02
 0.1815619157493E-01  0.4933561105867E-02
 0.1928815542719E-01  0.5043309308751E-02
 0.2043709313162E-01  0.5153347777968E-02
 0.2159990678743E-01  0.5264269407061E-02
 0.2277351699819E-01  0.5376864452868E-02
 0.2395513926861E-01  0.5491282011118E-02
 0.2514256493872E-01  0.5606798866749E-02
 0.2633416746225E-01  0.5723175965452E-02
 0.2752873628938E-01  0.5841072759891E-02
 0.2872463685471E-01  0.5962572368373E-02
 0.2991791133390E-01  0.6091419358627E-02
 0.3109998201752E-01  0.6232105051925E-02
 0.3423272484795E-04  0.1810687264456E-03
 0.1254666178766E-03  0.3698690587866E-03
 0.2670890796264E-03  0.5644712697006E-03
 0.4546037244385E-03  0.7621692919386E-03
 0.6856906312364E-03  0.9604833710138E-03
 0.9594562210968E-03  0.1157622540203E-02
 0.1275676826994E-02  0.1352461707916E-02
 0.1634331320528E-02  0.1544335195159E-02
 0.2035383360217E-02  0.1732842610220E-02
 0.2478706997683E-02  0.1917722832600E-02
 0.2964074299529E-02  0.2098783023248E-02
 0.3491164329359E-02  0.2275860903697E-02
 0.4059578446988E-02  0.2448805602393E-02
 0.4668851670333E-02  0.2617466952207E-02
 0.5318459789037E-02  0.2781689408050E-02
 0.6007823604706E-02  0.2941308510048E-02
 0.6736316181441E-02  0.3096149527404E-02
 0.7503224135088E-02  0.3246017527930E-02
 0.8307805194203E-02  0.3390707595346E-02
 0.9149216099882E-02  0.3529988754817E-02
 0.1002653724328E-01  0.3663608223602E-02
 0.1093875828928E-01  0.3791290023428E-02
 0.1188476216108E-01  0.3912738603143E-02
 0.1286331139935E-01  0.4027815081327E-02
 0.1387303085743E-01  0.4137337031108E-02
 0.1491232460462E-01  0.4242695919977E-02
 0.1597929781122E-01  0.4345304102780E-02
 0.1707172020931E-01  0.4446301359023E-02
 0.1818704959580E-01  0.4546489383797E-02
 0.1932248070870E-01  0.4646424094440E-02
 0.2047502614659E-01  0.4746561519718E-02
 0.2164159590646E-01  0.4847408784490E-02
 0.2281909771076E-01  0.4949666916886E-02
 0.2400469232057E-01  0.5053442640630E-02
 0.2519602827804E-01  0.5158051935594E-02
 0.2639116340820E-01  0.5263345040780E-02
 0.2758830799387E-01  0.5370072989698E-02
 0.2878501434068E-01  0.5480239282790E-02
 0.2997669327292E-01  0.5597105673791E-02
 0.3115520800833E-01  0.5724387493527E-02
 0.2935385966755E-04  0.1661268673376E-03
 0.1160666000857E-03  0.3391850603797E-03
 0.2542253046543E-03  0.5176143047723E-03
 0.4395501744833E-03  0.6991235436946E-03
 0.6695663692084E-03  0.8814911586756E-03
 0.9430969758699E-03  0.1063004182350E-02
 0.1259660500555E-02  0.1242513472518E-02
 0.1619049794607E-02  0.1419301674303E-02
 0.2021107335028E-02  0.1592925870332E-02
 0.2465631394236E-02  0.1763100945101E-02
 0.2952347307080E-02  0.1929626708975E-02
 0.3480905585525E-02  0.2092345707803E-02
 0.4050890544440E-02  0.2251119940842E-02
 0.4661827661515E-02  0.2405817090183E-02
 0.5313188312186E-02  0.2556302264592E-02
 0.6004392609723E-02  0.2702432909565E-02
 0.6734815861690E-02  0.2844056225689E-02
 0.7503749296310E-02  0.2980999074665E-02
 0.8310457459230E-02  0.3113076571203E-02
 0.9154105479559E-02  0.3240076951035E-02
 0.1003378282171E-01  0.3361765393535E-02
 0.1094848711116E-01  0.3477882938818E-02
 0.1189710582733E-01  0.3588149778021E-02
 0.1287840067118E-01  0.3692433110058E-02
 0.1389098901115E-01  0.3791512267721E-02
 0.1493326685957E-01  0.3886709607482E-02
 0.1600333697963E-01  0.3979358683720E-02
 0.1709897506780E-01  0.4070522221011E-02
 0.1821765214373E-01  0.4160929190488E-02
 0.1935657926413E-01  0.4251063964234E-02
 0.2051278218486E-01  0.4341308361026E-02
 0.2168317191015E-01  0.4432091797289E-02
 0.2286463053817E-01  0.4524038502136E-02
 0.2405424415391E-01  0.4617226330413E-02
 0.2524949525786E-01  0.4711015976946E-02
 0.2644811936559E-01  0.4805327607828E-02
 0.2764780449412E-01  0.4900946247916E-02
 0.2884546407544E-01  0.4999732748271E-02
 0.3003612007452E-01  0.5104502175297E-02
 0.3121209173916E-01  0.5218381651386E-02
 0.2503167333345E-04  0.1513531126978E-03
 0.1076947430983E-03  0.3089114104289E-03
 0.2426660765413E-03  0.4714044248842E-03
 0.4258929284664E-03  0.6368884659802E-03
 0.6548183707981E-03  0.8033864346499E-03
 0.9280485312181E-03  0.9692881608351E-03
 0.1244880757059E-02  0.1133452122819E-02
 0.1604935153265E-02  0.1295131456832E-02
 0.2007934619028E-02  0.1453851998609E-02
 0.2453599201641E-02  0.1609308909467E-02
 0.2941604413329E-02  0.1761295452171E-02
 0.3471569644464E-02  0.1909658391645E-02
 0.4043060381526E-02  0.2054271584513E-02
 0.4655591526831E-02  0.2195019567267E-02
 0.5308629638570E-02  0.2331787275285E-02
 0.6001594251873E-02  0.2464453428987E-02
 0.6733863433689E-02  0.2592886717671E-02
 0.7504733845406E-02  0.2716935529417E-02
 0.8313477849468E-02  0.2836434907045E-02
 0.9159270026672E-02  0.2951192298584E-02
 0.1004120999126E-01  0.3060990780089E-02
 0.1095830459603E-01  0.3165587965861E-02
 0.1190944780320E-01  0.3264718641660E-02
 0.1289340360079E-01  0.3358254250300E-02
 0.1390878637205E-01  0.3446934164859E-02
 0.1495398911353E-01  0.3532010134610E-02
 0.1602711663849E-01  0.3614735573730E-02
 0.1712595367735E-01  0.3696095098884E-02
 0.1824798575454E-01  0.3776744667024E-02
 0.1939043943742E-01  0.3857098398593E-02
 0.2055035015518E-01  0.3937467687466E-02
 0.2172462275032E-01  0.4018211022163E-02
 0.2291010183775E-01  0.4099884839049E-02
 0.2410378270593E-01  0.4182545272513E-02
 0.2530296777319E-01  0.4265594740171E-02
 0.2650507787488E-01  0.4348999559125E-02
 0.2770734262046E-01  0.4433533470466E-02
 0.2890617977672E-01  0.4520883504453E-02
 0.3009637851190E-01  0.4613469770477E-02
 0.3127066904932E-01  0.4713970902728E-02
 0.2120129958799E-04  0.1367198474330E-03
 0.1002422267736E-03  0.2789835503163E-03
 0.2322993372869E-03  0.4257506076808E-03
 0.4135440710930E-03  0.5753684432592E-03
 0.6413882420983E-03  0.7260857274646E-03
 0.9142751458226E-03  0.8764084244076E-03
 0.1231315559239E-02  0.1025226363900E-02
 0.1591972393623E-02  0.1171782722324E-02
 0.1995853256272E-02  0.1315583769302E-02
 0.2442599377049E-02  0.1456310482722E-02
 0.2931834414780E-02  0.1593751557087E-02
 0.3463144622037E-02  0.1727758228016E-02
 0.4036075144912E-02  0.1858215759546E-02
 0.4650129399151E-02  0.1985024897840E-02
 0.5304768772690E-02  0.2108089789254E-02
 0.5999412346062E-02  0.2227309928004E-02
 0.6733441456054E-02  0.2342575131985E-02
 0.7506159005476E-02  0.2453755098732E-02
 0.8316846172640E-02  0.2560704708376E-02
 0.9164688103078E-02  0.2663250581278E-02
 0.1004879578540E-01  0.2761193533642E-02
 0.1096818682438E-01  0.2854307228476E-02
 0.1192176387240E-01  0.2942339934049E-02
 0.1290829647338E-01  0.3025165737844E-02
 0.1392640042995E-01  0.3103482758635E-02
 0.1497447050692E-01  0.3178471234641E-02
 0.1605061774401E-01  0.3251303833201E-02
 0.1715263873044E-01  0.3322886816749E-02
 0.1827803453553E-01  0.3393803568102E-02
 0.1942404615883E-01  0.3464399645251E-02
 0.2058771502300E-01  0.3534919486968E-02
 0.2176593290332E-01  0.3605655916191E-02
 0.2295549662776E-01  0.3677103340595E-02
 0.2415329873732E-01  0.3749298279378E-02
 0.2535645536062E-01  0.3821676764463E-02
 0.2656208927990E-01  0.3894227752170E-02
 0.2776703413437E-01  0.3967681204224E-02
 0.2896732434625E-01  0.4043540966848E-02
 0.3015761268311E-01  0.4123887042046E-02
 0.3133097102406E-01  0.4211049624740E-02
 0.1780947168197E-04  0.1222056356164E-03
 0.9361761857324E-04  0.2493502528358E-03
 0.2230264864116E-03  0.3805777872732E-03
 0.4024213961371E-03  0.5144803656434E-03
 0.6292176198918E-03  0.6495119345627E-03
 0.9017388918418E-03  0.7843001105650E-03
 0.1218940712143E-02  0.9177831500892E-03
 0.1580145227523E-02  0.1049210778231E-02
 0.1984850956505E-02  0.1178080974039E-02
 0.2432621312602E-02  0.1304066759236E-02
 0.2923027097735E-02  0.1426955108862E-02
 0.3455620001616E-02  0.1546602700989E-02
 0.4029923636662E-02  0.1662906270966E-02
 0.4645429183523E-02  0.1775782470549E-02
 0.5301592583963E-02  0.1885154259292E-02
 0.5997832618471E-02  0.1990941542671E-02
 0.6733534411264E-02  0.2093054995799E-02
 0.7508007914869E-02  0.2191385461238E-02
 0.8320544137474E-02  0.2285807580842E-02
 0.9170339965544E-02  0.2376167083072E-02
 0.1005651913034E-01  0.2462282321830E-02
 0.1097811173115E-01  0.2543942473322E-02
 0.1193403152982E-01  0.2620908283967E-02
 0.1292305697681E-01  0.2693055162478E-02
 0.1394380958529E-01  0.2761039084728E-02
 0.1499469043179E-01  0.2825968381112E-02
 0.1607382070826E-01  0.2888934944272E-02
 0.1717901148935E-01  0.2950767024842E-02
 0.1830778028149E-01  0.3011976337973E-02
 0.1945738135129E-01  0.3072841686419E-02
 0.2062485854497E-01  0.3133543478914E-02
 0.2180708434654E-01  0.3194312568706E-02
 0.2300079943156E-01  0.3255584280675E-02
 0.2420278565815E-01  0.3317373958229E-02
 0.2540997272038E-01  0.3379140620368E-02
 0.2661920669564E-01  0.3440875058420E-02
 0.2782698160717E-01  0.3503241919364E-02
 0.2902903332013E-01  0.3567566405304E-02
 0.3021993536183E-01  0.3635641634913E-02
 0.3139302812295E-01  0.3709518281000E-02
 0.1481196507660E-04  0.1077934974776E-03
 0.8774360728912E-04  0.2199702142199E-03
 0.2147609584741E-03  0.3358234574509E-03
 0.3924490513052E-03  0.4541518839217E-03
 0.6182496378312E-03  0.5735943775534E-03
 0.8904009256855E-03  0.6929005640587E-03
 0.1207730627582E-02  0.8110688657540E-03
 0.1569436431541E-02  0.9273690269359E-03
 0.1974915202003E-02  0.1041301107407E-02
 0.2423654824591E-02  0.1152536624832E-02
 0.2915173180832E-02  0.1260864264788E-02
 0.3448986565484E-02  0.1366147690959E-02
 0.4024596210256E-02  0.1468295621341E-02
 0.4641480503674E-02  0.1567240626042E-02
 0.5299089765261E-02  0.1662924293403E-02
 0.5996842677371E-02  0.1755286718437E-02
 0.6734128688859E-02  0.1844259253608E-02
 0.7510265622012E-02  0.1929753776963E-02
 0.8324555355534E-02  0.2011664638474E-02
 0.9176207762406E-02  0.2089856606355E-02
 0.1006436081688E-01  0.2164165364138E-02
 0.1098805903416E-01  0.2234395110095E-02
 0.1194622986025E-01  0.2300318219481E-02
 0.1293766404185E-01  0.2361810390224E-02
 0.1396099297438E-01  0.2419484942546E-02
 0.1501462837455E-01  0.2474378329598E-02
 0.1609670530311E-01  0.2527502090582E-02
 0.1720505180701E-01  0.2579607220430E-02
 0.1833720267337E-01  0.2631134935561E-02
 0.1949042435338E-01  0.2682299012020E-02
 0.2066175990839E-01  0.2733218088702E-02
 0.2184805727752E-01  0.2784063271629E-02
 0.2304599469197E-01  0.2835211461160E-02
 0.2425223894511E-01  0.2886652848850E-02
 0.2546353744117E-01  0.2937858031374E-02
 0.2667648249974E-01  0.2988802553569E-02
 0.2788727683576E-01  0.3040072626382E-02
 0.2909141910668E-01  0.3092826685420E-02
 0.3028343538008E-01  0.3148622949233E-02
 0.3145687145655E-01  0.3209281076890E-02
 0.1217172661678E-04  0.9346973241777E-04
 0.8255445738526E-04  0.1908096290650E-03
 0.2074268398382E-03  0.2914350589267E-03
 0.3835577234303E-03  0.3943198187161E-03
 0.6084299302260E-03  0.4982685425524E-03
 0.8802225212033E-03  0.6021499481749E-03
 0.1197659039160E-02  0.7050302225098E-03
 0.1559828232661E-02  0.8062097984989E-03
 0.1966033408322E-02  0.9052000206625E-03
 0.2415690188869E-02  0.1001677237466E-02
 0.2908264290444E-02  0.1095435604640E-02
 0.3443236346846E-02  0.1186347738219E-02
 0.4020084717817E-02  0.1274335221748E-02
 0.4638274653053E-02  0.1359346838896E-02
 0.5297250791372E-02  0.1441342822648E-02
 0.5996431980442E-02  0.1520283372888E-02
 0.6735212561925E-02  0.1596120430793E-02
 0.7512919069586E-02  0.1668786857497E-02
 0.8328865327722E-02  0.1738196687661E-02
 0.9182275511218E-02  0.1804233676674E-02
 0.1007230345392E-01  0.1866750657760E-02
 0.1099801015111E-01  0.1925566444420E-02
 0.1195833941807E-01  0.1980464375382E-02
 0.1295209769666E-01  0.2031319697992E-02
 0.1397793032030E-01  0.2078702904459E-02
 0.1503426379102E-01  0.2123578956579E-02
 0.1611925059336E-01  0.2166879803144E-02
 0.1723073815868E-01  0.2209280215683E-02
 0.1836627944738E-01  0.2251152192593E-02
 0.1952315224342E-01  0.2292646006299E-02
 0.2069839616945E-01  0.2333820089119E-02
 0.2188883050425E-01  0.2374786726164E-02
 0.2309106677774E-01  0.2415863320877E-02
 0.2430165525319E-01  0.2457009485756E-02
 0.2551716801644E-01  0.2497696414298E-02
 0.2673396588685E-01  0.2537870652288E-02
 0.2794800056583E-01  0.2578034142712E-02
 0.2915457561000E-01  0.2619190227415E-02
 0.3034818224584E-01  0.2662714828299E-02
 0.3152253001341E-01  0.2710244998945E-02
 0.9857479376050E-05  0.7922310060881E-04
 0.7799401369155E-04  0.1618404362114E-03
 0.2009575985197E-03  0.2473679626378E-03
 0.3756845440620E-03  0.3349287628003E-03
 0.5997072855218E-03  0.4234756480208E-03
 0.8711658812448E-03  0.5119915526169E-03
 0.1188699639129E-02  0.5996148971273E-03
 0.1551302698301E-02  0.6856850182938E-03
 0.1958193118594E-02  0.7697324857305E-03
 0.2408718212213E-02  0.8514444623761E-03
 0.2902292965374E-02  0.9306244568413E-03
 0.3438362603269E-02  0.1007156290378E-02
 0.4016382472343E-02  0.1080975587430E-02
 0.4635804556424E-02  0.1152047881698E-02
 0.5296067885290E-02  0.1220352247255E-02
 0.5996591808287E-02  0.1285869032621E-02
 0.6736776168530E-02  0.1348570767298E-02
 0.7515957082298E-02  0.1408411301710E-02
 0.8333461433212E-02  0.1465324370045E-02
 0.9188529079435E-02  0.1519212695775E-02
 0.1008033142958E-01  0.1569946136823E-02
 0.1100794813372E-01  0.1617357827342E-02
 0.1197034213649E-01  0.1661241603758E-02
 0.1296633896409E-01  0.1701471806803E-02
 0.1399460183726E-01  0.1738576232048E-02
 0.1505357604030E-01  0.1773449027956E-02
 0.1614143492605E-01  0.1806943570817E-02
 0.1725604771368E-01  0.1839659612833E-02
 0.1839498656990E-01  0.1871901222041E-02
 0.1955554011317E-01  0.1903756416350E-02
 0.2073474256301E-01  0.1935224317993E-02
 0.2192938163472E-01  0.1966358245983E-02
 0.2313599976035E-01  0.1997413793034E-02
 0.2435103152955E-01  0.2028313898888E-02
 0.2557088211432E-01  0.2058520190240E-02
 0.2679170176967E-01  0.2087940136465E-02
 0.2800922188230E-01  0.2116987677799E-02
 0.2921858433314E-01  0.2146531282973E-02
 0.3041422985233E-01  0.2177777705198E-02
 0.3159002280841E-01  0.2212322276019E-02
 0.7842664484354E-05  0.6504425525275E-04
 0.7401412878501E-04  0.1330390219309E-03
 0.1952949522659E-03  0.2035839119703E-03
 0.3687728353733E-03  0.2759298823495E-03
 0.5920340421875E-03  0.3491621407924E-03
 0.8631947566809E-03  0.4223718978898E-03
 0.1180826625919E-02  0.4947719687818E-03
 0.1543842109596E-02  0.5657467338950E-03
 0.1951382214322E-02  0.6348526787187E-03
 0.2402730328837E-02  0.7017932683548E-03
 0.2897252684618E-02  0.7663852098291E-03
 0.3434359807955E-02  0.8285259474018E-03
 0.4013484222604E-02  0.8881665368421E-03
 0.4634064740109E-02  0.9452899948364E-03
 0.5295534990330E-02  0.9998945892790E-03
 0.5997315241830E-02  0.1051980977065E-02
 0.6738811495502E-02  0.1101542358418E-02
 0.7519370355660E-02  0.1148553638071E-02
 0.8338332918673E-02  0.1192968309696E-02
 0.9194956166558E-02  0.1234708093784E-02
 0.1008843087823E-01  0.1273659823053E-02
 0.1101785761576E-01  0.1309670788344E-02
 0.1198222126082E-01  0.1342545063774E-02
 0.1298036979184E-01  0.1372155897486E-02
 0.1401098817422E-01  0.1398988788257E-02
 0.1507254435961E-01  0.1423867987687E-02
 0.1616323595427E-01  0.1447569504060E-02
 0.1728095642424E-01  0.1470619370335E-02
 0.1842329839707E-01  0.1493254952558E-02
 0.1958756127752E-01  0.1515502965670E-02
 0.2077077269267E-01  0.1537303524247E-02
 0.2196968709658E-01  0.1558649992883E-02
 0.2318077707907E-01  0.1579733029476E-02
 0.2440036407519E-01  0.1600432599935E-02
 0.2562469554798E-01  0.1620191861081E-02
 0.2684972908159E-01  0.1638871261362E-02
 0.2807100210755E-01  0.1656797545998E-02
 0.2928350662318E-01  0.1674713565116E-02
 0.3048165487921E-01  0.1693705020084E-02
 0.3165928297814E-01  0.1715253813218E-02
 0.6104753303329E-05  0.5092683315467E-04
 0.7057357466254E-04  0.1043934608150E-03
 0.1903881404744E-03  0.1600692631826E-03
 0.3627719673147E-03  0.2173154840883E-03
 0.5853661521834E-03  0.2753357462179E-03
 0.8562739913315E-03  0.3333231076625E-03
 0.1174012970684E-02  0.3905652115912E-03
 0.1537425280349E-02  0.4464958260162E-03
 0.1945582712981E-02  0.5007027756593E-03
 0.2397709369245E-02  0.5529106385506E-03
 0.2893125145781E-02  0.6029528990888E-03
 0.3431207013099E-02  0.6507429840788E-03
 0.4011365209571E-02  0.6962487816917E-03
 0.4633025716836E-02  0.7394715299717E-03
 0.5295617137260E-02  0.7804290132005E-03
 0.5998561171869E-02  0.8191422837426E-03
 0.6741270681389E-02  0.8556251843056E-03
 0.7523103675999E-02  0.8898735955696E-03
 0.8343416611567E-02  0.9218606728499E-03
 0.9201485019219E-02  0.9515270027809E-03
 0.1009652081893E-01  0.9787762088100E-03
 0.1102764769119E-01  0.1003469492148E-02
 0.1199387515759E-01  0.1025420891534E-02
 0.1299407683681E-01  0.1044502443714E-02
 0.1402696304947E-01  0.1061157932590E-02
 0.1509102803023E-01  0.1076142863074E-02
 0.1618449679702E-01  0.1090157289533E-02
 0.1730528940571E-01  0.1103654949295E-02
 0.1845102026477E-01  0.1116807716723E-02
 0.1961899985153E-01  0.1129581749005E-02
 0.2080624872426E-01  0.1141858054618E-02
 0.2200948757180E-01  0.1153568559853E-02
 0.2322512002016E-01  0.1164835552027E-02
 0.2444935859910E-01  0.1175490016176E-02
 0.2567830282479E-01  0.1184948974472E-02
 0.2690773471763E-01  0.1193020415103E-02
 0.2813301562964E-01  0.1199945234486E-02
 0.2934900845652E-01  0.1206353644183E-02
 0.3055004664268E-01  0.1213225812930E-02
 0.3173007692587E-01  0.1221952919811E-02
 0.4624274354470E-05  0.3686257505477E-04
 0.6763631446852E-04  0.7587848393932E-04
 0.1861918868904E-03  0.1167759329044E-03
 0.3576357139567E-03  0.1590116813129E-03
 0.5796627701021E-03  0.2018954487160E-03
 0.8503714397647E-03  0.2447156922536E-03
 0.1168236060622E-02  0.2868342440992E-03
 0.1532038549661E-02  0.3277373316180E-03
 0.1940788825241E-02  0.3670485946347E-03
 0.2393656368121E-02  0.4045180429198E-03
 0.2889917406952E-02  0.4399993913844E-03
 0.3428916777767E-02  0.4734245066975E-03
 0.4010043203748E-02  0.5047797179066E-03
 0.4632710349259E-02  0.5340854716581E-03
 0.5296342277611E-02  0.5613796488330E-03
 0.6000362714219E-02  0.5867040390582E-03
 0.6744192141518E-02  0.6100933492973E-03
 0.7527200951977E-02  0.6315646114039E-03
 0.8348762180589E-02  0.6511108033655E-03
 0.9208171429197E-02  0.6686915304835E-03
 0.1010466364850E-01  0.6842273423858E-03
 0.1103738797163E-01  0.6975934724678E-03
 0.1200538137957E-01  0.7086140678454E-03
 0.1300754641152E-01  0.7171602538512E-03
 0.1404262242845E-01  0.7236349364515E-03
 0.1510913367271E-01  0.7287261319651E-03
 0.1620533593936E-01  0.7330593634495E-03
 0.1732917857302E-01  0.7370174150816E-03
 0.1847829961752E-01  0.7407076840677E-03
 0.1965002163404E-01  0.7440361695965E-03
 0.2084135854143E-01  0.7468241824198E-03
 0.2204899776607E-01  0.7489401811829E-03
 0.2326927574123E-01  0.7504342709952E-03
 0.2449830053618E-01  0.7510826791272E-03
 0.2573203243954E-01  0.7502696447353E-03
 0.2696609047689E-01  0.7477465121325E-03
 0.2819567555606E-01  0.7436692864575E-03
 0.2941551921236E-01  0.7385676420336E-03
 0.3061990050233E-01  0.7333097143962E-03
 0.3180267720919E-01  0.7292859132595E-03
 0.3384623766128E-05  0.2284550414804E-04
 0.6517162767324E-04  0.4747897830607E-04
 0.1826673009866E-03  0.7367844012402E-04
 0.3533238845118E-03  0.1009838854435E-03
 0.5748877479023E-03  0.1288003329257E-03
 0.8454578279169E-03  0.1565053703670E-03
 0.1163474097502E-02  0.1835335995089E-03
 0.1527666805872E-02  0.2094256970784E-03
 0.1936990745227E-02  0.2338446762662E-03
 0.2390565376099E-02  0.2565697120485E-03
 0.2887626108858E-02  0.2774779197009E-03
 0.3427487321758E-02  0.2965219808459E-03
 0.4009517230766E-02  0.3137082974403E-03
 0.4633117882768E-02  0.3290775771567E-03
 0.5297709423216E-02  0.3426884498801E-03
 0.6002718280893E-02  0.3546038490813E-03
 0.6747573376236E-02  0.3648796225560E-03
 0.7531658495991E-02  0.3735541779669E-03
 0.8354364502600E-02  0.3806405297996E-03
 0.9215008619537E-02  0.3861175243087E-03
 0.1011285074722E-01  0.3899228743147E-03
 0.1104706782579E-01  0.3919461125990E-03
 0.1201672711365E-01  0.3920218296594E-03
 0.1302076332367E-01  0.3900207564840E-03
 0.1405794850307E-01  0.3863059399669E-03
 0.1512684061794E-01  0.3814992963614E-03
 0.1622572968209E-01  0.3761533122240E-03
 0.1735259723879E-01  0.3705811594966E-03
 0.1850510720856E-01  0.3648266755474E-03
 0.1968059584041E-01  0.3587358949791E-03
 0.2087607164839E-01  0.3520695500165E-03
 0.2208819026716E-01  0.3446303307422E-03
 0.2331322363018E-01  0.3363922871264E-03
 0.2454718032162E-01  0.3270714874737E-03
 0.2578588932220E-01  0.3160137111893E-03
 0.2702481772361E-01  0.3029100949524E-03
 0.2825901449365E-01  0.2878343744561E-03
 0.2948308814084E-01  0.2712172218562E-03
 0.3069123052555E-01  0.2538439110201E-03
 0.3187725904468E-01  0.2369885692511E-03
 0.2371574641021E-05  0.8870392100253E-05
 0.6315304851423E-04  0.1918163968682E-04
 0.1797805367146E-03  0.3075416622713E-04
 0.3498010078555E-03  0.4320091973566E-04
 0.5710086977945E-03  0.5601280498204E-04
 0.8415065765451E-03  0.6865060221847E-04
 0.1159707140101E-02  0.8061976984991E-04
 0.1524296284896E-02  0.9151658815390E-04
 0.1934179790159E-02  0.1010462174480E-03
 0.2388431534396E-02  0.1090201777758E-03
 0.2886249056027E-02  0.1153418446224E-03
 0.3426918147213E-02  0.1199869598440E-03
 0.4009787726980E-02  0.1229836068641E-03
 0.4634249093569E-02  0.1243938337754E-03
 0.5299719220396E-02  0.1242977159025E-03
 0.6005628002134E-02  0.1227797824561E-03
 0.6751413665467E-02  0.1199173409490E-03
 0.7536474435121E-02  0.1157704420686E-03
 0.8360220270925E-02  0.1103724010757E-03
 0.9221991586815E-02  0.1037215976486E-03
 0.1012107516624E-01  0.9577324680201E-04
 0.1105667811567E-01  0.8643159032552E-04
 0.1202790077797E-01  0.7554217935351E-04
 0.1303371326788E-01  0.6297606934727E-04
 0.1407292394208E-01  0.4905763009453E-04
 0.1514412822608E-01  0.3434417849351E-04
 0.1624565390542E-01  0.1931671880102E-04
 0.1737551788058E-01  0.4220149236551E-05
 0.1853141261013E-01 -0.1096441192300E-04
 0.1971069024363E-01 -0.2645085367809E-04
 0.2091035590865E-01 -0.4254009794956E-04
 0.2212703579145E-01 -0.5949766807791E-04
 0.2335694078855E-01 -0.7742939796956E-04
 0.2459598521338E-01 -0.9668435084667E-04
 0.2583987409091E-01 -0.1179602479934E-03
 0.2708393103303E-01 -0.1416286491483E-03
 0.2832306072856E-01 -0.1676977106969E-03
 0.2955174689775E-01 -0.1958274203635E-03
 0.3076408823934E-01 -0.2253235217463E-03
 0.3195386192683E-01 -0.2550225497250E-03
 0.1572952949898E-05 -0.5067393508487E-05
 0.6155782845245E-04 -0.9025341753090E-05
 0.1775022543766E-03 -0.1201712003045E-04
 0.3470359879210E-03 -0.1436546777735E-04
 0.5679968900477E-03 -0.1650177862830E-04
 0.8384938850433E-03 -0.1888759799973E-04
 0.1156917278769E-02 -0.2194880517164E-04
 0.1521914756999E-02 -0.2603299334932E-04
 0.1932348555316E-02 -0.3139073905031E-04
 0.2387251183431E-02 -0.3817550567440E-04
 0.2885785281689E-02 -0.4645511665963E-04
 0.3427210069528E-02 -0.5622868804723E-04
 0.4010856547310E-02 -0.6744490848261E-04
 0.4636106283061E-02 -0.8001931734200E-04
 0.5302373938360E-02 -0.9384968038778E-04
 0.6009093714160E-02 -0.1088293952772E-03
 0.6755714059153E-02 -0.1248593472218E-03
 0.7541648705908E-02 -0.1418575412687E-03
 0.8366327994861E-02 -0.1597700513278E-03
 0.9229117105361E-02 -0.1785786041504E-03
 0.1012933163722E-01 -0.1983100442563E-03
 0.1106621121387E-01 -0.2190448743180E-03
 0.1203889205083E-01 -0.2409258929767E-03
 0.1304638287016E-01 -0.2640808135210E-03
 0.1408753195324E-01 -0.2882226128723E-03
 0.1516097596461E-01 -0.3128569721858E-03
 0.1626508415568E-01 -0.3375727599283E-03
 0.1739791222145E-01 -0.3621920063514E-03
 0.1855718426400E-01 -0.3867955186165E-03
 0.1974027116154E-01 -0.4116571641055E-03
 0.2094417742719E-01 -0.4371407036615E-03
 0.2216550293673E-01 -0.4635823668603E-03
 0.2340040163269E-01 -0.4911715762411E-03
 0.2464469893187E-01 -0.5203271351192E-03
 0.2589398244545E-01 -0.5517946428355E-03
 0.2714343926223E-01 -0.5860108101526E-03
 0.2838783425510E-01 -0.6230643641793E-03
 0.2962152480053E-01 -0.6627029327981E-03
 0.3083851102538E-01 -0.7043224369421E-03
 0.3203251236974E-01 -0.7468525404872E-03
 0.9783739609139E-06 -0.1897199982334E-04
 0.6036649091336E-04 -0.3715254468103E-04
 0.1758071627844E-03 -0.5465366013483E-04
 0.3450017861808E-03 -0.7174104607627E-04
 0.5658271316724E-03 -0.8877549366582E-04
 0.8363987730272E-03 -0.1061459281069E-03
 0.1155088768726E-02 -0.1242118857137E-03
 0.1520511685906E-02 -0.1432647741075E-03
 0.1931491057579E-02 -0.1635093321264E-03
 0.2387021973502E-02 -0.1850617914286E-03
 0.2886235124348E-02 -0.2079589486360E-03
 0.3428365266426E-02 -0.2321728812797E-03
 0.4012726995909E-02 -0.2576275965343E-03
 0.4638693298842E-02 -0.2842151864614E-03
 0.5305677487871E-02 -0.3118105526920E-03
 0.6013118981082E-02 -0.3402845365025E-03
 0.6760477406337E-02 -0.3695158539630E-03
 0.7547183093062E-02 -0.3994002405167E-03
 0.8372688049486E-02 -0.4298628100356E-03
 0.9236383789428E-02 -0.4608649727634E-03
 0.1013761664875E-01 -0.4924151003418E-03
 0.1107566109732E-01 -0.5245777636975E-03
 0.1204969198555E-01 -0.5574832594647E-03
 0.1305875982760E-01 -0.5912569869195E-03
 0.1410175644898E-01 -0.6256478016783E-03
 0.1517736359733E-01 -0.6602226869864E-03
 0.1628399584945E-01 -0.6946387160563E-03
 0.1741975143474E-01 -0.7287834790318E-03
 0.1858238966504E-01 -0.7627989269381E-03
 0.1976930359056E-01 -0.7970189992765E-03
 0.2097750060718E-01 -0.8318715156565E-03
 0.2220355814159E-01 -0.8677658758327E-03
 0.2344357779609E-01 -0.9049786421317E-03
 0.2469330151238E-01 -0.9440026102771E-03
 0.2594820536372E-01 -0.9856352483167E-03
 0.2720334530221E-01 -0.1030380531172E-02
 0.2845334893672E-01 -0.1078407076555E-02
 0.2969244500830E-01 -0.1129547784399E-02
 0.3091452674984E-01 -0.1183283278743E-02
 0.3211323286264E-01 -0.1238621806473E-02
 0.5790266262738E-06 -0.3284717020802E-04
 0.5956246110816E-04 -0.6520951132657E-04
 0.1746736271707E-03 -0.9717199280079E-04
 0.3436751310871E-03 -0.1289494056034E-03
 0.5644776313296E-03 -0.1608380798894E-03
 0.8352030832734E-03 -0.1931588952744E-03
 0.1154208117227E-02 -0.2262073758210E-03
 0.1520078344814E-02 -0.2602190130096E-03
 0.1931602841450E-02 -0.2953515716365E-03
 0.2387742941397E-02 -0.3316822387131E-03
 0.2887600270016E-02 -0.3692148611154E-03
 0.3430387289058E-02 -0.4078927800938E-03
 0.4015403812778E-02 -0.4476139850455E-03
 0.4642015504114E-02 -0.4882461495405E-03
 0.5309635379943E-02 -0.5296406378382E-03
 0.6017709048105E-02 -0.5716452652835E-03
 0.6765708306671E-02 -0.6141162178861E-03
 0.7553081181813E-02 -0.6569266235762E-03
 0.8379302630509E-02 -0.6999802565934E-03
 0.9243792051782E-02 -0.7432177323306E-03
 0.1014592841008E-01 -0.7866283305467E-03
 0.1108502331806E-01 -0.8302598934983E-03
 0.1206029298996E-01 -0.8742292123803E-03
 0.1307083289669E-01 -0.9186581243396E-03
 0.1411558204079E-01 -0.9633297656618E-03
 0.1519327117688E-01 -0.1007870632286E-02
 0.1630236425076E-01 -0.1052004267158E-02
 0.1744100608568E-01 -0.1095682406380E-02
 0.1860699524077E-01 -0.1139107336921E-02
 0.1979775099316E-01 -0.1182673148243E-02
 0.2101028781699E-01 -0.1226872908471E-02
 0.2224116522375E-01 -0.1272191567871E-02
 0.2348643755118E-01 -0.1318996203478E-02
 0.2474176871282E-01 -0.1367857569623E-02
 0.2600252849798E-01 -0.1419628675264E-02
 0.2726364580111E-01 -0.1474882797818E-02
 0.2851961202768E-01 -0.1533868209997E-02
 0.2976452356879E-01 -0.1596500530086E-02
 0.3099215593303E-01 -0.1662338746766E-02
 0.3219604463747E-01 -0.1730460256748E-02
 0.3674958834099E-06 -0.4669631172123E-04
 0.5913175770569E-04 -0.9320492038170E-04
 0.1740833347086E-03 -0.1395872278832E-03
 0.3430362585228E-03 -0.1860122861184E-03
 0.5639298653560E-03 -0.2327172605060E-03
 0.8348914675300E-03 -0.2799590821080E-03
 0.1154264150417E-02 -0.3279715231028E-03
 0.1520607919770E-02 -0.3769346480983E-03
 0.1932681085143E-02 -0.4269584593200E-03
 0.2389414600492E-02 -0.4780796354677E-03
 0.2889883820211E-02 -0.5302674357712E-03
 0.3433281109704E-02 -0.5834349723073E-03
 0.4018893206817E-02 -0.6374530161899E-03
 0.4646079802891E-02 -0.6921639374527E-03
 0.5314254749758E-02 -0.7473949434853E-03
 0.6022870869776E-02 -0.8029703867736E-03
 0.6771413147544E-02 -0.8587235788553E-03
 0.7559348407496E-02 -0.9145047021714E-03
 0.8386175819185E-02 -0.9701957915950E-03
 0.9251344186674E-02 -0.1025716143030E-02
 0.1015426695510E-01 -0.1081035247898E-02
 0.1109429513127E-01 -0.1136183312058E-02
 0.1207068898142E-01 -0.1191262476549E-02
 0.1308259207666E-01 -0.1246389611995E-02
 0.1412899424898E-01 -0.1301380412127E-02
 0.1520867927523E-01 -0.1355919000265E-02
 0.1632016471103E-01 -0.1409793574264E-02
 0.1746164636461E-01 -0.1463018531177E-02
 0.1863096655732E-01 -0.1515855619652E-02
 0.1982557545500E-01 -0.1568759088703E-02
 0.2104249948342E-01 -0.1622288358810E-02
 0.2227828540945E-01 -0.1677006184678E-02
 0.2352894580998E-01 -0.1733373355141E-02
 0.2479007204432E-01 -0.1792042313675E-02
 0.2605693233576E-01 -0.1853925074191E-02
 0.2732433152406E-01 -0.1919666304618E-02
 0.2858662453743E-01 -0.1989593988960E-02
 0.2983777018496E-01 -0.2063704022710E-02
 0.3107141402858E-01 -0.2141628376759E-02
 0.3228096815424E-01 -0.2222507950367E-02
 0.3376153760902E-06 -0.6052254703047E-04
 0.5906273476031E-04 -0.1211467171462E-03
 0.1740210077934E-03 -0.1819132488409E-03
 0.3430686787943E-03 -0.2429498108902E-03
 0.5641684437999E-03 -0.3044389526727E-03
 0.8354513521906E-03 -0.3665772881917E-03
 0.1155248050100E-02 -0.4295389696043E-03
 0.1522095580975E-02 -0.4934492571247E-03
 0.1934724676173E-02 -0.5583698720789E-03
 0.2392039002104E-02 -0.6242958205027E-03
 0.2893090331384E-02 -0.6911604005299E-03
 0.3437053139089E-02 -0.7588452084326E-03
 0.4023202854988E-02 -0.8271927464386E-03
 0.4650894626681E-02 -0.8960193015486E-03
 0.5319544336722E-02 -0.9651273786233E-03
 0.6028613088769E-02 -0.1034317481428E-02
 0.6777600086089E-02 -0.1103399735097E-02
 0.7565992044446E-02 -0.1172201052127E-02
 0.8393313581190E-02 -0.1240581319954E-02
 0.9259044381404E-02 -0.1308437954949E-02
 0.1016263416913E-01 -0.1375719897094E-02
 0.1110347553963E-01 -0.1442438708319E-02
 0.1208087544994E-01 -0.1508680604044E-02
 0.1309402869028E-01 -0.1574555935801E-02
 0.1414197959672E-01 -0.1639911109097E-02
 0.1522356908139E-01 -0.1704485888096E-02
 0.1633737275601E-01 -0.1768131215131E-02
 0.1748164214332E-01 -0.1830922563958E-02
 0.1865426832218E-01 -0.1893180163670E-02
 0.1985273761114E-01 -0.1955418314584E-02
 0.2107409392557E-01 -0.2018263758199E-02
 0.2231487707663E-01 -0.2082359148809E-02
 0.2357106380388E-01 -0.2148262010233E-02
 0.2483817844320E-01 -0.2216710021562E-02
 0.2611139194005E-01 -0.2288677554610E-02
 0.2738538718649E-01 -0.2364882875948E-02
 0.2865438116168E-01 -0.2445734058855E-02
 0.2991218856024E-01 -0.2531305366595E-02
 0.3115231214389E-01 -0.2621297829644E-02
 0.3236802248020E-01 -0.2714912620746E-02
 0.4843448278678E-06 -0.7432875681500E-04
 0.5934586522542E-04 -0.1490422214683E-03
 0.1744741587844E-03 -0.2241628843522E-03
 0.3437589698845E-03 -0.2997806920814E-03
 0.5651809823073E-03 -0.3760274628115E-03
 0.8368728935839E-03 -0.4530426767883E-03
 0.1157153372079E-02 -0.5309428284641E-03
 0.1524538534805E-02 -0.6097990606061E-03
 0.1937734271070E-02 -0.6896244995461E-03
 0.2395619785732E-02 -0.7703715679408E-03
 0.2897225847673E-02 -0.8519364722858E-03
 0.3441711240531E-02 -0.9341682108005E-03
 0.4028341900942E-02 -0.1016880126756E-02
 0.4656469922641E-02 -0.1099861766939E-02
 0.5325514467801E-02 -0.1182890480400E-02
 0.6034946019773E-02 -0.1265742605280E-02
 0.6784279038451E-02 -0.1348204817078E-02
 0.7573021204850E-02 -0.1430080461887E-02
 0.8400723778723E-02 -0.1511206876416E-02
 0.9266898745011E-02 -0.1591459014486E-02
 0.1017103383726E-01 -0.1670764447103E-02
 0.1111256536363E-01 -0.1749114996930E-02
 0.1209084955143E-01 -0.1826579558333E-02
 0.1310513549865E-01 -0.1903260270507E-02
 0.1415452574098E-01 -0.1979032283912E-02
 0.1523792253863E-01 -0.2053688908583E-02
 0.1635396421410E-01 -0.2127141807484E-02
 0.1750096307502E-01 -0.2199525818034E-02
 0.1867686443337E-01 -0.2271218520961E-02
 0.1987919662377E-01 -0.2342793994561E-02
 0.2110502724817E-01 -0.2414947090567E-02
 0.2235089556718E-01 -0.2488402272639E-02
 0.2361274884086E-01 -0.2563816655619E-02
 0.2488605002290E-01 -0.2642016565325E-02
 0.2616587675359E-01 -0.2724042051900E-02
 0.2744679134538E-01 -0.2810687379879E-02
 0.2872287032445E-01 -0.2902441521918E-02
 0.2998777670615E-01 -0.2999455987384E-02
 0.3123485733019E-01 -0.3101498369418E-02
 0.3245722470071E-01 -0.3207828323915E-02
 0.8036676884804E-06 -0.8811761645088E-04
 0.5997355962153E-04 -0.1768982250202E-03
 0.1754328817175E-03 -0.2663480702219E-03
 0.3450965974024E-03 -0.3565224386887E-03
 0.5669579854583E-03 -0.4475057092178E-03
 0.8391489319228E-03 -0.5393829827897E-03
 0.1159976056567E-02 -0.6322148601254E-03
 0.1527936067467E-02 -0.7260190634755E-03
 0.1941712350269E-02 -0.8207599587342E-03
 0.2400162229815E-02 -0.9163466871857E-03
 0.2902297939726E-02 -0.1012637454822E-02
 0.3447264755207E-02 -0.1109447780011E-02
 0.4034320969118E-02 -0.1206561125501E-02
 0.4662817161070E-02 -0.1303739777491E-02
 0.5332177063731E-02 -0.1400735585358E-02
 0.6041881659801E-02 -0.1497300490842E-02
 0.6791461699209E-02 -0.1593197521507E-02
 0.7580446871854E-02 -0.1688206203597E-02
 0.8408416221505E-02 -0.1782140938677E-02
 0.9274915381105E-02 -0.1874853625602E-02
 0.1017947174257E-01 -0.1966249607774E-02
 0.1112156736813E-01 -0.2056299798202E-02
 0.1210061026409E-01 -0.2145054265814E-02
 0.1311590688622E-01 -0.2232605110641E-02
 0.1416662168157E-01 -0.2318854140543E-02
 0.1525172256843E-01 -0.2403645999631E-02
 0.1636991544158E-01 -0.2486950915349E-02
 0.1751957880328E-01 -0.2568961216710E-02
 0.1869871815317E-01 -0.2650110519452E-02
 0.1990491030382E-01 -0.2731032196026E-02
 0.2113525340279E-01 -0.2812489776957E-02
 0.2238629319455E-01 -0.2895291235928E-02
 0.2365395428667E-01 -0.2980195974459E-02
 0.2493364407502E-01 -0.3068122283378E-02
 0.2622035067138E-01 -0.3160179246023E-02
 0.2750851659055E-01 -0.3257239793295E-02
 0.2879207454453E-01 -0.3359875150177E-02
 0.3006452748744E-01 -0.3468313843895E-02
 0.3131905302948E-01 -0.3582388755880E-02
 0.3254858990074E-01 -0.3701417071424E-02
 0.1292505495713E-05 -0.1018916243781E-03
 0.6094001324306E-04 -0.2047210619852E-03
 0.1768896735820E-03 -0.3084799612836E-03
 0.3470737545122E-03 -0.4131914897691E-03
 0.5694927350330E-03 -0.5188953450382E-03
 0.8422749355112E-03 -0.6256245936682E-03
 0.1163714417976E-02 -0.7333854880493E-03
 0.1532289561396E-02 -0.8421429936812E-03
 0.1946663242161E-02 -0.9518126528352E-03
 0.2405673269401E-02 -0.1062259804331E-02
 0.2908315708348E-02 -0.1173303946656E-02
 0.3453724489686E-02 -0.1284726432243E-02
 0.4041152137984E-02 -0.1396280296564E-02
 0.4669949298408E-02 -0.1507700194591E-02
 0.5339545596891E-02 -0.1618712257531E-02
 0.6049433646269E-02 -0.1729043902830E-02
 0.6799161504834E-02 -0.1838434393138E-02
 0.7588281873234E-02 -0.1946639240162E-02
 0.8416402655140E-02 -0.2053449559977E-02
 0.9283104394935E-02 -0.2158693609592E-02
 0.1018795569531E-01 -0.2262253619779E-02
 0.1113048631597E-01 -0.2364078362408E-02
 0.1211015846663E-01 -0.2464197479486E-02
 0.1312633896089E-01 -0.2562691078973E-02
 0.1417825787604E-01 -0.2659485418172E-02
 0.1526495318825E-01 -0.2754474137913E-02
 0.1638520342628E-01 -0.2847683722440E-02
 0.1753745903035E-01 -0.2939361930986E-02
 0.1871979211765E-01 -0.3029996870056E-02
 0.1992983504040E-01 -0.3120280467497E-02
 0.2116472402326E-01 -0.3211045240431E-02
 0.2242101898501E-01 -0.3303184140193E-02
 0.2369462922967E-01 -0.3397561393882E-02
 0.2498091269166E-01 -0.3495190517369E-02
 0.2627477166244E-01 -0.3597253074906E-02
 0.2757052920798E-01 -0.3704703676026E-02
 0.2886197017271E-01 -0.3818197776918E-02
 0.3014242838952E-01 -0.3938041603613E-02
 0.3140489867060E-01 -0.4064133060642E-02
 0.3264213046729E-01 -0.4195846403212E-02
 0.1948646469528E-05 -0.1156531291397E-03
 0.6224107900360E-04 -0.2325166819676E-03
 0.1788392848448E-03 -0.3505690564367E-03
 0.3496852267205E-03 -0.4698033826039E-03
 0.5727811944948E-03 -0.5902169500788E-03
 0.8462489529290E-03 -0.7117927438152E-03
 0.1168369137885E-02 -0.8344839802443E-03
 0.1537602514270E-02 -0.9582034643807E-03
 0.1952593152591E-02 -0.1082817915416E-02
 0.2412161524220E-02 -0.1208148494627E-02
 0.2915289804434E-02 -0.1333975469983E-02
 0.3461102725821E-02 -0.1460045532727E-02
 0.4048848941518E-02 -0.1586080924303E-02
 0.4677880774156E-02 -0.1711788459096E-02
 0.5347635088579E-02 -0.1836868471890E-02
 0.6057617259943E-02 -0.1961023846918E-02
 0.6807393647618E-02 -0.2083970062500E-02
 0.7596540911478E-02 -0.2205438495902E-02
 0.8424696812293E-02 -0.2325196677291E-02
 0.9291477970390E-02 -0.2443048656338E-02
 0.1019649563999E-01 -0.2558852655455E-02
 0.1113932910823E-01 -0.2672534027660E-02
 0.1211949711331E-01 -0.2784100302071E-02
 0.1313642976242E-01 -0.2893617523632E-02
 0.1418942647637E-01 -0.3001034071425E-02
 0.1527759976708E-01 -0.3106290111684E-02
 0.1639980604802E-01 -0.3209465907358E-02
 0.1755457376496E-01 -0.3310862367353E-02
 0.1874004855292E-01 -0.3411020277711E-02
 0.1995392596884E-01 -0.3510689083846E-02
 0.2119338853632E-01 -0.3610770295981E-02
 0.2245501873458E-01 -0.3712243051685E-02
 0.2373471850384E-01 -0.3816078784391E-02
 0.2502780278925E-01 -0.3923389463445E-02
 0.2632909183740E-01 -0.4035432724770E-02
 0.2763278933380E-01 -0.4153248278118E-02
 0.2893252765318E-01 -0.4277578471852E-02
 0.3022146184116E-01 -0.4408808799009E-02
 0.3149238992961E-01 -0.4546902763087E-02
 0.3273785627530E-01 -0.4691291544449E-02
 0.2770686072396E-05 -0.1294043515797E-03
 0.6387416129565E-04 -0.2602907067468E-03
 0.1812785931570E-03 -0.3926252925244E-03
 0.3529282746760E-03 -0.5263728733634E-03
 0.5768219216439E-03 -0.6614901583843E-03
 0.8510715625340E-03 -0.7979116265166E-03
 0.1173943246143E-02 -0.9355385267934E-03
 0.1543880539634E-02 -0.1074232005036E-02
 0.1959510171846E-02 -0.1213809989895E-02
 0.2419637301652E-02 -0.1354049209995E-02
 0.2923232421900E-02 -0.1494690348380E-02
 0.3469413201873E-02 -0.1635445126422E-02
 0.4057426340063E-02 -0.1776004809521E-02
 0.4686627475105E-02 -0.1916048334158E-02
 0.5356462071440E-02 -0.2055250314785E-02
 0.6066449390906E-02 -0.2193289228117E-02
 0.6816175050643E-02 -0.2329856862471E-02
 0.7605240553144E-02 -0.2464660431955E-02
 0.8433314421688E-02 -0.2597443646942E-02
 0.9300050403523E-02 -0.2727985822516E-02
 0.1020510371765E-01 -0.2856120283205E-02
 0.1114810487847E-01 -0.2981747655415E-02
 0.1212863136108E-01 -0.3104851598816E-02
 0.1314617942030E-01 -0.3225481915659E-02
 0.1420012151153E-01 -0.3343606661237E-02
 0.1528964922159E-01 -0.3459209914565E-02
 0.1641370227235E-01 -0.3572423050931E-02
 0.1757089349354E-01 -0.3683597600154E-02
 0.1875944940145E-01 -0.3793324910649E-02
 0.1997713703110E-01 -0.3902410563834E-02
 0.2122119414145E-01 -0.4011824725650E-02
 0.2248823490480E-01 -0.4122633639094E-02
 0.2377416251174E-01 -0.4235918158093E-02
 0.2507425588419E-01 -0.4352891919761E-02
 0.2638325721217E-01 -0.4474892406199E-02
 0.2769525074037E-01 -0.4603048312067E-02
 0.2900371134514E-01 -0.4738192259125E-02
 0.3030160503700E-01 -0.4880791435031E-02
 0.3158151848907E-01 -0.5030876246957E-02
 0.3283577441842E-01 -0.5187934888506E-02
 0.3757978012453E-05 -0.1431474052737E-03
 0.6583812872647E-04 -0.2880484829707E-03
 0.1842064990973E-03 -0.4346581330306E-03
 0.3568025362281E-03 -0.5829140546348E-03
 0.5816159937448E-03 -0.7327337887451E-03
 0.8567458265709E-03 -0.8840045182938E-03
 0.1180442099979E-02 -0.1036576340962E-02
 0.1551131361314E-02 -0.1190259127468E-02
 0.1967424273551E-02 -0.1344822054541E-02
 0.2428112591474E-02 -0.1499997261566E-02
 0.2932157283304E-02 -0.1655485648225E-02
 0.3478671087728E-02 -0.1810963840810E-02
 0.4066900686782E-02 -0.1966092136155E-02
 0.4696206696680E-02 -0.2120521737801E-02
 0.5366044550509E-02 -0.2273901783788E-02
 0.6075948504680E-02 -0.2425886618796E-02
 0.6825524344593E-02 -0.2576144565249E-02
 0.7614399222044E-02 -0.2724358753160E-02
 0.8442273223257E-02 -0.2870248922935E-02
 0.9308838145055E-02 -0.3013569183850E-02
 0.1021379434056E-01 -0.3154127097323E-02
 0.1115682510319E-01 -0.3291797242889E-02
 0.1213756871734E-01 -0.3426537599122E-02
 0.1315559033755E-01 -0.3558379448159E-02
 0.1421033910150E-01 -0.3687307961593E-02
 0.1530109025009E-01 -0.3813348371693E-02
 0.1642687238917E-01 -0.3936680295241E-02
 0.1758638940346E-01 -0.4057703078260E-02
 0.1877795650736E-01 -0.4177056169838E-02
 0.1999942110116E-01 -0.4295599516338E-02
 0.2124808585932E-01 -0.4414371212219E-02
 0.2252060658742E-01 -0.4534525199291E-02
 0.2381289711218E-01 -0.4657253782435E-02
 0.2512020792468E-01 -0.4783875474062E-02
 0.2643720751531E-01 -0.4915811591104E-02
 0.2775786065119E-01 -0.5054284204499E-02
 0.2907547936049E-01 -0.5200220341238E-02
 0.3038282978258E-01 -0.5354172154138E-02
 0.3167227186966E-01 -0.5516238926981E-02
 0.3293588907832E-01 -0.5685966163277E-02
 0.4910594491326E-05 -0.1568843164029E-03
 0.6813324399558E-04 -0.3157951347185E-03
 0.1876238427254E-03 -0.4766766591978E-03
 0.3613099480092E-03 -0.6394404816202E-03
 0.5871669472660E-03 -0.8039659945408E-03
 0.8632772536658E-03 -0.9700939372230E-03
 0.1187873366008E-02 -0.1137623811710E-02
 0.1559364807054E-02 -0.1306314462268E-02
 0.1976347311164E-02 -0.1475886337445E-02
 0.2437601058234E-02 -0.1646026912224E-02
 0.2942079624191E-02 -0.1816397250781E-02
 0.3488892960453E-02 -0.1986638940920E-02
 0.4077289696241E-02 -0.2156381513036E-02
 0.4706637108151E-02 -0.2325248774912E-02
 0.5376401969753E-02 -0.2492864812870E-02
 0.6086134615384E-02 -0.2658860279477E-02
 0.6835461853161E-02 -0.2822880400861E-02
 0.7624037202678E-02 -0.2984584426424E-02
 0.8451592995461E-02 -0.3143668077692E-02
 0.9317859857334E-02 -0.3299859861460E-02
 0.1022258428411E-01 -0.3452940754288E-02
 0.1116550373300E-01 -0.3602757975106E-02
 0.1214631921295E-01 -0.3749241971911E-02
 0.1316466740489E-01 -0.3892403144677E-02
 0.1422007770858E-01 -0.4032241112884E-02
 0.1531191361194E-01 -0.4168819352442E-02
 0.1643929830602E-01 -0.4302362632418E-02
 0.1760103367147E-01 -0.4433315008328E-02
 0.1879553187797E-01 -0.4562361185573E-02
 0.2002073019727E-01 -0.4690413267456E-02
 0.2127400667664E-01 -0.4818576109552E-02
 0.2255206957253E-01 -0.4948091576093E-02
 0.2385085361567E-01 -0.5080265242484E-02
 0.2516558923207E-01 -0.5216523693399E-02
 0.2649087610593E-01 -0.5358376303470E-02
 0.2782055966921E-01 -0.5507143454046E-02
 0.2914778352645E-01 -0.5663851490566E-02
 0.3046510249869E-01 -0.5829141647584E-02
 0.3176463348684E-01 -0.6003184709460E-02
 0.3303820168934E-01 -0.6185584006232E-02
 0.6229294589259E-05 -0.1706170413778E-03
 0.7076110838724E-04 -0.3435356069031E-03
 0.1915333372302E-03 -0.5186896417649E-03
 0.3664546817812E-03 -0.6959652663692E-03
 0.5934807262049E-03 -0.8752043671243E-03
 0.8706737617966E-03 -0.1056201738035E-02
 0.1196246994531E-02 -0.1238706573040E-02
 0.1568592787451E-02 -0.1422426787943E-02
 0.1986292994349E-02 -0.1607034095401E-02
 0.2448118009561E-02 -0.1792171299343E-02
 0.2953016150557E-02 -0.1977459716041E-02
 0.3500096750886E-02 -0.2162506133466E-02
 0.4088612382388E-02 -0.2346909718250E-02
 0.4717938685870E-02 -0.2530267421806E-02
 0.5387555145437E-02 -0.2712178896772E-02
 0.6097029224761E-02 -0.2892251722210E-02
 0.6846009543604E-02 -0.3070108558502E-02
 0.7634176608451E-02 -0.3245385118986E-02
 0.8461295547432E-02 -0.3417753176626E-02
 0.9327136436596E-02 -0.3586915332982E-02
 0.1023149274498E-01 -0.3752625221980E-02
 0.1117415729136E-01 -0.3914701415532E-02
 0.1215489554427E-01 -0.4073044963340E-02
 0.1317341818598E-01 -0.4227642952449E-02
 0.1422933836117E-01 -0.4378506682213E-02
 0.1532211238029E-01 -0.4525734812537E-02
 0.1645096381437E-01 -0.4669593946379E-02
 0.1761479972218E-01 -0.4810569416346E-02
 0.1881213790823E-01 -0.4949387919681E-02
 0.2004101564414E-01 -0.5087011022269E-02
 0.2129889761966E-01 -0.5224608677321E-02
 0.2258255631439E-01 -0.5363510472174E-02
 0.2388795863579E-01 -0.5505136822303E-02
 0.2521032424634E-01 -0.5651025554544E-02
 0.2654418963649E-01 -0.5802778567571E-02
 0.2788328138817E-01 -0.5961820060820E-02
 0.2922056897505E-01 -0.6129281428971E-02
 0.3054838381267E-01 -0.6305897976319E-02
 0.3185858227513E-01 -0.6491915281200E-02
 0.3314271065200E-01 -0.6686995271471E-02
 0.7715500348363E-05 -0.1843474858156E-03
 0.7372462107997E-04 -0.3712747147520E-03
 0.1959395216906E-03 -0.5607056272262E-03
 0.3722431004782E-03 -0.7525011996264E-03
 0.6005656475825E-03 -0.9464660849665E-03
 0.8789456543196E-03 -0.1142349275938E-02
 0.1205575202820E-02 -0.1339849669181E-02
 0.1578829280921E-02 -0.1538624186434E-02
 0.1997276870066E-02 -0.1738295752559E-02
 0.2459680369432E-02 -0.1938462553394E-02
 0.2964985002667E-02 -0.2138706381350E-02
 0.3512301698700E-02 -0.2338599647539E-02
 0.4100889007409E-02 -0.2537711764905E-02
 0.4730132659779E-02 -0.2735613580126E-02
 0.5399526215049E-02 -0.2931881135718E-02
 0.6108655278824E-02 -0.3126099748156E-02
 0.6857190996862E-02 -0.3317870218530E-02
 0.7644841371381E-02 -0.3506805226118E-02
 0.8471404734686E-02 -0.3692552802971E-02
 0.9336691061264E-02 -0.3874789456525E-02
 0.1024054142843E-01 -0.4053240805879E-02
 0.1118280500665E-01 -0.4227695539377E-02
 0.1216331325419E-01 -0.4398023444466E-02
 0.1318185314891E-01 -0.4564185814771E-02
 0.1423812493365E-01 -0.4726202774410E-02
 0.1533168226334E-01 -0.4884204961543E-02
 0.1646185493931E-01 -0.5038497258470E-02
 0.1762766258714E-01 -0.5189602496067E-02
 0.1882773772477E-01 -0.5338285642437E-02
 0.2006022837401E-01 -0.5485554493811E-02
 0.2132269798527E-01 -0.5632641879422E-02
 0.2261199607172E-01 -0.5780964423936E-02
 0.2392413412992E-01 -0.5932058649926E-02
 0.2525433147546E-01 -0.6087576738882E-02
 0.2659706793640E-01 -0.6249217821870E-02
 0.2794595224968E-01 -0.6418516025354E-02
 0.2929377401833E-01 -0.6596714387026E-02
 0.3063262849716E-01 -0.6784648189314E-02
 0.3195409274090E-01 -0.6982641816220E-02
 0.3324941155795E-01 -0.7190416871959E-02
 0.9371279872524E-05 -0.1980775227709E-03
 0.7702795142299E-04 -0.3990171887036E-03
 0.2008487297069E-03 -0.6027330133213E-03
 0.3786837290709E-03 -0.8090608537484E-03
 0.6084323771847E-03 -0.1017768033870E-02
 0.8881055994820E-03 -0.1228557529401E-02
 0.1215872454501E-02 -0.1441077664002E-02
 0.1590090308031E-02 -0.1654934124993E-02
 0.2009316287566E-02 -0.1869700944198E-02
 0.2472306631300E-02 -0.2084931797024E-02
 0.2978005695925E-02 -0.2300169312579E-02
 0.3525528282598E-02 -0.2514952137018E-02
 0.4114141004356E-02 -0.2728820755057E-02
 0.4743241432696E-02 -0.2941320882829E-02
 0.5412338558159E-02 -0.3152005993624E-02
 0.6121037095756E-02 -0.3360440157634E-02
 0.6869031348438E-02 -0.3566203213382E-02
 0.7656057202312E-02 -0.3768885481655E-02
 0.8481946445442E-02 -0.3968111616735E-02
 0.9346549211428E-02 -0.4163531977483E-02
 0.1024975460799E-01 -0.4354843604418E-02
 0.1119146891844E-01 -0.4541804140158E-02
 0.1217159089002E-01 -0.4724250274536E-02
 0.1318998587812E-01 -0.4902115000253E-02
 0.1424644441088E-01 -0.5075424340819E-02
 0.1534062191460E-01 -0.5244337569543E-02
 0.1647196028251E-01 -0.5409194055156E-02
 0.1763959925973E-01 -0.5570549984751E-02
 0.1884229552466E-01 -0.5729204385104E-02
 0.2007831921564E-01 -0.5886207459229E-02
 0.2134534554477E-01 -0.6042852063799E-02
 0.2264031499491E-01 -0.6200640613267E-02
 0.2395929735018E-01 -0.6361226633964E-02
 0.2529752330840E-01 -0.6526379670994E-02
 0.2664942370731E-01 -0.6697901024981E-02
 0.2800849116087E-01 -0.6877441484944E-02
 0.2936732974202E-01 -0.7066363244609E-02
 0.3071778510029E-01 -0.7265608465656E-02
 0.3205113469321E-01 -0.7475585143548E-02
 0.3335829708222E-01 -0.7696076012875E-02
 0.1119933731835E-04 -0.2118090122010E-03
 0.8067652447572E-04 -0.4267677227310E-03
 0.2062690752132E-03 -0.6447801312733E-03
 0.3857872430683E-03 -0.8656566971034E-03
 0.6170939201702E-03 -0.1089126944822E-02
 0.8981686199676E-03 -0.1314847247919E-02
 0.1227155443547E-02 -0.1542414783560E-02
 0.1602393905605E-02 -0.1771383579892E-02
 0.2022430359630E-02 -0.2001278611373E-02
 0.2486016805410E-02 -0.2231609204452E-02
 0.2992099055149E-02 -0.2461879325634E-02
 0.3539798143997E-02 -0.2691594663987E-02
 0.4128390893871E-02 -0.2920267826111E-02
 0.4757288494434E-02 -0.3147420604874E-02
 0.5426016712868E-02 -0.3372585173978E-02
 0.6134200290073E-02 -0.3595305591307E-02
 0.6881557226106E-02 -0.3815141833446E-02
 0.7667851548585E-02 -0.4031662727371E-02
 0.8492948585233E-02 -0.4244470086309E-02
 0.9356738687859E-02 -0.4453188221532E-02
 0.1025915918655E-01 -0.4657485163686E-02
 0.1120017398822E-01 -0.4857086448439E-02
 0.1217975017015E-01 -0.5051793889138E-02
 0.1319783330129E-01 -0.5241509669866E-02
 0.1425430717586E-01 -0.5426262739689E-02
 0.1534893327690E-01 -0.5606237540958E-02
 0.1648127141099E-01 -0.5781803901149E-02
 0.1765058910913E-01 -0.5953546846427E-02
 0.1885577698595E-01 -0.6122294726795E-02
 0.2009523926521E-01 -0.6289135682223E-02
 0.2136677683461E-01 -0.6455419045439E-02
 0.2266743629856E-01 -0.6622731123141E-02
 0.2399336087066E-01 -0.6792842886607E-02
 0.2533980588971E-01 -0.6967644085961E-02
 0.2670116226432E-01 -0.7149043331031E-02
 0.2807080914859E-01 -0.7338815458581E-02
 0.2944115964008E-01 -0.7538450318901E-02
 0.3080379563905E-01 -0.7749004942845E-02
 0.3214967307543E-01 -0.7970976638668E-02
 0.3346935701926E-01 -0.8204211184526E-02
 0.1320300965686E-04 -0.2255438217172E-03
 0.8467701960175E-04 -0.4545310252670E-03
 0.2122104551971E-03 -0.6868553320974E-03
 0.3935664742779E-03 -0.9223012141331E-03
 0.6265656259189E-03 -0.1160559539050E-02
 0.9091520913856E-03 -0.1401239108203E-02
 0.1239443081092E-02 -0.1643885067751E-02
 0.1615760098015E-02 -0.1887999169205E-02
 0.2036639916602E-02 -0.2133057103990E-02
 0.2500832355996E-02 -0.2378524068182E-02
 0.3007287137108E-02 -0.2623866013881E-02
 0.3555133998333E-02 -0.2868556686573E-02
 0.4143662188403E-02 -0.3112082100090E-02
 0.4772298323546E-02 -0.3353941575162E-02
 0.5440586279996E-02 -0.3593647495123E-02
 0.6148171684536E-02 -0.3830725368579E-02
 0.6894796675366E-02 -0.4064716627367E-02
 0.7680253539448E-02 -0.4295169673269E-02
 0.8504441049422E-02 -0.4521664206480E-02
 0.9367289619521E-02 -0.4743798768427E-02
 0.1026878474734E-01 -0.4961212106134E-02
 0.1120894820218E-01 -0.5173596716655E-02
 0.1218781614667E-01 -0.5380717845589E-02
 0.1320541591763E-01 -0.5582444391886E-02
 0.1426172730651E-01 -0.5778805235296E-02
 0.1535662194511E-01 -0.5970006418987E-02
 0.1648978327625E-01 -0.6156443977279E-02
 0.1766061433674E-01 -0.6338726877589E-02
 0.1886814973172E-01 -0.6517707506260E-02
 0.2011094031788E-01 -0.6694506768589E-02
 0.2138692750848E-01 -0.6870526136354E-02
 0.2269328048681E-01 -0.7047433158745E-02
 0.2402623264865E-01 -0.7227116133162E-02
 0.2538107900151E-01 -0.7411587603881E-02
 0.2675218125497E-01 -0.7602868790233E-02
 0.2813280896698E-01 -0.7802866631364E-02
 0.2951517919166E-01 -0.8013208202928E-02
 0.3089059524186E-01 -0.8235074604217E-02
 0.3224966776795E-01 -0.8469059180382E-02
 0.3358257831991E-01 -0.8715073225718E-02
 0.1538627029287E-04 -0.2392838490668E-03
 0.8903738236227E-04 -0.4823118736615E-03
 0.2186845697327E-03 -0.7289670782557E-03
 0.4020364342925E-03 -0.9790070323273E-03
 0.6368652074876E-03 -0.1232082680944E-02
 0.9210757498043E-03 -0.1487753878247E-02
 0.1252756484820E-02 -0.1745512528775E-02
 0.1630210865003E-02 -0.2004807290380E-02
 0.2051967452199E-02 -0.2265064285910E-02
 0.2516776127057E-02 -0.2525704864548E-02
 0.3023593139862E-02 -0.2786157771006E-02
 0.3571559532373E-02 -0.3045866038746E-02
 0.4159979282236E-02 -0.3304290621339E-02
 0.4788296274872E-02 -0.3560910073229E-02
 0.5456073813064E-02 -0.3815218746321E-02
 0.6162979207756E-02 -0.4066725302261E-02
 0.6908779070327E-02 -0.4314954173352E-02
 0.7693293916643E-02 -0.4559434622581E-02
 0.8516455680841E-02 -0.4799725173679E-02
 0.9378234456534E-02 -0.5035399074165E-02
 0.1027866359127E-01 -0.5266065697317E-02
 0.1121782266273E-01 -0.5491383730144E-02
 0.1219581736023E-01 -0.5711080281397E-02
 0.1321275802424E-01 -0.5924988555826E-02
 0.1426872287851E-01 -0.6133134381671E-02
 0.1536369754572E-01 -0.6335741760987E-02
 0.1649749466286E-01 -0.6533228477629E-02
 0.1766966047591E-01 -0.6726222164046E-02
 0.1887938385028E-01 -0.6915593381959E-02
 0.2012537536458E-01 -0.7102489873726E-02
 0.2140573275613E-01 -0.7288360038268E-02
 0.2271776563636E-01 -0.7474949148233E-02
 0.2405781612276E-01 -0.7664262021885E-02
 0.2542123595091E-01 -0.7858436225572E-02
 0.2680237034807E-01 -0.8059610988221E-02
 0.2819438464397E-01 -0.8269834089932E-02
 0.2958929536001E-01 -0.8490880562139E-02
 0.3097811171473E-01 -0.8724066127712E-02
 0.3235107333261E-01 -0.8970088070084E-02
 0.3369794509846E-01 -0.9228926349984E-02
 0.1775373982356E-04 -0.2530310469850E-03
 0.9376685037383E-04 -0.5101151738662E-03
 0.2257049603183E-03 -0.7711240436480E-03
 0.4112143568333E-03 -0.1035787060368E-02
 0.6480127767199E-03 -0.1303713544138E-02
 0.9339617091448E-03 -0.1574412595367E-02
 0.1267118971462E-02 -0.1847321323184E-02
 0.1645770106368E-02 -0.2121834270106E-02
 0.2068437061355E-02 -0.2397327650600E-02
 0.2533872257025E-02 -0.2673179328010E-02
 0.3041041299302E-02 -0.2948781821102E-02
 0.3589099288101E-02 -0.3223548916206E-02
 0.4177367328001E-02 -0.3496918299499E-02
 0.4805308453660E-02 -0.3768349730551E-02
 0.5472506694826E-02 -0.4037321547655E-02
 0.6178651778099E-02 -0.4303327515942E-02
 0.6923535010486E-02 -0.4565876851384E-02
 0.7707004950397E-02 -0.4824481194972E-02
 0.8529026212394E-02 -0.5078679055551E-02
 0.9389607948050E-02 -0.5328019082207E-02
 0.1028883075998E-01 -0.5572081394863E-02
 0.1122683166733E-01 -0.5810490291964E-02
 0.1220378598588E-01 -0.6042933336482E-02
 0.1321988793920E-01 -0.6269205738884E-02
 0.1427531627362E-01 -0.6489327346965E-02
 0.1537017413331E-01 -0.6703536442944E-02
 0.1650440866871E-01 -0.6912267925993E-02
 0.1767771693975E-01 -0.7116162451005E-02
 0.1888945247962E-01 -0.7316102305003E-02
 0.2013849916571E-01 -0.7513255330305E-02
 0.2142312780439E-01 -0.7709110671399E-02
 0.2274080775541E-01 -0.7905486803582E-02
 0.2408801036687E-01 -0.8104503423437E-02
 0.2546016348124E-01 -0.8308424848601E-02
 0.2685161090820E-01 -0.8519513732783E-02
 0.2825542097998E-01 -0.8739968125457E-02
 0.2966340602560E-01 -0.8971723011705E-02
 0.3106626504459E-01 -0.9216240824015E-02
 0.3245383871576E-01 -0.9474332047422E-02
 0.3381543863220E-01 -0.9746049275446E-02
 0.2031070440429E-04 -0.2667874510956E-03
 0.9887599416838E-04 -0.5379460271490E-03
 0.2332870679640E-03 -0.8133352250915E-03
 0.4211197604819E-03 -0.1092654641903E-02
 0.6600308963250E-03 -0.1375469796259E-02
 0.9478344893665E-03 -0.1661236764447E-02
 0.1282556052962E-02 -0.1949335944325E-02
 0.1662463603880E-02 -0.2239106533922E-02
 0.2086074370417E-02 -0.2529874455727E-02
 0.2552146082731E-02 -0.2820974544036E-02
 0.3059656773532E-02 -0.3111764267741E-02
 0.3607778534014E-02 -0.3401629882481E-02
 0.4195852100682E-02 -0.3689987874656E-02
 0.4823361577318E-02 -0.3976281456437E-02
 0.5489913001381E-02 -0.4259975237111E-02
 0.6195219174786E-02 -0.4540550290916E-02
 0.6939096203976E-02 -0.4817502646869E-02
 0.7721420340931E-02 -0.5090328082228E-02
 0.8542188194274E-02 -0.5358546492938E-02
 0.9401447104093E-02 -0.5621682865669E-02
 0.1029932404274E-01 -0.5879288425370E-02
 0.1123601277251E-01 -0.6130952730810E-02
 0.1221175796698E-01 -0.6376322591917E-02
 0.1322683821824E-01 -0.6615153080719E-02
 0.1428153449011E-01 -0.6847455236900E-02
 0.1537607060183E-01 -0.7073477953698E-02
 0.1651053321590E-01 -0.7293668474258E-02
 0.1768477761850E-01 -0.7508674490819E-02
 0.1889833246121E-01 -0.7719382971716E-02
 0.2015026891121E-01 -0.7926974266210E-02
 0.2143904851391E-01 -0.8132971014615E-02
 0.2276232123551E-01 -0.8339259224275E-02
 0.2411671031862E-01 -0.8548070812250E-02
 0.2549774172465E-01 -0.8761797906727E-02
 0.2689977567073E-01 -0.8982831901593E-02
 0.2831579301067E-01 -0.9213531226575E-02
 0.2973739936406E-01 -0.9456004203581E-02
 0.3115496685286E-01 -0.9711873799002E-02
 0.3255790692849E-01 -0.9982074543984E-02
 0.3393503737976E-01 -0.1026673660737E-01
 0.2306314237019E-04 -0.2805552114879E-03
 0.1043767743829E-03 -0.5658098051690E-03
 0.2414483127033E-03 -0.8556100671785E-03
 0.4317745333053E-03 -0.1149623726929E-02
 0.6729446498015E-03 -0.1447369803703E-02
 0.9627210554865E-03 -0.1748248576370E-02
 0.1299095435606E-02 -0.2051581433175E-02
 0.1680318979121E-02 -0.2356650791314E-02
 0.2104906458146E-02 -0.2662731870136E-02
 0.2571624031113E-02 -0.2969117051798E-02
 0.3079465513590E-02 -0.3275130151231E-02
 0.3627623122427E-02 -0.3580131882596E-02
 0.4215459847759E-02 -0.3883519890197E-02
 0.4842482823423E-02 -0.4184723372231E-02
 0.5508321352327E-02 -0.4483195766580E-02
 0.6212711894407E-02 -0.4778407922339E-02
 0.6955495335189E-02 -0.5069844963118E-02
 0.7736575103046E-02 -0.5356988811350E-02
 0.8555978902826E-02 -0.5639342406513E-02
 0.9413791137852E-02 -0.5916408269765E-02
 0.1031018396335E-01 -0.6187709355240E-02
 0.1124540683827E-01 -0.6452800394429E-02
 0.1221977313192E-01 -0.6711286483438E-02
 0.1323364585917E-01 -0.6962880620097E-02
 0.1428740944956E-01 -0.7207582365456E-02
 0.1538141110471E-01 -0.7445647621017E-02
 0.1651588158780E-01 -0.7677531118068E-02
 0.1769084152404E-01 -0.7903881296768E-02
 0.1890600506343E-01 -0.8125582177372E-02
 0.2016064497064E-01 -0.8343818128529E-02
 0.2145343207877E-01 -0.8560136868823E-02
 0.2278221940519E-01 -0.8776484954272E-02
 0.2414380709023E-01 -0.8995202641488E-02
 0.2553384419897E-01 -0.9218810047341E-02
 0.2694672841141E-01 -0.9449832368150E-02
 0.2837536541717E-01 -0.9690799179733E-02
 0.2981115314421E-01 -0.9944007038110E-02
 0.3124411977008E-01 -0.1021125525120E-01
 0.3266321467379E-01 -0.1049361508224E-01
 0.3405671698776E-01 -0.1079130037786E-01
 0.2601775993211E-04 -0.2943366284888E-03
 0.1102826167204E-03 -0.5937122335725E-03
 0.2502081959819E-03 -0.8979585993098E-03
 0.4432030399804E-03 -0.1206709056746E-02
 0.6867817282821E-03 -0.1519432847776E-02
 0.9786508646820E-03 -0.1835471131568E-02
 0.1316767017611E-02 -0.2154083584525E-02
 0.1699365641447E-02 -0.2474494204010E-02
 0.2124961760722E-02 -0.2795927090770E-02
 0.2592333491200E-02 -0.3117632903368E-02
 0.3100494112617E-02 -0.3438903449164E-02
 0.3648659324599E-02 -0.3759076187042E-02
 0.4236217117055E-02 -0.4077532582971E-02
 0.4862699655307E-02 -0.4393690649342E-02
 0.5527760738112E-02 -0.4706995487329E-02
 0.6231160983857E-02 -0.5016910449124E-02
 0.6972765907707E-02 -0.5322912290106E-02
 0.7752505424663E-02 -0.5624471344394E-02
 0.8570437222067E-02 -0.5921075518244E-02
 0.9426681379575E-02 -0.6212206344497E-02
 0.1032145373809E-01 -0.6497359424192E-02
 0.1125505804455E-01 -0.6776054874887E-02
 0.1222787528553E-01 -0.7047855412541E-02
 0.1324035248649E-01 -0.7312430291474E-02
 0.1429297829295E-01 -0.7569765144786E-02
 0.1538622547801E-01 -0.7820119414036E-02
 0.1652047298758E-01 -0.8063950445615E-02
 0.1769591347854E-01 -0.8301900889102E-02
 0.1891245677401E-01 -0.8534843627460E-02
 0.2016959173467E-01 -0.8763957640837E-02
 0.2146621783084E-01 -0.8990806043630E-02
 0.2280041518477E-01 -0.9217387468048E-02
 0.2416918835298E-01 -0.9446145166347E-02
 0.2556833782471E-01 -0.9679726282837E-02
 0.2699232356292E-01 -0.9920794422906E-02
 0.2843399180775E-01 -0.1017206167188E-01
 0.2988453384044E-01 -0.1043602936842E-01
 0.3133361659983E-01 -0.1071469124290E-01
 0.3276969176470E-01 -0.1100927012889E-01
 0.3418045010475E-01 -0.1132007102158E-01
 0.2918203732043E-04 -0.3081341947037E-03
 0.1166085081416E-03 -0.6216594924480E-03
 0.2595884313766E-03 -0.9403916029940E-03
 0.4554322584862E-03 -0.1263926393546E-02
 0.7015725427044E-03 -0.1591679399216E-02
 0.9956559313261E-03 -0.1922928734647E-02
 0.1335602896924E-02 -0.2256869236773E-02
 0.1719634740183E-02 -0.2592664651822E-02
 0.2146269977712E-02 -0.2929487574000E-02
 0.2614302686295E-02 -0.3266547858171E-02
 0.3122769656216E-02 -0.3603107237480E-02
 0.3670913668821E-02 -0.3938482525789E-02
 0.4258150589249E-02 -0.4272041996783E-02
 0.4884039653415E-02 -0.4603195607086E-02
 0.5548260353249E-02 -0.4931383234319E-02
 0.6250597878128E-02 -0.5256063723758E-02
 0.6990942090015E-02 -0.5576708255760E-02
 0.7769248525173E-02 -0.5892778104559E-02
 0.8585603521292E-02 -0.6203748343482E-02
 0.9440161182518E-02 -0.6509081292520E-02
 0.1033317922197E-01 -0.6808246438220E-02
 0.1126501389259E-01 -0.7100729836696E-02
 0.1223611228405E-01 -0.7386051502484E-02
 0.1324700452110E-01 -0.7663835606713E-02
 0.1429828366798E-01 -0.7934051698696E-02
 0.1539054966706E-01 -0.8196959506481E-02
 0.1652433312014E-01 -0.8453014184715E-02
 0.1770000485466E-01 -0.8702845879881E-02
 0.1891768017915E-01 -0.8947307635388E-02
 0.2017707858216E-01 -0.9187562706663E-02
 0.2147734820628E-01 -0.9425178567073E-02
 0.2281682192877E-01 -0.9662195776596E-02
 0.2419273891586E-01 -0.9901153502699E-02
 0.2560108312037E-01 -0.1014482350373E-01
 0.2703640597870E-01 -0.1039601168069E-01
 0.2849151411941E-01 -0.1065762448918E-01
 0.2995739586911E-01 -0.1093238639183E-01
 0.3142333965985E-01 -0.1122250624071E-01
 0.3287726081250E-01 -0.1152937580675E-01
 0.3430620657381E-01 -0.1185340030718E-01
 0.3256428642304E-04 -0.3219506426114E-03
 0.1233711151491E-03 -0.6496583258146E-03
 0.2696131024860E-03 -0.9829207882680E-03
 0.4684919410703E-03 -0.1321292753052E-02
 0.7173503502839E-03 -0.1664131381445E-02
 0.1013770892491E-02 -0.2010647154775E-02
 0.1355637365435E-02 -0.2359966497080E-02
 0.1741159091544E-02 -0.2711190898139E-02
 0.2168861944494E-02 -0.3063441127599E-02
 0.2637560507590E-02 -0.3415887397083E-02
 0.3146319531589E-02 -0.3767763628620E-02
 0.3694412736008E-02 -0.4118368955129E-02
 0.4281286867232E-02 -0.4467061782251E-02
 0.4906530302821E-02 -0.4813247447572E-02
 0.5569849384840E-02 -0.5156363994827E-02
 0.6271054192296E-02 -0.5495869009729E-02
 0.7010058514117E-02 -0.5831231143861E-02
 0.7786842465387E-02 -0.6161905403209E-02
 0.8601519483237E-02 -0.6487356513364E-02
 0.9454275778813E-02 -0.6807029671516E-02
 0.1034540880489E-01 -0.7120369835689E-02
 0.1127532515776E-01 -0.7426829930838E-02
 0.1224453606463E-01 -0.7725887346738E-02
 0.1325365331055E-01 -0.8017120229438E-02
 0.1430337398659E-01 -0.8300480262640E-02
 0.1539442613802E-01 -0.8576224514638E-02
 0.1652749477923E-01 -0.8844801308975E-02
 0.1770313434670E-01 -0.9106821500658E-02
 0.1892167490280E-01 -0.9363109151315E-02
 0.2018308093472E-01 -0.9614800543660E-02
 0.2148676981538E-01 -0.9863455043839E-02
 0.2283135436433E-01 -0.1011114312280E-01
 0.2421434135581E-01 -0.1036049073874E-01
 0.2563193435956E-01 -0.1061439002269E-01
 0.2707881052648E-01 -0.1087579199479E-01
 0.2854776169765E-01 -0.1114780967661E-01
 0.3002958036798E-01 -0.1143341092496E-01
 0.3151315957614E-01 -0.1173504344259E-01
 0.3298583631444E-01 -0.1205428829768E-01
 0.3443395297401E-01 -0.1239166186805E-01
 0.3617372224803E-04 -0.3357890013499E-03
 0.1305889301819E-03 -0.6777161756924E-03
 0.2803088577284E-03 -0.1025559013765E-02
 0.4824148125075E-03 -0.1378826700398E-02
 0.7341514114427E-03 -0.1736812514832E-02
 0.1033033093712E-02 -0.2098653982840E-02
 0.1376906913977E-02 -0.2463405078909E-02
 0.1763973110202E-02 -0.2830102885983E-02
 0.2192769507180E-02 -0.3197816156422E-02
 0.2662136351371E-02 -0.3565676919671E-02
 0.3171171243252E-02 -0.3932893928891E-02
 0.3719182965371E-02 -0.4298751985937E-02
 0.4305652278432E-02 -0.4662603305604E-02
 0.4930198795446E-02 -0.5023852351494E-02
 0.5592556815916E-02 -0.5381938993546E-02
 0.6292561526824E-02 -0.5736323054004E-02
 0.7030150084424E-02 -0.6086473947920E-02
 0.7805325963331E-02 -0.6431843465729E-02
 0.8618227932496E-02 -0.6771888760333E-02
 0.9469072129204E-02 -0.7106040324828E-02
 0.1035819329493E-01 -0.7433720547103E-02
 0.1128604582294E-01 -0.7754350567316E-02
 0.1225320265042E-01 -0.8067365679332E-02
 0.1326035523259E-01 -0.8372297532254E-02
 0.1430830365872E-01 -0.8669078624532E-02
 0.1539790427602E-01 -0.8957960831068E-02
 0.1652999844192E-01 -0.9239381292665E-02
 0.1770532878192E-01 -0.9513924832650E-02
 0.1892444863159E-01 -0.9782377053085E-02
 0.2018758145227E-01 -0.1004583515262E-01
 0.2149443471206E-01 -0.1030583644278E-01
 0.2284392977857E-01 -0.1056446722945E-01
 0.2423387692325E-01 -0.1082442875323E-01
 0.2566073999596E-01 -0.1108872700251E-01
 0.2711936191110E-01 -0.1136045943707E-01
 0.2860255055974E-01 -0.1164295792585E-01
 0.3010091415277E-01 -0.1193945603451E-01
 0.3160293432754E-01 -0.1225266756710E-01
 0.3309532413115E-01 -0.1258438682959E-01
 0.3456365269040E-01 -0.1293525446051E-01
 0.4002055012306E-04 -0.3496526628381E-03
 0.1382824487988E-03 -0.7058413355894E-03
 0.2917051430545E-03 -0.1068320534269E-02
 0.4972368022145E-03 -0.1436548675230E-02
 0.7520151674281E-03 -0.1809748682611E-02
 0.1053482678429E-02 -0.2186978993399E-02
 0.1399450225339E-02 -0.2567216620827E-02
 0.1788112717585E-02 -0.2949431988697E-02
 0.2218025368002E-02 -0.3332641835883E-02
 0.2688059924473E-02 -0.3715941843785E-02
 0.3197352197179E-02 -0.4098518674310E-02
 0.3745250429620E-02 -0.4479646567532E-02
 0.4331272647690E-02 -0.4858675590211E-02
 0.4955071803056E-02 -0.5235013382833E-02
 0.5616411198919E-02 -0.5608105561040E-02
 0.6315151241423E-02 -0.5977417914881E-02
 0.7051251752843E-02 -0.6342424149659E-02
 0.7824738173331E-02 -0.6702576147974E-02
 0.8635772623977E-02 -0.7057326556686E-02
 0.9484598729441E-02 -0.7406093923629E-02
 0.1037158575519E-01 -0.7748280420481E-02
 0.1129723296283E-01 -0.8083277202347E-02
 0.1226217210520E-01 -0.8410478503102E-02
 0.1326717174966E-01 -0.8729369548517E-02
 0.1431313328251E-01 -0.9039862889454E-02
 0.1540104075163E-01 -0.9342203204099E-02
 0.1653189285167E-01 -0.9636812526794E-02
 0.1770662395151E-01 -0.9924243110086E-02
 0.1892601820065E-01 -0.1020523242471E-01
 0.2019057133748E-01 -0.1048082569982E-01
 0.2150030181717E-01 -0.1075252274609E-01
 0.2285446938614E-01 -0.1102240939023E-01
 0.2425122661513E-01 -0.1129324789595E-01
 0.2568734318560E-01 -0.1156814879653E-01
 0.2715787446294E-01 -0.1185035525052E-01
 0.2865568245551E-01 -0.1214342997125E-01
 0.3017120832536E-01 -0.1245089665892E-01
 0.3169250788383E-01 -0.1277576657389E-01
 0.3320562058008E-01 -0.1312007554697E-01
 0.3469526559648E-01 -0.1348460408793E-01
 0.4411607159868E-04 -0.3635454600253E-03
 0.1464743834954E-03 -0.7340431307345E-03
 0.3038344794139E-03 -0.1111221288396E-02
 0.5129973156610E-03 -0.1494481363534E-02
 0.7709844413461E-03 -0.1882968339893E-02
 0.1075162681359E-02 -0.2275654536392E-02
 0.1423308154348E-02 -0.2671435015688E-02
 0.1813615226288E-02 -0.3069211250147E-02
 0.2244662901976E-02 -0.3467948256097E-02
 0.2715361020626E-02 -0.3866707660538E-02
 0.3224889457860E-02 -0.4264657610127E-02
 0.3772640585710E-02 -0.4661066006080E-02
 0.4358173047710E-02 -0.5055285184847E-02
 0.4981175228783E-02 -0.5446730312627E-02
 0.5641440407272E-02 -0.5834856912815E-02
 0.6338854205343E-02 -0.6219140690572E-02
 0.7073398267574E-02 -0.6599063386300E-02
 0.7845118435264E-02 -0.6974080527206E-02
 0.8654197997405E-02 -0.7343643610475E-02
 0.9500905378263E-02 -0.7707162346061E-02
 0.1038564129752E-01 -0.8064021459509E-02
 0.1130894658103E-01 -0.8413584409540E-02
 0.1227150843783E-01 -0.8755205967458E-02
 0.1327416941248E-01 -0.9088325632313E-02
 0.1431792978750E-01 -0.9412835903228E-02
 0.1540389985144E-01 -0.9728972918037E-02
 0.1653323558720E-01 -0.1003714026932E-01
 0.1770706546218E-01 -0.1033785148522E-01
 0.1892641074995E-01 -0.1063178622411E-01
 0.2019205177298E-01 -0.1091992422640E-01
 0.2150433854039E-01 -0.1120371088747E-01
 0.2286289994703E-01 -0.1148521285030E-01
 0.2426627251024E-01 -0.1176723600577E-01
 0.2571158251906E-01 -0.1205298271905E-01
 0.2719415200716E-01 -0.1234583834567E-01
 0.2870694382487E-01 -0.1264960762249E-01
 0.3024025661184E-01 -0.1296813089209E-01
 0.3178170852229E-01 -0.1330475300361E-01
 0.3331661128200E-01 -0.1366178497011E-01
 0.3482874751332E-01 -0.1404016574093E-01
 0.4847281306286E-04 -0.3774717610688E-03
 0.1551899232798E-03 -0.7623321391148E-03
 0.3167327975823E-03 -0.1154279255366E-02
 0.5297395590191E-03 -0.1552650163564E-02
 0.7911056770174E-03 -0.1956503034535E-02
 0.1098119141611E-02 -0.2364716052523E-02
 0.1448523714186E-02 -0.2776096874508E-02
 0.1840519224827E-02 -0.3189475775605E-02
 0.2272715975000E-02 -0.3603766741594E-02
 0.2744069303837E-02 -0.4018000200158E-02
 0.3253809519639E-02 -0.4431329926413E-02
 0.3801378046573E-02 -0.4843022192702E-02
 0.4386377575379E-02 -0.5252436402113E-02
 0.5008533986901E-02 -0.5658999878801E-02
 0.5667671415007E-02 -0.6062182434760E-02
 0.6363700572968E-02 -0.6461473828142E-02
 0.7096623942128E-02 -0.6856367775415E-02
 0.7866506036815E-02 -0.7246327230554E-02
 0.8673548935695E-02 -0.7630806181263E-02
 0.9518042938372E-02 -0.8009208960451E-02
 0.1040041685697E-01 -0.8380906051202E-02
 0.1132124941435E-01 -0.8745236026190E-02
 0.1228127946029E-01 -0.9101516405680E-02
 0.1328141980527E-01 -0.9449142359351E-02
 0.1432276651133E-01 -0.9787986993374E-02
 0.1540655374189E-01 -0.1011827736062E-01
 0.1653409357712E-01 -0.1044039604510E-01
 0.1770670956412E-01 -0.1075481229947E-01
 0.1892566491042E-01 -0.1106213851231E-01
 0.2019203546605E-01 -0.1136327498390E-01
 0.2150652260562E-01 -0.1165959440636E-01
 0.2286915568570E-01 -0.1195312303668E-01
 0.2427889947911E-01 -0.1224668947103E-01
 0.2573329314487E-01 -0.1254357110951E-01
 0.2722798806549E-01 -0.1284728838037E-01
 0.2875610497058E-01 -0.1316189766036E-01
 0.3030783382135E-01 -0.1349158433085E-01
 0.3187034733792E-01 -0.1384006847486E-01
 0.3342817049634E-01 -0.1420997670796E-01
 0.3496405038750E-01 -0.1460242860370E-01
 0.5310468080009E-04 -0.3914365809918E-03
 0.1644570432675E-03 -0.7907204452468E-03
 0.3304398292716E-03 -0.1197514851296E-02
 0.5475109045074E-03 -0.1611083680241E-02
 0.8124291882536E-03 -0.2030387922921E-02
 0.1122401193157E-02 -0.2454202529836E-02
 0.1475142013435E-02 -0.2881241864706E-02
 0.1868864396549E-02 -0.3310262924449E-02
 0.2302218688546E-02 -0.3740129899285E-02
 0.2774214016604E-02 -0.4169845552833E-02
 0.3284138003819E-02 -0.4598554074834E-02
 0.3831486280098E-02 -0.5025525336515E-02
 0.4415909056212E-02 -0.5450130981206E-02
 0.5037171710663E-02 -0.5871815383934E-02
 0.5695130003536E-02 -0.6290067213282E-02
 0.6389719485090E-02 -0.6704394576403E-02
 0.7120962348357E-02 -0.7114307274985E-02
 0.7888939898246E-02 -0.7519279681647E-02
 0.8693870444762E-02 -0.7918772188419E-02
 0.9536063018347E-02 -0.8312187566526E-02
 0.1041597088728E-01 -0.8698885707648E-02
 0.1133420665901E-01 -0.9078183659708E-02
 0.1229155656931E-01 -0.9449364567253E-02
 0.1328899941799E-01 -0.9811781445196E-02
 0.1432772321072E-01 -0.1016528953514E-01
 0.1540908268081E-01 -0.1051010720681E-01
 0.1653454358523E-01 -0.1084659443581E-01
 0.1770562398695E-01 -0.1117517150201E-01
 0.1892383205271E-01 -0.1149637457712E-01
 0.2019054832747E-01 -0.1181101041327E-01
 0.2150684408999E-01 -0.1212035951679E-01
 0.2287318048826E-01 -0.1242638402242E-01
 0.2428899718135E-01 -0.1273191041320E-01
 0.2575230808752E-01 -0.1304026948753E-01
 0.2725916601923E-01 -0.1335510495609E-01
 0.2880291881818E-01 -0.1368073187927E-01
 0.3037369345882E-01 -0.1402171050604E-01
 0.3195821562052E-01 -0.1438218401433E-01
 0.3354015935528E-01 -0.1476514368282E-01
 0.3510112131928E-01 -0.1517191661952E-01
 0.5802714933855E-04 -0.4054457180792E-03
 0.1743068806669E-03 -0.8192219568437E-03
 0.3449995783805E-03 -0.1240951430234E-02
 0.5663633251903E-03 -0.1669814358688E-02
 0.8350094521945E-03 -0.2104662446789E-02
 0.1148061173992E-02 -0.2544157135148E-02
 0.1503210196615E-02 -0.2986913238623E-02
 0.1898691339491E-02 -0.3431612719205E-02
 0.2333205132426E-02 -0.3877071924413E-02
 0.2805823708234E-02 -0.4322270305531E-02
 0.3315899388558E-02 -0.4766347973790E-02
 0.3862987351493E-02 -0.5208584170178E-02
 0.4446788799383E-02 -0.5648368316648E-02
 0.5067110514169E-02 -0.6085166960036E-02
 0.5723840522167E-02 -0.6518492339990E-02
 0.6416938820191E-02 -0.6947875326696E-02
 0.7146446052597E-02 -0.7372846050114E-02
 0.7912458290456E-02 -0.7792894477688E-02
 0.8715207354079E-02 -0.8207491578358E-02
 0.9555017660159E-02 -0.8616042728342E-02
 0.1043236304423E-01 -0.9017901335901E-02
 0.1134788566450E-01 -0.9412366861142E-02
 0.1230241447392E-01 -0.9798691657024E-02
 0.1329698944255E-01 -0.1017618960830E-01
 0.1433288597681E-01 -0.1054470059552E-01
 0.1541157512081E-01 -0.1090443580546E-01
 0.1653467258930E-01 -0.1125573218633E-01
 0.1770388869323E-01 -0.1159895748519E-01
 0.1892097750997E-01 -0.1193456356358E-01
 0.2018763122117E-01 -0.1226324972072E-01
 0.2150530767050E-01 -0.1258618388445E-01
 0.2287493046866E-01 -0.1290523786190E-01
 0.2429646258221E-01 -0.1322320698849E-01
 0.2576846017004E-01 -0.1354344817301E-01
 0.2728745985038E-01 -0.1386971071228E-01
 0.2884712010585E-01 -0.1420657150115E-01
 0.3043756556063E-01 -0.1455899609476E-01
 0.3204508243611E-01 -0.1493160532322E-01
 0.3365242484776E-01 -0.1532781524456E-01
 0.3523990294877E-01 -0.1574919417856E-01
 0.6325748965253E-04 -0.4195059192361E-03
 0.1847741866143E-03 -0.8478527825637E-03
 0.3604608759072E-03 -0.1284615869427E-02
 0.5863538882579E-03 -0.1728879201219E-02
 0.8589054177119E-03 -0.2179371063258E-02
 0.1175154708568E-02 -0.2634627845920E-02
 0.1532777330234E-02 -0.3093158300411E-02
 0.1930041320146E-02 -0.3553568132901E-02
 0.2365709071726E-02 -0.4014628732122E-02
 0.2838925903422E-02 -0.4475301559107E-02
 0.3349116686278E-02 -0.4934728953038E-02
 0.3895901618992E-02 -0.5392205855204E-02
 0.4479036309547E-02 -0.5847145345434E-02
 0.5098370712036E-02 -0.6299041446969E-02
 0.5753825605445E-02 -0.6747434780798E-02
 0.6445384900032E-02 -0.7191883463864E-02
 0.7173106302514E-02 -0.7631942290278E-02
 0.7937098499487E-02 -0.8067121151784E-02
 0.8737603959015E-02 -0.8496906005875E-02
 0.9574958963451E-02 -0.8920709344050E-02
 0.1044965380031E-01 -0.9337882660906E-02
 0.1136235555267E-01 -0.9747712360704E-02
 0.1231393084117E-01 -0.1014942433672E-01
 0.1330547547992E-01 -0.1054229728498E-01
 0.1433834705593E-01 -0.1092615930489E-01
 0.1541412771764E-01 -0.1130121715153E-01
 0.1653457807472E-01 -0.1166778573246E-01
 0.1770159657453E-01 -0.1202617815285E-01
 0.1891718179849E-01 -0.1237675512655E-01
 0.2018334180190E-01 -0.1272009525348E-01
 0.2150193508373E-01 -0.1305723299437E-01
 0.2287437688838E-01 -0.1338992135943E-01
 0.2430120293082E-01 -0.1372089106198E-01
 0.2578158440036E-01 -0.1405349134662E-01
 0.2731263516847E-01 -0.1439155204636E-01
 0.2888842447332E-01 -0.1473990946898E-01
 0.3049915386162E-01 -0.1510396426404E-01
 0.3213069102205E-01 -0.1548887611575E-01
 0.3376479788021E-01 -0.1589855974875E-01
 0.3538033365246E-01 -0.1633486893741E-01
 0.6881504705456E-04 -0.4336250834144E-03
 0.1958978723719E-03 -0.8766316937486E-03
 0.3768780374054E-03 -0.1328539275686E-02
 0.6075453181598E-03 -0.1788320614568E-02
 0.8841808313591E-03 -0.2254564080813E-02
 0.1203740761464E-02 -0.2725668141613E-02
 0.1563894233651E-02 -0.3200028881679E-02
 0.1962955965852E-02 -0.3676175343792E-02
 0.2399763579312E-02 -0.4152838029648E-02
 0.2873546728641E-02 -0.4628966872424E-02
 0.3383811090878E-02 -0.5103713620548E-02
 0.3930247408406E-02 -0.5576395809116E-02
 0.4512668982835E-02 -0.6046456356840E-02
 0.5130970525165E-02 -0.6513422193636E-02
 0.5785105875613E-02 -0.6976867166211E-02
 0.6475082177090E-02 -0.7436381134619E-02
 0.7200972690725E-02 -0.7891547937725E-02
 0.7962896461304E-02 -0.8341901837383E-02
 0.8761103625839E-02 -0.8786948405505E-02
 0.9595938663847E-02 -0.9226112090287E-02
 0.1046790400356E-01 -0.9658747503974E-02
 0.1137768676945E-01 -0.1008413313522E-01
 0.1232618586131E-01 -0.1050147352874E-01
 0.1331454715243E-01 -0.1091001710835E-01
 0.1434420456169E-01 -0.1130958494177E-01
 0.1541684522041E-01 -0.1170038350281E-01
 0.1653436821093E-01 -0.1208270828118E-01
 0.1769885405215E-01 -0.1245681742003E-01
 0.1891254179796E-01 -0.1282297536290E-01
 0.2017775641535E-01 -0.1318162798099E-01
 0.2149676780532E-01 -0.1353365545252E-01
 0.2287150949497E-01 -0.1388066164947E-01
 0.2430313934937E-01 -0.1422527467984E-01
 0.2579152106429E-01 -0.1457079505475E-01
 0.2733445083605E-01 -0.1492109909127E-01
 0.2892652780109E-01 -0.1528127240084E-01
 0.3055813264040E-01 -0.1565717817766E-01
 0.3221475410091E-01 -0.1605458198695E-01
 0.3387709043401E-01 -0.1647798688409E-01
 0.3552234863552E-01 -0.1692959353208E-01
 0.7472158178931E-04 -0.4478125142364E-03
 0.2077216758531E-03 -0.9055807020455E-03
 0.3943116518396E-03 -0.1372757868613E-02
 0.6300066525505E-03 -0.1848187465200E-02
 0.9109045979285E-03 -0.2330298700027E-02
 0.1233881680385E-02 -0.2817337879394E-02
 0.1596613281477E-02 -0.3307581988000E-02
 0.1997476935324E-02 -0.3799484170422E-02
 0.2435400666746E-02 -0.4291739605497E-02
 0.2909710560546E-02 -0.4783294483662E-02
 0.3420001667569E-02 -0.5273318083870E-02
 0.3966040745261E-02 -0.5761157976120E-02
 0.4547701869460E-02 -0.6246293342818E-02
 0.5164925856692E-02 -0.6728289503150E-02
 0.5817699714148E-02 -0.7206758334592E-02
 0.6506052985845E-02 -0.7681325883317E-02
 0.7230072873387E-02 -0.8151609403016E-02
 0.7989886439331E-02 -0.8617172044913E-02
 0.8785748424099E-02 -0.9077543805382E-02
 0.9618007720087E-02 -0.9532166244547E-02
 0.1048717442304E-01 -0.9980402579720E-02
 0.1139395059693E-01 -0.1042152913904E-01
 0.1233926174219E-01 -0.1085473503135E-01
 0.1332429760946E-01 -0.1127924434696E-01
 0.1435056204208E-01 -0.1169487712145E-01
 0.1541984017954E-01 -0.1210184523459E-01
 0.1653416181748E-01 -0.1250042924426E-01
 0.1769578145984E-01 -0.1289083415392E-01
 0.1890717174548E-01 -0.1327322523839E-01
 0.2017097190519E-01 -0.1364790549229E-01
 0.2148986981098E-01 -0.1401558081537E-01
 0.2286634019950E-01 -0.1437767435561E-01
 0.2430221105677E-01 -0.1473666929205E-01
 0.2579811969391E-01 -0.1509576832006E-01
 0.2735266151596E-01 -0.1545884939043E-01
 0.2896110623930E-01 -0.1583122695738E-01
 0.3061414390091E-01 -0.1621924968163E-01
 0.3229694873466E-01 -0.1662936077056E-01
 0.3398909185300E-01 -0.1706675623219E-01
 0.3566588419353E-01 -0.1753407113814E-01
 0.8100168740641E-04 -0.4620792361421E-03
 0.2202949688124E-03 -0.9347257638816E-03
 0.4128295067454E-03 -0.1417314025346E-02
 0.6538139628751E-03 -0.1908536269475E-02
 0.9391511116917E-03 -0.2406640097450E-02
 0.1265643136841E-02 -0.2909704083785E-02
 0.1630988067476E-02 -0.3415880224544E-02
 0.2033645444796E-02 -0.3923548163988E-02
 0.2472650780630E-02 -0.4431375170002E-02
 0.2947439553289E-02 -0.4938312986360E-02
 0.3457704932399E-02 -0.5443557530423E-02
 0.4003294982943E-02 -0.5946494355052E-02
 0.4584147334654E-02 -0.6446645494503E-02
 0.5200249965907E-02 -0.6943620101638E-02
 0.5851622929384E-02 -0.7437072764738E-02
 0.6538317187661E-02 -0.7926670030627E-02
 0.7260432179937E-02 -0.8412066864810E-02
 0.8018100591336E-02 -0.8892859851405E-02
 0.8811578647687E-02 -0.9368608369899E-02
 0.9641215790460E-02 -0.9838776539004E-02
 0.1050752518536E-01 -0.1030274211381E-01
 0.1141121855824E-01 -0.1075978563143E-01
 0.1235324209715E-01 -0.1120908749149E-01
 0.1333482292573E-01 -0.1164985444487E-01
 0.1435752793642E-01 -0.1208191280880E-01
 0.1542323254234E-01 -0.1250548721292E-01
 0.1653408822013E-01 -0.1292084984756E-01
 0.1769251333369E-01 -0.1332815689890E-01
 0.1890120418415E-01 -0.1372747434872E-01
 0.2016310747487E-01 -0.1411895481845E-01
 0.2148133056805E-01 -0.1450311169709E-01
 0.2285890723483E-01 -0.1488115550443E-01
 0.2429838035944E-01 -0.1525537831703E-01
 0.2580124396052E-01 -0.1562882745524E-01
 0.2736702106002E-01 -0.1600532481891E-01
 0.2899181640648E-01 -0.1639038000976E-01
 0.3066679390682E-01 -0.1679084172948E-01
 0.3237690950161E-01 -0.1721390803382E-01
 0.3410056012664E-01 -0.1766558290528E-01
 0.3581088233626E-01 -0.1814905191195E-01
 0.8768331025857E-04 -0.4764383972524E-03
 0.2336737504558E-03 -0.9640976747800E-03
 0.4325077018219E-03 -0.1462257604989E-02
 0.6790511840701E-03 -0.1969432691951E-02
 0.9690006013696E-03 -0.2483662786627E-02
 0.1299094021811E-02 -0.3002841966008E-02
 0.1667073014030E-02 -0.3524992427808E-02
 0.2071501765095E-02 -0.4048424927698E-02
 0.2511542308706E-02 -0.4571788486885E-02
 0.2986753212765E-02 -0.5094051392444E-02
 0.3496934507443E-02 -0.5614446311041E-02
 0.4042020525560E-02 -0.6132405159495E-02
 0.4622014824937E-02 -0.6647499468511E-02
 0.5236953251279E-02 -0.7159387522091E-02
 0.5886888531379E-02 -0.7667771076326E-02
 0.6571891916174E-02 -0.8172361280912E-02
 0.7292073312137E-02 -0.8672854967468E-02
 0.8047568610229E-02 -0.9168886665388E-02
 0.8838632390449E-02 -0.9660050203437E-02
 0.9665610740525E-02 -0.1014583796964E-01
 0.1052901521465E-01 -0.1062564861894E-01
 0.1142956179241E-01 -0.1109877387387E-01
 0.1236821126251E-01 -0.1156439296696E-01
 0.1334622138034E-01 -0.1202170337654E-01
 0.1436521485690E-01 -0.1247054637173E-01
 0.1542714901212E-01 -0.1291116842772E-01
 0.1653428681168E-01 -0.1334384220048E-01
 0.1768919836277E-01 -0.1376868222656E-01
 0.1889479056665E-01 -0.1418565841567E-01
 0.2015430627369E-01 -0.1459476903170E-01
 0.2147126793937E-01 -0.1499631963602E-01
 0.2284927957505E-01 -0.1539127717016E-01
 0.2429163836582E-01 -0.1578169354155E-01
 0.2580077784128E-01 -0.1617039449969E-01
 0.2737728725930E-01 -0.1656107359686E-01
 0.2901829729293E-01 -0.1695938418046E-01
 0.3071564949197E-01 -0.1737267956065E-01
 0.3245422435560E-01 -0.1780898635753E-01
 0.3421120870082E-01 -0.1827526434124E-01
 0.3595729756051E-01 -0.1877533917077E-01
 0.9479839741464E-04 -0.4909057984708E-03
 0.2479218668697E-03 -0.9937331804764E-03
 0.4534319722690E-03 -0.1507647582844E-02
 0.7058110237912E-03 -0.2030953314033E-02
 0.1000539418680E-02 -0.2561452129231E-02
 0.1334306202180E-02 -0.3096835939689E-02
 0.1704922824762E-02 -0.3634994163974E-02
 0.2111084584408E-02 -0.4174176216698E-02
 0.2552100986811E-02 -0.4713025236364E-02
 0.3027667902598E-02 -0.5250538897729E-02
 0.3537700728630E-02 -0.5785997702284E-02
 0.4082224514903E-02 -0.6318888629646E-02
 0.4661310603047E-02 -0.6848839271307E-02
 0.5275043002235E-02 -0.7375562065129E-02
 0.5923506472836E-02 -0.7898810059207E-02
 0.6606791284131E-02 -0.8418342803983E-02
 0.7325015998598E-02 -0.8933902932378E-02
 0.8078317313464E-02 -0.9445167338531E-02
 0.8866945063112E-02 -0.9951769427154E-02
 0.9691238084705E-02 -0.1045323579796E-01
 0.1055170159858E-01 -0.1094899277638E-01
 0.1144905034572E-01 -0.1143835083996E-01
 0.1238425351761E-01 -0.1192049640226E-01
 0.1335859261865E-01 -0.1239462680812E-01
 0.1437373872565E-01 -0.1286060832250E-01
 0.1543172222879E-01 -0.1331872017531E-01
 0.1653490639651E-01 -0.1376924674364E-01
 0.1768599909132E-01 -0.1421227124094E-01
 0.1888810160379E-01 -0.1464767463888E-01
 0.2014473678314E-01 -0.1507530130140E-01
 0.2145983106077E-01 -0.1549523791621E-01
 0.2283756165795E-01 -0.1590817952785E-01
 0.2428201153552E-01 -0.1631588743951E-01
 0.2579663302513E-01 -0.1672089151398E-01
 0.2738322849618E-01 -0.1712666807955E-01
 0.2904017214490E-01 -0.1753894158270E-01
 0.3076023799091E-01 -0.1796555494548E-01
 0.3252841919647E-01 -0.1841544886337E-01
 0.3432071860847E-01 -0.1889665635575E-01
 0.3610504890836E-01 -0.1941395975720E-01
 0.1023840292846E-03 -0.5054997601070E-03
 0.2631154972103E-03 -0.1023680413373E-02
 0.4757065868096E-03 -0.1553567875807E-02
 0.7342090793195E-03 -0.2093216780710E-02
 0.1033879955985E-02 -0.2640155655782E-02
 0.1371380650017E-02 -0.3191856077463E-02
 0.1744624929847E-02 -0.3746074357733E-02
 0.2152469524278E-02 -0.4301009747392E-02
 0.2594393944041E-02 -0.4855314904192E-02
 0.3070245680348E-02 -0.5408031629271E-02
 0.3580063427485E-02 -0.5958500209959E-02
 0.4123966661673E-02 -0.6506271567793E-02
 0.4702095707966E-02 -0.7051035736245E-02
 0.5314582547089E-02 -0.7592564007436E-02
 0.5961543015513E-02 -0.8130664520708E-02
 0.6643084954835E-02 -0.8665148778486E-02
 0.7359333694187E-02 -0.9195809034389E-02
 0.8110424307794E-02 -0.9722369016393E-02
 0.8896598752544E-02 -0.1024450707921E-01
 0.9718184640059E-02 -0.1076179042773E-01
 0.1057567599319E-01 -0.1127368048081E-01
 0.1146978064089E-01 -0.1177951488169E-01
 0.1240146981329E-01 -0.1227849660918E-01
 0.1337204177641E-01 -0.1276983330393E-01
 0.1438320848557E-01 -0.1325342794941E-01
 0.1543706444339E-01 -0.1372960560251E-01
 0.1653606155027E-01 -0.1419867636566E-01
 0.1768303025382E-01 -0.1466070588360E-01
 0.1888124777979E-01 -0.1511549745999E-01
 0.2013449716015E-01 -0.1556274668674E-01
 0.2144709236437E-01 -0.1600231488875E-01
 0.2282378018342E-01 -0.1643459980559E-01
 0.2426945482721E-01 -0.1686102024030E-01
 0.2578866619913E-01 -0.1728372622854E-01
 0.2738459016869E-01 -0.1770586758353E-01
 0.2905710155124E-01 -0.1813313883345E-01
 0.3080022539258E-01 -0.1857383667947E-01
 0.3259934866940E-01 -0.1903789146920E-01
 0.3442929783545E-01 -0.1953463290474E-01
 0.3625505351195E-01 -0.2006976383038E-01
 0.1104823773150E-03 -0.5202437332117E-03
 0.2793365070907E-03 -0.1053988222672E-02
 0.4994350882766E-03 -0.1600087866134E-02
 0.7643470316659E-03 -0.2156298775727E-02
 0.1069103677137E-02 -0.2719835822242E-02
 0.1410369771047E-02 -0.3287932719784E-02
 0.1786201996870E-02 -0.3858216735910E-02
 0.2195653517842E-02 -0.4428853157849E-02
 0.2638398047307E-02 -0.4998523338707E-02
 0.3114448924567E-02 -0.5566330034554E-02
 0.3623975283517E-02 -0.6131686018309E-02
 0.4167193853856E-02 -0.6694214954776E-02
 0.4744314427795E-02 -0.7253675203927E-02
 0.5355516287857E-02 -0.7809900950423E-02
 0.6000945141724E-02 -0.8362758535669E-02
 0.6680724905479E-02 -0.8912114325222E-02
 0.7394985885759E-02 -0.9457813467065E-02
 0.8143859306027E-02 -0.9999630584469E-02
 0.8927576358736E-02 -0.1053729411449E-01
 0.9746449682881E-02 -0.1107041822064E-01
 0.1060095740866E-01 -0.1159850700800E-01
 0.1149179488542E-01 -0.1212093408223E-01
 0.1241992909384E-01 -0.1263692900415E-01
 0.1338666813618E-01 -0.1314572106745E-01
 0.1439375733793E-01 -0.1364726287185E-01
 0.1544334605526E-01 -0.1414194006054E-01
 0.1653796221131E-01 -0.1463010504726E-01
 0.1768054159094E-01 -0.1511182352818E-01
 0.1887451501825E-01 -0.1558683791662E-01
 0.2012389931971E-01 -0.1605470751451E-01
 0.2143336923064E-01 -0.1651507072573E-01
 0.2280822249806E-01 -0.1696801171526E-01
 0.2425417095606E-01 -0.1741456097744E-01
 0.2577692153585E-01 -0.1785640252176E-01
 0.2738117506130E-01 -0.1829623357695E-01
 0.2906858108274E-01 -0.1873958497999E-01
 0.3083479669885E-01 -0.1919513372572E-01
 0.3266596030419E-01 -0.1967386415216E-01
 0.3453588642119E-01 -0.2018662484819E-01
 0.3640605131876E-01 -0.2074028213897E-01
 0.1191431894918E-03 -0.5351660650533E-03
 0.2966831287603E-03 -0.1084721748305E-02
 0.5247429298295E-03 -0.1647308467519E-02
 0.7963502746192E-03 -0.2220323506838E-02
 0.1106316090641E-02 -0.2800622069143E-02
 0.1451351125706E-02 -0.3385184537010E-02
 0.1829704600245E-02 -0.3971519305457E-02
 0.2240665509317E-02 -0.4557779983856E-02
 0.2684126895476E-02 -0.5142699858730E-02
 0.3160281392717E-02 -0.5725461384313E-02
 0.3669434451085E-02 -0.6305562949054E-02
 0.4211901721280E-02 -0.6882709399372E-02
 0.4787962084699E-02 -0.7456732615421E-02
 0.5397840904444E-02 -0.8027532946681E-02
 0.6041712266648E-02 -0.8595037326139E-02
 0.6719714583616E-02 -0.9159169272188E-02
 0.7431981423646E-02 -0.9719829612021E-02
 0.8178638103248E-02 -0.1027684760215E-01
 0.8959902371424E-02 -0.1083000676855E-01
 0.9776068326383E-02 -0.1137897468510E-01
 0.1062759361791E-01 -0.1192330605869E-01
 0.1151515559804E-01 -0.1246241978284E-01
 0.1243971077939E-01 -0.1299558274718E-01
 0.1340257034805E-01 -0.1352205822802E-01
 0.1440550577255E-01 -0.1404186259500E-01
 0.1545071222471E-01 -0.1455545858630E-01
 0.1654078086755E-01 -0.1506326006573E-01
 0.1767873455743E-01 -0.1556535412410E-01
 0.1886813293273E-01 -0.1606144437678E-01
 0.2011319552115E-01 -0.1655097361823E-01
 0.2141892293051E-01 -0.1703336912351E-01
 0.2279113247059E-01 -0.1750839564499E-01
 0.2423634231618E-01 -0.1797665793430E-01
 0.2576145673379E-01 -0.1843928787666E-01
 0.2737284317173E-01 -0.1889838715901E-01
 0.2907422154959E-01 -0.1935915130094E-01
 0.3086333215904E-01 -0.1983051529890E-01
 0.3272755756852E-01 -0.2032456443633E-01
 0.3463990868718E-01 -0.2085389588978E-01
 0.3655812462248E-01 -0.2142708148031E-01
 0.1284251157532E-03 -0.5503018883181E-03
 0.3152703306498E-03 -0.1115961064469E-02
 0.5517735258554E-03 -0.1695351813405E-02
 0.8303571668559E-03 -0.2285437820845E-02
 0.1145628443160E-02 -0.2882663097372E-02
 0.1494401966949E-02 -0.3483743610729E-02
 0.1875179379008E-02 -0.4086087597843E-02
 0.2287528987205E-02 -0.4687866695308E-02
 0.2731588410653E-02 -0.5287893695449E-02
 0.3207741541748E-02 -0.5885451130944E-02
 0.3716434318612E-02 -0.6480136151979E-02
 0.4258081597256E-02 -0.7071742500120E-02
 0.4833030016610E-02 -0.7660179811197E-02
 0.5441549225180E-02 -0.8245416917363E-02
 0.6083839919407E-02 -0.8827442874193E-02
 0.6760053381212E-02 -0.9406239911200E-02
 0.7470324845260E-02 -0.9981766732762E-02
 0.8214771898220E-02 -0.1055391055169E-01
 0.8993596446996E-02 -0.1112251478338E-01
 0.9807070731704E-02 -0.1168730690174E-01
 0.1065562749761E-01 -0.1224790041682E-01
 0.1153992066846E-01 -0.1280376933856E-01
 0.1246089018269E-01 -0.1335422932536E-01
 0.1341984382694E-01 -0.1389859086940E-01
 0.1441857245281E-01 -0.1443694940773E-01
 0.1545930851536E-01 -0.1496986288771E-01
 0.1654469383532E-01 -0.1549782817161E-01
 0.1767781951778E-01 -0.1602097873954E-01
 0.1886234732754E-01 -0.1653900696509E-01
 0.2010266424981E-01 -0.1705126687401E-01
 0.2140405403087E-01 -0.1755699739563E-01
 0.2277280863974E-01 -0.1805565170561E-01
 0.2421622059143E-01 -0.1854738499568E-01
 0.2574240555010E-01 -0.1903269742522E-01
 0.2735951871522E-01 -0.1951293962157E-01
 0.2907365653231E-01 -0.1999275747378E-01
 0.3088517285850E-01 -0.2048116029422E-01
 0.3278333222120E-01 -0.2099132822562E-01
 0.3474073873360E-01 -0.2153791884087E-01
 0.3671114845802E-01 -0.2213168372701E-01
 0.1383979994184E-03 -0.5656951680064E-03
 0.3352337113343E-03 -0.1147805505769E-02
 0.5806913401309E-03 -0.1744366655843E-02
 0.8665198945079E-03 -0.2351815790842E-02
 0.1187156703150E-02 -0.2966129482335E-02
 0.1539597429979E-02 -0.3583756119443E-02
 0.1922667290854E-02 -0.4202034135869E-02
 0.2336260669763E-02 -0.4819191673231E-02
 0.2780783983830E-02 -0.5434152946359E-02
 0.3256822028279E-02 -0.6046322054750E-02
 0.3764963240272E-02 -0.6655407508618E-02
 0.4305720381811E-02 -0.7261298503817E-02
 0.4879505499188E-02 -0.7863985419311E-02
 0.5486630154954E-02 -0.8463506742369E-02
 0.6127319636955E-02 -0.9059914190127E-02
 0.6801736459970E-02 -0.9653249423005E-02
 0.7510016100770E-02 -0.1024353053370E-01
 0.8252266892381E-02 -0.1083070549998E-01
 0.9028672861490E-02 -0.1141468212804E-01
 0.9839481406105E-02 -0.1199525424758E-01
 0.1068509616967E-01 -0.1257210261766E-01
 0.1156614233595E-01 -0.1314476667537E-01
 0.1248353730233E-01 -0.1371262294930E-01
 0.1343857932274E-01 -0.1427504321025E-01
 0.1443307252195E-01 -0.1483221826461E-01
 0.1546927891000E-01 -0.1538482078381E-01
 0.1654987899056E-01 -0.1593345433744E-01
 0.1767801326429E-01 -0.1647832720298E-01
 0.1885741771386E-01 -0.1701915344353E-01
 0.2009260822499E-01 -0.1755523437058E-01
 0.2138910189275E-01 -0.1808565571170E-01
 0.2275360694826E-01 -0.1860958384988E-01
 0.2419413512082E-01 -0.1912672033288E-01
 0.2571999396916E-01 -0.1963686943848E-01
 0.2734121281036E-01 -0.2014047063228E-01
 0.2906656583240E-01 -0.2064136290703E-01
 0.3089962520989E-01 -0.2114836261179E-01
 0.3283236476602E-01 -0.2167567183569E-01
 0.3483761308189E-01 -0.2224032753628E-01
 0.3686490832516E-01 -0.2285581400922E-01
 0.1491459531239E-03 -0.5814015563200E-03
 0.3567345265449E-03 -0.1180379530336E-02
 0.6116854481544E-03 -0.1794535365491E-02
 0.9050049584021E-03 -0.2419664198859E-02
 0.1231019815166E-02 -0.3051216333545E-02
 0.1587008112486E-02 -0.3685382574236E-02
 0.1972201533074E-02 -0.4319477355327E-02
 0.2386869079683E-02 -0.4951833753610E-02
 0.2831707631290E-02 -0.5581523246980E-02
 0.3307509268962E-02 -0.6208093247982E-02
 0.3815004340482E-02 -0.6831374953756E-02
 0.4354800475350E-02 -0.7451357932034E-02
 0.4927371731462E-02 -0.8068114743525E-02
 0.5533068660048E-02 -0.8681753372968E-02
 0.6172138908359E-02 -0.9292387622459E-02
 0.6844754620429E-02 -0.9900118364601E-02
 0.7551050313636E-02 -0.1050502380504E-01
 0.8291123910521E-02 -0.1110711487255E-01
 0.9065139967471E-02 -0.1170636785741E-01
 0.9873318485159E-02 -0.1230264927873E-01
 0.1071603010897E-01 -0.1289571578725E-01
 0.1159386611967E-01 -0.1348518302692E-01
 0.1250771555272E-01 -0.1407050114264E-01
 0.1345886140268E-01 -0.1465111800744E-01
 0.1444911577919E-01 -0.1522733694526E-01
 0.1548076362539E-01 -0.1579996600503E-01
 0.1655651318437E-01 -0.1636974097026E-01
 0.1767953603967E-01 -0.1693697630985E-01
 0.1885361406114E-01 -0.1750144570575E-01
 0.2008335127509E-01 -0.1806244208118E-01
 0.2137444262887E-01 -0.1861894636148E-01
 0.2273394170639E-01 -0.1916988282747E-01
 0.2417050003833E-01 -0.1971452170457E-01
 0.2569455707974E-01 -0.2025193416636E-01
 0.2731805125879E-01 -0.2078149760611E-01
 0.2905270603990E-01 -0.2130594809728E-01
 0.3090597902481E-01 -0.2183354080720E-01
 0.3287360508342E-01 -0.2237931254132E-01
 0.3492958865358E-01 -0.2296297962067E-01
 0.3701910449416E-01 -0.2360145068665E-01
 0.1607715613819E-03 -0.5974924325796E-03
 0.3799662248569E-03 -0.1213840794868E-02
 0.6449735408039E-03 -0.1846083050723E-02
 0.9459929579047E-03 -0.2489228996462E-02
 0.1277336932278E-02 -0.3138145764784E-02
 0.1636696923617E-02 -0.3788797323335E-02
 0.2023805132744E-02 -0.4438539797806E-02
 0.2439353052730E-02 -0.5085870253625E-02
 0.2884345204369E-02 -0.5730046130269E-02
 0.3359783090180E-02 -0.6370778926469E-02
 0.3866535408521E-02 -0.7008031707845E-02
 0.4405299792268E-02 -0.7641897165474E-02
 0.4976607890193E-02 -0.8272529635667E-02
 0.5580845812746E-02 -0.8900104945163E-02
 0.6218281172325E-02 -0.9524797182414E-02
 0.6889094218633E-02 -0.1014676518689E-01
 0.7593417581066E-02 -0.1076614711869E-01
 0.8331338048679E-02 -0.1138301830415E-01
 0.9102999659081E-02 -0.1199742707344E-01
 0.9908593000515E-02 -0.1260931873486E-01
 0.1074845221675E-01 -0.1321853461100E-01
 0.1162312970164E-01 -0.1382477779885E-01
 0.1253348043634E-01 -0.1442758546016E-01
 0.1348076685954E-01 -0.1502649710827E-01
 0.1446680474817E-01 -0.1562194641727E-01
 0.1549389675689E-01 -0.1621489829335E-01
 0.1656476937810E-01 -0.1680624755891E-01
 0.1768260809201E-01 -0.1739644861978E-01
 0.1885121277799E-01 -0.1798537699564E-01
 0.2007523398555E-01 -0.1857236927285E-01
 0.2136048522829E-01 -0.1915636342536E-01
 0.2271428415797E-01 -0.1973610843835E-01
 0.2414581907354E-01 -0.2031049848702E-01
 0.2566655563242E-01 -0.2087787519021E-01
 0.2729030667698E-01 -0.2143643260401E-01
 0.2903195267681E-01 -0.2198748404090E-01
 0.3090353644712E-01 -0.2253823814042E-01
 0.3290585791549E-01 -0.2310420639749E-01
 0.3501549361007E-01 -0.2370802196478E-01
 0.3717333642530E-01 -0.2437089647933E-01
 0.1734017368416E-03 -0.6140607371122E-03
 0.4051630009076E-03 -0.1248391450512E-02
 0.6808062187890E-03 -0.1899289484676E-02
 0.9896771642969E-03 -0.2560802740970E-02
 0.1326223263985E-02 -0.3227168782739E-02
 0.1688715109749E-02 -0.3894186965910E-02
 0.2077488264611E-02 -0.4559345403699E-02
 0.2493700269086E-02 -0.5221374453603E-02
 0.2938673724995E-02 -0.5879757116666E-02
 0.3413616519105E-02 -0.6534387140761E-02
 0.3919528921322E-02 -0.7185365506658E-02
 0.4457191884416E-02 -0.7832888083193E-02
 0.5027189278779E-02 -0.8477188460104E-02
 0.5629938920058E-02 -0.9118507014167E-02
 0.6265725892602E-02 -0.9757075017959E-02
 0.6934737156384E-02 -0.1039310693524E-01
 0.7637102842155E-02 -0.1102679974935E-01
 0.8372898377676E-02 -0.1165829376605E-01
 0.9142246871529E-02 -0.1228771221942E-01
 0.9945308154304E-02 -0.1291508492719E-01
 0.1078237687499E-01 -0.1354034672092E-01
 0.1165396177479E-01 -0.1416329987257E-01
 0.1256087817354E-01 -0.1478358266698E-01
 0.1350436306714E-01 -0.1540084251014E-01
 0.1448623266822E-01 -0.1601566180082E-01
 0.1550880379261E-01 -0.1662918426059E-01
 0.1657481354311E-01 -0.1724249129881E-01
 0.1768744580299E-01 -0.1785621250135E-01
 0.1885049193578E-01 -0.1847037066458E-01
 0.2006860804956E-01 -0.1908440468842E-01
 0.2134766557721E-01 -0.1969728418829E-01
 0.2269515794249E-01 -0.2030767272838E-01
 0.2412068664121E-01 -0.2091418211211E-01
 0.2563659024615E-01 -0.2151448374514E-01
 0.2725843408628E-01 -0.2210552495500E-01
 0.2900435548179E-01 -0.2268688297615E-01
 0.3089165968252E-01 -0.2326411243385E-01
 0.3292777737196E-01 -0.2385259463101E-01
 0.3509386484142E-01 -0.2447797462994E-01
 0.3732706524794E-01 -0.2516687023752E-01
 0.1871960612849E-03 -0.6312295969265E-03
 0.4326110372809E-03 -0.1284294202308E-02
 0.7194711819291E-03 -0.1954504710411E-02
 0.1036260090490E-02 -0.2634732774817E-02
 0.1377784086612E-02 -0.3318565899505E-02
 0.1743097398342E-02 -0.4001747144941E-02
 0.2133245390384E-02 -0.4682015656862E-02
 0.2549885894664E-02 -0.5358412433602E-02
 0.2994660892124E-02 -0.6030683467652E-02
 0.3468975728902E-02 -0.6698918307702E-02
 0.3973952187563E-02 -0.7363357722976E-02
 0.4510446156440E-02 -0.8024297620653E-02
 0.5079087546990E-02 -0.8682045981667E-02
 0.5680321710613E-02 -0.9336902707565E-02
 0.6314448685558E-02 -0.9989151800165E-02
 0.6981660921698E-02 -0.1063905986023E-01
 0.7682085794014E-02 -0.1128688051248E-01
 0.8415787686083E-02 -0.1193281862841E-01
 0.9182869099650E-02 -0.1257707433352E-01
 0.9983458581657E-02 -0.1321976710173E-01
 0.1081780895906E-01 -0.1386093404919E-01
 0.1168638083463E-01 -0.1450048883716E-01
 0.1258994427753E-01 -0.1513818579643E-01
 0.1352970628842E-01 -0.1577379727173E-01
 0.1450748143747E-01 -0.1640807321498E-01
 0.1552559905374E-01 -0.1704235823764E-01
 0.1658680140953E-01 -0.1767794789864E-01
 0.1769425749649E-01 -0.1831568262241E-01
 0.1885172585034E-01 -0.1895577969740E-01
 0.2006382940059E-01 -0.1959784383729E-01
 0.2133643829766E-01 -0.2024096185736E-01
 0.2267713094337E-01 -0.2088382405313E-01
 0.2409578377004E-01 -0.2152489504777E-01
 0.2560541062317E-01 -0.2216130523418E-01
 0.2722310736995E-01 -0.2278878485777E-01
 0.2897020848307E-01 -0.2340492037520E-01
 0.3086984657757E-01 -0.2401290326920E-01
 0.3293787923674E-01 -0.2462705278665E-01
 0.3516286643231E-01 -0.2527583964556E-01
 0.3747954906031E-01 -0.2599263214736E-01
 0.2023589577162E-03 -0.6491654212024E-03
 0.4626632945712E-03 -0.1321895538707E-02
 0.7612964694875E-03 -0.2012169384111E-02
 0.1085946890422E-02 -0.2711429508547E-02
 0.1432106454838E-02 -0.3412645424040E-02
 0.1799856351268E-02 -0.4111677147706E-02
 0.2191052435696E-02 -0.4806664461601E-02
 0.2607871491051E-02 -0.5497039329416E-02
 0.3052264855074E-02 -0.6182841713436E-02
 0.3525820198483E-02 -0.6864363685140E-02
 0.4029767655159E-02 -0.7541982510703E-02
 0.4565028206155E-02 -0.8216087386578E-02
 0.5132271010988E-02 -0.8887053330297E-02
 0.5731964608345E-02 -0.9555232967362E-02
 0.6364421529621E-02 -0.1022095721224E-01
 0.7029838711796E-02 -0.1088454015242E-01
 0.7728340892140E-02 -0.1154628876160E-01
 0.8459982302369E-02 -0.1220647093581E-01
 0.9224845974480E-02 -0.1286536458499E-01
 0.1002302963202E-01 -0.1352318315170E-01
 0.1085474282610E-01 -0.1418007456669E-01
 0.1172039392201E-01 -0.1483607659853E-01
 0.1262070208213E-01 -0.1549107555412E-01
 0.1355683995376E-01 -0.1614498676410E-01
 0.1453061954374E-01 -0.1679874703540E-01
 0.1554438311891E-01 -0.1745392371700E-01
 0.1660087514202E-01 -0.1811205327566E-01
 0.1770323902240E-01 -0.1877422172772E-01
 0.1885517912649E-01 -0.1944088803100E-01
 0.2006125021134E-01 -0.2011188869751E-01
 0.2132726636674E-01 -0.2078652134393E-01
 0.2266080307349E-01 -0.2146363451407E-01
 0.2407186730419E-01 -0.2214172180980E-01
 0.2557391610070E-01 -0.2281758143944E-01
 0.2718525155002E-01 -0.2348588747388E-01
 0.2893013422118E-01 -0.2414211844935E-01
 0.3083784531650E-01 -0.2478636024251E-01
 0.3293458733256E-01 -0.2543053576310E-01
 0.3522018675062E-01 -0.2610524774929E-01
 0.3762973642679E-01 -0.2685216341449E-01
 0.2191579369734E-03 -0.6680983909610E-03
 0.4957588527304E-03 -0.1361659940523E-02
 0.8066510494297E-03 -0.2072840961100E-02
 0.1138933898866E-02 -0.2791373317621E-02
 0.1489248229847E-02 -0.3509737829999E-02
 0.1858976224523E-02 -0.4224171671842E-02
 0.2250864308483E-02 -0.4933391688402E-02
 0.2667604354705E-02 -0.5637295070921E-02
 0.3111434327009E-02 -0.6336235008196E-02
 0.3584103118367E-02 -0.7030703819895E-02
 0.4086933392742E-02 -0.7721205978703E-02
 0.4620900290712E-02 -0.8408213326438E-02
 0.5186705070351E-02 -0.9092158014269E-02
 0.5784835088748E-02 -0.9773436838880E-02
 0.6415613053573E-02 -0.1045242048638E-01
 0.7079239639051E-02 -0.1112946473410E-01
 0.7775837441412E-02 -0.1180492546745E-01
 0.8505452009863E-02 -0.1247913081409E-01
 0.9268148915125E-02 -0.1315243601672E-01
 0.1006399667991E-01 -0.1382515161514E-01
 0.1089316127416E-01 -0.1449754434660E-01
 0.1175599529922E-01 -0.1516978928391E-01
 0.1265316120642E-01 -0.1584192193715E-01
 0.1358579291226E-01 -0.1651402007519E-01
 0.1455570001906E-01 -0.1718722734281E-01
 0.1556524030887E-01 -0.1786335517115E-01
 0.1661716005754E-01 -0.1854420595730E-01
 0.1771456926700E-01 -0.1923114357623E-01
 0.1886110036056E-01 -0.1992491362466E-01
 0.2006120999436E-01 -0.2062564997242E-01
 0.2132060872315E-01 -0.2133295864784E-01
 0.2264678993667E-01 -0.2204599210045E-01
 0.2404975124105E-01 -0.2276348484261E-01
 0.2554314341133E-01 -0.2348219274953E-01
 0.2714606274991E-01 -0.2419605855583E-01
 0.2888517672163E-01 -0.2489857815217E-01
 0.3079582076211E-01 -0.2558610337476E-01
 0.3291634240769E-01 -0.2626639912363E-01
 0.3526291716804E-01 -0.2697065649421E-01
 0.3777609013965E-01 -0.2775043164740E-01
 0.2379517730096E-03 -0.6883556425326E-03
 0.5324477248863E-03 -0.1404221193102E-02
 0.8559394823132E-03 -0.2137226432015E-02
 0.1195390028069E-02 -0.2875117003306E-02
 0.1549224390277E-02 -0.3610183969240E-02
 0.1920406975805E-02 -0.4339409264447E-02
 0.2312613158779E-02 -0.5062275515743E-02
 0.2729017449391E-02 -0.5779199739424E-02
 0.3172109106555E-02 -0.6490850398756E-02
 0.3643772068486E-02 -0.7197907018913E-02
 0.4145403750831E-02 -0.7900985414228E-02
 0.4678021915984E-02 -0.8600625430650E-02
 0.5242352716513E-02 -0.9297303963983E-02
 0.5838898111734E-02 -0.9991451775300E-02
 0.6467988899256E-02 -0.1068347094516E-01
 0.7129829019188E-02 -0.1137375205309E-01
 0.7824539784103E-02 -0.1206269431322E-01
 0.8552160071441E-02 -0.1275068193776E-01
 0.9312740880868E-02 -0.1343814543340E-01
 0.1010632448415E-01 -0.1412549392307E-01
 0.1093303446746E-01 -0.1481311993838E-01
 0.1179316503100E-01 -0.1550134940929E-01
 0.1268731592248E-01 -0.1619038597327E-01
 0.1361657764301E-01 -0.1688049139463E-01
 0.1458275844856E-01 -0.1757303734190E-01
 0.1558823631587E-01 -0.1827010003187E-01
 0.1663576151692E-01 -0.1897377001937E-01
 0.1772840576428E-01 -0.1968571692626E-01
 0.1886971573594E-01 -0.2040701323679E-01
 0.2006402613538E-01 -0.2113815200499E-01
 0.2131690626731E-01 -0.2187914434282E-01
 0.2263570270105E-01 -0.2262959888929E-01
 0.2403027983225E-01 -0.2338872857429E-01
 0.2551423786657E-01 -0.2415360744300E-01
 0.2710700421322E-01 -0.2491794884483E-01
 0.2883688887769E-01 -0.2567374876847E-01
 0.3074458234530E-01 -0.2641337144191E-01
 0.3288182113903E-01 -0.2713835361956E-01
 0.3528743066482E-01 -0.2787761264918E-01
 0.3791629174748E-01 -0.2869379443759E-01
 0.2592354454640E-03 -0.7104172009165E-03
 0.5734212315151E-03 -0.1450460751775E-02
 0.9095845542779E-03 -0.2206220641723E-02
 0.1255428307930E-02 -0.2963278002008E-02
 0.1611991469600E-02 -0.3714314445537E-02
 0.1984059524006E-02 -0.4457537480072E-02
 0.2376207826722E-02 -0.5193363975537E-02
 0.2792030090405E-02 -0.5922748778551E-02
 0.3234221083714E-02 -0.6646656177363E-02
 0.3704770003458E-02 -0.7365927974970E-02
 0.4205130222100E-02 -0.8081268661910E-02
 0.4736350563949E-02 -0.8793267584797E-02
 0.5299175146352E-02 -0.9502431703010E-02
 0.5894116645671E-02 -0.1020921405872E-01
 0.6521512175286E-02 -0.1091403865553E-01
 0.7181568762082E-02 -0.1161732299455E-01
 0.7874407612942E-02 -0.1231950293058E-01
 0.8600063405904E-02 -0.1302101319720E-01
 0.9358576280708E-02 -0.1372235561005E-01
 0.1014996665041E-01 -0.1442403714041E-01
 0.1097431884961E-01 -0.1512658136831E-01
 0.1183186744779E-01 -0.1583047864986E-01
 0.1272314338367E-01 -0.1653612186946E-01
 0.1364918840406E-01 -0.1724398158973E-01
 0.1461181106846E-01 -0.1795568093093E-01
 0.1561341608202E-01 -0.1867358106481E-01
 0.1665676214753E-01 -0.1940007890697E-01
 0.1774488060182E-01 -0.2013717103202E-01
 0.1888122276616E-01 -0.2088628946934E-01
 0.2006998425891E-01 -0.2164834104927E-01
 0.2131656685430E-01 -0.2242383228375E-01
 0.2262812490305E-01 -0.2321297738083E-01
 0.2401429310443E-01 -0.2401571574785E-01
 0.2548840603300E-01 -0.2482984811284E-01
 0.2706976446731E-01 -0.2564951548022E-01
 0.2878738521209E-01 -0.2646613661708E-01
 0.3068587007083E-01 -0.2726859738703E-01
 0.3283033957903E-01 -0.2805026397940E-01
 0.3528931621545E-01 -0.2883308122356E-01
 0.3804674179523E-01 -0.2969063296404E-01
 0.2837144014671E-03 -0.7350148291932E-03
 0.6195449956703E-03 -0.1501629321572E-02
 0.9679868128493E-03 -0.2280944124017E-02
 0.1319065308002E-02 -0.3056509951035E-02
 0.1677432690740E-02 -0.3822417899809E-02
 0.2049803730049E-02 -0.4578655823146E-02
 0.2441534793129E-02 -0.5326666229784E-02
 0.2856549480620E-02 -0.6067908252345E-02
 0.3297695761695E-02 -0.6803599438281E-02
 0.3767036533086E-02 -0.7534706575706E-02
 0.4266062478898E-02 -0.8261993634023E-02
 0.4795842533038E-02 -0.8986077502618E-02
 0.5357132455415E-02 -0.9707478558075E-02
 0.5950452258044E-02 -0.1042665922411E-01
 0.6576143978988E-02 -0.1114405505632E-01
 0.7234417845743E-02 -0.1186010174493E-01
 0.7925396397366E-02 -0.1257526407926E-01
 0.8649112922042E-02 -0.1329002033483E-01
 0.9405601074242E-02 -0.1400493757646E-01
 0.1019486524247E-01 -0.1472061699313E-01
 0.1101695605028E-01 -0.1543771562615E-01
 0.1187204942635E-01 -0.1615690106786E-01
 0.1276060160771E-01 -0.1687877928390E-01
 0.1368359923951E-01 -0.1760405948243E-01
 0.1464285296312E-01 -0.1833464379861E-01
 0.1564080204316E-01 -0.1907319850660E-01
 0.1668021958661E-01 -0.1982243956706E-01
 0.1776409684868E-01 -0.2058470212469E-01
 0.1889578447306E-01 -0.2136179952662E-01
 0.2007932890477E-01 -0.2215509626293E-01
 0.2131995015687E-01 -0.2296567302752E-01
 0.2262458740221E-01 -0.2379448538076E-01
 0.2400258652612E-01 -0.2464243792635E-01
 0.2546685188007E-01 -0.2550848290367E-01
 0.2703616664263E-01 -0.2638793825441E-01
 0.2873931168505E-01 -0.2727298179933E-01
 0.3062265838542E-01 -0.2815073799921E-01
 0.3276254453018E-01 -0.2900560923691E-01
 0.3526351210642E-01 -0.2984579125303E-01
 0.3816171441858E-01 -0.3075236974987E-01
 0.3124319913507E-03 -0.7633170704155E-03
 0.6718824770544E-03 -0.1559537105398E-02
 0.1031441877789E-02 -0.2362760426578E-02
 0.1386169571481E-02 -0.3155437064110E-02
 0.1745349228857E-02 -0.3934699250969E-02
 0.2117470395461E-02 -0.4702798933948E-02
 0.2508460706419E-02 -0.5462143977434E-02
 0.2922473217469E-02 -0.6214610467052E-02
 0.3362454305814E-02 -0.6961604044255E-02
 0.3830509483180E-02 -0.7704166981806E-02
 0.4328149576825E-02 -0.8443088008832E-02
 0.4856453879435E-02 -0.9178986773811E-02
 0.5416184401561E-02 -0.9912378927784E-02
 0.6007865765599E-02 -0.1064372249841E-01
 0.6631843981427E-02 -0.1137345356508E-01
 0.7288332871056E-02 -0.1210201660637E-01
 0.7977457926011E-02 -0.1282989675713E-01
 0.8699254031285E-02 -0.1355760751652E-01
 0.9453753126770E-02 -0.1428577293575E-01
 0.1024095064112E-01 -0.1501508121534E-01
 0.1106087184070E-01 -0.1574632083541E-01
 0.1191363842288E-01 -0.1648034707821E-01
 0.1279962705885E-01 -0.1721800584877E-01
 0.1371976171215E-01 -0.1796028267915E-01
 0.1467585635808E-01 -0.1870939375339E-01
 0.1567039288229E-01 -0.1946833172788E-01
 0.1670616497083E-01 -0.2024013681301E-01
 0.1778612574100E-01 -0.2102748092747E-01
 0.1891352425839E-01 -0.2183256573521E-01
 0.2009225493808E-01 -0.2265724334220E-01
 0.2132735338696E-01 -0.2350323169874E-01
 0.2262554327471E-01 -0.2437234008402E-01
 0.2399586687572E-01 -0.2526664289856E-01
 0.2545070238540E-01 -0.2618664553545E-01
 0.2700803133193E-01 -0.2712960354062E-01
 0.2869566929624E-01 -0.2808999090611E-01
 0.3055935471693E-01 -0.2905632130527E-01
 0.3268149995847E-01 -0.3000626019066E-01
 0.3520497438610E-01 -0.3092638962007E-01
 0.3825195392160E-01 -0.3189513029559E-01
 0.3469969539689E-03 -0.7973017678662E-03
 0.7316706510355E-03 -0.1626847625106E-02
 0.1099985731741E-02 -0.2453216321214E-02
 0.1456411429522E-02 -0.3260531943515E-02
 0.1815465923353E-02 -0.4051238290202E-02
 0.2186856908561E-02 -0.4829922300752E-02
 0.2576836531093E-02 -0.5599702979324E-02
 0.2989692927036E-02 -0.6362750620170E-02
 0.3428416055361E-02 -0.7120569174285E-02
 0.3895126732728E-02 -0.7874217111841E-02
 0.4391341316517E-02 -0.8624469228507E-02
 0.4918141457613E-02 -0.9371921117632E-02
 0.5476291243484E-02 -0.1011706470420E-01
 0.6066317951048E-02 -0.1086033935158E-01
 0.6688571085080E-02 -0.1160217026828E-01
 0.7343268708867E-02 -0.1234300087148E-01
 0.8030540979757E-02 -0.1308332735360E-01
 0.8750427365402E-02 -0.1382368893667E-01
 0.9502962900222E-02 -0.1456475628506E-01
 0.1028814181901E-01 -0.1530729336115E-01
 0.1110597528130E-01 -0.1605221154475E-01
 0.1195654020583E-01 -0.1680055882519E-01
 0.1284013158983E-01 -0.1755345041811E-01
 0.1375760214111E-01 -0.1831219797951E-01
 0.1471076899983E-01 -0.1907938011422E-01
 0.1570216299469E-01 -0.1985834040410E-01
 0.1673460247178E-01 -0.2065243815609E-01
 0.1781100490138E-01 -0.2146466167779E-01
 0.1893452169150E-01 -0.2229758831924E-01
 0.2010890005687E-01 -0.2315357107209E-01
 0.2133899871592E-01 -0.2403501018707E-01
 0.2263134530617E-01 -0.2494465086866E-01
 0.2399470705259E-01 -0.2588588343618E-01
 0.2544092762832E-01 -0.2686108547606E-01
 0.2698702152847E-01 -0.2787016558922E-01
 0.2865945047571E-01 -0.2891129001097E-01
 0.3050161737368E-01 -0.2997835330345E-01
 0.3259415593578E-01 -0.3104999470838E-01
 0.3511061967755E-01 -0.3208671700782E-01
 0.3830246809767E-01 -0.3314244373258E-01
 0.3900053144688E-03 -0.8405820241664E-03
 0.8001334963836E-03 -0.1707492322785E-02
 0.1173135765269E-02 -0.2553757528958E-02
 0.1529255319206E-02 -0.3371943432727E-02
 0.1887456076499E-02 -0.4171973545518E-02
 0.2257733050973E-02 -0.4959886024427E-02
 0.2646504461431E-02 -0.5739186207823E-02
 0.3058098743324E-02 -0.6512185082308E-02
 0.3495501376138E-02 -0.7280368332832E-02
 0.3960828292893E-02 -0.8044748645870E-02
 0.4455589689755E-02 -0.8806044716783E-02
 0.4980864019901E-02 -0.9564800773223E-02
 0.5537414610735E-02 -0.1032146573516E-01
 0.6125770309219E-02 -0.1107644602613E-01
 0.6746284117511E-02 -0.1183014453349E-01
 0.7399179203838E-02 -0.1258299356659E-01
 0.8084592100927E-02 -0.1333549061830E-01
 0.8802569664204E-02 -0.1408819017750E-01
 0.9553154496052E-02 -0.1484179732769E-01
 0.1033634721834E-01 -0.1559713660361E-01
 0.1115215830990E-01 -0.1635522505656E-01
 0.1200063622659E-01 -0.1711729738107E-01
 0.1288199829624E-01 -0.1788476709404E-01
 0.1379701791720E-01 -0.1865934051260E-01
 0.1474751257109E-01 -0.1944403094761E-01
 0.1573606293082E-01 -0.2024256419882E-01
 0.1676551023104E-01 -0.2105859838047E-01
 0.1783873795543E-01 -0.2189539205920E-01
 0.1895880931836E-01 -0.2275586004968E-01
 0.2012933869354E-01 -0.2364284941063E-01
 0.2135502299287E-01 -0.2455947224719E-01
 0.2264222844424E-01 -0.2550945671450E-01
 0.2399950756586E-01 -0.2649758592625E-01
 0.2543825102545E-01 -0.2752826329036E-01
 0.2697451172103E-01 -0.2860463368102E-01
 0.2863318106438E-01 -0.2972973916351E-01
 0.3045533459617E-01 -0.3090573855635E-01
 0.3251265965255E-01 -0.3212605850719E-01
 0.3498402613707E-01 -0.3333615989225E-01
 0.3828957628113E-01 -0.3452929852357E-01
 0.4458434033665E-03 -0.9005034663105E-03
 0.8777932915923E-03 -0.1806996505175E-02
 0.1249566447542E-02 -0.2664892777958E-02
 0.1604086204654E-02 -0.3489429829317E-02
 0.1960958716511E-02 -0.4296712216313E-02
 0.2329848509649E-02 -0.5092424659569E-02
 0.2717309493411E-02 -0.5880377597965E-02
 0.3127583113761E-02 -0.6662728549185E-02
 0.3563635371580E-02 -0.7440850135591E-02
 0.4027558404701E-02 -0.8215637451853E-02
 0.4520850483793E-02 -0.8987712616035E-02
 0.5044583381303E-02 -0.9757541231108E-02
 0.5599518446371E-02 -0.1052551058858E-01
 0.6186185862237E-02 -0.1129198033125E-01
 0.6804942605250E-02 -0.1205731986866E-01
 0.7456017977218E-02 -0.1282194042700E-01
 0.8139556502476E-02 -0.1358633083680E-01
 0.8855614865863E-02 -0.1435104975955E-01
 0.9604247075689E-02 -0.1511682305147E-01
 0.1038546652331E-01 -0.1588451762570E-01
 0.1119929638399E-01 -0.1665522948815E-01
 0.1204578077592E-01 -0.1743035385381E-01
 0.1292507557699E-01 -0.1821162173245E-01
 0.1383787221475E-01 -0.1900123164775E-01
 0.1478598117997E-01 -0.1980274791532E-01
 0.1577202127259E-01 -0.2062032143205E-01
 0.1679884319767E-01 -0.2145786483611E-01
 0.1786929595156E-01 -0.2231882539496E-01
 0.1898637091942E-01 -0.2320638436448E-01
 0.2015357636785E-01 -0.2412385155573E-01
 0.2137547208197E-01 -0.2507506817980E-01
 0.2265829483997E-01 -0.2606477534808E-01
 0.2401047970168E-01 -0.2709911575841E-01
 0.2544305463319E-01 -0.2818453924137E-01
 0.2697143925959E-01 -0.2932746344281E-01
 0.2861873515126E-01 -0.3053732548617E-01
 0.3042451484086E-01 -0.3182470292134E-01
 0.3245324368010E-01 -0.3320946411864E-01
 0.3484542786712E-01 -0.3466916669138E-01
 0.3817884925163E-01 -0.3610640217681E-01
 0.5221590406925E-03 -0.9946481408467E-03
 0.9622513616715E-03 -0.1930796507098E-02
 0.1327241167147E-02 -0.2784651196126E-02
 0.1680500538514E-02 -0.3612931553643E-02
 0.2035497737509E-02 -0.4424909064299E-02
 0.2402988244916E-02 -0.5227199751307E-02
 0.2789097026522E-02 -0.6022987515919E-02
 0.3198049540551E-02 -0.6814158399756E-02
 0.3632750426594E-02 -0.7601838545659E-02
 0.4095267994292E-02 -0.8386744765310E-02
 0.4587084757590E-02 -0.9169362588126E-02
 0.5109265557107E-02 -0.9950053953445E-02
 0.5662569888765E-02 -0.1072912715108E-01
 0.6247529925741E-02 -0.1150688216807E-01
 0.6864507506854E-02 -0.1228364441083E-01
 0.7513739206688E-02 -0.1305979439890E-01
 0.8195378982930E-02 -0.1383580240906E-01
 0.8909495287243E-02 -0.1461221992925E-01
 0.9656156419139E-02 -0.1538977901963E-01
 0.1043539328213E-01 -0.1616936869703E-01
 0.1124725118775E-01 -0.1695213145857E-01
 0.1209179842467E-01 -0.1773956574277E-01
 0.1296916781948E-01 -0.1853370156606E-01
 0.1387998569815E-01 -0.1933737212295E-01
 0.1482604003989E-01 -0.2015489519975E-01
 0.1580994853375E-01 -0.2099090417598E-01
 0.1683453831326E-01 -0.2184948121782E-01
 0.1790262113488E-01 -0.2273413259727E-01
 0.1901714129433E-01 -0.2364819498758E-01
 0.2018154510189E-01 -0.2459537733903E-01
 0.2140029363757E-01 -0.2558025776809E-01
 0.2267952214374E-01 -0.2660863428866E-01
 0.2402760183084E-01 -0.2768790212342E-01
 0.2545543900918E-01 -0.2882621839366E-01
 0.2697784065547E-01 -0.3003328825574E-01
 0.2861778370185E-01 -0.3132420536724E-01
 0.3040968825455E-01 -0.3272328581204E-01
 0.3242723522035E-01 -0.3426111549969E-01
 0.3474672693369E-01 -0.3603294162903E-01
 0.3793587888563E-01 -0.3792537082285E-01
 0.2702090187670E-01 -0.2123280446189E-03
 0.2412771465883E-01 -0.1754849877401E-02
 0.2388829763900E-01 -0.3428326579926E-02
 0.2603754074012E-01 -0.5256769981892E-02
 0.3034216308291E-01 -0.7255107103739E-02
 0.3659084185267E-01 -0.9426564655625E-02
 0.4458698349539E-01 -0.1176584802136E-01
 0.5415153602534E-01 -0.1426265100923E-01
 0.6512404479883E-01 -0.1690559992809E-01
 0.7736254595195E-01 -0.1968677180545E-01
 0.9074277067276E-01 -0.2260450940074E-01
 0.1051555797513E+00 -0.2566142690237E-01
 0.1205041331894E+00 -0.2885848321916E-01
 0.1367019382683E+00 -0.3219002851100E-01
 0.1536724084170E+00 -0.3564248653310E-01
 0.1713504835301E+00 -0.3919571071353E-01
 0.1896843694305E+00 -0.4282338886413E-01
 0.2086266458428E+00 -0.4649837743220E-01
 0.2281440310717E+00 -0.5019346146499E-01
 0.2724571573227E-01 -0.8215563521278E-03
 0.2452767254404E-01 -0.2539341748712E-02
 0.2448822017935E-01 -0.4442665763596E-02
 0.2685662145685E-01 -0.6549093385875E-02
 0.3139401861276E-01 -0.8866552738084E-02
 0.3788340586016E-01 -0.1139348776904E-01
 0.4612423852789E-01 -0.1412078069943E-01
 0.5593403970498E-01 -0.1703462005441E-01
 0.6714924728330E-01 -0.2012000620327E-01
 0.7962525188051E-01 -0.2336526984979E-01
 0.9323568061709E-01 -0.2676491623844E-01
 0.1078697304536E+00 -0.3031775811844E-01
 0.1234290508429E+00 -0.3402137234194E-01
 0.1398257857141E+00 -0.3786743067887E-01
 0.1569823465383E+00 -0.4184034344517E-01
 0.1748328747420E+00 -0.4591783460046E-01
 0.1933238173018E+00 -0.5007110389728E-01
 0.2124084312901E+00 -0.5426624888353E-01
 0.2320416516991E+00 -0.5845376620664E-01
 0.2750860637536E-01 -0.1426566849318E-02
 0.2499304453411E-01 -0.3314456123908E-02
 0.2517471076615E-01 -0.5446839693805E-02
 0.2777949084069E-01 -0.7831514082567E-02
 0.3256344051747E-01 -0.1047014942313E-01
 0.3930483179432E-01 -0.1335623499693E-01
 0.4779947889107E-01 -0.1647666887388E-01
 0.5786166409419E-01 -0.1981399285169E-01
 0.6932486693413E-01 -0.2334968914070E-01
 0.8204198668712E-01 -0.2706849370501E-01
 0.9588465799839E-01 -0.3096118752529E-01
 0.1107404895415E+00 -0.3502287874774E-01
 0.1265097262860E+00 -0.3924776082501E-01
 0.1431032623506E+00 -0.4362462224852E-01
 0.1604424408300E+00 -0.4813522560586E-01
 0.1784601286507E+00 -0.5275435136601E-01
 0.1971006910322E+00 -0.5744926823629E-01
 0.2163134762825E+00 -0.6217858934192E-01
 0.2360476722121E+00 -0.6689314523292E-01
 0.2780770586992E-01 -0.2028732683029E-02
 0.2552215508865E-01 -0.4083824894976E-02
 0.2594682995941E-01 -0.6443564320889E-02
 0.2880550887353E-01 -0.9106828480977E-02
 0.3385030071890E-01 -0.1206851012842E-01
 0.4085541911339E-01 -0.1531713716854E-01
 0.4961340167045E-01 -0.1883548862870E-01
 0.5993552262605E-01 -0.2260243619206E-01
 0.7165250721561E-01 -0.2659599139503E-01
 0.8461491238240E-01 -0.3079739786738E-01
 0.9869248020106E-01 -0.3519380906871E-01
 0.1137712884124E+00 -0.3977667957549E-01
 0.1297502278590E+00 -0.4453677486703E-01
 0.1465389371575E+00 -0.4945978271862E-01
 0.1640574913243E+00 -0.5452447615295E-01
 0.1822371248431E+00 -0.5970239042132E-01
 0.2010192919141E+00 -0.6495705747613E-01
 0.2203502751872E+00 -0.7024487265605E-01
 0.2401775820315E+00 -0.7551828028283E-01
 0.2814181614258E-01 -0.2629225868560E-02
 0.2611357387636E-01 -0.4849489919803E-02
 0.2680345831106E-01 -0.7435378598100E-02
 0.2993401246773E-01 -0.1037741571448E-01
 0.3525434347719E-01 -0.1366385972024E-01
 0.4253531602806E-01 -0.1727812315856E-01
 0.5156655005232E-01 -0.2119881632809E-01
 0.6215658642062E-01 -0.2540113336251E-01
 0.7413361863423E-01 -0.2985966402678E-01
 0.8734601741243E-01 -0.3455223439631E-01
 0.1016617211925E+00 -0.3946244184140E-01
 0.1169653124663E+00 -0.4457812030593E-01
 0.1331543333948E+00 -0.4988656742104E-01
 0.1501371065996E+00 -0.5537026651142E-01
 0.1678322779341E+00 -0.6100494724137E-01
 0.1861691801420E+00 -0.6675916700558E-01
 0.2050866785549E+00 -0.7259423177425E-01
 0.2245291753171E+00 -0.7846591213000E-01
 0.2444445592458E+00 -0.8432841929864E-01
 0.2851005669647E-01 -0.3228848844827E-02
 0.2676609707723E-01 -0.5613028056182E-02
 0.2774351618749E-01 -0.8424254658760E-02
 0.3116425184456E-01 -0.1164531823499E-01
 0.3677519829149E-01 -0.1525804885391E-01
 0.4434451667848E-01 -0.1924074741276E-01
 0.5365930042874E-01 -0.2356781903606E-01
 0.6452564885572E-01 -0.2821079815281E-01
 0.7676945909508E-01 -0.3314089963163E-01
 0.9023707410781E-01 -0.3833259598544E-01
 0.1047947108198E+00 -0.4376598739985E-01
 0.1203254778659E+00 -0.4942532184566E-01
 0.1367255559587E+00 -0.5529443608276E-01
 0.1539019055129E+00 -0.6135263748664E-01
 0.1717716661823E+00 -0.6757279673398E-01
 0.1902623552665E+00 -0.7392112139192E-01
 0.2093108274644E+00 -0.8035760137427E-01
 0.2288605651935E+00 -0.8683814120587E-01
 0.2488608226066E+00 -0.9331830337641E-01
 0.2891173840705E-01 -0.3828266720143E-02
 0.2747868191405E-01 -0.6375669756280E-02
 0.2876596355109E-01 -0.9411781552438E-02
 0.3249540713011E-01 -0.1291219127679E-01
 0.3841235164485E-01 -0.1685257093202E-01
 0.4628283537714E-01 -0.2120618234250E-01
 0.5589182022570E-01 -0.2594324444613E-01
 0.6704327034809E-01 -0.3103166276990E-01
 0.7956102749316E-01 -0.3643932823426E-01
 0.9328956724930E-01 -0.4213741972515E-01
 0.1080934645200E+00 -0.4810259866050E-01
 0.1238543735899E+00 -0.5431557908143E-01
 0.1404671109479E+00 -0.6075679995883E-01
 0.1578372740370E+00 -0.6740252657224E-01
 0.1758805560746E+00 -0.7422309217824E-01
 0.1945229147352E+00 -0.8118290016346E-01
 0.2136997900845E+00 -0.8824123029434E-01
 0.2333544357939E+00 -0.9535443776237E-01
 0.2534379004454E+00 -0.1024792116811E+00
 0.2934628538071E-01 -0.4428054807879E-02
 0.2825039037203E-01 -0.7138427188156E-02
 0.2986978572279E-01 -0.1039924595518E-01
 0.3392659210498E-01 -0.1417936732389E-01
 0.4016515308132E-01 -0.1844858774542E-01
 0.4834990351663E-01 -0.2317525456504E-01
 0.5826406107893E-01 -0.2832545788223E-01
 0.6970976558894E-01 -0.3386352424179E-01
 0.8250904772743E-01 -0.3975407611562E-01
 0.9650467815012E-01 -0.4596506019376E-01
 0.1115596720548E+00 -0.5246976370877E-01
 0.1275542586950E+00 -0.5924544051936E-01
 0.1443819135416E+00 -0.6626923977395E-01
 0.1619469320409E+00 -0.7351457945259E-01
 0.1801637155759E+00 -0.8094958474271E-01
 0.1989569909311E+00 -0.8853729784927E-01
 0.2182613182314E+00 -0.9623668500683E-01
 0.2380202213599E+00 -0.1040047501556E+00
 0.2581867334247E+00 -0.1117992850046E+00
 0.2981318317852E-01 -0.5028729106131E-02
 0.2908033696160E-01 -0.7902150614388E-02
 0.3105396045230E-01 -0.1138769524856E-01
 0.3545683603442E-01 -0.1544789618196E-01
 0.4203279895732E-01 -0.2004695610588E-01
 0.5054514757215E-01 -0.2514846136202E-01
 0.6077572806600E-01 -0.3071445945378E-01
 0.7252516491343E-01 -0.3670576326137E-01
 0.8561392289146E-01 -0.4308378868102E-01
 0.9988323351385E-01 -0.4981331506601E-01
 0.1151946421740E+00 -0.5686432773767E-01
 0.1314269994683E+00 -0.6421071115387E-01
 0.1484724960427E+00 -0.7182645838792E-01
 0.1662342388776E+00 -0.7968234889060E-01
 0.1846255510560E+00 -0.8774459841311E-01
 0.2035702784601E+00 -0.9597523379072E-01
 0.2230025684529E+00 -0.1043331948000E+00
 0.2428665980522E+00 -0.1127763006115E+00
 0.2631174867740E+00 -0.1212635556516E+00
 0.3031194192976E-01 -0.5630762670650E-02
 0.2996764713323E-01 -0.8667567828441E-02
 0.3231742716591E-01 -0.1237798433681E-01
 0.3708506488070E-01 -0.1671858865283E-01
 0.4401431956385E-01 -0.2164826373002E-01
 0.5286777544270E-01 -0.2712600417242E-01
 0.6342626251424E-01 -0.3310991953520E-01
 0.7548919303186E-01 -0.3955738572118E-01
 0.8887571037314E-01 -0.4642667905481E-01
 0.1034256770111E+00 -0.5367947947264E-01
 0.1189992689691E+00 -0.6128254761453E-01
 0.1354740245746E+00 -0.6920649765655E-01
 0.1527409369391E+00 -0.7742230637637E-01
 0.1707020775824E+00 -0.8589831273489E-01
 0.1892699380427E+00 -0.9459907714324E-01
 0.2083678330301E+00 -0.1034858825238E+00
 0.2279299097740E+00 -0.1125178649104E+00
 0.2479013143131E+00 -0.1216538177426E+00
 0.2682393372722E+00 -0.1308541308706E+00
 0.3084207152785E-01 -0.6234599263465E-02
 0.3091142718089E-01 -0.9435313995545E-02
 0.3365906298292E-01 -0.1337081539557E-01
 0.3881008558900E-01 -0.1799205791496E-01
 0.4610856799235E-01 -0.2325286891292E-01
 0.5531676469245E-01 -0.2910782718505E-01
 0.6621482626402E-01 -0.3551121915088E-01
 0.7860124775770E-01 -0.4241706674327E-01
 0.9229409405088E-01 -0.4978057607232E-01
 0.1071320334200E+00 -0.5756039590107E-01
 0.1229739845131E+00 -0.6572013947532E-01
 0.1396962591645E+00 -0.7422724865771E-01
 0.1571887661796E+00 -0.8304981594296E-01
 0.1753527220498E+00 -0.9215391408162E-01
 0.1941000509790E+00 -0.1015026565673E+00
 0.2133538780974E+00 -0.1110567947357E+00
 0.2330487230958E+00 -0.1207758387615E+00
 0.2531309802750E+00 -0.1306197067035E+00
 0.2735602023565E+00 -0.1405503637192E+00
 0.3140305910585E-01 -0.6840658501122E-02
 0.3191073411762E-01 -0.1020594900551E-01
 0.3507765433746E-01 -0.1436676434926E-01
 0.4063056257552E-01 -0.1926875032058E-01
 0.4831420004644E-01 -0.2486093267807E-01
 0.5789084262441E-01 -0.3109365091263E-01
 0.6914027942341E-01 -0.3791748657356E-01
 0.8186037391831E-01 -0.4528319194806E-01
 0.9586835306999E-01 -0.5314297082771E-01
 0.1110018703085E+00 -0.6145250543597E-01
 0.1271187098820E+00 -0.7017233341263E-01
 0.1440940597488E+00 -0.7926681329374E-01
 0.1618168775959E+00 -0.8870126863023E-01
 0.1801877232354E+00 -0.9843965064307E-01
 0.1991182254964E+00 -0.1084437903172E+00
 0.2185316507566E+00 -0.1186740692104E+00
 0.2383632351262E+00 -0.1290905096542E+00
 0.2585608817535E+00 -0.1396542854209E+00
 0.2790865123806E+00 -0.1503291221886E+00
 0.3199435579651E-01 -0.7449344400573E-02
 0.3296455837229E-01 -0.1097997683869E-01
 0.3657188222958E-01 -0.1536631030219E-01
 0.4254500783177E-01 -0.2054898212355E-01
 0.5062966805403E-01 -0.2647246068401E-01
 0.6058848101138E-01 -0.3308301879896E-01
 0.7220117344806E-01 -0.4032764931871E-01
 0.8526525269944E-01 -0.4815391567561E-01
 0.9959734541553E-01 -0.5651108153735E-01
 0.1150342732758E+00 -0.6535191923866E-01
 0.1314328185638E+00 -0.7463395194039E-01
 0.1486671615261E+00 -0.8431852897756E-01
 0.1666254562932E+00 -0.9436829836429E-01
 0.1852078149813E+00 -0.1047452025321E+00
 0.2043258443620E+00 -0.1154099124146E+00
 0.2239032708608E+00 -0.1263225550466E+00
 0.2438763692063E+00 -0.1374437608851E+00
 0.2641948026031E+00 -0.1487360548216E+00
 0.2848229885956E+00 -0.1601650690640E+00
 0.3261536446924E-01 -0.8061049261476E-02
 0.3407180663092E-01 -0.1175785818313E-01
 0.3814030546208E-01 -0.1636985718357E-01
 0.4455176670753E-01 -0.2183296857470E-01
 0.5305320869069E-01 -0.2808733824178E-01
 0.6340788402358E-01 -0.3507533762469E-01
 0.7539573714257E-01 -0.4274048027258E-01
 0.8881418385715E-01 -0.5102721353182E-01
 0.1034794844166E+00 -0.5988191325763E-01
 0.1192278144934E+00 -0.6925448640599E-01
 0.1359150943461E+00 -0.7909948783675E-01
 0.1534146228517E+00 -0.8937531291463E-01
 0.1716139076648E+00 -0.1000420027952E+00
 0.1904128271643E+00 -0.1110595714994E+00
 0.2097232359881E+00 -0.1223876124317E+00
 0.2294696257958E+00 -0.1339860686768E+00
 0.2495896127172E+00 -0.1458162287323E+00
 0.2700348631400E+00 -0.1578420121154E+00
 0.2907724322087E+00 -0.1700310325426E+00
 0.3326543113506E-01 -0.8676157493807E-02
 0.3523128987197E-01 -0.1254002220038E-01
 0.3978134918631E-01 -0.1737775453863E-01
 0.4664900855996E-01 -0.2312085307732E-01
 0.5558283529828E-01 -0.2970536686480E-01
 0.6634698061256E-01 -0.3706992100626E-01
 0.7872186729606E-01 -0.4515464832691E-01
 0.9250507282271E-01 -0.5390094077878E-01
 0.1075127204941E+00 -0.6325232500360E-01
 0.1235805271374E+00 -0.7315587133760E-01
 0.1405636964090E+00 -0.8356319429465E-01
 0.1583347792479E+00 -0.9442976910059E-01
 0.1767807993678E+00 -0.1057130729174E+00
 0.1958016158387E+00 -0.1173712401784E+00
 0.2153095937770E+00 -0.1293628316302E+00
 0.2352302793440E+00 -0.1416476340884E+00
 0.2555029123708E+00 -0.1541875958677E+00
 0.2760813931088E+00 -0.1669480146719E+00
 0.2969355634291E+00 -0.1798984783237E+00
 0.3394384091572E-01 -0.9295050684992E-02
 0.3644171851817E-01 -0.1332687932136E-01
 0.4149330187962E-01 -0.1839031975597E-01
 0.4883472650348E-01 -0.2441273890502E-01
 0.5821633983609E-01 -0.3132630501602E-01
 0.6940342718228E-01 -0.3906603893666E-01
 0.8217713038071E-01 -0.4756877693983E-01
 0.9633542974157E-01 -0.5677290060263E-01
 0.1116945358727E+00 -0.6661910891713E-01
 0.1280898941497E+00 -0.7705164569139E-01
 0.1453761406875E+00 -0.8801919254190E-01
 0.1634252163756E+00 -0.9947431572950E-01
 0.1821238256759E+00 -0.1113719456575E+00
 0.2013720196385E+00 -0.1236683562244E+00
 0.2210829258015E+00 -0.1363210857035E+00
 0.2411834154637E+00 -0.1492897523860E+00
 0.2616146111658E+00 -0.1625369196617E+00
 0.2823328594170E+00 -0.1760291883218E+00
 0.3033109360585E+00 -0.1897380327202E+00
 0.3464981357376E-01 -0.9918109432407E-02
 0.3770169641324E-01 -0.1411882985055E-01
 0.4327430977853E-01 -0.1940785532521E-01
 0.5110673304360E-01 -0.2570871546844E-01
 0.6095128931630E-01 -0.3294990315559E-01
 0.7257460373650E-01 -0.4106296147335E-01
 0.8575875714491E-01 -0.4998149671446E-01
 0.1003023612641E+00 -0.5964090633516E-01
 0.1160219324047E+00 -0.6997906349199E-01
 0.1327528310925E+00 -0.8093737473835E-01
 0.1503492770639E+00 -0.9246157439555E-01
 0.1686827414009E+00 -0.1045013080766E+00
 0.1876397735814E+00 -0.1170089522533E+00
 0.2071208219498E+00 -0.1299389122763E+00
 0.2270400149508E+00 -0.1432476833593E+00
 0.2473257984079E+00 -0.1568946676856E+00
 0.2679214102685E+00 -0.1708429576085E+00
 0.2887858319235E+00 -0.1850603301268E+00
 0.3098949084204E+00 -0.1995199877173E+00
 0.3538250462976E-01 -0.1054571813883E-01
 0.3900972391389E-01 -0.1491627593667E-01
 0.4512238274299E-01 -0.2043067024035E-01
 0.5346266862990E-01 -0.2700888992161E-01
 0.6378503619190E-01 -0.3457594561886E-01
 0.7585762481054E-01 -0.4306001088232E-01
 0.8946365273644E-01 -0.5239150807593E-01
 0.1044025786108E+00 -0.6250285538162E-01
 0.1204914365152E+00 -0.7332908006128E-01
 0.1375656871979E+00 -0.8480871844008E-01
 0.1554792861658E+00 -0.9688452078759E-01
 0.1741033757790E+00 -0.1095031782057E+00
 0.1933245125295E+00 -0.1226144837323E+00
 0.2130437393357E+00 -0.1361709426212E+00
 0.2331764084838E+00 -0.1501279605362E+00
 0.2536527664092E+00 -0.1644446467324E+00
 0.2744183703822E+00 -0.1790845024970E+00
 0.2954349968535E+00 -0.1940163118535E+00
 0.3166816733128E+00 -0.2092147882646E+00
 0.3614100661697E-01 -0.1117826772149E-01
 0.4036420105625E-01 -0.1571963101058E-01
 0.4703539966113E-01 -0.2145909849714E-01
 0.5590000900820E-01 -0.2831341562445E-01
 0.6671472686816E-01 -0.3620428924168E-01
 0.7924934811270E-01 -0.4505661050300E-01
 0.9328840447264E-01 -0.5479764069455E-01
 0.1086324036347E+00 -0.6535679997078E-01
 0.1250991029756E+00 -0.7666622623768E-01
 0.1425242466179E+00 -0.8866152964059E-01
 0.1607616783320E+00 -0.1012824175245E+00
 0.1796823527783E+00 -0.1144725718764E+00
 0.1991729920590E+00 -0.1281791532863E+00
 0.2191354216190E+00 -0.1423527160809E+00
 0.2394864236579E+00 -0.1569475096423E+00
 0.2601582467535E+00 -0.1719222513198E+00
 0.2810989409886E+00 -0.1872407061651E+00
 0.3022732058290E+00 -0.2028724646716E+00
 0.3236633335077E+00 -0.2187934893022E+00
 0.3692435349532E-01 -0.1181615927372E-01
 0.4176343590952E-01 -0.1652933037709E-01
 0.4901112024372E-01 -0.2249351908327E-01
 0.5841607960538E-01 -0.2962252258541E-01
 0.6973731760910E-01 -0.3783490455084E-01
 0.8274639085649E-01 -0.4705233679051E-01
 0.9722929765551E-01 -0.5719891666452E-01
 0.1129877834330E+00 -0.6820102215797E-01
 0.1298405279579E+00 -0.7998783397601E-01
 0.1476237399894E+00 -0.9249195705337E-01
 0.1661913042703E+00 -0.1056499757192E+00
 0.1854141284429E+00 -0.1194024895807E+00
 0.2051792549925E+00 -0.1336939616785E+00
 0.2253894699905E+00 -0.1484729301251E+00
 0.2459631742468E+00 -0.1636924072402E+00
 0.2668347950379E+00 -0.1793106049125E+00
 0.2879550177228E+00 -0.1952913909101E+00
 0.3092915580951E+00 -0.2116049426675E+00
 0.3308300176480E+00 -0.2282281817494E+00
 0.3773152734122E-01 -0.1245980790894E-01
 0.4320565666707E-01 -0.1734584211605E-01
 0.5104720133275E-01 -0.2353437645718E-01
 0.6100807474305E-01 -0.3093654862180E-01
 0.7284959537835E-01 -0.3946791791849E-01
 0.8634515112451E-01 -0.4904697254196E-01
 0.1012823366271E+00 -0.5959461502025E-01
 0.1174643106017E+00 -0.7103411021460E-01
 0.1347108684013E+00 -0.8329158892004E-01
 0.1528588632920E+00 -0.9629654921282E-01
 0.1717623743329E+00 -0.1099823525589E+00
 0.1912924028376E+00 -0.1242864268678E+00
 0.2113364629010E+00 -0.1391504603443E+00
 0.2317984696781E+00 -0.1545209003795E+00
 0.2525986141445E+00 -0.1703494338983E+00
 0.2736736542420E+00 -0.1865936468842E+00
 0.2949770224364E+00 -0.2032173420980E+00
 0.3164795094995E+00 -0.2201910576570E+00
 0.3381700296694E+00 -0.2374923778292E+00
 0.3856146713878E-01 -0.1310964673255E-01
 0.4468902721229E-01 -0.1816967828686E-01
 0.5314121740194E-01 -0.2458220151991E-01
 0.6367308131325E-01 -0.3225597119028E-01
 0.7604820320803E-01 -0.4110365451880E-01
 0.9004183381911E-01 -0.5104056098172E-01
 0.1054432705799E+00 -0.6198433706303E-01
 0.1220572486025E+00 -0.7385503563926E-01
 0.1397048670936E+00 -0.8657561999470E-01
 0.1582238033074E+00 -0.1000723580417E+00
 0.1774684855735E+00 -0.1142752707177E+00
 0.1973101505425E+00 -0.1291185118939E+00
 0.2176369325394E+00 -0.1445409097274E+00
 0.2383540355082E+00 -0.1604867426705E+00
 0.2593835959000E+00 -0.1769062829958E+00
 0.2806648307152E+00 -0.1937563710171E+00
 0.3021540020501E+00 -0.2110005786149E+00
 0.3238250010443E+00 -0.2286095817721E+00
 0.3456700196993E+00 -0.2465613373594E+00
 0.3941307989082E-01 -0.1376613118590E-01
 0.4621166653367E-01 -0.1900140678469E-01
 0.5529068573691E-01 -0.2563763350033E-01
 0.6640810746990E-01 -0.3358144032558E-01
 0.7932967067254E-01 -0.4274268248177E-01
 0.9383248176131E-01 -0.5303346100121E-01
 0.1097076246297E+00 -0.6436807264529E-01
 0.1267615626526E+00 -0.7666323074251E-01
 0.1448168837349E+00 -0.8983858895440E-01
 0.1637122697461E+00 -0.1038170414578E+00
 0.1833026563845E+00 -0.1185251355057E+00
 0.2034596598435E+00 -0.1338936389129E+00
 0.2240721822643E+00 -0.1498584311538E+00
 0.2450468688400E+00 -0.1663615454802E+00
 0.2663079420164E+00 -0.1833517559794E+00
 0.2877971841863E+00 -0.2007850455408E+00
 0.3094737420219E+00 -0.2186245988881E+00
 0.3313146017230E+00 -0.2368410187113E+00
 0.3533151615797E+00 -0.2554123586867E+00
 0.4028525434402E-01 -0.1442974402535E-01
 0.4777167248365E-01 -0.1984166422131E-01
 0.5749309692307E-01 -0.2670144320660E-01
 0.6921011703300E-01 -0.3491381316824E-01
 0.8269045018100E-01 -0.4438585869059E-01
 0.9771301262751E-01 -0.5502640390980E-01
 0.1140707367747E+00 -0.6674626763135E-01
 0.1315719566488E+00 -0.7945866684446E-01
 0.1500409323310E+00 -0.9307977970938E-01
 0.1693175341643E+00 -0.1075289645919E+00
 0.1892573685397E+00 -0.1227291490476E+00
 0.2097325800719E+00 -0.1386075966991E+00
 0.2306329874208E+00 -0.1550971509106E+00
 0.2518668243189E+00 -0.1721375311528E+00
 0.2733605268637E+00 -0.1896759421229E+00
 0.2950585289339E+00 -0.2076674126314E+00
 0.3169228911554E+00 -0.2260746007786E+00
 0.3389336615295E+00 -0.2448678439341E+00
 0.3610893423894E+00 -0.2640250433290E+00
 0.4117687726382E-01 -0.1510100090606E-01
 0.4936714977798E-01 -0.2069116985078E-01
 0.5974595047372E-01 -0.2777455769643E-01
 0.7207606934617E-01 -0.3625419010773E-01
 0.8612695873014E-01 -0.4603437616227E-01
 0.1016792612724E+00 -0.5702055150074E-01
 0.1185278001972E+00 -0.6911989216915E-01
 0.1364829154834E+00 -0.8224193252903E-01
 0.1553707241600E+00 -0.9629918667497E-01
 0.1750324747753E+00 -0.1112072986684E+00
 0.1953246155665E+00 -0.1268854203646E+00
 0.2161199757727E+00 -0.1432571906162E+00
 0.2373094430838E+00 -0.1602523351108E+00
 0.2588029844817E+00 -0.1778082043272E+00
 0.2805293668547E+00 -0.1958703812282E+00
 0.3024357434664E+00 -0.2143928659234E+00
 0.3244870947387E+00 -0.2333376740802E+00
 0.3466664728196E+00 -0.2526747123052E+00
 0.3689753600428E+00 -0.2723815174518E+00
 0.4208685110563E-01 -0.1578045569481E-01
 0.5099624028977E-01 -0.2155073958185E-01
 0.6204679292960E-01 -0.2885808525658E-01
 0.7500296128408E-01 -0.3760395121142E-01
 0.8963562128515E-01 -0.4768981139320E-01
 0.1057270231972E+00 -0.5901755347941E-01
 0.1230739063647E+00 -0.7149050746662E-01
 0.1414887479968E+00 -0.8501430929934E-01
 0.1607997114194E+00 -0.9949759916768E-01
 0.1808496221759E+00 -0.1148521143051E+00
 0.2014959524103E+00 -0.1309930679240E+00
 0.2226123826187E+00 -0.1478403547929E+00
 0.2440910290053E+00 -0.1653205117817E+00
 0.2658437370028E+00 -0.1833684840863E+00
 0.2878017136575E+00 -0.2019282058720E+00
 0.3099148835335E+00 -0.2209526028284E+00
 0.3321511311168E+00 -0.2404029627288E+00
 0.3544964344687E+00 -0.2602486289340E+00
 0.3769551205570E+00 -0.2804666067265E+00
 0.4301411744283E-01 -0.1646870887056E-01
 0.5265716299193E-01 -0.2242130417044E-01
 0.6439326816525E-01 -0.2995334560456E-01
 0.7798788294112E-01 -0.3896479866941E-01
 0.9321292861658E-01 -0.4935417816118E-01
 0.1098521128560E+00 -0.6101961142101E-01
 0.1277041030908E+00 -0.7386033880689E-01
 0.1465836448255E+00 -0.8777785280778E-01
 0.1663211455745E+00 -0.1026766903235E+00
 0.1867612194653E+00 -0.1184644778722E+00
 0.2077625590240E+00 -0.1350523233242E+00
 0.2291998765567E+00 -0.1523562629559E+00
 0.2509666868265E+00 -0.1702995884386E+00
 0.2729768629553E+00 -0.1888148275738E+00
 0.2951641569362E+00 -0.2078442701484E+00
 0.3174813030065E+00 -0.2273397574330E+00
 0.3398990540934E+00 -0.2472618007671E+00
 0.3624062184462E+00 -0.2675790858363E+00
 0.3850098312173E+00 -0.2882679674236E+00
 0.4395767891918E-01 -0.1716641345126E-01
 0.5434825129808E-01 -0.2330392500292E-01
 0.6678316339167E-01 -0.3106189752765E-01
 0.8102806698277E-01 -0.4033879610946E-01
 0.9685548681683E-01 -0.5102997716667E-01
 0.1140504120056E+00 -0.6302953714432E-01
 0.1324134414191E+00 -0.7623234125440E-01
 0.1517617242775E+00 -0.9053546481622E-01
 0.1719281233645E+00 -0.1058390946134E+00
 0.1927592700237E+00 -0.1220465342021E+00
 0.2141152918834E+00 -0.1390646189956E+00
 0.2358721312670E+00 -0.1568054208120E+00
 0.2579248859841E+00 -0.1751889484872E+00
 0.2801896140831E+00 -0.1941453292785E+00
 0.3026027163966E+00 -0.2136152502815E+00
 0.3251197644139E+00 -0.2335495006791E+00
 0.3477143252778E+00 -0.2539078102630E+00
 0.3703779255797E+00 -0.2746581551633E+00
 0.3931201787017E+00 -0.2957761684768E+00
 0.4491662862099E-01 -0.1787428520959E-01
 0.5606800301513E-01 -0.2419981579390E-01
 0.6921447125175E-01 -0.3218557402980E-01
 0.8412095617496E-01 -0.4172841669854E-01
 0.1005600862127E+00 -0.5272025527157E-01
 0.1183179382259E+00 -0.6505082103506E-01
 0.1371970431345E+00 -0.7861027523908E-01
 0.1570170990452E+00 -0.9329097455542E-01
 0.1776136536848E+00 -0.1089884939064E+00
 0.1988356060472E+00 -0.1256015966783E+00
 0.2205447558963E+00 -0.1430326818309E+00
 0.2426184952681E+00 -0.1611897625854E+00
 0.2649537079979E+00 -0.1799895495243E+00
 0.2874688066270E+00 -0.1993598192060E+00
 0.3101029480745E+00 -0.2192397400387E+00
 0.3328145610798E+00 -0.2395791298814E+00
 0.3555799551467E+00 -0.2603369814051E+00
 0.3783932466388E+00 -0.2814805561698E+00
 0.4012665052460E+00 -0.3029847394803E+00
 0.4589018044399E-01 -0.1859311221714E-01
 0.5781513183887E-01 -0.2511036423640E-01
 0.7168545275493E-01 -0.3332651789098E-01
 0.8726427011125E-01 -0.4313659157612E-01
 0.1043237674943E+00 -0.5442866431899E-01
 0.1226509088021E+00 -0.6708769860408E-01
 0.1420501619906E+00 -0.8099877853697E-01
 0.1623439352228E+00 -0.9604921422238E-01
 0.1833707156535E+00 -0.1121296950990E+00
 0.2049819474220E+00 -0.1291342261624E+00
 0.2270413659465E+00 -0.1469606129162E+00
 0.2494280578617E+00 -0.1655127309670E+00
 0.2720409184750E+00 -0.1847040022892E+00
 0.2948009012687E+00 -0.2044599385585E+00
 0.3176500346989E+00 -0.2247183196991E+00
 0.3405496210431E+00 -0.2454281266326E+00
 0.3634786233239E+00 -0.2665477142093E+00
 0.3864335996656E+00 -0.2880436735815E+00
 0.4094289560305E+00 -0.3098901554013E+00
 0.4687770189914E-01 -0.1932376473713E-01
 0.5958862305884E-01 -0.2603715507146E-01
 0.7419470459424E-01 -0.3448721961938E-01
 0.9045607529148E-01 -0.4456676113324E-01
 0.1081438896998E+00 -0.5615952254035E-01
 0.1270458050947E+00 -0.6914521875647E-01
 0.1469682442414E+00 -0.8340343857654E-01
 0.1677365096544E+00 -0.9881609297675E-01
 0.1891923143489E+00 -0.1152687041017E+00
 0.2111899579396E+00 -0.1326503040441E+00
 0.2335954056277E+00 -0.1508539593134E+00
 0.2562897119994E+00 -0.1697793473669E+00
 0.2791740352919E+00 -0.1893366384383E+00
 0.3021720777668E+00 -0.2094492026524E+00
 0.3252288685204E+00 -0.2300536099793E+00
 0.3483086007189E+00 -0.2510981961709E+00
 0.3713927855538E+00 -0.2725408366233E+00
 0.3944802489531E+00 -0.2943475446497E+00
 0.4175875977486E+00 -0.3164917657532E+00
 0.4787875654545E-01 -0.2006721070532E-01
 0.6138780589641E-01 -0.2698200111221E-01
 0.7674124739019E-01 -0.3567056584700E-01
 0.9369487811625E-01 -0.4602293867427E-01
 0.1120182217697E+00 -0.5791788944259E-01
 0.1314994605789E+00 -0.7122932583348E-01
 0.1519470124882E+00 -0.8583087807318E-01
 0.1731892898694E+00 -0.1015986830741E+00
 0.1950715582635E+00 -0.1184128101347E+00
 0.2174513223589E+00 -0.1361571134085E+00
 0.2401971058744E+00 -0.1547197917882E+00
 0.2631922356895E+00 -0.1739962862989E+00
 0.2863404130963E+00 -0.1938935810764E+00
 0.3095683224049E+00 -0.2143330653090E+00
 0.3328241420550E+00 -0.2352503254393E+00
 0.3560749806782E+00 -0.2565933027300E+00
 0.3793047765795E+00 -0.2783196138238E+00
 0.4025144134570E+00 -0.3003948346628E+00
 0.4257225113568E+00 -0.3227917250988E+00
 0.4889314195675E-01 -0.2082452602822E-01
 0.6321241889608E-01 -0.2794696944498E-01
 0.7932460318412E-01 -0.3687988328249E-01
 0.9697970249127E-01 -0.4750976939171E-01
 0.1159450143337E+00 -0.5970963485113E-01
 0.1360091258772E+00 -0.7334693401221E-01
 0.1569825242950E+00 -0.8828883071508E-01
 0.1786969875113E+00 -0.1044052933136E+00
 0.2010017101072E+00 -0.1215706543248E+00
 0.2237577979159E+00 -0.1396634016443E+00
 0.2468367002217E+00 -0.1585667618536E+00
 0.2701243528330E+00 -0.1781719283148E+00
 0.2935273099074E+00 -0.1983827948433E+00
 0.3169754992607E+00 -0.2191189653399E+00
 0.3404204229822E+00 -0.2403153130913E+00
 0.3638321449764E+00 -0.2619196924099E+00
 0.3871968968058E+00 -0.2838897465295E+00
 0.4105173630011E+00 -0.3061908083768E+00
 0.4338138928925E+00 -0.3287949659620E+00
 0.4992094099838E-01 -0.2159691254936E-01
 0.6506269852243E-01 -0.2893441844584E-01
 0.8194490151022E-01 -0.3811899704633E-01
 0.1003101974635E+00 -0.4903260630781E-01
 0.1199231006455E+00 -0.6154152631222E-01
 0.1405725609952E+00 -0.7550602008415E-01
 0.1620712550240E+00 -0.9078623403382E-01
 0.1842546320696E+00 -0.1072455569173E+00
 0.2069762536325E+00 -0.1247523085815E+00
 0.2301012776632E+00 -0.1431794481532E+00
 0.2535044879424E+00 -0.1624051584535E+00
 0.2770747979265E+00 -0.1823164077734E+00
 0.3007219527985E+00 -0.2028141275581E+00
 0.3243794138509E+00 -0.2238163632186E+00
 0.3480022119193E+00 -0.2452575805437E+00
 0.3715634315025E+00 -0.2670859037419E+00
 0.3950514582143E+00 -0.2892593519478E+00
 0.4184704698027E+00 -0.3117432774057E+00
 0.4418421285599E+00 -0.3345091369451E+00
 0.5096257303510E-01 -0.2238571310555E-01
 0.6693947007089E-01 -0.2994703419523E-01
 0.8460298764691E-01 -0.3939229047261E-01
 0.1036867450732E+00 -0.5059758991216E-01
 0.1239519956697E+00 -0.6342132086050E-01
 0.1451881250037E+00 -0.7771572132487E-01
 0.1672101782184E+00 -0.9333332711290E-01
 0.1898576430626E+00 -0.1101305233855E+00
 0.2129889610680E+00 -0.1279693566769E+00
 0.2364738583343E+00 -0.1467171323722E+00
 0.2601909074050E+00 -0.1662469636796E+00
 0.2840323982218E+00 -0.1864416600439E+00
 0.3079116288962E+00 -0.2071993551265E+00
 0.3317659089452E+00 -0.2284367893202E+00
 0.3555540360196E+00 -0.2500883484309E+00
 0.3792522182665E+00 -0.2721028152859E+00
 0.4028508654541E+00 -0.2944389913793E+00
 0.4263553009609E+00 -0.3170625963213E+00
 0.4497879373309E+00 -0.3399445836040E+00
 0.5201884900468E-01 -0.2319242652057E-01
 0.6884424697404E-01 -0.3098786718976E-01
 0.8730053807318E-01 -0.4070476974704E-01
 0.1071105699068E+00 -0.5221173151760E-01
 0.1280319897868E+00 -0.6535786172210E-01
 0.1498548527781E+00 -0.7998643571420E-01
 0.1723968251273E+00 -0.9594174812131E-01
 0.1955018726695E+00 -0.1130727441823E+00
 0.2190339230033E+00 -0.1312349614094E+00
 0.2428678639210E+00 -0.1502899785222E+00
 0.2668865601059E+00 -0.1701058754518E+00
 0.2909861031036E+00 -0.1905614264745E+00
 0.3150837217920E+00 -0.2115521771392E+00
 0.3391209035453E+00 -0.2329938426928E+00
 0.3630604798347E+00 -0.2548210598484E+00
 0.3868819336344E+00 -0.2769836618802E+00
 0.4105776030093E+00 -0.2994416669156E+00
 0.4341536029037E+00 -0.3221616170359E+00
 0.4576324067781E+00 -0.3451142544354E+00
 0.5309104283514E-01 -0.2401872328322E-01
 0.7077936113339E-01 -0.3206038933499E-01
 0.9004021642557E-01 -0.4206214263485E-01
 0.1105838959371E+00 -0.5388302636257E-01
 0.1321642933218E+00 -0.6736120285431E-01
 0.1545725880613E+00 -0.8232996143924E-01
 0.1776294030098E+00 -0.9862467347638E-01
 0.2011837102059E+00 -0.1160864026309E+00
 0.2251056434646E+00 -0.1345639752787E+00
 0.2492759396736E+00 -0.1539132423331E+00
 0.2735823122908E+00 -0.1739973700721E+00
 0.2979251002846E+00 -0.1946912977725E+00
 0.3222258458147E+00 -0.2158882506605E+00
 0.3464305447527E+00 -0.2375032310816E+00
 0.3705063401354E+00 -0.2594714558984E+00
 0.3944361910473E+00 -0.2817441470355E+00
 0.4182143294272E+00 -0.3042829468519E+00
 0.4418473775639E+00 -0.3270557529511E+00
 0.4653571286045E+00 -0.3500337159984E+00
 0.5418095358418E-01 -0.2486648626065E-01
 0.7274808349048E-01 -0.3316850837910E-01
 0.9282581034544E-01 -0.4347091953140E-01
 0.1141100652596E+00 -0.5562052714081E-01
 0.1363511370784E+00 -0.6944272945016E-01
 0.1593420519076E+00 -0.8475961559599E-01
 0.1829068355900E+00 -0.1013969378244E+00
 0.2069000909598E+00 -0.1191874133925E+00
 0.2311990259976E+00 -0.1379730060147E+00
 0.2556910266850E+00 -0.1576039389951E+00
 0.2802692686119E+00 -0.1779386916345E+00
 0.3048387995739E+00 -0.1988486664819E+00
 0.3293258474908E+00 -0.2202251203192E+00
 0.3536812277204E+00 -0.2419826934936E+00
 0.3778766687086E+00 -0.2640575179590E+00
 0.4018988087784E+00 -0.2864025006692E+00
 0.4257438200745E+00 -0.3089810613999E+00
 0.4494187403742E+00 -0.3317630318152E+00
 0.4729441183805E+00 -0.3547210031002E+00
 0.5529102955932E-01 -0.2573762487214E-01
 0.7475479351369E-01 -0.3431685255431E-01
 0.9566238688445E-01 -0.4493835724603E-01
 0.1176937465439E+00 -0.5743452984149E-01
 0.1405959243787E+00 -0.7161528129578E-01
 0.1641649903829E+00 -0.8729040846528E-01
 0.1882288698974E+00 -0.1042752207919E+00
 0.2126485664961E+00 -0.1223935789213E+00
 0.2373094225581E+00 -0.1414805312505E+00
 0.2621064029771E+00 -0.1613809174925E+00
 0.2869388143207E+00 -0.1819488874580E+00
 0.3117168864773E+00 -0.2030527152117E+00
 0.3363718918014E+00 -0.2245821604589E+00
 0.3608597155713E+00 -0.2464519516133E+00
 0.3851569133851E+00 -0.2685994131828E+00
 0.4092540394882E+00 -0.2909794581961E+00
 0.4331490700587E+00 -0.3135573593596E+00
 0.4568497807869E+00 -0.3363043425347E+00
 0.4803756525174E+00 -0.3591965694226E+00
 0.3840783613729E-01  0.2092592170471E-01
 0.4078925196582E-01  0.3513358418153E-01
 0.4594194195403E-01  0.5093751100209E-01
 0.5531747376183E-01  0.6821176098079E-01
 0.6887413470154E-01  0.8691179140642E-01
 0.8611566402048E-01  0.1066838786806E+00
 0.1066565024932E+00  0.1259175460864E+00
 0.1301392247194E+00  0.1436881532789E+00
 0.1561903835806E+00  0.1599733868291E+00
 0.1845286607514E+00  0.1748227618168E+00
 0.2149153093014E+00  0.1881549103187E+00
 0.2471129316434E+00  0.1997678533405E+00
 0.2808601159206E+00  0.2095523955427E+00
 0.3158847217015E+00  0.2173396279955E+00
 0.3518911262133E+00  0.2228181809871E+00
 0.3885502417182E+00  0.2257661801797E+00
 0.4255559766410E+00  0.2266154024880E+00
 0.4618381638496E+00  0.2211516822891E+00
 0.4942283919202E+00  0.2054743943495E+00
 0.3591738753188E-01  0.1875020483829E-01
 0.3792110845483E-01  0.3115905895444E-01
 0.4287780370422E-01  0.4529360274206E-01
 0.5200916323180E-01  0.6067154719500E-01
 0.6528702436256E-01  0.7747974542790E-01
 0.8213317432926E-01  0.9556460032849E-01
 0.1020777231979E+00  0.1135030015626E+00
 0.1248180149239E+00  0.1302897467847E+00
 0.1500455897321E+00  0.1457452158912E+00
 0.1775091089982E+00  0.1598623985514E+00
 0.2069896491164E+00  0.1725642096482E+00
 0.2382687523070E+00  0.1836690761794E+00
 0.2711046301330E+00  0.1930764728270E+00
 0.3052427173801E+00  0.2006272371096E+00
 0.3404056922077E+00  0.2060246145883E+00
 0.3762814982017E+00  0.2090524459677E+00
 0.4125672603831E+00  0.2100995688569E+00
 0.4482385092972E+00  0.2052177496732E+00
 0.4802889228578E+00  0.1906974858431E+00
 0.3376836107646E-01  0.1684978488370E-01
 0.3531245386272E-01  0.2755281042620E-01
 0.4004885394427E-01  0.4003459730634E-01
 0.4887638173706E-01  0.5373151350418E-01
 0.6175145525322E-01  0.6879852026286E-01
 0.7810033105564E-01  0.8520330957075E-01
 0.9742188989175E-01  0.1017301357926E+00
 0.1194324038736E+00  0.1174081531180E+00
 0.1438539476056E+00  0.1319645798086E+00
 0.1704532742594E+00  0.1453207912757E+00
 0.1990292519072E+00  0.1573773656124E+00
 0.2293830518233E+00  0.1679600476569E+00
 0.2612935181790E+00  0.1769737199242E+00
 0.2945255088795E+00  0.1842681798823E+00
 0.3288213782607E+00  0.1895626712956E+00
 0.3638883069245E+00  0.1926463267488E+00
 0.3994340830961E+00  0.1938640463202E+00
 0.4344808000745E+00  0.1895264535920E+00
 0.4661821313607E+00  0.1761277060860E+00
 0.3193659473388E-01  0.1515169827941E-01
 0.3297825375792E-01  0.2428637171495E-01
 0.3743794743381E-01  0.3520327161292E-01
 0.4591353717159E-01  0.4733315435226E-01
 0.5831179327549E-01  0.6078312707506E-01
 0.7408679969711E-01  0.7555803745426E-01
 0.9274576520070E-01  0.9062936329121E-01
 0.1140158892779E+00  0.1051101775034E+00
 0.1376342687831E+00  0.1186890941513E+00
 0.1633750149063E+00  0.1312335141683E+00
 0.1910479516736E+00  0.1426132956064E+00
 0.2204710109380E+00  0.1526496058136E+00
 0.2514431807042E+00  0.1612462397637E+00
 0.2837495740748E+00  0.1682599145019E+00
 0.3171534902162E+00  0.1734255812234E+00
 0.3513836408935E+00  0.1765382234222E+00
 0.3861645056440E+00  0.1779005905066E+00
 0.4205674184504E+00  0.1740774330558E+00
 0.4519039607044E+00  0.1617704049386E+00
 0.3039392633448E-01  0.1361809792107E-01
 0.3091459581095E-01  0.2133291778893E-01
 0.3504502387572E-01  0.3078856014278E-01
 0.4312332138391E-01  0.4144790892659E-01
 0.5499604727130E-01  0.5337564308531E-01
 0.7014423104380E-01  0.6658517719650E-01
 0.8810278321514E-01  0.8020044935099E-01
 0.1086116256910E+00  0.9343292640837E-01
 0.1314176525574E+00  0.1059678109199E+00
 0.1562974142163E+00  0.1176418094172E+00
 0.1830655943901E+00  0.1282998231882E+00
 0.2115521106047E+00  0.1377540299436E+00
 0.2415736403599E+00  0.1459017568902E+00
 0.2729350620847E+00  0.1526035298014E+00
 0.3054211687507E+00  0.1576090271020E+00
 0.3387838912425E+00  0.1607197611426E+00
 0.3727687319798E+00  0.1621997736826E+00
 0.4065000046989E+00  0.1588626991108E+00
 0.4374461661550E+00  0.1476172206515E+00
 0.2911171959825E-01  0.1222455676212E-01
 0.2911196758197E-01  0.1866413714794E-01
 0.3287156061585E-01  0.2676748827205E-01
 0.4051396516172E-01  0.3604695348402E-01
 0.5182612742595E-01  0.4653595874457E-01
 0.6631170151605E-01  0.5824648596245E-01
 0.8353954574611E-01  0.7042938990771E-01
 0.1032645099436E+00  0.8239189580414E-01
 0.1252426449627E+00  0.9383493603561E-01
 0.1492521670385E+00  0.1045837142610E+00
 0.1751093173919E+00  0.1144689731403E+00
 0.2026515782946E+00  0.1232961194921E+00
 0.2317098002068E+00  0.1309541869647E+00
 0.2621068152569E+00  0.1373051950358E+00
 0.2936484033885E+00  0.1421123644551E+00
 0.3261103701075E+00  0.1451844565996E+00
 0.3592618324266E+00  0.1467507230365E+00
 0.3922842012417E+00  0.1438680449151E+00
 0.4228030778523E+00  0.1336490098437E+00
 0.2806276352692E-01  0.1095207006377E-01
 0.2755823408784E-01  0.1625278763311E-01
 0.3091828865348E-01  0.2311271562873E-01
 0.3809477260318E-01  0.3110116844638E-01
 0.4882136878987E-01  0.4023064280437E-01
 0.6262066159863E-01  0.5050955957258E-01
 0.7909597151430E-01  0.6129701315191E-01
 0.9801748555109E-01  0.7198898674481E-01
 0.1191507941651E+00  0.8231092119088E-01
 0.1422770014680E+00  0.9208955343322E-01
 0.1672130436347E+00  0.1011520215644E+00
 0.1938009805378E+00  0.1093024042375E+00
 0.2218823499265E+00  0.1164229816886E+00
 0.2512953242740E+00  0.1223767503808E+00
 0.2818651251589E+00  0.1269398524916E+00
 0.3133909085247E+00  0.1299291177301E+00
 0.3456662715895E+00  0.1315429432980E+00
 0.3779336707114E+00  0.1290757265885E+00
 0.4079775639476E+00  0.1198398748256E+00
 0.2722180522750E-01  0.9784837161482E-02
 0.2623999896035E-01  0.1407313325812E-01
 0.2918445873724E-01  0.1979594303344E-01
 0.3587429777199E-01  0.2658134685197E-01
 0.4599897212888E-01  0.3442926504238E-01
 0.5909777845880E-01  0.4334525709872E-01
 0.7480665085354E-01  0.5278253624507E-01
 0.9291025127181E-01  0.6221815383041E-01
 0.1131837981719E+00  0.7140563909070E-01
 0.1354129263463E+00  0.8018114187966E-01
 0.1594158639536E+00  0.8837641545558E-01
 0.1850377432693E+00  0.9580020555122E-01
 0.2121279795574E+00  0.1023315157296E+00
 0.2405372792467E+00  0.1078355002924E+00
 0.2701080312757E+00  0.1121015134340E+00
 0.3006611379620E+00  0.1149555733673E+00
 0.3320139500234E+00  0.1165689950933E+00
 0.3634733725661E+00  0.1144683545320E+00
 0.3929858623427E+00  0.1061623584611E+00
 0.2656572444173E-01  0.8709319669183E-02
 0.2514325057037E-01  0.1210122445761E-01
 0.2766770440186E-01  0.1678928714024E-01
 0.3385950237079E-01  0.2245864113685E-01
 0.4337394550879E-01  0.2910285563990E-01
 0.5576616037147E-01  0.3672612043425E-01
 0.7070199964178E-01  0.4486444962409E-01
 0.8797910280764E-01  0.5306866870048E-01
 0.1073819563538E+00  0.6112142380724E-01
 0.1287020658211E+00  0.6887273280633E-01
 0.1517601295409E+00  0.7616458937613E-01
 0.1764039395855E+00  0.8281552675479E-01
 0.2024888372263E+00  0.8870530334090E-01
 0.2298754970395E+00  0.9370341662030E-01
 0.2584208628745E+00  0.9761349888665E-01
 0.2879651710798E+00  0.1002722271481E+00
 0.3183474691834E+00  0.1018274080016E+00
 0.3489417246973E+00  0.1000333008481E+00
 0.3778607598288E+00  0.9259323352239E-01
 0.2607353086959E-01  0.7713768413705E-02
 0.2425374231322E-01  0.1031500290297E-01
 0.2636409688316E-01  0.1406594435715E-01
 0.3205540478732E-01  0.1870488195213E-01
 0.4095896659361E-01  0.2422332636684E-01
 0.5264586156070E-01  0.3062550576122E-01
 0.6680893451034E-01  0.3752070525779E-01
 0.8325708310583E-01  0.4452679569118E-01
 0.1017834133414E+00  0.5145530591463E-01
 0.1221861600860E+00  0.5817244884252E-01
 0.1442897191396E+00  0.6453396178866E-01
 0.1679447736535E+00  0.7037193401668E-01
 0.1930114207362E+00  0.7557056570693E-01
 0.2193582003839E+00  0.8000614518691E-01
 0.2468539981731E+00  0.8349801776369E-01
 0.2753554987624E+00  0.8589518866745E-01
 0.3047204051937E+00  0.8732529409435E-01
 0.3343913797224E+00  0.8576691267084E-01
 0.3626527496394E+00  0.7911897330918E-01
 0.2572627624587E-01  0.6787929219956E-02
 0.2355724094378E-01  0.8694306324165E-02
 0.2526827972360E-01  0.1160051714882E-01
 0.3046496595894E-01  0.1529280771639E-01
 0.3876428158994E-01  0.1976328110631E-01
 0.4975406005402E-01  0.2501718086410E-01
 0.6315120163902E-01  0.3072874912560E-01
 0.7877411616443E-01  0.3657668324009E-01
 0.9642377342036E-01  0.4240048473987E-01
 0.1159055681042E+00  0.4808359103162E-01
 0.1370486255854E+00  0.5349744333126E-01
 0.1597070542402E+00  0.5849014414299E-01
 0.1837451547028E+00  0.6295326352067E-01
 0.2090377723868E+00  0.6677205791311E-01
 0.2354633696387E+00  0.6978295449093E-01
 0.2628920487361E+00  0.7184888009756E-01
 0.2911965139919E+00  0.7308030234529E-01
 0.3198885496222E+00  0.7167791483905E-01
 0.3474291789171E+00  0.6574012904054E-01
 0.2550692566163E-01  0.5922831680281E-02
 0.2303970086461E-01  0.7220810469478E-02
 0.2437363434293E-01  0.9369168030657E-02
 0.2908909975507E-01  0.1219622648767E-01
 0.3679765445348E-01  0.1569599839963E-01
 0.4710509725783E-01  0.1987518491681E-01
 0.5974949248926E-01  0.2446557238479E-01
 0.7455704907580E-01  0.2920088991678E-01
 0.9133585472377E-01  0.3394729093393E-01
 0.1098985825670E+00  0.3860566160145E-01
 0.1300798474569E+00  0.4306405480813E-01
 0.1517378037017E+00  0.4718798072292E-01
 0.1747408620559E+00  0.5087847470384E-01
 0.1989691656601E+00  0.5403140363583E-01
 0.2243088169285E+00  0.5650125849507E-01
 0.2506404653453E+00  0.5816610790871E-01
 0.2778479238157E+00  0.5912173727097E-01
 0.3055110167789E+00  0.5778964059016E-01
 0.3322717194860E+00  0.5247417113992E-01
 0.2540021318253E-01  0.5110622643229E-02
 0.2268739185093E-01  0.5877935092950E-02
 0.2367245467325E-01  0.7349677432017E-02
 0.2792675136825E-01  0.9390130040826E-02
 0.3506436115100E-01  0.1199548959226E-01
 0.4471046472232E-01  0.1517383597483E-01
 0.5662144033151E-01  0.1870781729735E-01
 0.7062960592438E-01  0.2238075885396E-01
 0.8654947983435E-01  0.2608385390444E-01
 0.1042009236099E+00  0.2973513681789E-01
 0.1234245251935E+00  0.3323948914868E-01
 0.1440830600559E+00  0.3648045906882E-01
 0.1660492799556E+00  0.3936993765172E-01
 0.1892081483156E+00  0.4181548079301E-01
 0.2134520391747E+00  0.4369009702287E-01
 0.2386697402586E+00  0.4488759909042E-01
 0.2647524498342E+00  0.4549081083536E-01
 0.2913450863660E+00  0.4414100001590E-01
 0.3172726676809E+00  0.3935670445576E-01
 0.2539249515009E-01  0.4344424635016E-02
 0.2248699362098E-01  0.4650725852256E-02
 0.2315611763996E-01  0.5521438926587E-02
 0.2697501122563E-01  0.6850766057716E-02
 0.3356721818166E-01  0.8636579911861E-02
 0.4257877592683E-01  0.1088780981018E-01
 0.5378155284703E-01  0.1343192354490E-01
 0.6701227355341E-01  0.1609672882251E-01
 0.8209125927937E-01  0.1879660974670E-01
 0.9884532941247E-01  0.2146607101632E-01
 0.1171212646686E+00  0.2402658695914E-01
 0.1367868955104E+00  0.2637987980748E-01
 0.1577197364018E+00  0.2844960841573E-01
 0.1798095687482E+00  0.3015569840953E-01
 0.2029543402236E+00  0.3138966184729E-01
 0.2270493564574E+00  0.3206094539086E-01
 0.2519901684953E+00  0.3224004508044E-01
 0.2774817274177E+00  0.3078630295809E-01
 0.3025305894145E+00  0.2644122973854E-01
 0.2547161135327E-01  0.3618209712000E-02
 0.2242566711994E-01  0.3525718032454E-02
 0.2281524284603E-01  0.3865411268366E-02
 0.2622924587274E-01  0.4555674811232E-02
 0.3230663634981E-01  0.5594989590722E-02
 0.4071574095474E-01  0.6992247741166E-02
 0.5124111332802E-01  0.8614295438956E-02
 0.6372213737270E-01  0.1032861795867E-01
 0.7798434740758E-01  0.1207073344160E-01
 0.9386118885226E-01  0.1379062288925E-01
 0.1112055994085E+00  0.1542578556014E-01
 0.1298906626071E+00  0.1689594394918E-01
 0.1497991022684E+00  0.1813719608129E-01
 0.1708258468430E+00  0.1908241685168E-01
 0.1928744238974E+00  0.1964147744770E-01
 0.2158461465845E+00  0.1973876020506E-01
 0.2396393387637E+00  0.1943180984362E-01
 0.2640119956058E+00  0.1779413708644E-01
 0.2881456902925E+00  0.1379783089006E-01
 0.2562676326050E-01  0.2926676916308E-02
 0.2249110936531E-01  0.2490783487244E-02
 0.2263983613243E-01  0.2364031455999E-02
 0.2568323109716E-01  0.2483698774140E-02
 0.3128069218248E-01  0.2847402994941E-02
 0.3912415171447E-01  0.3462869522086E-02
 0.4900807032660E-01  0.4231466914197E-02
 0.6077267957897E-01  0.5055880895103E-02
 0.7424815431595E-01  0.5890527373283E-02
 0.8927416357871E-01  0.6699567080192E-02
 0.1057095261538E+00  0.7435637983515E-02
 0.1234324512174E+00  0.8036022236943E-02
 0.1423311170811E+00  0.8449814984075E-02
 0.1623059825492E+00  0.8623631334292E-02
 0.1832666253468E+00  0.8485993418860E-02
 0.2051212395015E+00  0.7975742014037E-02
 0.2277717174723E+00  0.7135577738506E-02
 0.2510215191251E+00  0.5245530678957E-02
 0.2742149302805E+00  0.1511205897637E-02
 0.2584842429790E-01  0.2265134435071E-02
 0.2267159834079E-01  0.1534921130339E-02
 0.2261940421383E-01  0.1001104595564E-02
 0.2532927678468E-01  0.6149545769214E-03
 0.3048520641843E-01  0.3715313376205E-03
 0.3780388591732E-01  0.2760689336152E-03
 0.4708693060787E-01  0.2602396556876E-03
 0.5817355368933E-01  0.2578100850980E-03
 0.7089800172649E-01  0.2397396671251E-03
 0.8510573895436E-01  0.1827832369346E-03
 0.1006610043968E+00  0.5346025780534E-04
 0.1174466436001E+00 -0.1942184514420E-03
 0.1353561073213E+00 -0.5978581771026E-03
 0.1542953451644E+00 -0.1196050764941E-02
 0.1741803787442E+00 -0.2040343090900E-02
 0.1949278414100E+00 -0.3176329330691E-02
 0.2164476690887E+00 -0.4576782206644E-02
 0.2385832929693E+00 -0.6769473226527E-02
 0.2608260682013E+00 -0.1032087877677E-01
 0.2612830693228E-01  0.1629223262447E-02
 0.2295601707711E-01  0.6480617429422E-03
 0.2274303258885E-01 -0.2384355758542E-03
 0.2515830232173E-01 -0.1069128332093E-02
 0.2991384477057E-01 -0.1853851639084E-02
 0.3675192750444E-01 -0.2590993210402E-02
 0.4547867493825E-01 -0.3322210320750E-02
 0.5593035818356E-01 -0.4086339123288E-02
 0.6794472928198E-01 -0.4898245592865E-02
 0.8137265107872E-01 -0.5770372401980E-02
 0.9608326020292E-01 -0.6723964965202E-02
 0.1119632900831E+00 -0.7789711122354E-02
 0.1289107843384E+00 -0.8992323368304E-02
 0.1468363042013E+00 -0.1035493299873E-01
 0.1656615131852E+00 -0.1190708841984E-01
 0.1853125999918E+00 -0.1367516626740E-01
 0.2057123695656E+00 -0.1564251953870E-01
 0.2267480890877E+00 -0.1815724576629E-01
 0.2480478334990E+00 -0.2159078207068E-01
 0.2645953734824E-01  0.1015080158632E-02
 0.2333387454066E-01 -0.1800956811131E-03
 0.2299918049705E-01 -0.1368231062390E-02
 0.2515999404909E-01 -0.2585891557373E-02
 0.2955819583913E-01 -0.3848849448405E-02
 0.3596241572923E-01 -0.5160312074434E-02
 0.4418070966950E-01 -0.6538231114151E-02
 0.5404445889488E-01 -0.7997315380281E-02
 0.6539430249494E-01 -0.9540437021991E-02
 0.7808619827472E-01 -0.1117102413425E-01
 0.9199376812295E-01 -0.1289998970657E-01
 0.1070068908883E+00 -0.1474477077756E-01
 0.1230273073994E+00 -0.1671874441178E-01
 0.1399685778050E+00 -0.1883051610490E-01
 0.1577554093573E+00 -0.2108706220778E-01
 0.1763213714261E+00 -0.2349073314353E-01
 0.1956053011417E+00 -0.2602523168919E-01
 0.2155327682546E+00 -0.2885337594189E-01
 0.2359066387180E+00 -0.3217473701496E-01
 0.5857763836551E-01 -0.2802781311494E-01
 0.8113413113962E-01 -0.3790099772108E-01
 0.1051470499903E+00 -0.5012514818649E-01
 0.1302213207752E+00 -0.6446889836504E-01
 0.1560753241896E+00 -0.8067834830988E-01
 0.1824861877446E+00 -0.9849974978086E-01
 0.2092451638402E+00 -0.1176849843404E+00
 0.2361850947475E+00 -0.1379990152187E+00
 0.2631848918304E+00 -0.1592299186750E+00
 0.2901435599246E+00 -0.1811875470903E+00
 0.3169660990441E+00 -0.2036988842459E+00
 0.3435669319788E+00 -0.2266104083321E+00
 0.3698858695214E+00 -0.2497991817952E+00
 0.3958836042773E+00 -0.2731710453352E+00
 0.4215311151036E+00 -0.2966522043053E+00
 0.4468118332133E+00 -0.3201896927189E+00
 0.4717430244819E+00 -0.3437693701696E+00
 0.4960628661298E+00 -0.3671636300218E+00
 0.5194005875041E+00 -0.3900280818231E+00
 0.6090510281229E-01 -0.2948767018401E-01
 0.8578328599113E-01 -0.4047926638141E-01
 0.1121862201585E+00 -0.5410491693207E-01
 0.1396509372757E+00 -0.7007846424502E-01
 0.1678680010280E+00 -0.8808928692183E-01
 0.1965903803767E+00 -0.1078266219934E+00
 0.2255655901678E+00 -0.1289777304761E+00
 0.2545944348056E+00 -0.1512457308941E+00
 0.2835468584200E+00 -0.1743732310264E+00
 0.3123237613169E+00 -0.1981392034164E+00
 0.3408344329282E+00 -0.2223482802205E+00
 0.3689961341248E+00 -0.2468295993927E+00
 0.3967550614962E+00 -0.2714523454979E+00
 0.4240736551417E+00 -0.2961176569146E+00
 0.4509140931258E+00 -0.3207446912670E+00
 0.4772501694554E+00 -0.3452786598435E+00
 0.5031190388098E+00 -0.3697327072240E+00
 0.5279977144232E+00 -0.3936805526751E+00
 0.5511342036826E+00 -0.4164707851033E+00
 0.6342109515797E-01 -0.3104287465689E-01
 0.9078115495737E-01 -0.4327742031546E-01
 0.1197000156363E+00 -0.5846122231797E-01
 0.1496446258846E+00 -0.7622901681645E-01
 0.1802783787390E+00 -0.9620182691999E-01
 0.2113315247022E+00 -0.1180021940844E+00
 0.2425069554247E+00 -0.1412362034534E+00
 0.2735794469499E+00 -0.1655323948434E+00
 0.3044190221588E+00 -0.1905843418743E+00
 0.3349360341788E+00 -0.2161412931125E+00
 0.3650498724610E+00 -0.2419885223109E+00
 0.3946851226943E+00 -0.2679417876930E+00
 0.4237976981042E+00 -0.2938682148594E+00
 0.4523541282175E+00 -0.3196704097381E+00
 0.4803097368627E+00 -0.3452665763451E+00
 0.5076303564986E+00 -0.3706067337864E+00
 0.5343732330656E+00 -0.3957372334726E+00
 0.5597638298528E+00 -0.4200368609741E+00
 0.5826752967689E+00 -0.4425738570323E+00
 0.6614601805475E-01 -0.3270948747878E-01
 0.9615723960718E-01 -0.4633473192992E-01
 0.1277151206463E+00 -0.6325146770053E-01
 0.1602146990686E+00 -0.8299384634200E-01
 0.1932972389651E+00 -0.1050995047732E+00
 0.2266740661404E+00 -0.1291132120921E+00
 0.2600056364097E+00 -0.1545404854448E+00
 0.2930500185256E+00 -0.1809222430495E+00
 0.3256881733202E+00 -0.2079018806885E+00
 0.3578480518370E+00 -0.2352028558279E+00
 0.3894650344098E+00 -0.2625964812449E+00
 0.4204754293111E+00 -0.2898910325435E+00
 0.4508478364116E+00 -0.3169587889656E+00
 0.4805547582980E+00 -0.3437105687736E+00
 0.5095460149110E+00 -0.3700695223838E+00
 0.5377798151232E+00 -0.3959963872618E+00
 0.5653305317735E+00 -0.4215754486572E+00
 0.5911830723606E+00 -0.4460016959317E+00
 0.6138475380843E+00 -0.4681060413442E+00
 0.6910576083116E-01 -0.3450638492365E-01
 0.1019452264938E+00 -0.4969503463281E-01
 0.1362585013565E+00 -0.6854248470167E-01
 0.1713698568168E+00 -0.9045580696464E-01
 0.2069071738907E+00 -0.1148733684724E+00
 0.2425703483826E+00 -0.1412500166377E+00
 0.2779837314637E+00 -0.1689690728944E+00
 0.3129016998023E+00 -0.1974715000718E+00
 0.3472283425099E+00 -0.2263527718900E+00
 0.3809173309645E+00 -0.2553178624662E+00
 0.4139255077992E+00 -0.2841321016229E+00
 0.4462047463246E+00 -0.3126039622709E+00
 0.4777384179202E+00 -0.3406191143935E+00
 0.5085058508264E+00 -0.3681035812889E+00
 0.5384515510301E+00 -0.3949912346715E+00
 0.5675248052348E+00 -0.4212593381583E+00
 0.5958112669137E+00 -0.4470349149183E+00
 0.6220703677360E+00 -0.4713479810320E+00
 0.6444694826384E+00 -0.4928453323610E+00
 0.7233202776943E-01 -0.3645577198737E-01
 0.1081832802543E+00 -0.5340983828658E-01
 0.1453573216631E+00 -0.7441118068153E-01
 0.1831136159066E+00 -0.9870785061691E-01
 0.2210805606814E+00 -0.1256214904394E+00
 0.2589587659446E+00 -0.1545049124887E+00
 0.2963481525819E+00 -0.1845961718431E+00
 0.3330160379199E+00 -0.2152260578845E+00
 0.3689022941426E+00 -0.2459489372382E+00
 0.4039936157849E+00 -0.2764624875138E+00
 0.4382727518489E+00 -0.3065366520368E+00
 0.4717099092273E+00 -0.3359893400712E+00
 0.5043039655641E+00 -0.3647285223066E+00
 0.5360405388249E+00 -0.3927024203287E+00
 0.5668576878559E+00 -0.4198612433074E+00
 0.5966930199046E+00 -0.4462045867834E+00
 0.6256357084712E+00 -0.4719070219784E+00
 0.6522398877628E+00 -0.4958581507987E+00
 0.6743590081413E+00 -0.5165809708693E+00
 0.7586317101676E-01 -0.3858444356925E-01
 0.1149142480641E+00 -0.5754013609094E-01
 0.1550380838800E+00 -0.8094631788184E-01
 0.1954425176453E+00 -0.1078535428191E+00
 0.2357773128345E+00 -0.1374481636214E+00
 0.2757620375935E+00 -0.1689698390605E+00
 0.3149901556185E+00 -0.2014882140067E+00
 0.3532615532503E+00 -0.2342176060492E+00
 0.3905637063244E+00 -0.2666838585796E+00
 0.4269218603105E+00 -0.2985927445388E+00
 0.4623474510734E+00 -0.3297318512063E+00
 0.4968302448949E+00 -0.3599389206055E+00
 0.5303836934107E+00 -0.3891533233469E+00
 0.5629976442217E+00 -0.4173520816721E+00
 0.5946013198032E+00 -0.4445069012930E+00
 0.6251168080633E+00 -0.4706451396757E+00
 0.6546278685762E+00 -0.4959930706845E+00
 0.6815085690101E+00 -0.5193284771050E+00
 0.7033349284965E+00 -0.5391160228591E+00
 0.7974531041623E-01 -0.4092503223342E-01
 0.1221857611997E+00 -0.6215864462145E-01
 0.1653253619923E+00 -0.8825043219463E-01
 0.2083438219500E+00 -0.1180076524625E+00
 0.2509424258642E+00 -0.1504625591670E+00
 0.2928856931868E+00 -0.1847331960631E+00
 0.3337855102045E+00 -0.2196995509534E+00
 0.3734955496197E+00 -0.2544593287896E+00
 0.4120601605704E+00 -0.2885292797579E+00
 0.4495458604156E+00 -0.3216428232630E+00
 0.4859933174161E+00 -0.3536201042800E+00
 0.5214112038922E+00 -0.3843295713505E+00
 0.5558248126285E+00 -0.4137506075168E+00
 0.5892246762904E+00 -0.4418947061125E+00
 0.6215277213843E+00 -0.4687592952726E+00
 0.6526359486135E+00 -0.4944039766785E+00
 0.6826181474228E+00 -0.5191096169270E+00
 0.7096980243380E+00 -0.5415732812416E+00
 0.7312175318330E+00 -0.5602704598031E+00
 0.8403374838984E-01 -0.4351764333125E-01
 0.1300502055461E+00 -0.6735257395736E-01
 0.1762400062542E+00 -0.9644212164607E-01
 0.2217926211843E+00 -0.1292965195347E+00
 0.2665032929454E+00 -0.1647765983879E+00
 0.3102169561016E+00 -0.2018755673455E+00
 0.3525955467653E+00 -0.2392672739090E+00
 0.3935669346355E+00 -0.2759413694032E+00
 0.4332369918410E+00 -0.3114324151464E+00
 0.4717124563595E+00 -0.3455244949493E+00
 0.5090611564266E+00 -0.3780860509908E+00
 0.5453080138861E+00 -0.4090266154507E+00
 0.5804856935848E+00 -0.4383729155765E+00
 0.6145805560204E+00 -0.4661750841177E+00
 0.6474929245804E+00 -0.4924590687623E+00
 0.6790997190523E+00 -0.5173197008195E+00
 0.7094450359763E+00 -0.5410936163406E+00
 0.7366355826262E+00 -0.5624292987478E+00
 0.7578287143207E+00 -0.5798845176090E+00
 0.8879474344089E-01 -0.4641208462129E-01
 0.1385644771217E+00 -0.7322728164234E-01
 0.1877966443487E+00 -0.1056587853552E+00
 0.2357482551644E+00 -0.1418580072349E+00
 0.2823669080089E+00 -0.1805016376446E+00
 0.3276243475809E+00 -0.2204640717237E+00
 0.3712694271293E+00 -0.2602052289162E+00
 0.4133202331230E+00 -0.2986264836670E+00
 0.4539419696105E+00 -0.3353142263487E+00
 0.4932761042344E+00 -0.3701280312412E+00
 0.5314129049552E+00 -0.4029995983643E+00
 0.5683890423662E+00 -0.4338882991511E+00
 0.6042385954914E+00 -0.4628735436247E+00
 0.6389378278206E+00 -0.4900463361169E+00
 0.6723655138550E+00 -0.5154621212152E+00
 0.7043683181522E+00 -0.5392519934866E+00
 0.7349562016180E+00 -0.5618075323524E+00
 0.7621549288052E+00 -0.5817602289088E+00
 0.7829919777735E+00 -0.5978223056496E+00
 0.9410774805443E-01 -0.4967104796415E-01
 0.1477893577889E+00 -0.7991126345360E-01
 0.2000001609988E+00 -0.1160599208612E+00
 0.2501498753394E+00 -0.1558406410940E+00
 0.2984171847867E+00 -0.1977433866375E+00
 0.3449585039907E+00 -0.2405450521550E+00
 0.3896480237852E+00 -0.2824975301605E+00
 0.4326008596209E+00 -0.3224466085854E+00
 0.4740305721701E+00 -0.3600694918982E+00
 0.5141034179358E+00 -0.3953250207396E+00
 0.5529252383346E+00 -0.4282204057533E+00
 0.5905385561220E+00 -0.4587710806379E+00
 0.6269717645022E+00 -0.4871121171144E+00
 0.6621842714172E+00 -0.5133754978518E+00
 0.6960278716075E+00 -0.5376450570946E+00
 0.7283138192707E+00 -0.5600868704512E+00
 0.7590092740654E+00 -0.5811444538651E+00
 0.7860966866582E+00 -0.5994615587501E+00
 0.8065324858363E+00 -0.6139758266552E+00
 0.1000682717663E+00 -0.5337484925913E-01
 0.1577882058734E+00 -0.8756321280271E-01
 0.2128406487946E+00 -0.1278310342745E+00
 0.2649110170630E+00 -0.1714011998741E+00
 0.3145128739189E+00 -0.2165942140083E+00
 0.3620549310715E+00 -0.2621349629362E+00
 0.4075697664081E+00 -0.3060923696786E+00
 0.4512614631522E+00 -0.3473015042848E+00
 0.4933713223186E+00 -0.3855694494208E+00
 0.5340771138345E+00 -0.4209731760187E+00
 0.5734923472424E+00 -0.4536034143257E+00
 0.6116586822326E+00 -0.4835351957921E+00
 0.6485908544175E+00 -0.5109600039681E+00
 0.6842239641154E+00 -0.5360487548315E+00
 0.7183770092288E+00 -0.5589102622528E+00
 0.7508208872399E+00 -0.5797417015697E+00
 0.7814726563722E+00 -0.5990332727295E+00
 0.8083092901312E+00 -0.6154658561590E+00
 0.8282774501822E+00 -0.6282697396066E+00
 0.1067916176348E+00 -0.5762884876735E-01
 0.1686243862748E+00 -0.9638238734154E-01
 0.2262860318996E+00 -0.1411880450357E+00
 0.2799131763819E+00 -0.1886993783303E+00
 0.3304870464968E+00 -0.2371217041123E+00
 0.3787396795474E+00 -0.2852098533925E+00
 0.4248785643881E+00 -0.3308978257302E+00
 0.4691686660482E+00 -0.3730610536095E+00
 0.5118503082810E+00 -0.4116674585990E+00
 0.5530987608576E+00 -0.4469225705180E+00
 0.5930276751581E+00 -0.4790045557745E+00
 0.6316706026098E+00 -0.5080498759175E+00
 0.6690197800706E+00 -0.5343052673055E+00
 0.7049779217292E+00 -0.5579761996390E+00
 0.7393251552735E+00 -0.5791905149056E+00
 0.7717875208538E+00 -0.5981699214039E+00
 0.8022267307957E+00 -0.6154439632214E+00
 0.8286505846641E+00 -0.6297488231825E+00
 0.8480572944424E+00 -0.6406673688344E+00
 0.1144178438595E+00 -0.6257574894442E-01
 0.1803562522506E+00 -0.1066244260120E+00
 0.2402710561249E+00 -0.1563814708263E+00
 0.2949988063126E+00 -0.2078868347896E+00
 0.3461499313438E+00 -0.2593521681818E+00
 0.3948389793952E+00 -0.3096951809708E+00
 0.4414331044008E+00 -0.3567827045555E+00
 0.4862087270465E+00 -0.3995726466030E+00
 0.5293738057604E+00 -0.4382069548361E+00
 0.5710900417620E+00 -0.4730217240213E+00
 0.6114648009585E+00 -0.5042855781588E+00
 0.6505152299073E+00 -0.5321978954843E+00
 0.6882011490281E+00 -0.5570571806804E+00
 0.7243844016106E+00 -0.5790960923925E+00
 0.7588002371751E+00 -0.5984529541186E+00
 0.7911261039925E+00 -0.6153652142712E+00
 0.8211659198269E+00 -0.6303929339581E+00
 0.8469907772150E+00 -0.6423364806535E+00
 0.8657083215661E+00 -0.6511786594598E+00
 0.1231184622260E+00 -0.6841741709135E-01
 0.1930271286801E+00 -0.1186265713720E+00
 0.2546806418148E+00 -0.1736978503812E+00
 0.3099654122362E+00 -0.2290855639146E+00
 0.3612982768825E+00 -0.2832485147648E+00
 0.4101930987627E+00 -0.3354609268260E+00
 0.4571151515241E+00 -0.3835865975200E+00
 0.5022899120198E+00 -0.4266733475476E+00
 0.5458684604223E+00 -0.4650286176476E+00
 0.5879930748629E+00 -0.4991214764492E+00
 0.6287580781314E+00 -0.5293176364662E+00
 0.6681536334834E+00 -0.5558799083631E+00
 0.7060962649111E+00 -0.5791506359018E+00
 0.7423988228996E+00 -0.5993784987268E+00
 0.7767463633789E+00 -0.6167019605278E+00
 0.8087651235275E+00 -0.6313647236121E+00
 0.8382022343605E+00 -0.6439483041833E+00
 0.8632176422694E+00 -0.6533139434417E+00
 0.8810780351310E+00 -0.6598710371291E+00
 0.1331053893139E+00 -0.7545744637453E-01
 0.2066445319461E+00 -0.1328493713053E+00
 0.2693247404788E+00 -0.1934508356257E+00
 0.3245660864459E+00 -0.2523457020683E+00
 0.3757357000316E+00 -0.3086867527079E+00
 0.4246717045227E+00 -0.3623322974970E+00
 0.4718316931594E+00 -0.4111424413139E+00
 0.5173401818226E+00 -0.4542004598816E+00
 0.5612803347075E+00 -0.4919722431742E+00
 0.6037712004918E+00 -0.5250760269108E+00
 0.6448836079004E+00 -0.5539850108671E+00
 0.6845670812896E+00 -0.5790197154503E+00
 0.7226843779792E+00 -0.6005505603141E+00
 0.7589931569032E+00 -0.6188276862586E+00
 0.7931244464992E+00 -0.6339801531968E+00
 0.8246520333291E+00 -0.6462505583112E+00
 0.8532711730196E+00 -0.6562347704312E+00
 0.8772452951032E+00 -0.6628362607749E+00
 0.8940349339552E+00 -0.6668844931756E+00
 0.1446424946431E+00 -0.8419257194400E-01
 0.2211331299180E+00 -0.1499507625586E+00
 0.2839039046685E+00 -0.2159333715080E+00
 0.3385298366496E+00 -0.2775711566485E+00
 0.3893080373630E+00 -0.3354475201585E+00
 0.4381778348497E+00 -0.3901368485058E+00
 0.4855067743916E+00 -0.4392973181860E+00
 0.5313031441441E+00 -0.4819901805646E+00
 0.5755758695681E+00 -0.5188715159207E+00
 0.6184115604071E+00 -0.5507441555605E+00
 0.6598401741929E+00 -0.5781919077173E+00
 0.6997558466104E+00 -0.6015710825318E+00
 0.7379607060970E+00 -0.6212553375173E+00
 0.7741547317121E+00 -0.6374821667456E+00
 0.8079132078605E+00 -0.6503664745569E+00
 0.8387578090820E+00 -0.6601487092155E+00
 0.8663410290777E+00 -0.6674371079709E+00
 0.8890284475562E+00 -0.6711415527226E+00
 0.9044857635757E+00 -0.6724527558756E+00
 0.1580478212377E+00 -0.9556488506329E-01
 0.2362265063540E+00 -0.1708892661051E+00
 0.2979715586275E+00 -0.2412698137110E+00
 0.3516449734889E+00 -0.3043826523314E+00
 0.4019263158425E+00 -0.3633190974891E+00
 0.4506262208464E+00 -0.4187535375691E+00
 0.4980701386028E+00 -0.4679092504018E+00
 0.5441383621630E+00 -0.5098590954876E+00
 0.5887481345103E+00 -0.5455470650225E+00
 0.6319287451037E+00 -0.5759979960119E+00
 0.6736481114024E+00 -0.6018743837518E+00
 0.7137357645498E+00 -0.6235240203246E+00
 0.7519331337109E+00 -0.6412973700655E+00
 0.7878847815464E+00 -0.6554111405380E+00
 0.8211107437972E+00 -0.6659711760532E+00
 0.8510835036370E+00 -0.6732236809248E+00
 0.8774267422918E+00 -0.6778003498506E+00
 0.8985846578580E+00 -0.6785649953661E+00
 0.9124057336039E+00 -0.6769330689457E+00
 0.1736845533961E+00 -0.1116238181232E+00
 0.2511010057910E+00 -0.1972326147571E+00
 0.3110872164246E+00 -0.2685736657549E+00
 0.3638749036476E+00 -0.3323823640689E+00
 0.4135172769698E+00 -0.3922149503562E+00
 0.4619163861605E+00 -0.4481195802941E+00
 0.5094512864306E+00 -0.4968084646875E+00
 0.5558352131853E+00 -0.5375722274790E+00
 0.6008276004642E+00 -0.5718153995211E+00
 0.6443645413282E+00 -0.6007459665097E+00
 0.6863436146056E+00 -0.6250126971814E+00
 0.7265326110217E+00 -0.6449057695010E+00
 0.7646189312771E+00 -0.6607385704346E+00
 0.8001964641144E+00 -0.6727101274835E+00
 0.8327365500902E+00 -0.6809242026429E+00
 0.8616689293990E+00 -0.6856691307147E+00
 0.8866077913143E+00 -0.6876211934100E+00
 0.9060271791623E+00 -0.6855463817283E+00
 0.9178920814470E+00 -0.6808457384499E+00
 0.2604404852762E+00 -0.4501244900379E-01
 0.2734153197292E+00 -0.3558072658242E-01
 0.2870622611730E+00 -0.2554384337437E-01
 0.3013068572145E+00 -0.1500286591894E-01
 0.3160749309127E+00 -0.4066754477434E-02
 0.3312791012496E+00  0.7161052365276E-02
 0.3468217583317E+00  0.1858735595439E-01
 0.3625975116186E+00  0.3013255360150E-01
 0.3784975679535E+00  0.4173380333315E-01
 0.3944151978044E+00  0.5334762769830E-01
 0.4102520100413E+00  0.6495147070877E-01
 0.4259244122820E+00  0.7654372427273E-01
 0.4413694027548E+00  0.8814181739732E-01
 0.4565485859850E+00  0.9977814321959E-01
 0.4714492397048E+00  0.1114939552585E+00
 0.4860815996689E+00  0.1233318896539E+00
 0.5004724342793E+00  0.1353283037831E+00
 0.5146561482090E+00  0.1475067767264E+00
 0.5286659929210E+00  0.1598737100093E+00
 0.2645414227796E+00 -0.5442329533282E-01
 0.2775818365477E+00 -0.4564596618052E-01
 0.2912971943883E+00 -0.3627578546397E-01
 0.3056329312291E+00 -0.2637878648427E-01
 0.3205200574141E+00 -0.1605629899656E-01
 0.3358776394489E+00 -0.5414824276607E-02
 0.3516114063245E+00  0.5444192936044E-02
 0.3676153888390E+00  0.1643035105787E-01
 0.3837754659012E+00  0.2746874924157E-01
 0.3999747984287E+00  0.3850370776845E-01
 0.4161007464731E+00  0.4950150419212E-01
 0.4320527779102E+00  0.6045164859672E-01
 0.4477505175859E+00  0.7136615569937E-01
 0.4631406440364E+00  0.8227635400258E-01
 0.4782009564595E+00  0.9322706463344E-01
 0.4929399664175E+00  0.1042685613235E+00
 0.5073912134198E+00  0.1154475091661E+00
 0.5216033784479E+00  0.1267987150794E+00
 0.5356289078508E+00  0.1383393952243E+00
 0.2686310102813E+00 -0.6412996230081E-01
 0.2816298819130E+00 -0.5606580178894E-01
 0.2952781554703E+00 -0.4739625479800E-01
 0.3095521468875E+00 -0.3818432688745E-01
 0.3243987175461E+00 -0.2851904832331E-01
 0.3397470609703E+00 -0.1850378361917E-01
 0.3555103527674E+00 -0.8243528379554E-02
 0.3715863624822E+00  0.2163051412354E-02
 0.3878599856148E+00  0.1262975034115E-01
 0.4042078699582E+00  0.2308792475577E-01
 0.4205051841743E+00  0.3349065382458E-01
 0.4366342613395E+00  0.4381556160437E-01
 0.4524944960390E+00  0.5406569018010E-01
 0.4680122739575E+00  0.6426774742798E-01
 0.4831489722414E+00  0.7446720933723E-01
 0.4979045170360E+00  0.8472028293254E-01
 0.5123143207579E+00  0.9508370139230E-01
 0.5264392639754E+00  0.1056044679792E+00
 0.5403518305712E+00  0.1163121575171E+00
 0.2727176125031E+00 -0.7410478587160E-01
 0.2855537055944E+00 -0.6680149653359E-01
 0.2990040013441E+00 -0.5887464375898E-01
 0.3130673255058E+00 -0.5038486132745E-01
 0.3277109059873E+00 -0.4141382748872E-01
 0.3428796609736E+00 -0.3205856442199E-01
 0.3584991755666E+00 -0.2242331277758E-01
 0.3744764125773E+00 -0.1261141128115E-01
 0.3907010881056E+00 -0.2718297110701E-02
 0.4070489741967E+00  0.7174803569278E-02
 0.4233875958645E+00  0.1700648143081E-01
 0.4395845175330E+00  0.2673969735183E-01
 0.4555180480041E+00  0.3636463166779E-01
 0.4710895835091E+00  0.4589897225714E-01
 0.4862358193568E+00  0.5538474763960E-01
 0.5009378365164E+00  0.6488115393690E-01
 0.5152232958207E+00  0.7445380022030E-01
 0.5291590048616E+00  0.8416236240970E-01
 0.5428348589727E+00  0.9405011334371E-01
 0.2768188137933E+00 -0.8432204501490E-01
 0.2893732822550E+00 -0.7781344572966E-01
 0.3024996184604E+00 -0.7066454497383E-01
 0.3162128399256E+00 -0.6293177991793E-01
 0.3304991386109E+00 -0.5468863353233E-01
 0.3453218131474E+00 -0.4602421039398E-01
 0.3606232109337E+00 -0.3703815793232E-01
 0.3763249292285E+00 -0.2783434049736E-01
 0.3923280635709E+00 -0.1851408889625E-01
 0.4085148011429E+00 -0.9169408977156E-02
 0.4247522384311E+00  0.1236892088650E-03
 0.4408990440549E+00  0.9311363547702E-02
 0.4568153723004E+00  0.1836695537489E-01
 0.4723759908218E+00  0.2729387718723E-01
 0.4874856656756E+00  0.3612514126800E-01
 0.5020942293705E+00  0.4491831231060E-01
 0.5162067125641E+00  0.5374537533312E-01
 0.5298828767091E+00  0.6267877915042E-01
 0.5432228979537E+00  0.7177734187100E-01
 0.2809812354616E+00 -0.9476444832138E-01
 0.2931684904282E+00 -0.8907611984793E-01
 0.3058809020226E+00 -0.8273670746592E-01
 0.3191439950346E+00 -0.7579538459822E-01
 0.3329598672319E+00 -0.6831565107900E-01
 0.3473098340030E+00 -0.6037623067290E-01
 0.3621549733054E+00 -0.5206864036542E-01
 0.3774353546167E+00 -0.4349284693881E-01
 0.3930690436263E+00 -0.3475174824679E-01
 0.4089518771151E+00 -0.2594479992501E-01
 0.4249589255063E+00 -0.1716103528737E-01
 0.4409485260732E+00 -0.8471805914261E-02
 0.4567697572180E+00  0.7617970104487E-04
 0.4722741090035E+00  0.8466577951059E-02
 0.4873316060303E+00  0.1671649036972E-01
 0.5018502820462E+00  0.2487508007006E-01
 0.5157951933235E+00  0.3301598825141E-01
 0.5291996504787E+00  0.4122321395404E-01
 0.5421600486008E+00  0.4957323534971E-01
 0.2852467322181E+00 -0.1054171225739E+00
 0.2970102166105E+00 -0.1005708331737E+00
 0.3092493028468E+00 -0.9507178435311E-01
 0.3219954383660E+00 -0.8895940995557E-01
 0.3352627612836E+00 -0.8228521195547E-01
 0.3490484094805E+00 -0.7511501383207E-01
 0.3633318468531E+00 -0.6752854458138E-01
 0.3780732317060E+00 -0.5961714085739E-01
 0.3932113413458E+00 -0.5147995804322E-01
 0.4086617111157E+00 -0.4321886434116E-01
 0.4243157335589E+00 -0.3493211007231E-01
 0.4400415894775E+00 -0.2670692831417E-01
 0.4556880697978E+00 -0.1861141095248E-01
 0.4710925643336E+00 -0.1068635103823E-01
 0.4860945925480E+00 -0.2938295161651E-02
 0.5005558125887E+00  0.4664158966279E-02
 0.5143854588997E+00  0.1218796920615E-01
 0.5275653932750E+00  0.1972449459781E-01
 0.5401628248359E+00  0.2736963637302E-01
 0.2896554733169E+00 -0.1162659328063E+00
 0.3009666636468E+00 -0.1122828929643E+00
 0.3127023429717E+00 -0.1076565893943E+00
 0.3248962572798E+00 -0.1024153435409E+00
 0.3375706163718E+00 -0.9659734473138E-01
 0.3507350552684E+00 -0.9025354007565E-01
 0.3643852312811E+00 -0.8344867013519E-01
 0.3785007077087E+00 -0.7626078659576E-01
 0.3930422476198E+00 -0.6877939432219E-01
 0.4079488403095E+00 -0.6110219843230E-01
 0.4231349280638E+00 -0.5333035699158E-01
 0.4384884784863E+00 -0.4556213829121E-01
 0.4538708155189E+00 -0.3788497677333E-01
 0.4691195277961E+00 -0.3036615063553E-01
 0.4840563348051E+00 -0.2304276168149E-01
 0.4985023935674E+00 -0.1591255244815E-01
 0.5123035779970E+00 -0.8928572217218E-02
 0.5253653582292E+00 -0.2002509751169E-02
 0.5376879537607E+00  0.4978872450275E-02
 0.2942496607916E+00 -0.1272981981924E+00
 0.3051111065306E+00 -0.1242034269439E+00
 0.3163456695517E+00 -0.1204868986055E+00
 0.3279866876665E+00 -0.1161657386090E+00
 0.3400607980884E+00 -0.1112646465708E+00
 0.3525863487094E+00 -0.1058188856513E+00
 0.3655717562718E+00 -0.9987616740020E-01
 0.3790133462707E+00 -0.9349753975646E-01
 0.3928925578011E+00 -0.8675728184349E-01
 0.4071725669937E+00 -0.7974168382275E-01
 0.4217945019590E+00 -0.7254648416378E-01
 0.4366735611266E+00 -0.6527266317770E-01
 0.4516955644219E+00 -0.5802025857426E-01
 0.4667148406096E+00 -0.5087990316623E-01
 0.4815550083196E+00 -0.4392195733586E-01
 0.4960153247488E+00 -0.3718360172089E-01
 0.5098870358501E+00 -0.3065548242870E-01
 0.5229861288068E+00 -0.2427242046912E-01
 0.5352044306225E+00 -0.1791711922414E-01
 0.2990717449057E+00 -0.1385017194298E+00
 0.3095184825632E+00 -0.1363275750589E+00
 0.3202880154278E+00 -0.1335650440297E+00
 0.3314114286304E+00 -0.1302211207075E+00
 0.3429167764665E+00 -0.1263080821861E+00
 0.3548274579381E+00 -0.1218461695674E+00
 0.3671606926733E+00 -0.1168657451176E+00
 0.3799256540758E+00 -0.1114089492514E+00
 0.3931210351787E+00 -0.1055308346968E+00
 0.4067319314871E+00 -0.9929986168090E-01
 0.4207259872774E+00 -0.9279752971739E-01
 0.4350488091918E+00 -0.8611680426507E-01
 0.4496187421202E+00 -0.7935886768592E-01
 0.4643212851275E+00 -0.7262757969090E-01
 0.4790038113784E+00 -0.6602088055798E-01
 0.4934721030847E+00 -0.5961826587209E-01
 0.5074920628866E+00 -0.5346363631359E-01
 0.5208042693286E+00 -0.4754407931446E-01
 0.5331679339885E+00 -0.4177119787332E-01
 0.3041666987170E+00 -0.1498660348776E+00
 0.3142702322343E+00 -0.1486568635178E+00
 0.3246486602242E+00 -0.1469035041682E+00
 0.3353297778614E+00 -0.1446047124088E+00
 0.3463408783286E+00 -0.1417624538606E+00
 0.3577073527457E+00 -0.1383840298009E+00
 0.3694514639656E+00 -0.1344840465293E+00
 0.3815909352419E+00 -0.1300862403075E+00
 0.3941371171861E+00 -0.1252251650155E+00
 0.4070925517721E+00 -0.1199476995674E+00
 0.4204477647437E+00 -0.1143142552012E+00
 0.4341771042720E+00 -0.1083994604450E+00
 0.4482334155044E+00 -0.1022919628269E+00
 0.4625413111532E+00 -0.9609278738137E-01
 0.4769888020630E+00 -0.8991138940722E-01
 0.4914171770511E+00 -0.8385805559197E-01
 0.5056096361653E+00 -0.7803052307584E-01
 0.5192811442611E+00 -0.7249147264046E-01
 0.5320815284913E+00 -0.6723238279104E-01
 0.3095633971212E+00 -0.1613707187978E+00
 0.3194172786883E+00 -0.1611759836066E+00
 0.3295018145011E+00 -0.1604909515518E+00
 0.3398411203372E+00 -0.1593085216811E+00
 0.3504603882319E+00 -0.1576231642209E+00
 0.3613847918650E+00 -0.1554324117245E+00
 0.3726385945297E+00 -0.1527383746940E+00
 0.3842441983869E+00 -0.1495492926669E+00
 0.3962209402074E+00 -0.1458811573461E+00
 0.4085834630801E+00 -0.1417594359038E+00
 0.4213394831713E+00 -0.1372208936865E+00
 0.4344867268362E+00 -0.1323154681466E+00
 0.4480087294357E+00 -0.1271080723827E+00
 0.4618690449940E+00 -0.1216800874731E+00
 0.4760031750292E+00 -0.1161300949691E+00
 0.4903071200059E+00 -0.1105730113251E+00
 0.5046206874384E+00 -0.1051359781116E+00
 0.5187026073174E+00 -0.9994756037422E-01
 0.5321907953955E+00 -0.9511171235237E-01
 0.3152738138694E+00 -0.1729839186609E+00
 0.3249787356586E+00 -0.1738495085383E+00
 0.3348748270889E+00 -0.1742870746416E+00
 0.3449826353229E+00 -0.1742861883460E+00
 0.3553246732786E+00 -0.1738369206818E+00
 0.3659246234995E+00 -0.1729307756109E+00
 0.3768067405559E+00 -0.1715617055921E+00
 0.3879952799668E+00 -0.1697272103962E+00
 0.3995138165859E+00 -0.1674295575959E+00
 0.4113843275205E+00 -0.1646771784728E+00
 0.4236259034193E+00 -0.1614862981908E+00
 0.4362529140185E+00 -0.1578828591668E+00
 0.4492723789051E+00 -0.1539047927887E+00
 0.4626801584539E+00 -0.1496046844227E+00
 0.4764553323897E+00 -0.1450528519088E+00
 0.4905516467026E+00 -0.1403407942745E+00
 0.5048839323773E+00 -0.1355848119021E+00
 0.5193047996906E+00 -0.1309290847679E+00
 0.5335613635230E+00 -0.1265462752484E+00
 0.3213025247526E+00 -0.1846683320926E+00
 0.3309610721242E+00 -0.1866331978239E+00
 0.3407769965555E+00 -0.1882389068958E+00
 0.3507677508992E+00 -0.1894740133487E+00
 0.3609532246787E+00 -0.1903270648567E+00
 0.3713552125332E+00 -0.1907871518870E+00
 0.3819970638654E+00 -0.1908445464616E+00
 0.3929034113651E+00 -0.1904914226425E+00
 0.4040998953732E+00 -0.1897226849789E+00
 0.4156128112402E+00 -0.1885369529523E+00
 0.4274686056871E+00 -0.1869377677109E+00
 0.4396931338757E+00 -0.1849351088271E+00
 0.4523105571960E+00 -0.1825473402226E+00
 0.4653417036893E+00 -0.1798037558346E+00
 0.4788016075384E+00 -0.1767479853954E+00
 0.4926957547049E+00 -0.1734426910061E+00
 0.5070141576071E+00 -0.1699763257183E+00
 0.5217216956072E+00 -0.1664735826309E+00
 0.5367405078542E+00 -0.1631131401151E+00
 0.3276501872692E+00 -0.1963841547040E+00
 0.3373651305592E+00 -0.1994792973085E+00
 0.3472100269471E+00 -0.2022885613400E+00
 0.3571999102713E+00 -0.2048012705433E+00
 0.3673525154050E+00 -0.2070066611691E+00
 0.3776879743177E+00 -0.2088942161814E+00
 0.3882286803524E+00 -0.2104540877203E+00
 0.3989992673458E+00 -0.2116775991662E+00
 0.4100266644001E+00 -0.2125578444196E+00
 0.4213402000783E+00 -0.2130904222615E+00
 0.4329717409184E+00 -0.2132743634147E+00
 0.4449558598907E+00 -0.2131133326425E+00
 0.4573300442319E+00 -0.2126172246866E+00
 0.4701349758617E+00 -0.2118043315877E+00
 0.4834149683622E+00 -0.2107043598421E+00
 0.4972187595976E+00 -0.2093627579130E+00
 0.5116011735005E+00 -0.2078471761430E+00
 0.5266269962221E+00 -0.2062576016565E+00
 0.5423816340252E+00 -0.2047437089555E+00
 0.3343144603565E+00 -0.2080906335925E+00
 0.3441880041965E+00 -0.2123390791725E+00
 0.3541707984718E+00 -0.2163770138482E+00
 0.3642761789942E+00 -0.2201956586318E+00
 0.3745203609309E+00 -0.2237862879830E+00
 0.3849223216031E+00 -0.2271404469113E+00
 0.3955038454442E+00 -0.2302502488272E+00
 0.4062897084853E+00 -0.2331087462926E+00
 0.4173079932990E+00 -0.2357103846520E+00
 0.4285905410448E+00 -0.2380515630938E+00
 0.4401735660650E+00 -0.2401313416469E+00
 0.4520984836633E+00 -0.2419523486795E+00
 0.4644130397069E+00 -0.2435219645067E+00
 0.4771728941826E+00 -0.2448538861612E+00
 0.4904439247528E+00 -0.2459702199666E+00
 0.5043057368794E+00 -0.2469043060486E+00
 0.5188573131629E+00 -0.2477045389205E+00
 0.5342266952960E+00 -0.2484394613235E+00
 0.5505889820424E+00 -0.2492037944937E+00
 0.3412902247989E+00 -0.2197471087375E+00
 0.3514235050803E+00 -0.2251643956603E+00
 0.3616520897239E+00 -0.2304464100809E+00
 0.3719882745700E+00 -0.2355867768715E+00
 0.3824473757436E+00 -0.2405793761363E+00
 0.3930477534051E+00 -0.2454184804187E+00
 0.4038109932781E+00 -0.2500989570983E+00
 0.4147622392124E+00 -0.2546165262204E+00
 0.4259306832617E+00 -0.2589680742364E+00
 0.4373502353184E+00 -0.2631520315991E+00
 0.4490604135262E+00 -0.2671688274754E+00
 0.4611075220745E+00 -0.2710214381429E+00
 0.4735462189470E+00 -0.2747160459858E+00
 0.4864416296422E+00 -0.2782628201016E+00
 0.4998722445339E+00 -0.2816768089669E+00
 0.5139339608594E+00 -0.2849788785532E+00
 0.5287457961426E+00 -0.2881964839105E+00
 0.5444579572610E+00 -0.2913636814756E+00
 0.5612619499583E+00 -0.2945188133608E+00
 0.3485697114594E+00 -0.2313138548248E+00
 0.3590623988028E+00 -0.2379088284670E+00
 0.3696429519797E+00 -0.2444416273716E+00
 0.3803231547340E+00 -0.2509082572966E+00
 0.3911179185304E+00 -0.2573051380454E+00
 0.4020453979096E+00 -0.2636291640682E+00
 0.4131272549769E+00 -0.2698778090755E+00
 0.4243890707387E+00 -0.2760492604415E+00
 0.4358609125415E+00 -0.2821425735831E+00
 0.4475780791499E+00 -0.2881578381139E+00
 0.4595820585240E+00 -0.2940963457775E+00
 0.4719217488957E+00 -0.2999607439918E+00
 0.4846550114799E+00 -0.3057551460298E+00
 0.4978506415731E+00 -0.3114851449398E+00
 0.5115908571655E+00 -0.3171576347280E+00
 0.5259743881074E+00 -0.3227802643506E+00
 0.5411201459214E+00 -0.3283602147465E+00
 0.5571710474039E+00 -0.3339017813489E+00
 0.5742968327754E+00 -0.3394022207506E+00
 0.3561427028991E+00 -0.2427528454711E+00
 0.3670927315026E+00 -0.2505287039075E+00
 0.3781292063011E+00 -0.2583115859167E+00
 0.3892637593001E+00 -0.2660994229446E+00
 0.4005112046051E+00 -0.2738906161811E+00
 0.4118896955391E+00 -0.2816840095217E+00
 0.4234210144254E+00 -0.2894788847132E+00
 0.4351309891496E+00 -0.2972749587579E+00
 0.4470500397772E+00 -0.3050723653309E+00
 0.4592138655334E+00 -0.3128716004222E+00
 0.4716642879762E+00 -0.3206734074427E+00
 0.4844502692801E+00 -0.3284785679663E+00
 0.4976291227751E+00 -0.3362875500174E+00
 0.5112679206987E+00 -0.3440999448246E+00
 0.5254450698656E+00 -0.3519135942318E+00
 0.5402519481798E+00 -0.3597232769790E+00
 0.5557943319632E+00 -0.3675187986956E+00
 0.5721931010762E+00 -0.3752823842525E+00
 0.5895835503330E+00 -0.3829854391539E+00
 0.3639968480091E+00 -0.2540284824414E+00
 0.3755003313153E+00 -0.2629840692232E+00
 0.3870941832077E+00 -0.2720104980452E+00
 0.3987900597848E+00 -0.2811068346729E+00
 0.4106027725719E+00 -0.2902725378609E+00
 0.4225504415104E+00 -0.2995073336625E+00
 0.4346547544431E+00 -0.3088110933416E+00
 0.4469413209096E+00 -0.3181836909041E+00
 0.4594401130952E+00 -0.3276248175778E+00
 0.4721859888637E+00 -0.3371337288369E+00
 0.4852192904647E+00 -0.3467088953617E+00
 0.4985865066842E+00 -0.3563475230425E+00
 0.5123409735443E+00 -0.3660448994625E+00
 0.5265435652911E+00 -0.3757935169699E+00
 0.5412632884410E+00 -0.3855819198901E+00
 0.5565776331866E+00 -0.3953932355750E+00
 0.5725724731698E+00 -0.4052033965348E+00
 0.5893412888055E+00 -0.4149791622706E+00
 0.6069835075582E+00 -0.4246762060838E+00
 0.3721172403329E+00 -0.2651076370837E+00
 0.3842677956393E+00 -0.2752383291328E+00
 0.3965171557341E+00 -0.2854971005893E+00
 0.4088769825189E+00 -0.2958831076837E+00
 0.4213619610996E+00 -0.3063956838720E+00
 0.4339899065007E+00 -0.3170341108322E+00
 0.4467819450731E+00 -0.3277973810279E+00
 0.4597627507825E+00 -0.3386839271616E+00
 0.4729608188119E+00 -0.3496912963585E+00
 0.4864087574121E+00 -0.3608157470409E+00
 0.5001435740434E+00 -0.3720517454541E+00
 0.5142069230180E+00 -0.3833913378456E+00
 0.5286452685914E+00 -0.3948233749488E+00
 0.5435099000014E+00 -0.4063325703119E+00
 0.5588567161657E+00 -0.4178983872819E+00
 0.5747456881743E+00 -0.4294937766923E+00
 0.5912399302380E+00 -0.4410838310013E+00
 0.6084043946949E+00 -0.4526244734000E+00
 0.6263044246549E+00 -0.4640613686067E+00
 0.3804842445247E+00 -0.2759579728738E+00
 0.3933699443194E+00 -0.2872545116823E+00
 0.4063664117872E+00 -0.2987287921221E+00
 0.4194850960825E+00 -0.3103788367787E+00
 0.4327402083703E+00 -0.3222025007173E+00
 0.4461487471874E+00 -0.3341971427171E+00
 0.4597305646659E+00 -0.3463592848364E+00
 0.4735084482760E+00 -0.3586842386790E+00
 0.4875081925451E+00 -0.3711656809464E+00
 0.5017586327417E+00 -0.3837951635613E+00
 0.5162916075631E+00 -0.3965615463766E+00
 0.5311418109757E+00 -0.4094503443523E+00
 0.5463464857736E+00 -0.4224429872833E+00
 0.5619449060167E+00 -0.4355159999826E+00
 0.5779775981531E+00 -0.4486401250264E+00
 0.5944852706144E+00 -0.4617794271631E+00
 0.6115074694818E+00 -0.4748904313285E+00
 0.6290810581169E+00 -0.4879213413164E+00
 0.6472387695053E+00 -0.5008113104467E+00
 0.3890763800501E+00 -0.2865501400445E+00
 0.4027793866706E+00 -0.2989993469125E+00
 0.4166075878734E+00 -0.3116675810809E+00
 0.4305718094888E+00 -0.3245503892212E+00
 0.4446852330037E+00 -0.3376426975215E+00
 0.4589633109596E+00 -0.3509383939950E+00
 0.4734236943617E+00 -0.3644299057056E+00
 0.4880861421936E+00 -0.3781077554228E+00
 0.5029723835983E+00 -0.3919600872500E+00
 0.5181059021682E+00 -0.4059721557946E+00
 0.5335116094669E+00 -0.4201257790715E+00
 0.5492153724132E+00 -0.4343987620492E+00
 0.5652433583155E+00 -0.4487643057254E+00
 0.5816211649855E+00 -0.4631904253138E+00
 0.5983727149754E+00 -0.4776394085564E+00
 0.6155189152290E+00 -0.4920673470524E+00
 0.6330761127633E+00 -0.5064237634991E+00
 0.6510544019079E+00 -0.5206513263263E+00
 0.6694557390456E+00 -0.5346855885496E+00
 0.3978713356373E+00 -0.2968586943989E+00
 0.4124683380053E+00 -0.3104448096153E+00
 0.4272063304359E+00 -0.3242822525468E+00
 0.4420949320457E+00 -0.3383626827351E+00
 0.4571455514517E+00 -0.3526766058131E+00
 0.4723711741689E+00 -0.3672128812280E+00
 0.4877861419495E+00 -0.3819582431370E+00
 0.5034058909445E+00 -0.3968968251727E+00
 0.5192466194471E+00 -0.4120096852217E+00
 0.5353248583872E+00 -0.4272743329113E+00
 0.5516569194627E+00 -0.4426642697749E+00
 0.5682581979780E+00 -0.4581485597137E+00
 0.5851423113615E+00 -0.4736914547421E+00
 0.6023200608981E+00 -0.4892521067082E+00
 0.6197982131686E+00 -0.5047843973404E+00
 0.6375781058037E+00 -0.5202369134995E+00
 0.6556540834644E+00 -0.5355530794422E+00
 0.6740117430501E+00 -0.5506714382569E+00
 0.6926259301996E+00 -0.5655260848737E+00
 0.4068461688239E+00 -0.3068623107620E+00
 0.4224087983323E+00 -0.3215682995373E+00
 0.4381284808747E+00 -0.3365484933802E+00
 0.4540128919001E+00 -0.3517892251463E+00
 0.4700707548041E+00 -0.3672750878286E+00
 0.4863114962083E+00 -0.3829883840183E+00
 0.5027448829624E+00 -0.3989086197544E+00
 0.5193806055870E+00 -0.4150120365644E+00
 0.5362277830001E+00 -0.4312711811355E+00
 0.5532943707515E+00 -0.4476545196340E+00
 0.5705864611601E+00 -0.4641261115963E+00
 0.5881074698377E+00 -0.4806453657072E+00
 0.6058572094635E+00 -0.4971669058896E+00
 0.6238308574117E+00 -0.5136405800799E+00
 0.6420178258643E+00 -0.5300116449773E+00
 0.6604005363050E+00 -0.5462211574988E+00
 0.6789530777338E+00 -0.5622065985111E+00
 0.6976397022895E+00 -0.5779027488724E+00
 0.7164131228351E+00 -0.5932428298266E+00
 0.4159775577197E+00 -0.3165439726045E+00
 0.4325728419514E+00 -0.3323528277401E+00
 0.4493404305368E+00 -0.3484490480523E+00
 0.4662851783214E+00 -0.3648122033672E+00
 0.4834120530862E+00 -0.3814195078940E+00
 0.5007256724461E+00 -0.3982452299830E+00
 0.5182298189315E+00 -0.4152601919173E+00
 0.5359268971084E+00 -0.4324313496651E+00
 0.5538173154564E+00 -0.4497214493995E+00
 0.5718987886425E+00 -0.4670887663348E+00
 0.5901655660369E+00 -0.4844869394366E+00
 0.6086076013937E+00 -0.5018649220353E+00
 0.6272096865975E+00 -0.5191670731819E+00
 0.6459505776906E+00 -0.5363334181731E+00
 0.6648021407599E+00 -0.5533001103875E+00
 0.6837285332959E+00 -0.5700001331270E+00
 0.7026854088854E+00 -0.5863642924869E+00
 0.7216190823492E+00 -0.6023225666988E+00
 0.7404655519315E+00 -0.6178058548281E+00
 0.4252420126811E+00 -0.3258910642741E+00
 0.4429328460406E+00 -0.3427870578309E+00
 0.4608093918280E+00 -0.3599736787772E+00
 0.4788726691306E+00 -0.3774223225512E+00
 0.4971226622162E+00 -0.3951013956099E+00
 0.5155577751099E+00 -0.4129757101673E+00
 0.5341742583309E+00 -0.4310060299739E+00
 0.5529655746518E+00 -0.4491487419643E+00
 0.5719216990393E+00 -0.4673556402187E+00
 0.5910283653597E+00 -0.4855738195516E+00
 0.6102662853961E+00 -0.5037456839294E+00
 0.6296103767732E+00 -0.5218090798168E+00
 0.6490290461690E+00 -0.5396975672776E+00
 0.6684835822999E+00 -0.5573408438447E+00
 0.6879277185047E+00 -0.5746653408420E+00
 0.7073074261919E+00 -0.5915950237907E+00
 0.7265609911297E+00 -0.6080524558678E+00
 0.7456193825268E+00 -0.6239602367800E+00
 0.7644067180519E+00 -0.6392430268175E+00
 0.4346158579082E+00 -0.3348951882305E+00
 0.4534612945465E+00 -0.3528648491513E+00
 0.4725030431454E+00 -0.3711184020065E+00
 0.4917371162115E+00 -0.3896176920557E+00
 0.5111571178416E+00 -0.4083209216726E+00
 0.5307536763191E+00 -0.4271820705424E+00
 0.5505138251632E+00 -0.4461505404990E+00
 0.5704203127298E+00 -0.4651709714309E+00
 0.5904508538971E+00 -0.4841831965095E+00
 0.6105773561737E+00 -0.5031223193522E+00
 0.6307651657326E+00 -0.5219189034751E+00
 0.6509723900431E+00 -0.5404992667842E+00
 0.6711493648717E+00 -0.5587858724916E+00
 0.6912383463234E+00 -0.5766978045830E+00
 0.7111735268341E+00 -0.5941513132144E+00
 0.7308815031260E+00 -0.6110604171209E+00
 0.7502823750530E+00 -0.6273375635827E+00
 0.7692917208355E+00 -0.6428944021525E+00
 0.7878237357694E+00 -0.6576429223393E+00
 0.4440745441917E+00 -0.3435512433330E+00
 0.4641292769388E+00 -0.3625833617438E+00
 0.4843872138583E+00 -0.3818825789276E+00
 0.5048379931909E+00 -0.4013998461268E+00
 0.5254672538203E+00 -0.4210817812510E+00
 0.5462561236599E+00 -0.4408701843259E+00
 0.5671805998398E+00 -0.4607018543123E+00
 0.5882108304112E+00 -0.4805086150871E+00
 0.6093103369526E+00 -0.5002174944339E+00
 0.6304352322877E+00 -0.5197510194926E+00
 0.6515334964478E+00 -0.5390275999201E+00
 0.6725443814865E+00 -0.5579619690706E+00
 0.6933980246757E+00 -0.5764656457628E+00
 0.7140153638117E+00 -0.5944473655009E+00
 0.7343084745350E+00 -0.6118134096733E+00
 0.7541815027454E+00 -0.6284677304372E+00
 0.7735324718762E+00 -0.6443117221920E+00
 0.7922565042958E+00 -0.6592434077636E+00
 0.8102516238344E+00 -0.6731557113703E+00
 0.4535899493877E+00 -0.3518542447220E+00
 0.4749009998816E+00 -0.3719367077168E+00
 0.4964175643361E+00 -0.3922593108673E+00
 0.5181212875170E+00 -0.4127607906904E+00
 0.5399880515718E+00 -0.4333748100705E+00
 0.5619876024150E+00 -0.4540296776575E+00
 0.5840829674929E+00 -0.4746484355864E+00
 0.6062297238970E+00 -0.4951491784059E+00
 0.6283751916737E+00 -0.5154455200865E+00
 0.6504576296064E+00 -0.5354471526587E+00
 0.6724055086948E+00 -0.5550604486307E+00
 0.6941369357020E+00 -0.5741890549817E+00
 0.7155592980314E+00 -0.5927344116012E+00
 0.7365692047038E+00 -0.6105961012149E+00
 0.7570528115747E+00 -0.6276718964760E+00
 0.7768866503119E+00 -0.6438573010433E+00
 0.7959391634891E+00 -0.6590442507690E+00
 0.8140733264174E+00 -0.6731183798376E+00
 0.8311514534695E+00 -0.6859535073021E+00
 0.4631234480696E+00 -0.3597911601959E+00
 0.4857197829707E+00 -0.3808996614190E+00
 0.5085184154225E+00 -0.4022108268222E+00
 0.5314910852591E+00 -0.4236499199886E+00
 0.5546019314869E+00 -0.4451363558958E+00
 0.5778073334495E+00 -0.4665837776596E+00
 0.6010553902835E+00 -0.4879005402933E+00
 0.6242851734386E+00 -0.5089904178599E+00
 0.6474258734395E+00 -0.5297534258133E+00
 0.6703959411391E+00 -0.5500866859635E+00
 0.6931023012282E+00 -0.5698852715714E+00
 0.7154396934475E+00 -0.5890429625174E+00
 0.7372901743628E+00 -0.6074528192952E+00
 0.7585227876540E+00 -0.6250074498645E+00
 0.7789933773836E+00 -0.6415987908841E+00
 0.7985444639469E+00 -0.6571171423730E+00
 0.8170049735939E+00 -0.6714490593042E+00
 0.8341893631222E+00 -0.6844734206993E+00
 0.8498945505415E+00 -0.6960545394574E+00
 0.4726264330730E+00 -0.3673400665550E+00
 0.4965089726996E+00 -0.3894262321430E+00
 0.5205840680903E+00 -0.4116666214136E+00
 0.5448113881775E+00 -0.4339719144270E+00
 0.5691412602360E+00 -0.4562461904599E+00
 0.5935147826415E+00 -0.4783875561731E+00
 0.6178633709563E+00 -0.5002891647890E+00
 0.6421079788801E+00 -0.5218403991051E+00
 0.6661581735808E+00 -0.5429280929710E+00
 0.6899111851622E+00 -0.5634377118567E+00
 0.7132509959099E+00 -0.5832544236096E+00
 0.7360474833074E+00 -0.6022639790828E+00
 0.7581555755448E+00 -0.6203532965882E+00
 0.7794143085150E+00 -0.6374106080854E+00
 0.7996455688550E+00 -0.6533249808471E+00
 0.8186521196022E+00 -0.6679849829921E+00
 0.8362141317667E+00 -0.6812762394395E+00
 0.8520824508016E+00 -0.6930777556827E+00
 0.8659648032501E+00 -0.7032573772106E+00
 0.4820527351144E+00 -0.3744834099040E+00
 0.5071967444908E+00 -0.3974766972997E+00
 0.5325160976003E+00 -0.4205648948589E+00
 0.5579561192262E+00 -0.4436431606163E+00
 0.5834513885788E+00 -0.4665993956830E+00
 0.6089261422179E+00 -0.4893156472157E+00
 0.6342938603344E+00 -0.5116697920784E+00
 0.6594564254372E+00 -0.5335372436325E+00
 0.6843030999754E+00 -0.5547925607458E+00
 0.7087094521407E+00 -0.5753108923598E+00
 0.7325362620307E+00 -0.5949691991708E+00
 0.7556283523912E+00 -0.6136471782113E+00
 0.7778131945107E+00 -0.6312277920498E+00
 0.7988990211648E+00 -0.6475972823264E+00
 0.8186720064272E+00 -0.6626445404230E+00
 0.8368918038681E+00 -0.6762597469415E+00
 0.8532842755546E+00 -0.6883323660219E+00
 0.8675295275343E+00 -0.6987491722621E+00
 0.8792414202384E+00 -0.7073949169947E+00
 0.4913548503531E+00 -0.3812052993402E+00
 0.5177083273021E+00 -0.4050123482908E+00
 0.5442115255666E+00 -0.4288448809831E+00
 0.5707932704731E+00 -0.4525817975494E+00
 0.5973708731057E+00 -0.4760942792561E+00
 0.6238507690236E+00 -0.4992481998839E+00
 0.6501280753354E+00 -0.5219065558003E+00
 0.6760856440608E+00 -0.5439316722446E+00
 0.7015929245229E+00 -0.5651871137232E+00
 0.7265047518474E+00 -0.5855392827177E+00
 0.7506600338561E+00 -0.6048586869574E+00
 0.7738801880043E+00 -0.6230208351468E+00
 0.7959670573558E+00 -0.6399067068869E+00
 0.8166998855954E+00 -0.6554027511403E+00
 0.8358307381511E+00 -0.6694004159339E+00
 0.8530775272948E+00 -0.6817953326404E+00
 0.8681136461920E+00 -0.6924865524105E+00
 0.8805536398150E+00 -0.7013767859693E+00
 0.8899374700589E+00 -0.7083760712335E+00
 0.5004838948706E+00 -0.3874927215490E+00
 0.5279656295584E+00 -0.4119981586927E+00
 0.5555621462593E+00 -0.4364511842911E+00
 0.5831840479829E+00 -0.4607139236692E+00
 0.6107306025474E+00 -0.4846406649739E+00
 0.6380904468912E+00 -0.5080814791025E+00
 0.6651409922930E+00 -0.5308853888182E+00
 0.6917473285001E+00 -0.5529029490588E+00
 0.7177609796743E+00 -0.5739883032064E+00
 0.7430185801317E+00 -0.5940008003619E+00
 0.7673403576473E+00 -0.6128062250541E+00
 0.7905281836635E+00 -0.6302776580252E+00
 0.8123628277657E+00 -0.6462959914030E+00
 0.8325999132289E+00 -0.6607501706631E+00
 0.8509639176204E+00 -0.6735373368716E+00
 0.8671394607631E+00 -0.6845632038867E+00
 0.8807593466535E+00 -0.6937431810013E+00
 0.8913901405908E+00 -0.7010047379477E+00
 0.8985223102118E+00 -0.7062896308850E+00
 0.5093843617702E+00 -0.3933313863827E+00
 0.5378764506095E+00 -0.4183946974965E+00
 0.5664382622531E+00 -0.4433218824689E+00
 0.5949613204238E+00 -0.4679581120958E+00
 0.6233271947816E+00 -0.4921411840634E+00
 0.6514079373205E+00 -0.5157064631176E+00
 0.6790651773878E+00 -0.5384906154599E+00
 0.7061488676078E+00 -0.5603343224800E+00
 0.7324960034715E+00 -0.5810842816887E+00
 0.7579292735944E+00 -0.6005947346221E+00
 0.7822554387285E+00 -0.6187286395092E+00
 0.8052631500453E+00 -0.6353585698061E+00
 0.8267198325039E+00 -0.6503674532728E+00
 0.8463671700397E+00 -0.6636493595559E+00
 0.8639146525236E+00 -0.6751106900304E+00
 0.8790306451958E+00 -0.6846722924097E+00
 0.8913305916789E+00 -0.6922730762919E+00
 0.9003625665326E+00 -0.6978750093858E+00
 0.9055893091688E+00 -0.7014657002883E+00
 0.5179875518961E+00 -0.3987009392829E+00
 0.5473209239632E+00 -0.4241486140344E+00
 0.5766683832541E+00 -0.4493745879927E+00
 0.6059030019475E+00 -0.4742075415694E+00
 0.6348905305252E+00 -0.4984702699206E+00
 0.6634890716558E+00 -0.5219857580845E+00
 0.6915477374685E+00 -0.5445810653029E+00
 0.7189053601861E+00 -0.5660897903964E+00
 0.7453893330149E+00 -0.5863538608772E+00
 0.7708143789152E+00 -0.6052249438004E+00
 0.7949810120016E+00 -0.6225656144436E+00
 0.8176734339761E+00 -0.6382504068044E+00
 0.8386565897572E+00 -0.6521669469467E+00
 0.8576720969180E+00 -0.6642175080017E+00
 0.8744327799079E+00 -0.6743215148373E+00
 0.8886155506443E+00 -0.6824197351801E+00
 0.8998522006271E+00 -0.6884809943107E+00
 0.9077158763113E+00 -0.6925118053658E+00
 0.9116932724060E+00 -0.6945676019646E+00
 0.5262517366240E+00 -0.4036151526656E+00
 0.5562319663532E+00 -0.4292729850012E+00
 0.5861602242169E+00 -0.4546260919919E+00
 0.6158935204300E+00 -0.4794876260633E+00
 0.6452849946766E+00 -0.5036679978247E+00
 0.6741821370259E+00 -0.5269814140359E+00
 0.7024252642568E+00 -0.5492489392468E+00
 0.7298464880642E+00 -0.5703004860076E+00
 0.7562688173796E+00 -0.5899764155104E+00
 0.7815051630380E+00 -0.6081289443378E+00
 0.8053570537244E+00 -0.6246234589515E+00
 0.8276129164368E+00 -0.6393398996028E+00
 0.8480458234898E+00 -0.6521745009189E+00
 0.8664106907210E+00 -0.6630423560928E+00
 0.8824410306085E+00 -0.6718815121121E+00
 0.8958454583650E+00 -0.6786596201070E+00
 0.9063038267386E+00 -0.6833845949092E+00
 0.9134610231758E+00 -0.6861217110742E+00
 0.9169085803904E+00 -0.6870229647990E+00
 0.5341453938272E+00 -0.4081025722472E+00
 0.5645602826184E+00 -0.4338075233449E+00
 0.5948476652227E+00 -0.4591305670270E+00
 0.6248533109398E+00 -0.4838711883915E+00
 0.6544212286918E+00 -0.5078324801986E+00
 0.6833913644928E+00 -0.5308247212210E+00
 0.7115987406843E+00 -0.5526673226177E+00
 0.7388727945102E+00 -0.5731905707611E+00
 0.7650367548669E+00 -0.5922373269137E+00
 0.7899068844190E+00 -0.6096647121555E+00
 0.8132915020053E+00 -0.6253458845759E+00
 0.8349897680005E+00 -0.6391721471490E+00
 0.8547903232775E+00 -0.6510557912530E+00
 0.8724700389053E+00 -0.6609342993114E+00
 0.8877933762315E+00 -0.6687768320864E+00
 0.9005131579250E+00 -0.6745943811452E+00
 0.9103738828129E+00 -0.6784558608167E+00
 0.9171191436387E+00 -0.6805147269415E+00
 0.9205080370981E+00 -0.6810587785888E+00
</DataArray>
</PointData>
   <DataArray type="Float64" Name="Load" NumberOfComponents="1"    ComponentName0="Load" format="ascii">
 0.2794415062833E+01
 0.2656046982890E+01
 0.2527309812827E+01
 0.2506674491347E+01
 0.2487155457225E+01
 0.2471664107073E+01
 0.2453783324248E+01
 0.2432780650449E+01
 0.2408116373859E+01
 0.2379784702295E+01
 0.2347886240749E+01
 0.2312570323764E+01
 0.2273974612700E+01
 0.2232205094495E+01
 0.2187326937250E+01
 0.2139364480335E+01
 0.2088306692834E+01
 0.2034121114509E+01
 0.1976765769058E+01
 0.1916220182075E+01
 0.1852522977758E+01
 0.1785854568840E+01
 0.1716722986732E+01
 0.1645945633302E+01
 0.1572871084817E+01
 0.1495118142744E+01
 0.1410908931282E+01
 0.1320186538273E+01
 0.1224523223900E+01
 0.1126600956915E+01
 0.1029710154439E+01
 0.9374466847407E+00
 0.8535598101116E+00
 0.7827140483861E+00
 0.7313831949982E+00
 0.7063437019916E+00
 0.7178073474625E+00
 0.7670429024166E+00
 0.9253906809375E+00
 0.9542011941739E+00
 0.2128876045743E+01
 0.2411950630421E+01
 0.2572770446334E+01
 0.2471309541081E+01
 0.2421569111633E+01
 0.2396366318551E+01
 0.2374469520530E+01
 0.2353330545481E+01
 0.2330314476127E+01
 0.2304659239908E+01
 0.2276005632166E+01
 0.2244275013396E+01
 0.2209487251573E+01
 0.2171697468575E+01
 0.2130957762543E+01
 0.2087300693445E+01
 0.2040733668939E+01
 0.1991240949046E+01
 0.1938792600092E+01
 0.1883357933871E+01
 0.1824927203896E+01
 0.1763546384036E+01
 0.1699364717841E+01
 0.1632576845618E+01
 0.1563162850718E+01
 0.1490621728634E+01
 0.1414089480468E+01
 0.1332932367714E+01
 0.1247337321239E+01
 0.1158472009211E+01
 0.1068315369919E+01
 0.9793961711987E+00
 0.8946157742617E+00
 0.8172476269513E+00
 0.7510633992090E+00
 0.7001771404352E+00
 0.6693160843438E+00
 0.6605341011049E+00
 0.6828316943275E+00
 0.7045784332896E+00
 0.6275613504127E+00
 0.1527345942844E+01
 0.2172634549090E+01
 0.2395505947432E+01
 0.2384205734990E+01
 0.2332948850491E+01
 0.2302480849477E+01
 0.2277368243721E+01
 0.2253544134035E+01
 0.2228948913193E+01
 0.2202434382733E+01
 0.2173508411832E+01
 0.2141947837876E+01
 0.2107677954564E+01
 0.2070685007818E+01
 0.2030974698306E+01
 0.1988549507596E+01
 0.1943399367856E+01
 0.1895500208126E+01
 0.1844820070297E+01
 0.1791329061230E+01
 0.1735014792988E+01
 0.1675903603522E+01
 0.1614046012193E+01
 0.1549373868275E+01
 0.1481609422167E+01
 0.1410490582169E+01
 0.1335919344694E+01
 0.1257948443652E+01
 0.1176961342355E+01
 0.1093865815526E+01
 0.1010116491958E+01
 0.9276234599136E+00
 0.8486729601755E+00
 0.7758755935079E+00
 0.7119218790999E+00
 0.6593663018803E+00
 0.6199062889301E+00
 0.5939145043088E+00
 0.5774504086751E+00
 0.5221361742543E+00
 0.5171912367616E+00
 0.1244966192831E+01
 0.1995094731672E+01
 0.2218429816182E+01
 0.2265999738870E+01
 0.2236353576218E+01
 0.2205625445290E+01
 0.2179297476119E+01
 0.2154001713599E+01
 0.2128306193405E+01
 0.2101189660323E+01
 0.2072101773563E+01
 0.2040760367265E+01
 0.2007028277362E+01
 0.1970843174992E+01
 0.1932174080963E+01
 0.1890997871181E+01
 0.1847287620681E+01
 0.1801008843957E+01
 0.1752122859380E+01
 0.1700592601474E+01
 0.1646391157249E+01
 0.1589503366848E+01
 0.1529873011183E+01
 0.1467289069286E+01
 0.1401441504630E+01
 0.1332276759542E+01
 0.1260102510372E+01
 0.1185347439690E+01
 0.1108515058352E+01
 0.1030329493704E+01
 0.9518459422868E+00
 0.8744670307846E+00
 0.7999100647870E+00
 0.7300802300387E+00
 0.6667358770436E+00
 0.6110524298662E+00
 0.5630634020240E+00
 0.5210842042208E+00
 0.4738707348937E+00
 0.4087569259980E+00
 0.4815575808448E+00
 0.1042429474145E+01
 0.1849476988254E+01
 0.2055980098284E+01
 0.2135115277589E+01
 0.2130115340233E+01
 0.2105481094706E+01
 0.2079875523622E+01
 0.2054294261082E+01
 0.2028105646557E+01
 0.2000698565814E+01
 0.1971613784120E+01
 0.1940576190930E+01
 0.1907427704704E+01
 0.1872078691920E+01
 0.1834473524579E+01
 0.1794569219375E+01
 0.1752323790619E+01
 0.1707691195576E+01
 0.1660622311061E+01
 0.1611066755057E+01
 0.1558973881409E+01
 0.1504278391685E+01
 0.1446841703956E+01
 0.1386396235176E+01
 0.1322679958402E+01
 0.1255792280192E+01
 0.1186248453480E+01
 0.1114659921809E+01
 0.1041577310524E+01
 0.9675781910730E+00
 0.8934049852960E+00
 0.8200384167626E+00
 0.7486816826489E+00
 0.6806094960990E+00
 0.6168097688008E+00
 0.5575331392304E+00
 0.5019998868974E+00
 0.4472467124476E+00
 0.3867378479615E+00
 0.3390676456505E+00
 0.4547378293123E+00
 0.8744731228213E+00
 0.1722360340929E+01
 0.1908152270957E+01
 0.2001840993104E+01
 0.2017193305147E+01
 0.2001829772525E+01
 0.1978998643711E+01
 0.1954174697933E+01
 0.1928125907250E+01
 0.1900776650015E+01
 0.1871892029324E+01
 0.1841270163694E+01
 0.1808771079261E+01
 0.1774300623786E+01
 0.1737791297716E+01
 0.1699186991295E+01
 0.1658433310633E+01
 0.1615472387240E+01
 0.1570242084001E+01
 0.1522674312103E+01
 0.1472689530855E+01
 0.1420174915010E+01
 0.1364938716114E+01
 0.1306705524904E+01
 0.1245279625867E+01
 0.1180858850269E+01
 0.1114048483615E+01
 0.1045523771415E+01
 0.9758258956941E+00
 0.9054030660087E+00
 0.8347459655601E+00
 0.7644846376181E+00
 0.6953848534163E+00
 0.6282085626039E+00
 0.5633951300877E+00
 0.5007409955517E+00
 0.4392748996001E+00
 0.3771238689430E+00
 0.3162406694327E+00
 0.2896994709401E+00
 0.4169032848287E+00
 0.7273653511995E+00
 0.1606885071628E+01
 0.1772441088245E+01
 0.1870838013904E+01
 0.1900895737297E+01
 0.1895288379754E+01
 0.1876687475436E+01
 0.1853544386735E+01
 0.1828214394352E+01
 0.1801278801598E+01
 0.1772806912233E+01
 0.1742729653761E+01
 0.1710960149408E+01
 0.1677421538736E+01
 0.1642047338483E+01
 0.1604775455977E+01
 0.1565542350019E+01
 0.1524278827378E+01
 0.1480908270305E+01
 0.1435342314362E+01
 0.1387471365789E+01
 0.1337142970680E+01
 0.1284135415851E+01
 0.1228187745481E+01
 0.1169162937306E+01
 0.1107311023585E+01
 0.1043254477031E+01
 0.9776592626866E+00
 0.9110177465901E+00
 0.8436577508612E+00
 0.7758637488317E+00
 0.7079806748139E+00
 0.6404263779665E+00
 0.5735906973023E+00
 0.5076118360073E+00
 0.4422269828532E+00
 0.3770013224958E+00
 0.3126767838425E+00
 0.2576865563558E+00
 0.2466639548468E+00
 0.3659071680662E+00
 0.5948088229129E+00
 0.1499217030677E+01
 0.1646341554976E+01
 0.1743926041173E+01
 0.1783686683875E+01
 0.1786850132368E+01
 0.1773156319367E+01
 0.1752401634718E+01
 0.1728287604784E+01
 0.1702097771486E+01
 0.1674251912621E+01
 0.1644855528446E+01
 0.1613904460187E+01
 0.1581358397910E+01
 0.1547164023963E+01
 0.1511260363943E+01
 0.1473578323879E+01
 0.1434038513381E+01
 0.1392549364420E+01
 0.1349001379604E+01
 0.1303256498590E+01
 0.1255131389524E+01
 0.1204389383670E+01
 0.1150790074509E+01
 0.1094237929233E+01
 0.1034998404597E+01
 0.9736650673432E+00
 0.9108502303314E+00
 0.8469724130683E+00
 0.7822460295354E+00
 0.7167867534150E+00
 0.6507172661281E+00
 0.5842027066299E+00
 0.5174109838636E+00
 0.4504137688016E+00
 0.3832471774864E+00
 0.3166114336047E+00
 0.2540506643072E+00
 0.2066552026343E+00
 0.2032652855445E+00
 0.3044523128154E+00
 0.4729426903665E+00
 0.1397062667317E+01
 0.1527819249963E+01
 0.1621592026295E+01
 0.1667147835943E+01
 0.1677503395319E+01
 0.1668757388880E+01
 0.1650825188888E+01
 0.1628317569325E+01
 0.1603162209678E+01
 0.1576142559627E+01
 0.1547562369088E+01
 0.1517521879923E+01
 0.1486033180334E+01
 0.1453066787863E+01
 0.1418569493885E+01
 0.1382470322631E+01
 0.1344681267290E+01
 0.1305096177751E+01
 0.1263584899839E+01
 0.1219983816146E+01
 0.1174086045066E+01
 0.1125647828275E+01
 0.1074446397184E+01
 0.1020408376091E+01
 0.9637864477962E+00
 0.9051160790769E+00
 0.8449298773136E+00
 0.7835585000270E+00
 0.7211109316085E+00
 0.6575676663484E+00
 0.5928899706001E+00
 0.5270866736880E+00
 0.4602516320149E+00
 0.3926076697353E+00
 0.3248109739233E+00
 0.2590544650880E+00
 0.2010974192237E+00
 0.1609752907447E+00
 0.1576376680817E+00
 0.2358685103994E+00
 0.3590709043403E+00
 0.1298972865338E+01
 0.1415311004211E+01
 0.1503729586046E+01
 0.1552200003283E+01
 0.1568065231575E+01
 0.1563891459068E+01
 0.1548952725556E+01
 0.1528319662470E+01
 0.1504431657500E+01
 0.1478414799294E+01
 0.1450777983063E+01
 0.1421738743040E+01
 0.1391373248410E+01
 0.1359684557988E+01
 0.1326633068422E+01
 0.1292149437034E+01
 0.1256138891295E+01
 0.1218481689087E+01
 0.1179028334529E+01
 0.1137592809593E+01
 0.1093949802824E+01
 0.1047851065827E+01
 0.9990841006846E+00
 0.9475795134477E+00
 0.8935561924898E+00
 0.8374734010735E+00
 0.7797698833234E+00
 0.7206825669618E+00
 0.6602251204381E+00
 0.5982748997086E+00
 0.5346908480168E+00
 0.4694204019478E+00
 0.4026270620564E+00
 0.3348977780126E+00
 0.2678208252842E+00
 0.2053763679553E+00
 0.1549545318040E+00
 0.1222554955327E+00
 0.1121145228962E+00
 0.1632578827874E+00
 0.2512461825889E+00
 0.1203989066316E+01
 0.1307631841242E+01
 0.1389992060942E+01
 0.1439322356421E+01
 0.1459144245150E+01
 0.1458941015355E+01
 0.1446953541023E+01
 0.1428340886021E+01
 0.1405890602559E+01
 0.1381022541197E+01
 0.1354442480506E+01
 0.1326489657861E+01
 0.1297311504152E+01
 0.1266950049749E+01
 0.1235384071589E+01
 0.1202549017322E+01
 0.1168345288070E+01
 0.1132640916442E+01
 0.1095268756074E+01
 0.1056023147475E+01
 0.1014663277596E+01
 0.9709355194694E+00
 0.9246285494356E+00
 0.8756612185873E+00
 0.8242033698814E+00
 0.7706274213418E+00
 0.7152719150751E+00
 0.6582800686497E+00
 0.5995826545001E+00
 0.5389855090230E+00
 0.4763032520992E+00
 0.4115166854830E+00
 0.3450089369331E+00
 0.2779808514150E+00
 0.2134066212319E+00
 0.1578136088336E+00
 0.1203981478337E+00
 0.9903152429541E-01
 0.7809234109148E-01
 0.9104554810990E-01
 0.1481817427681E+00
 0.1111451662915E+01
 0.1203881373501E+01
 0.1279957981125E+01
 0.1328715629838E+01
 0.1351159867841E+01
 0.1354234298868E+01
 0.1345003746798E+01
 0.1328448104594E+01
 0.1307542431885E+01
 0.1283934716035E+01
 0.1258506997663E+01
 0.1231717054881E+01
 0.1203786356629E+01
 0.1174799927204E+01
 0.1144758472757E+01
 0.1113604872079E+01
 0.1081236559145E+01
 0.1047510848514E+01
 0.1012244654185E+01
 0.9752147384732E+00
 0.9361658870317E+00
 0.8948361205904E+00
 0.8510060106132E+00
 0.8045696726689E+00
 0.7556371733856E+00
 0.7044885251965E+00
 0.6513608854884E+00
 0.5963079513005E+00
 0.5391921396935E+00
 0.4797798905446E+00
 0.4179006382755E+00
 0.3536713144738E+00
 0.2878831084567E+00
 0.2227588917463E+00
 0.1637067058703E+00
 0.1220471542190E+00
 0.1079985811179E+00
 0.1050062142562E+00
 0.8380246020333E-01
 0.4562027624375E-01
 0.5067011579757E-01
 0.1020890768297E+01
 0.1103369138425E+01
 0.1173205931884E+01
 0.1220412234126E+01
 0.1244379299675E+01
 0.1250032387441E+01
 0.1243268381990E+01
 0.1228717325380E+01
 0.1209403633479E+01
 0.1187132218374E+01
 0.1162932229819E+01
 0.1137370587199E+01
 0.1110741584956E+01
 0.1083174901846E+01
 0.1054695425029E+01
 0.1025255477440E+01
 0.9947511608892E+00
 0.9630305207348E+00
 0.9298960260427E+00
 0.8951081557883E+00
 0.8583970233182E+00
 0.8194882423123E+00
 0.7781456265916E+00
 0.7342281958781E+00
 0.6877789719249E+00
 0.6389834513291E+00
 0.5879795897843E+00
 0.5347386682949E+00
 0.4790712881327E+00
 0.4207386410906E+00
 0.3596509722090E+00
 0.2961937918227E+00
 0.2318789687983E+00
 0.1708710241315E+00
 0.1238229168046E+00
 0.1093050797669E+00
 0.1249917611184E+00
 0.1390664745504E+00
 0.1291944841742E+00
 0.9451134089117E-01
 0.5527165680186E-01
 0.9319611828989E+00
 0.1005559123780E+01
 0.1069345813940E+01
 0.1114347199310E+01
 0.1138955040175E+01
 0.1146529911555E+01
 0.1141890862017E+01
 0.1129225091823E+01
 0.1111498592899E+01
 0.1090604994462E+01
 0.1067686941390E+01
 0.1043406485851E+01
 0.1018126175301E+01
 0.9920198348587E+00
 0.9651375005129E+00
 0.9374422614742E+00
 0.9088301880934E+00
 0.8791412988151E+00
 0.8481647645886E+00
 0.8156453604339E+00
 0.7812973106657E+00
 0.7448293527339E+00
 0.7059808742606E+00
 0.6645677216793E+00
 0.6205611818335E+00
 0.5740524081342E+00
 0.5250844682285E+00
 0.4735554030964E+00
 0.4192428504963E+00
 0.3619421868983E+00
 0.3017306807173E+00
 0.2394795528525E+00
 0.1781037161116E+00
 0.1262010484033E+00
 0.1048914972690E+00
 0.1265600870269E+00
 0.1633043927609E+00
 0.1884336050110E+00
 0.1901813103470E+00
 0.1713832469232E+00
 0.1489250744059E+00
 0.8444021996482E+00
 0.9100295573942E+00
 0.9680293901568E+00
 0.1010402690934E+01
 0.1034956888929E+01
 0.1043862514001E+01
 0.1040988351352E+01
 0.1030042435847E+01
 0.1013855307523E+01
 0.9943494789136E+00
 0.9727466069100E+00
 0.9497869781868E+00
 0.9258942173085E+00
 0.9012839189603E+00
 0.8760310372158E+00
 0.8501100425053E+00
 0.8234178684884E+00
 0.7957874460484E+00
 0.7669953918861E+00
 0.7367707487357E+00
 0.7048100331072E+00
 0.6708006277499E+00
 0.6344508938490E+00
 0.5955272914335E+00
 0.5539265136472E+00
 0.5096469458600E+00
 0.4626423374229E+00
 0.4127482978264E+00
 0.3597319085929E+00
 0.3034747114462E+00
 0.2443598832394E+00
 0.1842012429464E+00
 0.1291675657374E+00
 0.9854952838559E-01
 0.1171439254342E+00
 0.1648424110060E+00
 0.2125444041635E+00
 0.2454052249352E+00
 0.2574131091904E+00
 0.2524267742312E+00
 0.2432025799606E+00
 0.7580119378024E+00
 0.8164439563441E+00
 0.8689513428070E+00
 0.9084354555402E+00
 0.9323971937648E+00
 0.9421168906497E+00
 0.9406513121170E+00
 0.9312313456444E+00
 0.9165022737359E+00
 0.8983666032318E+00
 0.8780923800086E+00
 0.8564799451082E+00
 0.8340050244584E+00
 0.8109211043358E+00
 0.7873267697517E+00
 0.7632078065403E+00
 0.7384624670521E+00
 0.7129171801342E+00
 0.6863363435597E+00
 0.6584327493781E+00
 0.6288830330443E+00
 0.5973489442052E+00
 0.5635022008021E+00
 0.5270550766408E+00
 0.4878279836328E+00
 0.4457287924789E+00
 0.4006281062489E+00
 0.3523115579469E+00
 0.3005647597044E+00
 0.2454371311541E+00
 0.1878989473476E+00
 0.1319264556195E+00
 0.9255618019157E-01
 0.1022328080993E+00
 0.1531425185006E+00
 0.2134208660515E+00
 0.2674548220150E+00
 0.3067254942333E+00
 0.3279578187333E+00
 0.3349184204481E+00
 0.3368698108149E+00
 0.6726304795041E+00
 0.7245302622117E+00
 0.7718463539777E+00
 0.8082935425929E+00
 0.8312500497467E+00
 0.8413412282233E+00
 0.8409457715503E+00
 0.8328434670817E+00
 0.8194667056383E+00
 0.8026606012032E+00
 0.7837106173896E+00
 0.7634590419443E+00
 0.7424237058277E+00
 0.7208910082031E+00
 0.6989810047782E+00
 0.6766901137424E+00
 0.6539179235115E+00
 0.6304845774634E+00
 0.6061422019469E+00
 0.5805864301565E+00
 0.5534716410379E+00
 0.5244299332927E+00
 0.4930915485744E+00
 0.4591107076117E+00
 0.4222303826316E+00
 0.3822701558831E+00
 0.3390236680836E+00
 0.2922412699232E+00
 0.2417702554745E+00
 0.1879856443971E+00
 0.1331737034350E+00
 0.8759934584434E-01
 0.8518461464082E-01
 0.1343580791349E+00
 0.2004641404157E+00
 0.2670343003330E+00
 0.3257353756410E+00
 0.3708957702376E+00
 0.4005799626868E+00
 0.4181269723283E+00
 0.4300154952208E+00
 0.5881285152409E+00
 0.6340657688797E+00
 0.6764849478811E+00
 0.7098265378722E+00
 0.7314658266709E+00
 0.7415552004668E+00
 0.7419174283362E+00
 0.7349208542714E+00
 0.7227743287385E+00
 0.7072389968096E+00
 0.6895933905670E+00
 0.6707047473666E+00
 0.6511226893177E+00
 0.6311608552056E+00
 0.6109579498546E+00
 0.5905198188517E+00
 0.5697469977244E+00
 0.5484532023408E+00
 0.5263778758084E+00
 0.5031982602494E+00
 0.4785439606741E+00
 0.4520136051717E+00
 0.4231916106417E+00
 0.3916706639432E+00
 0.3571149264328E+00
 0.3192569753775E+00
 0.2778188278034E+00
 0.2325338623257E+00
 0.1833871868379E+00
 0.1314689225039E+00
 0.8297859037197E-01
 0.6793263598286E-01
 0.1123963688095E+00
 0.1800847946380E+00
 0.2528571108296E+00
 0.3234442401141E+00
 0.3862758055270E+00
 0.4371189205170E+00
 0.4746243434851E+00
 0.5016761296743E+00
 0.5227954891291E+00
 0.5043995536055E+00
 0.5448662741003E+00
 0.5826695532114E+00
 0.6128922525515E+00
 0.6329826557420E+00
 0.6427596577519E+00
 0.6435974364542E+00
 0.6374989891259E+00
 0.6264513380383E+00
 0.6121145630778E+00
 0.5957408861961E+00
 0.5782073369196E+00
 0.5600853000730E+00
 0.5417096834808E+00
 0.5232345929737E+00
 0.5046737006708E+00
 0.4859277536188E+00
 0.4668035671670E+00
 0.4470271520108E+00
 0.4262558216559E+00
 0.4040917159039E+00
 0.3800961924037E+00
 0.3538035638845E+00
 0.3247411892511E+00
 0.2924917633180E+00
 0.2566995387990E+00
 0.2170172378051E+00
 0.1731852964875E+00
 0.1254949772584E+00
 0.7714393789230E-01
 0.5124272742708E-01
 0.8995957549775E-01
 0.1567565184046E+00
 0.2313253778443E+00
 0.3077763442508E+00
 0.3816122318561E+00
 0.4484593995717E+00
 0.5049062455643E+00
 0.5497731998303E+00
 0.5851853760174E+00
 0.6152716435503E+00
 0.4213545558969E+00
 0.4567784618841E+00
 0.4902318983562E+00
 0.5173623033616E+00
 0.5357369323282E+00
 0.5449472126634E+00
 0.5460108153031E+00
 0.5406132808864E+00
 0.5305300985940E+00
 0.5173111295185E+00
 0.5021678253552E+00
 0.4859741722865E+00
 0.4693140904199E+00
 0.4525378859106E+00
 0.4358116612864E+00
 0.4191550880889E+00
 0.4024681388411E+00
 0.3855499700421E+00
 0.3681120834807E+00
 0.3497899897463E+00
 0.3301553824369E+00
 0.3087282890610E+00
 0.2849881678135E+00
 0.2583919852886E+00
 0.2284351944728E+00
 0.1946659635349E+00
 0.1566595117123E+00
 0.1141917527811E+00
 0.6840019151273E-01
 0.3472576508680E-01
 0.6938959823439E-01
 0.1340323599253E+00
 0.2072464510502E+00
 0.2849952792221E+00
 0.3641047815993E+00
 0.4409843405776E+00
 0.5119096595169E+00
 0.5739005196231E+00
 0.6259236877734E+00
 0.6685729960735E+00
 0.7067704062591E+00
 0.3389200966283E+00
 0.3696859642143E+00
 0.3990510402730E+00
 0.4231554027137E+00
 0.4397101210981E+00
 0.4481588278488E+00
 0.4492404371444E+00
 0.4443699046030E+00
 0.4351272120340E+00
 0.4229493545020E+00
 0.4089972390767E+00
 0.3941316307327E+00
 0.3789410290265E+00
 0.3637857915691E+00
 0.3488407872757E+00
 0.3341298693920E+00
 0.3195511506794E+00
 0.3048951670536E+00
 0.2898575387810E+00
 0.2740497603247E+00
 0.2570097800430E+00
 0.2382119117254E+00
 0.2170753847508E+00
 0.1929799069287E+00
 0.1653225693979E+00
 0.1335327918869E+00
 0.9705984802243E-01
 0.5568726041266E-01
 0.1707580579914E-01
 0.5382648671379E-01
 0.1152274904493E+00
 0.1844902842410E+00
 0.2599464017515E+00
 0.3396913411923E+00
 0.4211270886747E+00
 0.5010631221587E+00
 0.5761560636328E+00
 0.6437420630727E+00
 0.7024249461619E+00
 0.7530913280481E+00
 0.7929468166940E+00
 0.2570318652356E+00
 0.2834895001830E+00
 0.3090257676284E+00
 0.3302031861759E+00
 0.3448859055850E+00
 0.3524295254712E+00
 0.3533597712421E+00
 0.3488657623227E+00
 0.3403519262637E+00
 0.3291452167490E+00
 0.3163508187018E+00
 0.3028092657091E+00
 0.2891077184822E+00
 0.2756125830839E+00
 0.2625052119660E+00
 0.2498125058232E+00
 0.2374300880353E+00
 0.2251391680028E+00
 0.2126182826269E+00
 0.1994530485472E+00
 0.1851453437736E+00
 0.1691216128186E+00
 0.1507398508594E+00
 0.1293034384155E+00
 0.1041124106956E+00
 0.7447178785356E-01
 0.3966275139642E-01
 0.3593886082102E-02
 0.4913524686893E-01
 0.1041164391261E+00
 0.1667905348041E+00
 0.2368870273461E+00
 0.3134670937809E+00
 0.3948205494264E+00
 0.4785230271260E+00
 0.5616129444744E+00
 0.6410141053224E+00
 0.7141549211176E+00
 0.7796647097743E+00
 0.8368007167122E+00
 0.8858921547592E+00
 0.1756359589178E+00
 0.1981228120668E+00
 0.2201114299864E+00
 0.2385073220963E+00
 0.2513240656246E+00
 0.2578754629233E+00
 0.2585312888420E+00
 0.2542984790205E+00
 0.2464297218309E+00
 0.2361504674488E+00
 0.2245106205949E+00
 0.2123283806137E+00
 0.2001879290803E+00
 0.1884615890203E+00
 0.1773384850218E+00
 0.1668506936171E+00
 0.1568937268392E+00
 0.1472419357311E+00
 0.1375601322696E+00
 0.1274147608025E+00
 0.1162870766322E+00
 0.1035914686795E+00
 0.8870915117855E-01
 0.7108508537054E-01
 0.5061890667730E-01
 0.2998327226072E-01
 0.2932367978441E-01
 0.6028669159301E-01
 0.1044223307642E+00
 0.1577725886824E+00
 0.2197829419611E+00
 0.2899763911177E+00
 0.3673500076553E+00
 0.4502146377805E+00
 0.5362425651327E+00
 0.6226363252468E+00
 0.7064829457309E+00
 0.7852978962304E+00
 0.8574087707892E+00
 0.9218593908074E+00
 0.9793774917013E+00
 0.9470813084917E-01
 0.1136737568847E+00
 0.1325460126770E+00
 0.1484507381340E+00
 0.1595415638189E+00
 0.1651389781912E+00
 0.1655183403589E+00
 0.1615555095311E+00
 0.1543860908269E+00
 0.1451560009936E+00
 0.1348758057480E+00
 0.1243568365604E+00
 0.1141983167466E+00
 0.1047995184018E+00
 0.9637988229918E-01
 0.8899862770105E-01
 0.8257243523697E-01
 0.7689512866077E-01
 0.7166585653947E-01
 0.6653651358961E-01
 0.6119775708369E-01
 0.5555308190028E-01
 0.5010528822974E-01
 0.4673924958641E-01
 0.4934397499982E-01
 0.6176341150050E-01
 0.8481215507901E-01
 0.1177397379329E+00
 0.1601269721387E+00
 0.2119357835292E+00
 0.2731046789723E+00
 0.3432210450270E+00
 0.4212968567389E+00
 0.5056838790821E+00
 0.5941411068857E+00
 0.6839938046288E+00
 0.7724422684755E+00
 0.8569991830649E+00
 0.9357884056774E+00
 0.1007775258760E+01
 0.1072902665635E+01
 0.1484090263338E-01
 0.3212590920427E-01
 0.4907582043427E-01
 0.6321856673052E-01
 0.7308956468284E-01
 0.7820170977210E-01
 0.7888767308975E-01
 0.7603346057210E-01
 0.7081031126675E-01
 0.6446976760865E-01
 0.5820851784802E-01
 0.5306185326346E-01
 0.4976840377967E-01
 0.4861502151992E-01
 0.4939945694451E-01
 0.5161255709165E-01
 0.5470747221256E-01
 0.5826942406463E-01
 0.6206265199280E-01
 0.6602732820625E-01
 0.7028684558951E-01
 0.7519115547304E-01
 0.8139174807805E-01
 0.8990293914513E-01
 0.1020499558518E+00
 0.1193157144954E+00
 0.1431746642677E+00
 0.1749411055308E+00
 0.2156639012883E+00
 0.2660488489654E+00
 0.3263713626951E+00
 0.3963692660525E+00
 0.4751369302375E+00
 0.5610995022844E+00
 0.6521033932696E+00
 0.7455707477009E+00
 0.8387675040032E+00
 0.9291639446154E+00
 0.1014731018068E+01
 0.1094170065229E+01
 0.1166558233920E+01
 0.6648476272353E-01
 0.5741815721954E-01
 0.5093343505608E-01
 0.4842782168235E-01
 0.4922559035287E-01
 0.5177935235344E-01
 0.5516322458944E-01
 0.5927682997081E-01
 0.6433249865831E-01
 0.7039710798402E-01
 0.7725088989708E-01
 0.8448733845540E-01
 0.9167268490639E-01
 0.9845607816439E-01
 0.1046156820249E+00
 0.1100633611792E+00
 0.1148303320896E+00
 0.1190473472052E+00
 0.1229276432134E+00
 0.1267582629701E+00
 0.1309059317435E+00
 0.1358434156989E+00
 0.1421982088199E+00
 0.1508076187983E+00
 0.1627296055253E+00
 0.1792373647168E+00
 0.2017901529390E+00
 0.2319023622625E+00
 0.2709436424168E+00
 0.3199402562116E+00
 0.3794178159940E+00
 0.4492864345404E+00
 0.5287611369542E+00
 0.6163647083339E+00
 0.7100326603557E+00
 0.8072629037315E+00
 0.9053498415743E+00
 0.1001698321846E+01
 0.1094102258851E+01
 0.1180889970466E+01
 0.1260422827274E+01
 0.1463446628164E+00
 0.1395585133483E+00
 0.1334688823017E+00
 0.1293619495498E+00
 0.1278812213648E+00
 0.1291015537760E+00
 0.1327376222494E+00
 0.1383191793089E+00
 0.1452855741754E+00
 0.1530420191005E+00
 0.1610134818639E+00
 0.1686968584051E+00
 0.1756995625916E+00
 0.1817589474283E+00
 0.1867451538855E+00
 0.1906533350632E+00
 0.1935907738750E+00
 0.1957627828231E+00
 0.1974605026192E+00
 0.1990532261987E+00
 0.2009891133888E+00
 0.2038089192772E+00
 0.2081765450994E+00
 0.2149180324992E+00
 0.2250339136401E+00
 0.2397240136011E+00
 0.2604094291480E+00
 0.2886494579725E+00
 0.3259533050248E+00
 0.3735470566143E+00
 0.4321637060829E+00
 0.5018926038248E+00
 0.5820924597723E+00
 0.6714007560809E+00
 0.7678427903196E+00
 0.8689743920475E+00
 0.9720898474312E+00
 0.1074501981655E+01
 0.1173788527724E+01
 0.1267870344619E+01
 0.1354544071724E+01
 0.2260112806814E+00
 0.2222014290561E+00
 0.2186582665133E+00
 0.2165110673540E+00
 0.2164479842962E+00
 0.2186888518446E+00
 0.2230644189482E+00
 0.2291375065721E+00
 0.2363236216263E+00
 0.2439942284819E+00
 0.2515571700672E+00
 0.2585121195567E+00
 0.2644821516141E+00
 0.2692258547200E+00
 0.2726361362029E+00
 0.2747316001045E+00
 0.2756449197879E+00
 0.2756110832230E+00
 0.2749575121271E+00
 0.2740976911958E+00
 0.2735308359584E+00
 0.2738507750499E+00
 0.2757676228056E+00
 0.2801363342137E+00
 0.2879647568188E+00
 0.3004451971679E+00
 0.3189967375165E+00
 0.3452139684136E+00
 0.3807033374598E+00
 0.4268477159526E+00
 0.4845675548617E+00
 0.5541361088689E+00
 0.6350717969838E+00
 0.7261395185736E+00
 0.8254544563626E+00
 0.9306156417021E+00
 0.1038892981951E+01
 0.1147478960222E+01
 0.1253703123109E+01
 0.1355081239029E+01
 0.1448952710957E+01
 0.3054606755194E+00
 0.3046748738308E+00
 0.3039411195221E+00
 0.3042067487250E+00
 0.3060778681876E+00
 0.3097663594484E+00
 0.3151295173023E+00
 0.3217641589346E+00
 0.3291181063397E+00
 0.3365934616190E+00
 0.3436279173928E+00
 0.3497495785238E+00
 0.3546073010715E+00
 0.3579821383964E+00
 0.3597864725708E+00
 0.3600566102905E+00
 0.3589429982535E+00
 0.3567007308406E+00
 0.3536818905881E+00
 0.3503309751657E+00
 0.3471851779178E+00
 0.3448816296459E+00
 0.3441746656054E+00
 0.3459581932498E+00
 0.3512704085222E+00
 0.3613261028817E+00
 0.3775672048205E+00
 0.4016320653018E+00
 0.4352151627680E+00
 0.4798405371667E+00
 0.5366083953669E+00
 0.6059814275349E+00
 0.6876508440931E+00
 0.7805195753868E+00
 0.8827931048588E+00
 0.9921016618918E+00
 0.1105669406894E+01
 0.1220542225269E+01
 0.1333779458956E+01
 0.1442505752182E+01
 0.1543668525426E+01
 0.3847142156416E+00
 0.3869225449139E+00
 0.3890482456784E+00
 0.3918533391060E+00
 0.3958283017192E+00
 0.4011341014486E+00
 0.4076237541008E+00
 0.4149174909264E+00
 0.4225001969690E+00
 0.4298156709003E+00
 0.4363423803522E+00
 0.4416450656695E+00
 0.4454036260406E+00
 0.4474244658870E+00
 0.4476404892559E+00
 0.4461051903957E+00
 0.4429847583537E+00
 0.4385507749377E+00
 0.4331747375074E+00
 0.4273254848159E+00
 0.4215707956430E+00
 0.4165844597981E+00
 0.4131614196584E+00
 0.4122365638677E+00
 0.4148877109788E+00
 0.4223671881999E+00
 0.4361554449346E+00
 0.4579443697241E+00
 0.4895172932490E+00
 0.5325353146025E+00
 0.5882775265142E+00
 0.6574031021319E+00
 0.7397882365412E+00
 0.8344839612642E+00
 0.9397875431757E+00
 0.1053350945510E+01
 0.1172334070928E+01
 0.1293613669981E+01
 0.1413963815984E+01
 0.1530131006398E+01
 0.1638704254386E+01
 0.4637982414802E+00
 0.4689596824437E+00
 0.4739467501545E+00
 0.4793400300695E+00
 0.4855028896463E+00
 0.4925267114620E+00
 0.5002432873013E+00
 0.5082857602096E+00
 0.5161721147424E+00
 0.5233882634358E+00
 0.5294559960896E+00
 0.5339798535436E+00
 0.5366737341896E+00
 0.5373717154762E+00
 0.5360286750557E+00
 0.5327157211658E+00
 0.5276140694025E+00
 0.5210098444316E+00
 0.5132907589021E+00
 0.5049456491700E+00
 0.4965677712999E+00
 0.4888625112031E+00
 0.4826617296129E+00
 0.4789406698385E+00
 0.4788206029570E+00
 0.4835995804322E+00
 0.4948068044664E+00
 0.5141962072036E+00
 0.5436441297229E+00
 0.5849499478000E+00
 0.6395747595564E+00
 0.7083827922846E+00
 0.7914476441995E+00
 0.8879790526472E+00
 0.9963692126718E+00
 0.1114284983805E+01
 0.1238806538931E+01
 0.1366622639919E+01
 0.1494210350055E+01
 0.1617944860980E+01
 0.1734068362589E+01
 0.5427393951968E+00
 0.5508174970461E+00
 0.5586571087932E+00
 0.5666633556239E+00
 0.5750685011949E+00
 0.5838842011986E+00
 0.5929096317195E+00
 0.6017816545712E+00
 0.6100456520323E+00
 0.6172272030815E+00
 0.6228913398675E+00
 0.6266837189437E+00
 0.6283541228300E+00
 0.6277661334370E+00
 0.6248979450916E+00
 0.6198388520104E+00
 0.6127847265581E+00
 0.6040348342935E+00
 0.5939906517273E+00
 0.5831575945765E+00
 0.5721502638534E+00
 0.5617013226232E+00
 0.5526759252598E+00
 0.5460879235062E+00
 0.5431033111579E+00
 0.5450704938527E+00
 0.5535743630160E+00
 0.5704379083037E+00
 0.5976356432147E+00
 0.6371090130216E+00
 0.6905066541569E+00
 0.7589078132106E+00
 0.8425967923754E+00
 0.9409539410116E+00
 0.1052471694014E+01
 0.1174827796775E+01
 0.1305010287015E+01
 0.1439503989471E+01
 0.1574477782520E+01
 0.1705934789777E+01
 0.1829766837146E+01
 0.6215636946067E+00
 0.6325313539934E+00
 0.6432159455289E+00
 0.6538532716913E+00
 0.6645434153017E+00
 0.6752120207688E+00
 0.6856172858412E+00
 0.6953920425926E+00
 0.7041034541021E+00
 0.7113136710584E+00
 0.7166300532155E+00
 0.7197399617689E+00
 0.7204304240806E+00
 0.7185960251630E+00
 0.7142394368246E+00
 0.7074686455857E+00
 0.6984938466137E+00
 0.6876261829857E+00
 0.6752786914084E+00
 0.6619702960952E+00
 0.6483332022091E+00
 0.6351233319211E+00
 0.6232354883610E+00
 0.6137197587667E+00
 0.6077867023408E+00
 0.6068376180925E+00
 0.6125178705700E+00
 0.6267251886645E+00
 0.6515374943274E+00
 0.6890433094791E+00
 0.7410858330897E+00
 0.8089705544946E+00
 0.8932070824990E+00
 0.9933601637452E+00
 0.1108030402955E+01
 0.1234905467135E+01
 0.1370871798815E+01
 0.1512196324577E+01
 0.1654727378205E+01
 0.1794087727718E+01
 0.1925804569581E+01
 0.7002963610371E+00
 0.7141373812767E+00
 0.7276652718745E+00
 0.7409520199178E+00
 0.7539655588157E+00
 0.7665412469920E+00
 0.7783899092890E+00
 0.7891339728773E+00
 0.7983574533207E+00
 0.8056561567504E+00
 0.8106787505347E+00
 0.8131546706937E+00
 0.8129093139396E+00
 0.8098695558454E+00
 0.8040635344611E+00
 0.7956183056107E+00
 0.7847579694846E+00
 0.7718042500754E+00
 0.7571795632274E+00
 0.7414133457555E+00
 0.7251517659511E+00
 0.7091700403167E+00
 0.6943888537753E+00
 0.6818916881544E+00
 0.6729325619948E+00
 0.6689668101975E+00
 0.6717035116579E+00
 0.6831196506938E+00
 0.7054014488027E+00
 0.7407899875669E+00
 0.7913309699628E+00
 0.8585684909198E+00
 0.9432536555768E+00
 0.1045151734399E+01
 0.1162982467892E+01
 0.1294445742015E+01
 0.1436319719020E+01
 0.1584640673703E+01
 0.1734921856961E+01
 0.1882390445724E+01
 0.2022186608456E+01
 0.7789618494896E+00
 0.7956713695330E+00
 0.8120487361481E+00
 0.8280066513944E+00
 0.8433811981423E+00
 0.8579142946983E+00
 0.8712644084138E+00
 0.8830384489611E+00
 0.8928332689908E+00
 0.9002759607651E+00
 0.9050557348293E+00
 0.9069445306116E+00
 0.9058071799053E+00
 0.9016040171979E+00
 0.8943894924563E+00
 0.8843099626618E+00
 0.8716028813567E+00
 0.8565991427544E+00
 0.8397282715740E+00
 0.8215271553934E+00
 0.8026522257148E+00
 0.7838939343538E+00
 0.7661948728377E+00
 0.7506686465632E+00
 0.7386108835360E+00
 0.7315310372579E+00
 0.7312039242639E+00
 0.7396892461349E+00
 0.7592858516181E+00
 0.7923928992058E+00
 0.8412670666935E+00
 0.9077044470211E+00
 0.9927156182585E+00
 0.1096285231585E+01
 0.1217266566267E+01
 0.1353377515392E+01
 0.1501283922244E+01
 0.1656779309686E+01
 0.1815024621618E+01
 0.1970829867471E+01
 0.2118919044041E+01
 0.8575839439572E+00
 0.8771684513573E+00
 0.8964102210608E+00
 0.9150660630370E+00
 0.9328403342716E+00
 0.9493789866990E+00
 0.9642842167696E+00
 0.9771434609304E+00
 0.9875633943354E+00
 0.9952007627149E+00
 0.9997850182071E+00
 0.1001131264725E+01
 0.9991448983583E+00
 0.9938208337802E+00
 0.9852405672495E+00
 0.9735698456914E+00
 0.9590587701101E+00
 0.9420458406229E+00
 0.9229652729515E+00
 0.9023582005687E+00
 0.8808874678222E+00
 0.8593545157750E+00
 0.8387195905929E+00
 0.8201227108705E+00
 0.8048985998569E+00
 0.7946100113016E+00
 0.7910984707103E+00
 0.7965088611409E+00
 0.8132562848516E+00
 0.8439032333862E+00
 0.8909260687544E+00
 0.9563871898275E+00
 0.1041576548108E+01
 0.1146720103787E+01
 0.1270822918223E+01
 0.1411630445088E+01
 0.1565694789295E+01
 0.1728554947882E+01
 0.1894999421389E+01
 0.2059393586889E+01
 0.2216010001267E+01
 0.9361858738553E+00
 0.9586630761456E+00
 0.9807933427036E+00
 0.1002179763663E+01
 0.1022394662269E+01
 0.1040985823640E+01
 0.1057496108621E+01
 0.1071490595598E+01
 0.1082583806426E+01
 0.1090461356656E+01
 0.1094893235885E+01
 0.1095738726832E+01
 0.1092945072781E+01
 0.1086542900136E+01
 0.1076641404163E+01
 0.1063425676409E+01
 0.1047157599094E+01
 0.1028181541944E+01
 0.1006933816046E+01
 0.9839564103098E+00
 0.9599145269632E+00
 0.9356161028814E+00
 0.9120344563318E+00
 0.8903318417609E+00
 0.8718789171809E+00
 0.8582900810919E+00
 0.8514735603194E+00
 0.8536608989504E+00
 0.8673862688432E+00
 0.8953802651283E+00
 0.9403476363638E+00
 0.1004632178481E+01
 0.1089825123008E+01
 0.1196419045667E+01
 0.1323593297418E+01
 0.1469134561787E+01
 0.1629482513062E+01
 0.1799910046377E+01
 0.1974810089631E+01
 0.2148070289809E+01
 0.2313470478622E+01
 0.1014790439845E+01
 0.1040189114431E+01
 0.1065241345358E+01
 0.1089397398434E+01
 0.1112096654408E+01
 0.1132786658048E+01
 0.1150948568683E+01
 0.1166123231806E+01
 0.1177932102830E+01
 0.1186089810558E+01
 0.1190407872260E+01
 0.1190791206491E+01
 0.1187230409031E+01
 0.1179793005164E+01
 0.1168616485680E+01
 0.1153905118288E+01
 0.1135931540899E+01
 0.1115044078213E+01
 0.1091678349780E+01
 0.1066373602140E+01
 0.1039793104821E+01
 0.1012746510710E+01
 0.9862152556245E+00
 0.9613791521294E+00
 0.9396409733746E+00
 0.9226642807436E+00
 0.9124230313443E+00
 0.9112359038720E+00
 0.9217580428831E+00
 0.9468922382959E+00
 0.9895800885976E+00
 0.1052462498213E+01
 0.1137455918916E+01
 0.1245348506138E+01
 0.1375521132425E+01
 0.1525819949476E+01
 0.1692576497648E+01
 0.1870786231594E+01
 0.2054420371896E+01
 0.2236850164755E+01
 0.2411315194720E+01
 0.1093420145134E+01
 0.1121780026737E+01
 0.1149797190340E+01
 0.1176768643310E+01
 0.1201999190665E+01
 0.1224834052882E+01
 0.1244690922427E+01
 0.1261085513511E+01
 0.1273646391299E+01
 0.1282118332642E+01
 0.1286356143228E+01
 0.1286312346095E+01
 0.1282022669549E+01
 0.1273592815024E+01
 0.1261189129240E+01
 0.1245034774958E+01
 0.1225411965741E+01
 0.1202670889390E+01
 0.1177243493168E+01
 0.1149662468331E+01
 0.1120584610541E+01
 0.1090816199216E+01
 0.1061341430786E+01
 0.1033352464957E+01
 0.1008279683199E+01
 0.9878324815334E+00
 0.9740485912945E+00
 0.9693332446196E+00
 0.9764634403969E+00
 0.9985173897752E+00
 0.1038681527752E+01
 0.1099909994625E+01
 0.1184470404312E+01
 0.1293479366894E+01
 0.1426551742050E+01
 0.1581616535517E+01
 0.1754904868702E+01
 0.1941123841310E+01
 0.2133793839865E+01
 0.2325725355156E+01
 0.2509563500432E+01
 0.1172097332149E+01
 0.1203469064626E+01
 0.1234503741467E+01
 0.1264343283971E+01
 0.1292155461462E+01
 0.1317180978709E+01
 0.1338772839493E+01
 0.1356421700075E+01
 0.1369764539342E+01
 0.1378578469785E+01
 0.1382764181072E+01
 0.1382324334902E+01
 0.1377341885262E+01
 0.1367962101148E+01
 0.1354380723433E+01
 0.1336839424647E+01
 0.1315628666022E+01
 0.1291098235513E+01
 0.1263673238926E+01
 0.1233875787016E+01
 0.1202351407331E+01
 0.1169897596305E+01
 0.1137495531959E+01
 0.1106343948492E+01
 0.1077895607570E+01
 0.1053901527377E+01
 0.1036460225502E+01
 0.1028061779885E+01
 0.1031604783411E+01
 0.1050345039467E+01
 0.1087721072299E+01
 0.1147016545279E+01
 0.1230878077187E+01
 0.1340787739831E+01
 0.1476632644245E+01
 0.1636453907029E+01
 0.1816393975872E+01
 0.2010861430079E+01
 0.2212893724597E+01
 0.2414690295406E+01
 0.2608240207926E+01
 0.1250844327163E+01
 0.1285289499066E+01
 0.1319404017194E+01
 0.1352171412778E+01
 0.1382619038420E+01
 0.1409880716051E+01
 0.1433244061552E+01
 0.1452175743899E+01
 0.1466323643070E+01
 0.1475500512204E+01
 0.1479656412504E+01
 0.1478847285598E+01
 0.1473205742850E+01
 0.1462918139736E+01
 0.1448210134282E+01
 0.1429341424873E+01
 0.1406609251686E+01
 0.1380360578750E+01
 0.1351010324703E+01
 0.1319065793887E+01
 0.1285156206620E+01
 0.1250064548194E+01
 0.1214762768432E+01
 0.1180449820490E+01
 0.1148594862637E+01
 0.1120985391155E+01
 0.1099776625610E+01
 0.1087540564171E+01
 0.1087295855248E+01
 0.1102476805816E+01
 0.1136780263269E+01
 0.1193835544069E+01
 0.1276697833223E+01
 0.1387255981907E+01
 0.1525714038745E+01
 0.1690261246489E+01
 0.1876967970006E+01
 0.2079935319436E+01
 0.2291682773530E+01
 0.2503742074369E+01
 0.2707376503875E+01
 0.1329683595243E+01
 0.1367274871353E+01
 0.1404541488660E+01
 0.1440303699826E+01
 0.1473444044215E+01
 0.1502986872796E+01
 0.1528154250536E+01
 0.1548390985152E+01
 0.1563359605054E+01
 0.1572912997867E+01
 0.1577055028238E+01
 0.1575898696262E+01
 0.1569629053299E+01
 0.1558475189898E+01
 0.1542693188336E+01
 0.1522560192159E+01
 0.1498378618231E+01
 0.1470490034469E+01
 0.1439295667632E+01
 0.1405283608570E+01
 0.1369061504561E+01
 0.1331391795762E+01
 0.1293230566255E+01
 0.1255770038233E+01
 0.1220488997834E+01
 0.1189205292991E+01
 0.1164125588432E+01
 0.1147899550293E+01
 0.1143662911789E+01
 0.1155027911824E+01
 0.1185954616822E+01
 0.1240433582567E+01
 0.1321959560839E+01
 0.1432873927319E+01
 0.1573749453924E+01
 0.1742967354149E+01
 0.1936548395234E+01
 0.2148279114541E+01
 0.2370123051284E+01
 0.2592880752602E+01
 0.2807010869663E+01
 0.1408637908855E+01
 0.1449459268546E+01
 0.1489960418601E+01
 0.1528791721214E+01
 0.1564685390786E+01
 0.1596553473603E+01
 0.1623552906007E+01
 0.1645109909171E+01
 0.1660906767814E+01
 0.1670842266881E+01
 0.1674979498949E+01
 0.1673492956900E+01
 0.1666623264215E+01
 0.1654644014883E+01
 0.1637842197631E+01
 0.1616511721387E+01
 0.1590958450735E+01
 0.1561515852960E+01
 0.1528567822076E+01
 0.1492578674296E+01
 0.1454129019161E+01
 0.1413954436270E+01
 0.1372988094387E+01
 0.1332407941011E+01
 0.1293694815110E+01
 0.1258689758335E+01
 0.1229644367958E+01
 0.1209280275442E+01
 0.1200845722375E+01
 0.1208128578571E+01
 0.1235355329545E+01
 0.1286892348627E+01
 0.1366705998276E+01
 0.1477640380337E+01
 0.1620696594634E+01
 0.1794500773473E+01
 0.1995053789073E+01
 0.2215823169601E+01
 0.2448175672054E+01
 0.2682109630916E+01
 0.2907190013881E+01
 0.1487730534204E+01
 0.1531877628618E+01
 0.1575706243625E+01
 0.1617688340325E+01
 0.1656399072758E+01
 0.1690635099689E+01
 0.1719489324273E+01
 0.1742373937076E+01
 0.1758997574739E+01
 0.1769312041119E+01
 0.1773446117208E+01
 0.1771640884215E+01
 0.1764196002755E+01
 0.1751431435400E+01
 0.1733665516604E+01
 0.1711208135015E+01
 0.1684366753571E+01
 0.1653463920488E+01
 0.1618862448080E+01
 0.1580998197198E+01
 0.1540419113540E+01
 0.1497827355588E+01
 0.1454125744761E+01
 0.1410469831372E+01
 0.1368334117051E+01
 0.1329574605300E+01
 0.1296479971965E+01
 0.1271836524928E+01
 0.1258998638617E+01
 0.1261925511232E+01
 0.1285111152143E+01
 0.1333310773488E+01
 0.1410994901911E+01
 0.1521564929284E+01
 0.1666518446292E+01
 0.1844790052910E+01
 0.2052399299386E+01
 0.2282494001623E+01
 0.2525800471814E+01
 0.2771435489017E+01
 0.3007969843344E+01
 0.1566985439786E+01
 0.1614566081648E+01
 0.1661826004898E+01
 0.1707048142147E+01
 0.1748642508501E+01
 0.1785287063573E+01
 0.1816012578126E+01
 0.1840223226028E+01
 0.1857662235525E+01
 0.1868343008839E+01
 0.1872467548582E+01
 0.1870349271073E+01
 0.1862350638147E+01
 0.1848839905458E+01
 0.1830167121943E+01
 0.1806657252972E+01
 0.1778617395890E+01
 0.1746356268673E+01
 0.1710211778156E+01
 0.1670586571452E+01
 0.1627990190030E+01
 0.1583084614180E+01
 0.1536734548125E+01
 0.1490064475652E+01
 0.1444533363226E+01
 0.1402002839737E+01
 0.1364789381798E+01
 0.1335734953944E+01
 0.1318291675890E+01
 0.1316583470239E+01
 0.1335370436419E+01
 0.1379807450141E+01
 0.1454901570118E+01
 0.1564670141364E+01
 0.1711184690323E+01
 0.1893764172310E+01
 0.2108496314444E+01
 0.2348213635023E+01
 0.2602955611073E+01
 0.2860868792338E+01
 0.3109416469527E+01
 0.1646427531897E+01
 0.1697562332285E+01
 0.1748368830504E+01
 0.1796927917772E+01
 0.1841474916623E+01
 0.1880565596744E+01
 0.1913171487300E+01
 0.1938696444701E+01
 0.1956928360329E+01
 0.1967952379215E+01
 0.1972052358294E+01
 0.1969620418244E+01
 0.1961085831762E+01
 0.1946867078246E+01
 0.1927346181612E+01
 0.1902862147530E+01
 0.1873719634841E+01
 0.1840210551562E+01
 0.1802644039104E+01
 0.1761384744141E+01
 0.1716898006154E+01
 0.1669798734934E+01
 0.1620905470593E+01
 0.1571302465484E+01
 0.1522423173256E+01
 0.1476124393975E+01
 0.1434739630120E+01
 0.1401155603897E+01
 0.1378911549794E+01
 0.1372286880299E+01
 0.1386303324006E+01
 0.1426523313929E+01
 0.1498521741646E+01
 0.1606994179363E+01
 0.1754673469241E+01
 0.1941353137328E+01
 0.2163252061766E+01
 0.2412898805725E+01
 0.2679597037964E+01
 0.2950423794795E+01
 0.3211607156916E+01
 0.1726082924818E+01
 0.1780906098914E+01
 0.1835386489487E+01
 0.1887387219317E+01
 0.1934957745115E+01
 0.1976528063887E+01
 0.2011014592158E+01
 0.2037830539050E+01
 0.2056820583608E+01
 0.2068153435527E+01
 0.2072204550390E+01
 0.2069451692949E+01
 0.2060395125727E+01
 0.2045505418214E+01
 0.2025196673359E+01
 0.1999820746831E+01
 0.1969677682924E+01
 0.1935039558980E+01
 0.1896182899093E+01
 0.1853429591218E+01
 0.1807194984218E+01
 0.1758039963913E+01
 0.1706728660117E+01
 0.1654295506086E+01
 0.1602137737656E+01
 0.1552095764630E+01
 0.1506507786817E+01
 0.1468292360330E+01
 0.1441062715442E+01
 0.1429241531033E+01
 0.1438104142701E+01
 0.1473624672112E+01
 0.1541974986683E+01
 0.1648593990374E+01
 0.1796973660653E+01
 0.1987488873746E+01
 0.2216569265508E+01
 0.2476460105078E+01
 0.2755677933447E+01
 0.3040118692780E+01
 0.3314631383218E+01
 0.1805979251329E+01
 0.1864639615313E+01
 0.1922934020082E+01
 0.1978488978883E+01
 0.2029155133343E+01
 0.2073233169886E+01
 0.2109590085732E+01
 0.2137660436943E+01
 0.2157360123547E+01
 0.2168955032440E+01
 0.2172923064820E+01
 0.2169835058923E+01
 0.2160266513010E+01
 0.2144741799521E+01
 0.2123706989318E+01
 0.2097525419599E+01
 0.2066490247675E+01
 0.2030850689972E+01
 0.1990846859449E+01
 0.1946753219591E+01
 0.1898929425040E+01
 0.1847875409764E+01
 0.1794292543213E+01
 0.1739155525667E+01
 0.1683814024171E+01
 0.1630079430695E+01
 0.1580280729270E+01
 0.1537353227515E+01
 0.1504968289619E+01
 0.1487676261812E+01
 0.1490993923304E+01
 0.1521306525490E+01
 0.1585408575819E+01
 0.1689549094693E+01
 0.1838087699456E+01
 0.2032106412491E+01
 0.2268345764155E+01
 0.2538800904906E+01
 0.2831147988277E+01
 0.3129975685842E+01
 0.3418591782318E+01
 0.1886146024485E+01
 0.1948808212239E+01
 0.2011070452770E+01
 0.2070300208382E+01
 0.2124134415083E+01
 0.2170741158978E+01
 0.2208945698786E+01
 0.2238218687046E+01
 0.2258564277497E+01
 0.2270361044792E+01
 0.2274201246801E+01
 0.2270756598088E+01
 0.2260682013239E+01
 0.2244557117913E+01
 0.2222859555582E+01
 0.2195962571130E+01
 0.2164150074618E+01
 0.2127645417839E+01
 0.2086648622983E+01
 0.2041382227165E+01
 0.1992144657062E+01
 0.1939368091447E+01
 0.1883682798633E+01
 0.1825993627668E+01
 0.1767590794290E+01
 0.1710243057991E+01
 0.1656254694339E+01
 0.1608560410826E+01
 0.1570870846583E+01
 0.1547844629333E+01
 0.1545223052614E+01
 0.1569796227146E+01
 0.1629001919823E+01
 0.1729966127360E+01
 0.1878035134132E+01
 0.2075145513818E+01
 0.2318474139327E+01
 0.2599816052080E+01
 0.2905952557636E+01
 0.3220021053018E+01
 0.3523605028885E+01
 0.1966615061640E+01
 0.2033461000298E+01
 0.2099859653356E+01
 0.2162892801206E+01
 0.2219966673560E+01
 0.2269114007573E+01
 0.2309128535594E+01
 0.2339535032785E+01
 0.2360445862251E+01
 0.2372369786561E+01
 0.2376026316310E+01
 0.2372196059057E+01
 0.2361617294877E+01
 0.2344925960469E+01
 0.2322630513945E+01
 0.2295112299809E+01
 0.2262643544346E+01
 0.2225418798929E+01
 0.2183594492001E+01
 0.2137336974530E+01
 0.2086878174323E+01
 0.2032575946314E+01
 0.1974981256566E+01
 0.1914918928422E+01
 0.1853607463465E+01
 0.1792758511469E+01
 0.1734634620058E+01
 0.1682150202991E+01
 0.1639033077417E+01
 0.1610026551189E+01
 0.1601074070360E+01
 0.1619357515123E+01
 0.1672971669797E+01
 0.1769984297684E+01
 0.1916857139260E+01
 0.2116552921672E+01
 0.2366841415243E+01
 0.2659390284187E+01
 0.2980031727235E+01
 0.3310285412562E+01
 0.3629802719495E+01
 0.2047420983930E+01
 0.2118651667285E+01
 0.2189371293785E+01
 0.2256344426112E+01
 0.2316727314154E+01
 0.2368415552996E+01
 0.2410184787001E+01
 0.2441635840952E+01
 0.2463012517495E+01
 0.2474973318888E+01
 0.2478378756119E+01
 0.2474126348213E+01
 0.2463041254801E+01
 0.2445816238112E+01
 0.2422989363773E+01
 0.2394948004922E+01
 0.2361950207351E+01
 0.2324158901863E+01
 0.2281683666057E+01
 0.2234630732039E+01
 0.2183160620902E+01
 0.2127550649861E+01
 0.2068264567760E+01
 0.2006037116283E+01
 0.1942002630833E+01
 0.1877800489208E+01
 0.1815633078468E+01
 0.1758372466092E+01
 0.1709738103526E+01
 0.1674529728116E+01
 0.1658864440475E+01
 0.1670294794655E+01
 0.1717577425625E+01
 0.1809781818392E+01
 0.1954622125516E+01
 0.2156285363431E+01
 0.2413328739810E+01
 0.2717396032945E+01
 0.3053318984631E+01
 0.3400804043261E+01
 0.3737331859265E+01
 0.2128601812327E+01
 0.2204439432357E+01
 0.2279682004121E+01
 0.2350739564280E+01
 0.2414496695773E+01
 0.2468711592737E+01
 0.2512159359763E+01
 0.2544543439135E+01
 0.2566265947715E+01
 0.2578156744155E+01
 0.2581231734458E+01
 0.2576513095053E+01
 0.2564915699538E+01
 0.2547188935781E+01
 0.2523898728446E+01
 0.2495436119204E+01
 0.2462042438715E+01
 0.2423846347755E+01
 0.2380907638098E+01
 0.2333268908496E+01
 0.2281014834640E+01
 0.2224336464727E+01
 0.2163602861917E+01
 0.2099448949021E+01
 0.2032912486896E+01
 0.1965544971395E+01
 0.1899468971335E+01
 0.1837489856165E+01
 0.1783289568834E+01
 0.1741690957425E+01
 0.1718949412603E+01
 0.1722957808799E+01
 0.1763128249190E+01
 0.1849583613632E+01
 0.1991432894826E+01
 0.2194313787396E+01
 0.2457811353595E+01
 0.2773690605739E+01
 0.3125739573372E+01
 0.3491617851357E+01
 0.3846355305769E+01
 0.2210199679261E+01
 0.2290890179296E+01
 0.2370876718316E+01
 0.2446170673493E+01
 0.2513360766189E+01
 0.2570069866737E+01
 0.2615095316832E+01
 0.2648275252509E+01
 0.2670200995820E+01
 0.2681897382259E+01
 0.2684550457885E+01
 0.2679314182746E+01
 0.2667195011499E+01
 0.2648997854256E+01
 0.2625314110322E+01
 0.2596535819907E+01
 0.2562885056456E+01
 0.2524453795458E+01
 0.2481249513722E+01
 0.2433248177300E+01
 0.2380454757536E+01
 0.2322968918016E+01
 0.2261058185515E+01
 0.2195248468970E+01
 0.2126468865005E+01
 0.2056167232616E+01
 0.1986365715926E+01
 0.1919776495693E+01
 0.1860011200677E+01
 0.1811877028949E+01
 0.1781724690638E+01
 0.1777746466326E+01
 0.1809989841257E+01
 0.1889670316624E+01
 0.2027435544275E+01
 0.2230629142180E+01
 0.2500158912126E+01
 0.2828112168566E+01
 0.3197207724783E+01
 0.3582774903965E+01
 0.3957051552985E+01
 0.2292261689222E+01
 0.2378077821087E+01
 0.2463050269023E+01
 0.2542739512899E+01
 0.2613411702929E+01
 0.2672559902676E+01
 0.2719033107374E+01
 0.2752842734180E+01
 0.2774804564523E+01
 0.2786163865001E+01
 0.2788291504452E+01
 0.2782479302651E+01
 0.2769825863875E+01
 0.2751189410394E+01
 0.2727183703565E+01
 0.2698198790344E+01
 0.2664434978306E+01
 0.2625945449748E+01
 0.2582683334748E+01
 0.2534555584809E+01
 0.2481484301132E+01
 0.2423473398174E+01
 0.2360682811378E+01
 0.2293521025805E+01
 0.2222797018403E+01
 0.2149839483122E+01
 0.2076548961178E+01
 0.2005516101405E+01
 0.1940245813186E+01
 0.1885485155835E+01
 0.1847628863991E+01
 0.1835115816375E+01
 0.1858592449987E+01
 0.1930388786266E+01
 0.2062830594586E+01
 0.2265250410118E+01
 0.2540236792556E+01
 0.2880474297742E+01
 0.3267621857961E+01
 0.3674332955897E+01
 0.4069613799430E+01
 0.2374840965456E+01
 0.2466085959484E+01
 0.2556309294921E+01
 0.2640558660703E+01
 0.2714748549970E+01
 0.2776252689519E+01
 0.2824009554827E+01
 0.2858250080676E+01
 0.2880054406126E+01
 0.2890915193515E+01
 0.2892402198204E+01
 0.2885949602923E+01
 0.2872747059271E+01
 0.2853702574097E+01
 0.2829448345989E+01
 0.2800369116155E+01
 0.2766641004548E+01
 0.2728276683555E+01
 0.2685173501937E+01
 0.2637167739563E+01
 0.2584096269339E+01
 0.2525863777075E+01
 0.2462517527006E+01
 0.2394341211429E+01
 0.2322013218067E+01
 0.2246728215268E+01
 0.2170243878724E+01
 0.2094999567289E+01
 0.2024353702070E+01
 0.1962942846783E+01
 0.1917145493626E+01
 0.1895581085390E+01
 0.1909439499972E+01
 0.1972164307642E+01
 0.2097886795783E+01
 0.2298235689794E+01
 0.2577909415388E+01
 0.2930559129626E+01
 0.3336855858723E+01
 0.3766362974621E+01
 0.4184247900525E+01
 0.2457997932300E+01
 0.2555009899921E+01
 0.2650774500569E+01
 0.2739753200688E+01
 0.2817477750251E+01
 0.2881220029884E+01
 0.2930056442322E+01
 0.2964492584862E+01
 0.2985917650230E+01
 0.2996099637555E+01
 0.2996819902237E+01
 0.2989657298829E+01
 0.2975889345959E+01
 0.2956468780896E+01
 0.2932041434089E+01
 0.2902983126311E+01
 0.2869443523287E+01
 0.2831393557445E+01
 0.2788674067298E+01
 0.2741049840934E+01
 0.2688271086639E+01
 0.2630140795923E+01
 0.2566589631510E+01
 0.2497770427055E+01
 0.2424221878319E+01
 0.2346990942181E+01
 0.2267671685589E+01
 0.2188521617282E+01
 0.2112709995967E+01
 0.2044706746155E+01
 0.1990804377010E+01
 0.1959722354629E+01
 0.1963116632905E+01
 0.2015514399956E+01
 0.2132957918180E+01
 0.2329696979722E+01
 0.2613046909999E+01
 0.2978110013244E+01
 0.3404742884513E+01
 0.3858951434778E+01
 0.4301167434140E+01
 0.2541801906108E+01
 0.2644959144528E+01
 0.2746583393720E+01
 0.2840462650730E+01
 0.2921713586323E+01
 0.2987533565042E+01
 0.3037198721774E+01
 0.3071554711673E+01
 0.3092349213226E+01
 0.3101653664227E+01
 0.3101471446278E+01
 0.3093525479112E+01
 0.3079175460265E+01
 0.3059412082315E+01
 0.3034889078119E+01
 0.3005969471803E+01
 0.2972774448221E+01
 0.2935232564118E+01
 0.2893128241910E+01
 0.2846154911768E+01
 0.2793975715402E+01
 0.2736290617869E+01
 0.2672911061751E+01
 0.2603854516552E+01
 0.2529512649276E+01
 0.2450772758570E+01
 0.2369045797775E+01
 0.2286376868019E+01
 0.2205701217299E+01
 0.2131260594227E+01
 0.2069182064633E+01
 0.2028188922353E+01
 0.2020301255862E+01
 0.2061064470267E+01
 0.2168503261929E+01
 0.2359819681949E+01
 0.2645536800856E+01
 0.3022827986735E+01
 0.3471048816824E+01
 0.3952195112747E+01
 0.4420582004068E+01
 0.2626333080499E+01
 0.2736060469585E+01
 0.2843893565759E+01
 0.2942843082841E+01
 0.3027578354393E+01
 0.3095263240586E+01
 0.3145452125530E+01
 0.3179407715959E+01
 0.3199289943111E+01
 0.3207500762658E+01
 0.3206272549137E+01
 0.3197467951895E+01
 0.3182520218089E+01
 0.3162449336744E+01
 0.3137910281091E+01
 0.3109249208241E+01
 0.3076557138045E+01
 0.3039720329950E+01
 0.2998467834143E+01
 0.2952422933311E+01
 0.2901162445512E+01
 0.2844283217659E+01
 0.2781476306998E+01
 0.2712621114720E+01
 0.2637957111614E+01
 0.2558202338448E+01
 0.2474567194018E+01
 0.2388854821880E+01
 0.2303720487091E+01
 0.2223111642242E+01
 0.2152900893696E+01
 0.2101702625181E+01
 0.2081771982744E+01
 0.2109564994096E+01
 0.2205111936315E+01
 0.2388888204524E+01
 0.2675299937603E+01
 0.3064378987005E+01
 0.3535440090614E+01
 0.4046166506042E+01
 0.4542662771266E+01
 0.2711685043824E+01
 0.2828461754824E+01
 0.2942886663545E+01
 0.3047069442276E+01
 0.3135202143147E+01
 0.3204475055911E+01
 0.3254820078946E+01
 0.3288006785536E+01
 0.3306664548635E+01
 0.3313550247193E+01
 0.3311127327931E+01
 0.3301389219947E+01
 0.3285830741107E+01
 0.3265490524058E+01
 0.3241017225567E+01
 0.3212735969272E+01
 0.3180706388804E+01
 0.3144773369836E+01
 0.3104612719634E+01
 0.3059779989597E+01
 0.3009767671082E+01
 0.2954070733183E+01
 0.2892260249140E+01
 0.2824076859700E+01
 0.2749605231127E+01
 0.2669387525212E+01
 0.2584419122238E+01
 0.2496233865026E+01
 0.2407161341631E+01
 0.2320785342233E+01
 0.2242626200930E+01
 0.2181059726974E+01
 0.2148417571454E+01
 0.2161910182962E+01
 0.2243531242843E+01
 0.2417318873789E+01
 0.2702314034947E+01
 0.3102402417001E+01
 0.3597496808570E+01
 0.4140808965707E+01
 0.4667376459627E+01
 0.2797968036363E+01
 0.2922336713902E+01
 0.3043773293701E+01
 0.3153338025292E+01
 0.3244722039620E+01
 0.3315227902983E+01
 0.3365289817986E+01
 0.3397287734473E+01
 0.3414379421316E+01
 0.3419696185503E+01
 0.3415928048971E+01
 0.3405184737869E+01
 0.3389006967781E+01
 0.3368439335595E+01
 0.3344115825550E+01
 0.3316336396925E+01
 0.3285128675718E+01
 0.3250298082562E+01
 0.3211470540788E+01
 0.3168137629938E+01
 0.3119710875461E+01
 0.3065586015648E+01
 0.3005216183738E+01
 0.2938204744003E+01
 0.2864481863645E+01
 0.2784410810177E+01
 0.2698761427393E+01
 0.2608774488776E+01
 0.2516410254609E+01
 0.2424818198181E+01
 0.2339061376537E+01
 0.2267130796267E+01
 0.2221244970303E+01
 0.2219157237983E+01
 0.2284701072369E+01
 0.2445697316549E+01
 0.2726655887807E+01
 0.3136508014941E+01
 0.3656745043294E+01
 0.4236129902507E+01
 0.4793228284584E+01
 0.2885315702230E+01
 0.3017902894717E+01
 0.3146819639907E+01
 0.3261899366702E+01
 0.3356320477540E+01
 0.3427618292175E+01
 0.3476884998232E+01
 0.3507228358066E+01
 0.3522392786411E+01
 0.3525895957701E+01
 0.3520641685831E+01
 0.3508835256833E+01
 0.3492043814031E+01
 0.3471303384067E+01
 0.3447224368978E+01
 0.3420077705951E+01
 0.3389859205153E+01
 0.3356337912810E+01
 0.3319094639822E+01
 0.3277562244269E+01
 0.3231076078903E+01
 0.3178936661578E+01
 0.3120482738763E+01
 0.3055183927009E+01
 0.2982819095640E+01
 0.2903573376675E+01
 0.2817984886640E+01
 0.2726981752209E+01
 0.2632114170182E+01
 0.2536026356744E+01
 0.2443212493881E+01
 0.2361115294180E+01
 0.2301616262712E+01
 0.2282738945791E+01
 0.2329933040514E+01
 0.2474934378037E+01
 0.2748582002884E+01
 0.3166477293853E+01
 0.3712661324062E+01
 0.4332437632891E+01
 0.4924279277147E+01
 0.2973882729445E+01
 0.3115406033430E+01
 0.3252312556497E+01
 0.3372999804186E+01
 0.3470142200049E+01
 0.3541676117435E+01
 0.3589544513651E+01
 0.3617713271289E+01
 0.3630566770500E+01
 0.3632009564527E+01
 0.3625135907113E+01
 0.3612218718475E+01
 0.3594828114752E+01
 0.3573975265099E+01
 0.3550237686261E+01
 0.3523853846699E+01
 0.3494788860009E+01
 0.3462779794263E+01
 0.3427368696143E+01
 0.3387936651217E+01
 0.3343749285638E+01
 0.3294017465605E+01
 0.3237970808144E+01
 0.3174951063952E+01
 0.3104592478013E+01
 0.3026907580459E+01
 0.2942202479453E+01
 0.2851079662380E+01
 0.2754644927143E+01
 0.2654970710260E+01
 0.2555869607890E+01
 0.2464059965919E+01
 0.2390829771291E+01
 0.2354132331374E+01
 0.2380688940647E+01
 0.2506119779153E+01
 0.2768473357511E+01
 0.3191822292057E+01
 0.3765106499017E+01
 0.4427485826563E+01
 0.5074967081273E+01
 0.3063857331621E+01
 0.3215133013694E+01
 0.3360571810745E+01
 0.3486886087292E+01
 0.3586291242428E+01
 0.3657357911394E+01
 0.3703116169335E+01
 0.3728530009903E+01
 0.3738666013264E+01
 0.3737799966142E+01
 0.3729180289084E+01
 0.3715111717344E+01
 0.3697139948424E+01
 0.3676233509748E+01
 0.3652927567999E+01
 0.3627425237399E+01
 0.3599663072915E+01
 0.3569351952202E+01
 0.3536003215977E+01
 0.3498955022720E+01
 0.3457411592404E+01
 0.3410501448733E+01
 0.3357352178316E+01
 0.3297186112474E+01
 0.3229503482453E+01
 0.3154155426758E+01
 0.3071223236225E+01
 0.2980979900101E+01
 0.2884062898625E+01
 0.2781916746904E+01
 0.2677566487990E+01
 0.2576825892564E+01
 0.2490105980435E+01
 0.2434880753771E+01
 0.2438653590342E+01
 0.2540680259139E+01
 0.2786941196741E+01
 0.3212275875122E+01
 0.3812766252656E+01
 0.4524224228381E+01
 0.5232004944372E+01
 0.3155471175184E+01
 0.3317445182744E+01
 0.3471997070734E+01
 0.3603861622652E+01
 0.3704897792278E+01
 0.3774629673850E+01
 0.3817459341293E+01
 0.3839492066727E+01
 0.3846499572118E+01
 0.3843092049439E+01
 0.3832621154462E+01
 0.3817379781362E+01
 0.3798858524335E+01
 0.3777964641389E+01
 0.3755181808160E+01
 0.3730675770301E+01
 0.3704357868030E+01
 0.3675920102357E+01
 0.3644853016892E+01
 0.3610462739640E+01
 0.3571902373687E+01
 0.3528227058851E+01
 0.3478470954504E+01
 0.3421747496628E+01
 0.3357437008046E+01
 0.3285245851180E+01
 0.3205045142861E+01
 0.3116784091234E+01
 0.3020619767245E+01
 0.2917326148489E+01
 0.2809047026850E+01
 0.2700514682440E+01
 0.2600959843270E+01
 0.2526901556565E+01
 0.2505983983027E+01
 0.2580569218977E+01
 0.2805076680421E+01
 0.3227617991750E+01
 0.3855111200165E+01
 0.4622130117601E+01
 0.5396565286677E+01
 0.3249011114324E+01
 0.3422786026967E+01
 0.3587061801178E+01
 0.3724256921405E+01
 0.3826067943552E+01
 0.3893405109287E+01
 0.3932378447489E+01
 0.3950369478118E+01
 0.3953847642537E+01
 0.3947693909123E+01
 0.3935296225295E+01
 0.3918884659941E+01
 0.3899861626242E+01
 0.3879054383393E+01
 0.3856886775320E+01
 0.3833486288858E+01
 0.3808743711654E+01
 0.3782341078448E+01
 0.3753760019038E+01
 0.3722287799402E+01
 0.3687038913454E+01
 0.3647005837097E+01
 0.3601139268806E+01
 0.3548456044523E+01
 0.3488233932476E+01
 0.3420056536358E+01
 0.3343607255497E+01
 0.3258527819120E+01
 0.3164496951211E+01
 0.3061593753958E+01
 0.2951007756008E+01
 0.2836228555399E+01
 0.2724997028980E+01
 0.2632343759665E+01
 0.2585250457864E+01
 0.2628321434525E+01
 0.2824504223693E+01
 0.3237890861118E+01
 0.3891239427476E+01
 0.4720257022403E+01
 0.5570037938998E+01
 0.3344836802670E+01
 0.3531705457537E+01
 0.3706327932141E+01
 0.3848424014818E+01
 0.3949864709393E+01
 0.4013526379963E+01
 0.4047610747096E+01
 0.4060883898439E+01
 0.4060461200725E+01
 0.4051398548505E+01
 0.4037036929739E+01
 0.4019486599723E+01
 0.4000027650754E+01
 0.3979389438089E+01
 0.3957928966434E+01
 0.3935735940566E+01
 0.3912686641539E+01
 0.3888463653739E+01
 0.3862553631717E+01
 0.3834240655871E+01
 0.3802615668730E+01
 0.3766621164798E+01
 0.3725135572569E+01
 0.3677092766286E+01
 0.3621688103543E+01
 0.3558409560411E+01
 0.3486783069569E+01
 0.3406170292100E+01
 0.3315789635789E+01
 0.3215023767008E+01
 0.3104064827616E+01
 0.2985029966651E+01
 0.2863875659460E+01
 0.2753571381205E+01
 0.2679473497586E+01
 0.2687172239895E+01
 0.2847606837680E+01
 0.3243505496870E+01
 0.3919856852438E+01
 0.4817593430941E+01
 0.5754024360274E+01
 0.3443405570939E+01
 0.3644892631858E+01
 0.3830462388919E+01
 0.3976723957885E+01
 0.4076280135122E+01
 0.4134739721454E+01
 0.4162813215075E+01
 0.4170704828516E+01
 0.4166063131782E+01
 0.4153986728182E+01
 0.4137671459443E+01
 0.4119047084499E+01
 0.4099237937106E+01
 0.4078859468922E+01
 0.4058196734451E+01
 0.4037303713748E+01
 0.4016049610443E+01
 0.3994129601484E+01
 0.3971051367685E+01
 0.3946114225176E+01
 0.3918403612186E+01
 0.3886827038481E+01
 0.3850202997045E+01
 0.3807396845417E+01
 0.3757543765543E+01
 0.3700067716395E+01
 0.3634374707801E+01
 0.3559584728062E+01
 0.3474490889091E+01
 0.3377804371766E+01
 0.3268715827640E+01
 0.3147889812633E+01
 0.3019248272734E+01
 0.2893122491159E+01
 0.2792140288128E+01
 0.2761188883804E+01
 0.2877802789239E+01
 0.3245468138119E+01
 0.3939430311340E+01
 0.4912885653475E+01
 0.5950440631559E+01
 0.3545308240784E+01
 0.3763220901314E+01
 0.3960254296441E+01
 0.4109502681705E+01
 0.4205195098972E+01
 0.4256665528337E+01
 0.4277549602386E+01
 0.4279448052693E+01
 0.4270351405923E+01
 0.4255231184149E+01
 0.4237028646863E+01
 0.4217432052997E+01
 0.4197379386174E+01
 0.4177359284207E+01
 0.4157582196531E+01
 0.4138070179745E+01
 0.4118694087428E+01
 0.4099175063995E+01
 0.4079059772795E+01
 0.4057684137425E+01
 0.4034149696640E+01
 0.4007346872512E+01
 0.3976047768112E+01
 0.3939063869166E+01
 0.3895493544715E+01
 0.3844731772936E+01
 0.3786108376993E+01
 0.3718550124376E+01
 0.3640476811442E+01
 0.3549982009059E+01
 0.3445297754094E+01
 0.3325624424600E+01
 0.3192680512372E+01
 0.3053632749242E+01
 0.2927187101302E+01
 0.2855396222675E+01
 0.2919888001429E+01
 0.3245805642185E+01
 0.3948317126757E+01
 0.5004449843526E+01
 0.6161637801728E+01
 0.3651321867890E+01
 0.3887809981613E+01
 0.4096629837218E+01
 0.4247047489664E+01
 0.4336322530437E+01
 0.4378763350876E+01
 0.4391279645743E+01
 0.4386677632302E+01
 0.4373004841884E+01
 0.4354902350552E+01
 0.4334942655558E+01
 0.4314515544167E+01
 0.4294347309498E+01
 0.4274791166269E+01
 0.4255983274120E+01
 0.4237919404355E+01
 0.4220481902493E+01
 0.4203432246866E+01
 0.4186375712999E+01
 0.4168709267972E+01
 0.4149576417816E+01
 0.4127872226033E+01
 0.4102337524076E+01
 0.4071744172879E+01
 0.4035176977578E+01
 0.3992038829920E+01
 0.3941631448265E+01
 0.3882745008528E+01
 0.3813493662008E+01
 0.3731436769918E+01
 0.3633943138863E+01
 0.3518823063222E+01
 0.3385544489369E+01
 0.3237711178832E+01
 0.3088923589919E+01
 0.2975869868845E+01
 0.2980453122661E+01
 0.3248216632142E+01
 0.3945002909286E+01
 0.5089934154276E+01
 0.6390549460428E+01
 0.3762489447416E+01
 0.4020112618037E+01
 0.4240657893853E+01
 0.4389511872422E+01
 0.4469129311713E+01
 0.4500294042514E+01
 0.4503353604586E+01
 0.4491913041640E+01
 0.4473691905596E+01
 0.4452775637878E+01
 0.4431258431868E+01
 0.4410183697987E+01
 0.4390048441401E+01
 0.4371067289591E+01
 0.4353305819109E+01
 0.4336740996591E+01
 0.4321277327962E+01
 0.4306731474589E+01
 0.4292788101117E+01
 0.4278932636942E+01
 0.4264381493501E+01
 0.4248061350719E+01
 0.4228699342687E+01
 0.4205041118142E+01
 0.4176179538351E+01
 0.4141561943425E+01
 0.4100511570241E+01
 0.4051743831472E+01
 0.3993148020110E+01
 0.3921860671568E+01
 0.3834537130728E+01
 0.3727769641352E+01
 0.3598888414142E+01
 0.3447757356897E+01
 0.3281864282766E+01
 0.3129754176374E+01
 0.3068347231983E+01
 0.3259033446124E+01
 0.3928601851659E+01
 0.5166015844471E+01
 0.6640901592802E+01
 0.3880243914542E+01
 0.4162035871795E+01
 0.4393531681538E+01
 0.4536789268743E+01
 0.4602733006331E+01
 0.4620284666428E+01
 0.4613016741370E+01
 0.4594643008514E+01
 0.4572082778505E+01
 0.4548640222205E+01
 0.4525837832841E+01
 0.4504339037106E+01
 0.4484404063941E+01
 0.4466112198350E+01
 0.4449465812045E+01
 0.4434432296644E+01
 0.4420949427209E+01
 0.4408903695834E+01
 0.4398080231093E+01
 0.4388082884977E+01
 0.4378237791562E+01
 0.4367537513777E+01
 0.4354717275197E+01
 0.4338509096124E+01
 0.4318032139717E+01
 0.4292811291544E+01
 0.4262238373138E+01
 0.4225016806359E+01
 0.4178901171904E+01
 0.4120740875410E+01
 0.4046679162017E+01
 0.3952364576017E+01
 0.3833289651459E+01
 0.3685716081680E+01
 0.3510425009178E+01
 0.3325127610074E+01
 0.3195124189137E+01
 0.3288586825306E+01
 0.3899888859661E+01
 0.5228038897940E+01
 0.6917520928326E+01
 0.4006607501009E+01
 0.4316110210495E+01
 0.4556495249029E+01
 0.4688306264533E+01
 0.4735773939639E+01
 0.4737507397384E+01
 0.4719429468222E+01
 0.4694346999605E+01
 0.4667864538744E+01
 0.4642309134160E+01
 0.4618566234658E+01
 0.4596904877493E+01
 0.4577353132790E+01
 0.4559865254974E+01
 0.4544391556835E+01
 0.4530900635521E+01
 0.4519374621774E+01
 0.4509783448564E+01
 0.4502032842286E+01
 0.4495876537211E+01
 0.4490793640613E+01
 0.4485886955553E+01
 0.4479928959073E+01
 0.4471650759894E+01
 0.4460210844483E+01
 0.4445237019773E+01
 0.4426228239496E+01
 0.4401933853025E+01
 0.4370068646369E+01
 0.4327349681267E+01
 0.4269653064193E+01
 0.4192054069778E+01
 0.4088704184657E+01
 0.3952780413127E+01
 0.3778445268607E+01
 0.3570586682168E+01
 0.3375339138792E+01
 0.3353021813634E+01
 0.3863344008258E+01
 0.5269675620571E+01
 0.7226808472495E+01
 0.4144524492021E+01
 0.4485720557127E+01
 0.4730649992115E+01
 0.4842693284605E+01
 0.4866275815030E+01
 0.4850491932406E+01
 0.4821708491296E+01
 0.4790523972181E+01
 0.4760758971922E+01
 0.4733630325416E+01
 0.4709359368169E+01
 0.4687829713680E+01
 0.4668855308292E+01
 0.4652282995993E+01
 0.4638025824665E+01
 0.4626065624830E+01
 0.4616439444872E+01
 0.4609212311197E+01
 0.4604428101206E+01
 0.4602021435524E+01
 0.4601673873124E+01
 0.4602656440685E+01
 0.4603820777291E+01
 0.4603912793595E+01
 0.4602136438086E+01
 0.4598234014428E+01
 0.4591832833000E+01
 0.4581773454445E+01
 0.4565825746628E+01
 0.4540742897943E+01
 0.4502409758111E+01
 0.4445775247420E+01
 0.4364329857398E+01
 0.4249076192061E+01
 0.4088530682544E+01
 0.3874362544881E+01
 0.3626420519092E+01
 0.3476478491695E+01
 0.3831025486017E+01
 0.5282929080833E+01
 0.7577519848880E+01
 0.4298441268418E+01
 0.4675403700629E+01
 0.4916505982935E+01
 0.4997282478960E+01
 0.4991538116095E+01
 0.4957599668611E+01
 0.4918989975229E+01
 0.4882726279536E+01
 0.4850542388966E+01
 0.4822498182401E+01
 0.4798170035691E+01
 0.4777091388867E+01
 0.4758893765549E+01
 0.4743341306983E+01
 0.4730327873302E+01
 0.4719861401223E+01
 0.4712043394700E+01
 0.4707042782490E+01
 0.4705054638355E+01
 0.4706221829557E+01
 0.4710482191066E+01
 0.4717350443437E+01
 0.4725820742044E+01
 0.4734679041771E+01
 0.4743173199718E+01
 0.4751148851306E+01
 0.4758352219773E+01
 0.4763737248363E+01
 0.4765219587846E+01
 0.4759767319407E+01
 0.4743565990309E+01
 0.4711926433259E+01
 0.4658500778382E+01
 0.4573379869746E+01
 0.4441291618681E+01
 0.4242779645559E+01
 0.3967546322351E+01
 0.3693269562809E+01
 0.3829481771210E+01
 0.5259449932189E+01
 0.7982197614031E+01
 0.4475370541416E+01
 0.4891165623821E+01
 0.5112995745560E+01
 0.5147404789918E+01
 0.5108165716824E+01
 0.5057187014302E+01
 0.5010505243538E+01
 0.4970596328963E+01
 0.4937066768865E+01
 0.4908864607361E+01
 0.4884994346220E+01
 0.4864700821870E+01
 0.4847477631561E+01
 0.4833037307587E+01
 0.4821275242047E+01
 0.4812238718335E+01
 0.4806101747170E+01
 0.4803142417319E+01
 0.4803713647196E+01
 0.4808185723589E+01
 0.4816805878562E+01
 0.4829428278377E+01
 0.4845287879081E+01
 0.4863259039601E+01
 0.4882625761675E+01
 0.4903289243866E+01
 0.4925053697196E+01
 0.4946971290372E+01
 0.4967187779250E+01
 0.4983076881389E+01
 0.4991420385452E+01
 0.4988372938752E+01
 0.4968629642834E+01
 0.4922914249510E+01
 0.4834675212782E+01
 0.4678065461506E+01
 0.4416453977211E+01
 0.4049069781143E+01
 0.3910972036793E+01
 0.5195933655347E+01
 0.8460209557331E+01
 0.4686969706557E+01
 0.5140570460230E+01
 0.5315365536560E+01
 0.5285603720846E+01
 0.5212443553876E+01
 0.5147845138038E+01
 0.5095648037615E+01
 0.5053907592603E+01
 0.5020280138936E+01
 0.4992748740964E+01
 0.4969877209979E+01
 0.4950705051307E+01
 0.4934643959871E+01
 0.4921390884302E+01
 0.4910865276627E+01
 0.4903166831674E+01
 0.4898548236566E+01
 0.4897398014104E+01
 0.4900225883785E+01
 0.4907635189622E+01
 0.4920224754711E+01
 0.4938302333936E+01
 0.4961496481747E+01
 0.4988868815413E+01
 0.5019732505876E+01
 0.5053936825256E+01
 0.5091198139681E+01
 0.5130595555353E+01
 0.5170583796195E+01
 0.5209156241732E+01
 0.5243984989269E+01
 0.5272495788254E+01
 0.5291227679722E+01
 0.5293223381431E+01
 0.5263630738556E+01
 0.5176158925333E+01
 0.4982762523013E+01
 0.4598294692302E+01
 0.4169056600214E+01
 0.5111105162121E+01
 0.9045394472403E+01
 0.4953935591990E+01
 0.5431569311344E+01
 0.5510799637048E+01
 0.5401447694696E+01
 0.5301322341080E+01
 0.5228575075485E+01
 0.5174034189760E+01
 0.5132612826573E+01
 0.5100240541577E+01
 0.5074245807320E+01
 0.5052916358919E+01
 0.5035189447908E+01
 0.5020459110923E+01
 0.5008445784041E+01
 0.4999116308131E+01
 0.4992635078286E+01
 0.4989337471897E+01
 0.4989719557217E+01
 0.4994438928750E+01
 0.5004319929068E+01
 0.5020327391831E+01
 0.5043340284695E+01
 0.5073612781063E+01
 0.5110598307866E+01
 0.5153653059101E+01
 0.5202364874566E+01
 0.5256076282485E+01
 0.5313743615030E+01
 0.5374209545482E+01
 0.5436347535311E+01
 0.5499030031004E+01
 0.5561274616836E+01
 0.5622051742747E+01
 0.5678140801668E+01
 0.5720025473058E+01
 0.5726168942556E+01
 0.5657904380293E+01
 0.5389528158931E+01
 0.4755394282320E+01
 0.5093169865532E+01
 0.9808763551026E+01
 0.5316351690404E+01
 0.5765749093703E+01
 0.5670158639836E+01
 0.5484389155314E+01
 0.5373720852464E+01
 0.5298646167930E+01
 0.5245659264411E+01
 0.5206859922445E+01
 0.5177129669379E+01
 0.5153533185065E+01
 0.5134264540661E+01
 0.5118279032173E+01
 0.5105019422663E+01
 0.5094270251919E+01
 0.5086068459023E+01
 0.5080654111255E+01
 0.5078446988287E+01
 0.5080043771253E+01
 0.5086233710840E+01
 0.5098032949416E+01
 0.5116739059652E+01
 0.5143878648634E+01
 0.5180660594856E+01
 0.5227354691874E+01
 0.5283446774156E+01
 0.5347864722916E+01
 0.5419058509769E+01
 0.5495614562319E+01
 0.5576857928132E+01
 0.5662874678358E+01
 0.5754129707777E+01
 0.5851411514818E+01
 0.5956329112908E+01
 0.6070173669185E+01
 0.6192073291299E+01
 0.6312639880491E+01
 0.6409149962753E+01
 0.6422614679626E+01
 0.5883934861193E+01
 0.5414828156609E+01
 0.1094067446608E+02
 0.5862146972269E+01
 0.6105537035282E+01
 0.5739509148547E+01
 0.5535170392222E+01
 0.5428797203210E+01
 0.5358026413650E+01
 0.5310971783743E+01
 0.5276984124366E+01
 0.5251270953313E+01
 0.5230868894816E+01
 0.5214131184012E+01
 0.5200138163921E+01
 0.5188451214314E+01
 0.5178957058374E+01
 0.5171783983160E+01
 0.5167256671190E+01
 0.5165878695818E+01
 0.5168337046418E+01
 0.5175529710316E+01
 0.5188623582449E+01
 0.5209164733501E+01
 0.5239266773700E+01
 0.5281471088775E+01
 0.5337758148447E+01
 0.5408040064118E+01
 0.5489788333666E+01
 0.5579662122992E+01
 0.5675538925322E+01
 0.5777367206424E+01
 0.5886871631315E+01
 0.6006660102792E+01
 0.6139529759914E+01
 0.6289004769120E+01
 0.6461243645708E+01
 0.6664702950318E+01
 0.6913629193688E+01
 0.7199692689386E+01
 0.7573680707336E+01
 0.7748253570409E+01
 0.6722115835014E+01
 0.1311132936868E+02
 0.6826275983565E+01
 0.6194983483114E+01
 0.5708205000199E+01
 0.5562277017275E+01
 0.5464500273558E+01
 0.5408525766210E+01
 0.5370521673722E+01
 0.5343624395707E+01
 0.5323098584822E+01
 0.5306598098082E+01
 0.5292778734250E+01
 0.5280969773455E+01
 0.5270909736699E+01
 0.5262622977883E+01
 0.5256347049607E+01
 0.5252497909432E+01
 0.5251659586830E+01
 0.5254597307003E+01
 0.5262289378797E+01
 0.5276003508551E+01
 0.5297430649239E+01
 0.5328996847796E+01
 0.5374613321267E+01
 0.5439927251738E+01
 0.5526198432453E+01
 0.5627616542114E+01
 0.5737641853749E+01
 0.5853059822427E+01
 0.5974688318200E+01
 0.6106425623775E+01
 0.6253749522795E+01
 0.6422198681779E+01
 0.6615694745954E+01
 0.6842087348655E+01
 0.7124405358614E+01
 0.7492032068614E+01
 0.8008124184796E+01
 0.8655187201497E+01
 0.1004945860341E+02
 0.1005705768316E+02
 0.1965568726551E+02
 0.1221723984371E+00
 0.1296571997812E+00
 0.1418421885081E+00
 0.1578041874872E+00
 0.1766323194785E+00
 0.1970447682665E+00
 0.2180839655366E+00
 0.2391498406668E+00
 0.2597057147117E+00
 0.2792585756544E+00
 0.2974405996237E+00
 0.3139919695984E+00
 0.3286664474178E+00
 0.3411715219056E+00
 0.3511937592396E+00
 0.3584446166555E+00
 0.3625769465072E+00
 0.3635931674007E+00
 0.3624585135817E+00
 0.3593317243002E+00
 0.1289653808711E+00
 0.1440113347749E+00
 0.1624450557722E+00
 0.1837745980752E+00
 0.2070909262771E+00
 0.2313969194018E+00
 0.2559037017345E+00
 0.2800065624146E+00
 0.3031685411766E+00
 0.3249397478118E+00
 0.3449899569505E+00
 0.3630918278084E+00
 0.3790386619551E+00
 0.3925928389697E+00
 0.4035008059906E+00
 0.4114932873232E+00
 0.4161513259997E+00
 0.4173260994111E+00
 0.4139401086836E+00
 0.4048393125373E+00
 0.1349625270725E+00
 0.1579976139237E+00
 0.1828261959920E+00
 0.2095795694074E+00
 0.2375620568130E+00
 0.2659442621607E+00
 0.2940459049919E+00
 0.3213051631778E+00
 0.3472142334000E+00
 0.3713576471107E+00
 0.3934415608270E+00
 0.4132693665955E+00
 0.4306680807415E+00
 0.4454355825219E+00
 0.4573313175097E+00
 0.4660355676994E+00
 0.4710547835342E+00
 0.4717375327606E+00
 0.4669663159326E+00
 0.4575501035563E+00
 0.1406338066125E+00
 0.1714859113980E+00
 0.2029259978854E+00
 0.2352563859687E+00
 0.2680548261603E+00
 0.3006630749580E+00
 0.3324940217142E+00
 0.3630378307354E+00
 0.3918295921123E+00
 0.4184923015268E+00
 0.4427656262386E+00
 0.4644808200492E+00
 0.4834899483333E+00
 0.4996075133835E+00
 0.5125795421462E+00
 0.5220353740271E+00
 0.5273835610209E+00
 0.5279300185955E+00
 0.5231680182691E+00
 0.5142084214646E+00
 0.1461162206152E+00
 0.1846469759047E+00
 0.2227605104118E+00
 0.2608163383177E+00
 0.2985737310207E+00
 0.3355426734008E+00
 0.3712309035092E+00
 0.4051862555554E+00
 0.4369923616283E+00
 0.4663133506824E+00
 0.4929215469095E+00
 0.5166725644081E+00
 0.5374363489930E+00
 0.5550337633781E+00
 0.5691971559894E+00
 0.5795243477241E+00
 0.5854439185755E+00
 0.5864320713640E+00
 0.5823181117216E+00
 0.5741588528894E+00
 0.1515044843966E+00
 0.1975863623388E+00
 0.2423967075327E+00
 0.2862786881585E+00
 0.3291210331736E+00
 0.3705733739782E+00
 0.4102384449939E+00
 0.4477262711252E+00
 0.4826718829474E+00
 0.5147817288536E+00
 0.5438601739152E+00
 0.5697850766925E+00
 0.5924410147736E+00
 0.6116555036770E+00
 0.6271599947834E+00
 0.6385667502129E+00
 0.6453944571514E+00
 0.6472812548866E+00
 0.6442408016101E+00
 0.6371526175662E+00
 0.1568673188831E+00
 0.2103895491691E+00
 0.2618947573981E+00
 0.3116720617681E+00
 0.3597003585944E+00
 0.4057446425855E+00
 0.4494960780295E+00
 0.4906288170542E+00
 0.5288306567621E+00
 0.5638507921619E+00
 0.5955254100758E+00
 0.6237543491504E+00
 0.6484380294941E+00
 0.6694174091102E+00
 0.6864431799290E+00
 0.6991757279972E+00
 0.7072385654992E+00
 0.7104023985100E+00
 0.7087735188977E+00
 0.7030569040826E+00
 0.1622597983814E+00
 0.2231234390842E+00
 0.2813068458965E+00
 0.3370236529791E+00
 0.3903164735223E+00
 0.4410448991912E+00
 0.4889804818448E+00
 0.5338604249569E+00
 0.5754254133515E+00
 0.6134674875908E+00
 0.6478550458717E+00
 0.6785114483903E+00
 0.7053571486835E+00
 0.7282563782419E+00
 0.7469962899628E+00
 0.7613020143408E+00
 0.7708995688044E+00
 0.7756642634284E+00
 0.7757541160478E+00
 0.7717383174186E+00
 0.1677279603444E+00
 0.2358418461785E+00
 0.3006759001331E+00
 0.3623568668476E+00
 0.4209727926475E+00
 0.4764612435428E+00
 0.5286657210677E+00
 0.5773837500658E+00
 0.6224079540306E+00
 0.6635731609909E+00
 0.7007809617801E+00
 0.7339809935567E+00
 0.7631193091142E+00
 0.7880927951513E+00
 0.8087367529741E+00
 0.8248482719315E+00
 0.8362485015267E+00
 0.8428991644877E+00
 0.8449952247614E+00
 0.8430169578635E+00
 0.1733115510662E+00
 0.2485884447534E+00
 0.3200365054851E+00
 0.3876901616700E+00
 0.4516702014200E+00
 0.5119787907181E+00
 0.5685233043625E+00
 0.6211579364001E+00
 0.6697256452192E+00
 0.7141038754474E+00
 0.7542287583715E+00
 0.7900794910030E+00
 0.8216332771084E+00
 0.8488271759599E+00
 0.8715519768526E+00
 0.8896791213163E+00
 0.9031179256211E+00
 0.9119059174490E+00
 0.9162727973131E+00
 0.9166528022812E+00
 0.1790457151008E+00
 0.2613990302185E+00
 0.3394160225186E+00
 0.4130370567703E+00
 0.4824065834547E+00
 0.5475804368793E+00
 0.6085223238944E+00
 0.6651390377228E+00
 0.7173218878472E+00
 0.7649906691259E+00
 0.8081174949804E+00
 0.8467143513114E+00
 0.8807943989498E+00
 0.9103404192888E+00
 0.9353030441556E+00
 0.9556283485550E+00
 0.9713084604641E+00
 0.9824512271208E+00
 0.9893238052001E+00
 0.9923469652084E+00
 0.1849621465601E+00
 0.2743031801851E+00
 0.3588357366664E+00
 0.4384065363225E+00
 0.5131768153778E+00
 0.5832468417464E+00
 0.6486296326924E+00
 0.7092803509506E+00
 0.7651364675466E+00
 0.8161597460397E+00
 0.8623595982200E+00
 0.9037836248334E+00
 0.9404847712565E+00
 0.9724954075550E+00
 0.9998284289490E+00
 0.1022503898389E+01
 0.1040592916994E+01
 0.1054271285617E+01
 0.1063848399646E+01
 0.1069751940010E+01
 0.1910899114048E+00
 0.2873255707123E+00
 0.3783119605517E+00
 0.4638037006499E+00
 0.5439730888836E+00
 0.6189566720663E+00
 0.6888101620525E+00
 0.7535328212199E+00
 0.8131059759134E+00
 0.8675328385961E+00
 0.9168611790517E+00
 0.9611764918894E+00
 0.1000574368562E+01
 0.1035139301431E+01
 0.1064947571410E+01
 0.1090092086509E+01
 0.1110720019168E+01
 0.1127074281002E+01
 0.1139511858862E+01
 0.1148480656083E+01
 0.1974560881613E+00
 0.3004870819967E+00
 0.3978571066134E+00
 0.4892305721797E+00
 0.5747854745045E+00
 0.6546870632062E+00
 0.7290273917775E+00
 0.7978455516670E+00
 0.8611643455355E+00
 0.9190277675546E+00
 0.9715227011138E+00
 0.1018774253739E+01
 0.1060922675416E+01
 0.1098106075732E+01
 0.1130464303434E+01
 0.1158161542540E+01
 0.1181418403069E+01
 0.1200544178439E+01
 0.1215947628246E+01
 0.1228108083053E+01
 0.2040862556067E+00
 0.3138057223634E+00
 0.4174806724060E+00
 0.5146869269719E+00
 0.6056025730556E+00
 0.6904141669743E+00
 0.7692438734020E+00
 0.8421663447868E+00
 0.9092434344159E+00
 0.9705591167342E+00
 0.1026239854199E+01
 0.1076451586823E+01
 0.1121380534919E+01
 0.1161219111191E+01
 0.1196170177614E+01
 0.1226467153732E+01
 0.1252401193009E+01
 0.1274346392331E+01
 0.1292765409823E+01
 0.1308178415672E+01
 0.2110049068805E+00
 0.3272974750005E+00
 0.4371902231053E+00
 0.5401712155675E+00
 0.6364123186112E+00
 0.7261138702964E+00
 0.8094219191765E+00
 0.8864424072241E+00
 0.9572737923589E+00
 0.1022039129514E+01
 0.1080904690268E+01
 0.1134078064931E+01
 0.1181792207934E+01
 0.1224293895838E+01
 0.1261847849481E+01
 0.1294754180862E+01
 0.1323371153110E+01
 0.1348134924605E+01
 0.1369561974959E+01
 0.1388219461882E+01
 0.2182357952042E+00
 0.3409770662444E+00
 0.4569923357254E+00
 0.5656814993444E+00
 0.6672028363737E+00
 0.7617625828590E+00
 0.8495243585871E+00
 0.9306211214690E+00
 0.1005185504069E+01
 0.1073378699812E+01
 0.1135406864664E+01
 0.1191519770834E+01
 0.1241997471709E+01
 0.1287140702528E+01
 0.1327274411294E+01
 0.1362762389909E+01
 0.1394025995757E+01
 0.1421559612763E+01
 0.1445931392164E+01
 0.1467757409536E+01
 0.2258022351564E+00
 0.3548586929553E+00
 0.4768935316548E+00
 0.5912164155851E+00
 0.6979633599865E+00
 0.7973380975818E+00
 0.8895153688950E+00
 0.9746508899266E+00
 0.1052909104996E+01
 0.1124488435341E+01
 0.1189634938962E+01
 0.1248640939256E+01
 0.1301833699305E+01
 0.1349567190584E+01
 0.1392224608297E+01
 0.1430230038881E+01
 0.1464063430868E+01
 0.1494272648219E+01
 0.1521473529006E+01
 0.1546328753889E+01
 0.2337273888010E+00
 0.3689567410766E+00
 0.4969012255042E+00
 0.6167761903622E+00
 0.7286852215709E+00
 0.8328205363422E+00
 0.9293613937137E+00
 0.1018482065138E+01
 0.1100376578904E+01
 0.1175279793226E+01
 0.1243477736401E+01
 0.1305305617735E+01
 0.1361137907882E+01
 0.1411380918597E+01
 0.1456473900569E+01
 0.1496897608420E+01
 0.1533185741067E+01
 0.1565934192554E+01
 0.1595800952789E+01
 0.1623489514397E+01
 0.2420345275461E+00
 0.3832864860599E+00
 0.5170246670382E+00
 0.6423636597771E+00
 0.7593628614794E+00
 0.8681933190417E+00
 0.9690320818788E+00
 0.1062067892991E+01
 0.1147522357456E+01
 0.1225666201019E+01
 0.1296825657053E+01
 0.1361379249973E+01
 0.1419748680399E+01
 0.1472391669207E+01
 0.1519801254227E+01
 0.1562511127918E+01
 0.1601103730164E+01
 0.1636217092586E+01
 0.1668544666661E+01
 0.1698822730196E+01
 0.2507472988159E+00
 0.3978648117505E+00
 0.5372759151128E+00
 0.6679853370938E+00
 0.7899948926547E+00
 0.9034441887482E+00
 0.1008501277237E+01
 0.1105365496191E+01
 0.1194284343864E+01
 0.1275564178612E+01
 0.1349571961550E+01
 0.1416730184517E+01
 0.1477507957317E+01
 0.1532413573887E+01
 0.1581991638227E+01
 0.1626825070436E+01
 0.1667540029687E+01
 0.1704810682729E+01
 0.1739358782589E+01
 0.1771944097598E+01
 0.2598900004366E+00
 0.4127109496408E+00
 0.5576708392701E+00
 0.6936525120726E+00
 0.8205851969505E+00
 0.9385662632664E+00
 0.1047748024463E+01
 0.1148336858755E+01
 0.1240604917481E+01
 0.1324894414591E+01
 0.1401613974531E+01
 0.1471231058554E+01
 0.1534262647571E+01
 0.1591266987313E+01
 0.1642838182630E+01
 0.1689604788623E+01
 0.1732231773441E+01
 0.1771423557489E+01
 0.1807923255488E+01
 0.1842503689605E+01
 0.2694878726159E+00
 0.4278472504694E+00
 0.5782301585606E+00
 0.7193823865563E+00
 0.8511440511674E+00
 0.9735591055094E+00
 0.1086757579013E+01
 0.1190949796038E+01
 0.1286431900694E+01
 0.1373582775748E+01
 0.1452854184462E+01
 0.1524760031999E+01
 0.1589866033177E+01
 0.1648780087497E+01
 0.1702143981533E+01
 0.1750628500595E+01
 0.1794932680435E+01
 0.1835785553128E+01
 0.1873944939220E+01
 0.1910186762881E+01
 0.2795674206269E+00
 0.4433000041831E+00
 0.5989805322102E+00
 0.7451992563899E+00
 0.8816892871163E+00
 0.1008429811801E+01
 0.1125522416169E+01
 0.1233178901864E+01
 0.1331719477000E+01
 0.1421561236667E+01
 0.1503201225367E+01
 0.1577201856438E+01
 0.1644178951877E+01
 0.1704790187790E+01
 0.1759723535479E+01
 0.1809688836395E+01
 0.1855414640459E+01
 0.1897649211921E+01
 0.1937159019761E+01
 0.1974715061219E+01
 0.2901567804451E+00
 0.4591003217588E+00
 0.6199557143482E+00
 0.7711357466761E+00
 0.9122474862402E+00
 0.1043194113035E+01
 0.1164043229870E+01
 0.1275006460449E+01
 0.1376429046215E+01
 0.1468768714839E+01
 0.1552570726399E+01
 0.1628448765854E+01
 0.1697070745998E+01
 0.1759144751821E+01
 0.1815403830261E+01
 0.1866593963111E+01
 0.1913468836902E+01
 0.1956790883613E+01
 0.1997330196423E+01
 0.2035847677705E+01
 0.3012861291650E+00
 0.4752850813866E+00
 0.6411977714475E+00
 0.7972340910846E+00
 0.9428551909390E+00
 0.1077877463785E+01
 0.1202329891609E+01
 0.1316423290657E+01
 0.1420529983788E+01
 0.1515151779860E+01
 0.1600886001078E+01
 0.1678401164957E+01
 0.1748419957240E+01
 0.1811702094367E+01
 0.1869025040940E+01
 0.1921168284516E+01
 0.1968906419234E+01
 0.2013011305234E+01
 0.2054252901165E+01
 0.2093380487364E+01
 0.3129881707030E+00
 0.4918979795263E+00
 0.6627584067188E+00
 0.8235474991128E+00
 0.9735601727331E+00
 0.1112516155643E+01
 0.1240402402410E+01
 0.1357429553031E+01
 0.1464000333291E+01
 0.1560665266142E+01
 0.1648078607307E+01
 0.1726968148036E+01
 0.1798114800451E+01
 0.1862331798348E+01
 0.1920440883774E+01
 0.1973252729381E+01
 0.2021558714690E+01
 0.2066135605074E+01
 0.2107750707724E+01
 0.2147144457022E+01
 0.3252986949377E+00
 0.5089906800796E+00
 0.6847003805805E+00
 0.8501415883245E+00
 0.1004422721500E+01
 0.1147158408634E+01
 0.1278291784663E+01
 0.1398035462446E+01
 0.1506827374755E+01
 0.1605272735863E+01
 0.1694088732706E+01
 0.1774067812473E+01
 0.1846053388933E+01
 0.1910914824067E+01
 0.1969518587567E+01
 0.2022704581640E+01
 0.2071276913297E+01
 0.2116012735072E+01
 0.2157675075081E+01
 0.2197002890829E+01
 0.3382572248054E+00
 0.5266240908594E+00
 0.7070990577712E+00
 0.8770959088876E+00
 0.1035516976245E+01
 0.1181865455608E+01
 0.1316040925139E+01
 0.1438261915845E+01
 0.1549008079488E+01
 0.1648946808430E+01
 0.1738865431578E+01
 0.1819627405518E+01
 0.1892143760415E+01
 0.1957343363658E+01
 0.2016138529785E+01
 0.2069396873988E+01
 0.2117931207444E+01
 0.2162514318233E+01
 0.2203903519487E+01
 0.2242847388950E+01
 0.3519077898547E+00
 0.5448698129972E+00
 0.7300441338803E+00
 0.9045056082795E+00
 0.1066932335360E+01
 0.1216712648003E+01
 0.1353705389147E+01
 0.1478141047535E+01
 0.1590549459327E+01
 0.1691669365550E+01
 0.1782366730338E+01
 0.1863583333532E+01
 0.1936303744647E+01
 0.2001520486038E+01
 0.2060193574193E+01
 0.2113217361140E+01
 0.2161409352369E+01
 0.2205532698789E+01
 0.2246336849756E+01
 0.2284591529809E+01
 0.3662997969524E+00
 0.5638117395929E+00
 0.7536415119128E+00
 0.9324831899026E+00
 0.1098774879891E+01
 0.1251790500347E+01
 0.1391354111335E+01
 0.1517716608795E+01
 0.1631468703896E+01
 0.1733431531693E+01
 0.1824559518919E+01
 0.1905880978708E+01
 0.1978460648675E+01
 0.2043359572465E+01
 0.2101588119801E+01
 0.2154067078662E+01
 0.2201614654594E+01
 0.2244978080098E+01
 0.2284894415321E+01
 0.2322159928294E+01
 0.3814890734425E+00
 0.5835479092368E+00
 0.7780154549977E+00
 0.9611604964289E+00
 0.1131168934839E+01
 0.1287205791619E+01
 0.1429070073104E+01
 0.1557044270305E+01
 0.1671793194212E+01
 0.1774233515911E+01
 0.1865419324885E+01
 0.1946474445293E+01
 0.2018550915833E+01
 0.2082783728169E+01
 0.2140237053717E+01
 0.2191858670623E+01
 0.2238463587396E+01
 0.2280775301812E+01
 0.2319508814074E+01
 0.2355478464967E+01
 0.3975390490332E+00
 0.6041925889117E+00
 0.8033109945074E+00
 0.9906908798553E+00
 0.1164258706790E+01
 0.1323082645464E+01
 0.1466950874558E+01
 0.1596191741500E+01
 0.1711560276201E+01
 0.1814084200437E+01
 0.1904929876882E+01
 0.1985326187496E+01
 0.2056519778359E+01
 0.2119725261210E+01
 0.2176064747259E+01
 0.2226514625422E+01
 0.2271883215206E+01
 0.2312860844274E+01
 0.2350124095643E+01
 0.2384478843700E+01
 0.4145220878637E+00
 0.6258786432065E+00
 0.8296966672393E+00
 0.1021251616744E+01
 0.1198210036742E+01
 0.1359563604293E+01
 0.1505109194226E+01
 0.1635238665432E+01
 0.1750816720509E+01
 0.1853000379743E+01
 0.1943082359688E+01
 0.2022406452547E+01
 0.2092320909048E+01
 0.2154125335563E+01
 0.2209004278537E+01
 0.2257965615732E+01
 0.2301808503624E+01
 0.2341180002863E+01
 0.2376696047254E+01
 0.2409109499327E+01
 0.4325210401064E+00
 0.6487603155617E+00
 0.8573677177456E+00
 0.1053046724007E+01
 0.1233212394655E+01
 0.1396810836736E+01
 0.1543673249554E+01
 0.1674276375564E+01
 0.1789617916075E+01
 0.1891005676172E+01
 0.1979874380152E+01
 0.2057692582216E+01
 0.2125916206759E+01
 0.2185934094385E+01
 0.2238997357954E+01
 0.2286149448442E+01
 0.2328179867468E+01
 0.2365683787059E+01
 0.2399191593639E+01
 0.2429340556702E+01
 0.4516309344540E+00
 0.6730163157070E+00
 0.8865497705353E+00
 0.1086310012914E+01
 0.1269481045405E+01
 0.1435007326874E+01
 0.1582787119979E+01
 0.1713407290420E+01
 0.1828026532480E+01
 0.1928128837526E+01
 0.2015308341105E+01
 0.2091167867008E+01
 0.2157275471268E+01
 0.2215111264711E+01
 0.2265995304017E+01
 0.2311011214540E+01
 0.2350941155211E+01
 0.2386325154692E+01
 0.2417585921286E+01
 0.2445168407853E+01
 0.4719609277403E+00
 0.6988539414600E+00
 0.9175028566523E+00
 0.1121308942120E+01
 0.1307259489286E+01
 0.1474358557947E+01
 0.1622611191363E+01
 0.1752744153117E+01
 0.1866110770406E+01
 0.1964401484698E+01
 0.2049389245971E+01
 0.2122819937104E+01
 0.2186375837345E+01
 0.2241627209240E+01
 0.2289961826912E+01
 0.2332505842400E+01
 0.2370039165612E+01
 0.2403053819029E+01
 0.2431857624424E+01
 0.2456622728783E+01
 0.4936376146683E+00
 0.7265119779224E+00
 0.9505276366882E+00
 0.1158347239001E+01
 0.1346823169043E+01
 0.1515094362707E+01
 0.1663322690106E+01
 0.1792408835823E+01
 0.1903941743305E+01
 0.1999854991497E+01
 0.2082121571147E+01
 0.2152638167283E+01
 0.2213200576789E+01
 0.2265463470810E+01
 0.2310877034333E+01
 0.2350605999911E+01
 0.2385426586843E+01
 0.2415809797867E+01
 0.2441976990116E+01
 0.2463778658324E+01
 0.5168058354150E+00
 0.7562794796140E+00
 0.9859596430500E+00
 0.1197773991673E+01
 0.1388482072086E+01
 0.1557471821027E+01
 0.1705117185795E+01
 0.1832530042262E+01
 0.1941589654637E+01
 0.2034516479273E+01
 0.2113505311833E+01
 0.2180609564769E+01
 0.2237736333192E+01
 0.2286613508780E+01
 0.2328739011095E+01
 0.2365313646989E+01
 0.2397085165920E+01
 0.2424512029581E+01
 0.2447876948250E+01
 0.2466761885620E+01
 0.5416959412683E+00
 0.7884080784874E+00
 0.1024210644539E+01
 0.1239979745180E+01
 0.1432580696395E+01
 0.1601786864934E+01
 0.1748209979393E+01
 0.1873238715102E+01
 0.1979118395251E+01
 0.2068404838422E+01
 0.2143531816102E+01
 0.2206713634982E+01
 0.2259966714821E+01
 0.2305081718965E+01
 0.2343572541252E+01
 0.2376652117817E+01
 0.2405064054409E+01
 0.2429144421805E+01
 0.2449322686569E+01
 0.2465748253986E+01
 0.4593916282976E+00
 0.7098224489012E+00
 0.7438434537490E+00
 0.7080023101860E+00
 0.6119537687164E+00
 0.4974921649370E+00
 0.4163820402921E+00
 0.3776361032664E+00
 0.3527731769467E+00
 0.3271802809156E+00
 0.2984101595173E+00
 0.2667086604935E+00
 0.2320768468053E+00
 0.1947739072837E+00
 0.1561487179822E+00
 0.1172808570801E+00
 0.7842451367551E-01
 0.4528228719783E-01
 0.2030529773424E-01
 0.9307277141186E-03
 0.3930962653501E+00
 0.6562937696401E+00
 0.6776743159656E+00
 0.6488664069409E+00
 0.5863675684697E+00
 0.5081960013873E+00
 0.4414399096799E+00
 0.3974458119140E+00
 0.3660696172186E+00
 0.3374666343578E+00
 0.3079576758740E+00
 0.2764270686553E+00
 0.2424625323407E+00
 0.2060973253376E+00
 0.1679629202325E+00
 0.1288727026801E+00
 0.8997185382057E-01
 0.5501987365628E-01
 0.2540354203468E-01
 0.2123889866575E-02
 0.3294382271017E+00
 0.5849355632966E+00
 0.6200692889016E+00
 0.5981577303389E+00
 0.5555836128583E+00
 0.5026217853730E+00
 0.4519177622489E+00
 0.4110311249413E+00
 0.3773926752964E+00
 0.3466042271528E+00
 0.3161784634121E+00
 0.2847327276963E+00
 0.2514490987505E+00
 0.2159990123567E+00
 0.1785929476310E+00
 0.1397972236976E+00
 0.1006170337187E+00
 0.6343232494204E-01
 0.2929201439144E-01
 0.4003000796368E-02
 0.2720229835109E+00
 0.5140085289218E+00
 0.5619584982836E+00
 0.5515197732147E+00
 0.5224234224751E+00
 0.4867801094616E+00
 0.4501613673703E+00
 0.4158583029526E+00
 0.3838454720333E+00
 0.3529195814211E+00
 0.3222784271222E+00
 0.2911059849504E+00
 0.2585994047917E+00
 0.2242109504058E+00
 0.1878078313351E+00
 0.1496280134354E+00
 0.1103934116080E+00
 0.7133327788245E-01
 0.3316687878400E-01
 0.5368635539777E-02
 0.2206623441431E+00
 0.4464280428362E+00
 0.5043381396667E+00
 0.5052895223054E+00
 0.4874403042010E+00
 0.4641328668743E+00
 0.4388331497105E+00
 0.4119126294605E+00
 0.3837799725825E+00
 0.3547220433069E+00
 0.3250720234667E+00
 0.2947631612159E+00
 0.2633402034659E+00
 0.2302697069606E+00
 0.1951956324675E+00
 0.1580510923183E+00
 0.1192370218420E+00
 0.7900899648540E-01
 0.3767794671137E-01
 0.5254894188151E-02
 0.1749560010369E+00
 0.3830939065502E+00
 0.4477914080536E+00
 0.4586409966222E+00
 0.4503173808547E+00
 0.4364777525918E+00
 0.4200579858608E+00
 0.4000612104034E+00
 0.3767288255949E+00
 0.3508852338833E+00
 0.3234050772809E+00
 0.2947623711058E+00
 0.2649276122972E+00
 0.2335535788407E+00
 0.2002109224700E+00
 0.1646106309929E+00
 0.1268708526687E+00
 0.8640498138719E-01
 0.4304451637259E-01
 0.3387268656139E-02
 0.1344161794282E+00
 0.3242345370849E+00
 0.3927467888492E+00
 0.4114981425331E+00
 0.4110618365019E+00
 0.4047067031566E+00
 0.3953035344462E+00
 0.3813292705921E+00
 0.3628749349496E+00
 0.3408988527360E+00
 0.3164297491614E+00
 0.2902090456502E+00
 0.2625408758151E+00
 0.2333225015099E+00
 0.2021694750971E+00
 0.1686770144389E+00
 0.1327604929688E+00
 0.9311536914046E-01
 0.4903652067765E-01
 0.2892455991716E-02
 0.9855468301176E-01
 0.2698277281902E+00
 0.3395158587083E+00
 0.3640669726284E+00
 0.3698890675850E+00
 0.3694256804907E+00
 0.3655510156512E+00
 0.3566218072075E+00
 0.3426750133523E+00
 0.3246879472533E+00
 0.3036619189596E+00
 0.2804023738903E+00
 0.2554076659321E+00
 0.2287946958058E+00
 0.2002883208153E+00
 0.1694632205545E+00
 0.1361273713514E+00
 0.9839039812024E-01
 0.5496930022227E-01
 0.7772967090092E-02
 0.6692060925640E-01
 0.2197346266233E+00
 0.2883333368121E+00
 0.3166501421460E+00
 0.3271308225159E+00
 0.3311467048498E+00
 0.3315269817903E+00
 0.3266819325185E+00
 0.3166579301838E+00
 0.3024309287305E+00
 0.2849200486628E+00
 0.2648840383415E+00
 0.2428965377599E+00
 0.2192352979240E+00
 0.1937552117772E+00
 0.1660806839213E+00
 0.1360023058815E+00
 0.1011889814848E+00
 0.5975350958965E-01
 0.1352275157902E-01
 0.3916168098006E-01
 0.1737576399746E+00
 0.2393742129097E+00
 0.2695738998092E+00
 0.2831726937123E+00
 0.2903531916031E+00
 0.2938317397679E+00
 0.2921373306455E+00
 0.2853480926176E+00
 0.2744367321428E+00
 0.2602389639542E+00
 0.2434234752837E+00
 0.2245604264315E+00
 0.2040278003463E+00
 0.1818066801124E+00
 0.1576178217435E+00
 0.1313102304106E+00
 0.1002714526926E+00
 0.6200261545584E-01
 0.1807611410604E-01
 0.1550340025539E-01
 0.1316694549009E+00
 0.1927642617490E+00
 0.2231553929263E+00
 0.2384184391892E+00
 0.2475187380638E+00
 0.2530058580729E+00
 0.2535473736197E+00
 0.2492510945294E+00
 0.2410799033050E+00
 0.2297992138207E+00
 0.2159799827229E+00
 0.2001441346097E+00
 0.1827193642446E+00
 0.1637976710312E+00
 0.1432251013065E+00
 0.1209707192895E+00
 0.9431687699775E-01
 0.6017604728051E-01
 0.1963480083294E-01
 0.1061104051390E-01
 0.9323051594173E-01
 0.1485886877708E+00
 0.1776885303352E+00
 0.1932700172629E+00
 0.2031110295959E+00
 0.2095628452217E+00
 0.2114369646318E+00
 0.2088601075220E+00
 0.2027724845867E+00
 0.1938807635518E+00
 0.1826646237293E+00
 0.1695738253569E+00
 0.1550444662468E+00
 0.1392566889347E+00
 0.1221957657265E+00
 0.1040007389713E+00
 0.8204643015793E-01
 0.5273188349708E-01
 0.1645615625173E-01
 0.2801069732409E-01
 0.5820558349671E-01
 0.1069029006882E+00
 0.1334409227557E+00
 0.1481185236296E+00
 0.1575926495825E+00
 0.1640062527928E+00
 0.1663192117168E+00
 0.1646678954255E+00
 0.1599554533761E+00
 0.1528368830439E+00
 0.1437107892809E+00
 0.1329413623851E+00
 0.1209358066170E+00
 0.1079293733214E+00
 0.9404128449322E-01
 0.7961621226902E-01
 0.6234496970924E-01
 0.3828033140364E-01
 0.7241809012941E-02
 0.4454795428585E-01
 0.2642473561622E-01
 0.6775802504300E-01
 0.9066540671529E-01
 0.1033485732163E+00
 0.1114279705264E+00
 0.1168449586069E+00
 0.1187161637519E+00
 0.1171847289373E+00
 0.1131057382249E+00
 0.1070879223614E+00
 0.9946105664608E-01
 0.9049739470088E-01
 0.8053945362792E-01
 0.6983020080316E-01
 0.5858860386035E-01
 0.4737183654116E-01
 0.3444239142874E-01
 0.1595757958243E-01
 0.1142569713780E-01
 0.5927419437607E-01
 0.4787766216853E-02
 0.3135907447462E-01
 0.4967886754074E-01
 0.5939491436765E-01
 0.6513257505535E-01
 0.6864410174105E-01
 0.6921552523226E-01
 0.6700090206527E-01
 0.6280241611607E-01
 0.5719142949950E-01
 0.5044980860290E-01
 0.4276921171235E-01
 0.3441385927387E-01
 0.2561452141604E-01
 0.1674678617904E-01
 0.9087680019701E-02
 0.6769263353471E-02
 0.1767311001193E-01
 0.3733483394545E-01
 0.7231092474310E-01
 0.2953205831363E-01
 0.7919871481114E-02
 0.1245486035608E-01
 0.1767520281970E-01
 0.2004729946938E-01
 0.2077519412183E-01
 0.1934370985165E-01
 0.1601088165218E-01
 0.1180817796156E-01
 0.8367485743810E-02
 0.8816660887557E-02
 0.1359516849789E-01
 0.2019443989392E-01
 0.2755938655366E-01
 0.3528843203561E-01
 0.4260746934715E-01
 0.4961917387225E-01
 0.5892930032724E-01
 0.7298729222103E-01
 0.8385893458702E-01
 0.5340618234210E-01
 0.3653380063938E-01
 0.2926664388498E-01
 0.2772160353385E-01
 0.2886983178698E-01
 0.3139888073350E-01
 0.3567269660912E-01
 0.4151051877570E-01
 0.4823292468590E-01
 0.5531509849259E-01
 0.6249439531751E-01
 0.6966858586496E-01
 0.7676104620471E-01
 0.8382392964569E-01
 0.9095036869963E-01
 0.9780626564937E-01
 0.1040025911088E+00
 0.1105104227709E+00
 0.1185847962062E+00
 0.9413359582082E-01
 0.7518483684140E-01
 0.6599396031119E-01
 0.6426671274314E-01
 0.6743347712910E-01
 0.7305533057805E-01
 0.7979635424969E-01
 0.8778710372586E-01
 0.9676303857526E-01
 0.1060652021134E+00
 0.1151807756560E+00
 0.1238259327660E+00
 0.1318726086939E+00
 0.1392371344416E+00
 0.1460103529638E+00
 0.1525022717341E+00
 0.1589200661574E+00
 0.1652887220293E+00
 0.1713702100048E+00
 0.1743366090166E+00
 0.1033618760687E+00
 0.9509704644288E-01
 0.9338233549505E-01
 0.9759776304602E-01
 0.1059948193383E+00
 0.1165736021720E+00
 0.1280345589795E+00
 0.1402830504165E+00
 0.1529821661808E+00
 0.1655152162374E+00
 0.1773966002103E+00
 0.1883178281440E+00
 0.1980882382885E+00
 0.2065312404672E+00
 0.2136018467579E+00
 0.2195581780198E+00
 0.2250170132866E+00
 0.2304938983278E+00
 0.2380164286188E+00
 0.2405142142339E+00
 0.1120584227248E+00
 0.1131218470110E+00
 0.1184968733943E+00
 0.1288255660450E+00
 0.1427229149541E+00
 0.1586103822551E+00
 0.1752555423350E+00
 0.1923022244071E+00
 0.2093023250903E+00
 0.2256901476948E+00
 0.2410382937702E+00
 0.2550522021210E+00
 0.2674945023835E+00
 0.2780875887030E+00
 0.2865754636586E+00
 0.2928452170526E+00
 0.2971650150249E+00
 0.2999539575950E+00
 0.3037230540026E+00
 0.3118801165454E+00
 0.5761451041227E+00
 0.8358489263027E+00
 0.1083464446617E+01
 0.1307430575943E+01
 0.1504719242888E+01
 0.1675326774634E+01
 0.1820317375798E+01
 0.1941670348295E+01
 0.2042311372228E+01
 0.2125411305132E+01
 0.2193854907878E+01
 0.2250165778220E+01
 0.2296571662970E+01
 0.2334997895736E+01
 0.2367022938593E+01
 0.2393908409196E+01
 0.2416671871512E+01
 0.2435525868785E+01
 0.2451060624289E+01
 0.2465197207254E+01
 0.6156741347741E+00
 0.8978994064946E+00
 0.1162355447146E+01
 0.1398099619111E+01
 0.1601772241404E+01
 0.1773877326288E+01
 0.1916213171609E+01
 0.2031595110774E+01
 0.2124007448025E+01
 0.2197592468285E+01
 0.2255943282224E+01
 0.2302063549250E+01
 0.2338499731478E+01
 0.2367383015021E+01
 0.2390424385988E+01
 0.2409031794894E+01
 0.2424533868787E+01
 0.2436953285238E+01
 0.2447046437982E+01
 0.2456550641931E+01
 0.6579959194026E+00
 0.9659106156280E+00
 0.1247982584850E+01
 0.1494208103984E+01
 0.1701941780647E+01
 0.1872652781999E+01
 0.2009183164780E+01
 0.2115374240424E+01
 0.2196543324578E+01
 0.2257983454650E+01
 0.2304038202206E+01
 0.2338180671588E+01
 0.2363277424299E+01
 0.2381664044047E+01
 0.2395183706635E+01
 0.2405378438346E+01
 0.2413712453592E+01
 0.2419626149776E+01
 0.2423987872343E+01
 0.2429070475626E+01
 0.7043700345067E+00
 0.1040476084789E+01
 0.1340639906132E+01
 0.1595771255772E+01
 0.1804682503160E+01
 0.1970472178451E+01
 0.2097458004360E+01
 0.2190885412665E+01
 0.2257700752869E+01
 0.2304457790156E+01
 0.2336237850695E+01
 0.2356935287182E+01
 0.2369684363700E+01
 0.2376954005255E+01
 0.2380633568802E+01
 0.2382272770934E+01
 0.2383235437072E+01
 0.2382200842111E+01
 0.2380813783177E+01
 0.2383185651805E+01
 0.7556466816737E+00
 0.1122766653918E+01
 0.1440859916920E+01
 0.1702652102252E+01
 0.1909130732014E+01
 0.2065764672123E+01
 0.2178940894131E+01
 0.2255792457961E+01
 0.2305186363719E+01
 0.2334959853052E+01
 0.2350833893092E+01
 0.2357008780774E+01
 0.2356771174529E+01
 0.2352592295191E+01
 0.2346275046824E+01
 0.2339240449186E+01
 0.2332584262884E+01
 0.2324353097748E+01
 0.2317779029614E+01
 0.2319470760918E+01
 0.8127677665115E+00
 0.1214002149366E+01
 0.1549252534812E+01
 0.1814547441868E+01
 0.2014074136119E+01
 0.2156562415665E+01
 0.2251202350093E+01
 0.2307578335270E+01
 0.2336702375808E+01
 0.2347586085747E+01
 0.2346384247972E+01
 0.2337412829034E+01
 0.2323939381654E+01
 0.2308270933861E+01
 0.2291986707572E+01
 0.2276276403773E+01
 0.2261893000617E+01
 0.2246514325952E+01
 0.2235599592012E+01
 0.2238545513299E+01
 0.8768176553794E+00
 0.1315529535894E+01
 0.1666372093005E+01
 0.1930904547221E+01
 0.2117895765777E+01
 0.2240468748811E+01
 0.2311497962892E+01
 0.2343611078092E+01
 0.2350044117157E+01
 0.2340691237180E+01
 0.2321813379020E+01
 0.2297581986663E+01
 0.2271034432179E+01
 0.2244136300668E+01
 0.2218123852898E+01
 0.2193894834843E+01
 0.2171840808042E+01
 0.2149564661231E+01
 0.2135209138303E+01
 0.2141096898672E+01
 0.9490772996782E+00
 0.1428837069806E+01
 0.1792662923081E+01
 0.2050815545089E+01
 0.2218489636819E+01
 0.2314627255001E+01
 0.2356809766444E+01
 0.2361246942397E+01
 0.2343231159578E+01
 0.2313017754029E+01
 0.2276523246113E+01
 0.2237461757719E+01
 0.2198412687832E+01
 0.2160833639541E+01
 0.2125527845772E+01
 0.2093074990522E+01
 0.2063514517284E+01
 0.2034670933512E+01
 0.2017686362194E+01
 0.2027901488193E+01
 0.1031076781859E+01
 0.1555573600414E+01
 0.1928386740278E+01
 0.2172896780817E+01
 0.2313159501772E+01
 0.2375702566339E+01
 0.2383927663650E+01
 0.2357980103980E+01
 0.2314672478932E+01
 0.2263838005710E+01
 0.2210495623819E+01
 0.2157569514071E+01
 0.2106966071295E+01
 0.2059499012289E+01
 0.2015483198484E+01
 0.1975180545983E+01
 0.1938302667127E+01
 0.1903200511575E+01
 0.1884231307979E+01
 0.1899827114378E+01
 0.1124661282389E+01
 0.1697563135421E+01
 0.2073520313100E+01
 0.2295129852251E+01
 0.2398506232065E+01
 0.2419892573790E+01
 0.2389592353260E+01
 0.2331649211541E+01
 0.2263359255184E+01
 0.2193090708947E+01
 0.2124363361055E+01
 0.2059011284499E+01
 0.1998100350095E+01
 0.1941711280230E+01
 0.1889650528634E+01
 0.1841881130549E+01
 0.1797820081151E+01
 0.1756675598553E+01
 0.1736158192255E+01
 0.1757830430800E+01
 0.1232079289412E+01
 0.1856813019195E+01
 0.2227598672231E+01
 0.2414646146345E+01
 0.2470310449181E+01
 0.2443003060716E+01
 0.2370728253124E+01
 0.2280705140377E+01
 0.2189065455198E+01
 0.2101481276721E+01
 0.2019425388397E+01
 0.1943443512901E+01
 0.1873671374616E+01
 0.1809419215441E+01
 0.1749993383491E+01
 0.1695086692747E+01
 0.1643859574213E+01
 0.1596755568439E+01
 0.1574905555483E+01
 0.1602966481807E+01
 0.1356106260583E+01
 0.2035506076089E+01
 0.2389465415665E+01
 0.2527430043208E+01
 0.2523432618676E+01
 0.2440636177013E+01
 0.2324798287066E+01
 0.2204525769276E+01
 0.2092512219882E+01
 0.1990503087426E+01
 0.1897583945737E+01
 0.1812981520221E+01
 0.1735894388601E+01
 0.1664861160332E+01
 0.1598711645366E+01
 0.1536900089055E+01
 0.1478370227881E+01
 0.1425248610501E+01
 0.1402074246674E+01
 0.1436426374135E+01
 0.1500224921664E+01
 0.2235953870076E+01
 0.2556859994189E+01
 0.2627911271407E+01
 0.2551786690703E+01
 0.2408576244945E+01
 0.2250300485636E+01
 0.2103720107028E+01
 0.1975417628252E+01
 0.1862334298245E+01
 0.1761203432869E+01
 0.1670079301256E+01
 0.1587252076832E+01
 0.1510492755773E+01
 0.1438187170228E+01
 0.1369588610671E+01
 0.1303464032034E+01
 0.1244160692839E+01
 0.1219508066497E+01
 0.1259621707319E+01
 0.1668898533030E+01
 0.2460455046909E+01
 0.2725708845902E+01
 0.2708421804689E+01
 0.2548518796723E+01
 0.2343493457258E+01
 0.2147369253968E+01
 0.1980279821742E+01
 0.1840327093900E+01
 0.1719598061521E+01
 0.1612938728274E+01
 0.1517429310364E+01
 0.1430425122951E+01
 0.1348925332932E+01
 0.1270935929577E+01
 0.1195570754523E+01
 0.1121455314838E+01
 0.1055795543105E+01
 0.1029436563223E+01
 0.1074340182457E+01
 0.1868003004852E+01
 0.2710916914949E+01
 0.2888855067527E+01
 0.2758545697597E+01
 0.2506681726775E+01
 0.2244094151751E+01
 0.2018269902447E+01
 0.1837325252891E+01
 0.1690157679456E+01
 0.1565083321624E+01
 0.1455636055783E+01
 0.1357925971822E+01
 0.1268241506368E+01
 0.1182854881024E+01
 0.1099551124169E+01
 0.1017414531434E+01
 0.9349422691030E+00
 0.8629262400972E+00
 0.8347064032201E+00
 0.8830061184194E+00
 0.2105539874480E+01
 0.2987843350660E+01
 0.3033691677917E+01
 0.2764603378328E+01
 0.2421034311750E+01
 0.2112644046439E+01
 0.1867215032419E+01
 0.1678143478782E+01
 0.1527662142764E+01
 0.1401657982861E+01
 0.1292396026130E+01
 0.1194674615149E+01
 0.1103593987744E+01
 0.1014946529404E+01
 0.9266258048726E+00
 0.8378486359334E+00
 0.7469442675609E+00
 0.6690646228493E+00
 0.6391382190784E+00
 0.6890966264294E+00
 0.2392899302721E+01
 0.3287527792819E+01
 0.3137497656286E+01
 0.2710487394460E+01
 0.2291969845184E+01
 0.1956020923294E+01
 0.1698219339368E+01
 0.1504999650463E+01
 0.1355353769623E+01
 0.1232569780862E+01
 0.1126752038935E+01
 0.1030923355298E+01
 0.9392513880876E+00
 0.8476636395076E+00
 0.7546611692606E+00
 0.6597912883654E+00
 0.5610961463554E+00
 0.4788557410172E+00
 0.4480660249019E+00
 0.4978025938940E+00
 0.2746897647355E+01
 0.3592717088384E+01
 0.3158997577987E+01
 0.2583488729543E+01
 0.2133317319621E+01
 0.1781284942314E+01
 0.1512199280561E+01
 0.1318993591981E+01
 0.1176305943797E+01
 0.1062067269524E+01
 0.9626684125522E+00
 0.8697436519118E+00
 0.7775653614734E+00
 0.6830837998515E+00
 0.5859936423016E+00
 0.4863610090769E+00
 0.3818713898897E+00
 0.2985925317933E+00
 0.2691426030960E+00
 0.3171358389501E+00
 0.3195231638695E+01
 0.3841538746753E+01
 0.3018921856944E+01
 0.2411471451941E+01
 0.1963967261958E+01
 0.1588357364155E+01
 0.1306361491046E+01
 0.1121593155002E+01
 0.9959681030941E+00
 0.8956520530899E+00
 0.8038999749709E+00
 0.7134739066287E+00
 0.6202361130071E+00
 0.5228332657415E+00
 0.4226208833508E+00
 0.3208951610140E+00
 0.2146778937705E+00
 0.1366752397334E+00
 0.1134725141673E+00
 0.1599396098253E+00
 0.3736001240815E+01
 0.3663095659318E+01
 0.2754803851568E+01
 0.2249945323908E+01
 0.1788460539961E+01
 0.1369128497059E+01
 0.1074701701760E+01
 0.9198259533161E+00
 0.8234248523912E+00
 0.7386506398995E+00
 0.6527740811118E+00
 0.5633005160393E+00
 0.4684419595652E+00
 0.3682014167247E+00
 0.2659580159056E+00
 0.1659160446462E+00
 0.6720655949462E-01
 0.4223121067205E-02
 0.7600146834574E-02
 0.4664846250612E-01
 0.3284289733172E+00
 0.2561481449595E+00
 0.1959591850833E+00
 0.1444654358606E+00
 0.1014471574037E+00
 0.6755209405929E-01
 0.4288066489431E-01
 0.2699541005830E-01
 0.1894913144302E-01
 0.1737321377825E-01
 0.2049737728875E-01
 0.2628104118630E-01
 0.3269373380731E-01
 0.3794463265579E-01
 0.4070081660323E-01
 0.4027357462640E-01
 0.3670969822484E-01
 0.3075683945150E-01
 0.2374865615228E-01
 0.1736869547096E-01
 0.3763077377067E+00
 0.3100041569171E+00
 0.2440048007649E+00
 0.1869149735719E+00
 0.1393103888623E+00
 0.1013823260898E+00
 0.7324528445999E-01
 0.5462219211054E-01
 0.4473818596162E-01
 0.4228753864715E-01
 0.4545778102738E-01
 0.5205420657903E-01
 0.5972606156804E-01
 0.6624178069422E-01
 0.6979281519085E-01
 0.6928134481390E-01
 0.6450677275759E-01
 0.5617509547073E-01
 0.4570912357678E-01
 0.3515326850584E-01
 0.4259221541194E+00
 0.3612363227597E+00
 0.2953147254031E+00
 0.2344140022899E+00
 0.1820975748271E+00
 0.1394663638864E+00
 0.1069753824101E+00
 0.8463146853007E-01
 0.7191753937475E-01
 0.6771771168127E-01
 0.7029559417510E-01
 0.7737151838662E-01
 0.8631539969014E-01
 0.9443779320032E-01
 0.9936120353586E-01
 0.9942268391988E-01
 0.9399907689687E-01
 0.8361254693361E-01
 0.6974616083163E-01
 0.5443028382164E-01
 0.4796190548216E+00
 0.4148514280546E+00
 0.3488903134944E+00
 0.2859882194887E+00
 0.2297237237087E+00
 0.1822714367186E+00
 0.1447755526251E+00
 0.1177446920680E+00
 0.1010864912737E+00
 0.9403719840326E-01
 0.9509838805722E-01
 0.1020498453272E+00
 0.1120842512255E+00
 0.1220782604010E+00
 0.1290028504871E+00
 0.1304412572847E+00
 0.1250982977515E+00
 0.1131001252932E+00
 0.9588317809229E-01
 0.7557485571873E-01
 0.5374036028868E+00
 0.4722896530526E+00
 0.4061777666202E+00
 0.3418504476964E+00
 0.2824461402602E+00
 0.2304450857497E+00
 0.1876076965317E+00
 0.1550424285991E+00
 0.1332282614559E+00
 0.1219362015608E+00
 0.1201222118878E+00
 0.1258608248342E+00
 0.1363849281706E+00
 0.1482800941915E+00
 0.1578713226684E+00
 0.1618146473912E+00
 0.1578120551981E+00
 0.1452132828799E+00
 0.1251630332373E+00
 0.1000594300730E+00
 0.5992364265986E+00
 0.5340732135299E+00
 0.4679765409745E+00
 0.4027174715633E+00
 0.3408431314993E+00
 0.2847975811639E+00
 0.2366528326045E+00
 0.1980242159730E+00
 0.1699916657981E+00
 0.1529809890462E+00
 0.1466061528764E+00
 0.1495157012359E+00
 0.1593070974565E+00
 0.1725799318638E+00
 0.1852031110744E+00
 0.1928731830495E+00
 0.1919751155460E+00
 0.1805607131984E+00
 0.1589993100683E+00
 0.1298159590897E+00
 0.6650381017783E+00
 0.6004549270856E+00
 0.5348349877032E+00
 0.4692522524290E+00
 0.4056681703780E+00
 0.3462782495210E+00
 0.2932183537055E+00
 0.2484119980690E+00
 0.2134433573647E+00
 0.1894011412206E+00
 0.1766800572242E+00
 0.1747519386421E+00
 0.1819490859287E+00
 0.1953302029887E+00
 0.2107248166522E+00
 0.2230910223970E+00
 0.2273354732306E+00
 0.2195960563388E+00
 0.1985977939308E+00
 0.1662739313606E+00
 0.7346568387066E+00
 0.6714873687161E+00
 0.6070649857881E+00
 0.5419758009875E+00
 0.4776422979435E+00
 0.4158942058334E+00
 0.3587245479120E+00
 0.3081418030340E+00
 0.2660421956825E+00
 0.2340565740316E+00
 0.2133470037540E+00
 0.2043447543122E+00
 0.2064412214107E+00
 0.2176741824921E+00
 0.2344910480977E+00
 0.2517334150154E+00
 0.2630968128344E+00
 0.2623683655916E+00
 0.2454075881745E+00
 0.2120682435875E+00
 0.8078631481001E+00
 0.7470604533054E+00
 0.6847535453387E+00
 0.6211790327884E+00
 0.5572883357844E+00
 0.4944914488101E+00
 0.4344874270854E+00
 0.3791556911573E+00
 0.3304633502558E+00
 0.2903517830364E+00
 0.2605746074202E+00
 0.2424645761728E+00
 0.2366132373819E+00
 0.2424622070710E+00
 0.2578351617545E+00
 0.2784950974312E+00
 0.2979406516510E+00
 0.3079440952147E+00
 0.3004904850412E+00
 0.2709509188367E+00
 0.8843522860216E+00
 0.8269343993043E+00
 0.7677887541502E+00
 0.7069052858842E+00
 0.6448464373509E+00
 0.5826038688093E+00
 0.5214965866493E+00
 0.4631085693235E+00
 0.4092422928748E+00
 0.3618626609137E+00
 0.3230065848655E+00
 0.2946321424698E+00
 0.2783769485485E+00
 0.2751908921640E+00
 0.2848099246279E+00
 0.3050528988155E+00
 0.3309788294359E+00
 0.3541699663171E+00
 0.3632129803404E+00
 0.3469119614187E+00
 0.9637502276990E+00
 0.9107561607448E+00
 0.8558734659160E+00
 0.7989386845005E+00
 0.7402187445004E+00
 0.6803360434795E+00
 0.6202153063556E+00
 0.5610571454534E+00
 0.5043291298228E+00
 0.4517602264648E+00
 0.4053222230344E+00
 0.3671780721405E+00
 0.3395696391556E+00
 0.3246039041350E+00
 0.3238759484368E+00
 0.3378369855587E+00
 0.3647740445994E+00
 0.3992194571199E+00
 0.4298781140392E+00
 0.4396715340438E+00
 0.1045607381142E+01
 0.9980424930013E+00
 0.9485138064035E+00
 0.8967915162203E+00
 0.8429442958722E+00
 0.7873084918118E+00
 0.7304643665883E+00
 0.6732298080673E+00
 0.6166710447108E+00
 0.5621254691830E+00
 0.5112295250181E+00
 0.4659421842077E+00
 0.4285497455111E+00
 0.4016278076697E+00
 0.3879164072072E+00
 0.3900257505755E+00
 0.4098069724187E+00
 0.4470448629678E+00
 0.4965382852984E+00
 0.5421979149945E+00
 0.1129391400580E+01
 0.1088141085366E+01
 0.1044957361894E+01
 0.9996132108951E+00
 0.9520727517525E+00
 0.9024878320843E+00
 0.8511906730478E+00
 0.7986958773501E+00
 0.7457158171860E+00
 0.6931899095903E+00
 0.6423271314257E+00
 0.5946607081465E+00
 0.5521132155276E+00
 0.5170681956192E+00
 0.4924387269149E+00
 0.4817085853664E+00
 0.4888866328781E+00
 0.5181982529053E+00
 0.5730496116136E+00
 0.6509181376145E+00
 0.1214515788086E+01
 0.1180280185038E+01
 0.1144248156173E+01
 0.1106240405265E+01
 0.1066194691545E+01
 0.1024176866994E+01
 0.9803836240422E+00
 0.9351489471011E+00
 0.8889597371247E+00
 0.8424835181035E+00
 0.7966107234962E+00
 0.7525149525490E+00
 0.7117366122722E+00
 0.6762989226285E+00
 0.6488714300090E+00
 0.6330080652182E+00
 0.6335095565374E+00
 0.6570255543164E+00
 0.7131346618873E+00
 0.8174166692899E+00
 0.1300366486301E+01
 0.1273633999204E+01
 0.1245325756324E+01
 0.1215331541671E+01
 0.1183612986323E+01
 0.1150220681105E+01
 0.1115303437576E+01
 0.1079118609969E+01
 0.1042048633312E+01
 0.1004627357250E+01
 0.9675797267946E+00
 0.9318795994533E+00
 0.8988331774460E+00
 0.8702004924518E+00
 0.8483766903351E+00
 0.8366731085309E+00
 0.8397786764883E+00
 0.8645760583193E+00
 0.9217815098216E+00
 0.1030076428010E+01
 0.1386322299586E+01
 0.1367368969458E+01
 0.1347107608667E+01
 0.1325499548356E+01
 0.1302550660223E+01
 0.1278329341328E+01
 0.1252978477023E+01
 0.1226727221828E+01
 0.1199906543059E+01
 0.1172971534754E+01
 0.1146533446480E+01
 0.1121405096527E+01
 0.1098664929630E+01
 0.1079747780879E+01
 0.1066575131358E+01
 0.1061745774816E+01
 0.1068821213127E+01
 0.1092759771793E+01
 0.1140566186533E+01
 0.1221448712535E+01
 0.1471772197896E+01
 0.1460675335304E+01
 0.1448547328339E+01
 0.1435411941210E+01
 0.1421318808053E+01
 0.1406359509595E+01
 0.1390678972221E+01
 0.1374485692715E+01
 0.1358063293663E+01
 0.1341785229118E+01
 0.1326134109052E+01
 0.1311726984216E+01
 0.1299347862662E+01
 0.1289988401000E+01
 0.1284896399499E+01
 0.1285627416877E+01
 0.1294081473749E+01
 0.1312467626607E+01
 0.1342980223634E+01
 0.1386795358465E+01
 0.1556128041086E+01
 0.1552784273618E+01
 0.1548661237083E+01
 0.1543829685576E+01
 0.1538370356698E+01
 0.1532386910964E+01
 0.1526014662714E+01
 0.1519427023983E+01
 0.1512840915845E+01
 0.1506521777614E+01
 0.1500788175251E+01
 0.1496015249134E+01
 0.1492635077211E+01
 0.1491129944437E+01
 0.1492010486720E+01
 0.1495762616733E+01
 0.1502731267465E+01
 0.1512876269004E+01
 0.1525315041134E+01
 0.1537713395619E+01
 0.1638835079981E+01
 0.1642980244310E+01
 0.1646544380529E+01
 0.1649627007339E+01
 0.1652321370654E+01
 0.1654724067864E+01
 0.1656940319318E+01
 0.1659085741540E+01
 0.1661285088835E+01
 0.1663667817711E+01
 0.1666359598231E+01
 0.1669467989961E+01
 0.1673059234004E+01
 0.1677121227799E+01
 0.1681504921686E+01
 0.1685832513531E+01
 0.1689356775643E+01
 0.1690760585866E+01
 0.1687919979239E+01
 0.1677621355740E+01
 0.1719380549115E+01
 0.1730610236169E+01
 0.1741381262139E+01
 0.1751803386492E+01
 0.1761961857770E+01
 0.1771924824811E+01
 0.1781745447158E+01
 0.1791459395161E+01
 0.1801078017075E+01
 0.1810576784048E+01
 0.1819878011171E+01
 0.1828826212246E+01
 0.1837153772228E+01
 0.1844434004748E+01
 0.1850018483099E+01
 0.1852956826960E+01
 0.1851902780070E+01
 0.1845024766980E+01
 0.1829955295878E+01
 0.1803863756607E+01
 0.1797297443619E+01
 0.1815085965185E+01
 0.1832447658698E+01
 0.1849483895319E+01
 0.1866251845908E+01
 0.1882771160485E+01
 0.1899023739436E+01
 0.1914948333576E+01
 0.1930430370400E+01
 0.1945286836357E+01
 0.1959245654562E+01
 0.1971918777571E+01
 0.1982768239459E+01
 0.1991064915627E+01
 0.1995841180533E+01
 0.1995841823476E+01
 0.1989483163671E+01
 0.1974836939194E+01
 0.1949664398427E+01
 0.1911557550575E+01
 0.1872162051625E+01
 0.1895879843012E+01
 0.1919104269492E+01
 0.1941908923854E+01
 0.1964305025967E+01
 0.1986246952357E+01
 0.2007630924878E+01
 0.2028288607544E+01
 0.2047976337478E+01
 0.2066360261427E+01
 0.2082997511767E+01
 0.2097313655380E+01
 0.2108577053328E+01
 0.2115871604719E+01
 0.2118070747033E+01
 0.2113817444100E+01
 0.2101516334651E+01
 0.2079343483908E+01
 0.2045273848998E+01
 0.1997070489370E+01
 0.1943604792886E+01
 0.1972540755716E+01
 0.2000812641644E+01
 0.2028449619834E+01
 0.2055402132099E+01
 0.2081546554677E+01
 0.2106684193182E+01
 0.2130535959022E+01
 0.2152733663271E+01
 0.2172808691292E+01
 0.2190178855802E+01
 0.2204134440278E+01
 0.2213824825044E+01
 0.2218247585067E+01
 0.2216242366434E+01
 0.2206491707187E+01
 0.2187529425213E+01
 0.2157753207957E+01
 0.2115426103074E+01
 0.2058648686774E+01
 0.2011307563311E+01
 0.2044689735931E+01
 0.2077129751205E+01
 0.2108600112344E+01
 0.2138979210293E+01
 0.2168056598172E+01
 0.2195534013639E+01
 0.2221023099084E+01
 0.2244040908965E+01
 0.2264004389756E+01
 0.2280225130494E+01
 0.2291905828580E+01
 0.2298140041780E+01
 0.2297916755925E+01
 0.2290130823846E+01
 0.2273599073464E+01
 0.2247079679994E+01
 0.2209289319852E+01
 0.2158914017039E+01
 0.2094627234439E+01
 0.2075001328051E+01
 0.2112013740663E+01
 0.2147699298658E+01
 0.2181965641180E+01
 0.2214611039493E+01
 0.2245332621688E+01
 0.2273731443995E+01
 0.2299314930535E+01
 0.2321497983050E+01
 0.2339604321371E+01
 0.2352869686890E+01
 0.2360448524103E+01
 0.2361425618271E+01
 0.2354833796879E+01
 0.2339678050431E+01
 0.2314965222923E+01
 0.2279736877153E+01
 0.2233102461081E+01
 0.2174272973027E+01
 0.2102596602957E+01
 0.2134463224175E+01
 0.2174259442607E+01
 0.2212242637494E+01
 0.2248250318554E+01
 0.2281994543338E+01
 0.2313076587598E+01
 0.2340998212658E+01
 0.2365170011695E+01
 0.2384918600986E+01
 0.2399494635682E+01
 0.2408083510788E+01
 0.2409820385226E+01
 0.2403810877744E+01
 0.2389158419048E+01
 0.2364998840632E+01
 0.2330542436722E+01
 0.2285123614764E+01
 0.2228257610642E+01
 0.2159699919439E+01
 0.2079496396349E+01
 0.2189512100298E+01
 0.2231226259729E+01
 0.2270549883093E+01
 0.2307245653011E+01
 0.2340933492926E+01
 0.2371116500412E+01
 0.2397200358245E+01
 0.2418508004868E+01
 0.2434292371223E+01
 0.2443749710192E+01
 0.2446035530330E+01
 0.2440284674205E+01
 0.2425636719786E+01
 0.2401267718343E+01
 0.2366429494289E+01
 0.2320498622547E+01
 0.2263038907158E+01
 0.2193882963121E+01
 0.2113234261598E+01
 0.2021772876534E+01
 0.2240002522262E+01
 0.2282759181890E+01
 0.2322472096616E+01
 0.2358820721445E+01
 0.2391325100431E+01
 0.2419388340697E+01
 0.2442325136551E+01
 0.2459382066357E+01
 0.2469754285290E+01
 0.2472601784490E+01
 0.2467067259179E+01
 0.2452296819288E+01
 0.2427464285487E+01
 0.2391799728760E+01
 0.2344623459447E+01
 0.2285388245193E+01
 0.2213736004334E+01
 0.2129582554848E+01
 0.2033261653724E+01
 0.1925765270848E+01
 0.2285817824930E+01
 0.2328743109393E+01
 0.2367916118187E+01
 0.2402914845436E+01
 0.2433148721943E+01
 0.2457920061183E+01
 0.2476460536895E+01
 0.2487955058563E+01
 0.2491559852569E+01
 0.2486418530289E+01
 0.2471678001425E+01
 0.2446504809981E+01
 0.2410101651695E+01
 0.2361723417462E+01
 0.2300692112912E+01
 0.2226410626799E+01
 0.2138377188555E+01
 0.2036209063163E+01
 0.1919710152101E+01
 0.1789145329359E+01
 0.2326864301093E+01
 0.2369102516879E+01
 0.2406843668189E+01
 0.2439532160851E+01
 0.2466454430994E+01
 0.2486814175035E+01
 0.2499773044999E+01
 0.2504474666929E+01
 0.2500060791727E+01
 0.2485683784347E+01
 0.2460516818514E+01
 0.2423761269294E+01
 0.2374649425356E+01
 0.2312439429842E+01
 0.2236397879726E+01
 0.2145762953861E+01
 0.2039676114649E+01
 0.1917059204811E+01
 0.1776387857356E+01
 0.1615295208454E+01
 0.2363071692342E+01
 0.2403809016477E+01
 0.2439271202545E+01
 0.2468730418910E+01
 0.2491340524439E+01
 0.2506215735067E+01
 0.2512469506140E+01
 0.2509233999845E+01
 0.2495670668398E+01
 0.2470976257003E+01
 0.2434384768686E+01
 0.2385163446577E+01
 0.2322598892904E+01
 0.2245967389256E+01
 0.2154480385045E+01
 0.2047190394360E+01
 0.1922829597784E+01
 0.1779523923624E+01
 0.1614231675656E+01
 0.1421333258825E+01
 0.2394392065955E+01
 0.2432871178642E+01
 0.2465245858852E+01
 0.2490585217682E+01
 0.2507911144920E+01
 0.2516270988155E+01
 0.2514766166436E+01
 0.2502561287387E+01
 0.2478885590092E+01
 0.2443030620309E+01
 0.2394343362092E+01
 0.2332211190717E+01
 0.2256032889810E+01
 0.2165167733414E+01
 0.2058851408106E+01
 0.1936062002333E+01
 0.1795310123682E+01
 0.1634304627861E+01
 0.1449425339470E+01
 0.1234868877305E+01
 0.2420794702244E+01
 0.2456309878496E+01
 0.2484816568528E+01
 0.2505162812584E+01
 0.2516257499543E+01
 0.2517123301778E+01
 0.2506903629596E+01
 0.2484854423374E+01
 0.2450333191486E+01
 0.2402787490501E+01
 0.2341739777498E+01
 0.2266762873602E+01
 0.2177438756734E+01
 0.2073292109400E+01
 0.1953688762383E+01
 0.1817689320937E+01
 0.1663854392461E+01
 0.1490036764951E+01
 0.1293294673924E+01
 0.1071030973270E+01
 0.2442288878429E+01
 0.2474180141393E+01
 0.2498051670290E+01
 0.2512531983691E+01
 0.2516461109664E+01
 0.2508901049031E+01
 0.2489105973155E+01
 0.2456489444737E+01
 0.2410598916387E+01
 0.2351095535135E+01
 0.2277732273215E+01
 0.2190322347736E+01
 0.2088690315239E+01
 0.1972599356689E+01
 0.1841650802937E+01
 0.1695159554958E+01
 0.1532034067204E+01
 0.1350763682176E+01
 0.1149889206458E+01
 0.9293561197307E+00
 0.2458928966241E+01
 0.2486567376918E+01
 0.2505027999848E+01
 0.2512752248683E+01
 0.2508587264607E+01
 0.2491718278543E+01
 0.2461584970191E+01
 0.2417819109843E+01
 0.2360206109664E+01
 0.2288659535084E+01
 0.2203196168576E+01
 0.2103902043715E+01
 0.1990884052365E+01
 0.1864205909858E+01
 0.1723813084581E+01
 0.1569462170890E+01
 0.1400692775529E+01
 0.1216922081697E+01
 0.1017831324536E+01
 0.8040984290864E+00
 0.2470824540914E+01
 0.2493588862553E+01
 0.2505822014201E+01
 0.2505863572484E+01
 0.2492679779899E+01
 0.2465674946536E+01
 0.2424539260459E+01
 0.2369161009207E+01
 0.2299584101342E+01
 0.2215985103970E+01
 0.2118650706692E+01
 0.2007948025955E+01
 0.1884287822307E+01
 0.1748086744174E+01
 0.1599741290523E+01
 0.1439633601944E+01
 0.1268187358228E+01
 0.1085946786933E+01
 0.8932993609248E+00
 0.6897104163746E+00
 0.2478138541219E+01
 0.2495366601220E+01
 0.2500476202942E+01
 0.2491866725383E+01
 0.2468772620657E+01
 0.2430906058702E+01
 0.2378240716353E+01
 0.2310921184966E+01
 0.2229237165972E+01
 0.2133610442071E+01
 0.2024578520942E+01
 0.1902774928869E+01
 0.1768913611335E+01
 0.1623790587556E+01
 0.1468321649765E+01
 0.1303636304903E+01
 0.1131229239452E+01
 0.9530512799593E+00
 0.7710163271565E+00
 0.5832127757393E+00
 0.2481116700960E+01
 0.2492088075833E+01
 0.2489121427424E+01
 0.2470941459599E+01
 0.2437216770827E+01
 0.2388006316583E+01
 0.2323530420876E+01
 0.2244144281521E+01
 0.2150339394465E+01
 0.2042737069277E+01
 0.1922075565441E+01
 0.1789200099427E+01
 0.1645068852877E+01
 0.1490792640014E+01
 0.1327731141160E+01
 0.1157670829289E+01
 0.9830944717282E+00
 0.8074968078945E+00
 0.6355559272456E+00
 0.4711011457136E+00
 0.2480141995931E+01
 0.2484009443073E+01
 0.2471900900418E+01
 0.2443336596336E+01
 0.2398531461263E+01
 0.2337762236442E+01
 0.2261394581837E+01
 0.2169927498436E+01
 0.2063995644426E+01
 0.1944354559689E+01
 0.1811863561572E+01
 0.1667479093235E+01
 0.1512272580342E+01
 0.1347491577315E+01
 0.1174689902865E+01
 0.9959615084985E+00
 0.8143309468159E+00
 0.6344241087018E+00
 0.4639188151925E+00
 0.3191456728845E+00
 0.2475688938193E+01
 0.2471054617648E+01
 0.2448565656187E+01
 0.2409232125712E+01
 0.2353333962042E+01
 0.2281140807061E+01
 0.2193095408591E+01
 0.2089804672267E+01
 0.1972010757507E+01
 0.1840561800371E+01
 0.1696392682721E+01
 0.1540524680378E+01
 0.1374097016317E+01
 0.1198449601253E+01
 0.1015285869563E+01
 0.8269626308588E+00
 0.6370033809889E+00
 0.4510985906817E+00
 0.2794629462757E+00
 0.1463303407495E+00
</DataArray>
<CellData Tensors="'E_Centroid','S_Centroid'">
<DataArray type="Float64" Name="E_Centroid" NumberOfComponents="4" ComponentName0="E11" ComponentName1="E22" ComponentName2="E33" ComponentName3="E12" format="ascii">
-0.8406319958520E-03  0.6246649994112E-02  0.0000000000000E+00  0.1669525988998E-02
-0.1482938671527E-02  0.5502334215601E-02  0.0000000000000E+00 -0.4868364747578E-04
-0.1306839685103E-02  0.5305602415948E-02  0.0000000000000E+00  0.3694840274212E-04
-0.1315959829467E-02  0.5249106459044E-02  0.0000000000000E+00  0.8969118516566E-05
-0.1301789621975E-02  0.5210848571155E-02  0.0000000000000E+00  0.1063708814646E-04
-0.1294552631411E-02  0.5177811787264E-02  0.0000000000000E+00  0.1350067193807E-04
-0.1284986437927E-02  0.5140487893974E-02  0.0000000000000E+00  0.1778488691234E-04
-0.1274029281848E-02  0.5096461282449E-02  0.0000000000000E+00  0.2220820087023E-04
-0.1261097316599E-02  0.5044802104599E-02  0.0000000000000E+00  0.2650729885799E-04
-0.1246260055509E-02  0.4985449862751E-02  0.0000000000000E+00  0.3056067004470E-04
-0.1229553353951E-02  0.4918626535802E-02  0.0000000000000E+00  0.3435971111405E-04
-0.1211059652917E-02  0.4844642142790E-02  0.0000000000000E+00  0.3793580018714E-04
-0.1190850112053E-02  0.4763785693864E-02  0.0000000000000E+00  0.4133997589974E-04
-0.1168980519640E-02  0.4676279033192E-02  0.0000000000000E+00  0.4462921499000E-04
-0.1145484958307E-02  0.4582258712487E-02  0.0000000000000E+00  0.4785901642332E-04
-0.1120376053264E-02  0.4481775801341E-02  0.0000000000000E+00  0.5107790162244E-04
-0.1093648497649E-02  0.4374806877649E-02  0.0000000000000E+00  0.5432554822810E-04
-0.1065284287204E-02  0.4261284610101E-02  0.0000000000000E+00  0.5762177101555E-04
-0.1035261988890E-02  0.4141120695601E-02  0.0000000000000E+00  0.6096837513919E-04
-0.1003569858031E-02  0.4014272923642E-02  0.0000000000000E+00  0.6433236532677E-04
-0.9702265982181E-03  0.3880823224255E-02  0.0000000000000E+00  0.6762435380767E-04
-0.9353249857120E-03  0.3741150682613E-02  0.0000000000000E+00  0.7064493149331E-04
-0.8990329444342E-03  0.3596384998631E-02  0.0000000000000E+00  0.7252447314682E-04
-0.8614790446979E-03  0.3448438193252E-02  0.0000000000000E+00  0.6962644691302E-04
-0.8223703400113E-03  0.3295913346023E-02  0.0000000000000E+00  0.5593919558414E-04
-0.7808755040938E-03  0.3133544928285E-02  0.0000000000000E+00  0.2863517774496E-04
-0.7362273508100E-03  0.2957499310820E-02  0.0000000000000E+00 -0.9636342662017E-05
-0.6883233309526E-03  0.2767705791524E-02  0.0000000000000E+00 -0.5357246126400E-04
-0.6378289534372E-03  0.2567563265709E-02  0.0000000000000E+00 -0.9819407420628E-04
-0.5859966931926E-03  0.2362791386769E-02  0.0000000000000E+00 -0.1404514803020E-03
-0.5344186243298E-03  0.2160370320560E-02  0.0000000000000E+00 -0.1795955161008E-03
-0.4848461034590E-03  0.1967920231267E-02  0.0000000000000E+00 -0.2168614164879E-03
-0.4392410350184E-03  0.1793295565807E-02  0.0000000000000E+00 -0.2542168593712E-03
-0.3999543477033E-03  0.1646327565085E-02  0.0000000000000E+00 -0.2936180952703E-03
-0.3701489855504E-03  0.1540726610634E-02  0.0000000000000E+00 -0.3398686357316E-03
-0.3516201466268E-03  0.1491840932927E-02  0.0000000000000E+00 -0.4029618269278E-03
-0.3529803731662E-03  0.1518909062016E-02  0.0000000000000E+00 -0.4988092029251E-03
-0.3506207828317E-03  0.1640377507511E-02  0.0000000000000E+00 -0.6566220353683E-03
-0.4868606449151E-03  0.1937117552287E-02  0.0000000000000E+00 -0.8946195895911E-03
 0.2733660738063E-04  0.2303628803721E-02  0.0000000000000E+00 -0.1772449767493E-02
-0.2747519060777E-02  0.3147670168737E-02  0.0000000000000E+00 -0.1291378634336E-02
-0.6055545895624E-03  0.5462100115435E-02  0.0000000000000E+00  0.1664711610094E-02
-0.1274137443270E-02  0.5438186143275E-02  0.0000000000000E+00  0.5762175025060E-03
-0.1299455946171E-02  0.5173674549602E-02  0.0000000000000E+00  0.1045922467508E-03
-0.1262686032535E-02  0.5076619900457E-02  0.0000000000000E+00  0.7252283105002E-04
-0.1255681620316E-02  0.5019694930664E-02  0.0000000000000E+00  0.4955536284599E-04
-0.1244017243039E-02  0.4973954538491E-02  0.0000000000000E+00  0.5187226783545E-04
-0.1233381420284E-02  0.4929380537398E-02  0.0000000000000E+00  0.5962320780958E-04
-0.1221334799262E-02  0.4881159413779E-02  0.0000000000000E+00  0.6996623693846E-04
-0.1207888716321E-02  0.4827421036503E-02  0.0000000000000E+00  0.8088813062410E-04
-0.1192835702951E-02  0.4767425809595E-02  0.0000000000000E+00  0.9170755225917E-04
-0.1176171847308E-02  0.4700984138015E-02  0.0000000000000E+00  0.1021521634405E-03
-0.1157914116486E-02  0.4628133267785E-02  0.0000000000000E+00  0.1121803052287E-03
-0.1138096770373E-02  0.4548985078575E-02  0.0000000000000E+00  0.1218535761135E-03
-0.1116748361322E-02  0.4463647865378E-02  0.0000000000000E+00  0.1312805105924E-03
-0.1093885497598E-02  0.4372190133939E-02  0.0000000000000E+00  0.1405824809461E-03
-0.1069510353985E-02  0.4274628539102E-02  0.0000000000000E+00  0.1498726488356E-03
-0.1043611632943E-02  0.4170932143606E-02  0.0000000000000E+00  0.1592380543941E-03
-0.1016168815457E-02  0.4061041468121E-02  0.0000000000000E+00  0.1687237075768E-03
-0.9871593788787E-03  0.3944896525295E-02  0.0000000000000E+00  0.1783134490519E-03
-0.9565671006805E-03  0.3822484310978E-02  0.0000000000000E+00  0.1878945233279E-03
-0.9243969360784E-03  0.3693913886748E-02  0.0000000000000E+00  0.1971987789808E-03
-0.8906664398218E-03  0.3559538315006E-02  0.0000000000000E+00  0.2055851108480E-03
-0.8551654286152E-03  0.3419973440834E-02  0.0000000000000E+00  0.2114749184364E-03
-0.8174543737289E-03  0.3275463385536E-02  0.0000000000000E+00  0.2124636880232E-03
-0.7774548031788E-03  0.3124835342904E-02  0.0000000000000E+00  0.2060745259783E-03
-0.7355074913745E-03  0.2965750444099E-02  0.0000000000000E+00  0.1906988134107E-03
-0.6918573819684E-03  0.2796497468408E-02  0.0000000000000E+00  0.1665848908138E-03
-0.6466327541773E-03  0.2617448467107E-02  0.0000000000000E+00  0.1355743855908E-03
-0.6001277137603E-03  0.2431261038746E-02  0.0000000000000E+00  0.9971600743292E-04
-0.5529368230414E-03  0.2242374697422E-02  0.0000000000000E+00  0.6013370425698E-04
-0.5059336480963E-03  0.2056386440342E-02  0.0000000000000E+00  0.1649502558432E-04
-0.4602865890447E-03  0.1879606819626E-02  0.0000000000000E+00 -0.3288106301896E-04
-0.4174668430150E-03  0.1719052540105E-02  0.0000000000000E+00 -0.9088848532954E-04
-0.3790009708250E-03  0.1582916789639E-02  0.0000000000000E+00 -0.1618465685118E-03
-0.3457458251528E-03  0.1480660734958E-02  0.0000000000000E+00 -0.2521762276014E-03
-0.3195378979670E-03  0.1422574130511E-02  0.0000000000000E+00 -0.3710807428920E-03
-0.2948444173356E-03  0.1417160358760E-02  0.0000000000000E+00 -0.5375059152301E-03
-0.2894700630146E-03  0.1474773496567E-02  0.0000000000000E+00 -0.7531659166968E-03
-0.2042272330742E-03  0.1579599697206E-02  0.0000000000000E+00 -0.1191488155098E-02
-0.5108252475217E-04  0.1479956148635E-02  0.0000000000000E+00 -0.1189547637877E-02
-0.2219396607999E-02  0.2011608203343E-02  0.0000000000000E+00 -0.5840180454233E-03
-0.4540484056325E-03  0.4972451122667E-02  0.0000000000000E+00  0.1461618837317E-02
-0.1068036182197E-02  0.5140304684863E-02  0.0000000000000E+00  0.8290953966504E-03
-0.1222720303246E-02  0.5011901668833E-02  0.0000000000000E+00  0.2885742695236E-03
-0.1213691903706E-02  0.4892688581229E-02  0.0000000000000E+00  0.1404470609809E-03
-0.1204133221705E-02  0.4824600467409E-02  0.0000000000000E+00  0.1048608579713E-03
-0.1194062145604E-02  0.4769938377416E-02  0.0000000000000E+00  0.9800947882463E-04
-0.1182444584578E-02  0.4719456106324E-02  0.0000000000000E+00  0.1065717171673E-03
-0.1169922030289E-02  0.4667692632141E-02  0.0000000000000E+00  0.1204581639810E-03
-0.1156071460418E-02  0.4612123742640E-02  0.0000000000000E+00  0.1364648284759E-03
-0.1140857680153E-02  0.4551570040468E-02  0.0000000000000E+00  0.1529281518840E-03
-0.1124229400096E-02  0.4485520274342E-02  0.0000000000000E+00  0.1691982390787E-03
-0.1106188733723E-02  0.4413790434059E-02  0.0000000000000E+00  0.1850545210078E-03
-0.1086745607815E-02  0.4336340280263E-02  0.0000000000000E+00  0.2005037852106E-03
-0.1065910195647E-02  0.4253176961161E-02  0.0000000000000E+00  0.2156583220574E-03
-0.1043684119179E-02  0.4164305460284E-02  0.0000000000000E+00  0.2306706520462E-03
-0.1020057904600E-02  0.4069707488226E-02  0.0000000000000E+00  0.2456910028159E-03
-0.9950105446200E-03  0.3969338221650E-02  0.0000000000000E+00  0.2608351940996E-03
-0.9685123595244E-03  0.3863139344347E-02  0.0000000000000E+00  0.2761563103537E-03
-0.9405286717535E-03  0.3751060922298E-02  0.0000000000000E+00  0.2916106982471E-03
-0.9110226694705E-03  0.3633097234153E-02  0.0000000000000E+00  0.3070071781282E-03
-0.8799534022555E-03  0.3509339977027E-02  0.0000000000000E+00  0.3219105983698E-03
-0.8471913689011E-03  0.3379999016968E-02  0.0000000000000E+00  0.3354016426664E-03
-0.8123033137377E-03  0.3245196671299E-02  0.0000000000000E+00  0.3459784809960E-03
-0.7747688814021E-03  0.3104600506584E-02  0.0000000000000E+00  0.3522554268532E-03
-0.7347423923220E-03  0.2957465834456E-02  0.0000000000000E+00  0.3532048295572E-03
-0.6930726117491E-03  0.2802987066229E-02  0.0000000000000E+00  0.3476144454571E-03
-0.6505036687312E-03  0.2640798615385E-02  0.0000000000000E+00  0.3343966371384E-03
-0.6073300186390E-03  0.2471642831990E-02  0.0000000000000E+00  0.3131104551070E-03
-0.5636271275258E-03  0.2297687886703E-02  0.0000000000000E+00  0.2836372602295E-03
-0.5195268905400E-03  0.2122399515590E-02  0.0000000000000E+00  0.2455085701528E-03
-0.4753633117749E-03  0.1950220889534E-02  0.0000000000000E+00  0.1974262093419E-03
-0.4317607503418E-03  0.1786319110658E-02  0.0000000000000E+00  0.1370751656264E-03
-0.3895657226422E-03  0.1636501016960E-02  0.0000000000000E+00  0.6081111175399E-04
-0.3492713921849E-03  0.1506989661778E-02  0.0000000000000E+00 -0.3650897858273E-04
-0.3108705994596E-03  0.1403974779355E-02  0.0000000000000E+00 -0.1609256306228E-03
-0.2726059260834E-03  0.1332621557289E-02  0.0000000000000E+00 -0.3211929048533E-03
-0.2333949057067E-03  0.1294293507051E-02  0.0000000000000E+00 -0.5225780584562E-03
-0.1837362591097E-03  0.1284847833473E-02  0.0000000000000E+00 -0.7899044901502E-03
-0.6290168219514E-04  0.1220491395629E-02  0.0000000000000E+00 -0.1059928789132E-02
-0.2153362027958E-03  0.1119502047230E-02  0.0000000000000E+00 -0.7148050061659E-03
-0.1862328273107E-02  0.1584081224715E-02  0.0000000000000E+00 -0.6354662009314E-03
-0.3551450519141E-03  0.4600766654222E-02  0.0000000000000E+00  0.1247611006303E-02
-0.8976438890125E-03  0.4818351720686E-02  0.0000000000000E+00  0.9016900459481E-03
-0.1117725943272E-02  0.4792697962062E-02  0.0000000000000E+00  0.4391038658698E-03
-0.1152525743798E-02  0.4697362143343E-02  0.0000000000000E+00  0.2293423390719E-03
-0.1150507765515E-02  0.4623630864433E-02  0.0000000000000E+00  0.1658451623717E-03
-0.1142765676209E-02  0.4564447088196E-02  0.0000000000000E+00  0.1510614249581E-03
-0.1131901708605E-02  0.4509864913206E-02  0.0000000000000E+00  0.1574008511495E-03
-0.1119325573858E-02  0.4455447521031E-02  0.0000000000000E+00  0.1732745495664E-03
-0.1105373240225E-02  0.4398474964887E-02  0.0000000000000E+00  0.1930139526596E-03
-0.1090107117118E-02  0.4337560408915E-02  0.0000000000000E+00  0.2141319135626E-03
-0.1073562652983E-02  0.4271990461707E-02  0.0000000000000E+00  0.2354581980862E-03
-0.1055753271701E-02  0.4201420872505E-02  0.0000000000000E+00  0.2565378868661E-03
-0.1036689384805E-02  0.4125692333321E-02  0.0000000000000E+00  0.2772699253623E-03
-0.1016372854533E-02  0.4044727875037E-02  0.0000000000000E+00  0.2977329064659E-03
-0.9947951385882E-03  0.3958476672832E-02  0.0000000000000E+00  0.3180812093891E-03
-0.9719354961970E-03  0.3866886750887E-02  0.0000000000000E+00  0.3384799501297E-03
-0.9477605825855E-03  0.3769896063796E-02  0.0000000000000E+00  0.3590572122489E-03
-0.9222258187268E-03  0.3667439808601E-02  0.0000000000000E+00  0.3798625703810E-03
-0.8952753617721E-03  0.3559464655309E-02  0.0000000000000E+00  0.4008213773529E-03
-0.8668383769315E-03  0.3445952104995E-02  0.0000000000000E+00  0.4216724174592E-03
-0.8368033026415E-03  0.3326939579775E-02  0.0000000000000E+00  0.4418590035199E-03
-0.8049110965113E-03  0.3202462550785E-02  0.0000000000000E+00  0.4603970606213E-03
-0.7706465874027E-03  0.3072348796822E-02  0.0000000000000E+00  0.4760794878974E-03
-0.7335724462629E-03  0.2936131307073E-02  0.0000000000000E+00  0.4881466409372E-03
-0.6940125498921E-03  0.2793461435913E-02  0.0000000000000E+00  0.4960924057647E-03
-0.6530033545359E-03  0.2644399537637E-02  0.0000000000000E+00  0.4986821134481E-03
-0.6114809830235E-03  0.2489370948085E-02  0.0000000000000E+00  0.4939758197019E-03
-0.5698119014745E-03  0.2329363792063E-02  0.0000000000000E+00  0.4800418967183E-03
-0.5279269152585E-03  0.2166193775002E-02  0.0000000000000E+00  0.4551933851046E-03
-0.4856319847840E-03  0.2002566564555E-02  0.0000000000000E+00  0.4177070115363E-03
-0.4428396332242E-03  0.1841963115077E-02  0.0000000000000E+00  0.3654412380887E-03
-0.3996825971169E-03  0.1688481128397E-02  0.0000000000000E+00  0.2955123921526E-03
-0.3563569105369E-03  0.1546621843054E-02  0.0000000000000E+00  0.2039123676404E-03
-0.3126636219004E-03  0.1420758126453E-02  0.0000000000000E+00  0.8575649860257E-04
-0.2674919167817E-03  0.1314368015544E-02  0.0000000000000E+00 -0.6404822875239E-04
-0.2187902806506E-03  0.1228607397922E-02  0.0000000000000E+00 -0.2492003174668E-03
-0.1638199377597E-03  0.1160618850343E-02  0.0000000000000E+00 -0.4710224766533E-03
-0.8983460875722E-04  0.1089708325706E-02  0.0000000000000E+00 -0.7174967865339E-03
-0.2052593306967E-04  0.9705925950793E-03  0.0000000000000E+00 -0.8214945229438E-03
-0.3345493396845E-03  0.9515588004545E-03  0.0000000000000E+00 -0.4940976590982E-03
-0.1549829609152E-02  0.1336406632197E-02  0.0000000000000E+00 -0.8229189907560E-03
-0.2872387264491E-03  0.4288149548018E-02  0.0000000000000E+00  0.1054329531602E-02
-0.7613667099376E-03  0.4509416097848E-02  0.0000000000000E+00  0.8905393203171E-03
-0.1007916851661E-02  0.4545426605779E-02  0.0000000000000E+00  0.5367337857724E-03
-0.1080855210225E-02  0.4485424401249E-02  0.0000000000000E+00  0.3173383569477E-03
-0.1093377652323E-02  0.4416955580544E-02  0.0000000000000E+00  0.2314166247221E-03
-0.1090199935651E-02  0.4356499733809E-02  0.0000000000000E+00  0.2076395750064E-03
-0.1081208343564E-02  0.4299970277302E-02  0.0000000000000E+00  0.2111779481015E-03
-0.1069274829504E-02  0.4243918088769E-02  0.0000000000000E+00  0.2277517521113E-03
-0.1055536144910E-02  0.4186092390776E-02  0.0000000000000E+00  0.2502353111605E-03
-0.1040393661674E-02  0.4125102809216E-02  0.0000000000000E+00  0.2751534323975E-03
-0.1024016899888E-02  0.4060163598160E-02  0.0000000000000E+00  0.3008455601450E-03
-0.1006482095300E-02  0.3990837370927E-02  0.0000000000000E+00  0.3265773883968E-03
-0.9878215682553E-03  0.3916883408962E-02  0.0000000000000E+00  0.3521108542535E-03
-0.9680422891876E-03  0.3838161061000E-02  0.0000000000000E+00  0.3774628962660E-03
-0.9471314905973E-03  0.3754573770091E-02  0.0000000000000E+00  0.4027675951300E-03
-0.9250588888656E-03  0.3666039114988E-02  0.0000000000000E+00  0.4281875121029E-03
-0.9017772131265E-03  0.3572476102342E-02  0.0000000000000E+00  0.4538502327672E-03
-0.8772225631459E-03  0.3473807320711E-02  0.0000000000000E+00  0.4797945861131E-03
-0.8513111292928E-03  0.3369965592581E-02  0.0000000000000E+00  0.5059160811636E-03
-0.8239279304032E-03  0.3260903936867E-02  0.0000000000000E+00  0.5318992361717E-03
-0.7948867854756E-03  0.3146587131464E-02  0.0000000000000E+00  0.5571301585721E-03
-0.7638415291152E-03  0.3026907615783E-02  0.0000000000000E+00  0.5806829669418E-03
-0.7302777095179E-03  0.2901554480354E-02  0.0000000000000E+00  0.6016359415990E-03
-0.6938756680377E-03  0.2770099277857E-02  0.0000000000000E+00  0.6195421209269E-03
-0.6550548634620E-03  0.2632502884873E-02  0.0000000000000E+00  0.6339747866144E-03
-0.6148708638087E-03  0.2489319521927E-02  0.0000000000000E+00  0.6434879004859E-03
-0.5742749080853E-03  0.2341410569643E-02  0.0000000000000E+00  0.6455463857301E-03
-0.5336247751633E-03  0.2189884836908E-02  0.0000000000000E+00  0.6372372980755E-03
-0.4927381040436E-03  0.2036274682564E-02  0.0000000000000E+00  0.6157663338127E-03
-0.4511843560280E-03  0.1882676767055E-02  0.0000000000000E+00  0.5784550797306E-03
-0.4085453611824E-03  0.1731755455500E-02  0.0000000000000E+00  0.5224832954543E-03
-0.3645252034476E-03  0.1586624279005E-02  0.0000000000000E+00  0.4445715484855E-03
-0.3188085741019E-03  0.1450555812287E-02  0.0000000000000E+00  0.3407628125441E-03
-0.2706568586351E-03  0.1326340266063E-02  0.0000000000000E+00  0.2069140751580E-03
-0.2185851874844E-03  0.1215328950500E-02  0.0000000000000E+00  0.4015291552348E-04
-0.1607061112002E-03  0.1116381063785E-02  0.0000000000000E+00 -0.1589494945695E-03
-0.9441605591193E-04  0.1023065223860E-02  0.0000000000000E+00 -0.3821428768783E-03
-0.2152826052138E-04  0.9172194385176E-03  0.0000000000000E+00 -0.5829875379620E-03
-0.1856330703531E-04  0.8043218848083E-03  0.0000000000000E+00 -0.6088574822961E-03
-0.3860329076695E-03  0.8458888130647E-03  0.0000000000000E+00 -0.4313063627395E-03
-0.1277219667473E-02  0.1144988534634E-02  0.0000000000000E+00 -0.9866580751929E-03
-0.2382440043783E-03  0.4009390412727E-02  0.0000000000000E+00  0.8851956243501E-03
-0.6522616958383E-03  0.4218463284434E-02  0.0000000000000E+00  0.8412358759593E-03
-0.9035799580608E-03  0.4288473047683E-02  0.0000000000000E+00  0.5907883869696E-03
-0.1003905282588E-02  0.4260606252496E-02  0.0000000000000E+00  0.3922697522258E-03
-0.1032764823129E-02  0.4204022758925E-02  0.0000000000000E+00  0.2968651217506E-03
-0.1036286074521E-02  0.4145895205516E-02  0.0000000000000E+00  0.2657077775276E-03
-0.1030178290542E-02  0.4089292509933E-02  0.0000000000000E+00  0.2665140290005E-03
-0.1019529433927E-02  0.4032723181558E-02  0.0000000000000E+00  0.2832345262728E-03
-0.1006366750107E-02  0.3974653420369E-02  0.0000000000000E+00  0.3077358599323E-03
-0.9915480868879E-03  0.3913936589445E-02  0.0000000000000E+00  0.3357796693321E-03
-0.9754521011360E-03  0.3849826104079E-02  0.0000000000000E+00  0.3652341491778E-03
-0.9582558261375E-03  0.3781861367517E-02  0.0000000000000E+00  0.3950935452169E-03
-0.9400383773697E-03  0.3709759268295E-02  0.0000000000000E+00  0.4249678979275E-03
-0.9208250640359E-03  0.3633337837915E-02  0.0000000000000E+00  0.4547969488856E-03
-0.9006059587057E-03  0.3552466512855E-02  0.0000000000000E+00  0.4846792615148E-03
-0.8793438074491E-03  0.3467037191386E-02  0.0000000000000E+00  0.5147624271842E-03
-0.8569768368920E-03  0.3376949671433E-02  0.0000000000000E+00  0.5451647051385E-03
-0.8334188342640E-03  0.3282109667549E-02  0.0000000000000E+00  0.5759106369231E-03
-0.8085533091632E-03  0.3182428615701E-02  0.0000000000000E+00  0.6068704577298E-03
-0.7822167726540E-03  0.3077821421150E-02  0.0000000000000E+00  0.6376956657759E-03
-0.7541572198793E-03  0.2968180831332E-02  0.0000000000000E+00  0.6677673167312E-03
-0.7239795767881E-03  0.2853302201049E-02  0.0000000000000E+00  0.6962619887365E-03
-0.6912067790835E-03  0.2732830607516E-02  0.0000000000000E+00  0.7224632198713E-03
-0.6556210445862E-03  0.2606431421582E-02  0.0000000000000E+00  0.7460237921349E-03
-0.6176728142587E-03  0.2474284750227E-02  0.0000000000000E+00  0.7663861709371E-03
-0.5783438799786E-03  0.2337213024219E-02  0.0000000000000E+00  0.7818245790701E-03
-0.5385008681644E-03  0.2196288775198E-02  0.0000000000000E+00  0.7893685305898E-03
-0.4984353626280E-03  0.2052640711063E-02  0.0000000000000E+00  0.7854561494755E-03
-0.4578631924298E-03  0.1907551059221E-02  0.0000000000000E+00  0.7665297970189E-03
-0.4161771755178E-03  0.1762614383898E-02  0.0000000000000E+00  0.7292145790890E-03
-0.3727023827641E-03  0.1619798154984E-02  0.0000000000000E+00  0.6701934841810E-03
-0.3268102991465E-03  0.1481344809731E-02  0.0000000000000E+00  0.5860008470506E-03
-0.2778226684823E-03  0.1349467610843E-02  0.0000000000000E+00  0.4730048797661E-03
-0.2247448495570E-03  0.1225694233405E-02  0.0000000000000E+00  0.3282173535337E-03
-0.1662221548059E-03  0.1110014628740E-02  0.0000000000000E+00  0.1511938147807E-03
-0.1011302106019E-03  0.1000050502536E-02  0.0000000000000E+00 -0.5314727785805E-04
-0.3056235931520E-04  0.8894290263567E-03  0.0000000000000E+00 -0.2662741287840E-03
 0.2703849598185E-04  0.7721355541966E-03  0.0000000000000E+00 -0.4305348232233E-03
-0.2177047506668E-04  0.6841378196089E-03  0.0000000000000E+00 -0.4511467704254E-03
-0.3821587041151E-03  0.7531675109472E-03  0.0000000000000E+00 -0.4402309830582E-03
-0.1039301137904E-02  0.9761025903169E-03  0.0000000000000E+00 -0.1099834136634E-02
-0.2013565046744E-03  0.3751901458830E-02  0.0000000000000E+00  0.7379458703439E-03
-0.5639111631598E-03  0.3943777056556E-02  0.0000000000000E+00  0.7757935039373E-03
-0.8084336078970E-03  0.4030873646328E-02  0.0000000000000E+00  0.6138303355037E-03
-0.9260595525282E-03  0.4028074865328E-02  0.0000000000000E+00  0.4506837854665E-03
-0.9698250559984E-03  0.3985566142988E-02  0.0000000000000E+00  0.3579557502291E-03
-0.9811457025781E-03  0.3932602569711E-02  0.0000000000000E+00  0.3232663281712E-03
-0.9787678779309E-03  0.3877619668804E-02  0.0000000000000E+00  0.3221727470441E-03
-0.9699502590493E-03  0.3821582243590E-02  0.0000000000000E+00  0.3389936019764E-03
-0.9577148166781E-03  0.3763902718009E-02  0.0000000000000E+00  0.3650967154695E-03
-0.9434309647648E-03  0.3703836821899E-02  0.0000000000000E+00  0.3957580585368E-03
-0.9277430755534E-03  0.3640784837334E-02  0.0000000000000E+00  0.4284702572606E-03
-0.9109635605760E-03  0.3574325238977E-02  0.0000000000000E+00  0.4619857270516E-03
-0.8932401182604E-03  0.3504171182643E-02  0.0000000000000E+00  0.4957683669447E-03
-0.8746296145130E-03  0.3430121999632E-02  0.0000000000000E+00  0.5296754925766E-03
-0.8551321671490E-03  0.3352025741935E-02  0.0000000000000E+00  0.5637622934638E-03
-0.8347067371813E-03  0.3269754465686E-02  0.0000000000000E+00  0.5981538809193E-03
-0.8132773355784E-03  0.3183189807661E-02  0.0000000000000E+00  0.6329541608749E-03
-0.7907337677650E-03  0.3092218174759E-02  0.0000000000000E+00  0.6681728510954E-03
-0.7669244473187E-03  0.2996725015261E-02  0.0000000000000E+00  0.7036619750138E-03
-0.7416380009728E-03  0.2896583970866E-02  0.0000000000000E+00  0.7390604209504E-03
-0.7145695040996E-03  0.2791626567037E-02  0.0000000000000E+00  0.7737751571696E-03
-0.6853007823416E-03  0.2681590648996E-02  0.0000000000000E+00  0.8070835572460E-03
-0.6534002487180E-03  0.2566126369769E-02  0.0000000000000E+00  0.8383863811166E-03
-0.6187192639228E-03  0.2444996130011E-02  0.0000000000000E+00  0.8673029367885E-03
-0.5816883297451E-03  0.2318520167560E-02  0.0000000000000E+00  0.8930532782981E-03
-0.5431636917379E-03  0.2187645305142E-02  0.0000000000000E+00  0.9136250876411E-03
-0.5038731964043E-03  0.2053512045808E-02  0.0000000000000E+00  0.9257249071175E-03
-0.4640056739086E-03  0.1917195916532E-02  0.0000000000000E+00  0.9253651524097E-03
-0.4231794222291E-03  0.1779745968826E-02  0.0000000000000E+00  0.9084787833213E-03
-0.3806529159393E-03  0.1642333734837E-02  0.0000000000000E+00  0.8712106505420E-03
-0.3355631610991E-03  0.1506336414356E-02  0.0000000000000E+00  0.8099245584009E-03
-0.2870528983261E-03  0.1373260000386E-02  0.0000000000000E+00  0.7211459090005E-03
-0.2342491220906E-03  0.1244463386931E-02  0.0000000000000E+00  0.6017584692680E-03
-0.1761791540055E-03  0.1120586805127E-02  0.0000000000000E+00  0.4500648570612E-03
-0.1119981346825E-03  0.1000904436343E-02  0.0000000000000E+00  0.2679148764092E-03
-0.4218120964183E-04  0.8829748501621E-03  0.0000000000000E+00  0.6420057126394E-04
 0.2690408697925E-04  0.7635145290350E-03  0.0000000000000E+00 -0.1367171795071E-03
 0.6557168890153E-04  0.6486209427941E-03  0.0000000000000E+00 -0.2841173771539E-03
-0.1444458635225E-04  0.5846390177065E-03  0.0000000000000E+00 -0.3407306563613E-03
-0.3395368330176E-03  0.6577164828085E-03  0.0000000000000E+00 -0.4718300983366E-03
-0.8297017899915E-03  0.8186684689303E-03  0.0000000000000E+00 -0.1167734147228E-02
-0.1725881231792E-03  0.3508721083068E-02  0.0000000000000E+00  0.6094802410439E-03
-0.4913340897123E-03  0.3682574362804E-02  0.0000000000000E+00  0.7051165216007E-03
-0.7232211615964E-03  0.3776683142969E-02  0.0000000000000E+00  0.6161272044641E-03
-0.8501831644743E-03  0.3791963253055E-02  0.0000000000000E+00  0.4933965228490E-03
-0.9060057249034E-03  0.3763048094251E-02  0.0000000000000E+00  0.4122383962949E-03
-0.9251659896663E-03  0.3716887187642E-02  0.0000000000000E+00  0.3785384758942E-03
-0.9270407607379E-03  0.3664905086747E-02  0.0000000000000E+00  0.3770590917953E-03
-0.9204808944816E-03  0.3610328286482E-02  0.0000000000000E+00  0.3943253139331E-03
-0.9094772767947E-03  0.3553645886523E-02  0.0000000000000E+00  0.4218846985369E-03
-0.8959305150767E-03  0.3494616332453E-02  0.0000000000000E+00  0.4548183458227E-03
-0.8807812312360E-03  0.3432868312070E-02  0.0000000000000E+00  0.4903811508713E-03
-0.8645037196104E-03  0.3368073873298E-02  0.0000000000000E+00  0.5271385199914E-03
-0.8473323035220E-03  0.3299977318163E-02  0.0000000000000E+00  0.5644290117541E-03
-0.8293671595129E-03  0.3228381035743E-02  0.0000000000000E+00  0.6020327010796E-03
-0.8106253646453E-03  0.3153124388459E-02  0.0000000000000E+00  0.6399602198151E-03
-0.7910655167164E-03  0.3074066079342E-02  0.0000000000000E+00  0.6783114310294E-03
-0.7705983789836E-03  0.2991071711318E-02  0.0000000000000E+00  0.7171742895516E-03
-0.7490892799011E-03  0.2904007615521E-02  0.0000000000000E+00  0.7565455792346E-03
-0.7263512018607E-03  0.2812731466420E-02  0.0000000000000E+00  0.7962671151938E-03
-0.7021284069377E-03  0.2717077291013E-02  0.0000000000000E+00  0.8359807855655E-03
-0.6760749066219E-03  0.2616829000891E-02  0.0000000000000E+00  0.8751320913506E-03
-0.6477631097201E-03  0.2511694589902E-02  0.0000000000000E+00  0.9130766206459E-03
-0.6167993682575E-03  0.2401349279330E-02  0.0000000000000E+00  0.9492585274518E-03
-0.5830688289392E-03  0.2285634064587E-02  0.0000000000000E+00  0.9831869017840E-03
-0.5469440716079E-03  0.2164944693398E-02  0.0000000000000E+00  0.1013830434658E-02
-0.5091277828981E-03  0.2040258106792E-02  0.0000000000000E+00  0.1038913657456E-02
-0.4701819962932E-03  0.1912691576970E-02  0.0000000000000E+00  0.1054906029287E-02
-0.4301724153143E-03  0.1783218187800E-02  0.0000000000000E+00  0.1057548836645E-02
-0.3886232385810E-03  0.1652665365272E-02  0.0000000000000E+00  0.1042452337940E-02
-0.3446922026277E-03  0.1521844560342E-02  0.0000000000000E+00  0.1005456447293E-02
-0.2973922483227E-03  0.1391642232243E-02  0.0000000000000E+00  0.9427572743545E-03
-0.2457416143183E-03  0.1262970037248E-02  0.0000000000000E+00  0.8510031247000E-03
-0.1888365387400E-03  0.1136552463803E-02  0.0000000000000E+00  0.7276780191258E-03
-0.1259560389247E-03  0.1012497352921E-02  0.0000000000000E+00  0.5723078118885E-03
-0.5708563114398E-04  0.8899208504351E-03  0.0000000000000E+00  0.3886774843770E-03
 0.1516957096570E-04  0.7673386557049E-03  0.0000000000000E+00  0.1883202219737E-03
 0.7964143380684E-04  0.6456287359685E-03  0.0000000000000E+00 -0.3975284010527E-05
 0.1018459356755E-03  0.5389898305219E-03  0.0000000000000E+00 -0.1526465473970E-03
 0.8327509003481E-05  0.4919471307648E-03  0.0000000000000E+00 -0.2623891245215E-03
-0.2715189587114E-03  0.5560565858179E-03  0.0000000000000E+00 -0.5024421356601E-03
-0.6420771061166E-03  0.6684914008933E-03  0.0000000000000E+00 -0.1201245863285E-02
-0.1494946353544E-03  0.3275702647128E-02  0.0000000000000E+00  0.4969668385256E-03
-0.4308384698068E-03  0.3432314046369E-02  0.0000000000000E+00  0.6346741334282E-03
-0.6474361355821E-03  0.3527501160390E-02  0.0000000000000E+00  0.6051126359556E-03
-0.7778993509283E-03  0.3555083072001E-02  0.0000000000000E+00  0.5228060465542E-03
-0.8425940315952E-03  0.3538029715841E-02  0.0000000000000E+00  0.4588154792382E-03
-0.8688792767280E-03  0.3499255027681E-02  0.0000000000000E+00  0.4302357891637E-03
-0.8751547917747E-03  0.3451235695323E-02  0.0000000000000E+00  0.4302408242266E-03
-0.8711281706496E-03  0.3398887655465E-02  0.0000000000000E+00  0.4485943832820E-03
-0.8615941798179E-03  0.3343747269589E-02  0.0000000000000E+00  0.4776796261387E-03
-0.8489613863296E-03  0.3286123922754E-02  0.0000000000000E+00  0.5126863590495E-03
-0.8344743905331E-03  0.3225927270661E-02  0.0000000000000E+00  0.5507850266408E-03
-0.8187846351469E-03  0.3162965497040E-02  0.0000000000000E+00  0.5904273512683E-03
-0.8022263053391E-03  0.3097043754995E-02  0.0000000000000E+00  0.6308595940865E-03
-0.7849523904870E-03  0.3027987101922E-02  0.0000000000000E+00  0.6717984641586E-03
-0.7670030169851E-03  0.2955638325694E-02  0.0000000000000E+00  0.7132149141265E-03
-0.7483397751493E-03  0.2879849487259E-02  0.0000000000000E+00  0.7551850557774E-03
-0.7288616011045E-03  0.2800473090503E-02  0.0000000000000E+00  0.7977823009309E-03
-0.7084098060292E-03  0.2717356045410E-02  0.0000000000000E+00  0.8409941806339E-03
-0.6867630890739E-03  0.2630328756270E-02  0.0000000000000E+00  0.8846599137512E-03
-0.6636258370443E-03  0.2539189894265E-02  0.0000000000000E+00  0.9284342712108E-03
-0.6386196530765E-03  0.2443688049120E-02  0.0000000000000E+00  0.9718016968939E-03
-0.6113119419560E-03  0.2343517785172E-02  0.0000000000000E+00  0.1014167502666E-02
-0.5813321016286E-03  0.2238382331833E-02  0.0000000000000E+00  0.1054964913532E-02
-0.5485668946195E-03  0.2128175573029E-02  0.0000000000000E+00  0.1093554155135E-02
-0.5133038077941E-03  0.2013317940158E-02  0.0000000000000E+00  0.1128656782845E-02
-0.4760782777459E-03  0.1894753959430E-02  0.0000000000000E+00  0.1157770934148E-02
-0.4372757843337E-03  0.1773520199651E-02  0.0000000000000E+00  0.1177197549130E-02
-0.3968301411880E-03  0.1650456637536E-02  0.0000000000000E+00  0.1182516505069E-02
-0.3541766991271E-03  0.1526180503017E-02  0.0000000000000E+00  0.1169152013893E-02
-0.3084015589933E-03  0.1401197217654E-02  0.0000000000000E+00  0.1132775038488E-02
-0.2584523774979E-03  0.1275995660559E-02  0.0000000000000E+00  0.1069530411347E-02
-0.2033199464085E-03  0.1151033540865E-02  0.0000000000000E+00  0.9762678012999E-03
-0.1422107660904E-03  0.1026611289259E-02  0.0000000000000E+00  0.8510595960512E-03
-0.7483199683672E-04  0.9026111500442E-03  0.0000000000000E+00  0.6944535349406E-03
-0.2207833163348E-05  0.7784400778801E-03  0.0000000000000E+00  0.5115776215714E-03
 0.7089224942575E-04  0.6541381338167E-03  0.0000000000000E+00  0.3148368210306E-03
 0.1299979025094E-03  0.5343184596821E-03  0.0000000000000E+00  0.1255160017715E-03
 0.1407261989814E-03  0.4369776630290E-03  0.0000000000000E+00 -0.3706441004903E-04
 0.4646685707099E-04  0.3994175832261E-03  0.0000000000000E+00 -0.2028321539694E-03
-0.1873443376615E-03  0.4486636608282E-03  0.0000000000000E+00 -0.5224074812592E-03
-0.4709789407341E-03  0.5236429017179E-03  0.0000000000000E+00 -0.1209966210881E-02
-0.1305126965397E-03  0.3050228940324E-02  0.0000000000000E+00  0.3980386720384E-03
-0.3797124834501E-03  0.3190935093792E-02  0.0000000000000E+00  0.5671834629402E-03
-0.5801187569641E-03  0.3283751487101E-02  0.0000000000000E+00  0.5859337388776E-03
-0.7099864112032E-03  0.3319193871558E-02  0.0000000000000E+00  0.5416143468765E-03
-0.7805672107107E-03  0.3311862901530E-02  0.0000000000000E+00  0.4977941983701E-03
-0.8128364746550E-03  0.3280318820636E-02  0.0000000000000E+00  0.4776069378245E-03
-0.8233299833055E-03  0.3236800721163E-02  0.0000000000000E+00  0.4809931171415E-03
-0.8219469957379E-03  0.3187260197344E-02  0.0000000000000E+00  0.5012557276764E-03
-0.8140410849058E-03  0.3134122643645E-02  0.0000000000000E+00  0.5320958277084E-03
-0.8024622124755E-03  0.3078241885010E-02  0.0000000000000E+00  0.5690968873045E-03
-0.7887459088697E-03  0.3019833965775E-02  0.0000000000000E+00  0.6094994548044E-03
-0.7737245323176E-03  0.2958871926337E-02  0.0000000000000E+00  0.6517239585627E-03
-0.7578396813216E-03  0.2895245050248E-02  0.0000000000000E+00  0.6949662604659E-03
-0.7413038976122E-03  0.2828817684037E-02  0.0000000000000E+00  0.7389003813728E-03
-0.7241852116159E-03  0.2759446982699E-02  0.0000000000000E+00  0.7834675732774E-03
-0.7064512129918E-03  0.2686984916814E-02  0.0000000000000E+00  0.8287253783914E-03
-0.6879906520589E-03  0.2611274339852E-02  0.0000000000000E+00  0.8747365869000E-03
-0.6686219368248E-03  0.2532144491057E-02  0.0000000000000E+00  0.9214843527941E-03
-0.6480914217291E-03  0.2449400552911E-02  0.0000000000000E+00  0.9688118252719E-03
-0.6260677925865E-03  0.2362810942793E-02  0.0000000000000E+00  0.1016391698615E-02
-0.6021453168470E-03  0.2272098253664E-02  0.0000000000000E+00  0.1063741249522E-02
-0.5758846120368E-03  0.2176951364727E-02  0.0000000000000E+00  0.1110288924026E-02
-0.5469207621983E-03  0.2077095289429E-02  0.0000000000000E+00  0.1155421030153E-02
-0.5151151320198E-03  0.1972450565783E-02  0.0000000000000E+00  0.1198335187574E-02
-0.4806514941458E-03  0.1863423383159E-02  0.0000000000000E+00  0.1237527050977E-02
-0.4438931983036E-03  0.1750884493231E-02  0.0000000000000E+00  0.1270309423826E-02
-0.4050481959221E-03  0.1635754595609E-02  0.0000000000000E+00  0.1292870431690E-02
-0.3639175911168E-03  0.1518723765061E-02  0.0000000000000E+00  0.1300707542708E-02
-0.3198554749496E-03  0.1400212415350E-02  0.0000000000000E+00  0.1289157486865E-02
-0.2719024847956E-03  0.1280468553316E-02  0.0000000000000E+00  0.1253822070704E-02
-0.2189932394478E-03  0.1159669509668E-02  0.0000000000000E+00  0.1190873665956E-02
-0.1601743872987E-03  0.1037949429110E-02  0.0000000000000E+00  0.1097389529742E-02
-0.9487250681472E-04  0.9153693679737E-03  0.0000000000000E+00  0.9719448908220E-03
-0.2333863048409E-04  0.7918311822988E-03  0.0000000000000E+00  0.8158155246069E-03
 0.5230826464792E-04  0.6673258208797E-03  0.0000000000000E+00  0.6347491902311E-03
 0.1254836791648E-03  0.5435162486225E-03  0.0000000000000E+00  0.4404194444225E-03
 0.1800797489988E-03  0.4276510229891E-03  0.0000000000000E+00  0.2486359009389E-03
 0.1847222621312E-03  0.3383277232585E-03  0.0000000000000E+00  0.6498189982983E-04
 0.9800346884559E-04  0.3043402704824E-03  0.0000000000000E+00 -0.1526803756785E-03
-0.9298880081898E-04  0.3369594794736E-03  0.0000000000000E+00 -0.5290004555264E-03
-0.3120535372210E-03  0.3830139489667E-03  0.0000000000000E+00 -0.1201050779554E-02
-0.1146025399096E-03  0.2830567536703E-02  0.0000000000000E+00  0.3107644202881E-03
-0.3359543887631E-03  0.2956823756249E-02  0.0000000000000E+00  0.5039308527965E-03
-0.5202121445599E-03  0.3045314237240E-02  0.0000000000000E+00  0.5620875840067E-03
-0.6466951902867E-03  0.3085323173442E-02  0.0000000000000E+00  0.5523024025267E-03
-0.7205896708287E-03  0.3085599832420E-02  0.0000000000000E+00  0.5298260165646E-03
-0.7575271924081E-03  0.3060687764184E-02  0.0000000000000E+00  0.5203530236976E-03
-0.7718102704149E-03  0.3021850305997E-02  0.0000000000000E+00  0.5288159577796E-03
-0.7730248265901E-03  0.2975500792620E-02  0.0000000000000E+00  0.5518692151631E-03
-0.7668209165841E-03  0.2924729929209E-02  0.0000000000000E+00  0.5847959969450E-03
-0.7563919943572E-03  0.2870882239991E-02  0.0000000000000E+00  0.6238044102386E-03
-0.7435332198676E-03  0.2814480704664E-02  0.0000000000000E+00  0.6663485830955E-03
-0.7292510574015E-03  0.2755678245179E-02  0.0000000000000E+00  0.7109012663349E-03
-0.7140961890148E-03  0.2694464439023E-02  0.0000000000000E+00  0.7566546856822E-03
-0.6983443752400E-03  0.2630755996851E-02  0.0000000000000E+00  0.8032656733882E-03
-0.6820948949288E-03  0.2564433764378E-02  0.0000000000000E+00  0.8506597332704E-03
-0.6653237576645E-03  0.2495355678661E-02  0.0000000000000E+00  0.8988840264546E-03
-0.6479111620617E-03  0.2423358613892E-02  0.0000000000000E+00  0.9479966433099E-03
-0.6296540532130E-03  0.2348256605822E-02  0.0000000000000E+00  0.9979819671536E-03
-0.6102685763658E-03  0.2269832477720E-02  0.0000000000000E+00  0.1048692408057E-02
-0.5893909110180E-03  0.2187829217542E-02  0.0000000000000E+00  0.1099820328929E-02
-0.5665899340175E-03  0.2101949536144E-02  0.0000000000000E+00  0.1150907376743E-02
-0.5414140211201E-03  0.2011878383278E-02  0.0000000000000E+00  0.1201383867255E-02
-0.5134868150060E-03  0.1917352061904E-02  0.0000000000000E+00  0.1250568302199E-02
-0.4826226810409E-03  0.1818293994110E-02  0.0000000000000E+00  0.1297497741825E-02
-0.4488896068355E-03  0.1715067014760E-02  0.0000000000000E+00  0.1340471078985E-02
-0.4124795272357E-03  0.1608441266877E-02  0.0000000000000E+00  0.1376656304366E-02
-0.3734276272445E-03  0.1499201369896E-02  0.0000000000000E+00  0.1402174007054E-02
-0.3314066091016E-03  0.1387880717626E-02  0.0000000000000E+00  0.1412496098431E-02
-0.2856986697153E-03  0.1274718485052E-02  0.0000000000000E+00  0.1402940743091E-02
-0.2353223713313E-03  0.1159749682908E-02  0.0000000000000E+00  0.1369108311482E-02
-0.1792433922430E-03  0.1042917504037E-02  0.0000000000000E+00  0.1307241824304E-02
-0.1166299054236E-03  0.9241467323009E-03  0.0000000000000E+00  0.1214628166050E-02
-0.4720395909691E-04  0.8034097268359E-03  0.0000000000000E+00  0.1090209219953E-02
 0.2818944132932E-04  0.6808019550477E-03  0.0000000000000E+00  0.9356458412957E-03
 0.1064197219857E-03  0.5570255779563E-03  0.0000000000000E+00  0.7565984566191E-03
 0.1796217923701E-03  0.4351449197889E-03  0.0000000000000E+00  0.5628849545970E-03
 0.2314319085048E-03  0.3238619771771E-03  0.0000000000000E+00  0.3644184797407E-03
 0.2347884317452E-03  0.2404613238754E-03  0.0000000000000E+00  0.1566910805742E-03
 0.1605401090546E-03  0.2059562444568E-03  0.0000000000000E+00 -0.1060178203324E-03
 0.7825086447921E-05  0.2223167492232E-03  0.0000000000000E+00 -0.5226063233762E-03
-0.1619510790262E-03  0.2458363039613E-03  0.0000000000000E+00 -0.1179542981275E-02
-0.1010479159952E-03  0.2615524216092E-02  0.0000000000000E+00  0.2335733369259E-03
-0.2980704008813E-03  0.2728725813017E-02  0.0000000000000E+00  0.4454463436730E-03
-0.4667123280134E-03  0.2811836632135E-02  0.0000000000000E+00  0.5359286464889E-03
-0.5879669424165E-03  0.2854018451018E-02  0.0000000000000E+00  0.5569614195689E-03
-0.6630645096412E-03  0.2860004233742E-02  0.0000000000000E+00  0.5557995170765E-03
-0.7033438251448E-03  0.2840903182689E-02  0.0000000000000E+00  0.5585031902911E-03
-0.7208317692818E-03  0.2806655834869E-02  0.0000000000000E+00  0.5734191010757E-03
-0.7244659780498E-03  0.2763700821389E-02  0.0000000000000E+00  0.6001056010496E-03
-0.7199558522142E-03  0.2715559565692E-02  0.0000000000000E+00  0.6354994218499E-03
-0.7107259384210E-03  0.2663982067802E-02  0.0000000000000E+00  0.6765908794862E-03
-0.6987858996541E-03  0.2609777771336E-02  0.0000000000000E+00  0.7211690388721E-03
-0.6853004565407E-03  0.2553281999790E-02  0.0000000000000E+00  0.7678375632901E-03
-0.6709255283203E-03  0.2494593669078E-02  0.0000000000000E+00  0.8158329032925E-03
-0.6560006248952E-03  0.2433691102210E-02  0.0000000000000E+00  0.8648229811795E-03
-0.6406579545587E-03  0.2370486247054E-02  0.0000000000000E+00  0.9147343037194E-03
-0.6248836039247E-03  0.2304848298253E-02  0.0000000000000E+00  0.9656141189175E-03
-0.6085506390146E-03  0.2236611770667E-02  0.0000000000000E+00  0.1017523241952E-02
-0.5914360076580E-03  0.2165578307040E-02  0.0000000000000E+00  0.1070453318868E-02
-0.5732275592052E-03  0.2091511464222E-02  0.0000000000000E+00  0.1124270399531E-02
-0.5535309618463E-03  0.2014132779816E-02  0.0000000000000E+00  0.1178686502555E-02
-0.5318892631942E-03  0.1933128403972E-02  0.0000000000000E+00  0.1233259480802E-02
-0.5078313102255E-03  0.1848177357959E-02  0.0000000000000E+00  0.1287406567866E-02
-0.4809537677548E-03  0.1759015379437E-02  0.0000000000000E+00  0.1340369162628E-02
-0.4510073458636E-03  0.1665548595545E-02  0.0000000000000E+00  0.1391035419797E-02
-0.4179370765707E-03  0.1568075266492E-02  0.0000000000000E+00  0.1437539334764E-02
-0.3817675170013E-03  0.1467248232479E-02  0.0000000000000E+00  0.1476941574272E-02
-0.3423690222199E-03  0.1363705901824E-02  0.0000000000000E+00  0.1505331577918E-02
-0.2992931868236E-03  0.1257825174209E-02  0.0000000000000E+00  0.1518195833475E-02
-0.2517604668869E-03  0.1149681105969E-02  0.0000000000000E+00  0.1510879432679E-02
-0.1987874241869E-03  0.1039135970608E-02  0.0000000000000E+00  0.1479021609437E-02
-0.1394054897508E-03  0.9259660863434E-03  0.0000000000000E+00  0.1418948349594E-02
-0.7295084286857E-04  0.8099813174948E-03  0.0000000000000E+00  0.1328104890356E-02
 0.5181616050121E-06  0.6911783970894E-03  0.0000000000000E+00  0.1205634883843E-02
 0.7957316439372E-04  0.5699479372942E-03  0.0000000000000E+00  0.1053239698201E-02
 0.1602487160584E-03  0.4476942197810E-03  0.0000000000000E+00  0.8759124032620E-03
 0.2339544403905E-03  0.3285123603620E-03  0.0000000000000E+00  0.6810166058796E-03
 0.2850281405069E-03  0.2215842565965E-03  0.0000000000000E+00  0.4730901050650E-03
 0.2909735212261E-03  0.1419760966950E-03  0.0000000000000E+00  0.2410294801842E-03
 0.2318573080798E-03  0.1043843405259E-03  0.0000000000000E+00 -0.5942900100660E-04
 0.1128342213949E-03  0.1058043179828E-03  0.0000000000000E+00 -0.5048011723389E-03
-0.1814465384520E-04  0.1115164452883E-03  0.0000000000000E+00 -0.1148940218238E-02
-0.8933976896901E-04  0.2404246056958E-02  0.0000000000000E+00  0.1651822245320E-03
-0.2649307424285E-03  0.2505662357980E-02  0.0000000000000E+00  0.3918584485338E-03
-0.4187229002890E-03  0.2582884495781E-02  0.0000000000000E+00  0.5090327901573E-03
-0.5335730276957E-03  0.2625522873619E-02  0.0000000000000E+00  0.5572786656742E-03
-0.6081959140176E-03  0.2635598834965E-02  0.0000000000000E+00  0.5766585305173E-03
-0.6505743269857E-03  0.2621411194618E-02  0.0000000000000E+00  0.5922988093583E-03
-0.6706018811143E-03  0.2591479815704E-02  0.0000000000000E+00  0.6146876236696E-03
-0.6763777619246E-03  0.2551970868245E-02  0.0000000000000E+00  0.6457428549773E-03
-0.6734795878093E-03  0.2506625140782E-02  0.0000000000000E+00  0.6839855011145E-03
-0.6654511929121E-03  0.2457498516260E-02  0.0000000000000E+00  0.7272706713272E-03
-0.6544634540396E-03  0.2405650950121E-02  0.0000000000000E+00  0.7738143806366E-03
-0.6418165074790E-03  0.2351592071083E-02  0.0000000000000E+00  0.8224199180894E-03
-0.6282628819905E-03  0.2295532581725E-02  0.0000000000000E+00  0.8724137428093E-03
-0.6142034008603E-03  0.2237517836940E-02  0.0000000000000E+00  0.9235039923114E-03
-0.5998031841321E-03  0.2177496234086E-02  0.0000000000000E+00  0.9756365674807E-03
-0.5850591752966E-03  0.2115352553297E-02  0.0000000000000E+00  0.1028870824987E-02
-0.5698383418574E-03  0.2050922281239E-02  0.0000000000000E+00  0.1083278775158E-02
-0.5538988873230E-03  0.1983997499231E-02  0.0000000000000E+00  0.1138865614453E-02
-0.5369018105254E-03  0.1914325419973E-02  0.0000000000000E+00  0.1195514843821E-02
-0.5184231103098E-03  0.1841609077066E-02  0.0000000000000E+00  0.1252957599683E-02
-0.4979779364209E-03  0.1765519232851E-02  0.0000000000000E+00  0.1310761543767E-02
-0.4750677257236E-03  0.1685724895573E-02  0.0000000000000E+00  0.1368321937357E-02
-0.4492487881763E-03  0.1601949669913E-02  0.0000000000000E+00  0.1424802263212E-02
-0.4201957446785E-03  0.1514066005836E-02  0.0000000000000E+00  0.1478958895692E-02
-0.3877270807144E-03  0.1422292610085E-02  0.0000000000000E+00  0.1528792600226E-02
-0.3517059498658E-03  0.1327155457339E-02  0.0000000000000E+00  0.1571290012677E-02
-0.3118473082355E-03  0.1229143362545E-02  0.0000000000000E+00  0.1602538061408E-02
-0.2675903062410E-03  0.1128481493655E-02  0.0000000000000E+00  0.1618064901703E-02
-0.2181035360126E-03  0.1025098444771E-02  0.0000000000000E+00  0.1613269471573E-02
-0.1624176319205E-03  0.9187193681362E-03  0.0000000000000E+00  0.1583847669682E-02
-0.9965444764060E-04  0.8090097575857E-03  0.0000000000000E+00  0.1526196405713E-02
-0.2934565117091E-04  0.6957378429778E-03  0.0000000000000E+00  0.1437846088591E-02
 0.4810484165702E-04  0.5790004330242E-03  0.0000000000000E+00  0.1317969198216E-02
 0.1307429306887E-03  0.4595210550497E-03  0.0000000000000E+00  0.1168001286744E-02
 0.2139871129375E-03  0.3393082522651E-03  0.0000000000000E+00  0.9918641265702E-03
 0.2890004289596E-03  0.2230956536208E-03  0.0000000000000E+00  0.7942980242784E-03
 0.3413795117830E-03  0.1198649730624E-03  0.0000000000000E+00  0.5754223174772E-03
 0.3528600878974E-03  0.4221846042917E-04  0.0000000000000E+00  0.3203674760910E-03
 0.3101066756124E-03  0.7984106772940E-07  0.0000000000000E+00 -0.1113329387673E-04
 0.2206879386726E-03 -0.1181663166702E-04  0.0000000000000E+00 -0.4774473824419E-03
 0.1212532512687E-03 -0.2042757661808E-04  0.0000000000000E+00 -0.1111672611671E-02
-0.7910614220443E-04  0.2196104365087E-02  0.0000000000000E+00  0.1045351836427E-03
-0.2356686435767E-03  0.2286861991454E-02  0.0000000000000E+00  0.3430852846052E-03
-0.3754667146751E-03  0.2358014332112E-02  0.0000000000000E+00  0.4824481170155E-03
-0.4832009411655E-03  0.2399891727718E-02  0.0000000000000E+00  0.5545824491051E-03
-0.5560452754760E-03  0.2412718768830E-02  0.0000000000000E+00  0.5933046578475E-03
-0.5994102816654E-03  0.2402558382713E-02  0.0000000000000E+00  0.6221027221876E-03
-0.6212884475138E-03  0.2376556818744E-02  0.0000000000000E+00  0.6526412249205E-03
-0.6288598180206E-03  0.2340426310739E-02  0.0000000000000E+00  0.6886550976040E-03
-0.6274304465267E-03  0.2297954750956E-02  0.0000000000000E+00  0.7300931265049E-03
-0.6205627605387E-03  0.2251403872046E-02  0.0000000000000E+00  0.7756930505221E-03
-0.6105330165950E-03  0.2202038866220E-02  0.0000000000000E+00  0.8241581087689E-03
-0.5987492995985E-03  0.2150527338828E-02  0.0000000000000E+00  0.8745468025174E-03
-0.5860483117607E-03  0.2097188511800E-02  0.0000000000000E+00  0.9263168365028E-03
-0.5728871350034E-03  0.2042136598162E-02  0.0000000000000E+00  0.9792448563285E-03
-0.5594621566004E-03  0.1985359708567E-02  0.0000000000000E+00  0.1033315110908E-02
-0.5457810291207E-03  0.1926761450969E-02  0.0000000000000E+00  0.1088611955379E-02
-0.5317051497527E-03  0.1866181139462E-02  0.0000000000000E+00  0.1145227707119E-02
-0.5169748555552E-03  0.1803403900411E-02  0.0000000000000E+00  0.1203187563657E-02
-0.5012251659802E-03  0.1738163119639E-02  0.0000000000000E+00  0.1262396099664E-02
-0.4840022795145E-03  0.1670145278048E-02  0.0000000000000E+00  0.1322603363332E-02
-0.4647903940146E-03  0.1599005426442E-02  0.0000000000000E+00  0.1383382849223E-02
-0.4430558375552E-03  0.1524397556183E-02  0.0000000000000E+00  0.1444104217575E-02
-0.4183034690601E-03  0.1446022721611E-02  0.0000000000000E+00  0.1503858176101E-02
-0.3901228432535E-03  0.1363706879499E-02  0.0000000000000E+00  0.1561289185049E-02
-0.3582048469720E-03  0.1277579070808E-02  0.0000000000000E+00  0.1614294659484E-02
-0.3222581597287E-03  0.1188033842786E-02  0.0000000000000E+00  0.1659815905252E-02
-0.2818521347415E-03  0.1095411444572E-02  0.0000000000000E+00  0.1693959210048E-02
-0.2363223029047E-03  0.9997927918461E-03  0.0000000000000E+00  0.1712311150405E-02
-0.1847940500858E-03  0.9009771664004E-03  0.0000000000000E+00  0.1710336850013E-02
-0.1263236074299E-03  0.7985830124256E-03  0.0000000000000E+00  0.1683789091319E-02
-0.6013793577064E-04  0.6922094128986E-03  0.0000000000000E+00  0.1629106124934E-02
 0.1402577640036E-04  0.5816354493204E-03  0.0000000000000E+00  0.1543819193282E-02
 0.9543476861412E-04  0.4670999455594E-03  0.0000000000000E+00  0.1426965964586E-02
 0.1816963129574E-03  0.3496485746568E-03  0.0000000000000E+00  0.1279472384613E-02
 0.2678325871499E-03  0.2317534141802E-03  0.0000000000000E+00  0.1103959657542E-02
 0.3451221664251E-03  0.1184448882382E-03  0.0000000000000E+00  0.9026660114526E-03
 0.4006656907453E-03  0.1809727200407E-04  0.0000000000000E+00  0.6723497395873E-03
 0.4198318891483E-03 -0.5902177498509E-04  0.0000000000000E+00  0.3964420739964E-03
 0.3938243091414E-03 -0.1064191043202E-03  0.0000000000000E+00  0.3964800749574E-04
 0.3305924569549E-03 -0.1300263801916E-03  0.0000000000000E+00 -0.4423010572648E-03
 0.2576470549860E-03 -0.1503944536243E-03  0.0000000000000E+00 -0.1069445333653E-02
-0.7006851165864E-04  0.1990622342371E-02  0.0000000000000E+00  0.5075642866874E-04
-0.2096095108895E-03  0.2071709378327E-02  0.0000000000000E+00  0.2989393882944E-03
-0.3362793840683E-03  0.2136805674757E-02  0.0000000000000E+00  0.4568652285713E-03
-0.4365055886991E-03  0.2177067540403E-02  0.0000000000000E+00  0.5499033662833E-03
-0.5065760637227E-03  0.2191559108182E-02  0.0000000000000E+00  0.6065516114140E-03
-0.5499614468872E-03  0.2184599480097E-02  0.0000000000000E+00  0.6483347411173E-03
-0.5730163481174E-03  0.2162083685778E-02  0.0000000000000E+00  0.6873955864267E-03
-0.5819969550699E-03  0.2129176562773E-02  0.0000000000000E+00  0.7287974453356E-03
-0.5818457070184E-03  0.2089583520475E-02  0.0000000000000E+00  0.7737167990590E-03
-0.5760597932946E-03  0.2045680939939E-02  0.0000000000000E+00  0.8217425334742E-03
-0.5669671008064E-03  0.1998890300186E-02  0.0000000000000E+00  0.8720953687896E-03
-0.5560539461146E-03  0.1950015213083E-02  0.0000000000000E+00  0.9241299490177E-03
-0.5442260573011E-03  0.1899475539407E-02  0.0000000000000E+00  0.9774701977518E-03
-0.5319895687666E-03  0.1847452994513E-02  0.0000000000000E+00  0.1031987382098E-02
-0.5195690230603E-03  0.1793976677824E-02  0.0000000000000E+00  0.1087722674254E-02
-0.5069817158648E-03  0.1738971132037E-02  0.0000000000000E+00  0.1144798567730E-02
-0.4940834288124E-03  0.1682281750860E-02  0.0000000000000E+00  0.1203337090803E-02
-0.4805970460164E-03  0.1623688921998E-02  0.0000000000000E+00  0.1263390001115E-02
-0.4661318961539E-03  0.1562914211039E-02  0.0000000000000E+00  0.1324886679597E-02
-0.4502035010879E-03  0.1499628653231E-02  0.0000000000000E+00  0.1387596725731E-02
-0.4322615686290E-03  0.1433470330857E-02  0.0000000000000E+00  0.1451098048976E-02
-0.4117302495326E-03  0.1364073065578E-02  0.0000000000000E+00  0.1514735366352E-02
-0.3880540186806E-03  0.1291106481589E-02  0.0000000000000E+00  0.1577535747020E-02
-0.3607311321386E-03  0.1214340376331E-02  0.0000000000000E+00  0.1638052576400E-02
-0.3293255520398E-03  0.1133807752980E-02  0.0000000000000E+00  0.1694107221517E-02
-0.2933986793819E-03  0.1049770623542E-02  0.0000000000000E+00  0.1742619818619E-02
-0.2523836565084E-03  0.9624244329030E-03  0.0000000000000E+00  0.1779732040156E-02
-0.2055205008112E-03  0.8717146153911E-03  0.0000000000000E+00  0.1801097456693E-02
-0.1518981045141E-03  0.7773268781379E-03  0.0000000000000E+00  0.1802248553527E-02
-0.9060499412683E-04  0.6787977727345E-03  0.0000000000000E+00  0.1778982290058E-02
-0.2097855304906E-04  0.5756929660880E-03  0.0000000000000E+00  0.1727737591806E-02
 0.5704336210233E-04  0.4678358124219E-03  0.0000000000000E+00  0.1645960261926E-02
 0.1424347716532E-03  0.3556213066283E-03  0.0000000000000E+00  0.1532411060744E-02
 0.2324643551334E-03  0.2403749097402E-03  0.0000000000000E+00  0.1387333270465E-02
 0.3219524803549E-03  0.1248833259077E-03  0.0000000000000E+00  0.1211962883632E-02
 0.4025361434504E-03  0.1421169365910E-04  0.0000000000000E+00  0.1006319245040E-02
 0.4628502050216E-03 -0.8406813010340E-04  0.0000000000000E+00  0.7647704892864E-03
 0.4912241905575E-03 -0.1617117935031E-03  0.0000000000000E+00  0.4704432693747E-03
 0.4818763186617E-03 -0.2145974623511E-03  0.0000000000000E+00  0.9310906520443E-04
 0.4420854790006E-03 -0.2484712171981E-03  0.0000000000000E+00 -0.4008653082788E-03
 0.3920822824607E-03 -0.2787147804270E-03  0.0000000000000E+00 -0.1023464973671E-02
-0.6201373620771E-04  0.1787428894427E-02  0.0000000000000E+00  0.3113945467805E-05
-0.1862209379415E-03  0.1859707076976E-02  0.0000000000000E+00  0.2591858225124E-03
-0.3005961564251E-03  0.1918873678065E-02  0.0000000000000E+00  0.4327323194905E-03
-0.3931387675905E-03  0.1956927800442E-02  0.0000000000000E+00  0.5440339279618E-03
-0.4596875432801E-03  0.1972213271664E-02  0.0000000000000E+00  0.6171093674171E-03
-0.5022717561692E-03  0.1967710113628E-02  0.0000000000000E+00  0.6714290008507E-03
-0.5258688670168E-03  0.1948216363798E-02  0.0000000000000E+00  0.7191296794249E-03
-0.5358551259132E-03  0.1918317932387E-02  0.0000000000000E+00  0.7661896456402E-03
-0.5367573268806E-03  0.1881547583987E-02  0.0000000000000E+00  0.8148005495344E-03
-0.5319424268016E-03  0.1840318955099E-02  0.0000000000000E+00  0.8653375679869E-03
-0.5237415244718E-03  0.1796161649077E-02  0.0000000000000E+00  0.9175435174996E-03
-0.5136893122746E-03  0.1749990158175E-02  0.0000000000000E+00  0.9710954906126E-03
-0.5027437946030E-03  0.1702313686710E-02  0.0000000000000E+00  0.1025811371771E-02
-0.4914513326653E-03  0.1653377439158E-02  0.0000000000000E+00  0.1081679998573E-02
-0.4800602677147E-03  0.1603250976091E-02  0.0000000000000E+00  0.1138816892367E-02
-0.4685956161612E-03  0.1551880762613E-02  0.0000000000000E+00  0.1197395543755E-02
-0.4569069087117E-03  0.1499119852045E-02  0.0000000000000E+00  0.1257577089139E-02
-0.4446994982705E-03  0.1444745628678E-02  0.0000000000000E+00  0.1319446465097E-02
-0.4315567821124E-03  0.1388469317973E-02  0.0000000000000E+00  0.1382961893313E-02
-0.4169622104544E-03  0.1329946964884E-02  0.0000000000000E+00  0.1447914251890E-02
-0.4003273426504E-03  0.1268797938876E-02  0.0000000000000E+00  0.1513886842592E-02
-0.3810279378105E-03  0.1204631069200E-02  0.0000000000000E+00  0.1580203425247E-02
-0.3584410845673E-03  0.1137077314333E-02  0.0000000000000E+00  0.1645839095062E-02
-0.3319696291232E-03  0.1065843323579E-02  0.0000000000000E+00  0.1709276864956E-02
-0.3010523793489E-03  0.9908625176373E-03  0.0000000000000E+00  0.1768286478976E-02
-0.2651104319162E-03  0.9122655777537E-03  0.0000000000000E+00  0.1819786837969E-02
-0.2234491859156E-03  0.8301084265274E-03  0.0000000000000E+00  0.1859966082306E-02
-0.1752199217238E-03  0.7442100117735E-03  0.0000000000000E+00  0.1884546995872E-02
-0.1194793262662E-03  0.6541561046381E-03  0.0000000000000E+00  0.1889122408264E-02
-0.5535011392582E-04  0.5594204506003E-03  0.0000000000000E+00  0.1869512026004E-02
 0.1772289468299E-04  0.4595576513302E-03  0.0000000000000E+00  0.1822109345442E-02
 0.9961774811396E-04  0.3544523793567E-03  0.0000000000000E+00  0.1744193605053E-02
 0.1890625944851E-03  0.2446492027767E-03  0.0000000000000E+00  0.1634134694872E-02
 0.2830875102292E-03  0.1316945174821E-03  0.0000000000000E+00  0.1491386976248E-02
 0.3764677235300E-03  0.1855417845312E-04  0.0000000000000E+00  0.1315820879017E-02
 0.4613389295489E-03 -0.8985192282156E-04  0.0000000000000E+00  0.1105585782431E-02
 0.5277688612931E-03 -0.1868037266325E-03  0.0000000000000E+00  0.8534599394711E-03
 0.5664023694657E-03 -0.2657023728713E-03  0.0000000000000E+00  0.5431296895302E-03
 0.5733873161047E-03 -0.3239983331971E-03  0.0000000000000E+00  0.1491106737141E-03
 0.5548916735671E-03 -0.3668930745752E-03  0.0000000000000E+00 -0.3543574860190E-03
 0.5253426636198E-03 -0.4056575015856E-03  0.0000000000000E+00 -0.9745752291470E-03
-0.5477552807650E-04  0.1586228266176E-02  0.0000000000000E+00 -0.3900844222521E-04
-0.1650770797846E-03  0.1650447381653E-02  0.0000000000000E+00  0.2235744650102E-03
-0.2679374177059E-03  0.1703872064034E-02  0.0000000000000E+00  0.4103330858118E-03
-0.3527652649275E-03  0.1739314889937E-02  0.0000000000000E+00  0.5375801607984E-03
-0.4152391259126E-03  0.1754702492002E-02  0.0000000000000E+00  0.6255843828811E-03
-0.4563342607745E-03  0.1752000655681E-02  0.0000000000000E+00  0.6918076403327E-03
-0.4798917002617E-03  0.1735070904637E-02  0.0000000000000E+00  0.7480600876039E-03
-0.4904798471479E-03  0.1707929507302E-02  0.0000000000000E+00  0.8009004758325E-03
-0.4921890183114E-03  0.1673879559212E-02  0.0000000000000E+00  0.8533307180366E-03
-0.4882092261758E-03  0.1635310111397E-02  0.0000000000000E+00  0.9064279912872E-03
-0.4808335743458E-03  0.1593814592487E-02  0.0000000000000E+00  0.9604417643610E-03
-0.4716168094587E-03  0.1550392235657E-02  0.0000000000000E+00  0.1015384476304E-02
-0.4615518848653E-03  0.1505628057980E-02  0.0000000000000E+00  0.1071288197109E-02
-0.4512154903136E-03  0.1459824662898E-02  0.0000000000000E+00  0.1128278493932E-02
-0.4408744261996E-03  0.1413089989813E-02  0.0000000000000E+00  0.1186560928499E-02
-0.4305587541637E-03  0.1365392366299E-02  0.0000000000000E+00  0.1246372131297E-02
-0.4201105557585E-03  0.1316593398441E-02  0.0000000000000E+00  0.1307921485123E-02
-0.4092171029547E-03  0.1266468691666E-02  0.0000000000000E+00  0.1371333725195E-02
-0.3974351788972E-03  0.1214720125760E-02  0.0000000000000E+00  0.1436600339149E-02
-0.3842144496587E-03  0.1160988752826E-02  0.0000000000000E+00  0.1503536346001E-02
-0.3689247960417E-03  0.1104873329681E-02  0.0000000000000E+00  0.1571733495877E-02
-0.3508883050552E-03  0.1045953474913E-02  0.0000000000000E+00  0.1640501051298E-02
-0.3294093330715E-03  0.9838158387261E-03  0.0000000000000E+00  0.1708775257294E-02
-0.3037928013052E-03  0.9180991476824E-03  0.0000000000000E+00  0.1774988659465E-02
-0.2733547477889E-03  0.8486357887883E-03  0.0000000000000E+00  0.1836880926710E-02
-0.2373823765563E-03  0.7754277796621E-03  0.0000000000000E+00  0.1891385896808E-02
-0.1950605475972E-03  0.6983974453359E-03  0.0000000000000E+00  0.1934745208130E-02
-0.1454568616393E-03  0.6172456971081E-03  0.0000000000000E+00  0.1962748326270E-02
-0.8759742157727E-04  0.5314694645188E-03  0.0000000000000E+00  0.1971035789404E-02
-0.2063649640521E-04  0.4404931898395E-03  0.0000000000000E+00  0.1955423525527E-02
 0.5588357345604E-04  0.3438733068735E-03  0.0000000000000E+00  0.1912212613923E-02
 0.1416817334394E-03  0.2415596778880E-03  0.0000000000000E+00  0.1838444498934E-02
 0.2352929915611E-03  0.1342259189052E-03  0.0000000000000E+00  0.1732013895247E-02
 0.3336002095556E-03  0.2357568715015E-04  0.0000000000000E+00  0.1591536084879E-02
 0.4314495452408E-03 -0.8735787115314E-04  0.0000000000000E+00  0.1415600527096E-02
 0.5215360645507E-03 -0.1939079525565E-03  0.0000000000000E+00  0.1200838364249E-02
 0.5951917856807E-03 -0.2901680206545E-03  0.0000000000000E+00  0.9390503206709E-03
 0.6448018601048E-03 -0.3708087624285E-03  0.0000000000000E+00  0.6149401879000E-03
 0.6676746199998E-03 -0.4342332345612E-03  0.0000000000000E+00  0.2073054349657E-03
 0.6688227731394E-03 -0.4850572393903E-03  0.0000000000000E+00 -0.3037331629164E-03
 0.6580234781184E-03 -0.5314268644929E-03  0.0000000000000E+00 -0.9233167363121E-03
-0.4822189633666E-04  0.1386779573085E-02  0.0000000000000E+00 -0.7613261786517E-04
-0.1458329713641E-03  0.1443591512851E-02  0.0000000000000E+00  0.1918577959023E-03
-0.2378950525808E-03  0.1491491583701E-02  0.0000000000000E+00  0.3898396821168E-03
-0.3150708943098E-03  0.1524054620300E-02  0.0000000000000E+00  0.5310038384630E-03
-0.3730674600333E-03  0.1538997756277E-02  0.0000000000000E+00  0.6324877146008E-03
-0.4121039760720E-03  0.1537529227384E-02  0.0000000000000E+00  0.7098659230853E-03
-0.4350981368185E-03  0.1522726798846E-02  0.0000000000000E+00  0.7744219358601E-03
-0.4458963488465E-03  0.1498071361603E-02  0.0000000000000E+00  0.8330339976316E-03
-0.4481545104296E-03  0.1466605415325E-02  0.0000000000000E+00  0.8893284511544E-03
-0.4448552600587E-03  0.1430646770744E-02  0.0000000000000E+00  0.9449917116055E-03
-0.4382204612924E-03  0.1391814047317E-02  0.0000000000000E+00  0.1000750103857E-02
-0.4297993036453E-03  0.1351165741032E-02  0.0000000000000E+00  0.1056952861658E-02
-0.4206026528652E-03  0.1309347983812E-02  0.0000000000000E+00  0.1113859217915E-02
-0.4112270764907E-03  0.1266713196857E-02  0.0000000000000E+00  0.1171746542829E-02
-0.4019517889858E-03  0.1223404346581E-02  0.0000000000000E+00  0.1230923993846E-02
-0.3928086012075E-03  0.1179410630003E-02  0.0000000000000E+00  0.1291702431912E-02
-0.3836304462424E-03  0.1134602442767E-02  0.0000000000000E+00  0.1354348155337E-02
-0.3740855479689E-03  0.1088754342338E-02  0.0000000000000E+00  0.1419032244100E-02
-0.3637030523665E-03  0.1041559444706E-02  0.0000000000000E+00  0.1485784270660E-02
-0.3518969787039E-03  0.9926435232207E-03  0.0000000000000E+00  0.1554447310672E-02
-0.3379922865635E-03  0.9415829010254E-03  0.0000000000000E+00  0.1624626319585E-02
-0.3212530358955E-03  0.8879245083648E-03  0.0000000000000E+00  0.1695624277139E-02
-0.3009068852587E-03  0.8312065048043E-03  0.0000000000000E+00  0.1766352404097E-02
-0.2761594811473E-03  0.7709967116139E-03  0.0000000000000E+00  0.1835211533298E-02
-0.2462067263261E-03  0.7070265403494E-03  0.0000000000000E+00  0.1899930111274E-02
-0.2102075512124E-03  0.6391728436832E-03  0.0000000000000E+00  0.1957469866586E-02
-0.1672320157252E-03  0.5672302920640E-03  0.0000000000000E+00  0.2004129778368E-02
-0.1162671703779E-03  0.4907891450967E-03  0.0000000000000E+00  0.2035760130406E-02
-0.5630744657065E-04  0.4092658234481E-03  0.0000000000000E+00  0.2048033114777E-02
 0.1346800836610E-04  0.3220437676590E-03  0.0000000000000E+00  0.2036732235918E-02
 0.9343470062456E-04  0.2286861370497E-03  0.0000000000000E+00  0.1998021682129E-02
 0.1831827569274E-03  0.1292019377163E-03  0.0000000000000E+00  0.1928646208649E-02
 0.2811073775492E-03  0.2436531623590E-04  0.0000000000000E+00  0.1825968920643E-02
 0.3840220038849E-03 -0.8402377467712E-04  0.0000000000000E+00  0.1687757563898E-02
 0.4869233836152E-03 -0.1929494838502E-03  0.0000000000000E+00  0.1511440997931E-02
 0.5830681739454E-03 -0.2980528937338E-03  0.0000000000000E+00  0.1292442418749E-02
 0.6648617229076E-03 -0.3941453557712E-03  0.0000000000000E+00  0.1022043307776E-02
 0.7259497018262E-03 -0.4768632133365E-03  0.0000000000000E+00  0.6861053648801E-03
 0.7642082922720E-03 -0.5450066839977E-03  0.0000000000000E+00  0.2671722292349E-03
 0.7836812249922E-03 -0.6026710764882E-03  0.0000000000000E+00 -0.2497966620229E-03
 0.7906182329078E-03 -0.6561124099845E-03  0.0000000000000E+00 -0.8698519671021E-03
-0.4224644164893E-04  0.1188882711247E-02  0.0000000000000E+00 -0.1087028856372E-03
-0.1282057821817E-03  0.1238854124651E-02  0.0000000000000E+00  0.1638004518702E-03
-0.2101204681135E-03  0.1281456620090E-02  0.0000000000000E+00  0.3713488803839E-03
-0.2797657836726E-03  0.1310967534883E-02  0.0000000000000E+00  0.5246560239076E-03
-0.3329981307982E-03  0.1325035835217E-02  0.0000000000000E+00  0.6382463776782E-03
-0.3695083904058E-03  0.1324313048180E-02  0.0000000000000E+00  0.7259649767531E-03
-0.3914744917821E-03  0.1311231408851E-02  0.0000000000000E+00  0.7984553881937E-03
-0.4021108374666E-03  0.1288784419493E-02  0.0000000000000E+00  0.8627180930400E-03
-0.4046567733848E-03  0.1259742558809E-02  0.0000000000000E+00  0.9228425088185E-03
-0.4018707683597E-03  0.1226319371519E-02  0.0000000000000E+00  0.9810309894097E-03
-0.3958780903472E-03  0.1190126481168E-02  0.0000000000000E+00  0.1038447734576E-02
-0.3882001745251E-03  0.1152258011786E-02  0.0000000000000E+00  0.1095771066107E-02
-0.3798497291997E-03  0.1113406243038E-02  0.0000000000000E+00  0.1153493780866E-02
-0.3714326582272E-03  0.1073964892179E-02  0.0000000000000E+00  0.1212056024135E-02
-0.3632341129451E-03  0.1034107629674E-02  0.0000000000000E+00  0.1271881737130E-02
-0.3552838863433E-03  0.9938427394694E-03  0.0000000000000E+00  0.1333365807652E-02
-0.3474036487090E-03  0.9530490523741E-03  0.0000000000000E+00  0.1396839477985E-02
-0.3392412667719E-03  0.9115003651456E-03  0.0000000000000E+00  0.1462526557070E-02
-0.3302969902376E-03  0.8688812874765E-03  0.0000000000000E+00  0.1530499854170E-02
-0.3199473118420E-03  0.8248018922557E-03  0.0000000000000E+00  0.1600635312693E-02
-0.3074694084436E-03  0.7788144839883E-03  0.0000000000000E+00  0.1672557168232E-02
-0.2920658259249E-03  0.7304306141122E-03  0.0000000000000E+00  0.1745571504879E-02
-0.2728846852935E-03  0.6791370618558E-03  0.0000000000000E+00  0.1818578528534E-02
-0.2490318292709E-03  0.6244291850900E-03  0.0000000000000E+00  0.1889964817628E-02
-0.2195856427794E-03  0.5659385287995E-03  0.0000000000000E+00  0.1957464042836E-02
-0.1835814658227E-03  0.5034206484356E-03  0.0000000000000E+00  0.2018076134112E-02
-0.1399787375103E-03  0.4365480924433E-03  0.0000000000000E+00  0.2068158892829E-02
-0.8768509371021E-04  0.3648064717048E-03  0.0000000000000E+00  0.2103615474444E-02
-0.2565961632151E-04  0.2875372455996E-03  0.0000000000000E+00  0.2120132080946E-02
 0.4690378958827E-04  0.2040865096007E-03  0.0000000000000E+00  0.2113431355579E-02
 0.1303178065752E-03  0.1140225771137E-03  0.0000000000000E+00  0.2079500866175E-02
 0.2240767631100E-03  0.1740064755927E-04  0.0000000000000E+00  0.2014742856043E-02
 0.3264863799181E-03 -0.8493657234670E-04  0.0000000000000E+00  0.1915955821578E-02
 0.4343541447719E-03 -0.1911465719515E-03  0.0000000000000E+00  0.1780081061166E-02
 0.5428737849980E-03 -0.2982905902721E-03  0.0000000000000E+00  0.1603514813783E-02
 0.6458370711986E-03 -0.4023314491358E-03  0.0000000000000E+00  0.1380743738480E-02
 0.7365070975681E-03 -0.4986923408930E-03  0.0000000000000E+00  0.1102792170329E-02
 0.8094745903819E-03 -0.5836764834275E-03  0.0000000000000E+00  0.7568274400723E-03
 0.8626215597595E-03 -0.6562904027858E-03  0.0000000000000E+00  0.3279778802604E-03
 0.8991752230790E-03 -0.7192059683720E-03  0.0000000000000E+00 -0.1934694778446E-03
 0.9234550185840E-03 -0.7796121289927E-03  0.0000000000000E+00 -0.8138050104234E-03
-0.3676218633924E-04  0.9923685608722E-03  0.0000000000000E+00 -0.1370988809382E-03
-0.1119609288779E-03  0.1035991500880E-02  0.0000000000000E+00  0.1391840893516E-03
-0.1843144397016E-03  0.1073521328017E-02  0.0000000000000E+00  0.3549067811030E-03
-0.2465849539760E-03  0.1099875589937E-02  0.0000000000000E+00  0.5188033415249E-03
-0.2948534577261E-03  0.1112730831312E-02  0.0000000000000E+00  0.6432153826486E-03
-0.3284557758038E-03  0.1112337898510E-02  0.0000000000000E+00  0.7404294044554E-03
-0.3489852556704E-03  0.1100604688093E-02  0.0000000000000E+00  0.8203965496819E-03
-0.3591123841685E-03  0.1080091375359E-02  0.0000000000000E+00  0.8900953116644E-03
-0.3616879592954E-03  0.1053298865282E-02  0.0000000000000E+00  0.9539427557253E-03
-0.3592403425549E-03  0.1022314945555E-02  0.0000000000000E+00  0.1014568635682E-02
-0.3537801324020E-03  0.9887185574921E-03  0.0000000000000E+00  0.1073531164345E-02
-0.3467825325740E-03  0.9536183941815E-03  0.0000000000000E+00  0.1131823212375E-02
-0.3392474666839E-03  0.9177383474070E-03  0.0000000000000E+00  0.1190171881931E-02
-0.3317799261834E-03  0.8815044546123E-03  0.0000000000000E+00  0.1249187165736E-02
-0.3246643433930E-03  0.8451160876314E-03  0.0000000000000E+00  0.1309416525077E-02
-0.3179244101348E-03  0.8085982050585E-03  0.0000000000000E+00  0.1371347220576E-02
-0.3113681051065E-03  0.7718372162066E-03  0.0000000000000E+00  0.1435382690506E-02
-0.3046213741024E-03  0.7346060719649E-03  0.0000000000000E+00  0.1501805598008E-02
-0.2971541749138E-03  0.6965809011532E-03  0.0000000000000E+00  0.1570737371844E-02
-0.2883036796764E-03  0.6573556382381E-03  0.0000000000000E+00  0.1642092333269E-02
-0.2772968507600E-03  0.6164573198487E-03  0.0000000000000E+00  0.1715521033359E-02
-0.2632720201529E-03  0.5733602073088E-03  0.0000000000000E+00  0.1790342763776E-02
-0.2452958348060E-03  0.5274979283619E-03  0.0000000000000E+00  0.1865460568348E-02
-0.2223743565229E-03  0.4782929351560E-03  0.0000000000000E+00  0.1939262926850E-02
-0.1934708641573E-03  0.4252787107756E-03  0.0000000000000E+00  0.2009503120144E-02
-0.1575007812222E-03  0.3680934212602E-03  0.0000000000000E+00  0.2073227521080E-02
-0.1133155340327E-03  0.3062923398103E-03  0.0000000000000E+00  0.2126852643796E-02
-0.5974252964491E-04  0.2392608957776E-03  0.0000000000000E+00  0.2166325565646E-02
 0.4300541649793E-05  0.1662684771462E-03  0.0000000000000E+00  0.2187328742542E-02
 0.7961792285860E-04  0.8662350475547E-04  0.0000000000000E+00  0.2185497420824E-02
 0.1664814625839E-03 -0.1070955310874E-06  0.0000000000000E+00  0.2156608841092E-02
 0.2643233182295E-03 -0.9383924242154E-04  0.0000000000000E+00  0.2096689244389E-02
 0.3714054553610E-03 -0.1936938707608E-03  0.0000000000000E+00  0.2001958286113E-02
 0.4845775149919E-03 -0.2978306526048E-03  0.0000000000000E+00  0.1868568344663E-02
 0.5992560494933E-03 -0.4034264155189E-03  0.0000000000000E+00  0.1692009955919E-02
 0.7097065719227E-03 -0.5067547736730E-03  0.0000000000000E+00  0.1466033659534E-02
 0.8099045401218E-03 -0.6037387736060E-03  0.0000000000000E+00  0.1181622175030E-02
 0.8949480853055E-03 -0.6911325434336E-03  0.0000000000000E+00  0.8269918017765E-03
 0.9630415082431E-03 -0.7679066217812E-03  0.0000000000000E+00  0.3899808302611E-03
 0.1014428259522E-02 -0.8354932228345E-03  0.0000000000000E+00 -0.1383458680745E-03
 0.1057959845704E-02 -0.8985358645262E-03  0.0000000000000E+00 -0.7516213461145E-03
-0.3169671648424E-04  0.7970965621830E-03  0.0000000000000E+00 -0.1616340135772E-03
-0.9690275676226E-04  0.8348172204146E-03  0.0000000000000E+00  0.1178161009051E-03
-0.1602229674920E-03  0.8675059684316E-03  0.0000000000000E+00  0.3405356921224E-03
-0.2152951136021E-03  0.8906632495007E-03  0.0000000000000E+00  0.5136561941433E-03
-0.2584696927252E-03  0.9020566811998E-03  0.0000000000000E+00  0.6476946284225E-03
-0.2888581518514E-03  0.9016567815954E-03  0.0000000000000E+00  0.7535494324437E-03
-0.3075985512689E-03  0.8909509832903E-03  0.0000000000000E+00  0.8404688892148E-03
-0.3168999496486E-03  0.8721212201337E-03  0.0000000000000E+00  0.9153085090489E-03
-0.3192583934532E-03  0.8474105950555E-03  0.0000000000000E+00  0.9827028967667E-03
-0.3169744602834E-03  0.8187689594280E-03  0.0000000000000E+00  0.1045628778897E-02
-0.3119323928950E-03  0.7877229435449E-03  0.0000000000000E+00  0.1105993023906E-02
-0.3055464081234E-03  0.7553776450312E-03  0.0000000000000E+00  0.1165083782495E-02
-0.2987907405421E-03  0.7224749080249E-03  0.0000000000000E+00  0.1223858492307E-02
-0.2922597926856E-03  0.6894639956530E-03  0.0000000000000E+00  0.1283100425534E-02
-0.2862306473097E-03  0.6565644937231E-03  0.0000000000000E+00  0.1343486780981E-02
-0.2807166331069E-03  0.6238150833550E-03  0.0000000000000E+00  0.1405603899855E-02
-0.2755093961615E-03  0.5911084267230E-03  0.0000000000000E+00  0.1469933681042E-02
-0.2702112447565E-03  0.5582161913033E-03  0.0000000000000E+00  0.1536823293202E-02
-0.2642604324300E-03  0.5248058558290E-03  0.0000000000000E+00  0.1606448156916E-02
-0.2569532315450E-03  0.4904548194284E-03  0.0000000000000E+00  0.1678766850209E-02
-0.2474644905781E-03  0.4546639788120E-03  0.0000000000000E+00  0.1753463802598E-02
-0.2348664495724E-03  0.4168691470284E-03  0.0000000000000E+00  0.1829881871276E-02
-0.2181432315951E-03  0.3764500333375E-03  0.0000000000000E+00  0.1906940316454E-02
-0.1962017112942E-03  0.3327567027453E-03  0.0000000000000E+00  0.1983044328144E-02
-0.1678924198116E-03  0.2852269764915E-03  0.0000000000000E+00  0.2055979337484E-02
-0.1320138303650E-03  0.2333855687694E-03  0.0000000000000E+00  0.2122844696950E-02
-0.8731077749652E-04  0.1766747239792E-03  0.0000000000000E+00  0.2180114411816E-02
-0.3252811227544E-04  0.1143828356080E-03  0.0000000000000E+00  0.2223770250331E-02
 0.3346570802010E-04  0.4570790717708E-04  0.0000000000000E+00  0.2249474125166E-02
 0.1114879293785E-03 -0.3008275350211E-04  0.0000000000000E+00  0.2252750551234E-02
 0.2017929274717E-03 -0.1134336289595E-03  0.0000000000000E+00  0.2229139706154E-02
 0.3037834989883E-03 -0.2042513124367E-03  0.0000000000000E+00  0.2174270234358E-02
 0.4157174019252E-03 -0.3016506338967E-03  0.0000000000000E+00  0.2083783645869E-02
 0.5345224982533E-03 -0.4038288129259E-03  0.0000000000000E+00  0.1953091725061E-02
 0.6558409221633E-03 -0.5080993602289E-03  0.0000000000000E+00  0.1776892366505E-02
 0.7743596806735E-03 -0.6110212489460E-03  0.0000000000000E+00  0.1548362364324E-02
 0.8845590728701E-03 -0.7089076369197E-03  0.0000000000000E+00  0.1258517610080E-02
 0.9820290431932E-03 -0.7988228211369E-03  0.0000000000000E+00  0.8965703387768E-03
 0.1064235751389E-02 -0.8794558382713E-03  0.0000000000000E+00  0.4520273592171E-03
 0.1132698082673E-02 -0.9517123622417E-03  0.0000000000000E+00 -0.8198687884923E-04
 0.1181333065174E-02 -0.1014021464339E-02  0.0000000000000E+00 -0.7012062174555E-03
-0.2698952238095E-04  0.6029387417042E-03  0.0000000000000E+00 -0.1826140460084E-03
-0.8286497497747E-04  0.6351470852989E-03  0.0000000000000E+00  0.9950146445876E-04
-0.1376218059056E-03  0.6632119586934E-03  0.0000000000000E+00  0.3282110413523E-03
-0.1856768080813E-03  0.6831640223026E-03  0.0000000000000E+00  0.5093520782268E-03
-0.2236747828296E-03  0.6929034458649E-03  0.0000000000000E+00  0.6519126552777E-03
-0.2506015357127E-03  0.6922131475718E-03  0.0000000000000E+00  0.7655651645157E-03
-0.2672467709773E-03  0.6822479236120E-03  0.0000000000000E+00  0.8588718347027E-03
-0.2754332757861E-03  0.6648645420018E-03  0.0000000000000E+00  0.9384977100938E-03
-0.2773387489652E-03  0.6420658912982E-03  0.0000000000000E+00  0.1009207579298E-02
-0.2750442308946E-03  0.6156589191989E-03  0.0000000000000E+00  0.1074254348351E-02
-0.2703012297506E-03  0.5871037018312E-03  0.0000000000000E+00  0.1135849168273E-02
-0.2644517000799E-03  0.5574865946984E-03  0.0000000000000E+00  0.1195553412622E-02
-0.2584331325601E-03  0.5275550007133E-03  0.0000000000000E+00  0.1254547316957E-02
-0.2528204544102E-03  0.4977725907604E-03  0.0000000000000E+00  0.1313787782870E-02
-0.2478769900296E-03  0.4683735101595E-03  0.0000000000000E+00  0.1374085675536E-02
-0.2436014109630E-03  0.4394069080417E-03  0.0000000000000E+00  0.1436131566606E-02
-0.2397662832371E-03  0.4107700857319E-03  0.0000000000000E+00  0.1500491115792E-02
-0.2359484818402E-03  0.3822327881283E-03  0.0000000000000E+00  0.1567581178455E-02
-0.2315531750354E-03  0.3534536151538E-03  0.0000000000000E+00  0.1637636482625E-02
-0.2258343762683E-03  0.3239931848263E-03  0.0000000000000E+00  0.1710665996972E-02
-0.2179133690382E-03  0.2933258057856E-03  0.0000000000000E+00  0.1786395916675E-02
-0.2067950400058E-03  0.2608483724144E-03  0.0000000000000E+00  0.1864203061564E-02
-0.1913805008343E-03  0.2258867135668E-03  0.0000000000000E+00  0.1943035721778E-02
-0.1704782306085E-03  0.1877196805910E-03  0.0000000000000E+00  0.2021329419628E-02
-0.1428279707743E-03  0.1456920674394E-03  0.0000000000000E+00  0.2096912850618E-02
-0.1071131999038E-03  0.9921873757159E-04  0.0000000000000E+00  0.2166943796307E-02
-0.6197216016085E-04  0.4763223543931E-04  0.0000000000000E+00  0.2227952216304E-02
-0.6063191503258E-05 -0.9874441714482E-05  0.0000000000000E+00  0.2275946005059E-02
 0.6180400329825E-04 -0.7417610484389E-04  0.0000000000000E+00  0.2306551671090E-02
 0.1424759700840E-03 -0.1460525813761E-03  0.0000000000000E+00  0.2315163494252E-02
 0.2362134734758E-03 -0.2259721963700E-03  0.0000000000000E+00  0.2297064350984E-02
 0.3424207913033E-03 -0.3138525630695E-03  0.0000000000000E+00  0.2247472774329E-02
 0.4593852978566E-03 -0.4088296988911E-03  0.0000000000000E+00  0.2161461801640E-02
 0.5841370913748E-03 -0.5091651979331E-03  0.0000000000000E+00  0.2033751868300E-02
 0.7125402287539E-03 -0.6123187144346E-03  0.0000000000000E+00  0.1858343759490E-02
 0.8396263192914E-03 -0.7150996804174E-03  0.0000000000000E+00  0.1627952269056E-02
 0.9602971158955E-03 -0.8141276173791E-03  0.0000000000000E+00  0.1333660683960E-02
 0.1070246667514E-02 -0.9066215935484E-03  0.0000000000000E+00  0.9655261599434E-03
 0.1167152028468E-02 -0.9911268110348E-03  0.0000000000000E+00  0.5141069708568E-03
 0.1249359511069E-02 -0.1067266390350E-02  0.0000000000000E+00 -0.2521000014279E-04
 0.1319179648486E-02 -0.1133535964578E-02  0.0000000000000E+00 -0.6594811460094E-03
-0.2258971641422E-04  0.4097772284848E-03  0.0000000000000E+00 -0.2002686792959E-03
-0.6970402632055E-04  0.4367953858019E-03  0.0000000000000E+00  0.8408268222441E-04
-0.1163104377966E-03  0.4604201301188E-03  0.0000000000000E+00  0.3179172899994E-03
-0.1575230145260E-03  0.4771627272000E-03  0.0000000000000E+00  0.5060152031866E-03
-0.1902918901773E-03  0.4850825929447E-03  0.0000000000000E+00  0.6560826263130E-03
-0.2135521226290E-03  0.4838466653985E-03  0.0000000000000E+00  0.7767151362874E-03
-0.2278330549652E-03  0.4743507735961E-03  0.0000000000000E+00  0.8758227096115E-03
-0.2346384261890E-03  0.4581759260822E-03  0.0000000000000E+00  0.9598379690213E-03
-0.2358644280588E-03  0.4371056237415E-03  0.0000000000000E+00  0.1033588227070E-02
-0.2333848592412E-03  0.4128043139715E-03  0.0000000000000E+00  0.1100541797437E-02
-0.2288164050509E-03  0.3866558643202E-03  0.0000000000000E+00  0.1163172342024E-02
-0.2234206354800E-03  0.3597156694668E-03  0.0000000000000E+00  0.1223291134653E-02
-0.2180891270425E-03  0.3327257870851E-03  0.0000000000000E+00  0.1282291124825E-02
-0.2133693974986E-03  0.3061560507683E-03  0.0000000000000E+00  0.1341300681989E-02
-0.2095049995394E-03  0.2802496128348E-03  0.0000000000000E+00  0.1401266263148E-02
-0.2064757675205E-03  0.2550627521297E-03  0.0000000000000E+00  0.1462986400578E-02
-0.2040324441501E-03  0.2304956832285E-03  0.0000000000000E+00  0.1527114924891E-02
-0.2017246785328E-03  0.2063155358603E-03  0.0000000000000E+00  0.1594143125987E-02
-0.1989232522454E-03  0.1821718691706E-03  0.0000000000000E+00  0.1664370305604E-02
-0.1948387744172E-03  0.1576085170870E-03  0.0000000000000E+00  0.1737862165029E-02
-0.1885378732591E-03  0.1320732028210E-03  0.0000000000000E+00  0.1814394804946E-02
-0.1789572418215E-03  0.1049240478822E-03  0.0000000000000E+00  0.1893389418665E-02
-0.1649147712168E-03  0.7543366758105E-04  0.0000000000000E+00  0.1973835707293E-02
-0.1451212093832E-03  0.4281127581158E-04  0.0000000000000E+00  0.2054212323609E-02
-0.1182067571426E-03  0.6311211435427E-05  0.0000000000000E+00  0.2132401506285E-02
-0.8274059955382E-04 -0.3475853602748E-04  0.0000000000000E+00  0.2205624565124E-02
-0.3725277846056E-04 -0.8117294234760E-04  0.0000000000000E+00  0.2270466345883E-02
 0.1969056873768E-04 -0.1338343797680E-03  0.0000000000000E+00  0.2322953734645E-02
 0.8934965949947E-04 -0.1936939024424E-03  0.0000000000000E+00  0.2358665505317E-02
 0.1726178516216E-03 -0.2615866355121E-03  0.0000000000000E+00  0.2372850093782E-02
 0.2697862439329E-03 -0.3380188125461E-03  0.0000000000000E+00  0.2360518236627E-02
 0.3802894457453E-03 -0.4229393546839E-03  0.0000000000000E+00  0.2316471907568E-02
 0.5024727519966E-03 -0.5155295439428E-03  0.0000000000000E+00  0.2235229006908E-02
 0.6334858913216E-03 -0.6141354956704E-03  0.0000000000000E+00  0.2110862573338E-02
 0.7693993700547E-03 -0.7163641350706E-03  0.0000000000000E+00  0.1936751354355E-02
 0.9055390009807E-03 -0.8192419271414E-03  0.0000000000000E+00  0.1705215603530E-02
 0.1037073614590E-02 -0.9196145448738E-03  0.0000000000000E+00  0.1407428542620E-02
 0.1159872866251E-02 -0.1014796041176E-02  0.0000000000000E+00  0.1034003191306E-02
 0.1271038715440E-02 -0.1103103174121E-02  0.0000000000000E+00  0.5768236533060E-03
 0.1369081301119E-02 -0.1183400140602E-02  0.0000000000000E+00  0.2990314829956E-04
 0.1455340911947E-02 -0.1256357142716E-02  0.0000000000000E+00 -0.6089748506587E-03
-0.1845334972751E-04  0.2175103418570E-03  0.0000000000000E+00 -0.2148051528410E-03
-0.5729724127201E-04  0.2396178410795E-03  0.0000000000000E+00  0.7141689881058E-04
-0.9611694291287E-04  0.2589682316354E-03  0.0000000000000E+00  0.3096260869915E-03
-0.1306534443480E-03  0.2725104567436E-03  0.0000000000000E+00  0.5037353205405E-03
-0.1581647908050E-03  0.2784789922146E-03  0.0000000000000E+00  0.6603736642160E-03
-0.1775914650817E-03  0.2764798284096E-03  0.0000000000000E+00  0.7871958673348E-03
-0.1892744576384E-03  0.2672110743137E-03  0.0000000000000E+00  0.8915039580682E-03
-0.1944576488087E-03  0.2520228326889E-03  0.0000000000000E+00  0.9794759580576E-03
-0.1947915266940E-03  0.2325014496802E-03  0.0000000000000E+00  0.1055951109655E-02
-0.1919574943331E-03  0.2101731189338E-03  0.0000000000000E+00  0.1124562326869E-02
-0.1874386619543E-03  0.1863395975840E-03  0.0000000000000E+00  0.1188007663576E-02
-0.1824108162950E-03  0.1620157369815E-03  0.0000000000000E+00  0.1248324816757E-02
-0.1777122238837E-03  0.1379288223899E-03  0.0000000000000E+00  0.1307107578063E-02
-0.1738560423209E-03  0.1145472544825E-03  0.0000000000000E+00  0.1365651494288E-02
-0.1710605090182E-03  0.9211781786354E-04  0.0000000000000E+00  0.1425038651284E-02
-0.1692826348725E-03  0.7070054876462E-04  0.0000000000000E+00  0.1486177809134E-02
-0.1682486798281E-03  0.5019676478770E-04  0.0000000000000E+00  0.1549814358026E-02
-0.1674793597724E-03  0.3037025168230E-04  0.0000000000000E+00  0.1616518150695E-02
-0.1663099334101E-03  0.1086144593954E-04  0.0000000000000E+00  0.1686658042866E-02
-0.1639067558025E-03 -0.8802358164026E-05  0.0000000000000E+00  0.1760362742147E-02
-0.1592811372897E-03 -0.2919958625876E-04  0.0000000000000E+00  0.1837466362141E-02
-0.1513012165232E-03 -0.5101017054463E-04  0.0000000000000E+00  0.1917444672246E-02
-0.1387018165087E-03 -0.7501346228644E-04  0.0000000000000E+00  0.1999340653384E-02
-0.1200966584433E-03 -0.1020679134475E-03  0.0000000000000E+00  0.2081688154655E-02
-0.9400723816116E-04 -0.1330070374652E-03  0.0000000000000E+00  0.2162432607662E-02
-0.5888830621525E-04 -0.1686271516869E-03  0.0000000000000E+00  0.2238863837314E-02
-0.1315897544540E-04 -0.2098093987319E-03  0.0000000000000E+00  0.2307621216852E-02
 0.4471372603831E-04 -0.2575526808379E-03  0.0000000000000E+00  0.2364745186901E-02
 0.1160722066805E-03 -0.3128891731902E-03  0.0000000000000E+00  0.2405757273632E-02
 0.2018748075125E-03 -0.3767189105254E-03  0.0000000000000E+00  0.2425748531864E-02
 0.3024665656625E-03 -0.4496009696236E-03  0.0000000000000E+00  0.2419447897487E-02
 0.4173390390725E-03 -0.5315352143967E-03  0.0000000000000E+00  0.2381239556421E-02
 0.5449195202208E-03 -0.6217692046793E-03  0.0000000000000E+00  0.2305101766988E-02
 0.6824876837189E-03 -0.7187482134602E-03  0.0000000000000E+00  0.2184499072861E-02
 0.8263056414202E-03 -0.8202227516489E-03  0.0000000000000E+00  0.2012242483140E-02
 0.9719298434887E-03 -0.9234023265505E-03  0.0000000000000E+00  0.1780307751291E-02
 0.1114734585578E-02 -0.1025297350992E-02  0.0000000000000E+00  0.1479900650161E-02
 0.1250581784509E-02 -0.1123266254624E-02  0.0000000000000E+00  0.1102182844535E-02
 0.1376314416326E-02 -0.1215352878800E-02  0.0000000000000E+00  0.6395343994606E-03
 0.1490200887795E-02 -0.1300478988502E-02  0.0000000000000E+00  0.8666714396717E-04
 0.1591924493280E-02 -0.1378844477436E-02  0.0000000000000E+00 -0.5561591043092E-03
-0.1454243759845E-04  0.2604607265477E-04  0.0000000000000E+00 -0.2264017717720E-03
-0.4553780064620E-04  0.4348423580521E-04  0.0000000000000E+00  0.6137819006748E-04
-0.7688913629944E-04  0.5870808410292E-04  0.0000000000000E+00  0.3033062616760E-03
-0.1049038989940E-03  0.6906644931546E-04  0.0000000000000E+00  0.5025818002433E-03
-0.1271452357976E-03  0.7297764184003E-04  0.0000000000000E+00  0.6649276562476E-03
-0.1426011489968E-03  0.7002885305484E-04  0.0000000000000E+00  0.7971799951955E-03
-0.1514829624486E-03  0.6077112055758E-04  0.0000000000000E+00  0.9060829793421E-03
-0.1548262503866E-03  0.4636363416742E-04  0.0000000000000E+00  0.9975526363379E-03
-0.1540696027815E-03  0.2821791978110E-04  0.0000000000000E+00  0.1076403846659E-02
-0.1507182316197E-03  0.7728744317587E-05  0.0000000000000E+00  0.1146392683405E-02
-0.1461253894735E-03 -0.1388717835790E-04  0.0000000000000E+00  0.1210407703808E-02
-0.1413779552203E-03 -0.3566280769172E-04  0.0000000000000E+00  0.1270690265884E-02
-0.1372551118535E-03 -0.5689361803093E-04  0.0000000000000E+00  0.1329022059629E-02
-0.1342296936316E-03 -0.7711950105360E-04  0.0000000000000E+00  0.1386859841063E-02
-0.1324896144737E-03 -0.9609511992547E-04  0.0000000000000E+00  0.1445419702014E-02
-0.1319653493527E-03 -0.1137599794268E-03  0.0000000000000E+00  0.1505721515003E-02
-0.1323561765109E-03 -0.1302134634921E-03  0.0000000000000E+00  0.1568604587657E-02
-0.1331523239023E-03 -0.1456958217977E-03  0.0000000000000E+00  0.1634720776624E-02
-0.1336526086334E-03 -0.1605756852919E-03  0.0000000000000E+00  0.1704513073328E-02
-0.1329786044773E-03 -0.1753417742901E-03  0.0000000000000E+00  0.1778179252460E-02
-0.1300860601985E-03 -0.1905977953067E-03  0.0000000000000E+00  0.1855619370505E-02
-0.1237746355832E-03 -0.2070604856048E-03  0.0000000000000E+00  0.1936373678751E-02
-0.1126965455513E-03 -0.2255594089018E-03  0.0000000000000E+00  0.2019549823865E-02
-0.9536920407693E-04 -0.2470183873988E-03  0.0000000000000E+00  0.2103748360773E-02
-0.7020586209872E-04 -0.2723561870689E-03  0.0000000000000E+00  0.2186987228915E-02
-0.3554595983640E-04 -0.3024712496372E-03  0.0000000000000E+00  0.2266629995911E-02
 0.1030600403773E-04 -0.3383502599000E-03  0.0000000000000E+00  0.2339371279551E-02
 0.6899002052185E-04 -0.3810908080798E-03  0.0000000000000E+00  0.2401261674234E-02
 0.1419438004644E-03 -0.4318122074918E-03  0.0000000000000E+00  0.2447758983983E-02
 0.2302092149569E-03 -0.4914900287020E-03  0.0000000000000E+00  0.2473789316096E-02
 0.3342082654284E-03 -0.5607515150132E-03  0.0000000000000E+00  0.2473794624445E-02
 0.4535141023450E-03 -0.6396661891289E-03  0.0000000000000E+00  0.2441743698943E-02
 0.5866562810076E-03 -0.7275661746354E-03  0.0000000000000E+00  0.2371090974007E-02
 0.7310514358246E-03 -0.8230065408310E-03  0.0000000000000E+00  0.2254723688883E-02
 0.8831340539756E-03 -0.9238748014168E-03  0.0000000000000E+00  0.2084925639434E-02
 0.1038644621073E-02 -0.1027531687308E-02  0.0000000000000E+00  0.1853342543331E-02
 0.1193079482258E-02 -0.1131105814052E-02  0.0000000000000E+00  0.1551194500275E-02
 0.1342248880351E-02 -0.1231938050996E-02  0.0000000000000E+00  0.1169996972869E-02
 0.1482757752784E-02 -0.1327926171007E-02  0.0000000000000E+00  0.7026394383556E-03
 0.1612351436784E-02 -0.1417820910594E-02  0.0000000000000E+00  0.1448096512956E-03
 0.1729209802266E-02 -0.1500964346503E-02  0.0000000000000E+00 -0.5022133386126E-03
-0.1082384648306E-04 -0.1646997813837E-03  0.0000000000000E+00 -0.2352113274086E-03
-0.3433193170684E-04 -0.1517238153731E-03  0.0000000000000E+00  0.5385658399867E-04
-0.5849142231707E-04 -0.1404965201300E-03  0.0000000000000E+00  0.2989264948179E-03
-0.8012435513395E-04 -0.1333023426846E-03  0.0000000000000E+00  0.5026091096224E-03
-0.9709289662765E-04 -0.1315351313511E-03  0.0000000000000E+00  0.6698644973281E-03
-0.1084640445796E-03 -0.1355942187535E-03  0.0000000000000E+00  0.8068194464352E-03
-0.1143671734746E-03 -0.1450339417164E-03  0.0000000000000E+00  0.9197128289563E-03
-0.1156740641813E-03 -0.1588508453469E-03  0.0000000000000E+00  0.1014202200070E-02
-0.1136426558569E-03 -0.1757866657602E-03  0.0000000000000E+00  0.1095053579699E-02
-0.1096186251451E-03 -0.1945696578348E-03  0.0000000000000E+00  0.1166113286019E-02
-0.1048308059895E-03 -0.2140688245459E-03  0.0000000000000E+00  0.1230430941675E-02
-0.1002758739009E-03 -0.2333702422591E-03  0.0000000000000E+00  0.1290430122086E-02
-0.9666958458762E-04 -0.2517987922347E-03  0.0000000000000E+00  0.1348066976709E-02
-0.9443943336795E-04 -0.2689087499551E-03  0.0000000000000E+00  0.1404952227388E-02
-0.9373857057779E-04 -0.2844609314673E-03  0.0000000000000E+00  0.1462432913664E-02
-0.9446755572942E-04 -0.2983975201587E-03  0.0000000000000E+00  0.1521639614295E-02
-0.9629641050686E-04 -0.3108203224195E-03  0.0000000000000E+00  0.1583506884649E-02
-0.9868353069281E-04 -0.3219742124838E-03  0.0000000000000E+00  0.1648771282683E-02
-0.1008906349961E-03 -0.3322366476416E-03  0.0000000000000E+00  0.1717954019547E-02
-0.1019943336404E-03 -0.3421115310146E-03  0.0000000000000E+00  0.1791327661313E-02
-0.1008949833093E-03 -0.3522265547615E-03  0.0000000000000E+00  0.1868865844485E-02
-0.9632424809430E-04 -0.3633335177696E-03  0.0000000000000E+00  0.1950182852591E-02
-0.8685247283377E-04 -0.3763099860322E-03  0.0000000000000E+00  0.2034461946050E-02
-0.7090150121494E-04 -0.3921425723912E-03  0.0000000000000E+00  0.2120381504333E-02
-0.4677648345358E-04 -0.4118326990274E-03  0.0000000000000E+00  0.2206041213611E-02
-0.1270005956600E-04 -0.4363790774641E-03  0.0000000000000E+00  0.2288884152430E-02
 0.3314235864232E-04 -0.4668739161695E-03  0.0000000000000E+00  0.2365662270753E-02
 0.9250649063242E-04 -0.5045164504912E-03  0.0000000000000E+00  0.2432435196997E-02
 0.1669390803136E-03 -0.5505200055983E-03  0.0000000000000E+00  0.2484593683975E-02
 0.2575842453875E-03 -0.6059469816027E-03  0.0000000000000E+00  0.2516895109446E-02
 0.3649633609319E-03 -0.6715081886665E-03  0.0000000000000E+00  0.2523493042834E-02
 0.4887540559572E-03 -0.7473605481339E-03  0.0000000000000E+00  0.2497945714232E-02
 0.6276058457726E-03 -0.8329368134502E-03  0.0000000000000E+00  0.2433198133651E-02
 0.7790764362803E-03 -0.9269097883865E-03  0.0000000000000E+00  0.2321584384874E-02
 0.9397551142624E-03 -0.1027295913133E-02  0.0000000000000E+00  0.2154884524821E-02
 0.1105522001742E-02 -0.1131579999598E-02  0.0000000000000E+00  0.1924418938785E-02
 0.1271933985149E-02 -0.1236963863009E-02  0.0000000000000E+00  0.1621369497569E-02
 0.1434708550351E-02 -0.1340749182280E-02  0.0000000000000E+00  0.1237499998207E-02
 0.1590157483538E-02 -0.1440679204359E-02  0.0000000000000E+00  0.7662025097921E-03
 0.1735378435241E-02 -0.1535157587627E-02  0.0000000000000E+00  0.2039605605004E-03
 0.1867399285641E-02 -0.1622729395639E-02  0.0000000000000E+00 -0.4476990320802E-03
-0.7268414551058E-05 -0.3548049887393E-03  0.0000000000000E+00 -0.2413640344517E-03
-0.2359664449006E-04 -0.3461147776376E-03  0.0000000000000E+00  0.4875706023038E-04
-0.4080219732687E-04 -0.3387714727194E-03  0.0000000000000E+00  0.2964572794912E-03
-0.5617723856219E-04 -0.3347217705702E-03  0.0000000000000E+00  0.5038609890884E-03
-0.6787506643462E-04 -0.3351708431702E-03  0.0000000000000E+00  0.6752864471319E-03
-0.7506514646242E-04 -0.3404798537208E-03  0.0000000000000E+00  0.8162483394427E-03
-0.7783364618149E-04 -0.3502742944667E-03  0.0000000000000E+00  0.9325331885220E-03
-0.7692672290624E-04 -0.3636758386509E-03  0.0000000000000E+00  0.1029551521431E-02
-0.7345006977707E-04 -0.3795592643448E-03  0.0000000000000E+00  0.1112005606378E-02
-0.6860626393971E-04 -0.3967666438397E-03  0.0000000000000E+00  0.1183806675114E-02
-0.6350625188549E-04 -0.4142517322799E-03  0.0000000000000E+00  0.1248140397198E-02
-0.5905661945860E-04 -0.4311574254489E-03  0.0000000000000E+00  0.1307592823297E-02
-0.5590656759170E-04 -0.4468434599957E-03  0.0000000000000E+00  0.1364281071708E-02
-0.5443411241764E-04 -0.4608838300430E-03  0.0000000000000E+00  0.1419961653928E-02
-0.5475377381141E-04 -0.4730497866720E-03  0.0000000000000E+00  0.1476108271514E-02
-0.5673318879387E-04 -0.4832891025566E-03  0.0000000000000E+00  0.1533960606646E-02
-0.6001112207493E-04 -0.4917075789179E-03  0.0000000000000E+00  0.1594548776782E-02
-0.6401305187667E-04 -0.4985551458131E-03  0.0000000000000E+00  0.1658695948580E-02
-0.6796324126940E-04 -0.5042176188715E-03  0.0000000000000E+00  0.1727005053520E-02
-0.7089351928569E-04 -0.5092129246867E-03  0.0000000000000E+00  0.1799828732419E-02
-0.7164943196636E-04 -0.5141910221196E-03  0.0000000000000E+00  0.1877221454327E-02
-0.6889552351483E-04 -0.5199365583751E-03  0.0000000000000E+00  0.1958880691616E-02
-0.6112127613739E-04 -0.5273724669098E-03  0.0000000000000E+00  0.2044075879189E-02
-0.4665374225576E-04 -0.5375453015301E-03  0.0000000000000E+00  0.2131574097879E-02
-0.2368987652712E-04 -0.5515365210601E-03  0.0000000000000E+00  0.2219566165063E-02
 0.9666455074775E-05 -0.5704434997112E-03  0.0000000000000E+00  0.2305581227346E-02
 0.5535401846424E-04 -0.5954644186683E-03  0.0000000000000E+00  0.2386432256735E-02
 0.1152535814472E-03 -0.6279037166810E-03  0.0000000000000E+00  0.2458189246577E-02
 0.1910350868977E-03 -0.6690762103617E-03  0.0000000000000E+00  0.2516175748491E-02
 0.2839636666494E-03 -0.7201428242507E-03  0.0000000000000E+00  0.2554980185501E-02
 0.3946818982135E-03 -0.7819132341198E-03  0.0000000000000E+00  0.2568469536145E-02
 0.5229934595088E-03 -0.8546486094594E-03  0.0000000000000E+00  0.2549797750007E-02
 0.6676836775360E-03 -0.9378967697860E-03  0.0000000000000E+00  0.2491412719757E-02
 0.8264544054065E-03 -0.1030454461400E-02  0.0000000000000E+00  0.2385111606409E-02
 0.9960333173033E-03 -0.1130459233618E-02  0.0000000000000E+00  0.2222182136147E-02
 0.1172401881480E-02 -0.1235495081781E-02  0.0000000000000E+00  0.1993607883765E-02
 0.1351127768661E-02 -0.1342802358283E-02  0.0000000000000E+00  0.1690477118061E-02
 0.1527788514440E-02 -0.1449616685563E-02  0.0000000000000E+00  0.1304723510423E-02
 0.1698342918373E-02 -0.1553479889459E-02  0.0000000000000E+00  0.8301604071459E-03
 0.1859223543867E-02 -0.1652371636310E-02  0.0000000000000E+00  0.2638049360513E-03
 0.2006580104123E-02 -0.1744184352936E-02  0.0000000000000E+00 -0.3928703012409E-03
-0.3850252237608E-05 -0.5443419523164E-03  0.0000000000000E+00 -0.2449700468751E-03
-0.1325790237572E-04 -0.5397887666847E-03  0.0000000000000E+00  0.4599854223878E-04
-0.2371168423597E-04 -0.5362337578190E-03  0.0000000000000E+00  0.2958722716177E-03
-0.3293587082846E-04 -0.5353110583545E-03  0.0000000000000E+00  0.5063736342690E-03
-0.3936620794922E-04 -0.5380383603887E-03  0.0000000000000E+00  0.6812816650946E-03
-0.4229208785186E-04 -0.5447197866144E-03  0.0000000000000E+00  0.8255855397771E-03
-0.4178789999268E-04 -0.5550239749792E-03  0.0000000000000E+00  0.9446714165136E-03
-0.3850672169193E-04 -0.5681713401824E-03  0.0000000000000E+00  0.1043719893755E-02
-0.3342746726823E-04 -0.5831511571507E-03  0.0000000000000E+00  0.1127362346570E-02
-0.2762534707777E-04 -0.5989099039199E-03  0.0000000000000E+00  0.1199556212760E-02
-0.2210052506284E-04 -0.6144840148379E-03  0.0000000000000E+00  0.1263602409477E-02
-0.1767063703133E-04 -0.6290756471533E-03  0.0000000000000E+00  0.1322231628809E-02
-0.1491619778292E-04 -0.6420838069851E-03  0.0000000000000E+00  0.1377708737120E-02
-0.1416238508747E-04 -0.6531068288032E-03  0.0000000000000E+00  0.1431927205098E-02
-0.1548177747776E-04 -0.6619302371464E-03  0.0000000000000E+00  0.1486482066336E-02
-0.1870647707157E-04 -0.6685100309751E-03  0.0000000000000E+00  0.1542719396922E-02
-0.2344230336264E-04 -0.6729573784413E-03  0.0000000000000E+00  0.1601764190965E-02
-0.2908102973254E-04 -0.6755274928173E-03  0.0000000000000E+00  0.1664527303578E-02
-0.3480943753539E-04 -0.6766138193372E-03  0.0000000000000E+00  0.1731696230358E-02
-0.3961513954534E-04 -0.6767468043791E-03  0.0000000000000E+00  0.1803708441309E-02
-0.4228986805291E-04 -0.6765965328372E-03  0.0000000000000E+00  0.1880706032143E-02
-0.4143231309181E-04 -0.6769778325663E-03  0.0000000000000E+00  0.1962478401184E-02
-0.3545238024394E-04 -0.6788559593996E-03  0.0000000000000E+00  0.2048391380191E-02
-0.2258319446202E-04 -0.6833342807283E-03  0.0000000000000E+00  0.2137311514298E-02
-0.9132711781823E-06 -0.6915716011062E-03  0.0000000000000E+00  0.2227530465999E-02
 0.3157461948450E-04 -0.7047624999052E-03  0.0000000000000E+00  0.2316670996006E-02
 0.7694896374083E-04 -0.7242118995942E-03  0.0000000000000E+00  0.2401612567672E-02
 0.1372253344575E-03 -0.7513334095757E-03  0.0000000000000E+00  0.2478439435007E-02
 0.2142113287290E-03 -0.7875512048158E-03  0.0000000000000E+00  0.2542410967362E-02
 0.3093118493310E-03 -0.8341366331375E-03  0.0000000000000E+00  0.2587949752032E-02
 0.4233120576807E-03 -0.8920133522599E-03  0.0000000000000E+00  0.2608640679214E-02
 0.5561623555901E-03 -0.9615629279270E-03  0.0000000000000E+00  0.2597240519543E-02
 0.7067987693435E-03 -0.1042461595250E-02  0.0000000000000E+00  0.2545709665850E-02
 0.8730702787836E-03 -0.1133635542354E-02  0.0000000000000E+00  0.2445317374348E-02
 0.1051828658418E-02 -0.1233336283233E-02  0.0000000000000E+00  0.2286859135079E-02
 0.1239124394911E-02 -0.1339225692362E-02  0.0000000000000E+00  0.2060958383183E-02
 0.1430492668293E-02 -0.1448553141850E-02  0.0000000000000E+00  0.1758553198207E-02
 0.1621324058394E-02 -0.1558455767462E-02  0.0000000000000E+00  0.1371666120914E-02
 0.1807181027032E-02 -0.1666229822026E-02  0.0000000000000E+00  0.8944098431924E-03
 0.1983855281519E-02 -0.1769414581020E-02  0.0000000000000E+00  0.3241182817264E-03
 0.2146797372727E-02 -0.1865369464051E-02  0.0000000000000E+00 -0.3378700687225E-03
-0.5461835097078E-06 -0.7333785622264E-03  0.0000000000000E+00 -0.2461215280043E-03
-0.3249133706366E-05 -0.7328388518393E-03  0.0000000000000E+00  0.4551296990828E-04
-0.7120116094905E-05 -0.7329926844280E-03  0.0000000000000E+00  0.2971492382600E-03
-0.1028307436286E-04 -0.7351834217470E-03  0.0000000000000E+00  0.5101781712273E-03
-0.1144740895151E-04 -0.7402436905431E-03  0.0000000000000E+00  0.6879271142850E-03
-0.1003540539756E-04 -0.7484061664327E-03  0.0000000000000E+00  0.8349369193797E-03
-0.6135161805226E-05 -0.7593597610105E-03  0.0000000000000E+00  0.9562436477473E-03
-0.3342810816556E-06 -0.7724010696386E-03  0.0000000000000E+00  0.1056819033889E-02
 0.6492543131696E-05 -0.7866171730146E-03  0.0000000000000E+00  0.1141222621395E-02
 0.1338277545550E-04 -0.8010497785148E-03  0.0000000000000E+00  0.1213445053600E-02
 0.1943977576234E-04 -0.8148152620309E-03  0.0000000000000E+00  0.1276885609187E-02
 0.2393303409744E-04 -0.8271765415127E-03  0.0000000000000E+00  0.1334403766657E-02
 0.2635207344691E-04 -0.8375754466677E-03  0.0000000000000E+00  0.1388399404551E-02
 0.2642724024708E-04 -0.8456386268448E-03  0.0000000000000E+00  0.1440893682917E-02
 0.2413068649330E-04 -0.8511692759892E-03  0.0000000000000E+00  0.1493596746589E-02
 0.1966805557785E-04 -0.8541339531325E-03  0.0000000000000E+00  0.1547957330079E-02
 0.1346782309206E-04 -0.8546503260185E-03  0.0000000000000E+00  0.1605193636474E-02
 0.6172378848895E-05 -0.8529788779077E-03  0.0000000000000E+00  0.1666304430804E-02
-0.1367908170041E-05 -0.8495196669552E-03  0.0000000000000E+00  0.1732063897297E-02
-0.8097398815965E-05 -0.8448137976699E-03  0.0000000000000E+00  0.1802998486335E-02
-0.1275543202567E-04 -0.8395489185848E-03  0.0000000000000E+00  0.1879344195317E-02
-0.1387650709661E-04 -0.8345669232350E-03  0.0000000000000E+00  0.1960990646780E-02
-0.9792541067560E-05 -0.8308719345545E-03  0.0000000000000E+00  0.2047409995226E-02
 0.1356263156144E-05 -0.8296207035063E-03  0.0000000000000E+00  0.2137579003649E-02
 0.2159012184716E-04 -0.8320465534694E-03  0.0000000000000E+00  0.2229900369817E-02
 0.5304989125487E-04 -0.8394398507852E-03  0.0000000000000E+00  0.2322099159189E-02
 0.9793961028642E-04 -0.8532131945689E-03  0.0000000000000E+00  0.2411128706924E-02
 0.1584196923818E-03 -0.8748935574689E-03  0.0000000000000E+00  0.2493094062851E-02
 0.2364500177751E-03 -0.9060225381253E-03  0.0000000000000E+00  0.2563196576243E-02
 0.3335939945709E-03 -0.9479938676133E-03  0.0000000000000E+00  0.2615699283604E-02
 0.4508004771158E-03 -0.1001860112259E-02  0.0000000000000E+00  0.2643911861496E-02
 0.5881868284660E-03 -0.1068138910666E-02  0.0000000000000E+00  0.2640201413626E-02
 0.7448544428585E-03 -0.1146647735255E-02  0.0000000000000E+00  0.2596047635063E-02
 0.9188031619481E-03 -0.1236447713976E-02  0.0000000000000E+00  0.2502194167030E-02
 0.1106997362983E-02 -0.1335898568199E-02  0.0000000000000E+00  0.2348934429998E-02
 0.1305529400414E-02 -0.1442722174487E-02  0.0000000000000E+00  0.2126499138427E-02
 0.1509863841405E-02 -0.1554150425897E-02  0.0000000000000E+00  0.1825615034100E-02
 0.1715162523756E-02 -0.1667189920775E-02  0.0000000000000E+00  0.1438304051704E-02
 0.1916563177797E-02 -0.1778859780486E-02  0.0000000000000E+00  0.9588486403590E-03
 0.2109248612692E-02 -0.1886267117113E-02  0.0000000000000E+00  0.3847442955872E-03
 0.2288072495920E-02 -0.1986318261142E-02  0.0000000000000E+00 -0.2827896891676E-03
 0.2664708775695E-05 -0.9219788815333E-03  0.0000000000000E+00 -0.2448944048375E-03
 0.6489989344130E-05 -0.9253521060690E-03  0.0000000000000E+00  0.4724443933424E-04
 0.9063791689454E-05 -0.9291509014111E-03  0.0000000000000E+00  0.3002706835198E-03
 0.1189006676869E-04 -0.9344466089061E-03  0.0000000000000E+00  0.5153025504123E-03
 0.1599419362232E-04 -0.9418898437221E-03  0.0000000000000E+00  0.6952909012930E-03
 0.2181135509502E-04 -0.9516308418130E-03  0.0000000000000E+00  0.8443972801025E-03
 0.2921907507657E-04 -0.9633601595681E-03  0.0000000000000E+00  0.9673558240318E-03
 0.3767192407649E-04 -0.9764314414074E-03  0.0000000000000E+00  0.1068953197143E-02
 0.4637967628802E-04 -0.9900148095040E-03  0.0000000000000E+00  0.1153681111417E-02
 0.5447904851733E-04 -0.1003238584835E-02  0.0000000000000E+00  0.1225555278443E-02
 0.6116984768401E-04 -0.1015296048641E-02  0.0000000000000E+00  0.1288060000588E-02
 0.6580647965237E-04 -0.1025511722663E-02  0.0000000000000E+00  0.1344169634805E-02
 0.6794928310047E-04 -0.1033373129230E-02  0.0000000000000E+00  0.1396406945286E-02
 0.6738625553170E-04 -0.1038538640349E-02  0.0000000000000E+00  0.1446911227034E-02
 0.6413659362220E-04 -0.1040832091226E-02  0.0000000000000E+00  0.1497500746046E-02
 0.5844550016827E-04 -0.1040232616866E-02  0.0000000000000E+00  0.1549722201855E-02
 0.5077674131987E-04 -0.1036865250304E-02  0.0000000000000E+00  0.1604884372815E-02
 0.4180697633069E-04 -0.1030995463024E-02  0.0000000000000E+00  0.1664073271416E-02
 0.3242301407522E-04 -0.1023028600446E-02  0.0000000000000E+00  0.1728151122166E-02
 0.2372236586615E-04 -0.1013514194813E-02  0.0000000000000E+00  0.1797736839930E-02
 0.1701623011766E-04 -0.1003154472406E-02  0.0000000000000E+00  0.1873166027540E-02
 0.1383222047910E-04 -0.9928148301537E-03  0.0000000000000E+00  0.1954436372844E-02
 0.1591448308810E-04 -0.9835343811553E-03  0.0000000000000E+00  0.2041136012814E-02
 0.2521452196147E-04 -0.9765194887380E-03  0.0000000000000E+00  0.2132362751238E-02
 0.4386151879004E-04 -0.9730749549484E-03  0.0000000000000E+00  0.2226641097745E-02
 0.7412255404726E-04 -0.9745854351972E-03  0.0000000000000E+00  0.2321808372505E-02
 0.1183431839311E-03 -0.9825721524922E-03  0.0000000000000E+00  0.2414901167614E-02
 0.1788388311737E-03 -0.9986796855695E-03  0.0000000000000E+00  0.2502054551965E-02
 0.2577363694361E-03 -0.1024575155374E-02  0.0000000000000E+00  0.2578421136666E-02
 0.3567764433179E-03 -0.1061786595177E-02  0.0000000000000E+00  0.2638113739502E-02
 0.4770926398770E-03 -0.1111510253422E-02  0.0000000000000E+00  0.2674175868616E-02
 0.6189895299575E-03 -0.1174415304596E-02  0.0000000000000E+00  0.2678592710102E-02
 0.7817489905123E-03 -0.1250473249647E-02  0.0000000000000E+00  0.2642367340706E-02
 0.9635269486439E-03 -0.1338886282882E-02  0.0000000000000E+00  0.2555713943646E-02
 0.1161392067807E-02 -0.1438118465111E-02  0.0000000000000E+00  0.2408405444053E-02
 0.1371456149781E-02 -0.1545936946715E-02  0.0000000000000E+00  0.2190239019945E-02
 0.1589080184756E-02 -0.1659532662361E-02  0.0000000000000E+00  0.1891662595511E-02
 0.1809161943891E-02 -0.1775753538504E-02  0.0000000000000E+00  0.1504602354272E-02
 0.2026394851401E-02 -0.1891320527909E-02  0.0000000000000E+00  0.1023388978269E-02
 0.2235377132299E-02 -0.2002921957372E-02  0.0000000000000E+00  0.4455737960078E-03
 0.2430414652208E-02 -0.2107056803767E-02  0.0000000000000E+00 -0.2276971395550E-03
 0.5801456533183E-05 -0.1110203715247E-02  0.0000000000000E+00 -0.2413498522072E-03
 0.1601456450635E-04 -0.1117410504628E-02  0.0000000000000E+00  0.5114842243079E-04
 0.2492414307222E-04 -0.1124805312750E-02  0.0000000000000E+00  0.3052242482169E-03
 0.3368532160323E-04 -0.1133203477405E-02  0.0000000000000E+00  0.5217729960171E-03
 0.4306601745256E-04 -0.1143076881784E-02  0.0000000000000E+00  0.7034341589762E-03
 0.5335167740540E-04 -0.1154484929393E-02  0.0000000000000E+00  0.8540519797548E-03
 0.6436867748213E-04 -0.1167104695629E-02  0.0000000000000E+00  0.9781046385994E-03
 0.7559419896344E-04 -0.1180330796114E-02  0.0000000000000E+00  0.1080219367884E-02
 0.8630539189537E-04 -0.1193403561510E-02  0.0000000000000E+00  0.1164827967368E-02
 0.9572621938975E-04 -0.1205530107141E-02  0.0000000000000E+00  0.1235967187115E-02
 0.1031463067133E-03 -0.1215977584057E-02  0.0000000000000E+00  0.1297196172091E-02
 0.1080026376237E-03 -0.1224132558621E-02  0.0000000000000E+00  0.1351592090453E-02
 0.1099267619675E-03 -0.1229530598385E-02  0.0000000000000E+00  0.1401789124398E-02
 0.1087660118265E-03 -0.1231864727335E-02  0.0000000000000E+00  0.1450034964975E-02
 0.1045885224797E-03 -0.1230982000569E-02  0.0000000000000E+00  0.1498248329513E-02
 0.9768048799975E-04 -0.1226875824638E-02  0.0000000000000E+00  0.1548068284812E-02
 0.8854159879793E-04 -0.1219679179366E-02  0.0000000000000E+00  0.1600890597724E-02
 0.7788252128374E-04 -0.1209661954344E-02  0.0000000000000E+00  0.1657886959727E-02
 0.6662539732699E-04 -0.1197233132318E-02  0.0000000000000E+00  0.1720008167942E-02
 0.5590780005096E-04 -0.1182948066007E-02  0.0000000000000E+00  0.1787968362888E-02
 0.4708915835194E-04 -0.1167520147039E-02  0.0000000000000E+00  0.1862207838060E-02
 0.4175668316930E-04 -0.1151834260628E-02  0.0000000000000E+00  0.1942839709506E-02
 0.4172827706475E-04 -0.1136960191138E-02  0.0000000000000E+00  0.2029577506232E-02
 0.4904564978150E-04 -0.1124149753105E-02  0.0000000000000E+00  0.2121651017277E-02
 0.6594701053014E-04 -0.1114775887482E-02  0.0000000000000E+00  0.2217718002119E-02
 0.9482818682499E-04 -0.1110315836272E-02  0.0000000000000E+00  0.2315739322450E-02
 0.1381821951283E-03 -0.1112400250053E-02  0.0000000000000E+00  0.2412846279191E-02
 0.1984896331917E-03 -0.1122795438975E-02  0.0000000000000E+00  0.2505215904812E-02
 0.2780590828889E-03 -0.1143302030895E-02  0.0000000000000E+00  0.2587964466577E-02
 0.3788271908301E-03 -0.1175594163555E-02  0.0000000000000E+00  0.2655066891877E-02
 0.5021334600766E-03 -0.1221026450349E-02  0.0000000000000E+00  0.2699311671538E-02
 0.6484903493154E-03 -0.1280435109269E-02  0.0000000000000E+00  0.2712310081310E-02
 0.8173763790761E-03 -0.1353958882490E-02  0.0000000000000E+00  0.2684590202603E-02
 0.1007110888790E-02 -0.1440948328282E-02  0.0000000000000E+00  0.2605827465862E-02
 0.1214861997136E-02 -0.1539970229938E-02  0.0000000000000E+00  0.2465248323940E-02
 0.1436743141948E-02 -0.1648825420900E-02  0.0000000000000E+00  0.2252167897038E-02
 0.1667983910820E-02 -0.1764643869483E-02  0.0000000000000E+00  0.1956681480480E-02
 0.1903188306242E-02 -0.1884091409616E-02  0.0000000000000E+00  0.1570522116271E-02
 0.2136589114337E-02 -0.2003575916285E-02  0.0000000000000E+00  0.1087959746808E-02
 0.2362211417747E-02 -0.2119376451319E-02  0.0000000000000E+00  0.5065285930573E-03
 0.2573827026328E-02 -0.2227605101251E-02  0.0000000000000E+00 -0.1726493954075E-03
 0.8881515195601E-05 -0.1298111084661E-02  0.0000000000000E+00 -0.2355355162891E-03
 0.2537530812435E-04 -0.1309091673089E-02  0.0000000000000E+00  0.5719108389558E-04
 0.4053897448231E-04 -0.1320047855843E-02  0.0000000000000E+00  0.3120029676212E-03
 0.5519830838550E-04 -0.1331552513145E-02  0.0000000000000E+00  0.5296151262997E-03
 0.6987063297083E-04 -0.1343902005098E-02  0.0000000000000E+00  0.7124125656906E-03
 0.8468619946281E-04 -0.1357058477882E-02  0.0000000000000E+00  0.8639782988898E-03
 0.9940662000110E-04 -0.1370673295610E-02  0.0000000000000E+00  0.9885783805348E-03
 0.1135153676857E-03 -0.1384168680223E-02  0.0000000000000E+00  0.1090707484676E-02
 0.1263423766066E-03 -0.1396844233368E-02  0.0000000000000E+00  0.1174748529462E-02
 0.1371883587051E-03 -0.1407979011202E-02  0.0000000000000E+00  0.1244758717552E-02
 0.1454267869935E-03 -0.1416911242747E-02  0.0000000000000E+00  0.1304364616348E-02
 0.1505749781625E-03 -0.1423089799412E-02  0.0000000000000E+00  0.1356735819808E-02
 0.1523358808208E-03 -0.1426100288315E-02  0.0000000000000E+00  0.1404607107929E-02
 0.1506175147503E-03 -0.1425672927329E-02  0.0000000000000E+00  0.1450324695984E-02
 0.1455384868911E-03 -0.1421680216204E-02  0.0000000000000E+00  0.1495899461910E-02
 0.1374270542185E-03 -0.1414131215522E-02  0.0000000000000E+00  0.1543056375928E-02
 0.1268191030564E-03 -0.1403167140848E-02  0.0000000000000E+00  0.1593273662024E-02
 0.1144586655989E-03 -0.1389061428988E-02  0.0000000000000E+00  0.1647806196128E-02
 0.1013016997861E-03 -0.1372224715891E-02  0.0000000000000E+00  0.1707693019932E-02
 0.8852358546413E-04 -0.1353215185357E-02  0.0000000000000E+00  0.1773745487439E-02
 0.7752920681306E-04 -0.1332753552010E-02  0.0000000000000E+00  0.1846513004089E-02
 0.6996238995741E-04 -0.1311739712203E-02  0.0000000000000E+00  0.1926230971764E-02
 0.6771205511427E-04 -0.1291269334172E-02  0.0000000000000E+00  0.2012747470162E-02
 0.7290824809864E-04 -0.1272635076654E-02  0.0000000000000E+00  0.2105435364118E-02
 0.8789797946801E-04 -0.1257274287534E-02  0.0000000000000E+00  0.2203097802844E-02
 0.1152081282961E-03 -0.1246754759608E-02  0.0000000000000E+00  0.2303831855982E-02
 0.1574849407899E-03 -0.1242817075397E-02  0.0000000000000E+00  0.2404877087148E-02
 0.2173842209999E-03 -0.1247353121157E-02  0.0000000000000E+00  0.2502467182883E-02
 0.2974109083385E-03 -0.1262304765239E-02  0.0000000000000E+00  0.2591697590327E-02
 0.3997164944872E-03 -0.1289503873534E-02  0.0000000000000E+00  0.2666420693059E-02
 0.5258679329140E-03 -0.1330478087168E-02  0.0000000000000E+00  0.2719183286688E-02
 0.6766070794131E-03 -0.1386246464993E-02  0.0000000000000E+00  0.2741231187891E-02
 0.8516268452061E-03 -0.1457129032638E-02  0.0000000000000E+00  0.2722617061255E-02
 0.1049419945369E-02 -0.1542633645845E-02  0.0000000000000E+00  0.2652463544374E-02
 0.1267252911903E-02 -0.1641430768569E-02  0.0000000000000E+00  0.2519417913571E-02
 0.1501227623543E-02 -0.1751346616409E-02  0.0000000000000E+00  0.2312257511934E-02
 0.1746419283540E-02 -0.1869433875853E-02  0.0000000000000E+00  0.2020645488278E-02
 0.1997112495138E-02 -0.1992156964737E-02  0.0000000000000E+00  0.1636023964600E-02
 0.2247062497636E-02 -0.2115598129052E-02  0.0000000000000E+00  0.1152504511445E-02
 0.2489719139957E-02 -0.2235629452633E-02  0.0000000000000E+00  0.5675504040809E-03
 0.2718310344718E-02 -0.2347978574252E-02  0.0000000000000E+00 -0.1176988477759E-03
 0.1192102612598E-04 -0.1485756633140E-02  0.0000000000000E+00 -0.2274865759930E-03
 0.3461927635719E-04 -0.1500469530253E-02  0.0000000000000E+00  0.6534866207571E-04
 0.5598122021313E-04 -0.1514966189013E-02  0.0000000000000E+00  0.3206053961609E-03
 0.7651939468877E-04 -0.1529588324659E-02  0.0000000000000E+00  0.5388547816738E-03
 0.9650635492835E-04 -0.1544459697462E-02  0.0000000000000E+00  0.7222775262288E-03
 0.1159129089077E-03 -0.1559440248162E-02  0.0000000000000E+00  0.8742465360267E-03
 0.1344248397847E-03 -0.1574145800033E-02  0.0000000000000E+00  0.9988576290886E-03
 0.1515184136120E-03 -0.1588015230039E-02  0.0000000000000E+00  0.1100500628963E-02
 0.1665640968203E-03 -0.1600398312619E-02  0.0000000000000E+00  0.1183523082262E-02
 0.1789304150330E-03 -0.1610640278312E-02  0.0000000000000E+00  0.1252004927748E-02
 0.1880695426539E-03 -0.1618148083133E-02  0.0000000000000E+00  0.1309635109590E-02
 0.1935771654806E-03 -0.1622433175487E-02  0.0000000000000E+00  0.1359666749126E-02
 0.1952277676198E-03 -0.1623132983260E-02  0.0000000000000E+00  0.1404924991268E-02
 0.1929911867095E-03 -0.1620017162518E-02  0.0000000000000E+00  0.1447844580331E-02
 0.1870377344846E-03 -0.1612985572878E-02  0.0000000000000E+00  0.1490519673784E-02
 0.1777384687635E-03 -0.1602064012824E-02  0.0000000000000E+00  0.1534753838504E-02
 0.1656653866972E-03 -0.1587401929193E-02  0.0000000000000E+00  0.1582102282953E-02
 0.1515948602803E-03 -0.1569275128514E-02  0.0000000000000E+00  0.1633899627957E-02
 0.1365147265521E-03 -0.1548093576924E-02  0.0000000000000E+00  0.1691271934230E-02
 0.1216354595018E-03 -0.1524414915559E-02  0.0000000000000E+00  0.1755128936845E-02
 0.1084041365002E-03 -0.1498962906914E-02  0.0000000000000E+00  0.1826132864454E-02
 0.9851771849825E-04 -0.1472647508167E-02  0.0000000000000E+00  0.1904647721773E-02
 0.9393291768475E-04 -0.1446584985304E-02  0.0000000000000E+00  0.1990665027785E-02
 0.9686579152240E-04 -0.1422103728146E-02  0.0000000000000E+00  0.2083711956284E-02
 0.1097715182697E-03 -0.1400701270907E-02  0.0000000000000E+00  0.2182749894649E-02
 0.1353099705015E-03 -0.1384033456911E-02  0.0000000000000E+00  0.2286026176310E-02
 0.1762860681785E-03 -0.1373950849333E-02  0.0000000000000E+00  0.2390904294644E-02
 0.2355405869991E-03 -0.1372474312892E-02  0.0000000000000E+00  0.2493692046979E-02
 0.3157893366049E-03 -0.1381694305039E-02  0.0000000000000E+00  0.2589482758491E-02
 0.4194176120046E-03 -0.1403611805006E-02  0.0000000000000E+00  0.2672024728808E-02
 0.5482418942444E-03 -0.1439942189380E-02  0.0000000000000E+00  0.2733638736640E-02
 0.7032561375515E-03 -0.1491903668075E-02  0.0000000000000E+00  0.2765214366589E-02
 0.8843874665929E-03 -0.1560012786708E-02  0.0000000000000E+00  0.2756326931568E-02
 0.1090315059360E-02 -0.1643945679775E-02  0.0000000000000E+00  0.2695528204994E-02
 0.1318406927545E-02 -0.1742480347364E-02  0.0000000000000E+00  0.2570847567017E-02
 0.1564744847447E-02 -0.1853463559208E-02  0.0000000000000E+00  0.2370462169988E-02
 0.1824231038112E-02 -0.1973858033987E-02  0.0000000000000E+00  0.2083518292947E-02
 0.2090807618730E-02 -0.2099910480516E-02  0.0000000000000E+00  0.1701069175011E-02
 0.2357732533702E-02 -0.2227364756285E-02  0.0000000000000E+00  0.1216978269538E-02
 0.2617865789922E-02 -0.2351680248231E-02  0.0000000000000E+00  0.6285934375751E-03
 0.2863865236268E-02 -0.2468189546764E-02  0.0000000000000E+00 -0.6289694911396E-04
 0.1493503817967E-04 -0.1673193982763E-02  0.0000000000000E+00 -0.2172266070096E-03
 0.4379048497468E-04 -0.1691614861901E-02  0.0000000000000E+00  0.7560694232794E-04
 0.7131955947591E-04 -0.1709644326524E-02  0.0000000000000E+00  0.3310356723290E-03
 0.9773451862961E-04 -0.1727402142700E-02  0.0000000000000E+00  0.5495186573592E-03
 0.1230678263056E-03 -0.1744841949399E-02  0.0000000000000E+00  0.7330771065549E-03
 0.1471273964590E-03 -0.1761717628368E-02  0.0000000000000E+00  0.8849208967851E-03
 0.1695141841645E-03 -0.1777601633955E-02  0.0000000000000E+00  0.1009015833438E-02
 0.1896862139712E-03 -0.1791940705052E-02  0.0000000000000E+00  0.1109675193660E-02
 0.2070444250740E-03 -0.1804127467782E-02  0.0000000000000E+00  0.1191226656292E-02
 0.2210178149936E-03 -0.1813568735901E-02  0.0000000000000E+00  0.1257777556313E-02
 0.2311330702279E-03 -0.1819738442744E-02  0.0000000000000E+00  0.1313076174026E-02
 0.2370627230425E-03 -0.1822211061965E-02  0.0000000000000E+00  0.1360451528008E-02
 0.2386530185407E-03 -0.1820677540971E-02  0.0000000000000E+00  0.1402809383836E-02
 0.2359366192504E-03 -0.1814949006261E-02  0.0000000000000E+00  0.1442662870181E-02
 0.2291365349246E-03 -0.1804954329248E-02  0.0000000000000E+00  0.1482179957833E-02
 0.2186670577401E-03 -0.1790736851055E-02  0.0000000000000E+00  0.1523234669771E-02
 0.2051358633360E-03 -0.1772453956966E-02  0.0000000000000E+00  0.1567452783135E-02
 0.1893502516260E-03 -0.1750382339200E-02  0.0000000000000E+00  0.1616244260677E-02
 0.1723275750804E-03 -0.1724928632392E-02  0.0000000000000E+00  0.1670820024955E-02
 0.1553102208528E-03 -0.1696646178240E-02  0.0000000000000E+00  0.1732188494633E-02
 0.1397836920295E-03 -0.1666257078047E-02  0.0000000000000E+00  0.1801127674476E-02
 0.1274940725692E-03 -0.1634675915138E-02  0.0000000000000E+00  0.1878135903171E-02
 0.1204620970455E-03 -0.1603033736892E-02  0.0000000000000E+00  0.1963356719067E-02
 0.1209869671366E-03 -0.1572688982978E-02  0.0000000000000E+00  0.2056482949009E-02
 0.1316308671411E-03 -0.1545194566742E-02  0.0000000000000E+00  0.2156647748921E-02
 0.1551880970443E-03 -0.1522291284939E-02  0.0000000000000E+00  0.2262264139044E-02
 0.1946272149208E-03 -0.1505939116829E-02  0.0000000000000E+00  0.2370837311341E-02
 0.2529833314000E-03 -0.1498290701924E-02  0.0000000000000E+00  0.2478769413944E-02
 0.3331974225225E-03 -0.1501591912540E-02  0.0000000000000E+00  0.2581173596027E-02
 0.4379076826279E-03 -0.1518023919780E-02  0.0000000000000E+00  0.2671715811210E-02
 0.5692029075310E-03 -0.1549504636576E-02  0.0000000000000E+00  0.2742509151759E-02
 0.7283533710432E-03 -0.1597468441150E-02  0.0000000000000E+00  0.2784097435250E-02
 0.9155427592033E-03 -0.1662645154940E-02  0.0000000000000E+00  0.2785575808345E-02
 0.1129653389983E-02 -0.1744892599019E-02  0.0000000000000E+00  0.2734903808341E-02
 0.1368162268019E-02 -0.1843103385524E-02  0.0000000000000E+00  0.2619448833868E-02
 0.1627127229654E-02 -0.1955143648317E-02  0.0000000000000E+00  0.2426719145002E-02
 0.1901262821711E-02 -0.2077876867508E-02  0.0000000000000E+00  0.2145254300414E-02
 0.2184146930140E-02 -0.2207317758398E-02  0.0000000000000E+00  0.1765619537941E-02
 0.2468516420006E-02 -0.2338857275657E-02  0.0000000000000E+00  0.1281344356182E-02
 0.2746615705817E-02 -0.2467528638804E-02  0.0000000000000E+00  0.6896195719188E-03
 0.3010494129293E-02 -0.2588248841491E-02  0.0000000000000E+00 -0.8296419989270E-05
 0.1793770096691E-04 -0.1860475050567E-02  0.0000000000000E+00 -0.2047683136332E-03
 0.5293045038262E-04 -0.1882595816435E-02  0.0000000000000E+00  0.8796079606749E-04
 0.8661916770076E-04 -0.1904163189262E-02  0.0000000000000E+00  0.3433035199507E-03
 0.1189259402344E-03 -0.1925082259942E-02  0.0000000000000E+00  0.5616347540928E-03
 0.1496465833008E-03 -0.1945138459180E-02  0.0000000000000E+00  0.7448567310337E-03
 0.1784231383932E-03 -0.1963976553265E-02  0.0000000000000E+00  0.8960601638452E-03
 0.2047644125125E-03 -0.1981119482922E-02  0.0000000000000E+00  0.1019119739421E-02
 0.2281013269915E-03 -0.1996015003320E-02  0.0000000000000E+00  0.1118300975545E-02
 0.2478572983868E-03 -0.2008092990177E-02  0.0000000000000E+00  0.1197928814249E-02
 0.2635160673713E-03 -0.2016818491535E-02  0.0000000000000E+00  0.1262144602786E-02
 0.2746757087910E-03 -0.2021731401468E-02  0.0000000000000E+00  0.1314754572551E-02
 0.2810846563625E-03 -0.2022469984209E-02  0.0000000000000E+00  0.1359157043250E-02
 0.2826613533770E-03 -0.2018780438658E-02  0.0000000000000E+00  0.1398329016491E-02
 0.2795022620491E-03 -0.2010517260929E-02  0.0000000000000E+00  0.1434851655050E-02
 0.2718839005612E-03 -0.1997639768622E-02  0.0000000000000E+00  0.1470956674901E-02
 0.2602639547133E-03 -0.1980209393546E-02  0.0000000000000E+00  0.1508579577339E-02
 0.2452850114315E-03 -0.1958390888052E-02  0.0000000000000E+00  0.1549409342721E-02
 0.2277835030571E-03 -0.1932460044735E-02  0.0000000000000E+00  0.1594925891291E-02
 0.2088035037615E-03 -0.1902817171518E-02  0.0000000000000E+00  0.1646421886764E-02
 0.1896156559632E-03 -0.1870007176229E-02  0.0000000000000E+00  0.1705003824962E-02
 0.1717395983640E-03 -0.1834745357730E-02  0.0000000000000E+00  0.1771567629256E-02
 0.1569659617534E-03 -0.1797944997103E-02  0.0000000000000E+00  0.1846751061207E-02
 0.1473751324567E-03 -0.1760745546088E-02  0.0000000000000E+00  0.1930857891352E-02
 0.1453459574341E-03 -0.1724529183576E-02  0.0000000000000E+00  0.2023757994110E-02
 0.1535458162840E-03 -0.1690898710699E-02  0.0000000000000E+00  0.2124770445875E-02
 0.1749042150313E-03 -0.1661676050962E-02  0.0000000000000E+00  0.2232490688975E-02
 0.2125576755929E-03 -0.1638929261954E-02  0.0000000000000E+00  0.2344585449165E-02
 0.2697444588198E-03 -0.1624944778844E-02  0.0000000000000E+00  0.2457574260657E-02
 0.3496446903437E-03 -0.1622130042932E-02  0.0000000000000E+00  0.2566615388745E-02
 0.4551686954856E-03 -0.1632857102723E-02  0.0000000000000E+00  0.2665317685952E-02
 0.5887012164804E-03 -0.1659261322762E-02  0.0000000000000E+00  0.2745607938797E-02
 0.7518148777920E-03 -0.1703011132722E-02  0.0000000000000E+00  0.2797696484212E-02
 0.9449752177216E-03 -0.1765068193197E-02  0.0000000000000E+00  0.2810195340941E-02
 0.1167288420437E-02 -0.1845488203178E-02  0.0000000000000E+00  0.2770447902102E-02
 0.1416352811253E-02 -0.1943289008751E-02  0.0000000000000E+00  0.2665110738902E-02
 0.1688203257760E-02 -0.2056358713889E-02  0.0000000000000E+00  0.2480948473860E-02
 0.1977355496983E-02 -0.2181455476608E-02  0.0000000000000E+00  0.2205798589091E-02
 0.2277001932525E-02 -0.2314348953814E-02  0.0000000000000E+00  0.1829636375443E-02
 0.2579329972431E-02 -0.2450060080714E-02  0.0000000000000E+00  0.1345571642171E-02
 0.2875932731744E-02 -0.2583175215087E-02  0.0000000000000E+00  0.7505950290550E-03
 0.3158202485072E-02 -0.2708167015629E-02  0.0000000000000E+00  0.4604708374215E-04
 0.2094243534852E-04 -0.2047650342005E-02  0.0000000000000E+00 -0.1901141351459E-03
 0.6207867078549E-04 -0.2073478370694E-02  0.0000000000000E+00  0.1024137886062E-03
 0.1019423975124E-03 -0.2098601138234E-02  0.0000000000000E+00  0.3574242128165E-03
 0.1401729450006E-03 -0.2122714490987E-02  0.0000000000000E+00  0.5752326900405E-03
 0.1763316161924E-03 -0.2145436902725E-02  0.0000000000000E+00  0.7576596858010E-03
 0.2098918179666E-03 -0.2166301533761E-02  0.0000000000000E+00  0.9077181782733E-03
 0.2402642633978E-03 -0.2184777101112E-02  0.0000000000000E+00  0.1029229676456E-02
 0.2668458496046E-03 -0.2200307311062E-02  0.0000000000000E+00  0.1126441191671E-02
 0.2890764365805E-03 -0.2212355359148E-02  0.0000000000000E+00  0.1203693416728E-02
 0.3064904095126E-03 -0.2220442475773E-02  0.0000000000000E+00  0.1265169923529E-02
 0.3187552649485E-03 -0.2224174342070E-02  0.0000000000000E+00  0.1314734835319E-02
 0.3256950874383E-03 -0.2223254214849E-02  0.0000000000000E+00  0.1355849966243E-02
 0.3273012744375E-03 -0.2217485410169E-02  0.0000000000000E+00  0.1391554375961E-02
 0.3237351113304E-03 -0.2206767630585E-02  0.0000000000000E+00  0.1424486624805E-02
 0.3153273048211E-03 -0.2191091899778E-02  0.0000000000000E+00  0.1456931468599E-02
 0.3025788488417E-03 -0.2170538055231E-02  0.0000000000000E+00  0.1490876058043E-02
 0.2861661536982E-03 -0.2145277379665E-02  0.0000000000000E+00  0.1528064251422E-02
 0.2669526103192E-03 -0.2115582689283E-02  0.0000000000000E+00  0.1570039543258E-02
 0.2460057907008E-03 -0.2081844646592E-02  0.0000000000000E+00  0.1618172224508E-02
 0.2246204521767E-03 -0.2044595223423E-02  0.0000000000000E+00  0.1673665309380E-02
 0.2043455415758E-03 -0.2004537348639E-02  0.0000000000000E+00  0.1737533915742E-02
 0.1870110651500E-03 -0.1962576573240E-02  0.0000000000000E+00  0.1810559606796E-02
 0.1747520340235E-03 -0.1919853788604E-02  0.0000000000000E+00  0.1893214151730E-02
 0.1700227231167E-03 -0.1877767914662E-02  0.0000000000000E+00  0.1985555828181E-02
 0.1755931270963E-03 -0.1837965369734E-02  0.0000000000000E+00  0.2087104312016E-02
 0.1945279322605E-03 -0.1802344515713E-02  0.0000000000000E+00  0.2196655426400E-02
 0.2301351457875E-03 -0.1773079214669E-02  0.0000000000000E+00  0.2312059270863E-02
 0.2858642861229E-03 -0.1752590764486E-02  0.0000000000000E+00  0.2429978599094E-02
 0.3651481790832E-03 -0.1743453492075E-02  0.0000000000000E+00  0.2545645548410E-02
 0.4711886134802E-03 -0.1748240502923E-02  0.0000000000000E+00  0.2652640907488E-02
 0.6066908488096E-03 -0.1769319628301E-02  0.0000000000000E+00  0.2742730079970E-02
 0.7735579518849E-03 -0.1808612216767E-02  0.0000000000000E+00  0.2805804728116E-02
 0.9725659398872E-03 -0.1867332392544E-02  0.0000000000000E+00  0.2829991468846E-02
 0.1203070104600E-02 -0.1945753050686E-02  0.0000000000000E+00  0.2801991921933E-02
 0.1462807649120E-02 -0.2043031776760E-02  0.0000000000000E+00  0.2707698794575E-02
 0.1747796444886E-02 -0.2157085232675E-02  0.0000000000000E+00  0.2533052347335E-02
 0.2052345645081E-02 -0.2284563210846E-02  0.0000000000000E+00  0.2265086359008E-02
 0.2369240924822E-02 -0.2420977946008E-02  0.0000000000000E+00  0.1893079349597E-02
 0.2690087050771E-02 -0.2560960214484E-02  0.0000000000000E+00  0.1409632371160E-02
 0.3005780987764E-02 -0.2698622069335E-02  0.0000000000000E+00  0.8114882324718E-03
 0.3307000157696E-02 -0.2827955765447E-02  0.0000000000000E+00  0.1000738502290E-03
 0.2396208533910E-04 -0.2234769226868E-02  0.0000000000000E+00 -0.1732567233051E-03
 0.7127306093850E-04 -0.2264326757567E-02  0.0000000000000E+00  0.1189778595466E-03
 0.1173494034097E-03 -0.2293034466698E-02  0.0000000000000E+00  0.3734185236300E-03
 0.1615525063219E-03 -0.2320382605557E-02  0.0000000000000E+00  0.5903439055278E-03
 0.2032099195282E-03 -0.2345823199768E-02  0.0000000000000E+00  0.7715274590128E-03
 0.2416236662191E-03 -0.2368775700531E-02  0.0000000000000E+00  0.9199441515651E-03
 0.2761015582557E-03 -0.2388651136985E-02  0.0000000000000E+00  0.1039399709077E-02
 0.3060013121891E-03 -0.2404885757751E-02  0.0000000000000E+00  0.1134152412684E-02
 0.3307750853380E-03 -0.2416973790651E-02  0.0000000000000E+00  0.1208578355393E-02
 0.3500054601856E-03 -0.2424491943238E-02  0.0000000000000E+00  0.1266912832338E-02
 0.3634286260759E-03 -0.2427112446257E-02  0.0000000000000E+00  0.1313078812187E-02
 0.3709448627496E-03 -0.2424605288738E-02  0.0000000000000E+00  0.1350596334051E-02
 0.3726196887456E-03 -0.2416832988595E-02  0.0000000000000E+00  0.1382557372183E-02
 0.3686803550093E-03 -0.2403742290258E-02  0.0000000000000E+00  0.1411646860884E-02
 0.3595123530466E-03 -0.2385357047480E-02  0.0000000000000E+00  0.1440191203111E-02
 0.3456596821431E-03 -0.2361775608564E-02  0.0000000000000E+00  0.1470218496943E-02
 0.3278311823086E-03 -0.2333174700242E-02  0.0000000000000E+00  0.1503518181124E-02
 0.3069146586382E-03 -0.2299821808015E-02  0.0000000000000E+00  0.1541689926565E-02
 0.2839975302000E-03 -0.2262094321730E-02  0.0000000000000E+00  0.1586176516955E-02
 0.2603940445523E-03 -0.2220506422660E-02  0.0000000000000E+00  0.1638274930799E-02
 0.2376770806989E-03 -0.2175742687025E-02  0.0000000000000E+00  0.1699119829150E-02
 0.2177102267051E-03 -0.2128694008273E-02  0.0000000000000E+00  0.1769640165957E-02
 0.2026773837359E-03 -0.2080495143629E-02  0.0000000000000E+00  0.1850482929577E-02
 0.1951032354496E-03 -0.2032554015761E-02  0.0000000000000E+00  0.1941905999145E-02
 0.1978569231991E-03 -0.1986553519732E-02  0.0000000000000E+00  0.2043644726351E-02
 0.2141373323065E-03 -0.1944462775447E-02  0.0000000000000E+00  0.2154714372213E-02
 0.2474264980341E-03 -0.1908558073074E-02  0.0000000000000E+00  0.2273172162336E-02
 0.3013924176826E-03 -0.1881395496239E-02  0.0000000000000E+00  0.2395852688449E-02
 0.3797335856792E-03 -0.1865720547867E-02  0.0000000000000E+00  0.2518094307744E-02
 0.4859626117270E-03 -0.1864316916131E-02  0.0000000000000E+00  0.2633482907001E-02
 0.6231308297053E-03 -0.1879799954697E-02  0.0000000000000E+00  0.2733651550036E-02
 0.7935021085707E-03 -0.1914363854264E-02  0.0000000000000E+00  0.2808191361675E-02
 0.9981952776611E-03 -0.1969498106822E-02  0.0000000000000E+00  0.2844742918091E-02
 0.1236844976768E-02 -0.2045715583800E-02  0.0000000000000E+00  0.2829339602248E-02
 0.1507350556623E-02 -0.2142332364023E-02  0.0000000000000E+00  0.2747053584272E-02
 0.1805724186160E-02 -0.2257304488235E-02  0.0000000000000E+00  0.2582913967008E-02
 0.2126064042593E-02 -0.2387173366913E-02  0.0000000000000E+00  0.2323041869645E-02
 0.2460727611927E-02 -0.2527181879173E-02  0.0000000000000E+00  0.1955905089437E-02
 0.2800698972362E-02 -0.2671547298889E-02  0.0000000000000E+00  0.1473500413864E-02
 0.3136125383236E-02 -0.2813873490533E-02  0.0000000000000E+00  0.8722683465293E-03
 0.3456902489817E-02 -0.2947629166129E-02  0.0000000000000E+00  0.1537192236432E-03
 0.2700905946692E-04 -0.2421880207933E-02  0.0000000000000E+00 -0.1541793345296E-03
 0.8055035509441E-04 -0.2455203876532E-02  0.0000000000000E+00  0.1376730569387E-03
 0.1328987292716E-03 -0.2487537877250E-02  0.0000000000000E+00  0.3913126470634E-03
 0.1831399232228E-03 -0.2518168761829E-02  0.0000000000000E+00  0.6070017591681E-03
 0.2303670415922E-03 -0.2546381801522E-02  0.0000000000000E+00  0.7864999163748E-03
 0.2737078255328E-03 -0.2571480886565E-02  0.0000000000000E+00  0.9327827989038E-03
 0.3123633414429E-03 -0.2592817004388E-02  0.0000000000000E+00  0.1049677632788E-02
 0.3456486105360E-03 -0.2609817111436E-02  0.0000000000000E+00  0.1141484384070E-02
 0.3730257872899E-03 -0.2622005812924E-02  0.0000000000000E+00  0.1212635220591E-02
 0.3941248864999E-03 -0.2629015985172E-02  0.0000000000000E+00  0.1267427672992E-02
 0.4087513736184E-03 -0.2630588188435E-02  0.0000000000000E+00  0.1309845220939E-02
 0.4168831500230E-03 -0.2626561505647E-02  0.0000000000000E+00  0.1343461137162E-02
 0.4186615111278E-03 -0.2616860030428E-02  0.0000000000000E+00  0.1371411013729E-02
 0.4143809936167E-03 -0.2601479433197E-02  0.0000000000000E+00  0.1396414631620E-02
 0.4044824255896E-03 -0.2580477418415E-02  0.0000000000000E+00  0.1420827899315E-02
 0.3895523158821E-03 -0.2553970761980E-02  0.0000000000000E+00  0.1446708259780E-02
 0.3703302496564E-03 -0.2522140315728E-02  0.0000000000000E+00  0.1475880449851E-02
 0.3477255410762E-03 -0.2485245620192E-02  0.0000000000000E+00  0.1509991890956E-02
 0.3228413854211E-03 -0.2443646876779E-02  0.0000000000000E+00  0.1550551680054E-02
 0.2970064138772E-03 -0.2397835290380E-02  0.0000000000000E+00  0.1598947168391E-02
 0.2718115070346E-03 -0.2348470704714E-02  0.0000000000000E+00  0.1656431917099E-02
 0.2491473971798E-03 -0.2296421935677E-02  0.0000000000000E+00  0.1724084979568E-02
 0.2312403872237E-03 -0.2242809410080E-02  0.0000000000000E+00  0.1802735118258E-02
 0.2206796702354E-03 -0.2189041530359E-02  0.0000000000000E+00  0.1892850706958E-02
 0.2204290622736E-03 -0.2136829574257E-02  0.0000000000000E+00  0.1994398080571E-02
 0.2338195582996E-03 -0.2088206620214E-02  0.0000000000000E+00  0.2106631928293E-02
 0.2645086017337E-03 -0.2045546737598E-02  0.0000000000000E+00  0.2227842137127E-02
 0.3163888038766E-03 -0.2011539370434E-02  0.0000000000000E+00  0.2355066502881E-02
 0.3934365283574E-03 -0.1989104245115E-02  0.0000000000000E+00  0.2483785669897E-02
 0.4994944627207E-03 -0.1981244313666E-02  0.0000000000000E+00  0.2607628277562E-02
 0.6379865497035E-03 -0.1990837435371E-02  0.0000000000000E+00  0.2718128869092E-02
 0.8115702470828E-03 -0.2020371639462E-02  0.0000000000000E+00  0.2804600426374E-02
 0.1021743586224E-02 -0.2071637150279E-02  0.0000000000000E+00  0.2854199555021E-02
 0.1268456305624E-02 -0.2145413390435E-02  0.0000000000000E+00  0.2852265088877E-02
 0.1549799459822E-02 -0.2241198342399E-02  0.0000000000000E+00  0.2782988922074E-02
 0.1861796607347E-02 -0.2357002828690E-02  0.0000000000000E+00  0.2630395926821E-02
 0.2198334176705E-02 -0.2489263038020E-02  0.0000000000000E+00  0.2379577002577E-02
 0.2551319797842E-02 -0.2632940930414E-02  0.0000000000000E+00  0.2018065769733E-02
 0.2911073951720E-02 -0.2781813671391E-02  0.0000000000000E+00  0.1537149904159E-02
 0.3266932028098E-02 -0.2928936726293E-02  0.0000000000000E+00  0.9329043235889E-03
 0.3607931422964E-02 -0.3067204915695E-02  0.0000000000000E+00  0.2069129673544E-03
 0.3009546180194E-04 -0.2609031190738E-02  0.0000000000000E+00 -0.1328561088331E-03
 0.8994648780794E-04 -0.2646171703049E-02  0.0000000000000E+00  0.1585273412778E-03
 0.1486478717479E-03 -0.2682184963085E-02  0.0000000000000E+00  0.4111381254332E-03
 0.2050094449153E-03 -0.2716153958357E-02  0.0000000000000E+00  0.6252415501394E-03
 0.2578876391363E-03 -0.2747196015111E-02  0.0000000000000E+00  0.8026153471541E-03
 0.3062327358163E-03 -0.2774497761285E-02  0.0000000000000E+00  0.9462743233212E-03
 0.3491360525650E-03 -0.2797348811886E-02  0.0000000000000E+00  0.1060104836008E-02
 0.3858679701308E-03 -0.2815166530322E-02  0.0000000000000E+00  0.1148479750567E-02
 0.4159001781245E-03 -0.2827506890865E-02  0.0000000000000E+00  0.1215908915335E-02
 0.4389110852441E-03 -0.2834061081586E-02  0.0000000000000E+00  0.1266763375457E-02
 0.4547774004505E-03 -0.2834640861546E-02  0.0000000000000E+00  0.1305089204476E-02
 0.4635570309288E-03 -0.2829157460432E-02  0.0000000000000E+00  0.1334507928736E-02
 0.4654692577006E-03 -0.2817599265331E-02  0.0000000000000E+00  0.1358189106877E-02
 0.4608774480029E-03 -0.2800012843455E-02  0.0000000000000E+00  0.1378875206605E-02
 0.4502783048779E-03 -0.2776490692358E-02  0.0000000000000E+00  0.1398938682240E-02
 0.4343001779151E-03 -0.2747167762466E-02  0.0000000000000E+00  0.1420453788954E-02
 0.4137114361353E-03 -0.2712227497047E-02  0.0000000000000E+00  0.1445269283548E-02
 0.3894396487619E-03 -0.2671918638368E-02  0.0000000000000E+00  0.1475070874920E-02
 0.3625993067798E-03 -0.2626580020279E-02  0.0000000000000E+00  0.1511426728643E-02
 0.3345278439346E-03 -0.2576674381951E-02  0.0000000000000E+00  0.1555809899221E-02
 0.3068276570999E-03 -0.2522830083201E-02  0.0000000000000E+00  0.1609591145273E-02
 0.2814095266767E-03 -0.2465885966003E-02  0.0000000000000E+00  0.1674001347021E-02
 0.2605348775317E-03 -0.2406939304838E-02  0.0000000000000E+00  0.1750056791574E-02
 0.2468505619470E-03 -0.2347389640374E-02  0.0000000000000E+00  0.1838446758602E-02
 0.2434094847054E-03 -0.2288967510935E-02  0.0000000000000E+00  0.1939383900470E-02
 0.2536713996927E-03 -0.2233761913113E-02  0.0000000000000E+00  0.2052383049613E-02
 0.2814691813282E-03 -0.2184238601303E-02  0.0000000000000E+00  0.2175993899458E-02
 0.3309248794082E-03 -0.2143217386383E-02  0.0000000000000E+00  0.2307491490090E-02
 0.4063039322595E-03 -0.2113793773792E-02  0.0000000000000E+00  0.2442538652897E-02
 0.5117980789079E-03 -0.2099197575295E-02  0.0000000000000E+00  0.2574849316472E-02
 0.6512313084913E-03 -0.2102583890415E-02  0.0000000000000E+00  0.2695898823973E-02
 0.8276899836672E-03 -0.2126756610419E-02  0.0000000000000E+00  0.2794749708789E-02
 0.1043092111235E-02 -0.2173834654897E-02  0.0000000000000E+00  0.2858080605077E-02
 0.1297744336130E-02 -0.2244894699265E-02  0.0000000000000E+00  0.2870510754910E-02
 0.1589965943113E-02 -0.2339645164291E-02  0.0000000000000E+00  0.2815289603222E-02
 0.1915815432645E-02 -0.2456172112478E-02  0.0000000000000E+00  0.2675338174451E-02
 0.2268970796652E-02 -0.2590813174495E-02  0.0000000000000E+00  0.2434589549757E-02
 0.2640868133633E-02 -0.2738238316245E-02  0.0000000000000E+00  0.2079507724383E-02
 0.3021116561270E-02 -0.2891754725356E-02  0.0000000000000E+00  0.1600554236961E-02
 0.3398168637977E-02 -0.3043822862132E-02  0.0000000000000E+00  0.9933643899599E-03
 0.3760116699072E-02 -0.3186705668294E-02  0.0000000000000E+00  0.2595789027642E-03
 0.3323321930541E-04 -0.2796269758988E-02  0.0000000000000E+00 -0.1092522661716E-03
 0.9949696345948E-04 -0.2837291693730E-02  0.0000000000000E+00  0.1815764442233E-03
 0.1646538325129E-03 -0.2877048681620E-02  0.0000000000000E+00  0.4329317636957E-03
 0.2272348918378E-03 -0.2914418479642E-02  0.0000000000000E+00  0.6451004560753E-03
 0.2858560393640E-03 -0.2948348324173E-02  0.0000000000000E+00  0.8199103684620E-03
 0.3392865361553E-03 -0.2977905959988E-02  0.0000000000000E+00  0.9604542335460E-03
 0.3865057159836E-03 -0.3002319280564E-02  0.0000000000000E+00  0.1070716005101E-02
 0.4267389223280E-03 -0.3020997290388E-02  0.0000000000000E+00  0.1155173656778E-02
 0.4594687845482E-03 -0.3033530011013E-02  0.0000000000000E+00  0.1218437187865E-02
 0.4844248544758E-03 -0.3039670598621E-02  0.0000000000000E+00  0.1264962969978E-02
 0.5015585079088E-03 -0.3039306034832E-02  0.0000000000000E+00  0.1298861874964E-02
 0.5110110651288E-03 -0.3032423494693E-02  0.0000000000000E+00  0.1323798437615E-02
 0.5130826046436E-03 -0.3019078759244E-02  0.0000000000000E+00  0.1342965964573E-02
 0.5082071277485E-03 -0.2999371374810E-02  0.0000000000000E+00  0.1359116679767E-02
 0.4969377590931E-03 -0.2973429512651E-02  0.0000000000000E+00  0.1374625732383E-02
 0.4799438621617E-03 -0.2941405889362E-02  0.0000000000000E+00  0.1391570698071E-02
 0.4580203646311E-03 -0.2903484809065E-02  0.0000000000000E+00  0.1411812073229E-02
 0.4321095013352E-03 -0.2859901147489E-02  0.0000000000000E+00  0.1437063350747E-02
 0.4033321832356E-03 -0.2810967959123E-02  0.0000000000000E+00  0.1468943440162E-02
 0.3730286042486E-03 -0.2757113759590E-02  0.0000000000000E+00  0.1509005314265E-02
 0.3428056446969E-03 -0.2698928336505E-02  0.0000000000000E+00  0.1558734097526E-02
 0.3145863726315E-03 -0.2637212212179E-02  0.0000000000000E+00  0.1619513133310E-02
 0.2906592354486E-03 -0.2573030070500E-02  0.0000000000000E+00  0.1692551022729E-02
 0.2737208825339E-03 -0.2507762409781E-02  0.0000000000000E+00  0.1778767675038E-02
 0.2669065042376E-03 -0.2443148816663E-02  0.0000000000000E+00  0.1878637177437E-02
 0.2737998491231E-03 -0.2381324810669E-02  0.0000000000000E+00  0.1991955688485E-02
 0.2984076835478E-03 -0.2324840117829E-02  0.0000000000000E+00  0.2117561236503E-02
 0.3450847584245E-03 -0.2276640118347E-02  0.0000000000000E+00  0.2253002697864E-02
 0.4183955229208E-03 -0.2239995875676E-02  0.0000000000000E+00  0.2394168905479E-02
 0.5228992085782E-03 -0.2218370273836E-02  0.0000000000000E+00  0.2534906890141E-02
 0.6628480404060E-03 -0.2215209888629E-02  0.0000000000000E+00  0.2666678400085E-02
 0.8417951662041E-03 -0.2233657402745E-02  0.0000000000000E+00  0.2778329676971E-02
 0.1062124022495E-02 -0.2276191078082E-02  0.0000000000000E+00  0.2856072700252E-02
 0.1324546611244E-02 -0.2344220002855E-02  0.0000000000000E+00  0.2883784642795E-02
 0.1627654755680E-02 -0.2437697234410E-02  0.0000000000000E+00  0.2843708643300E-02
 0.1967572781909E-02 -0.2554810208399E-02  0.0000000000000E+00  0.2717555447810E-02
 0.2337778348856E-02 -0.2691808682627E-02  0.0000000000000E+00  0.2487961123492E-02
 0.2729214710388E-02 -0.2843060321105E-02  0.0000000000000E+00  0.2140169956217E-02
 0.3130726985466E-02 -0.3001369222503E-02  0.0000000000000E+00  0.1663685222332E-02
 0.3529804708598E-02 -0.3158547607781E-02  0.0000000000000E+00  0.1053615764476E-02
 0.3913496935407E-02 -0.3306160263669E-02  0.0000000000000E+00  0.3116346771487E-03
 0.3643420729435E-04 -0.2983643464993E-02  0.0000000000000E+00 -0.8332421059729E-04
 0.1092372237576E-03 -0.3028625209859E-02  0.0000000000000E+00  0.2068637888086E-03
 0.1809736732378E-03 -0.3072201851821E-02  0.0000000000000E+00  0.4567355454470E-03
 0.2498902874952E-03 -0.3113042372532E-02  0.0000000000000E+00  0.6666173999148E-03
 0.3143568206908E-03 -0.3149920746282E-02  0.0000000000000E+00  0.8384197002371E-03
 0.3729574895035E-03 -0.3181784252558E-02  0.0000000000000E+00  0.9753530048177E-03
 0.4245581523492E-03 -0.3207799699303E-02  0.0000000000000E+00  0.1081538678205E-02
 0.4683402970713E-03 -0.3227370545732E-02  0.0000000000000E+00  0.1161593227217E-02
 0.5038008311209E-03 -0.3240125293752E-02  0.0000000000000E+00  0.1220250085143E-02
 0.5307250665075E-03 -0.3245884308887E-02  0.0000000000000E+00  0.1262063061658E-02
 0.5491439984347E-03 -0.3244615032611E-02  0.0000000000000E+00  0.1291209847899E-02
 0.5592868461980E-03 -0.3236385169569E-02  0.0000000000000E+00  0.1311392187710E-02
 0.5615379366083E-03 -0.3221321399949E-02  0.0000000000000E+00  0.1325816126295E-02
 0.5564039874930E-03 -0.3199578453409E-02  0.0000000000000E+00  0.1337229799125E-02
 0.5444951115608E-03 -0.3171321000385E-02  0.0000000000000E+00  0.1347996234603E-02
 0.5265207103153E-03 -0.3136718969733E-02  0.0000000000000E+00  0.1360181853606E-02
 0.5032997920708E-03 -0.3095955616386E-02  0.0000000000000E+00  0.1375645610206E-02
 0.4757853474943E-03 -0.3049248693380E-02  0.0000000000000E+00  0.1396117242242E-02
 0.4450994552458E-03 -0.2996880867647E-02  0.0000000000000E+00  0.1423256990964E-02
 0.4125785852441E-03 -0.2939240447847E-02  0.0000000000000E+00  0.1458690813913E-02
 0.3798265364529E-03 -0.2876871268923E-02  0.0000000000000E+00  0.1504014171080E-02
 0.3487702442322E-03 -0.2810526777800E-02  0.0000000000000E+00  0.1560762297592E-02
 0.3217162432601E-03 -0.2741229037242E-02  0.0000000000000E+00  0.1630339763813E-02
 0.3014020572739E-03 -0.2670328479371E-02  0.0000000000000E+00  0.1713905911428E-02
 0.2910370487002E-03 -0.2599562390264E-02  0.0000000000000E+00  0.1812210878631E-02
 0.2943226342917E-03 -0.2531101959669E-02  0.0000000000000E+00  0.1925353490977E-02
 0.3154361579495E-03 -0.2467571380196E-02  0.0000000000000E+00  0.2052489734957E-02
 0.3589664937423E-03 -0.2412034749117E-02  0.0000000000000E+00  0.2191481280687E-02
 0.4297854429666E-03 -0.2367936367554E-02  0.0000000000000E+00  0.2338490722819E-02
 0.5328373137202E-03 -0.2338976658827E-02  0.0000000000000E+00  0.2487551662302E-02
 0.6728312675341E-03 -0.2328907077411E-02  0.0000000000000E+00  0.2630164969442E-02
 0.8538276346237E-03 -0.2341232721933E-02  0.0000000000000E+00  0.2755002497020E-02
 0.1078725673383E-02 -0.2378824548690E-02  0.0000000000000E+00  0.2847827787689E-02
 0.1348698460989E-02 -0.2443464002981E-02  0.0000000000000E+00  0.2891757557501E-02
 0.1662663403850E-02 -0.2535389260694E-02  0.0000000000000E+00  0.2867964036182E-02
 0.2016849976325E-02 -0.2652921725856E-02  0.0000000000000E+00  0.2756834238431E-02
 0.2404549369172E-02 -0.2792238716226E-02  0.0000000000000E+00  0.2539554762345E-02
 0.2816191585593E-02 -0.2947396488563E-02  0.0000000000000E+00  0.2199982613392E-02
 0.3239800206401E-02 -0.3110659730466E-02  0.0000000000000E+00  0.1726512442166E-02
 0.3661811671666E-02 -0.3273132177359E-02  0.0000000000000E+00  0.1113624656140E-02
 0.4068120823281E-02 -0.3425605066154E-02  0.0000000000000E+00  0.3629917747487E-03
 0.3971037659049E-04 -0.3171200140996E-02  0.0000000000000E+00 -0.5501954486201E-04
 0.1192030222936E-03 -0.3220233963138E-02  0.0000000000000E+00  0.2344404701504E-03
 0.1976650852437E-03 -0.3267717675598E-02  0.0000000000000E+00  0.4825965484748E-03
 0.2730505116028E-03 -0.3312105946555E-02  0.0000000000000E+00  0.6898328428987E-03
 0.3434754172113E-03 -0.3351995210430E-02  0.0000000000000E+00  0.8581758053768E-03
 0.4073344279482E-03 -0.3386210724301E-02  0.0000000000000E+00  0.9909955742979E-03
 0.4633792029660E-03 -0.3413859881636E-02  0.0000000000000E+00  0.1092592637801E-02
 0.5107502185155E-03 -0.3434345079648E-02  0.0000000000000E+00  0.1167756915859E-02
 0.5489640405054E-03 -0.3447339587343E-02  0.0000000000000E+00  0.1221369319092E-02
 0.5778683270307E-03 -0.3452737887810E-02  0.0000000000000E+00  0.1258093259902E-02
 0.5975802498285E-03 -0.3450594386249E-02  0.0000000000000E+00  0.1282174763104E-02
 0.6084225368560E-03 -0.3441062710951E-02  0.0000000000000E+00  0.1297346122757E-02
 0.6108678732658E-03 -0.3424344354865E-02  0.0000000000000E+00  0.1306814088946E-02
 0.6054980601470E-03 -0.3400651551665E-02  0.0000000000000E+00  0.1313307803730E-02
 0.5929807846776E-03 -0.3370186237018E-02  0.0000000000000E+00  0.1319162324893E-02
 0.5740643639980E-03 -0.3333134856826E-02  0.0000000000000E+00  0.1326417443426E-02
 0.5495891652894E-03 -0.3289677544003E-02  0.0000000000000E+00  0.1336916298594E-02
 0.5205147217313E-03 -0.3240011514964E-02  0.0000000000000E+00  0.1352392313898E-02
 0.4879586741236E-03 -0.3184384286767E-02  0.0000000000000E+00  0.1374536563969E-02
 0.4532468690236E-03 -0.3123137803466E-02  0.0000000000000E+00  0.1405039882285E-02
 0.4179719522229E-03 -0.3056762330454E-02  0.0000000000000E+00  0.1445602767707E-02
 0.3840556625325E-03 -0.2985955126899E-02  0.0000000000000E+00  0.1497910447005E-02
 0.3538128487595E-03 -0.2911685052728E-02  0.0000000000000E+00  0.1563565794376E-02
 0.3300118919963E-03 -0.2835260621937E-02  0.0000000000000E+00  0.1643975206419E-02
 0.3159268230831E-03 -0.2758404307547E-02  0.0000000000000E+00  0.1740178661662E-02
 0.3153686963621E-03 -0.2683310572231E-02  0.0000000000000E+00  0.1852598784150E-02
 0.3326801239198E-03 -0.2612666611554E-02  0.0000000000000E+00  0.1980739875333E-02
 0.3726833786712E-03 -0.2549646069574E-02  0.0000000000000E+00  0.2122817454520E-02
 0.4405639802534E-03 -0.2497861703889E-02  0.0000000000000E+00  0.2275319541355E-02
 0.5416676319271E-03 -0.2461253766567E-02  0.0000000000000E+00  0.2432525767602E-02
 0.6811892982675E-03 -0.2443890726909E-02  0.0000000000000E+00  0.2586036806791E-02
 0.8637392580829E-03 -0.2449664101051E-02  0.0000000000000E+00  0.2724401175637E-02
 0.1092788121173E-02 -0.2481873534146E-02  0.0000000000000E+00  0.2832960905340E-02
 0.1370033682965E-02 -0.2542717866166E-02  0.0000000000000E+00  0.2894059772074E-02
 0.1694781824358E-02 -0.2632767862443E-02  0.0000000000000E+00  0.2887734956865E-02
 0.2063416304464E-02 -0.2750518928617E-02  0.0000000000000E+00  0.2792929191845E-02
 0.2469062740329E-02 -0.2892097083321E-02  0.0000000000000E+00  0.2589212140068E-02
 0.2901619124090E-02 -0.3051239876040E-02  0.0000000000000E+00  0.2258865332725E-02
 0.3348225000881E-02 -0.3219633084581E-02  0.0000000000000E+00  0.1789002698937E-02
 0.3794162919318E-02 -0.3387604173239E-02  0.0000000000000E+00  0.1173356450361E-02
 0.4224048329740E-02 -0.3545085321035E-02  0.0000000000000E+00  0.4135557100002E-03
 0.4307388571328E-04 -0.3358988238922E-02  0.0000000000000E+00 -0.2427699476768E-04
 0.1294308155310E-03 -0.3412180494337E-02  0.0000000000000E+00  0.2643652975335E-03
 0.2147869869762E-03 -0.3463670294574E-02  0.0000000000000E+00  0.5105668586475E-03
 0.2967919870898E-03 -0.3511690306645E-02  0.0000000000000E+00  0.7147884989241E-03
 0.3732987548127E-03 -0.3554653957436E-02  0.0000000000000E+00  0.8792083867395E-03
 0.4425072199726E-03 -0.3591262965584E-02  0.0000000000000E+00  0.1007400660818E-02
 0.5030549625648E-03 -0.3620568116228E-02  0.0000000000000E+00  0.1103889132041E-02
 0.5540460956772E-03 -0.3641977036708E-02  0.0000000000000E+00  0.1173673717461E-02
 0.5950244185916E-03 -0.3655216034990E-02  0.0000000000000E+00  0.1221807541036E-02
 0.6259086133334E-03 -0.3660262379984E-02  0.0000000000000E+00  0.1253075561246E-02
 0.6469102666621E-03 -0.3657265256821E-02  0.0000000000000E+00  0.1271792793190E-02
 0.6584523817824E-03 -0.3646470427835E-02  0.0000000000000E+00  0.1281714237716E-02
 0.6611007744865E-03 -0.3628158504267E-02  0.0000000000000E+00  0.1286034049522E-02
 0.6555149689244E-03 -0.3602601638132E-02  0.0000000000000E+00  0.1287446267012E-02
 0.6424208209652E-03 -0.3570039720767E-02  0.0000000000000E+00  0.1288241032055E-02
 0.6226042899290E-03 -0.3530674876801E-02  0.0000000000000E+00  0.1290415026751E-02
 0.5969241432230E-03 -0.3484681897306E-02  0.0000000000000E+00  0.1295780337072E-02
 0.5663419582828E-03 -0.3432233923635E-02  0.0000000000000E+00  0.1306060521029E-02
 0.5319650074450E-03 -0.3373538455045E-02  0.0000000000000E+00  0.1322965914978E-02
 0.4951012335868E-03 -0.3308884799482E-02  0.0000000000000E+00  0.1348242926004E-02
 0.4573235858376E-03 -0.3238701867129E-02  0.0000000000000E+00  0.1383690465698E-02
 0.4205389287579E-03 -0.3163621329030E-02  0.0000000000000E+00  0.1431140401137E-02
 0.3870598284262E-03 -0.3084547769591E-02  0.0000000000000E+00  0.1492394727222E-02
 0.3596743966321E-03 -0.3002735142355E-02  0.0000000000000E+00  0.1569113054383E-02
 0.3417103761855E-03 -0.2919877427959E-02  0.0000000000000E+00  0.1662637797327E-02
 0.3370785936747E-03 -0.2838178353719E-02  0.0000000000000E+00  0.1773735871750E-02
 0.3502794032292E-03 -0.2760374539999E-02  0.0000000000000E+00  0.1902290539905E-02
 0.3863652752163E-03 -0.2689737417919E-02  0.0000000000000E+00  0.2046913956581E-02
 0.4508394017298E-03 -0.2630040560210E-02  0.0000000000000E+00  0.2204474989533E-02
 0.5494634331259E-03 -0.2585463652411E-02  0.0000000000000E+00  0.2369565020944E-02
 0.6879467026570E-03 -0.2560402505226E-02  0.0000000000000E+00  0.2533954024533E-02
 0.8714943000794E-03 -0.2559158984172E-02  0.0000000000000E+00  0.2686128901303E-02
 0.1104208971180E-02 -0.2585499888800E-02  0.0000000000000E+00  0.2811047860540E-02
 0.1388385473376E-02 -0.2642091857678E-02  0.0000000000000E+00  0.2890277334320E-02
 0.1723792174640E-02 -0.2729893494747E-02  0.0000000000000E+00  0.2902657356817E-02
 0.2107027748621E-02 -0.2847622866661E-02  0.0000000000000E+00  0.2825558872886E-02
 0.2531081781480E-02 -0.2991382774789E-02  0.0000000000000E+00  0.2636750308837E-02
 0.2985304109493E-02 -0.3154587365376E-02  0.0000000000000E+00  0.2316725391771E-02
 0.3455882718338E-02 -0.3328300870751E-02  0.0000000000000E+00  0.1851119504778E-02
 0.3926833685284E-02 -0.3501998479917E-02  0.0000000000000E+00  0.1232776048029E-02
 0.4381351904442E-02 -0.3664656541612E-02  0.0000000000000E+00  0.4632263964639E-03
 0.4653724148899E-04 -0.3547057207165E-02  0.0000000000000E+00  0.8973760709735E-05
 0.1399581801357E-03 -0.3604528698164E-02  0.0000000000000E+00  0.2967049005350E-03
 0.2324001634950E-03 -0.3660135397436E-02  0.0000000000000E+00  0.5407034803349E-03
 0.3211934148141E-03 -0.3711877931655E-02  0.0000000000000E+00  0.7415269625636E-03
 0.4039159281403E-03 -0.3757979971930E-02  0.0000000000000E+00  0.9015437287247E-03
 0.4785672622422E-03 -0.3797018273535E-02  0.0000000000000E+00  0.1024579895361E-02
 0.5436720171102E-03 -0.3827991110602E-02  0.0000000000000E+00  0.1115429913461E-02
 0.5983046014855E-03 -0.3850319634886E-02  0.0000000000000E+00  0.1179342233670E-02
 0.6420460176749E-03 -0.3863793616444E-02  0.0000000000000E+00  0.1221567522124E-02
 0.6748968869371E-03 -0.3868483641448E-02  0.0000000000000E+00  0.1247023686917E-02
 0.6971732074890E-03 -0.3864642839513E-02  0.0000000000000E+00  0.1260094142520E-02
 0.7094062000544E-03 -0.3852616119689E-02  0.0000000000000E+00  0.1264547219547E-02
 0.7122602289929E-03 -0.3832767869681E-02  0.0000000000000E+00  0.1263549660416E-02
 0.7064754249470E-03 -0.3805432625888E-02  0.0000000000000E+00  0.1259742944465E-02
 0.6928363890214E-03 -0.3770888821085E-02  0.0000000000000E+00  0.1255354208771E-02
 0.6721652861206E-03 -0.3729353269042E-02  0.0000000000000E+00  0.1252319556246E-02
 0.6453360930805E-03 -0.3680993067126E-02  0.0000000000000E+00  0.1252403856776E-02
 0.6133076690782E-03 -0.3625953655273E-02  0.0000000000000E+00  0.1257306303966E-02
 0.5771706959369E-03 -0.3564397596506E-02  0.0000000000000E+00  0.1268743877145E-02
 0.5382075940205E-03 -0.3496555247060E-02  0.0000000000000E+00  0.1288508053623E-02
 0.4979626471084E-03 -0.3422786287655E-02  0.0000000000000E+00  0.1318488146194E-02
 0.4583175982583E-03 -0.3343647197913E-02  0.0000000000000E+00  0.1360657739261E-02
 0.4215713428535E-03 -0.3259966804413E-02  0.0000000000000E+00  0.1417017044124E-02
 0.3905194930898E-03 -0.3172931130983E-02  0.0000000000000E+00  0.1489483277082E-02
 0.3685310536575E-03 -0.3084190844969E-02  0.0000000000000E+00  0.1579712285164E-02
 0.3596048094234E-03 -0.2995943279573E-02  0.0000000000000E+00  0.1688834637079E-02
 0.3683888953432E-03 -0.2910958649417E-02  0.0000000000000E+00  0.1817142953053E-02
 0.4001599492312E-03 -0.2832591550513E-02  0.0000000000000E+00  0.1963690053871E-02
 0.4607398837012E-03 -0.2764765435720E-02  0.0000000000000E+00  0.2125784564682E-02
 0.5563184795322E-03 -0.2711895758712E-02  0.0000000000000E+00  0.2298401754313E-02
 0.6931470967072E-03 -0.2678713521093E-02  0.0000000000000E+00  0.2473560026258E-02
 0.8770721682749E-03 -0.2669954199471E-02  0.0000000000000E+00  0.2639758670152E-02
 0.1112894618445E-02 -0.2689892371908E-02  0.0000000000000E+00  0.2781622858889E-02
 0.1403587681925E-02 -0.2741718453860E-02  0.0000000000000E+00  0.2879947965887E-02
 0.1749468790827E-02 -0.2826842780231E-02  0.0000000000000E+00  0.2912318889086E-02
 0.2147425683874E-02 -0.2944264790031E-02  0.0000000000000E+00  0.2854400805647E-02
 0.2590352149017E-02 -0.3090100648927E-02  0.0000000000000E+00  0.2681957895838E-02
 0.3067037598938E-02 -0.3257440050339E-02  0.0000000000000E+00  0.2373455617869E-02
 0.3562645832940E-02 -0.3436679958114E-02  0.0000000000000E+00  0.1912822578581E-02
 0.4059800798420E-02 -0.3616358204995E-02  0.0000000000000E+00  0.1291848335937E-02
 0.4540117724865E-02 -0.3784385967121E-02  0.0000000000000E+00  0.5118987023910E-03
 0.5011345163131E-04 -0.3735457913737E-02  0.0000000000000E+00  0.4481236077057E-04
 0.1508242673665E-03 -0.3797344407236E-02  0.0000000000000E+00  0.3315339031631E-03
 0.2505679631696E-03 -0.3857190891315E-02  0.0000000000000E+00  0.5730682399860E-03
 0.3463365704613E-03 -0.3912753308447E-02  0.0000000000000E+00  0.7700912387128E-03
 0.4354189272580E-03 -0.3962057448729E-02  0.0000000000000E+00  0.9252038654979E-03
 0.5156079968895E-03 -0.4003553861049E-02  0.0000000000000E+00  0.1042536743887E-02
 0.5853176807402E-03 -0.4036193917941E-02  0.0000000000000E+00  0.1127206081216E-02
 0.6436016305213E-03 -0.4059422845689E-02  0.0000000000000E+00  0.1184749587236E-02
 0.6900906676180E-03 -0.4073106653600E-02  0.0000000000000E+00  0.1220641239980E-02
 0.7248806727921E-03 -0.4077421751092E-02  0.0000000000000E+00  0.1239942380133E-02
 0.7484038834088E-03 -0.4072735747406E-02  0.0000000000000E+00  0.1247102543593E-02
 0.7613088562186E-03 -0.4059500474481E-02  0.0000000000000E+00  0.1245892103703E-02
 0.7643645282597E-03 -0.4038169042132E-02  0.0000000000000E+00  0.1239433801351E-02
 0.7583947139976E-03 -0.4009140825978E-02  0.0000000000000E+00  0.1230297626361E-02
 0.7442432788059E-03 -0.3972733238626E-02  0.0000000000000E+00  0.1220628448982E-02
 0.7227669736481E-03 -0.3929176627532E-02  0.0000000000000E+00  0.1212283365428E-02
 0.6948515645606E-03 -0.3878627926780E-02  0.0000000000000E+00  0.1206963004861E-02
 0.6614481888085E-03 -0.3821201200937E-02  0.0000000000000E+00  0.1206326812349E-02
 0.6236244635845E-03 -0.3757009169865E-02  0.0000000000000E+00  0.1212084786248E-02
 0.5826293804725E-03 -0.3686216957866E-02  0.0000000000000E+00  0.1226061775183E-02
 0.5399692222701E-03 -0.3609107146477E-02  0.0000000000000E+00  0.1250228050558E-02
 0.4974898537114E-03 -0.3526151320031E-02  0.0000000000000E+00  0.1286692305156E-02
 0.4574643733866E-03 -0.3438090759556E-02  0.0000000000000E+00  0.1337650136191E-02
 0.4226825908132E-03 -0.3346029555336E-02  0.0000000000000E+00  0.1405278672576E-02
 0.3965408147590E-03 -0.3251559157718E-02  0.0000000000000E+00  0.1491556147486E-02
 0.3831119353345E-03 -0.3156853191135E-02  0.0000000000000E+00  0.1597994452974E-02
 0.3871792648379E-03 -0.3064697270596E-02  0.0000000000000E+00  0.1725325075703E-02
 0.4142343842282E-03 -0.2978511407117E-02  0.0000000000000E+00  0.1873086150859E-02
 0.4704155201579E-03 -0.2902354243863E-02  0.0000000000000E+00  0.2039088018683E-02
 0.5623496895398E-03 -0.2840869403164E-02  0.0000000000000E+00  0.2218768392307E-02
 0.6968562633028E-03 -0.2799127645206E-02  0.0000000000000E+00  0.2404483603969E-02
 0.8804706061904E-03 -0.2782319866505E-02  0.0000000000000E+00  0.2584833308953E-02
 0.1118762965819E-02 -0.2795270711252E-02  0.0000000000000E+00  0.2744176149794E-02
 0.1415476470769E-02 -0.2841756026045E-02  0.0000000000000E+00  0.2862556546214E-02
 0.1771578366595E-02 -0.2923711333536E-02  0.0000000000000E+00  0.2916253078019E-02
 0.2184335553980E-02 -0.3040487897946E-02  0.0000000000000E+00  0.2879085657436E-02
 0.2646599507139E-02 -0.3188262287678E-02  0.0000000000000E+00  0.2724590633091E-02
 0.3146592466361E-02 -0.3359803700311E-02  0.0000000000000E+00  0.2428931981199E-02
 0.3668376234990E-02 -0.3544793089284E-02  0.0000000000000E+00  0.1974067310436E-02
 0.4193042288759E-02 -0.3730735682829E-02  0.0000000000000E+00  0.1350538746363E-02
 0.4700446966914E-02 -0.3904354096877E-02  0.0000000000000E+00  0.5594631837459E-03
 0.5381619317343E-04 -0.3924243125404E-02  0.0000000000000E+00  0.8332814612818E-04
 0.1620703062462E-03 -0.3990696043432E-02  0.0000000000000E+00  0.3689351701025E-03
 0.2693570674766E-03 -0.4054917641764E-02  0.0000000000000E+00  0.6077276764111E-03
 0.3723071775865E-03 -0.4114403617026E-02  0.0000000000000E+00  0.8005241549486E-03
 0.4679034200142E-03 -0.4166972276160E-02  0.0000000000000E+00  0.9502055497062E-03
 0.5537254498672E-03 -0.4210947042254E-02  0.0000000000000E+00  0.1061265197199E-02
 0.6280802182891E-03 -0.4245239805449E-02  0.0000000000000E+00  0.1139196709498E-02
 0.6900122164704E-03 -0.4269332994435E-02  0.0000000000000E+00  0.1189870178099E-02
 0.7392176545834E-03 -0.4283184229884E-02  0.0000000000000E+00  0.1219008875668E-02
 0.7759035860232E-03 -0.4287090341003E-02  0.0000000000000E+00  0.1231826674387E-02
 0.8006322116471E-03 -0.4281545325244E-02  0.0000000000000E+00  0.1232834765530E-02
 0.8141796962726E-03 -0.4267116408261E-02  0.0000000000000E+00  0.1225791961439E-02
 0.8174261137642E-03 -0.4244350560260E-02  0.0000000000000E+00  0.1213758381702E-02
 0.8112821613333E-03 -0.4213714353885E-02  0.0000000000000E+00  0.1199212007186E-02
 0.7966513750658E-03 -0.4175564415647E-02  0.0000000000000E+00  0.1184195001282E-02
 0.7744232619862E-03 -0.4130143284493E-02  0.0000000000000E+00  0.1170466129439E-02
 0.7454917288331E-03 -0.4077595158163E-02  0.0000000000000E+00  0.1159643980658E-02
 0.7107949722572E-03 -0.4017999048848E-02  0.0000000000000E+00  0.1153332065803E-02
 0.6713708642590E-03 -0.3951413007099E-02  0.0000000000000E+00  0.1153218832860E-02
 0.6284268340470E-03 -0.3877930769876E-02  0.0000000000000E+00  0.1161149628151E-02
 0.5834215313109E-03 -0.3797750060653E-02  0.0000000000000E+00  0.1179164775675E-02
 0.5381537525839E-03 -0.3711247884225E-02  0.0000000000000E+00  0.1209499677861E-02
 0.4948580105837E-03 -0.3619066011397E-02  0.0000000000000E+00  0.1254540360444E-02
 0.4563039953293E-03 -0.3522212084877E-02  0.0000000000000E+00  0.1316723759165E-02
 0.4258998724218E-03 -0.3422201449176E-02  0.0000000000000E+00  0.1398356930917E-02
 0.4077766859313E-03 -0.3321165086094E-02  0.0000000000000E+00  0.1501348446188E-02
 0.4068374932316E-03 -0.3221883380699E-02  0.0000000000000E+00  0.1626896528025E-02
 0.4287760294318E-03 -0.3127820636053E-02  0.0000000000000E+00  0.1775069105796E-02
 0.4800403767040E-03 -0.3043151762669E-02  0.0000000000000E+00  0.1944242602200E-02
 0.5676999959429E-03 -0.2972736278060E-02  0.0000000000000E+00  0.2130401952903E-02
 0.6991656332400E-03 -0.2921985033416E-02  0.0000000000000E+00  0.2326341884920E-02
 0.8817093875151E-03 -0.2896563704145E-02  0.0000000000000E+00  0.2520866086562E-02
 0.1121746708137E-02 -0.2901890222759E-02  0.0000000000000E+00  0.2698151818895E-02
 0.1423892470864E-02 -0.2942393134726E-02  0.0000000000000E+00  0.2837530206709E-02
 0.1789880410841E-02 -0.3020617113803E-02  0.0000000000000E+00  0.2913932638313E-02
 0.2217465511442E-02 -0.3136349420041E-02  0.0000000000000E+00  0.2899190387155E-02
 0.2699526880160E-02 -0.3285886969724E-02  0.0000000000000E+00  0.2764366037571E-02
 0.3223720508905E-02 -0.3461689218228E-02  0.0000000000000E+00  0.2483010750851E-02
 0.3772923138666E-02 -0.3652669454059E-02  0.0000000000000E+00  0.2034804112407E-02
 0.4326536719569E-02 -0.3845193468050E-02  0.0000000000000E+00  0.1408813816456E-02
 0.4862456930763E-02 -0.4024656214295E-02  0.0000000000000E+00  0.6058069073608E-03
 0.5766000330372E-04 -0.4113468058017E-02  0.0000000000000E+00  0.1246206544239E-03
 0.1737401710609E-03 -0.4184655366390E-02  0.0000000000000E+00  0.4090001267011E-03
 0.2888383568856E-03 -0.4253400319676E-02  0.0000000000000E+00  0.6447529043553E-03
 0.3991958795975E-03 -0.4316919508334E-02  0.0000000000000E+00  0.8328676285263E-03
 0.5014696068100E-03 -0.4372812577168E-02  0.0000000000000E+00  0.9765589851069E-03
 0.5930187988086E-03 -0.4419275434427E-02  0.0000000000000E+00  0.1080748193191E-02
 0.6720490559500E-03 -0.4455190107080E-02  0.0000000000000E+00  0.1151367237359E-02
 0.7376104107154E-03 -0.4480092331425E-02  0.0000000000000E+00  0.1194664268971E-02
 0.7894833522602E-03 -0.4494049586358E-02  0.0000000000000E+00  0.1216637718328E-02
 0.8280048175985E-03 -0.4497495923106E-02  0.0000000000000E+00  0.1222661134357E-02
 0.8538826429108E-03 -0.4491064985089E-02  0.0000000000000E+00  0.1217300135059E-02
 0.8680319741563E-03 -0.4475448451517E-02  0.0000000000000E+00  0.1204285612911E-02
 0.8714510287079E-03 -0.4451292355147E-02  0.0000000000000E+00  0.1186594160203E-02
 0.8651406097208E-03 -0.4419132615722E-02  0.0000000000000E+00  0.1166589549680E-02
 0.8500641467882E-03 -0.4379365031970E-02  0.0000000000000E+00  0.1146189646700E-02
 0.8271418274857E-03 -0.4332242778809E-02  0.0000000000000E+00  0.1127034757992E-02
 0.7972718227172E-03 -0.4277894655983E-02  0.0000000000000E+00  0.1110642973545E-02
 0.7613739844722E-03 -0.4216360992623E-02  0.0000000000000E+00  0.1098544990147E-02
 0.7204496048567E-03 -0.4147640501465E-02  0.0000000000000E+00  0.1092392270037E-02
 0.6756562590865E-03 -0.4071749600882E-02  0.0000000000000E+00  0.1094036647152E-02
 0.6283951178571E-03 -0.3988793627512E-02  0.0000000000000E+00  0.1105576112781E-02
 0.5804063799827E-03 -0.3899045479967E-02  0.0000000000000E+00  0.1129362502061E-02
 0.5338726189232E-03 -0.3803035430781E-02  0.0000000000000E+00  0.1167964995405E-02
 0.4915281651149E-03 -0.3701659809687E-02  0.0000000000000E+00  0.1224077489392E-02
 0.4567761607538E-03 -0.3596340123156E-02  0.0000000000000E+00  0.1300339288597E-02
 0.4337877353809E-03 -0.3489144244886E-02  0.0000000000000E+00  0.1399067997018E-02
 0.4275672763969E-03 -0.3382824240438E-02  0.0000000000000E+00  0.1521953942068E-02
 0.4439939573209E-03 -0.3280863999055E-02  0.0000000000000E+00  0.1669638193647E-02
 0.4898145689751E-03 -0.3187531062299E-02  0.0000000000000E+00  0.1841129155923E-02
 0.5725413950350E-03 -0.3107883088167E-02  0.0000000000000E+00  0.2033049519063E-02
 0.7001961564565E-03 -0.3047666005915E-02  0.0000000000000E+00  0.2238744222410E-02
 0.8808345887860E-03 -0.3013035934804E-02  0.0000000000000E+00  0.2447342027446E-02
 0.1121797304032E-02 -0.3010047229060E-02  0.0000000000000E+00  0.2642945811443E-02
 0.1428683583877E-02 -0.3043853712074E-02  0.0000000000000E+00  0.2804233036223E-02
 0.1804128121547E-02 -0.3117704584902E-02  0.0000000000000E+00  0.2904761835392E-02
 0.2246505110808E-02 -0.3231923268527E-02  0.0000000000000E+00  0.2914230179521E-02
 0.2748811727092E-02 -0.3383002940201E-02  0.0000000000000E+00  0.2800957099363E-02
 0.3298149168773E-02 -0.3563113249587E-02  0.0000000000000E+00  0.2535525201421E-02
 0.3876120746429E-02 -0.3760345440204E-02  0.0000000000000E+00  0.2094977730182E-02
 0.4460262450786E-02 -0.3959805544419E-02  0.0000000000000E+00  0.1466641765494E-02
 0.5026282278256E-02 -0.4145404115572E-02  0.0000000000000E+00  0.6508144171870E-03
 0.6166049434971E-04 -0.4303191010823E-02  0.0000000000000E+00  0.1688002673646E-03
 0.1858810273531E-03 -0.4379298325808E-02  0.0000000000000E+00  0.4518291690714E-03
 0.3090878911487E-03 -0.4452728352331E-02  0.0000000000000E+00  0.6842194505234E-03
 0.4270993245878E-03 -0.4520395954321E-02  0.0000000000000E+00  0.8671617663094E-03
 0.5362231486000E-03 -0.4579669265092E-02  0.0000000000000E+00  0.1004266291820E-02
 0.6335909555760E-03 -0.4628617110927E-02  0.0000000000000E+00  0.1100955745533E-02
 0.7173149526315E-03 -0.4666103977837E-02  0.0000000000000E+00  0.1163667610629E-02
 0.7864690878566E-03 -0.4691738480452E-02  0.0000000000000E+00  0.1199076411159E-02
 0.8409407701079E-03 -0.4705719395516E-02  0.0000000000000E+00  0.1213481004964E-02
 0.8812185455067E-03 -0.4708637110312E-02  0.0000000000000E+00  0.1212419107290E-02
 0.9081735321609E-03 -0.4701279459563E-02  0.0000000000000E+00  0.1200500112007E-02
 0.9228722408221E-03 -0.4684472074332E-02  0.0000000000000E+00  0.1181407408102E-02
 0.9264383473929E-03 -0.4658965148499E-02  0.0000000000000E+00  0.1158010622323E-02
 0.9199658836527E-03 -0.4625365754004E-02  0.0000000000000E+00  0.1132535381872E-02
 0.9044781243759E-03 -0.4584108458530E-02  0.0000000000000E+00  0.1106752578182E-02
 0.8809235747640E-03 -0.4535455272821E-02  0.0000000000000E+00  0.1082163257882E-02
 0.8502005655857E-03 -0.4479516865038E-02  0.0000000000000E+00  0.1060166041114E-02
 0.8132050489489E-03 -0.4416291351927E-02  0.0000000000000E+00  0.1042201369791E-02
 0.7708948077239E-03 -0.4345713682421E-02  0.0000000000000E+00  0.1029867519882E-02
 0.7243691921238E-03 -0.4267717358404E-02  0.0000000000000E+00  0.1025007723865E-02
 0.6749619290582E-03 -0.4182308162841E-02  0.0000000000000E+00  0.1029763779254E-02
 0.6243428607835E-03 -0.4089645674475E-02  0.0000000000000E+00  0.1046591730769E-02
 0.5746288269420E-03 -0.3990136835108E-02  0.0000000000000E+00  0.1078234152481E-02
 0.5285027598396E-03 -0.3884551640197E-02  0.0000000000000E+00  0.1127635997338E-02
 0.4893445656423E-03 -0.3774199373604E-02  0.0000000000000E+00  0.1197768717670E-02
 0.4613453048137E-03 -0.3661062951727E-02  0.0000000000000E+00  0.1291367568359E-02
 0.4495891894421E-03 -0.3547840613967E-02  0.0000000000000E+00  0.1410636869737E-02
 0.4601198519150E-03 -0.3438007391970E-02  0.0000000000000E+00  0.1556831886169E-02
 0.4999662964394E-03 -0.3335894647453E-02  0.0000000000000E+00  0.1729659276717E-02
 0.5770781423651E-03 -0.3246734083453E-02  0.0000000000000E+00  0.1926474969712E-02
 0.7001025615261E-03 -0.3176595079599E-02  0.0000000000000E+00  0.2141297363873E-02
 0.8779234933241E-03 -0.3132134644844E-02  0.0000000000000E+00  0.2363720261803E-02
 0.1118889739967E-02 -0.3120085210530E-02  0.0000000000000E+00  0.2577904450128E-02
 0.1429708555869E-02 -0.3146403127559E-02  0.0000000000000E+00  0.2761960505823E-02
 0.1814069762760E-02 -0.3215149694797E-02  0.0000000000000E+00  0.2888067783008E-02
 0.2271124030277E-02 -0.3327303221947E-02  0.0000000000000E+00  0.2923648880137E-02
 0.2794102568868E-02 -0.3479648840279E-02  0.0000000000000E+00  0.2833984660971E-02
 0.3369577615626E-02 -0.3664098740433E-02  0.0000000000000E+00  0.2586281692294E-02
 0.3977785429014E-02 -0.3867865380671E-02  0.0000000000000E+00  0.2154526455784E-02
 0.4594196589771E-02 -0.4074658593479E-02  0.0000000000000E+00  0.1523992945595E-02
 0.5192075975564E-02 -0.4266727819919E-02  0.0000000000000E+00  0.6943686687521E-03
 0.6583460569486E-04 -0.4493474104359E-02  0.0000000000000E+00  0.2159889927610E-03
 0.1985440797130E-03 -0.4574706046952E-02  0.0000000000000E+00  0.4975321542655E-03
 0.3301880360459E-03 -0.4652997010542E-02  0.0000000000000E+00  0.7262070231825E-03
 0.4561213911558E-03 -0.4724933195828E-02  0.0000000000000E+00  0.9034437335592E-03
 0.5722761833306E-03 -0.4787636627753E-02  0.0000000000000E+00  0.1033319628651E-02
 0.6755491636746E-03 -0.4839050708152E-02  0.0000000000000E+00  0.1121842710918E-02
 0.7639701219826E-03 -0.4878038048863E-02  0.0000000000000E+00  0.1176030128614E-02
 0.8366596655430E-03 -0.4904303768066E-02  0.0000000000000E+00  0.1203033686117E-02
 0.8936390098244E-03 -0.4918202926226E-02  0.0000000000000E+00  0.1209476687557E-02
 0.9355732698381E-03 -0.4920503757832E-02  0.0000000000000E+00  0.1201061984362E-02
 0.9635164588220E-03 -0.4912164009945E-02  0.0000000000000E+00  0.1182427917941E-02
 0.9786997081999E-03 -0.4894152997046E-02  0.0000000000000E+00  0.1157187068119E-02
 0.9823795989301E-03 -0.4867329857978E-02  0.0000000000000E+00  0.1128075899468E-02
 0.9757462590002E-03 -0.4832374111821E-02  0.0000000000000E+00  0.1097156202616E-02
 0.9598823850575E-03 -0.4789758231029E-02  0.0000000000000E+00  0.1066028249264E-02
 0.9357621019101E-03 -0.4739750982892E-02  0.0000000000000E+00  0.1036032525283E-02
 0.9042795697426E-03 -0.4682442118332E-02  0.0000000000000E+00  0.1008428881206E-02
 0.8663011740722E-03 -0.4617784175450E-02  0.0000000000000E+00  0.9845496634652E-03
 0.8227342317928E-03 -0.4545644249133E-02  0.0000000000000E+00  0.9659231194633E-03
 0.7746115056045E-03 -0.4465867778991E-02  0.0000000000000E+00  0.9543677902217E-03
 0.7231893013793E-03 -0.4378354332894E-02  0.0000000000000E+00  0.9520539682897E-03
 0.6700552432905E-03 -0.4283141440652E-02  0.0000000000000E+00  0.9615276962371E-03
 0.6172463492437E-03 -0.4180501240268E-02  0.0000000000000E+00  0.9856925501705E-03
 0.5673774778582E-03 -0.4071062448972E-02  0.0000000000000E+00  0.1027735279525E-02
 0.5237859048396E-03 -0.3956003335815E-02  0.0000000000000E+00  0.1090955351137E-02
 0.4906604728255E-03 -0.3837198844593E-02  0.0000000000000E+00  0.1178509772396E-02
 0.4731405780780E-03 -0.3717265587882E-02  0.0000000000000E+00  0.1293134179748E-02
 0.4774087773748E-03 -0.3599637480830E-02  0.0000000000000E+00  0.1436735429818E-02
 0.5107537825100E-03 -0.3488675305057E-02  0.0000000000000E+00  0.1609783609752E-02
 0.5815500660606E-03 -0.3389753484616E-02  0.0000000000000E+00  0.1810467108023E-02
 0.6990780189268E-03 -0.3309245184380E-02  0.0000000000000E+00  0.2033612117626E-02
 0.8730902099962E-03 -0.3254311693393E-02  0.0000000000000E+00  0.2269437679756E-02
 0.1113028247500E-02 -0.3232401862875E-02  0.0000000000000E+00  0.2502323683976E-02
 0.1426841540696E-02 -0.3250355388491E-02  0.0000000000000E+00  0.2709933714623E-02
 0.1819450758861E-02 -0.3313165959636E-02  0.0000000000000E+00  0.2863090557300E-02
 0.2290970944505E-02 -0.3422606876425E-02  0.0000000000000E+00  0.2926807598034E-02
 0.2835015150079E-02 -0.3575875409064E-02  0.0000000000000E+00  0.2863008123489E-02
 0.3437672111863E-02 -0.3764675466685E-02  0.0000000000000E+00  0.2635054988191E-02
 0.4077712461314E-02 -0.3975282377074E-02  0.0000000000000E+00  0.2213381335920E-02
 0.4728313766915E-02 -0.4189853487261E-02  0.0000000000000E+00  0.1580840116900E-02
 0.5360009988179E-02 -0.4388777381382E-02  0.0000000000000E+00  0.7363517415180E-03
 0.7020089530209E-04 -0.4684384146903E-02  0.0000000000000E+00  0.2663214385054E-03
 0.2117854437493E-03 -0.4770965988149E-02  0.0000000000000E+00  0.5462289969472E-03
 0.3522287676690E-03 -0.4854308674419E-02  0.0000000000000E+00  0.7707992134666E-03
 0.4863745813865E-03 -0.4930637823394E-02  0.0000000000000E+00  0.9417463589737E-03
 0.6097484411264E-03 -0.4996812961135E-02  0.0000000000000E+00  0.1063698928968E-02
 0.7190056038623E-03 -0.5050655496922E-02  0.0000000000000E+00  0.1143346164582E-02
 0.8121082886196E-03 -0.5091045992038E-02  0.0000000000000E+00  0.1188366993202E-02
 0.8882517221680E-03 -0.5117814450732E-02  0.0000000000000E+00  0.1206443788693E-02
 0.9476226211310E-03 -0.5131501131805E-02  0.0000000000000E+00  0.1204546172131E-02
 0.9910910736833E-03 -0.5133076073455E-02  0.0000000000000E+00  0.1188538522741E-02
 0.1019915508889E-02 -0.5123683653114E-02  0.0000000000000E+00  0.1163068264575E-02
 0.1035505608885E-02 -0.5104446562609E-02  0.0000000000000E+00  0.1131649623538E-02
 0.1039258211880E-02 -0.5076337094969E-02  0.0000000000000E+00  0.1096856754681E-02
 0.1032461968282E-02 -0.5040107807583E-02  0.0000000000000E+00  0.1060560208426E-02
 0.1016258078724E-02 -0.4996267641223E-02  0.0000000000000E+00  0.1024165193835E-02
 0.9916432026968E-03 -0.4945089725765E-02  0.0000000000000E+00  0.9888300598494E-03
 0.9595027778233E-03 -0.4886640082040E-02  0.0000000000000E+00  0.9556564803793E-03
 0.9206678912326E-03 -0.4820822535841E-02  0.0000000000000E+00  0.9258506563044E-03
 0.8759884852093E-03 -0.4747432675443E-02  0.0000000000000E+00  0.9008534688545E-03
 0.8264224778236E-03 -0.4666223312366E-02  0.0000000000000E+00  0.8824417760712E-03
 0.7731388812162E-03 -0.4576981797234E-02  0.0000000000000E+00  0.8727976540645E-03
 0.7176312788669E-03 -0.4479615552543E-02  0.0000000000000E+00  0.8745409310336E-03
 0.6618426574280E-03 -0.4374251025793E-02  0.0000000000000E+00  0.8907210559718E-03
 0.6083026887210E-03 -0.4261361060405E-02  0.0000000000000E+00  0.9247536977529E-03
 0.5602856475160E-03 -0.4141974012554E-02  0.0000000000000E+00  0.9802576802499E-03
 0.5219541790806E-03 -0.4017832968351E-02  0.0000000000000E+00  0.1060810549223E-02
 0.4984751239348E-03 -0.3891443039843E-02  0.0000000000000E+00  0.1169690833857E-02
 0.4961396539940E-03 -0.3766160978898E-02  0.0000000000000E+00  0.1309489154055E-02
 0.5224670374887E-03 -0.3646336664015E-02  0.0000000000000E+00  0.1481501273184E-02
 0.5862359239939E-03 -0.3537447806856E-02  0.0000000000000E+00  0.1684849295869E-02
 0.6973591743303E-03 -0.3446142097656E-02  0.0000000000000E+00  0.1915311737875E-02
 0.8664920459741E-03 -0.3380079270455E-02  0.0000000000000E+00  0.2163914189098E-02
 0.1104253106386E-02 -0.3347457261217E-02  0.0000000000000E+00  0.2415449364944E-02
 0.1419977866750E-02 -0.3356081781456E-02  0.0000000000000E+00  0.2647293623725E-02
 0.1820016736084E-02 -0.3412012022846E-02  0.0000000000000E+00  0.2828972035845E-02
 0.2305672680058E-02 -0.3517980693861E-02  0.0000000000000E+00  0.2922971094319E-02
 0.2871128074428E-02 -0.3671747620255E-02  0.0000000000000E+00  0.2887514017818E-02
 0.3502060493334E-02 -0.3864880536619E-02  0.0000000000000E+00  0.2681582693258E-02
 0.4175672329841E-02 -0.4082659268066E-02  0.0000000000000E+00  0.2271465679311E-02
 0.4862584961060E-02 -0.4305507244009E-02  0.0000000000000E+00  0.1637158628838E-02
 0.5530275743156E-02 -0.4511724945418E-02  0.0000000000000E+00  0.7766451853347E-03
 0.7477988483025E-04 -0.4875993653914E-02  0.0000000000000E+00  0.3199459880401E-03
 0.2256671735308E-03 -0.4968173284349E-02  0.0000000000000E+00  0.5980503664387E-03
 0.3753091925019E-03 -0.5056774273327E-02  0.0000000000000E+00  0.8180830752949E-03
 0.5179816060993E-03 -0.5137623951806E-02  0.0000000000000E+00  0.9820963812337E-03
 0.6487684553960E-03 -0.5207301171287E-02  0.0000000000000E+00  0.1095369143026E-02
 0.7640779762879E-03 -0.5263511299431E-02  0.0000000000000E+00  0.1165382298311E-02
 0.8618246277258E-03 -0.5305177850581E-02  0.0000000000000E+00  0.1200567515178E-02
 0.9413124548341E-03 -0.5332289684542E-02  0.0000000000000E+00  0.1209192947436E-02
 0.1002930801324E-02 -0.5345605501822E-02  0.0000000000000E+00  0.1198593053292E-02
 0.1047786759716E-02 -0.5346323534968E-02  0.0000000000000E+00  0.1174784265056E-02
 0.1077366473439E-02 -0.5335792240952E-02  0.0000000000000E+00  0.1142397220836E-02
 0.1093272508068E-02 -0.5315296996109E-02  0.0000000000000E+00  0.1104815485648E-02
 0.1097048935633E-02 -0.5285926569070E-02  0.0000000000000E+00  0.1064418666934E-02
 0.1090084694653E-02 -0.5248506221274E-02  0.0000000000000E+00  0.1022857071776E-02
 0.1073577943489E-02 -0.5203579232430E-02  0.0000000000000E+00  0.9813158478818E-03
 0.1048544350876E-02 -0.5151420352602E-02  0.0000000000000E+00  0.9407496347634E-03
 0.1015855868127E-02 -0.5092069064628E-02  0.0000000000000E+00  0.9020826784930E-03
 0.9763025417293E-03 -0.5025377659612E-02  0.0000000000000E+00  0.8663769952793E-03
 0.9306701633144E-03 -0.4951067115514E-02  0.0000000000000E+00  0.8349684368862E-03
 0.8798337602538E-03 -0.4868793766348E-02  0.0000000000000E+00  0.8095744061605E-03
 0.8248654091985E-03 -0.4778227565313E-02  0.0000000000000E+00  0.7923707264748E-03
 0.7671530239368E-03 -0.4679138638028E-02  0.0000000000000E+00  0.7860328220457E-03
 0.7085314229123E-03 -0.4571497688832E-02  0.0000000000000E+00  0.7937380868736E-03
 0.6514277783503E-03 -0.4455607747662E-02  0.0000000000000E+00  0.8191144036645E-03
 0.5990322829280E-03 -0.4332328614951E-02  0.0000000000000E+00  0.8660863198438E-03
 0.5554558199337E-03 -0.4203247147544E-02  0.0000000000000E+00  0.9386445911686E-03
 0.5258619706921E-03 -0.4070725346756E-02  0.0000000000000E+00  0.1040615213950E-02
 0.5166153192012E-03 -0.3938003128392E-02  0.0000000000000E+00  0.1175297744770E-02
 0.5354293235433E-03 -0.3809373012942E-02  0.0000000000000E+00  0.1344870745122E-02
 0.5914567082299E-03 -0.3690367631874E-02  0.0000000000000E+00  0.1549491047946E-02
 0.6952315145390E-03 -0.3587868689431E-02  0.0000000000000E+00  0.1786042611140E-02
 0.8583366947809E-03 -0.3510016790003E-02  0.0000000000000E+00  0.2046560245573E-02
 0.1092648718515E-02 -0.3465782956707E-02  0.0000000000000E+00  0.2316479193608E-02
 0.1409041299558E-02 -0.3464020939512E-02  0.0000000000000E+00  0.2573095713688E-02
 0.1815517825684E-02 -0.3512000793552E-02  0.0000000000000E+00  0.2784743487265E-02
 0.2314833817040E-02 -0.3613606238298E-02  0.0000000000000E+00  0.2911291451273E-02
 0.2901977727836E-02 -0.3767347117007E-02  0.0000000000000E+00  0.2906901601900E-02
 0.3562325251686E-02 -0.3964758416373E-02  0.0000000000000E+00  0.2725558277687E-02
 0.4271406194820E-02 -0.4190069298121E-02  0.0000000000000E+00  0.2328695048372E-02
 0.4996976206330E-02 -0.4421755275224E-02  0.0000000000000E+00  0.1692926490135E-02
 0.5703083617618E-02 -0.4635766721820E-02  0.0000000000000E+00  0.8151292913006E-03
 0.7959447380810E-04 -0.5068382063001E-02  0.0000000000000E+00  0.3770262037114E-03
 0.2402584859259E-03 -0.5166432354989E-02  0.0000000000000E+00  0.6531384941022E-03
 0.3995393402470E-03 -0.5260514994184E-02  0.0000000000000E+00  0.8681485395464E-03
 0.5510772098856E-03 -0.5346014581171E-02  0.0000000000000E+00  0.1024512246201E-02
 0.6894748934742E-03 -0.5419209428286E-02  0.0000000000000E+00  0.1128276885487E-02
 0.8108900612127E-03 -0.5477698335126E-02  0.0000000000000E+00  0.1187842768735E-02
 0.9132155833016E-03 -0.5520479235632E-02  0.0000000000000E+00  0.1212494952543E-02
 0.9959059820443E-03 -0.5547740369383E-02  0.0000000000000E+00  0.1211143696755E-02
 0.1059596461976E-02 -0.5560496848785E-02  0.0000000000000E+00  0.1191501878292E-02
 0.1105666906982E-02 -0.5560203824775E-02  0.0000000000000E+00  0.1159721088385E-02
 0.1135856026466E-02 -0.5548431636407E-02  0.0000000000000E+00  0.1120382234437E-02
 0.1151973644554E-02 -0.5526636824199E-02  0.0000000000000E+00  0.1076700643700E-02
 0.1155717325227E-02 -0.5496026696017E-02  0.0000000000000E+00  0.1030825983430E-02
 0.1148577148310E-02 -0.5457497710182E-02  0.0000000000000E+00  0.9841579179829E-03
 0.1131805909956E-02 -0.5411624537025E-02  0.0000000000000E+00  0.9376362996812E-03
 0.1106434269874E-02 -0.5358680427704E-02  0.0000000000000E+00  0.8919908293927E-03
 0.1073315734922E-02 -0.5298675566089E-02  0.0000000000000E+00  0.8479495359568E-03
 0.1033193622706E-02 -0.5231408286811E-02  0.0000000000000E+00  0.8064124731463E-03
 0.9867830248129E-03 -0.5156522523408E-02  0.0000000000000E+00  0.7685926661046E-03
 0.9348683567438E-03 -0.5073575143648E-02  0.0000000000000E+00  0.7361296509043E-03
 0.8784154826610E-03 -0.4982114514505E-02  0.0000000000000E+00  0.7111737384449E-03
 0.8186953760546E-03 -0.4881767350635E-02  0.0000000000000E+00  0.6964358436460E-03
 0.7574208361433E-03 -0.4772339658723E-02  0.0000000000000E+00  0.6952005727874E-03
 0.6968992978420E-03 -0.4653951712064E-02  0.0000000000000E+00  0.7112873441443E-03
 0.6402154074490E-03 -0.4527276787473E-02  0.0000000000000E+00  0.7489074314715E-03
 0.5914014742040E-03 -0.4393721130456E-02  0.0000000000000E+00  0.8124505924199E-03
 0.5555844091417E-03 -0.4255470753313E-02  0.0000000000000E+00  0.9062865654310E-03
 0.5391621267511E-03 -0.4115605765403E-02  0.0000000000000E+00  0.1034440071571E-02
 0.5499982347645E-03 -0.3978308708353E-02  0.0000000000000E+00  0.1200021879769E-02
 0.5975787913263E-03 -0.3849109126611E-02  0.0000000000000E+00  0.1404321394622E-02
 0.6930349853400E-03 -0.3735069277810E-02  0.0000000000000E+00  0.1645487246463E-02
 0.8488902439248E-03 -0.3644778477086E-02  0.0000000000000E+00  0.1916786853623E-02
 0.1078353099722E-02 -0.3587992489345E-02  0.0000000000000E+00  0.2204566645790E-02
 0.1393993113585E-02 -0.3574690986755E-02  0.0000000000000E+00  0.2486305320582E-02
 0.1805714664204E-02 -0.3613510974484E-02  0.0000000000000E+00  0.2729311877691E-02
 0.2318037140309E-02 -0.3709708457087E-02  0.0000000000000E+00  0.2890788477186E-02
 0.2927052602133E-02 -0.3862775565545E-02  0.0000000000000E+00  0.2920464512807E-02
 0.3617994991498E-02 -0.4064360620448E-02  0.0000000000000E+00  0.2766622162649E-02
 0.4364620622096E-02 -0.4297596570253E-02  0.0000000000000E+00  0.2384978549659E-02
 0.5131448128836E-02 -0.4538754585792E-02  0.0000000000000E+00  0.1748125069630E-02
 0.5878661876837E-02 -0.4761125435249E-02  0.0000000000000E+00  0.8516806996191E-03
 0.8467043181365E-04 -0.5261637185242E-02  0.0000000000000E+00  0.4377425424435E-03
 0.2556372253065E-03 -0.5365858804454E-02  0.0000000000000E+00  0.7116481121079E-03
 0.4250422795266E-03 -0.5465664256802E-02  0.0000000000000E+00  0.9210876120419E-03
 0.5858102610836E-03 -0.5555943087400E-02  0.0000000000000E+00  0.1069001341412E-02
 0.7320179858222E-03 -0.5632651750648E-02  0.0000000000000E+00  0.1162346368037E-02
 0.8595721957876E-03 -0.5693296822484E-02  0.0000000000000E+00  0.1210590423569E-02
 0.9663784808750E-03 -0.5736990188026E-02  0.0000000000000E+00  0.1223982979298E-02
 0.1052092405392E-02 -0.5764167658671E-02  0.0000000000000E+00  0.1212132559978E-02
 0.1117645086651E-02 -0.5776143821362E-02  0.0000000000000E+00  0.1183137034229E-02
 0.1164728782970E-02 -0.5774661572725E-02  0.0000000000000E+00  0.1143256986459E-02
 0.1195360824403E-02 -0.5761530770624E-02  0.0000000000000E+00  0.1096982407341E-02
 0.1211572245218E-02 -0.5738386225930E-02  0.0000000000000E+00  0.1047317078931E-02
 0.1215219231735E-02 -0.5706554163193E-02  0.0000000000000E+00  0.9961422239594E-03
 0.1207892662720E-02 -0.5666999288461E-02  0.0000000000000E+00  0.9445753823645E-03
 0.1190896725753E-02 -0.5620323769617E-02  0.0000000000000E+00  0.8932860521857E-03
 0.1165272513350E-02 -0.5566795844837E-02  0.0000000000000E+00  0.8427585140301E-03
 0.1131849963337E-02 -0.5506393739700E-02  0.0000000000000E+00  0.7935066017385E-03
 0.1091320106403E-02 -0.5438859912684E-02  0.0000000000000E+00  0.7462511698925E-03
 0.1044321115836E-02 -0.5363759619219E-02  0.0000000000000E+00  0.7020646985873E-03
 0.9915395206221E-03 -0.5280548284214E-02  0.0000000000000E+00  0.6624899662398E-03
 0.9338261994782E-03 -0.5188649664956E-02  0.0000000000000E+00  0.6296314145492E-03
 0.8723244446702E-03 -0.5087542237865E-02  0.0000000000000E+00  0.6062135306656E-03
 0.8086116994566E-03 -0.4976859731000E-02  0.0000000000000E+00  0.5956046529371E-03
 0.7448588074272E-03 -0.4856528082917E-02  0.0000000000000E+00  0.6017910247277E-03
 0.6840234116442E-03 -0.4727017229932E-02  0.0000000000000E+00  0.6292459888417E-03
 0.6300316252814E-03 -0.4589528985807E-02  0.0000000000000E+00  0.6827365213823E-03
 0.5879379658754E-03 -0.4446039842663E-02  0.0000000000000E+00  0.7671627829668E-03
 0.5641289041380E-03 -0.4299424363824E-02  0.0000000000000E+00  0.8872798546995E-03
 0.5665661933855E-03 -0.4153696524653E-02  0.0000000000000E+00  0.1047169447090E-02
 0.6050167196857E-03 -0.4014314635193E-02  0.0000000000000E+00  0.1249344576596E-02
 0.6911697179767E-03 -0.3888453444610E-02  0.0000000000000E+00  0.1493380347519E-02
 0.8384859786527E-03 -0.3785101100978E-02  0.0000000000000E+00  0.1774019017946E-02
 0.1061568950680E-02 -0.3714792964132E-02  0.0000000000000E+00  0.2078827939204E-02
 0.1374843336181E-02 -0.3688703667035E-02  0.0000000000000E+00  0.2385794542176E-02
 0.1790386587871E-02 -0.3717001147058E-02  0.0000000000000E+00  0.2661445297682E-02
 0.2314845368577E-02 -0.3806566338957E-02  0.0000000000000E+00  0.2860326387019E-02
 0.2945786938707E-02 -0.3958159050862E-02  0.0000000000000E+00  0.2927366959916E-02
 0.3668533287598E-02 -0.4163744365694E-02  0.0000000000000E+00  0.2804349339568E-02
 0.4454980538648E-02 -0.4405335076532E-02  0.0000000000000E+00  0.2440221996621E-02
 0.5265956447326E-02 -0.4656687558820E-02  0.0000000000000E+00  0.1802741658987E-02
 0.6057253874109E-02 -0.4888052755594E-02  0.0000000000000E+00  0.8861668813039E-03
 0.9003700463509E-04 -0.5455856954233E-02  0.0000000000000E+00  0.5022943741091E-03
 0.2718916391979E-03 -0.5566581700153E-02  0.0000000000000E+00  0.7737474976020E-03
 0.4519566437404E-03 -0.5672370035378E-02  0.0000000000000E+00  0.9769932263387E-03
 0.6223461648628E-03 -0.5767554884071E-02  0.0000000000000E+00  0.1115556464412E-02
 0.7765610610111E-03 -0.5847748517162E-02  0.0000000000000E+00  0.1197474411795E-02
 0.9102616333408E-03 -0.5910386309207E-02  0.0000000000000E+00  0.1233454265771E-02
 0.1021410888663E-02 -0.5954743684965E-02  0.0000000000000E+00  0.1234831730637E-02
 0.1109926596872E-02 -0.5981561144656E-02  0.0000000000000E+00  0.1211967653516E-02
 0.1177093370410E-02 -0.5992501191612E-02  0.0000000000000E+00  0.1173341794804E-02
 0.1224959125128E-02 -0.5989626987197E-02  0.0000000000000E+00  0.1125286116227E-02
 0.1255846558133E-02 -0.5975004684250E-02  0.0000000000000E+00  0.1072149034450E-02
 0.1272020853091E-02 -0.5950452432595E-02  0.0000000000000E+00  0.1016673379202E-02
 0.1275500342582E-02 -0.5917413579357E-02  0.0000000000000E+00  0.9604304988207E-03
 0.1267974856426E-02 -0.5876916403751E-02  0.0000000000000E+00  0.9042236917665E-03
 0.1250795646481E-02 -0.5829585615163E-02  0.0000000000000E+00  0.8484277283340E-03
 0.1225009103005E-02 -0.5775680526734E-02  0.0000000000000E+00  0.7932622064024E-03
 0.1191416345626E-02 -0.5715144918686E-02  0.0000000000000E+00  0.7390099916807E-03
 0.1150650780166E-02 -0.5647664071018E-02  0.0000000000000E+00  0.6861963510607E-03
 0.1103267890308E-02 -0.5572723869196E-02  0.0000000000000E+00  0.6357358109789E-03
 0.1049849619363E-02 -0.5489677488746E-02  0.0000000000000E+00  0.5890551980724E-03
 0.9911237340998E-03 -0.5397822395301E-02  0.0000000000000E+00  0.5481917802466E-03
 0.9280958076184E-03 -0.5296485497889E-02  0.0000000000000E+00  0.5158600291711E-03
 0.8621953421203E-03 -0.5185122318261E-02  0.0000000000000E+00  0.4954859155605E-03
 0.7954404566172E-03 -0.5063454635980E-02  0.0000000000000E+00  0.4911938075242E-03
 0.7306407930844E-03 -0.4931733907001E-02  0.0000000000000E+00  0.5076886247178E-03
 0.6715883792336E-03 -0.4790934922133E-02  0.0000000000000E+00  0.5500846209784E-03
 0.6232278565650E-03 -0.4642791241899E-02  0.0000000000000E+00  0.6237882265655E-03
 0.5918851790763E-03 -0.4489924134914E-02  0.0000000000000E+00  0.7342768808495E-03
 0.5855602201600E-03 -0.4336114953205E-02  0.0000000000000E+00  0.8866279947673E-03
 0.6142354774552E-03 -0.4186672287201E-02  0.0000000000000E+00  0.1084658055368E-02
 0.6901017058465E-03 -0.4048799230786E-02  0.0000000000000E+00  0.1329528234379E-02
 0.8275339319753E-03 -0.3931811836968E-02  0.0000000000000E+00  0.1617713242625E-02
 0.1042576471863E-02 -0.3846997855903E-02  0.0000000000000E+00  0.1938352881150E-02
 0.1351664605982E-02 -0.3806780906989E-02  0.0000000000000E+00  0.2270341539160E-02
 0.1769342713142E-02 -0.3823027173625E-02  0.0000000000000E+00  0.2579757971012E-02
 0.2304804978481E-02 -0.3904527005768E-02  0.0000000000000E+00  0.2818586420037E-02
 0.2957554168639E-02 -0.4053654591886E-02  0.0000000000000E+00  0.2926612629336E-02
 0.3713324198345E-02 -0.4262970172656E-02  0.0000000000000E+00  0.2838230855506E-02
 0.4542099245592E-02 -0.4513384926379E-02  0.0000000000000E+00  0.2494333432020E-02
 0.5400454716983E-02 -0.4775766194701E-02  0.0000000000000E+00  0.1856776983667E-02
 0.6239113282700E-02 -0.5016831799645E-02  0.0000000000000E+00  0.9184356464564E-03
 0.9572765009382E-04 -0.5651151553479E-02  0.0000000000000E+00  0.5709024343711E-03
 0.2891225404599E-03 -0.5768746337069E-02  0.0000000000000E+00  0.8396196577095E-03
 0.4804396563975E-03 -0.5880797622068E-02  0.0000000000000E+00  0.1035957668458E-02
 0.6608696482248E-03 -0.5981009298627E-02  0.0000000000000E+00  0.1164151352759E-02
 0.8232821693129E-03 -0.6064626889648E-02  0.0000000000000E+00  0.1233524379848E-02
 0.9631027213734E-03 -0.6129044686485E-02  0.0000000000000E+00  0.1256223591479E-02
 0.1078409656229E-02 -0.6173763761930E-02  0.0000000000000E+00  0.1244803472389E-02
 0.1169456664721E-02 -0.6199896731867E-02  0.0000000000000E+00  0.1210426334506E-02
 0.1237947629077E-02 -0.6209507976445E-02  0.0000000000000E+00  0.1161937671634E-02
 0.1286332810629E-02 -0.6205014473097E-02  0.0000000000000E+00  0.1105689238245E-02
 0.1317266996762E-02 -0.6188753676781E-02  0.0000000000000E+00  0.1045826502878E-02
 0.1333260719236E-02 -0.6162729315075E-02  0.0000000000000E+00  0.9847756187322E-03
 0.1336495826746E-02 -0.6128497355816E-02  0.0000000000000E+00  0.9237540782885E-03
 0.1328757417310E-02 -0.6087142964595E-02  0.0000000000000E+00  0.8632187890643E-03
 0.1311438250944E-02 -0.6039307272088E-02  0.0000000000000E+00  0.8032267235454E-03
 0.1285584282495E-02 -0.5985236374782E-02  0.0000000000000E+00  0.7437152924265E-03
 0.1251962498800E-02 -0.5924837382339E-02  0.0000000000000E+00  0.6847212584898E-03
 0.1211143668503E-02 -0.5857737841676E-02  0.0000000000000E+00  0.6265590927030E-03
 0.1163595389302E-02 -0.5783344670629E-02  0.0000000000000E+00  0.5699685155545E-03
 0.1109789031037E-02 -0.5700909322812E-02  0.0000000000000E+00  0.5162410926242E-03
 0.1050321911368E-02 -0.5609602807589E-02  0.0000000000000E+00  0.4673248330361E-03
 0.9860527191022E-03 -0.5508598841515E-02  0.0000000000000E+00  0.4258991192633E-03
 0.9182514204258E-03 -0.5397170741304E-02  0.0000000000000E+00  0.3954190385627E-03
 0.8487683544874E-03 -0.5274828455568E-02  0.0000000000000E+00  0.3801145542234E-03
 0.7802451302529E-03 -0.5141592062698E-02  0.0000000000000E+00  0.3848858137970E-03
 0.7163121817137E-03 -0.4998188724992E-02  0.0000000000000E+00  0.4151558322157E-03
 0.6617657560160E-03 -0.4846076714104E-02  0.0000000000000E+00  0.4768012142613E-03
 0.6228185571479E-03 -0.4687575264912E-02  0.0000000000000E+00  0.5759984005074E-03
 0.6074407780287E-03 -0.4526164439941E-02  0.0000000000000E+00  0.7188277253910E-03
 0.6257519462404E-03 -0.4366914513243E-02  0.0000000000000E+00  0.9104727113936E-03
 0.6903681348190E-03 -0.4216955540698E-02  0.0000000000000E+00  0.1153831808491E-02
 0.8165309685541E-03 -0.4085836123083E-02  0.0000000000000E+00  0.1447379692486E-02
 0.1021747938771E-02 -0.3985541100632E-02  0.0000000000000E+00  0.1782220591736E-02
 0.1324609000467E-02 -0.3929774223254E-02  0.0000000000000E+00  0.2138633316509E-02
 0.1742436567061E-02 -0.3932263715902E-02  0.0000000000000E+00  0.2482695584913E-02
 0.2287453042176E-02 -0.4004024429808E-02  0.0000000000000E+00  0.2764035488654E-02
 0.2961661037223E-02 -0.4149460483664E-02  0.0000000000000E+00  0.2917004569760E-02
 0.3751653653030E-02 -0.4362099097618E-02  0.0000000000000E+00  0.2867644555213E-02
 0.4625522809174E-02 -0.4621843185513E-02  0.0000000000000E+00  0.2547229904446E-02
 0.5534900827390E-02 -0.4896235237155E-02  0.0000000000000E+00  0.1910264144392E-02
 0.6424496808393E-02 -0.5147779150188E-02  0.0000000000000E+00  0.9482977198858E-03
 0.1017809511661E-03 -0.5847646015958E-02  0.0000000000000E+00  0.6438117570417E-03
 0.3074459646751E-03 -0.5972517570542E-02  0.0000000000000E+00  0.9094636148040E-03
 0.5106707726221E-03 -0.6091132854454E-02  0.0000000000000E+00  0.1098070355375E-02
 0.7015879631172E-03 -0.6196481569553E-02  0.0000000000000E+00  0.1214734942745E-02
 0.8723757394423E-03 -0.6283420934625E-02  0.0000000000000E+00  0.1270318728238E-02
 0.1018246771884E-02 -0.6349346604387E-02  0.0000000000000E+00  0.1278641141048E-02
 0.1137469487026E-02 -0.6394062953541E-02  0.0000000000000E+00  0.1253617887506E-02
 0.1230721974617E-02 -0.6419133921564E-02  0.0000000000000E+00  0.1207252982504E-02
 0.1300201885716E-02 -0.6427085137763E-02  0.0000000000000E+00  0.1148724191488E-02
 0.1348811344080E-02 -0.6420720988223E-02  0.0000000000000E+00  0.1084334659732E-02
 0.1379562961366E-02 -0.6402662305205E-02  0.0000000000000E+00  0.1017953633652E-02
 0.1395221194115E-02 -0.6375096877703E-02  0.0000000000000E+00  0.9516285619325E-03
 0.1398130012013E-02 -0.6339685509959E-02  0.0000000000000E+00  0.8861771605136E-03
 0.1390163925850E-02 -0.6297561279971E-02  0.0000000000000E+00  0.8216785456430E-03
 0.1372750286659E-02 -0.6249374382714E-02  0.0000000000000E+00  0.7578508557753E-03
 0.1346928283646E-02 -0.6195353073129E-02  0.0000000000000E+00  0.6943341715192E-03
 0.1313425470895E-02 -0.6135365938483E-02  0.0000000000000E+00  0.6309061267597E-03
 0.1272745416345E-02 -0.6068983132242E-02  0.0000000000000E+00  0.5676567222657E-03
 0.1225263351661E-02 -0.5995534264933E-02  0.0000000000000E+00  0.5051348356971E-03
 0.1171334939687E-02 -0.5914171099449E-02  0.0000000000000E+00  0.4444775431444E-03
 0.1111420642482E-02 -0.5823939715433E-02  0.0000000000000E+00  0.3875209096760E-03
 0.1046224133073E-02 -0.5723860911491E-02  0.0000000000000E+00  0.3368828867129E-03
 0.9768454675002E-03 -0.5613023991954E-02  0.0000000000000E+00  0.2960170265112E-03
 0.9049535946677E-03 -0.5490721950331E-02  0.0000000000000E+00  0.2692228215619E-03
 0.8330035779777E-03 -0.5356733424277E-02  0.0000000000000E+00  0.2615536036533E-03
 0.7644378816054E-03 -0.5211520161240E-02  0.0000000000000E+00  0.2786938532613E-03
 0.7038657069234E-03 -0.5056234934167E-02  0.0000000000000E+00  0.3269414093364E-03
 0.6573310289396E-03 -0.4892846512046E-02  0.0000000000000E+00  0.4131309588956E-03
 0.6326994095759E-03 -0.4724461681923E-02  0.0000000000000E+00  0.5443317456253E-03
 0.6401352291796E-03 -0.4555814478926E-02  0.0000000000000E+00  0.7271358154485E-03
 0.6925820374540E-03 -0.4393842693876E-02  0.0000000000000E+00  0.9663140430098E-03
 0.8060711991225E-03 -0.4248204499595E-02  0.0000000000000E+00  0.1262610525073E-02
 0.9995641361336E-03 -0.4131491708170E-02  0.0000000000000E+00  0.1609522092290E-02
 0.1293928403444E-02 -0.4058686685109E-02  0.0000000000000E+00  0.1989274121689E-02
 0.1709585241467E-02 -0.4045530171264E-02  0.0000000000000E+00  0.2368522458796E-02
 0.2262328245104E-02 -0.4105603422282E-02  0.0000000000000E+00  0.2694891591245E-02
 0.2957344098120E-02 -0.4245832177120E-02  0.0000000000000E+00  0.2897095430863E-02
 0.3782686706130E-02 -0.4461191833919E-02  0.0000000000000E+00  0.2891807684542E-02
 0.4704703339641E-02 -0.4730784928302E-02  0.0000000000000E+00  0.2598838184195E-02
 0.5669267182603E-02 -0.5018367950076E-02  0.0000000000000E+00  0.1963309592083E-02
 0.6613653231793E-02 -0.5281242526486E-02  0.0000000000000E+00  0.9755023127509E-03
 0.1082417621727E-03 -0.6045483441468E-02  0.0000000000000E+00  0.7212951840674E-03
 0.3269964678897E-03 -0.6178083927446E-02  0.0000000000000E+00  0.9834957757845E-03
 0.5428561011327E-03 -0.6303586003153E-02  0.0000000000000E+00  0.1163414733861E-02
 0.7447345908881E-03 -0.6414165081772E-02  0.0000000000000E+00  0.1267223994633E-02
 0.9240542424612E-03 -0.6504271485467E-02  0.0000000000000E+00  0.1307629877514E-02
 0.1075851541419E-02 -0.6571361326599E-02  0.0000000000000E+00  0.1300395156503E-02
 0.1198680979632E-02 -0.6615639163023E-02  0.0000000000000E+00  0.1260947051066E-02
 0.1293750721890E-02 -0.6639212721813E-02  0.0000000000000E+00  0.1202157072322E-02
 0.1363835695626E-02 -0.6645133174377E-02  0.0000000000000E+00  0.1133479250761E-02
 0.1412341273259E-02 -0.6636624524570E-02  0.0000000000000E+00  0.1061079774970E-02
 0.1442661367252E-02 -0.6616598668074E-02  0.0000000000000E+00  0.9884654927040E-03
 0.1457819271338E-02 -0.6587421129736E-02  0.0000000000000E+00  0.9172371604750E-03
 0.1460316254801E-02 -0.6550845891634E-02  0.0000000000000E+00  0.8477657642591E-03
 0.1452107883937E-02 -0.6508042440778E-02  0.0000000000000E+00  0.7797229569440E-03
 0.1434647718960E-02 -0.6459661412368E-02  0.0000000000000E+00  0.7124698826618E-03
 0.1408961286306E-02 -0.6405908342659E-02  0.0000000000000E+00  0.6453371714150E-03
 0.1375731526091E-02 -0.6346611953752E-02  0.0000000000000E+00  0.5778329113710E-03
 0.1335390833009E-02 -0.6281286402601E-02  0.0000000000000E+00  0.5098108636102E-03
 0.1288218464712E-02 -0.6209187086124E-02  0.0000000000000E+00  0.4416141095620E-03
 0.1234450248002E-02 -0.6129369787044E-02  0.0000000000000E+00  0.3742062868190E-03
 0.1174404451045E-02 -0.6040759043247E-02  0.0000000000000E+00  0.3092884152213E-03
 0.1108622778439E-02 -0.5942225089187E-02  0.0000000000000E+00  0.2493896487371E-03
 0.1038026434260E-02 -0.5832673839027E-02  0.0000000000000E+00  0.1979295716689E-03
 0.9640911738922E-03 -0.5711179131091E-02  0.0000000000000E+00  0.1592380383310E-03
 0.8890691075713E-03 -0.5577271530218E-02  0.0000000000000E+00  0.1384742015129E-03
 0.8161903284603E-03 -0.5431133291666E-02  0.0000000000000E+00  0.1415280003729E-03
 0.7498392881358E-03 -0.5273584863827E-02  0.0000000000000E+00  0.1750561182714E-03
 0.6958342215459E-03 -0.5106198004762E-02  0.0000000000000E+00  0.2464915480316E-03
 0.6618550332630E-03 -0.4931632691952E-02  0.0000000000000E+00  0.3638535246897E-03
 0.6580055305340E-03 -0.4754180959664E-02  0.0000000000000E+00  0.5351557347709E-03
 0.6974358144714E-03 -0.4580451457437E-02  0.0000000000000E+00  0.7671513389485E-03
 0.7968562636051E-03 -0.4420058658099E-02  0.0000000000000E+00  0.1063114437357E-02
 0.9766324154346E-03 -0.4286069284447E-02  0.0000000000000E+00  0.1419390575188E-02
 0.1259998680879E-02 -0.4194698193925E-02  0.0000000000000E+00  0.1820800922227E-02
 0.1670794026894E-02 -0.4163822572749E-02  0.0000000000000E+00  0.2235311829111E-02
 0.2228987045822E-02 -0.4209950726573E-02  0.0000000000000E+00  0.2609086051968E-02
 0.2943770729868E-02 -0.4343105848669E-02  0.0000000000000E+00  0.2865130133141E-02
 0.3805444599166E-02 -0.4560317284759E-02  0.0000000000000E+00  0.2909705379550E-02
 0.4778953513920E-02 -0.4840234093958E-02  0.0000000000000E+00  0.2649066513423E-02
 0.5803553014109E-02 -0.5142438428000E-02  0.0000000000000E+00  0.2016171936185E-02
 0.6806807285554E-02 -0.5417584519503E-02  0.0000000000000E+00  0.9997145441959E-03
 0.1151626437854E-03 -0.6244829007643E-02  0.0000000000000E+00  0.8036576413337E-03
 0.3479312385751E-03 -0.6385662648310E-02  0.0000000000000E+00  0.1061951346766E-02
 0.5772337745532E-03 -0.6518396366824E-02  0.0000000000000E+00  0.1232063973019E-02
 0.7905734781131E-03 -0.6634273687630E-02  0.0000000000000E+00  0.1321493591067E-02
 0.9785497201226E-03 -0.6727325404748E-02  0.0000000000000E+00  0.1345169034358E-02
 0.1136080089154E-02 -0.6795149609483E-02  0.0000000000000E+00  0.1321110260253E-02
 0.1262127916718E-02 -0.6838471568747E-02  0.0000000000000E+00  0.1266410252497E-02
 0.1358556893831E-02 -0.6860049851271E-02  0.0000000000000E+00  0.1194811809929E-02
 0.1428811607395E-02 -0.6863529317606E-02  0.0000000000000E+00  0.1115960318654E-02
 0.1476852462981E-02 -0.6852582435137E-02  0.0000000000000E+00  0.1035773421565E-02
 0.1506474271714E-02 -0.6830413675163E-02  0.0000000000000E+00  0.9572958346109E-03
 0.1520959212101E-02 -0.6799553998796E-02  0.0000000000000E+00  0.8816084718486E-03
 0.1522956916238E-02 -0.6761834456365E-02  0.0000000000000E+00  0.8085888612954E-03
 0.1514492847811E-02 -0.6718446727743E-02  0.0000000000000E+00  0.7374744379841E-03
 0.1497036868739E-02 -0.6670032024532E-02  0.0000000000000E+00  0.6672550134495E-03
 0.1471593444968E-02 -0.6616768156963E-02  0.0000000000000E+00  0.5969433751353E-03
 0.1438795970875E-02 -0.6558443309254E-02  0.0000000000000E+00  0.5257707791924E-03
 0.1399002448584E-02 -0.6494518275101E-02  0.0000000000000E+00  0.4533452660082E-03
 0.1352393597064E-02 -0.6424178951804E-02  0.0000000000000E+00  0.3797905257391E-03
 0.1299082441236E-02 -0.6346390714290E-02  0.0000000000000E+00  0.3058782846713E-03
 0.1239240918168E-02 -0.6259961974748E-02  0.0000000000000E+00  0.2331511795569E-03
 0.1173243113987E-02 -0.6163616996293E-02  0.0000000000000E+00  0.1640214326228E-03
 0.1101824051389E-02 -0.6056081557803E-02  0.0000000000000E+00  0.1018408654302E-03
 0.1026256636839E-02 -0.5936211405483E-02  0.0000000000000E+00  0.5092800692327E-04
 0.9485763242443E-03 -0.5803286409298E-02  0.0000000000000E+00  0.1649576061444E-04
 0.8717793268742E-03 -0.5657199882001E-02  0.0000000000000E+00  0.4575196144885E-05
 0.7999898373806E-03 -0.5498417858072E-02  0.0000000000000E+00  0.2210579103087E-04
 0.7387433287373E-03 -0.5328072278107E-02  0.0000000000000E+00  0.7703834124437E-04
 0.6954485321369E-03 -0.5148303518816E-02  0.0000000000000E+00  0.1782748534009E-03
 0.6800310848143E-03 -0.4962850341968E-02  0.0000000000000E+00  0.3352288405756E-03
 0.7057030184928E-03 -0.4777839026774E-02  0.0000000000000E+00  0.5567097026257E-03
 0.7897048638928E-03 -0.4602655087163E-02  0.0000000000000E+00  0.8487591101374E-03
 0.9537061827430E-03 -0.4450658972481E-02  0.0000000000000E+00  0.1211042285811E-02
 0.1223347920271E-02 -0.4339193473079E-02  0.0000000000000E+00  0.1631708919082E-02
 0.1626188025084E-02 -0.4288351072246E-02  0.0000000000000E+00  0.2080943449100E-02
 0.2187026454008E-02 -0.4317935646242E-02  0.0000000000000E+00  0.2504222006333E-02
 0.2920044615139E-02 -0.4441727279149E-02  0.0000000000000E+00  0.2818983649694E-02
 0.3818791499089E-02 -0.4659579427853E-02  0.0000000000000E+00  0.2920004697584E-02
 0.4847377455924E-02 -0.4950141906191E-02  0.0000000000000E+00  0.2697695398970E-02
 0.5937776392809E-02 -0.5268631955505E-02  0.0000000000000E+00  0.2069363462447E-02
 0.7004146133803E-02 -0.5557097711957E-02  0.0000000000000E+00  0.1020564487795E-02
 0.1226057110493E-03 -0.6445875040079E-02  0.0000000000000E+00  0.8912412266361E-03
 0.3704352807455E-03 -0.6595505911088E-02  0.0000000000000E+00  0.1145085641435E-02
 0.6140805281529E-03 -0.6735837762969E-02  0.0000000000000E+00  0.1304074925762E-02
 0.8394038790176E-03 -0.6857044071120E-02  0.0000000000000E+00  0.1377364762822E-02
 0.1036115036089E-02 -0.6952734018384E-02  0.0000000000000E+00  0.1382572440223E-02
 0.1199098793445E-02 -0.7020759367890E-02  0.0000000000000E+00  0.1340337023229E-02
 0.1327883633433E-02 -0.7062515435730E-02  0.0000000000000E+00  0.1269568818208E-02
 0.1425136555994E-02 -0.7081534243658E-02  0.0000000000000E+00  0.1184853580617E-02
 0.1495072280668E-02 -0.7082124439012E-02  0.0000000000000E+00  0.1095906687448E-02
 0.1542256293732E-02 -0.7068429764378E-02  0.0000000000000E+00  0.1008259149534E-02
 0.1570898006949E-02 -0.7043940473969E-02  0.0000000000000E+00  0.9243801852883E-03
 0.1584532326069E-02 -0.7011333454737E-02  0.0000000000000E+00  0.8447539466567E-03
 0.1585943511886E-02 -0.6972495748897E-02  0.0000000000000E+00  0.7687196645474E-03
 0.1577212725907E-02 -0.6928624208129E-02  0.0000000000000E+00  0.6950581204783E-03
 0.1559814696353E-02 -0.6880339618228E-02  0.0000000000000E+00  0.6223783098046E-03
 0.1534725039307E-02 -0.6827787094222E-02  0.0000000000000E+00  0.5493712474499E-03
 0.1502523079605E-02 -0.6770714465539E-02  0.0000000000000E+00  0.4749877325810E-03
 0.1463490142798E-02 -0.6708533225059E-02  0.0000000000000E+00  0.3985832845450E-03
 0.1417707075549E-02 -0.6640366302579E-02  0.0000000000000E+00  0.3200502464552E-03
 0.1365162467613E-02 -0.6565096290318E-02  0.0000000000000E+00  0.2399506283738E-03
 0.1305879117600E-02 -0.6481423083795E-02  0.0000000000000E+00  0.1596452726872E-03
 0.1240059242797E-02 -0.6387931943859E-02  0.0000000000000E+00  0.8140082000774E-04
 0.1168246102967E-02 -0.6283174558955E-02  0.0000000000000E+00  0.8466641513355E-05
 0.1091502547486E-02 -0.6165793190870E-02  0.0000000000000E+00 -0.5489354121413E-04
 0.1011636965370E-02 -0.6034818934553E-02  0.0000000000000E+00 -0.1034689839803E-03
 0.9313940406157E-03 -0.5889852245955E-02  0.0000000000000E+00 -0.1311593777688E-03
 0.8546057828226E-03 -0.5730988817867E-02  0.0000000000000E+00 -0.1308318852919E-03
 0.7864696898728E-03 -0.5558883791293E-02  0.0000000000000E+00 -0.9411975861282E-04
 0.7340354486833E-03 -0.5375088710563E-02  0.0000000000000E+00 -0.1133658422373E-04
 0.7069227345411E-03 -0.5182675576740E-02  0.0000000000000E+00  0.1282677984327E-03
 0.7182377125888E-03 -0.4987121448923E-02  0.0000000000000E+00  0.3355852973838E-03
 0.7855608589065E-03 -0.4797365499783E-02  0.0000000000000E+00  0.6196222463230E-03
 0.9317049651164E-03 -0.4626825139166E-02  0.0000000000000E+00  0.9838295049924E-03
 0.1184689823393E-02 -0.4493792240627E-02  0.0000000000000E+00  0.1420492031268E-02
 0.1576049806439E-02 -0.4420585395159E-02  0.0000000000000E+00  0.1903107001245E-02
 0.2136120980686E-02 -0.4430657581219E-02  0.0000000000000E+00  0.2377544658070E-02
 0.2885206147035E-02 -0.4542302599271E-02  0.0000000000000E+00  0.2756059027191E-02
 0.3821446861308E-02 -0.4759121886174E-02  0.0000000000000E+00  0.2921033929522E-02
 0.4908799644716E-02 -0.5060491304152E-02  0.0000000000000E+00  0.2744106657827E-02
 0.6071908208417E-02 -0.5396817096953E-02  0.0000000000000E+00  0.2123618597028E-02
 0.7205708233850E-02 -0.5699644936081E-02  0.0000000000000E+00  0.1037935350886E-02
 0.1306449917288E-03 -0.6648847587014E-02  0.0000000000000E+00  0.9844312292027E-03
 0.3947279577515E-03 -0.6807908420661E-02  0.0000000000000E+00  0.1233175179883E-02
 0.6537197953508E-03 -0.6956225290650E-02  0.0000000000000E+00  0.1379479837711E-02
 0.8915658416231E-03 -0.7082738015543E-02  0.0000000000000E+00  0.1434588313613E-02
 0.1097024594645E-02 -0.7180650445122E-02  0.0000000000000E+00  0.1419384622291E-02
 0.1265074225619E-02 -0.7248219853232E-02  0.0000000000000E+00  0.1357540272666E-02
 0.1396006260322E-02 -0.7287695739377E-02  0.0000000000000E+00  0.1269921347588E-02
 0.1493463412895E-02 -0.7303521951828E-02  0.0000000000000E+00  0.1171882680449E-02
 0.1562537322805E-02 -0.7300739896256E-02  0.0000000000000E+00  0.1073043132461E-02
 0.1608443900595E-02 -0.7283977863329E-02  0.0000000000000E+00  0.9783796156687E-03
 0.1635812525191E-02 -0.7256994326301E-02  0.0000000000000E+00  0.8896596601181E-03
 0.1648417029868E-02 -0.7222584135173E-02  0.0000000000000E+00  0.8066921135021E-03
 0.1649157148180E-02 -0.7182663887921E-02  0.0000000000000E+00  0.7282370691239E-03
 0.1640152350512E-02 -0.7138415818622E-02  0.0000000000000E+00  0.6526021360097E-03
 0.1622869341426E-02 -0.7090428338507E-02  0.0000000000000E+00  0.5780119538237E-03
 0.1598246862817E-02 -0.7038809154471E-02  0.0000000000000E+00  0.5028370321751E-03
 0.1566806239896E-02 -0.6983266987634E-02  0.0000000000000E+00  0.4257482749261E-03
 0.1528750973270E-02 -0.6923169724383E-02  0.0000000000000E+00  0.3458449567254E-03
 0.1484062139283E-02 -0.6857585884389E-02  0.0000000000000E+00  0.2627780452014E-03
 0.1432603774762E-02 -0.6785325156722E-02  0.0000000000000E+00  0.1768828823407E-03
 0.1374248189236E-02 -0.6704988889226E-02  0.0000000000000E+00  0.8931516676766E-04
 0.1309022946823E-02 -0.6615032800459E-02  0.0000000000000E+00  0.2167016908278E-05
 0.1237275786989E-02 -0.6513843425091E-02  0.0000000000000E+00 -0.8144973447732E-04
 0.1159854975442E-02 -0.6399857893779E-02  0.0000000000000E+00 -0.1573705950721E-03
 0.1078335274301E-02 -0.6271865439520E-02  0.0000000000000E+00 -0.2204456008063E-03
 0.9951970313093E-03 -0.6129176135568E-02  0.0000000000000E+00 -0.2645834961007E-03
 0.9139532267859E-03 -0.5971507003031E-02  0.0000000000000E+00 -0.2825600521332E-03
 0.8394120594550E-03 -0.5799007478731E-02  0.0000000000000E+00 -0.2657157818489E-03
 0.7781766395881E-03 -0.5612577907154E-02  0.0000000000000E+00 -0.2037113162092E-03
 0.7394256784181E-03 -0.5414512155771E-02  0.0000000000000E+00 -0.8457018943847E-04
 0.7359705983605E-03 -0.5209462092321E-02  0.0000000000000E+00  0.1046482913689E-03
 0.7854985179828E-03 -0.5005673177115E-02  0.0000000000000E+00  0.3760508394035E-03
 0.9117346612039E-03 -0.4816322666739E-02  0.0000000000000E+00  0.7373081966294E-03
 0.1144959413365E-02 -0.4660381466262E-02  0.0000000000000E+00  0.1185698691527E-02
 0.1520872301654E-02 -0.4562307362979E-02  0.0000000000000E+00  0.1699327970868E-02
 0.2076052079758E-02 -0.4549511314841E-02  0.0000000000000E+00  0.2225884283602E-02
 0.2838295505841E-02 -0.4645640504108E-02  0.0000000000000E+00  0.2673276233266E-02
 0.3811856983534E-02 -0.4859229406932E-02  0.0000000000000E+00  0.2910442171979E-02
 0.4962035606250E-02 -0.5171114579383E-02  0.0000000000000E+00  0.2787930460903E-02
 0.6205389948037E-02 -0.5527593569319E-02  0.0000000000000E+00  0.2177531081542E-02
 0.7411363004524E-02 -0.5841045152688E-02  0.0000000000000E+00  0.1054730265127E-02
 0.1393735394748E-03 -0.6854018921683E-02  0.0000000000000E+00  0.1083654806817E-02
 0.4210759454630E-03 -0.7023243316932E-02  0.0000000000000E+00  0.1326524326463E-02
 0.6965425884401E-03 -0.7179966942827E-02  0.0000000000000E+00  0.1458280999837E-02
 0.9474632818344E-03 -0.7311707536014E-02  0.0000000000000E+00  0.1492832038365E-02
 0.1161598506887E-02 -0.7411307288396E-02  0.0000000000000E+00  0.1455042477480E-02
 0.1334199382218E-02 -0.7477633648048E-02  0.0000000000000E+00  0.1372084506159E-02
 0.1466569295158E-02 -0.7514015634240E-02  0.0000000000000E+00  0.1266890302903E-02
 0.1563525167444E-02 -0.7525962164510E-02  0.0000000000000E+00  0.1155448277719E-02
 0.1631145728361E-02 -0.7519310967592E-02  0.0000000000000E+00  0.1047060272768E-02
 0.1675334270851E-02 -0.7499174553157E-02  0.0000000000000E+00  0.9459506029271E-03
 0.1701134601379E-02 -0.7469548873047E-02  0.0000000000000E+00  0.8530481914063E-03
 0.1712536803527E-02 -0.7433309441283E-02  0.0000000000000E+00  0.7674093243893E-03
 0.1712531173096E-02 -0.7392370620707E-02  0.0000000000000E+00  0.6871804425448E-03
 0.1703255016187E-02 -0.7347877836030E-02  0.0000000000000E+00  0.6101868421912E-03
 0.1686152920305E-02 -0.7300374668419E-02  0.0000000000000E+00  0.5342719850686E-03
 0.1662118757687E-02 -0.7249927366973E-02  0.0000000000000E+00  0.4574926765543E-03
 0.1631612754365E-02 -0.7196208218085E-02  0.0000000000000E+00  0.3782447550782E-03
 0.1594760777539E-02 -0.7138549170805E-02  0.0000000000000E+00  0.2953705119809E-03
 0.1551445830932E-02 -0.7075975253993E-02  0.0000000000000E+00  0.2082711670317E-03
 0.1501408869107E-02 -0.7007235693463E-02  0.0000000000000E+00  0.1170388263038E-03
 0.1444371736778E-02 -0.6930845828168E-02  0.0000000000000E+00  0.2260013427977E-04
 0.1380185756498E-02 -0.6845143836391E-02  0.0000000000000E+00 -0.7315713675321E-04
 0.1309000820087E-02 -0.6748362823216E-02  0.0000000000000E+00 -0.1672944802629E-03
 0.1231448421057E-02 -0.6638746728498E-02  0.0000000000000E+00 -0.2557918484489E-03
 0.1148866869024E-02 -0.6514854762805E-02  0.0000000000000E+00 -0.3336208522383E-03
 0.1063464415970E-02 -0.6375715637327E-02  0.0000000000000E+00 -0.3947832465058E-03
 0.9784137875880E-03 -0.6220667448045E-02  0.0000000000000E+00 -0.4320771882159E-03
 0.8980873761557E-03 -0.6049334055496E-02  0.0000000000000E+00 -0.4366945471894E-03
 0.8285559552369E-03 -0.5861910794085E-02  0.0000000000000E+00 -0.3978079158782E-03
 0.7784169950887E-03 -0.5659806743735E-02  0.0000000000000E+00 -0.3023747902498E-03
 0.7599788437434E-03 -0.5446666487006E-02  0.0000000000000E+00 -0.1355072379201E-03
 0.7907579468239E-03 -0.5229765598272E-02  0.0000000000000E+00  0.1180605704790E-03
 0.8950823875986E-03 -0.5021678159528E-02  0.0000000000000E+00  0.4705993728849E-03
 0.1105266575095E-02 -0.4841674523715E-02  0.0000000000000E+00  0.9252746486210E-03
 0.1461257108224E-02 -0.4716133110322E-02  0.0000000000000E+00  0.1466308366739E-02
 0.2006600593271E-02 -0.4676655225281E-02  0.0000000000000E+00  0.2045082293767E-02
 0.2778095985803E-02 -0.4753160622041E-02  0.0000000000000E+00  0.2566473893754E-02
 0.3788433657164E-02 -0.4960629631563E-02  0.0000000000000E+00  0.2885505031548E-02
 0.5005089057391E-02 -0.5282493216711E-02  0.0000000000000E+00  0.2826872519831E-02
 0.6339243787798E-02 -0.5660767845020E-02  0.0000000000000E+00  0.2236365314301E-02
 0.7626446280712E-02 -0.5987261572121E-02  0.0000000000000E+00  0.1038739310345E-02
 0.1488899536328E-03 -0.7061708761929E-02  0.0000000000000E+00  0.1189436168763E-02
 0.4497909068926E-03 -0.7241925406919E-02  0.0000000000000E+00  0.1425471173990E-02
 0.7429936524841E-03 -0.7407486625737E-02  0.0000000000000E+00  0.1540438443035E-02
 0.1007533373960E-02 -0.7544271156621E-02  0.0000000000000E+00  0.1551655325267E-02
 0.1230150828318E-02 -0.7644846832891E-02  0.0000000000000E+00  0.1488857736959E-02
 0.1406624482003E-02 -0.7708966976055E-02  0.0000000000000E+00  0.1383237797754E-02
 0.1539580408816E-02 -0.7741313674020E-02  0.0000000000000E+00  0.1259851075486E-02
 0.1635234500057E-02 -0.7748625713849E-02  0.0000000000000E+00  0.1135099626322E-02
 0.1700760912984E-02 -0.7737588246706E-02  0.0000000000000E+00  0.1017683046998E-02
 0.1742773563627E-02 -0.7713778215630E-02  0.0000000000000E+00  0.9108427119828E-03
 0.1766710841109E-02 -0.7681381911456E-02  0.0000000000000E+00  0.8145248718336E-03
 0.1776745976932E-02 -0.7643307696909E-02  0.0000000000000E+00  0.7269613992921E-03
 0.1775928726020E-02 -0.7601430426111E-02  0.0000000000000E+00  0.6456600669534E-03
 0.1766390723704E-02 -0.7556834353153E-02  0.0000000000000E+00  0.5679642095407E-03
 0.1749539345263E-02 -0.7510005527866E-02  0.0000000000000E+00  0.4913473964926E-03
 0.1726215851263E-02 -0.7460965539618E-02  0.0000000000000E+00  0.4135660900860E-03
 0.1696817330884E-02 -0.7409354458591E-02  0.0000000000000E+00  0.3327510682071E-03
 0.1661393822653E-02 -0.7354478050278E-02  0.0000000000000E+00  0.2474907740420E-03
 0.1619733892879E-02 -0.7295331293953E-02  0.0000000000000E+00  0.1569308339812E-03
 0.1571458866715E-02 -0.7230618181136E-02  0.0000000000000E+00  0.6090469300860E-04
 0.1516141911373E-02 -0.7158783412123E-02  0.0000000000000E+00 -0.3991389446209E-04
 0.1453458040580E-02 -0.7078062407456E-02  0.0000000000000E+00 -0.1438715586436E-03
 0.1383358724552E-02 -0.6986549588248E-02  0.0000000000000E+00 -0.2482386469306E-03
 0.1306259348190E-02 -0.6882311607193E-02  0.0000000000000E+00 -0.3491840422489E-03
 0.1223263640302E-02 -0.6763695147761E-02  0.0000000000000E+00 -0.4418618447234E-03
 0.1136306691304E-02 -0.6629464448681E-02  0.0000000000000E+00 -0.5204541827707E-03
 0.1048207837183E-02 -0.6478588761555E-02  0.0000000000000E+00 -0.5779051707829E-03
 0.9628655031919E-03 -0.6310159251694E-02  0.0000000000000E+00 -0.6054218609146E-03
 0.8857390771005E-03 -0.6123626901597E-02  0.0000000000000E+00 -0.5918882622254E-03
 0.8247057037901E-03 -0.5919422865781E-02  0.0000000000000E+00 -0.5234123214894E-03
 0.7913499252868E-03 -0.5700007788724E-02  0.0000000000000E+00 -0.3833451229804E-03
 0.8026998447275E-03 -0.5471394071996E-02  0.0000000000000E+00 -0.1533144346034E-03
 0.8832908846647E-03 -0.5245128156661E-02  0.0000000000000E+00  0.1838202974432E-03
 0.1067102806884E-02 -0.5040274723364E-02  0.0000000000000E+00  0.6379733670169E-03
 0.1398251674987E-02 -0.4884735298423E-02  0.0000000000000E+00  0.1201168111576E-02
 0.1927876050117E-02 -0.4814377991968E-02  0.0000000000000E+00  0.1830852652111E-02
 0.2703561738611E-02 -0.4866359312085E-02  0.0000000000000E+00  0.2430961543252E-02
 0.3748905523757E-02 -0.5063890195615E-02  0.0000000000000E+00  0.2842423367930E-02
 0.5037029727984E-02 -0.5395091410712E-02  0.0000000000000E+00  0.2860249705082E-02
 0.6468029130159E-02 -0.5795636758599E-02  0.0000000000000E+00  0.2293523571657E-02
 0.7879116227821E-02 -0.6149550953990E-02  0.0000000000000E+00  0.1020532730376E-02
 0.1593313003040E-03 -0.7272297196099E-02  0.0000000000000E+00  0.1302330476089E-02
 0.4812584726702E-03 -0.7464425955621E-02  0.0000000000000E+00  0.1530341233006E-02
 0.7936039334173E-03 -0.7639234120627E-02  0.0000000000000E+00  0.1625791677943E-02
 0.1072266650688E-02 -0.7780712298699E-02  0.0000000000000E+00  0.1610418504272E-02
 0.1302995597380E-02 -0.7881309775951E-02  0.0000000000000E+00  0.1519934301242E-02
 0.1482453679090E-02 -0.7942035565672E-02  0.0000000000000E+00  0.1390108518053E-02
 0.1614975208964E-02 -0.7969252749000E-02  0.0000000000000E+00  0.1248086695965E-02
 0.1708423670559E-02 -0.7971099398851E-02  0.0000000000000E+00  0.1110351268086E-02
 0.1771167192312E-02 -0.7955136803272E-02  0.0000000000000E+00  0.9846391976287E-03
 0.1810533031738E-02 -0.7927360152680E-02  0.0000000000000E+00  0.8729486463073E-03
 0.1832316257560E-02 -0.7892079405891E-02  0.0000000000000E+00  0.7740979756202E-03
 0.1840828312590E-02 -0.7852176735470E-02  0.0000000000000E+00  0.6854336611115E-03
 0.1839140895916E-02 -0.7809445031613E-02  0.0000000000000E+00  0.6038129794591E-03
 0.1829353631082E-02 -0.7764881352292E-02  0.0000000000000E+00  0.5261093441995E-03
 0.1812820845739E-02 -0.7718901662146E-02  0.0000000000000E+00  0.4494471390790E-03
 0.1790323917627E-02 -0.7671480754160E-02  0.0000000000000E+00  0.3713033311676E-03
 0.1762196013536E-02 -0.7622232334453E-02  0.0000000000000E+00  0.2895596747797E-03
 0.1728414983500E-02 -0.7570447874308E-02  0.0000000000000E+00  0.2025587191801E-03
 0.1688680843403E-02 -0.7515108368533E-02  0.0000000000000E+00  0.1091881884702E-03
 0.1642501134863E-02 -0.7454890784227E-02  0.0000000000000E+00  0.9009567441293E-05
 0.1589304324485E-02 -0.7388187619900E-02  0.0000000000000E+00 -0.9757918033090E-04
 0.1528590926419E-02 -0.7313149282918E-02  0.0000000000000E+00 -0.2091884939081E-03
 0.1460115474139E-02 -0.7227749375683E-02  0.0000000000000E+00 -0.3233315523843E-03
 0.1384081252179E-02 -0.7129897272274E-02  0.0000000000000E+00 -0.4364078609726E-03
 0.1301364960293E-02 -0.7017750699400E-02  0.0000000000000E+00 -0.5438121459154E-03
 0.1213635844020E-02 -0.6889835191255E-02  0.0000000000000E+00 -0.6399941089665E-03
 0.1123357470484E-02 -0.6744773573871E-02  0.0000000000000E+00 -0.7181730617075E-03
 0.1033928538881E-02 -0.6581133588148E-02  0.0000000000000E+00 -0.7697504351667E-03
 0.9501308546923E-03 -0.6397603272932E-02  0.0000000000000E+00 -0.7835522191946E-03
 0.8789923421839E-03 -0.6193566447309E-02  0.0000000000000E+00 -0.7451102297243E-03
 0.8311522628980E-03 -0.5970143599031E-02  0.0000000000000E+00 -0.6362971607304E-03
 0.8228036847738E-03 -0.5731791809323E-02  0.0000000000000E+00 -0.4358323441191E-03
 0.8782084957645E-03 -0.5488557909170E-02  0.0000000000000E+00 -0.1216133199623E-03
 0.1032476608589E-02 -0.5258663018779E-02  0.0000000000000E+00  0.3237522556450E-03
 0.1333573740704E-02 -0.5070903123082E-02  0.0000000000000E+00  0.9018587118927E-03
 0.1840680733687E-02 -0.4965239010262E-02  0.0000000000000E+00  0.1579098742273E-02
 0.2613964595726E-02 -0.4986947281486E-02  0.0000000000000E+00  0.2261531051558E-02
 0.3691418593662E-02 -0.5169693595794E-02  0.0000000000000E+00  0.2776649855688E-02
 0.5054346619709E-02 -0.5508645243770E-02  0.0000000000000E+00  0.2885986769984E-02
 0.6597114224863E-02 -0.5934954005081E-02  0.0000000000000E+00  0.2347776814330E-02
 0.8138522860061E-02 -0.6322892306124E-02  0.0000000000000E+00  0.1011802722842E-02
 0.1708615797163E-03 -0.7486254323036E-02  0.0000000000000E+00  0.1422994924845E-02
 0.5159512330243E-03 -0.7691344800484E-02  0.0000000000000E+00  0.1641492742340E-02
 0.8490119774732E-03 -0.7875784549454E-02  0.0000000000000E+00  0.1714090292727E-02
 0.1142230286004E-02 -0.8021400085985E-02  0.0000000000000E+00  0.1668303934008E-02
 0.1380472971129E-02 -0.8120780643335E-02  0.0000000000000E+00  0.1547195977477E-02
 0.1561781598773E-02 -0.8176682819192E-02  0.0000000000000E+00  0.1391683034889E-02
 0.1692670026880E-02 -0.8197536253290E-02  0.0000000000000E+00  0.1230826749461E-02
 0.1782914761598E-02 -0.8193040391774E-02  0.0000000000000E+00  0.1080712348580E-02
 0.1842155526681E-02 -0.8171626305569E-02  0.0000000000000E+00  0.9476726019623E-03
 0.1878407603231E-02 -0.8139627759896E-02  0.0000000000000E+00  0.8321791935415E-03
 0.1897763715303E-02 -0.8101390137346E-02  0.0000000000000E+00  0.7317851050308E-03
 0.1904616349815E-02 -0.8059699647604E-02  0.0000000000000E+00  0.6429075847279E-03
 0.1902015838906E-02 -0.8016220776786E-02  0.0000000000000E+00  0.5617581394955E-03
 0.1892001381809E-02 -0.7971836795658E-02  0.0000000000000E+00  0.4847654096972E-03
 0.1875858286099E-02 -0.7926881963024E-02  0.0000000000000E+00  0.4087351150855E-03
 0.1854301643101E-02 -0.7881283697161E-02  0.0000000000000E+00  0.3308930298029E-03
 0.1827601405041E-02 -0.7834637122369E-02  0.0000000000000E+00  0.2488938251196E-03
 0.1795668877840E-02 -0.7786233656000E-02  0.0000000000000E+00  0.1608468261806E-03
 0.1758123822662E-02 -0.7735059233229E-02  0.0000000000000E+00  0.6538295697608E-04
 0.1714368364050E-02 -0.7679785273615E-02  0.0000000000000E+00 -0.3821977289178E-04
 0.1663692404343E-02 -0.7618773815295E-02  0.0000000000000E+00 -0.1498618524850E-03
 0.1605425278795E-02 -0.7550110955156E-02  0.0000000000000E+00 -0.2684471932405E-03
 0.1539127399328E-02 -0.7471670074906E-02  0.0000000000000E+00 -0.3917648352336E-03
 0.1464796442835E-02 -0.7381226679419E-02  0.0000000000000E+00 -0.5164835400114E-03
 0.1383094668033E-02 -0.7276778385469E-02  0.0000000000000E+00 -0.6382927011916E-03
 0.1295440940410E-02 -0.7156645937758E-02  0.0000000000000E+00 -0.7519943846680E-03
 0.1203951635614E-02 -0.7019140005787E-02  0.0000000000000E+00 -0.8512147998819E-03
 0.1111513247986E-02 -0.6862330736889E-02  0.0000000000000E+00 -0.9277396810369E-03
 0.1022179022457E-02 -0.6684147174137E-02  0.0000000000000E+00 -0.9705923134250E-03
 0.9420142248764E-03 -0.6482885196043E-02  0.0000000000000E+00 -0.9650518707307E-03
 0.8805003059210E-03 -0.6258199815559E-02  0.0000000000000E+00 -0.8918890439419E-03
 0.8526330203250E-03 -0.6012718597411E-02  0.0000000000000E+00 -0.7272704000589E-03
 0.8818457652232E-03 -0.5754487980327E-02  0.0000000000000E+00 -0.4442612813867E-03
 0.1003665432681E-02 -0.5500119071384E-02  0.0000000000000E+00 -0.1747813053621E-04
 0.1269299032932E-02 -0.5278404273157E-02  0.0000000000000E+00  0.5660001169595E-03
 0.1746108440417E-02 -0.5132868951237E-02  0.0000000000000E+00  0.1284912541685E-02
 0.2508716587744E-02 -0.5117616116877E-02  0.0000000000000E+00  0.2051652472131E-02
 0.3613438731081E-02 -0.5279337281738E-02  0.0000000000000E+00  0.2682587892714E-02
 0.5054879948133E-02 -0.5623669421821E-02  0.0000000000000E+00  0.2900607498352E-02
 0.6723440265378E-02 -0.6080401131417E-02  0.0000000000000E+00  0.2404599526006E-02
 0.8409302819305E-02 -0.6505657722625E-02  0.0000000000000E+00  0.1005870441793E-02
 0.1836867999617E-03 -0.7704160475379E-02  0.0000000000000E+00  0.1552192765331E-02
 0.5544552032649E-03 -0.7923413142818E-02  0.0000000000000E+00  0.1759291114199E-02
 0.9099838485119E-03 -0.8117810338705E-02  0.0000000000000E+00  0.1804920244382E-02
 0.1218062595640E-02 -0.8266719894245E-02  0.0000000000000E+00  0.1724228296110E-02
 0.1462918508066E-02 -0.8363284663850E-02  0.0000000000000E+00  0.1569322699278E-02
 0.1644649307444E-02 -0.8412657868875E-02  0.0000000000000E+00  0.1386798943950E-02
 0.1772514651623E-02 -0.8425776918348E-02  0.0000000000000E+00  0.1207249081611E-02
 0.1858472875906E-02 -0.8414037768245E-02  0.0000000000000E+00  0.1045703278255E-02
 0.1913476636184E-02 -0.8386683122603E-02  0.0000000000000E+00  0.9065659558490E-03
 0.1946167172034E-02 -0.8350264510160E-02  0.0000000000000E+00  0.7884883784478E-03
 0.1962851952043E-02 -0.8309051641270E-02  0.0000000000000E+00  0.6876402158391E-03
 0.1967935246047E-02 -0.8265655492690E-02  0.0000000000000E+00  0.5994900891065E-03
 0.1964397862822E-02 -0.8221563313813E-02  0.0000000000000E+00  0.5196285335237E-03
 0.1954188987888E-02 -0.8177518651236E-02  0.0000000000000E+00  0.4440790605857E-03
 0.1938509415569E-02 -0.8133764121281E-02  0.0000000000000E+00  0.3693694862517E-03
 0.1918002772229E-02 -0.8090181123675E-02  0.0000000000000E+00  0.2925102745596E-03
 0.1892878193237E-02 -0.8046356053497E-02  0.0000000000000E+00  0.2109570447794E-03
 0.1862988249927E-02 -0.8001596926234E-02  0.0000000000000E+00  0.1226036796788E-03
 0.1827883391981E-02 -0.7954916538752E-02  0.0000000000000E+00  0.2582935967346E-04
 0.1786871556855E-02 -0.7905005807703E-02  0.0000000000000E+00 -0.8038069080968E-04
 0.1739112687878E-02 -0.7850221746770E-02  0.0000000000000E+00 -0.1962478407096E-03
 0.1683769801150E-02 -0.7788610038870E-02  0.0000000000000E+00 -0.3209997899270E-03
 0.1620212971882E-02 -0.7717967039031E-02  0.0000000000000E+00 -0.4527337230240E-03
 0.1548242747237E-02 -0.7635960717803E-02  0.0000000000000E+00 -0.5884224900141E-03
 0.1468324364619E-02 -0.7540462134972E-02  0.0000000000000E+00 -0.7240981374989E-03
 0.1381650261835E-02 -0.7429628902608E-02  0.0000000000000E+00 -0.8549944700826E-03
 0.1290010088086E-02 -0.7301505661823E-02  0.0000000000000E+00 -0.9752746314339E-03
 0.1195780732633E-02 -0.7153708312004E-02  0.0000000000000E+00 -0.1077303515001E-02
 0.1102254742689E-02 -0.6983436454418E-02  0.0000000000000E+00 -0.1150573882773E-02
 0.1014444010962E-02 -0.6787893493939E-02  0.0000000000000E+00 -0.1180476986480E-02
 0.9404817290516E-03 -0.6565189063135E-02  0.0000000000000E+00 -0.1147147061020E-02
 0.8938084047546E-03 -0.6315889485305E-02  0.0000000000000E+00 -0.1024724321121E-02
 0.8964198048500E-03 -0.6045543295561E-02  0.0000000000000E+00 -0.7818482201802E-03
 0.9833684438021E-03 -0.5768277919340E-02  0.0000000000000E+00 -0.3849712496858E-03
 0.1208133917974E-02 -0.5511681917032E-02  0.0000000000000E+00  0.1917272583452E-03
 0.1645952286103E-02 -0.5321829364487E-02  0.0000000000000E+00  0.9431389251674E-03
 0.2387571929186E-02 -0.5261978305586E-02  0.0000000000000E+00  0.1793702027862E-02
 0.3512402679320E-02 -0.5394655203433E-02  0.0000000000000E+00  0.2552741205725E-02
 0.5035052589398E-02 -0.5740962160444E-02  0.0000000000000E+00  0.2901102102917E-02
 0.6844520398455E-02 -0.6231856323959E-02  0.0000000000000E+00  0.2465482278637E-02
 0.8693855015227E-02 -0.6699271976169E-02  0.0000000000000E+00  0.1001010416665E-02
 0.1980693292423E-03 -0.7926740822391E-02  0.0000000000000E+00  0.1690816645158E-02
 0.5975048935425E-03 -0.8161530969934E-02  0.0000000000000E+00  0.1884091510053E-02
 0.9774422817236E-03 -0.8366097194830E-02  0.0000000000000E+00  0.1897631101286E-02
 0.1300474355042E-02 -0.8517057487434E-02  0.0000000000000E+00  0.1776760256856E-02
 0.1550642479431E-02 -0.8608754378785E-02  0.0000000000000E+00  0.1584704843329E-02
 0.1731019551446E-02 -0.8649584989993E-02  0.0000000000000E+00  0.1374142370541E-02
 0.1854275046414E-02 -0.8653478762062E-02  0.0000000000000E+00  0.1176500892526E-02
 0.1934798116232E-02 -0.8633606053315E-02  0.0000000000000E+00  0.1004881194639E-02
 0.1984839319017E-02 -0.8599890712166E-02  0.0000000000000E+00  0.8611610780600E-03
 0.2013558036542E-02 -0.8558933210307E-02  0.0000000000000E+00  0.7418868072351E-03
 0.2027368120567E-02 -0.8514794163191E-02  0.0000000000000E+00  0.6417613162167E-03
 0.2030605467110E-02 -0.8469823058229E-02  0.0000000000000E+00  0.5553173494016E-03
 0.2026129910421E-02 -0.8425280916735E-02  0.0000000000000E+00  0.4775724389226E-03
 0.2015771022156E-02 -0.8381747760279E-02  0.0000000000000E+00  0.4041999827491E-03
 0.2000630778389E-02 -0.8339367133558E-02  0.0000000000000E+00  0.3315009051580E-03
 0.1981277742566E-02 -0.8297978060852E-02  0.0000000000000E+00  0.2563136659363E-03
 0.1957864464422E-02 -0.8257170192530E-02  0.0000000000000E+00  0.1759289851010E-03
 0.1930194848042E-02 -0.8216287163118E-02  0.0000000000000E+00  0.8804858277212E-04
 0.1897763825914E-02 -0.8174393605523E-02  0.0000000000000E+00 -0.9190410861726E-05
 0.1859799630921E-02 -0.8130228855002E-02  0.0000000000000E+00 -0.1171020335836E-03
 0.1815343750966E-02 -0.8082174543434E-02  0.0000000000000E+00 -0.2362506491494E-03
 0.1763399399846E-02 -0.8028263426724E-02  0.0000000000000E+00 -0.3662193196411E-03
 0.1703150644993E-02 -0.7966240541044E-02  0.0000000000000E+00 -0.5054455427659E-03
 0.1634210642345E-02 -0.7893694966376E-02  0.0000000000000E+00 -0.6512369146854E-03
 0.1556869371535E-02 -0.7808408568810E-02  0.0000000000000E+00 -0.8000082430842E-03
 0.1472125316021E-02 -0.7708424323834E-02  0.0000000000000E+00 -0.9474959363234E-03
 0.1381474269975E-02 -0.7591578153775E-02  0.0000000000000E+00 -0.1088523927260E-02
 0.1286802400831E-02 -0.7455092629702E-02  0.0000000000000E+00 -0.1216229187119E-02
 0.1190631198469E-02 -0.7295495079092E-02  0.0000000000000E+00 -0.1320852679978E-02
 0.1096858087551E-02 -0.7108934295177E-02  0.0000000000000E+00 -0.1388289925979E-02
 0.1012113993135E-02 -0.6891954730892E-02  0.0000000000000E+00 -0.1398580003439E-02
 0.9479557295081E-03 -0.6642900782553E-02  0.0000000000000E+00 -0.1324533965874E-02
 0.9243120528266E-03 -0.6364373860961E-02  0.0000000000000E+00 -0.1131093264684E-02
 0.9747103047818E-03 -0.6067083794403E-02  0.0000000000000E+00 -0.7768500765551E-03
 0.1153525346025E-02 -0.5775906469501E-02  0.0000000000000E+00 -0.2219475669607E-03
 0.1542908596345E-02 -0.5537818890557E-02  0.0000000000000E+00  0.5486670943538E-03
 0.2250945684157E-02 -0.5424870168846E-02  0.0000000000000E+00  0.1478761086705E-02
 0.3385564388063E-02 -0.5518358796345E-02  0.0000000000000E+00  0.2377683852262E-02
 0.4990236654151E-02 -0.5861146020374E-02  0.0000000000000E+00  0.2882659129900E-02
 0.6957450513919E-02 -0.6389427643512E-02  0.0000000000000E+00  0.2531079637121E-02
 0.8994942330745E-02 -0.6905376163592E-02  0.0000000000000E+00  0.9964869166718E-03
 0.2143484991753E-03 -0.8154914038098E-02  0.0000000000000E+00  0.1839918610574E-02
 0.6460314814868E-03 -0.8406816932852E-02  0.0000000000000E+00  0.2016207486602E-02
 0.1052501982383E-02 -0.8621560040581E-02  0.0000000000000E+00  0.1991229525765E-02
 0.1390243370469E-02 -0.8772770296563E-02  0.0000000000000E+00  0.1824013250378E-02
 0.1643897796982E-02 -0.8856982065337E-02  0.0000000000000E+00  0.1591395604326E-02
 0.1820744522269E-02 -0.8886925605992E-02  0.0000000000000E+00  0.1352257461776E-02
 0.1937614057328E-02 -0.8880018240055E-02  0.0000000000000E+00  0.1137732853663E-02
 0.2011518612432E-02 -0.8851180931364E-02  0.0000000000000E+00  0.9578734381764E-03
 0.2055910537174E-02 -0.8810792457498E-02  0.0000000000000E+00  0.8113826209374E-03
 0.2080305803931E-02 -0.8765281069340E-02  0.0000000000000E+00  0.6924558917016E-03
 0.2091091324431E-02 -0.8718345770338E-02  0.0000000000000E+00  0.5942980257112E-03
 0.2092446107588E-02 -0.8671985321428E-02  0.0000000000000E+00  0.5105581834946E-03
 0.2087056446166E-02 -0.8627188224734E-02  0.0000000000000E+00  0.4357542703441E-03
 0.2076604095176E-02 -0.8584351004304E-02  0.0000000000000E+00  0.3652801150373E-03
 0.2062079865719E-02 -0.8543514066061E-02  0.0000000000000E+00  0.2952705236574E-03
 0.2043975568497E-02 -0.8504480287847E-02  0.0000000000000E+00  0.2224421868129E-03
 0.2022393296086E-02 -0.8466856646067E-02  0.0000000000000E+00  0.1439610364603E-03
 0.1997100599838E-02 -0.8430043597745E-02  0.0000000000000E+00  0.5736576629317E-04
 0.1967553672235E-02 -0.8393185566416E-02  0.0000000000000E+00 -0.3943335340179E-04
 0.1932919202235E-02 -0.8355103392170E-02  0.0000000000000E+00 -0.1480523192036E-03
 0.1892135218640E-02 -0.8314237841079E-02  0.0000000000000E+00 -0.2694200050069E-03
 0.1844053595231E-02 -0.8268640473350E-02  0.0000000000000E+00 -0.4035084615949E-03
 0.1787676824621E-02 -0.8216033302727E-02  0.0000000000000E+00 -0.5491287550782E-03
 0.1722440708280E-02 -0.8153956758558E-02  0.0000000000000E+00 -0.7039499268635E-03
 0.1648485257793E-02 -0.8080143432698E-02  0.0000000000000E+00 -0.8648002999019E-03
 0.1566655662774E-02 -0.7992575500318E-02  0.0000000000000E+00 -0.1027978263974E-02
 0.1478199139490E-02 -0.7888947131108E-02  0.0000000000000E+00 -0.1189081512595E-02
 0.1384546710700E-02 -0.7766164996954E-02  0.0000000000000E+00 -0.1342202355560E-02
 0.1287462085979E-02 -0.7620169497513E-02  0.0000000000000E+00 -0.1478602694334E-02
 0.1189702555309E-02 -0.7446139673256E-02  0.0000000000000E+00 -0.1585083318945E-02
 0.1096293470292E-02 -0.7239108492999E-02  0.0000000000000E+00 -0.1642181803286E-02
 0.1016638231382E-02 -0.6995139185843E-02  0.0000000000000E+00 -0.1622230528485E-02
 0.9679967970663E-03 -0.6713542242139E-02  0.0000000000000E+00 -0.1487544356569E-02
 0.9812117463482E-03 -0.6400694911473E-02  0.0000000000000E+00 -0.1189770114459E-02
 0.1109747613110E-02 -0.6076987045250E-02  0.0000000000000E+00 -0.6746329564740E-03
 0.1440851499106E-02 -0.5787887808969E-02  0.0000000000000E+00  0.9686475876908E-04
 0.2100260788933E-02 -0.5612793312796E-02  0.0000000000000E+00  0.1096694482298E-02
 0.3230184382035E-02 -0.5654356022818E-02  0.0000000000000E+00  0.2145285302821E-02
 0.4914667353090E-02 -0.5985095738920E-02  0.0000000000000E+00  0.2837896966764E-02
 0.7058533580532E-02 -0.6553329810711E-02  0.0000000000000E+00  0.2601411820782E-02
 0.9315749759647E-02 -0.7126063748355E-02  0.0000000000000E+00  0.9923123019014E-03
 0.2329708366773E-03 -0.8389862000457E-02  0.0000000000000E+00  0.2000748672336E-02
 0.7012298573869E-03 -0.8660675637066E-02  0.0000000000000E+00  0.2155855552121E-02
 0.1136511197609E-02 -0.8885255618975E-02  0.0000000000000E+00  0.2084222419014E-02
 0.1488196663866E-02 -0.9034137924993E-02  0.0000000000000E+00  0.1863507507493E-02
 0.1742831770766E-02 -0.9107552933871E-02  0.0000000000000E+00  0.1587067567843E-02
 0.1913525126471E-02 -0.9123932695085E-02  0.0000000000000E+00  0.1319576173341E-02
 0.2022071299463E-02 -0.9104626539639E-02  0.0000000000000E+00  0.1090150394778E-02
 0.2088185932306E-02 -0.9066118793234E-02  0.0000000000000E+00  0.9044196746980E-03
 0.2126318037686E-02 -0.9018897801712E-02  0.0000000000000E+00  0.7572645241313E-03
 0.2146120076416E-02 -0.8968946901704E-02  0.0000000000000E+00  0.6403622274935E-03
 0.2153797247119E-02 -0.8919438719805E-02  0.0000000000000E+00  0.5454584946824E-03
 0.2153278857254E-02 -0.8871934635616E-02  0.0000000000000E+00  0.4654167128950E-03
 0.2147026735597E-02 -0.8827110422127E-02  0.0000000000000E+00  0.3943548460894E-03
 0.2136549602969E-02 -0.8785164777639E-02  0.0000000000000E+00  0.3274724817539E-03
 0.2122717504610E-02 -0.8746035095385E-02  0.0000000000000E+00  0.2608077719533E-03
 0.2105945987640E-02 -0.8709497135852E-02  0.0000000000000E+00  0.1910119290200E-03
 0.2086294669846E-02 -0.8675191179274E-02  0.0000000000000E+00  0.1151717648446E-03
 0.2063509156753E-02 -0.8642597518438E-02  0.0000000000000E+00  0.3069823432511E-04
 0.2037026667458E-02 -0.8610971032118E-02  0.0000000000000E+00 -0.6470350049198E-04
 0.2005974618555E-02 -0.8579251524306E-02  0.0000000000000E+00 -0.1729489009158E-03
 0.1969206875094E-02 -0.8545979127088E-02  0.0000000000000E+00 -0.2953515633013E-03
 0.1925434951874E-02 -0.8509261220946E-02  0.0000000000000E+00 -0.4323091060386E-03
 0.1873483939811E-02 -0.8466828076550E-02  0.0000000000000E+00 -0.5830424322671E-03
 0.1812621426149E-02 -0.8416202591317E-02  0.0000000000000E+00 -0.7456058670128E-03
 0.1742865077018E-02 -0.8355108925035E-02  0.0000000000000E+00 -0.9172618118435E-03
 0.1664954866971E-02 -0.8281525410965E-02  0.0000000000000E+00 -0.1094915939233E-02
 0.1579946484394E-02 -0.8193078527653E-02  0.0000000000000E+00 -0.1275037153459E-02
 0.1488867503770E-02 -0.8086450582153E-02  0.0000000000000E+00 -0.1452838397773E-02
 0.1392761193072E-02 -0.7957107366237E-02  0.0000000000000E+00 -0.1620854932126E-02
 0.1293258394709E-02 -0.7799392152861E-02  0.0000000000000E+00 -0.1767179591133E-02
 0.1193738878245E-02 -0.7606963948768E-02  0.0000000000000E+00 -0.1873460966452E-02
 0.1101272156271E-02 -0.7373675895187E-02  0.0000000000000E+00 -0.1912517736009E-02
 0.1029935773706E-02 -0.7095374255104E-02  0.0000000000000E+00 -0.1845439106167E-02
 0.1006707124082E-02 -0.6773323023657E-02  0.0000000000000E+00 -0.1618554051066E-02
 0.1081950433611E-02 -0.6421507228952E-02  0.0000000000000E+00 -0.1163917974461E-02
 0.1345133893409E-02 -0.6080646943693E-02  0.0000000000000E+00 -0.4156960782110E-03
 0.1938458966827E-02 -0.5834451835468E-02  0.0000000000000E+00  0.6363862034996E-03
 0.3043901562396E-02 -0.5808401347946E-02  0.0000000000000E+00  0.1839957465161E-02
 0.4801285355194E-02 -0.6114319653392E-02  0.0000000000000E+00  0.2755769530276E-02
 0.7142757038457E-02 -0.6723872433282E-02  0.0000000000000E+00  0.2675712495250E-02
 0.9660133020256E-02 -0.7363959433408E-02  0.0000000000000E+00  0.9890805781702E-03
 0.2545354716187E-03 -0.8633131862233E-02  0.0000000000000E+00  0.2174804485145E-02
 0.7646530750429E-03 -0.8924889075035E-02  0.0000000000000E+00  0.2303057636226E-02
 0.1231098105681E-02 -0.9158384876971E-02  0.0000000000000E+00  0.2174384448745E-02
 0.1595170861892E-02 -0.9301279270732E-02  0.0000000000000E+00  0.1891996460451E-02
 0.1847415447001E-02 -0.9359753019330E-02  0.0000000000000E+00  0.1568985602300E-02
 0.2008861594035E-02 -0.9359598888992E-02  0.0000000000000E+00  0.1274479978435E-02
 0.2107044514253E-02 -0.9326376288289E-02  0.0000000000000E+00  0.1033086379292E-02
 0.2164274675379E-02 -0.9277702190033E-02  0.0000000000000E+00  0.8444223135939E-03
 0.2195656303976E-02 -0.9223692450751E-02  0.0000000000000E+00  0.6989779008222E-03
 0.2210701153901E-02 -0.9169570632960E-02  0.0000000000000E+00  0.5858711553040E-03
 0.2215263899490E-02 -0.9117817048355E-02  0.0000000000000E+00  0.4955151161399E-03
 0.2212932571514E-02 -0.9069478547120E-02  0.0000000000000E+00  0.4201339935938E-03
 0.2205898459436E-02 -0.9024887750095E-02  0.0000000000000E+00  0.3535709326286E-03
 0.2195476690608E-02 -0.8984038666026E-02  0.0000000000000E+00  0.2909295956907E-03
 0.2182410439693E-02 -0.8946770737946E-02  0.0000000000000E+00  0.2282279382143E-03
 0.2167041843842E-02 -0.8912844537849E-02  0.0000000000000E+00  0.1621127611171E-03
 0.2149397708948E-02 -0.8881951202870E-02  0.0000000000000E+00  0.8964229292160E-04
 0.2129217851559E-02 -0.8853675083965E-02  0.0000000000000E+00  0.8141355005681E-05
 0.2105943079360E-02 -0.8827414332701E-02  0.0000000000000E+00 -0.8486042347605E-04
 0.2078688295230E-02 -0.8802269572722E-02  0.0000000000000E+00 -0.1915682450966E-03
 0.2046247850215E-02 -0.8776927258976E-02  0.0000000000000E+00 -0.3136979006376E-03
 0.2007207416436E-02 -0.8749594484032E-02  0.0000000000000E+00 -0.4521129051608E-03
 0.1960218463017E-02 -0.8718045003928E-02  0.0000000000000E+00 -0.6064860806626E-03
 0.1904387218504E-02 -0.8679815629521E-02  0.0000000000000E+00 -0.7752803916422E-03
 0.1839637346334E-02 -0.8632661840077E-02  0.0000000000000E+00 -0.9562029212912E-03
 0.1766657814957E-02 -0.8574615104432E-02  0.0000000000000E+00 -0.1146796030945E-02
 0.1686380207695E-02 -0.8503311519797E-02  0.0000000000000E+00 -0.1344477465055E-02
 0.1599494737270E-02 -0.8415310719385E-02  0.0000000000000E+00 -0.1545719462233E-02
 0.1506384345116E-02 -0.8305740015745E-02  0.0000000000000E+00 -0.1744547173668E-02
 0.1407607798475E-02 -0.8168289085605E-02  0.0000000000000E+00 -0.1930691727705E-02
 0.1304931704879E-02 -0.7995469824598E-02  0.0000000000000E+00 -0.2087501706566E-02
 0.1203028535678E-02 -0.7779149717342E-02  0.0000000000000E+00 -0.2189300436425E-02
 0.1112435482546E-02 -0.7511773085464E-02  0.0000000000000E+00 -0.2197619173634E-02
 0.1055191389875E-02 -0.7188990663717E-02  0.0000000000000E+00 -0.2055837273708E-02
 0.1076125678386E-02 -0.6816541931678E-02  0.0000000000000E+00 -0.1684587041917E-02
 0.1262890196502E-02 -0.6426405000790E-02  0.0000000000000E+00 -0.9901468295330E-03
 0.1770704725634E-02 -0.6101429051931E-02  0.0000000000000E+00  0.8638479566619E-04
 0.2825381279367E-02 -0.5989077040947E-02  0.0000000000000E+00  0.1441927271608E-02
 0.4641578705216E-02 -0.6251547960187E-02  0.0000000000000E+00  0.2619948704549E-02
 0.7203096283566E-02 -0.6901468031245E-02  0.0000000000000E+00  0.2751794508272E-02
 0.1003286598544E-01 -0.7622378118960E-02  0.0000000000000E+00  0.9880128698003E-03
 0.2798641255862E-03 -0.8886789383440E-02  0.0000000000000E+00  0.2363895105287E-02
 0.8383469307458E-03 -0.9201741290488E-02  0.0000000000000E+00  0.2457468915454E-02
 0.1338216897636E-02 -0.9442271049173E-02  0.0000000000000E+00  0.2258411628212E-02
 0.1711935326685E-02 -0.9574016518010E-02  0.0000000000000E+00  0.1905257133861E-02
 0.1957343030875E-02 -0.9612445496558E-02  0.0000000000000E+00  0.1534018409897E-02
 0.2105997268687E-02 -0.9592602610754E-02  0.0000000000000E+00  0.1215409125606E-02
 0.2191776324783E-02 -0.9544177797429E-02  0.0000000000000E+00  0.9660982177130E-03
 0.2239188470349E-02 -0.9485153550568E-02  0.0000000000000E+00  0.7780031384290E-03
 0.2263496548111E-02 -0.9424653247222E-02  0.0000000000000E+00  0.6368582630412E-03
 0.2273748873974E-02 -0.9366805146237E-02  0.0000000000000E+00  0.5293582954903E-03
 0.2275278444109E-02 -0.9313245285656E-02  0.0000000000000E+00  0.4448083847929E-03
 0.2271248366987E-02 -0.9264446120980E-02  0.0000000000000E+00  0.3749882861227E-03
 0.2263541585129E-02 -0.9220380240023E-02  0.0000000000000E+00  0.3136139156341E-03
 0.2253265366672E-02 -0.9180839238427E-02  0.0000000000000E+00  0.2558013840491E-03
 0.2241034056990E-02 -0.9145575191222E-02  0.0000000000000E+00  0.1976295725091E-03
 0.2227121676317E-02 -0.9114348271388E-02  0.0000000000000E+00  0.1358050240555E-03
 0.2211533245454E-02 -0.9086919111395E-02  0.0000000000000E+00  0.6741176655342E-04
 0.2194020129706E-02 -0.9063000693516E-02  0.0000000000000E+00 -0.1026365616580E-04
 0.2174051589465E-02 -0.9042168460246E-02  0.0000000000000E+00 -0.9982836095923E-04
 0.2150761460007E-02 -0.9023729773730E-02  0.0000000000000E+00 -0.2037575102732E-03
 0.2122915890467E-02 -0.9006572192741E-02  0.0000000000000E+00 -0.3241811841612E-03
 0.2088994430073E-02 -0.8989055625259E-02  0.0000000000000E+00 -0.4624731531659E-03
 0.2047478663348E-02 -0.8969038414658E-02  0.0000000000000E+00 -0.6188098202026E-03
 0.1997316551109E-02 -0.8944102975237E-02  0.0000000000000E+00 -0.7920898633692E-03
 0.1938364749910E-02 -0.8912072411847E-02  0.0000000000000E+00 -0.9804676326350E-03
 0.1871319633870E-02 -0.8871084093227E-02  0.0000000000000E+00 -0.1182135200022E-02
 0.1797064116169E-02 -0.8818858790074E-02  0.0000000000000E+00 -0.1395513282922E-02
 0.1716028482415E-02 -0.8751939602197E-02  0.0000000000000E+00 -0.1618436480632E-02
 0.1628015127624E-02 -0.8665270188785E-02  0.0000000000000E+00 -0.1846584175727E-02
 0.1532604025545E-02 -0.8552112713367E-02  0.0000000000000E+00 -0.2071603642711E-02
 0.1430057426231E-02 -0.8404147251787E-02  0.0000000000000E+00 -0.2279060209349E-02
 0.1322726128346E-02 -0.8211646127965E-02  0.0000000000000E+00 -0.2445772558869E-02
 0.1217469349014E-02 -0.7964003166301E-02  0.0000000000000E+00 -0.2535531415570E-02
 0.1130579537257E-02 -0.7651196106408E-02  0.0000000000000E+00 -0.2491784616745E-02
 0.1098938072490E-02 -0.7269296768205E-02  0.0000000000000E+00 -0.2227735564531E-02
 0.1203273156344E-02 -0.6837138932742E-02  0.0000000000000E+00 -0.1623759235592E-02
 0.1605300486088E-02 -0.6428964051900E-02  0.0000000000000E+00 -0.5637382789123E-03
 0.2575402000252E-02 -0.6209242441285E-02  0.0000000000000E+00  0.9267216208566E-03
 0.4425560181884E-02 -0.6401751196365E-02  0.0000000000000E+00  0.2406423981698E-02
 0.7229509931855E-02 -0.7086735858960E-02  0.0000000000000E+00  0.2824726802792E-02
 0.1043996673649E-01 -0.7905579027613E-02  0.0000000000000E+00  0.9911253929525E-03
 0.3101120496288E-03 -0.9153656026569E-02  0.0000000000000E+00  0.2570221517686E-02
 0.9250435730543E-03 -0.9494187843248E-02  0.0000000000000E+00  0.2618070748793E-02
 0.1460180326366E-02 -0.9738285091860E-02  0.0000000000000E+00  0.2331403620975E-02
 0.1839053028773E-02 -0.9851655645536E-02  0.0000000000000E+00  0.1897856802336E-02
 0.2071893851741E-02 -0.9863911467763E-02  0.0000000000000E+00  0.1478727821583E-02
 0.2203861415652E-02 -0.9821262133712E-02  0.0000000000000E+00  0.1141038355919E-02
 0.2275352404470E-02 -0.9756792040544E-02  0.0000000000000E+00  0.8890889505478E-03
 0.2312274728764E-02 -0.9687659359643E-02  0.0000000000000E+00  0.7055615809552E-03
 0.2329401183572E-02 -0.9621267977124E-02  0.0000000000000E+00  0.5714293008790E-03
 0.2334973561361E-02 -0.9560330377533E-02  0.0000000000000E+00  0.4713177112113E-03
 0.2333644989771E-02 -0.9505518156349E-02  0.0000000000000E+00  0.3937482263959E-03
 0.2328085136194E-02 -0.9456694666575E-02  0.0000000000000E+00  0.3302936416675E-03
 0.2319842414816E-02 -0.9413472602113E-02  0.0000000000000E+00  0.2747074603134E-03
 0.2309809711729E-02 -0.9375453919671E-02  0.0000000000000E+00  0.2222326001599E-03
 0.2298475212123E-02 -0.9342319779436E-02  0.0000000000000E+00  0.1690917480195E-03
 0.2286052498358E-02 -0.9313847411448E-02  0.0000000000000E+00  0.1121163582416E-03
 0.2272536740196E-02 -0.9289886033088E-02  0.0000000000000E+00  0.4847309109754E-04
 0.2257708552834E-02 -0.9270301063657E-02  0.0000000000000E+00 -0.2453612931624E-04
 0.2241091906544E-02 -0.9254878993949E-02  0.0000000000000E+00 -0.1096058410752E-03
 0.2221875525808E-02 -0.9243182948535E-02  0.0000000000000E+00 -0.2094476161188E-03
 0.2198836816280E-02 -0.9234365173803E-02  0.0000000000000E+00 -0.3266080638441E-03
 0.2170376703129E-02 -0.9227003982364E-02  0.0000000000000E+00 -0.4630185874425E-03
 0.2134811822362E-02 -0.9219092748471E-02  0.0000000000000E+00 -0.6194250849237E-03
 0.2090929841292E-02 -0.9208292352567E-02  0.0000000000000E+00 -0.7951995004458E-03
 0.2038543526138E-02 -0.9192523805583E-02  0.0000000000000E+00 -0.9889426792631E-03
 0.1978416515188E-02 -0.9170073183386E-02  0.0000000000000E+00 -0.1199494749382E-02
 0.1911462856711E-02 -0.9138810973317E-02  0.0000000000000E+00 -0.1426307269412E-02
 0.1837937154141E-02 -0.9095366586808E-02  0.0000000000000E+00 -0.1668635109672E-02
 0.1757155887674E-02 -0.9034666798204E-02  0.0000000000000E+00 -0.1923907214820E-02
 0.1667847438848E-02 -0.8949808955945E-02  0.0000000000000E+00 -0.2185869234581E-02
 0.1568952238944E-02 -0.8832036690616E-02  0.0000000000000E+00 -0.2442697162610E-02
 0.1460723477844E-02 -0.8670582123817E-02  0.0000000000000E+00 -0.2674573030231E-02
 0.1346474352985E-02 -0.8452458772442E-02  0.0000000000000E+00 -0.2849348578546E-02
 0.1236371273401E-02 -0.8162490728168E-02  0.0000000000000E+00 -0.2913965625964E-02
 0.1157352926911E-02 -0.7786511124164E-02  0.0000000000000E+00 -0.2779901983638E-02
 0.1177497267384E-02 -0.7326136932466E-02  0.0000000000000E+00 -0.2307853183678E-02
 0.1454781374284E-02 -0.6836702364954E-02  0.0000000000000E+00 -0.1320879325167E-02
 0.2298626005056E-02 -0.6488128075981E-02  0.0000000000000E+00  0.2653197550782E-03
 0.4142131410771E-02 -0.6573971467761E-02  0.0000000000000E+00  0.2080065791068E-02
 0.7207465465916E-02 -0.7280839031151E-02  0.0000000000000E+00  0.2884275349770E-02
 0.1088912455162E-01 -0.8219196285288E-02  0.0000000000000E+00  0.1001502779319E-02
 0.3469492947657E-03 -0.9437687884909E-02  0.0000000000000E+00  0.2796473774149E-02
 0.1028441794806E-02 -0.9806082463936E-02  0.0000000000000E+00  0.2782614235128E-02
 0.1599648104461E-02 -0.1004766151023E-01  0.0000000000000E+00  0.2386091647061E-02
 0.1976639757955E-02 -0.1013263844791E-01  0.0000000000000E+00  0.1862938855782E-02
 0.2189752872288E-02 -0.1011165974150E-01  0.0000000000000E+00  0.1399600595806E-02
 0.2301023974412E-02 -0.1004351637009E-01  0.0000000000000E+00  0.1050537154666E-02
 0.2356719109009E-02 -0.9962868854876E-02  0.0000000000000E+00  0.8024444256708E-03
 0.2382849918412E-02 -0.9884405860456E-02  0.0000000000000E+00  0.6278272494682E-03
 0.2392942699905E-02 -0.9813059767107E-02  0.0000000000000E+00  0.5034201329680E-03
 0.2394108851475E-02 -0.9749869302935E-02  0.0000000000000E+00  0.4123653386449E-03
 0.2390193129483E-02 -0.9694470948310E-02  0.0000000000000E+00  0.3428121468637E-03
 0.2383325298815E-02 -0.9646116617686E-02  0.0000000000000E+00  0.2863965380420E-03
 0.2374707676861E-02 -0.9604079087349E-02  0.0000000000000E+00  0.2370840680021E-03
 0.2365021079289E-02 -0.9567794797993E-02  0.0000000000000E+00  0.1903597156275E-03
 0.2354635079523E-02 -0.9536896376543E-02  0.0000000000000E+00  0.1426712364951E-03
 0.2343712696210E-02 -0.9511197876357E-02  0.0000000000000E+00  0.9103879069097E-04
 0.2332251517047E-02 -0.9490655898647E-02  0.0000000000000E+00  0.3276917488515E-04
 0.2320078420490E-02 -0.9475310006912E-02  0.0000000000000E+00 -0.3476185936091E-04
 0.2306798297537E-02 -0.9465189181972E-02  0.0000000000000E+00 -0.1142755025149E-03
 0.2291694362962E-02 -0.9460162478817E-02  0.0000000000000E+00 -0.2086679261610E-03
 0.2273604304168E-02 -0.9459719621971E-02  0.0000000000000E+00 -0.3208875285323E-03
 0.2250889455992E-02 -0.9462739729677E-02  0.0000000000000E+00 -0.4534700754718E-03
 0.2221710416862E-02 -0.9467416877650E-02  0.0000000000000E+00 -0.6078162629717E-03
 0.2184686634860E-02 -0.9471527345779E-02  0.0000000000000E+00 -0.7838296363848E-03
 0.2139603276647E-02 -0.9473111773538E-02  0.0000000000000E+00 -0.9805624151999E-03
 0.2087348647074E-02 -0.9470629911049E-02  0.0000000000000E+00 -0.1197491770596E-02
 0.2028946615110E-02 -0.9462145980709E-02  0.0000000000000E+00 -0.1435100118559E-02
 0.1964560838045E-02 -0.9444465035476E-02  0.0000000000000E+00 -0.1694064261329E-02
 0.1893125282986E-02 -0.9412667923260E-02  0.0000000000000E+00 -0.1973571177967E-02
 0.1812670261552E-02 -0.9359977388737E-02  0.0000000000000E+00 -0.2269527350601E-02
 0.1721060468924E-02 -0.9277660060184E-02  0.0000000000000E+00 -0.2572944338261E-02
 0.1616820014091E-02 -0.9154608013124E-02  0.0000000000000E+00 -0.2868012089030E-02
 0.1500140476645E-02 -0.8976439690244E-02  0.0000000000000E+00 -0.3128232397930E-02
 0.1375234530327E-02 -0.8723998557039E-02  0.0000000000000E+00 -0.3307489479946E-02
 0.1257997411119E-02 -0.8373588617279E-02  0.0000000000000E+00 -0.3322436695817E-02
 0.1198479134469E-02 -0.7907081041350E-02  0.0000000000000E+00 -0.3025260244601E-02
 0.1337034779993E-02 -0.7349115689816E-02  0.0000000000000E+00 -0.2184162075015E-02
 0.2006378464393E-02 -0.6854234317750E-02  0.0000000000000E+00 -0.5740601692477E-03
 0.3780342771612E-02 -0.6784632123118E-02  0.0000000000000E+00  0.1590003762009E-02
 0.7115792292681E-02 -0.7486393655690E-02  0.0000000000000E+00  0.2910040850026E-02
 0.1139025209410E-01 -0.8571014322373E-02  0.0000000000000E+00  0.1023575727189E-02
 0.3928667531218E-03 -0.9744604893326E-02  0.0000000000000E+00  0.3045933691342E-02
 0.1153612711627E-02 -0.1014246656819E-01  0.0000000000000E+00  0.2946590413330E-02
 0.1759503535455E-02 -0.1037108977260E-01  0.0000000000000E+00  0.2411700373920E-02
 0.2123962422340E-02 -0.1041400480769E-01  0.0000000000000E+00  0.1792140090263E-02
 0.2308798314815E-02 -0.1035223269589E-01  0.0000000000000E+00  0.1293522302050E-02
 0.2395686479157E-02 -0.1025696370051E-01  0.0000000000000E+00  0.9439199435950E-03
 0.2434729256179E-02 -0.1016101741578E-01  0.0000000000000E+00  0.7071663167828E-03
 0.2450235449415E-02 -0.1007462524245E-01  0.0000000000000E+00  0.5458975537075E-03
 0.2453726310823E-02 -0.9999615310129E-02  0.0000000000000E+00  0.4337732362346E-03
 0.2450925995615E-02 -0.9935205300123E-02  0.0000000000000E+00  0.3532363073604E-03
 0.2444786897537E-02 -0.9879990151029E-02  0.0000000000000E+00  0.2925396201372E-03
 0.2436880577047E-02 -0.9832646336036E-02  0.0000000000000E+00  0.2436703645972E-03
 0.2428068525742E-02 -0.9792148182211E-02  0.0000000000000E+00  0.2009804610496E-03
 0.2418831194516E-02 -0.9757802277365E-02  0.0000000000000E+00  0.1603072963232E-03
 0.2409431949300E-02 -0.9729220742113E-02  0.0000000000000E+00  0.1183996502185E-03
 0.2399994983409E-02 -0.9706276010446E-02  0.0000000000000E+00  0.7252620031714E-04
 0.2390532265358E-02 -0.9689049783327E-02  0.0000000000000E+00  0.2018993015387E-04
 0.2380932052228E-02 -0.9677773949009E-02  0.0000000000000E+00 -0.4109809203287E-04
 0.2370904287224E-02 -0.9672746470055E-02  0.0000000000000E+00 -0.1140135846071E-03
 0.2359867927299E-02 -0.9674190210047E-02  0.0000000000000E+00 -0.2015625080791E-03
 0.2346780346595E-02 -0.9682013326008E-02  0.0000000000000E+00 -0.3070527106601E-03
 0.2330018987312E-02 -0.9695500162729E-02  0.0000000000000E+00 -0.4336617782612E-03
 0.2307606602922E-02 -0.9713135970829E-02  0.0000000000000E+00 -0.5835542141298E-03
 0.2277981247324E-02 -0.9732860029634E-02  0.0000000000000E+00 -0.7572593968556E-03
 0.2240906787660E-02 -0.9752843879791E-02  0.0000000000000E+00 -0.9543075301000E-03
 0.2197445536152E-02 -0.9771716979146E-02  0.0000000000000E+00 -0.1174803781530E-02
 0.2148800389904E-02 -0.9787744296810E-02  0.0000000000000E+00 -0.1420233406028E-02
 0.2095120679684E-02 -0.9797968924045E-02  0.0000000000000E+00 -0.1692625915296E-02
 0.2035063446553E-02 -0.9797793196696E-02  0.0000000000000E+00 -0.1992827278989E-02
 0.1966132256662E-02 -0.9780874455281E-02  0.0000000000000E+00 -0.2318828293832E-02
 0.1885408116496E-02 -0.9739003813815E-02  0.0000000000000E+00 -0.2664499167810E-02
 0.1790177097211E-02 -0.9661538522919E-02  0.0000000000000E+00 -0.3018364373671E-02
 0.1678217822779E-02 -0.9533960540296E-02  0.0000000000000E+00 -0.3360743780448E-02
 0.1548554070573E-02 -0.9334939601695E-02  0.0000000000000E+00 -0.3655482272274E-02
 0.1406233948793E-02 -0.9033490183014E-02  0.0000000000000E+00 -0.3831447080067E-02
 0.1279775710297E-02 -0.8592293759833E-02  0.0000000000000E+00 -0.3747752715898E-02
 0.1276025119957E-02 -0.7994956384504E-02  0.0000000000000E+00 -0.3138362602164E-02
 0.1720772246379E-02 -0.7348999181045E-02  0.0000000000000E+00 -0.1620662886257E-02
 0.3332560676360E-02 -0.7063476019523E-02  0.0000000000000E+00  0.8641796485192E-03
 0.6923679255832E-02 -0.7709767082282E-02  0.0000000000000E+00  0.2862295689912E-02
 0.1195617185579E-01 -0.8972492529996E-02  0.0000000000000E+00  0.1063000339750E-02
 0.4517111622287E-03 -0.1008298377961E-01  0.0000000000000E+00  0.3322536138910E-02
 0.1307578802814E-02 -0.1050989375072E-01  0.0000000000000E+00  0.3101274231549E-02
 0.1942472017405E-02 -0.1070784792626E-01  0.0000000000000E+00  0.2392323801463E-02
 0.2278795770250E-02 -0.1069059921622E-01  0.0000000000000E+00  0.1675901275357E-02
 0.2425897721990E-02 -0.1058108665777E-01  0.0000000000000E+00  0.1158626005630E-02
 0.2485747938414E-02 -0.1045900151144E-01  0.0000000000000E+00  0.8224521306780E-03
 0.2508220835607E-02 -0.1034990807409E-01  0.0000000000000E+00  0.6049659028294E-03
 0.2513801508448E-02 -0.1025764890559E-01  0.0000000000000E+00  0.4612532577948E-03
 0.2511415470152E-02 -0.1018061601761E-01  0.0000000000000E+00  0.3636407707340E-03
 0.2505249039729E-02 -0.1011620000710E-01  0.0000000000000E+00  0.2947747543147E-03
 0.2497333684795E-02 -0.1006202383462E-01  0.0000000000000E+00  0.2435223831163E-03
 0.2488697545010E-02 -0.1001626654650E-01  0.0000000000000E+00  0.2025076604535E-03
 0.2479884287354E-02 -0.9977666939829E-02  0.0000000000000E+00  0.1666317902055E-03
 0.2471195035833E-02 -0.9945448438119E-02  0.0000000000000E+00  0.1321839060084E-03
 0.2462803877807E-02 -0.9919235654483E-02  0.0000000000000E+00  0.9628062068615E-04
 0.2454809315554E-02 -0.9898982084597E-02  0.0000000000000E+00  0.5649228215673E-04
 0.2447248707240E-02 -0.9884910381947E-02  0.0000000000000E+00  0.1057028624155E-04
 0.2440083687346E-02 -0.9877458075166E-02  0.0000000000000E+00 -0.4377700169561E-04
 0.2433148756781E-02 -0.9877210660196E-02  0.0000000000000E+00 -0.1090981854635E-03
 0.2426037879206E-02 -0.9884785055152E-02  0.0000000000000E+00 -0.1884075228367E-03
 0.2417897037113E-02 -0.9900592953259E-02  0.0000000000000E+00 -0.2852878122775E-03
 0.2407198503618E-02 -0.9924455544402E-02  0.0000000000000E+00 -0.4035693363114E-03
 0.2391863996035E-02 -0.9955279555813E-02  0.0000000000000E+00 -0.5463135081717E-03
 0.2370135525306E-02 -0.9991239009075E-02  0.0000000000000E+00 -0.7148270552489E-03
 0.2341749105556E-02 -0.1003063717213E-01  0.0000000000000E+00 -0.9091944272170E-03
 0.2307974016748E-02 -0.1007222407753E-01  0.0000000000000E+00 -0.1130163205714E-02
 0.2270238854230E-02 -0.1011441156700E-01  0.0000000000000E+00 -0.1380166691712E-02
 0.2228735348086E-02 -0.1015449845889E-01  0.0000000000000E+00 -0.1662425075363E-02
 0.2181945412908E-02 -0.1018836620948E-01  0.0000000000000E+00 -0.1979209728369E-02
 0.2127028456679E-02 -0.1021043052634E-01  0.0000000000000E+00 -0.2330366330653E-02
 0.2060597579315E-02 -0.1021352721795E-01  0.0000000000000E+00 -0.2712435650737E-02
 0.1979270482617E-02 -0.1018832660361E-01  0.0000000000000E+00 -0.3118218520579E-02
 0.1879365385197E-02 -0.1012161812897E-01  0.0000000000000E+00 -0.3535387329634E-02
 0.1756024472888E-02 -0.9992236698629E-02  0.0000000000000E+00 -0.3939915670664E-02
 0.1605036547582E-02 -0.9765561219662E-02  0.0000000000000E+00 -0.4278703875042E-02
 0.1433491671941E-02 -0.9389965719748E-02  0.0000000000000E+00 -0.4434438259174E-02
 0.1301208815827E-02 -0.8804592224986E-02  0.0000000000000E+00 -0.4144826610662E-02
 0.1480265254448E-02 -0.8030522664073E-02  0.0000000000000E+00 -0.2889025456833E-02
 0.2801484207410E-02 -0.7464006373257E-02  0.0000000000000E+00 -0.1949401648417E-03
 0.6586892695115E-02 -0.7966734846921E-02  0.0000000000000E+00  0.2664948408106E-02
 0.1260342293437E-01 -0.9442063720893E-02  0.0000000000000E+00  0.1124770816745E-02
 0.5296551757106E-03 -0.1046626287682E-01  0.0000000000000E+00  0.3630725591544E-02
 0.1500103357229E-02 -0.1091663743194E-01  0.0000000000000E+00  0.3229891944611E-02
 0.2150166901155E-02 -0.1105400086428E-01  0.0000000000000E+00  0.2304795759875E-02
 0.2436455166035E-02 -0.1095401278581E-01  0.0000000000000E+00  0.1504741483897E-02
 0.2536827425380E-02 -0.1079272706969E-01  0.0000000000000E+00  0.9956303948164E-03
 0.2568993667074E-02 -0.1064710044646E-01  0.0000000000000E+00  0.6889902765979E-03
 0.2576120290511E-02 -0.1052838778156E-01  0.0000000000000E+00  0.4982801898839E-03
 0.2573014247100E-02 -0.1043296502648E-01  0.0000000000000E+00  0.3757521740183E-03
 0.2565759608495E-02 -0.1035587089396E-01  0.0000000000000E+00  0.2943659400857E-03
 0.2556969806221E-02 -0.1029281025912E-01  0.0000000000000E+00  0.2379151755300E-03
 0.2547792586123E-02 -0.1024059124303E-01  0.0000000000000E+00  0.1963906827247E-03
 0.2538762680405E-02 -0.1019701403296E-01  0.0000000000000E+00  0.1633100637812E-03
 0.2530145757765E-02 -0.1016066470708E-01  0.0000000000000E+00  0.1342647416171E-03
 0.2522093371314E-02 -0.1013073992704E-01  0.0000000000000E+00  0.1060776040907E-03
 0.2514711078596E-02 -0.1010691367502E-01  0.0000000000000E+00  0.7628708543539E-04
 0.2508085643964E-02 -0.1008924353613E-01  0.0000000000000E+00  0.4280910991375E-04
 0.2502289267282E-02 -0.1007810638494E-01  0.0000000000000E+00  0.3689411675417E-05
 0.2497364826132E-02 -0.1007415280347E-01  0.0000000000000E+00 -0.4310707031172E-04
 0.2493283558596E-02 -0.1007826363996E-01  0.0000000000000E+00 -0.9991494026834E-04
 0.2489846033617E-02 -0.1009147519579E-01  0.0000000000000E+00 -0.1696284837164E-03
 0.2486460860093E-02 -0.1011478258537E-01  0.0000000000000E+00 -0.2559613285656E-03
 0.2481803408996E-02 -0.1014870513347E-01  0.0000000000000E+00 -0.3633491749732E-03
 0.2473765260803E-02 -0.1019276377809E-01  0.0000000000000E+00 -0.4958969667870E-03
 0.2460386505726E-02 -0.1024548956078E-01  0.0000000000000E+00 -0.6559263981524E-03
 0.2441354588256E-02 -0.1030531243541E-01  0.0000000000000E+00 -0.8442506114457E-03
 0.2418149343559E-02 -0.1037098359914E-01  0.0000000000000E+00 -0.1062336594212E-02
 0.2392428205222E-02 -0.1044091023018E-01  0.0000000000000E+00 -0.1313486057935E-02
 0.2364445733409E-02 -0.1051259614342E-01  0.0000000000000E+00 -0.1601819388138E-02
 0.2332603024159E-02 -0.1058254696751E-01  0.0000000000000E+00 -0.1930625606301E-02
 0.2293908443294E-02 -0.1064627971720E-01  0.0000000000000E+00 -0.2301213137998E-02
 0.2244826230391E-02 -0.1069819623051E-01  0.0000000000000E+00 -0.2712414271700E-02
 0.2181888137693E-02 -0.1073109398667E-01  0.0000000000000E+00 -0.3160859685781E-02
 0.2101058507449E-02 -0.1073454187066E-01  0.0000000000000E+00 -0.3641279997964E-02
 0.1995366086587E-02 -0.1069025836001E-01  0.0000000000000E+00 -0.4142690135772E-02
 0.1853954678085E-02 -0.1056462245937E-01  0.0000000000000E+00 -0.4633676382279E-02
 0.1667039350999E-02 -0.1030062973520E-01  0.0000000000000E+00 -0.5032911286536E-02
 0.1443945548555E-02 -0.9803493729337E-02  0.0000000000000E+00 -0.5131377189148E-02
 0.1345698600313E-02 -0.8974783913232E-02  0.0000000000000E+00 -0.4354640002432E-02
 0.2214531862175E-02 -0.8081049039635E-02  0.0000000000000E+00 -0.1707017875857E-02
 0.6044329662139E-02 -0.8296247818519E-02  0.0000000000000E+00  0.2174795249389E-02
 0.1335319411127E-01 -0.1001298043634E-01  0.0000000000000E+00  0.1205260109979E-02
 0.6370222401580E-03 -0.1091667995090E-01  0.0000000000000E+00  0.3974552191404E-02
 0.1744625068662E-02 -0.1137219193524E-01  0.0000000000000E+00  0.3299834232570E-02
 0.2380889286846E-02 -0.1139869526349E-01  0.0000000000000E+00  0.2116565076726E-02
 0.2588521892225E-02 -0.1119154223854E-01  0.0000000000000E+00  0.1272649606109E-02
 0.2636572882040E-02 -0.1098143200686E-01  0.0000000000000E+00  0.8095467689426E-03
 0.2643427219888E-02 -0.1081916787592E-01  0.0000000000000E+00  0.5480008111026E-03
 0.2637538896679E-02 -0.1069557883890E-01  0.0000000000000E+00  0.3902165973720E-03
 0.2627486018776E-02 -0.1060028463474E-01  0.0000000000000E+00  0.2916039927605E-03
 0.2616622806716E-02 -0.1052534692935E-01  0.0000000000000E+00  0.2274426776903E-03
 0.2606060976087E-02 -0.1046510299605E-01  0.0000000000000E+00  0.1836567365353E-03
 0.2596181879344E-02 -0.1041579117778E-01  0.0000000000000E+00  0.1517953373792E-03
 0.2587106589729E-02 -0.1037498423262E-01  0.0000000000000E+00  0.1264760889942E-03
 0.2578877901233E-02 -0.1034121613395E-01  0.0000000000000E+00  0.1040896965765E-03
 0.2571534853398E-02 -0.1031372029070E-01  0.0000000000000E+00  0.8205109893425E-04
 0.2565137968375E-02 -0.1029225949056E-01  0.0000000000000E+00  0.5835874801083E-04
 0.2559776415785E-02 -0.1027701787869E-01  0.0000000000000E+00  0.3130636257301E-04
 0.2555564593970E-02 -0.1026853663541E-01  0.0000000000000E+00 -0.7287479094065E-06
 0.2552629726665E-02 -0.1026768028100E-01  0.0000000000000E+00 -0.3947193458151E-04
 0.2551082538256E-02 -0.1027562036428E-01  0.0000000000000E+00 -0.8695835360123E-04
 0.2550946692403E-02 -0.1029381491574E-01  0.0000000000000E+00 -0.1458145746022E-03
 0.2551961675033E-02 -0.1032389943893E-01  0.0000000000000E+00 -0.2196660021798E-03
 0.2553147062073E-02 -0.1036727554131E-01  0.0000000000000E+00 -0.3133953855513E-03
 0.2552493447652E-02 -0.1042436523766E-01  0.0000000000000E+00 -0.4322743421857E-03
 0.2547865374546E-02 -0.1049428063029E-01  0.0000000000000E+00 -0.5799985296718E-03
 0.2538870039894E-02 -0.1057558249930E-01  0.0000000000000E+00 -0.7584686755223E-03
 0.2527150227278E-02 -0.1066679170995E-01  0.0000000000000E+00 -0.9700813290457E-03
 0.2514517240322E-02 -0.1076600309924E-01  0.0000000000000E+00 -0.1218900705223E-02
 0.2501249688431E-02 -0.1087077586631E-01  0.0000000000000E+00 -0.1509468907632E-02
 0.2485755196007E-02 -0.1097837448697E-01  0.0000000000000E+00 -0.1845449266990E-02
 0.2465105672450E-02 -0.1108580012586E-01  0.0000000000000E+00 -0.2229048021041E-02
 0.2435926046799E-02 -0.1118953952778E-01  0.0000000000000E+00 -0.2660874730484E-02
 0.2395188380453E-02 -0.1128522461980E-01  0.0000000000000E+00 -0.3140632022033E-02
 0.2339582343907E-02 -0.1136647649865E-01  0.0000000000000E+00 -0.3668940270086E-02
 0.2262162471425E-02 -0.1142068667988E-01  0.0000000000000E+00 -0.4246893303679E-02
 0.2148613306192E-02 -0.1142061446297E-01  0.0000000000000E+00 -0.4866161889515E-02
 0.1979453876974E-02 -0.1131420823516E-01  0.0000000000000E+00 -0.5485227790023E-02
 0.1728435440600E-02 -0.1100036051510E-01  0.0000000000000E+00 -0.5987071337850E-02
 0.1402770445894E-02 -0.1026745363981E-01  0.0000000000000E+00 -0.5911441121085E-02
 0.1651309186537E-02 -0.9077356751028E-02  0.0000000000000E+00 -0.3784925801429E-02
 0.5219330944097E-02 -0.8793829604207E-02  0.0000000000000E+00  0.1129584164754E-02
 0.1423298381928E-01 -0.1075373470701E-01  0.0000000000000E+00  0.1265136202531E-02
 0.7918320528413E-03 -0.1147373706943E-01  0.0000000000000E+00  0.4354009180593E-02
 0.2058807042984E-02 -0.1188385285610E-01  0.0000000000000E+00  0.3246180400204E-02
 0.2624761730691E-02 -0.1171673679727E-01  0.0000000000000E+00  0.1786198494659E-02
 0.2721752810859E-02 -0.1138650439714E-01  0.0000000000000E+00  0.9845700083193E-03
 0.2720462590688E-02 -0.1114290671887E-01  0.0000000000000E+00  0.6107283680217E-03
 0.2707619799938E-02 -0.1097373898898E-01  0.0000000000000E+00  0.4050012419644E-03
 0.2691827212026E-02 -0.1085098674166E-01  0.0000000000000E+00  0.2845540759038E-03
 0.2677041474367E-02 -0.1075961476233E-01  0.0000000000000E+00  0.2112878756367E-03
 0.2664005521821E-02 -0.1068918849915E-01  0.0000000000000E+00  0.1644566065668E-03
 0.2652586970626E-02 -0.1063326953616E-01  0.0000000000000E+00  0.1330333203851E-03
 0.2642585231063E-02 -0.1058780765649E-01  0.0000000000000E+00  0.1103845125370E-03
 0.2633806951620E-02 -0.1055033467058E-01  0.0000000000000E+00  0.9238768895775E-04
 0.2626141866045E-02 -0.1051944319873E-01  0.0000000000000E+00  0.7629191626080E-04
 0.2619557529239E-02 -0.1049447163554E-01  0.0000000000000E+00  0.6013675433930E-04
 0.2614094780185E-02 -0.1047531170822E-01  0.0000000000000E+00  0.4239975527384E-04
 0.2609858694562E-02 -0.1046229512804E-01  0.0000000000000E+00  0.2177127015315E-04
 0.2607010765487E-02 -0.1045613385902E-01  0.0000000000000E+00 -0.3013553267067E-05
 0.2605760626563E-02 -0.1045790047015E-01  0.0000000000000E+00 -0.3332664825589E-04
 0.2606351262627E-02 -0.1046904000392E-01  0.0000000000000E+00 -0.7082710208789E-04
 0.2609023667799E-02 -0.1049140622059E-01  0.0000000000000E+00 -0.1177246728907E-03
 0.2613890092799E-02 -0.1052728169117E-01  0.0000000000000E+00 -0.1772632040545E-03
 0.2620479754171E-02 -0.1057912659006E-01  0.0000000000000E+00 -0.2544242186740E-03
 0.2627104005302E-02 -0.1064868244004E-01  0.0000000000000E+00 -0.3556486067943E-03
 0.2631561372830E-02 -0.1073606909168E-01  0.0000000000000E+00 -0.4865186962635E-03
 0.2633350909409E-02 -0.1084003065992E-01  0.0000000000000E+00 -0.6507262775057E-03
 0.2634139559002E-02 -0.1095843754287E-01  0.0000000000000E+00 -0.8520693804926E-03
 0.2635680648195E-02 -0.1108851279283E-01  0.0000000000000E+00 -0.1095224540225E-02
 0.2638149730429E-02 -0.1122758777693E-01  0.0000000000000E+00 -0.1384386043559E-02
 0.2640045773996E-02 -0.1137382122008E-01  0.0000000000000E+00 -0.1722628430539E-02
 0.2638773455483E-02 -0.1152615623843E-01  0.0000000000000E+00 -0.2112279903258E-02
 0.2631418696830E-02 -0.1168372432311E-01  0.0000000000000E+00 -0.2555200907749E-02
 0.2615810294300E-02 -0.1184550275190E-01  0.0000000000000E+00 -0.3053220602018E-02
 0.2590196052888E-02 -0.1201005763620E-01  0.0000000000000E+00 -0.3611066435348E-02
 0.2549728520426E-02 -0.1217258732537E-01  0.0000000000000E+00 -0.4238514646423E-02
 0.2480871467225E-02 -0.1231845880260E-01  0.0000000000000E+00 -0.4948242760793E-02
 0.2359756227525E-02 -0.1241013166615E-01  0.0000000000000E+00 -0.5738039939867E-02
 0.2155582823525E-02 -0.1237224717996E-01  0.0000000000000E+00 -0.6575915502283E-02
 0.1749204438580E-02 -0.1197125365155E-01  0.0000000000000E+00 -0.7313015686720E-02
 0.1290651953727E-02 -0.1071275513450E-01  0.0000000000000E+00 -0.6435683884219E-02
 0.4040317975148E-02 -0.9691948354187E-02  0.0000000000000E+00 -0.9244234608082E-03
 0.1528234930174E-01 -0.1182719880047E-01  0.0000000000000E+00  0.1142338042397E-02
 0.1026750439373E-02 -0.1221484725501E-01  0.0000000000000E+00  0.4750555834485E-02
 0.2462241335642E-02 -0.1244139465663E-01  0.0000000000000E+00  0.2935475670298E-02
 0.2853415489154E-02 -0.1195542744379E-01  0.0000000000000E+00  0.1277165182737E-02
 0.2819400760843E-02 -0.1152438389164E-01  0.0000000000000E+00  0.6693864324259E-03
 0.2786464868920E-02 -0.1127592363791E-01  0.0000000000000E+00  0.4119255594962E-03
 0.2760600585856E-02 -0.1110969830970E-01  0.0000000000000E+00  0.2661472002590E-03
 0.2738691787193E-02 -0.1099480620429E-01  0.0000000000000E+00  0.1858349839552E-03
 0.2721787456235E-02 -0.1091125007031E-01  0.0000000000000E+00  0.1373112828687E-03
 0.2708046649698E-02 -0.1084774915985E-01  0.0000000000000E+00  0.1070629564170E-03
 0.2696718182671E-02 -0.1079763089508E-01  0.0000000000000E+00  0.8705996952285E-04
 0.2687153315888E-02 -0.1075691419649E-01  0.0000000000000E+00  0.7278265326358E-04
 0.2678990947670E-02 -0.1072328656942E-01  0.0000000000000E+00  0.6139401767133E-04
 0.2672035866387E-02 -0.1069551626796E-01  0.0000000000000E+00  0.5102256506123E-04
 0.2666229789772E-02 -0.1067311555914E-01  0.0000000000000E+00  0.4033142142171E-04
 0.2661618655929E-02 -0.1065614409600E-01  0.0000000000000E+00  0.2827668695074E-04
 0.2658335806886E-02 -0.1064509971064E-01  0.0000000000000E+00  0.1394921889480E-04
 0.2656592039335E-02 -0.1064086781714E-01  0.0000000000000E+00 -0.3544311329290E-05
 0.2656672383925E-02 -0.1064471668508E-01  0.0000000000000E+00 -0.2519164129244E-04
 0.2658935977748E-02 -0.1065833580919E-01  0.0000000000000E+00 -0.5221323459209E-04
 0.2663811469421E-02 -0.1068392283499E-01  0.0000000000000E+00 -0.8627672083983E-04
 0.2671769186043E-02 -0.1072433534584E-01  0.0000000000000E+00 -0.1299213124900E-03
 0.2682998066692E-02 -0.1078317787313E-01  0.0000000000000E+00 -0.1876009136190E-03
 0.2696483050846E-02 -0.1086407937284E-01  0.0000000000000E+00 -0.2665779542444E-03
 0.2710258912512E-02 -0.1096900291897E-01  0.0000000000000E+00 -0.3749773674461E-03
 0.2723736285980E-02 -0.1109707446135E-01  0.0000000000000E+00 -0.5196485717713E-03
 0.2738294719788E-02 -0.1124474705079E-01  0.0000000000000E+00 -0.7067640006659E-03
 0.2755179312108E-02 -0.1140740252309E-01  0.0000000000000E+00 -0.9413406410850E-03
 0.2774215935448E-02 -0.1158170249303E-01  0.0000000000000E+00 -0.1225987682083E-02
 0.2794094575969E-02 -0.1176686250259E-01  0.0000000000000E+00 -0.1561803346989E-02
 0.2812909975710E-02 -0.1196434139255E-01  0.0000000000000E+00 -0.1950193797049E-02
 0.2828598381100E-02 -0.1217661411294E-01  0.0000000000000E+00 -0.2393776257576E-02
 0.2839981952531E-02 -0.1240634672192E-01  0.0000000000000E+00 -0.2895947286510E-02
 0.2847534532388E-02 -0.1265711036191E-01  0.0000000000000E+00 -0.3462838607331E-02
 0.2849281175791E-02 -0.1293328289967E-01  0.0000000000000E+00 -0.4108963212152E-02
 0.2838338435302E-02 -0.1323710868522E-01  0.0000000000000E+00 -0.4856314073058E-02
 0.2791059631837E-02 -0.1356074522036E-01  0.0000000000000E+00 -0.5747095660969E-02
 0.2686846814343E-02 -0.1386152093715E-01  0.0000000000000E+00 -0.6787493080127E-02
 0.2438990675397E-02 -0.1404937415039E-01  0.0000000000000E+00 -0.8143571895504E-02
 0.1473307192316E-02 -0.1332703001322E-01  0.0000000000000E+00 -0.9292574560325E-02
 0.2521322271648E-02 -0.1155017403533E-01  0.0000000000000E+00 -0.4667350924849E-02
 0.1659174873607E-01 -0.1368133995966E-01  0.0000000000000E+00  0.2800265003051E-03
 0.1401276431249E-02 -0.1331607958465E-01  0.0000000000000E+00  0.5063004547533E-02
 0.2960528152432E-02 -0.1294697859168E-01  0.0000000000000E+00  0.2085953775541E-02
 0.3000632729471E-02 -0.1202716948051E-01  0.0000000000000E+00  0.6263661872346E-03
 0.2872578769646E-02 -0.1161310677769E-01  0.0000000000000E+00  0.3851986816664E-03
 0.2836340320584E-02 -0.1137730459043E-01  0.0000000000000E+00  0.2175709868256E-03
 0.2800964045555E-02 -0.1122792271168E-01  0.0000000000000E+00  0.1417836042397E-03
 0.2778804529049E-02 -0.1112769290433E-01  0.0000000000000E+00  0.9781952495895E-04
 0.2761951282835E-02 -0.1105586131881E-01  0.0000000000000E+00  0.7242865404863E-04
 0.2749092618892E-02 -0.1100158978706E-01  0.0000000000000E+00  0.5681643101807E-04
 0.2738717776581E-02 -0.1095864291256E-01  0.0000000000000E+00  0.4671110257765E-04
 0.2730109600307E-02 -0.1092347406294E-01  0.0000000000000E+00  0.3955823222501E-04
 0.2722834274666E-02 -0.1089412477601E-01  0.0000000000000E+00  0.3379675299359E-04
 0.2716695549103E-02 -0.1086965388228E-01  0.0000000000000E+00  0.2838896525517E-04
 0.2711650450865E-02 -0.1084981317760E-01  0.0000000000000E+00  0.2259152278578E-04
 0.2707774172436E-02 -0.1083486607204E-01  0.0000000000000E+00  0.1581688511323E-04
 0.2705238404375E-02 -0.1082549164145E-01  0.0000000000000E+00  0.7545014305693E-05
 0.2704302814187E-02 -0.1082274752603E-01  0.0000000000000E+00 -0.2745758461237E-05
 0.2705316537174E-02 -0.1082807999572E-01  0.0000000000000E+00 -0.1564380819885E-04
 0.2708730100378E-02 -0.1084338341112E-01  0.0000000000000E+00 -0.3188883944899E-04
 0.2715115752254E-02 -0.1087112820080E-01  0.0000000000000E+00 -0.5251382911453E-04
 0.2725208058306E-02 -0.1091460328958E-01  0.0000000000000E+00 -0.7911570759955E-04
 0.2739882874689E-02 -0.1097839044181E-01  0.0000000000000E+00 -0.1147258007652E-03
 0.2759285406922E-02 -0.1106860356471E-01  0.0000000000000E+00 -0.1662189523118E-03
 0.2782423870958E-02 -0.1119074189858E-01  0.0000000000000E+00 -0.2448508574627E-03
 0.2808807419227E-02 -0.1134491314064E-01  0.0000000000000E+00 -0.3633658956601E-03
 0.2838856452760E-02 -0.1152465385215E-01  0.0000000000000E+00 -0.5322337459211E-03
 0.2872442663177E-02 -0.1172188457822E-01  0.0000000000000E+00 -0.7561520609454E-03
 0.2908668500131E-02 -0.1193201592628E-01  0.0000000000000E+00 -0.1034148673258E-02
 0.2946559559137E-02 -0.1215556678991E-01  0.0000000000000E+00 -0.1363448593333E-02
 0.2985394406169E-02 -0.1239722180200E-01  0.0000000000000E+00 -0.1743126400928E-02
 0.3024515391351E-02 -0.1266377252505E-01  0.0000000000000E+00 -0.2176058118528E-02
 0.3063904304979E-02 -0.1296203987047E-01  0.0000000000000E+00 -0.2667491792914E-02
 0.3105481596096E-02 -0.1329933298487E-01  0.0000000000000E+00 -0.3223189079420E-02
 0.3152188230481E-02 -0.1368871375258E-01  0.0000000000000E+00 -0.3853679828059E-02
 0.3201001329843E-02 -0.1415273401662E-01  0.0000000000000E+00 -0.4584041157593E-02
 0.3256904693461E-02 -0.1472276955033E-01  0.0000000000000E+00 -0.5457933461935E-02
 0.3260057473662E-02 -0.1541702178245E-01  0.0000000000000E+00 -0.6601729673114E-02
 0.3351670172718E-02 -0.1626774357570E-01  0.0000000000000E+00 -0.7984520112514E-02
 0.2690811712672E-02 -0.1710381492117E-01  0.0000000000000E+00 -0.1109176197609E-01
 0.1037726002320E-02 -0.1558916452350E-01  0.0000000000000E+00 -0.1055568050876E-01
 0.1846740534517E-01 -0.1786611811631E-01  0.0000000000000E+00 -0.3249788995283E-02
 0.2003115747604E-02 -0.1528940216910E-01  0.0000000000000E+00  0.4754219844777E-02
 0.3464894918275E-02 -0.1282956214644E-01  0.0000000000000E+00  0.1338149711046E-03
 0.2946498527845E-02 -0.1198669767725E-01  0.0000000000000E+00  0.2233102233502E-03
 0.2920001515071E-02 -0.1164776052357E-01  0.0000000000000E+00  0.9412900786092E-04
 0.2859441340881E-02 -0.1144916489969E-01  0.0000000000000E+00  0.5799906676129E-04
 0.2832518995202E-02 -0.1133030935423E-01  0.0000000000000E+00  0.3655801555341E-04
 0.2812233004788E-02 -0.1125094980565E-01  0.0000000000000E+00  0.2539077836447E-04
 0.2798326363319E-02 -0.1119448287025E-01  0.0000000000000E+00  0.1897153657418E-04
 0.2787584187363E-02 -0.1115147841043E-01  0.0000000000000E+00  0.1520478228709E-04
 0.2778969571886E-02 -0.1111689363197E-01  0.0000000000000E+00  0.1284700077001E-04
 0.2771741285861E-02 -0.1108793740625E-01  0.0000000000000E+00  0.1120243434824E-04
 0.2765561547582E-02 -0.1106319565484E-01  0.0000000000000E+00  0.9832622736405E-05
 0.2760292494289E-02 -0.1104212122101E-01  0.0000000000000E+00  0.8445649000544E-05
 0.2755948233653E-02 -0.1102476422157E-01  0.0000000000000E+00  0.6828192988473E-05
 0.2752653181051E-02 -0.1101162230109E-01  0.0000000000000E+00  0.4807330369838E-05
 0.2750624873776E-02 -0.1100356705176E-01  0.0000000000000E+00  0.2224578948301E-05
 0.2750168776500E-02 -0.1100182222207E-01  0.0000000000000E+00 -0.1082577059885E-05
 0.2751683750786E-02 -0.1100799214555E-01  0.0000000000000E+00 -0.5305660377874E-05
 0.2755680735939E-02 -0.1102412722226E-01  0.0000000000000E+00 -0.1068747815014E-04
 0.2762819321074E-02 -0.1105288605148E-01  0.0000000000000E+00 -0.1757210630876E-04
 0.2773977210109E-02 -0.1109781625430E-01  0.0000000000000E+00 -0.2650555374611E-04
 0.2790416015986E-02 -0.1116400611160E-01  0.0000000000000E+00 -0.3846614009528E-04
 0.2813844168199E-02 -0.1125987582573E-01  0.0000000000000E+00 -0.5687368968116E-04
 0.2845982902632E-02 -0.1139807963574E-01  0.0000000000000E+00 -0.9552733299156E-04
 0.2887131353549E-02 -0.1158149637244E-01  0.0000000000000E+00 -0.1790628250606E-03
 0.2935213977177E-02 -0.1179730844465E-01  0.0000000000000E+00 -0.3259106513553E-03
 0.2987181015522E-02 -0.1203156528463E-01  0.0000000000000E+00 -0.5385151246768E-03
 0.3040975733803E-02 -0.1227778058972E-01  0.0000000000000E+00 -0.8092779636742E-03
 0.3096231385529E-02 -0.1253819543913E-01  0.0000000000000E+00 -0.1128999454135E-02
 0.3153999237461E-02 -0.1282163215415E-01  0.0000000000000E+00 -0.1492766653570E-02
 0.3215979723364E-02 -0.1314033728257E-01  0.0000000000000E+00 -0.1902617946424E-02
 0.3283670925273E-02 -0.1350683553360E-01  0.0000000000000E+00 -0.2367479133437E-02
 0.3359024871583E-02 -0.1392939646083E-01  0.0000000000000E+00 -0.2894013925274E-02
 0.3446376073653E-02 -0.1442430179285E-01  0.0000000000000E+00 -0.3477949620518E-02
 0.3557774317430E-02 -0.1503978926821E-01  0.0000000000000E+00 -0.4126679073885E-02
 0.3694792781406E-02 -0.1584648158309E-01  0.0000000000000E+00 -0.4884803219255E-02
 0.3922570150138E-02 -0.1695561714073E-01  0.0000000000000E+00 -0.5846741341426E-02
 0.4014205427001E-02 -0.1847238134922E-01  0.0000000000000E+00 -0.7230303853318E-02
 0.5248712183832E-02 -0.2106213772110E-01  0.0000000000000E+00 -0.9147031650341E-02
 0.5962013809606E-03 -0.2383331468586E-01  0.0000000000000E+00 -0.1641810199849E-01
 0.2386219557310E-01 -0.3047526882394E-01  0.0000000000000E+00 -0.1521016577090E-01
 0.1199695056461E-01 -0.2207275073609E-01  0.0000000000000E+00 -0.1110398324195E+00
 0.1302353118906E-01 -0.2318453664888E-01  0.0000000000000E+00 -0.6882915602075E-01
 0.1477501238462E-01 -0.2492239355102E-01  0.0000000000000E+00 -0.3331930739193E-01
 0.1705999829591E-01 -0.2719771545195E-01  0.0000000000000E+00 -0.3625101628813E-02
 0.1975466403996E-01 -0.2987230300893E-01  0.0000000000000E+00  0.2111570201199E-01
 0.2267348907001E-01 -0.3276545239842E-01  0.0000000000000E+00  0.4147852684118E-01
 0.2568458541136E-01 -0.3573807911674E-01  0.0000000000000E+00  0.5781995547869E-01
 0.2870150414824E-01 -0.3870729474981E-01  0.0000000000000E+00  0.7051847389724E-01
 0.3164792994812E-01 -0.4159829606313E-01  0.0000000000000E+00  0.7997222628548E-01
 0.3445405655175E-01 -0.4434211367971E-01  0.0000000000000E+00  0.8654724523926E-01
 0.3706712554757E-01 -0.4688805089590E-01  0.0000000000000E+00  0.9057713508144E-01
 0.3945028801476E-01 -0.4920002022402E-01  0.0000000000000E+00  0.9236924788844E-01
 0.4156933107155E-01 -0.5124304847431E-01  0.0000000000000E+00  0.9221027976919E-01
 0.4338465852633E-01 -0.5297438978777E-01  0.0000000000000E+00  0.9035270037383E-01
 0.4485438150781E-01 -0.5434761078150E-01  0.0000000000000E+00  0.8701123383936E-01
 0.4594088644438E-01 -0.5531902515101E-01  0.0000000000000E+00  0.8237825315909E-01
 0.4659240597916E-01 -0.5584209270454E-01  0.0000000000000E+00  0.7667086616973E-01
 0.4680427079300E-01 -0.5592203901708E-01  0.0000000000000E+00  0.6995396651541E-01
 0.4674099372319E-01 -0.5566945800276E-01  0.0000000000000E+00  0.6260111700738E-01
 0.4618642903471E-01 -0.5533188085850E-01  0.0000000000000E+00  0.5640494303997E-01
 0.1214994713138E-01 -0.2371804669811E-01  0.0000000000000E+00 -0.1082788425200E+00
 0.1435946012822E-01 -0.2583888257836E-01  0.0000000000000E+00 -0.6545874047316E-01
 0.1703262295256E-01 -0.2844827688260E-01  0.0000000000000E+00 -0.2963150568978E-01
 0.2012012651211E-01 -0.3145638986795E-01  0.0000000000000E+00  0.3642589096362E-03
 0.2348414752770E-01 -0.3474063676457E-01  0.0000000000000E+00  0.2527497300725E-01
 0.2698580249777E-01 -0.3815819277949E-01  0.0000000000000E+00  0.4565832198329E-01
 0.3051434046663E-01 -0.4159787091817E-01  0.0000000000000E+00  0.6191614972682E-01
 0.3398557025857E-01 -0.4497427341481E-01  0.0000000000000E+00  0.7445376159693E-01
 0.3732357479140E-01 -0.4821257768765E-01  0.0000000000000E+00  0.8366139275084E-01
 0.4046453408911E-01 -0.5125029117007E-01  0.0000000000000E+00  0.8990056287715E-01
 0.4336142371781E-01 -0.5404180700998E-01  0.0000000000000E+00  0.9350544720170E-01
 0.4598198400088E-01 -0.5655571921274E-01  0.0000000000000E+00  0.9478467977721E-01
 0.4829766755769E-01 -0.5876263503254E-01  0.0000000000000E+00  0.9402555460384E-01
 0.5027639409818E-01 -0.6062784864154E-01  0.0000000000000E+00  0.9148628603175E-01
 0.5188445721166E-01 -0.6211370053953E-01  0.0000000000000E+00  0.8740050775014E-01
 0.5308497026461E-01 -0.6318112453304E-01  0.0000000000000E+00  0.8200693616568E-01
 0.5381689289948E-01 -0.6377259692843E-01  0.0000000000000E+00  0.7556034974732E-01
 0.5406174203318E-01 -0.6386475286656E-01  0.0000000000000E+00  0.6827870963174E-01
 0.5362395948777E-01 -0.6334578023782E-01  0.0000000000000E+00  0.6071944902398E-01
 0.5242150325133E-01 -0.6197529597804E-01  0.0000000000000E+00  0.5235413453728E-01
 0.1222617227086E-01 -0.2521164733271E-01  0.0000000000000E+00 -0.1051667538772E+00
 0.1563020619175E-01 -0.2845046362873E-01  0.0000000000000E+00 -0.6196373456395E-01
 0.1926544274705E-01 -0.3193641074958E-01  0.0000000000000E+00 -0.2577528601006E-01
 0.2315888193220E-01 -0.3568855540711E-01  0.0000000000000E+00  0.4440869176861E-02
 0.2721817848805E-01 -0.3960681822597E-01  0.0000000000000E+00  0.2945882655842E-01
 0.3132698649008E-01 -0.4357597100421E-01  0.0000000000000E+00  0.4982833388747E-01
 0.3539156997200E-01 -0.4750021797566E-01  0.0000000000000E+00  0.6597816435032E-01
 0.3933399190058E-01 -0.5130080801110E-01  0.0000000000000E+00  0.7832358161286E-01
 0.4308321626087E-01 -0.5490677132495E-01  0.0000000000000E+00  0.8725637633940E-01
 0.4658055386768E-01 -0.5826048501367E-01  0.0000000000000E+00  0.9313685943465E-01
 0.4978425618793E-01 -0.6132151047613E-01  0.0000000000000E+00  0.9629964288981E-01
 0.5266652812195E-01 -0.6406276210315E-01  0.0000000000000E+00  0.9705563351602E-01
 0.5520352618131E-01 -0.6645973076242E-01  0.0000000000000E+00  0.9569522643786E-01
 0.5736800254495E-01 -0.6848294787041E-01  0.0000000000000E+00  0.9248568466723E-01
 0.5912750734043E-01 -0.7009716255714E-01  0.0000000000000E+00  0.8768089732185E-01
 0.6043758061928E-01 -0.7125659028061E-01  0.0000000000000E+00  0.8154242339209E-01
 0.6122861865667E-01 -0.7189128091971E-01  0.0000000000000E+00  0.7434522078355E-01
 0.6140147643147E-01 -0.7191570975319E-01  0.0000000000000E+00  0.6633259121759E-01
 0.6081078826269E-01 -0.7115955973252E-01  0.0000000000000E+00  0.5757556149482E-01
 0.5959373777746E-01 -0.6971594149866E-01  0.0000000000000E+00  0.4758888445978E-01
 0.1226076773816E-01 -0.2664798825883E-01  0.0000000000000E+00 -0.1015962607768E+00
 0.1683833030825E-01 -0.3098303307624E-01  0.0000000000000E+00 -0.5818922628651E-01
 0.2145932748127E-01 -0.3538313334556E-01  0.0000000000000E+00 -0.2175758883852E-01
 0.2618312712506E-01 -0.3989853506540E-01  0.0000000000000E+00  0.8622744977594E-02
 0.3095777155190E-01 -0.4447286151155E-01  0.0000000000000E+00  0.3369179586416E-01
 0.3569484781991E-01 -0.4901486296570E-01  0.0000000000000E+00  0.5400957026983E-01
 0.4031420555449E-01 -0.5344299156728E-01  0.0000000000000E+00  0.7002092284539E-01
 0.4474590810742E-01 -0.5768599717768E-01  0.0000000000000E+00  0.8214708317622E-01
 0.4892532644114E-01 -0.6167907071570E-01  0.0000000000000E+00  0.9078087072009E-01
 0.5279952615683E-01 -0.6536997208822E-01  0.0000000000000E+00  0.9628366461732E-01
 0.5633166348855E-01 -0.6872298478825E-01  0.0000000000000E+00  0.9899140693701E-01
 0.5949794237303E-01 -0.7171499094511E-01  0.0000000000000E+00  0.9921777813524E-01
 0.6227801306985E-01 -0.7432512321974E-01  0.0000000000000E+00  0.9725738098466E-01
 0.6464677454312E-01 -0.7652649154793E-01  0.0000000000000E+00  0.9338601307905E-01
 0.6656961128857E-01 -0.7828221806959E-01  0.0000000000000E+00  0.8786905515028E-01
 0.6799522874558E-01 -0.7953896806556E-01  0.0000000000000E+00  0.8097301700976E-01
 0.6883949814188E-01 -0.8021358445914E-01  0.0000000000000E+00  0.7295534827429E-01
 0.6900777747782E-01 -0.8020451977247E-01  0.0000000000000E+00  0.6395091198863E-01
 0.6843637794963E-01 -0.7943248521133E-01  0.0000000000000E+00  0.5394015114844E-01
 0.6729990956633E-01 -0.7803831632600E-01  0.0000000000000E+00  0.4266413333697E-01
 0.1227361406249E-01 -0.2804724686331E-01  0.0000000000000E+00 -0.9759029736881E-01
 0.1800527848211E-01 -0.3346358453803E-01  0.0000000000000E+00 -0.5410492606252E-01
 0.2362008579846E-01 -0.3878782179273E-01  0.0000000000000E+00 -0.1754153583891E-01
 0.2919382725758E-01 -0.4408869533953E-01  0.0000000000000E+00  0.1292539230868E-01
 0.3470417379371E-01 -0.4933914386441E-01  0.0000000000000E+00  0.3799413364873E-01
 0.4008816525181E-01 -0.5447337913051E-01  0.0000000000000E+00  0.5822092366488E-01
 0.4528022422557E-01 -0.5942366972764E-01  0.0000000000000E+00  0.7406271876534E-01
 0.5021896599503E-01 -0.6412728114044E-01  0.0000000000000E+00  0.8594380718388E-01
 0.5484698023925E-01 -0.6852634081183E-01  0.0000000000000E+00  0.9425781437540E-01
 0.5911738592818E-01 -0.7257443415244E-01  0.0000000000000E+00  0.9936746743428E-01
 0.6299811995841E-01 -0.7624044537221E-01  0.0000000000000E+00  0.1016105994523E+00
 0.6646889128291E-01 -0.7950472649901E-01  0.0000000000000E+00  0.1013037307796E+00
 0.6951183873000E-01 -0.8234902877141E-01  0.0000000000000E+00  0.9874513984936E-01
 0.7210265183017E-01 -0.8474749833681E-01  0.0000000000000E+00  0.9421551811902E-01
 0.7420482029267E-01 -0.8666130517728E-01  0.0000000000000E+00  0.8798250679860E-01
 0.7576270398575E-01 -0.8803256252383E-01  0.0000000000000E+00  0.8030210467206E-01
 0.7669747815556E-01 -0.8877862273876E-01  0.0000000000000E+00  0.7138766657018E-01
 0.7693921806210E-01 -0.8882147287704E-01  0.0000000000000E+00  0.6133281310537E-01
 0.7647158759553E-01 -0.8812959916596E-01  0.0000000000000E+00  0.5012848512310E-01
 0.7545623510919E-01 -0.8684118912266E-01  0.0000000000000E+00  0.3768939269382E-01
 0.1227745622730E-01 -0.2942443283925E-01  0.0000000000000E+00 -0.9316099117803E-01
 0.1914634885607E-01 -0.3590716456050E-01  0.0000000000000E+00 -0.4970129308883E-01
 0.2575726308135E-01 -0.4216009370486E-01  0.0000000000000E+00 -0.1310609762670E-01
 0.3219450692905E-01 -0.4826122235277E-01  0.0000000000000E+00  0.1737016901717E-01
 0.3845786161713E-01 -0.5420601955113E-01  0.0000000000000E+00  0.4238385595944E-01
 0.4450590648305E-01 -0.5995002023544E-01  0.0000000000000E+00  0.6248054415020E-01
 0.5028731883906E-01 -0.6543962519304E-01  0.0000000000000E+00  0.7812187876840E-01
 0.5574998799006E-01 -0.7062117045568E-01  0.0000000000000E+00  0.8973356640286E-01
 0.6084404876770E-01 -0.7544418539732E-01  0.0000000000000E+00  0.9770944376515E-01
 0.6552881813844E-01 -0.7986826459449E-01  0.0000000000000E+00  0.1024134352748E+00
 0.6977690518762E-01 -0.8386682316907E-01  0.0000000000000E+00  0.1041851507704E+00
 0.7357123087327E-01 -0.8742337720226E-01  0.0000000000000E+00  0.1033434097835E+00
 0.7689599835670E-01 -0.9052180372697E-01  0.0000000000000E+00  0.1001885473669E+00
 0.7972783703107E-01 -0.9313722560518E-01  0.0000000000000E+00  0.9500202862469E-01
 0.8203018515760E-01 -0.9523063868955E-01  0.0000000000000E+00  0.8804675846028E-01
 0.8375008444423E-01 -0.9674561400560E-01  0.0000000000000E+00  0.7956008184164E-01
 0.8482214737382E-01 -0.9761162488392E-01  0.0000000000000E+00  0.6972606993992E-01
 0.8519972928106E-01 -0.9777324623995E-01  0.0000000000000E+00  0.5863003910834E-01
 0.8489145308850E-01 -0.9722613761170E-01  0.0000000000000E+00  0.4629853253091E-01
 0.8403152184175E-01 -0.9608559328660E-01  0.0000000000000E+00  0.3276044846421E-01
 0.1228219977112E-01 -0.3079014978324E-01  0.0000000000000E+00 -0.8832006549664E-01
 0.2027363302753E-01 -0.3832623319036E-01  0.0000000000000E+00 -0.4497561623596E-01
 0.2787967631680E-01 -0.4550836861379E-01  0.0000000000000E+00 -0.8437809582350E-02
 0.3518949040956E-01 -0.5242005141806E-01  0.0000000000000E+00  0.2197445290452E-01
 0.4221968473490E-01 -0.5907381644246E-01  0.0000000000000E+00  0.4687859929914E-01
 0.4894680668040E-01 -0.6544320351250E-01  0.0000000000000E+00  0.6680555602432E-01
 0.5533281805291E-01 -0.7148783461956E-01  0.0000000000000E+00  0.8221625899742E-01
 0.6133507614898E-01 -0.7716345183683E-01  0.0000000000000E+00  0.9353563465979E-01
 0.6691143682848E-01 -0.8242718820883E-01  0.0000000000000E+00  0.1011571033845E+00
 0.7202744209484E-01 -0.8724473424143E-01  0.0000000000000E+00  0.1054453101989E+00
 0.7666033099467E-01 -0.9159401358385E-01  0.0000000000000E+00  0.1067411466014E+00
 0.8079620593894E-01 -0.9546166228048E-01  0.0000000000000E+00  0.1053647621951E+00
 0.8442154309684E-01 -0.9883381976062E-01  0.0000000000000E+00  0.1016167225595E+00
 0.8751490806424E-01 -0.1016875137568E+00  0.0000000000000E+00  0.9577614921671E-01
 0.9004263416857E-01 -0.1039863251370E+00  0.0000000000000E+00  0.8809769875298E-01
 0.9195886091905E-01 -0.1056803828100E+00  0.0000000000000E+00  0.7880280400356E-01
 0.9321334584627E-01 -0.1067137172404E+00  0.0000000000000E+00  0.6805942158284E-01
 0.9377801313250E-01 -0.1070498579166E+00  0.0000000000000E+00  0.5595949619850E-01
 0.9367387550764E-01 -0.1066982595124E+00  0.0000000000000E+00  0.4256439319373E-01
 0.9300896308440E-01 -0.1057508874577E+00  0.0000000000000E+00  0.2797102172577E-01
 0.1229594819085E-01 -0.3215293943550E-01  0.0000000000000E+00 -0.8307705693034E-01
 0.2139671642015E-01 -0.4073046771306E-01  0.0000000000000E+00 -0.3992805238600E-01
 0.2999486550557E-01 -0.4884003160950E-01  0.0000000000000E+00 -0.3527852974680E-02
 0.3818286827639E-01 -0.5656890950491E-01  0.0000000000000E+00  0.2675212941488E-01
 0.4599055049658E-01 -0.6394307979621E-01  0.0000000000000E+00  0.5149400502098E-01
 0.5340945715339E-01 -0.7095115500044E-01  0.0000000000000E+00  0.7121209787596E-01
 0.6041362969502E-01 -0.7756487546273E-01  0.0000000000000E+00  0.8636278933613E-01
 0.6696970317429E-01 -0.8374925816236E-01  0.0000000000000E+00  0.9736834821711E-01
 0.7304323371263E-01 -0.8946908404803E-01  0.0000000000000E+00  0.1046209453463E+00
 0.7860598150343E-01 -0.9469616885791E-01  0.0000000000000E+00  0.1084853397807E+00
 0.8363985889565E-01 -0.9941300932276E-01  0.0000000000000E+00  0.1093030194975E+00
 0.8813437394997E-01 -0.1036095736611E+00  0.0000000000000E+00  0.1073944420267E+00
 0.9207888284329E-01 -0.1072748439595E+00  0.0000000000000E+00  0.1030589862686E+00
 0.9545529814226E-01 -0.1103891260402E+00  0.0000000000000E+00  0.9657181813678E-01
 0.9823520213003E-01 -0.1129211019107E+00  0.0000000000000E+00  0.8817949266154E-01
 0.1003820126353E+00 -0.1148299727708E+00  0.0000000000000E+00  0.7809216362254E-01
 0.1018600083981E+00 -0.1160742766550E+00  0.0000000000000E+00  0.6647077641445E-01
 0.1026556513018E+00 -0.1166326078836E+00  0.0000000000000E+00  0.5341872210581E-01
 0.1027966816891E+00 -0.1165223052708E+00  0.0000000000000E+00  0.3902508943722E-01
 0.1023707921525E+00 -0.1158171696605E+00  0.0000000000000E+00  0.2342522612675E-01
 0.1232563697720E-01 -0.3351995409203E-01  0.0000000000000E+00 -0.7744010894697E-01
 0.2252334067704E-01 -0.4312764347484E-01  0.0000000000000E+00 -0.3456008043397E-01
 0.3210904257092E-01 -0.5216114403605E-01  0.0000000000000E+00  0.1629664220478E-02
 0.4117812777878E-01 -0.6071102117369E-01  0.0000000000000E+00  0.3171417901609E-01
 0.4977114017696E-01 -0.6881416933555E-01  0.0000000000000E+00  0.5624362470588E-01
 0.5789222964954E-01 -0.7647191810306E-01  0.0000000000000E+00  0.7571489387754E-01
 0.6552628212841E-01 -0.8366693924001E-01  0.0000000000000E+00  0.9057725141087E-01
 0.7264878626923E-01 -0.9037315754425E-01  0.0000000000000E+00  0.1012488300513E+00
 0.7923283485980E-01 -0.9656288657150E-01  0.0000000000000E+00  0.1081197502853E+00
 0.8525637599673E-01 -0.1022140757019E+00  0.0000000000000E+00  0.1115542391789E+00
 0.9070612344635E-01 -0.1073139421176E+00  0.0000000000000E+00  0.1118937127001E+00
 0.9557537819339E-01 -0.1118561782975E+00  0.0000000000000E+00  0.1094581341885E+00
 0.9985716410789E-01 -0.1158333966961E+00  0.0000000000000E+00  0.1045449335362E+00
 0.1035380407726E+00 -0.1192305351885E+00  0.0000000000000E+00  0.9742515460602E-01
 0.1065964195246E+00 -0.1220231008641E+00  0.0000000000000E+00  0.8833886229876E-01
 0.1090058796468E+00 -0.1241805184342E+00  0.0000000000000E+00  0.7748928145728E-01
 0.1107440479814E+00 -0.1256749118483E+00  0.0000000000000E+00  0.6503577823408E-01
 0.1118093060125E+00 -0.1264974065004E+00  0.0000000000000E+00  0.5109385339285E-01
 0.1122340871612E+00 -0.1266710807744E+00  0.0000000000000E+00  0.3577355673034E-01
 0.1120925514770E+00 -0.1262580502465E+00  0.0000000000000E+00  0.1923097986941E-01
 0.1237736916202E-01 -0.3489738474751E-01  0.0000000000000E+00 -0.7141639759573E-01
 0.2365982521216E-01 -0.4552405233489E-01  0.0000000000000E+00 -0.2887391752040E-01
 0.3422721972149E-01 -0.5547657912742E-01  0.0000000000000E+00  0.7038634910620E-02
 0.4417802663312E-01 -0.6484891704958E-01  0.0000000000000E+00  0.3686925287356E-01
 0.5356174481183E-01 -0.7368709761435E-01  0.0000000000000E+00  0.6113897901614E-01
 0.6239319604381E-01 -0.8200325522810E-01  0.0000000000000E+00  0.8032706105997E-01
 0.7066693075742E-01 -0.8978984966056E-01  0.0000000000000E+00  0.9487400821594E-01
 0.7836674409636E-01 -0.9702920767176E-01  0.0000000000000E+00  0.1051927644839E+00
 0.8547301171370E-01 -0.1037009649648E+00  0.0000000000000E+00  0.1116707452144E+00
 0.9196982517945E-01 -0.1097891953264E+00  0.0000000000000E+00  0.1146710962671E+00
 0.9784887665644E-01 -0.1152860384088E+00  0.0000000000000E+00  0.1145346489866E+00
 0.1031077151058E+00 -0.1201893840019E+00  0.0000000000000E+00  0.1115804190463E+00
 0.1077438015575E+00 -0.1244962757772E+00  0.0000000000000E+00  0.1061037730591E+00
 0.1117493706465E+00 -0.1281973813197E+00  0.0000000000000E+00  0.9837230524681E-01
 0.1151106342404E+00 -0.1312761350062E+00  0.0000000000000E+00  0.8862164371737E-01
 0.1178115856090E+00 -0.1337126050785E+00  0.0000000000000E+00  0.7705153371127E-01
 0.1198421338315E+00 -0.1354915911799E+00  0.0000000000000E+00  0.6382294276376E-01
 0.1212110469157E+00 -0.1366152790581E+00  0.0000000000000E+00  0.4906275027271E-01
 0.1219551585821E+00 -0.1371121570190E+00  0.0000000000000E+00  0.3289693274898E-01
 0.1221412727888E+00 -0.1370386262213E+00  0.0000000000000E+00  0.1549290996472E-01
 0.1245662819409E-01 -0.3629071490604E-01  0.0000000000000E+00 -0.6501252041316E-01
 0.2481137572994E-01 -0.4792483621210E-01  0.0000000000000E+00 -0.2287225767568E-01
 0.3635337444560E-01 -0.5879017821321E-01  0.0000000000000E+00  0.1270150532341E-01
 0.4718460103039E-01 -0.6898443338043E-01  0.0000000000000E+00  0.4222411946163E-01
 0.5736220852335E-01 -0.7856145893389E-01  0.0000000000000E+00  0.6618972878205E-01
 0.6691009698395E-01 -0.8754261826880E-01  0.0000000000000E+00  0.8506004591710E-01
 0.7583137974765E-01 -0.9592908572188E-01  0.0000000000000E+00  0.9926584869046E-01
 0.8411755515175E-01 -0.1037110212922E+00  0.0000000000000E+00  0.1092142289033E+00
 0.9175597700139E-01 -0.1108751157035E+00  0.0000000000000E+00  0.1152894610356E+00
 0.9873682257146E-01 -0.1174115441750E+00  0.0000000000000E+00  0.1178532467453E+00
 0.1050569502228E+00 -0.1233175863531E+00  0.0000000000000E+00  0.1172455570820E+00
 0.1107185978674E+00 -0.1285958007176E+00  0.0000000000000E+00  0.1137843698828E+00
 0.1157243213245E+00 -0.1332483633221E+00  0.0000000000000E+00  0.1077633440025E+00
 0.1200727788514E+00 -0.1372724914817E+00  0.0000000000000E+00  0.9944771087363E-01
 0.1237585471484E+00 -0.1406602121555E+00  0.0000000000000E+00  0.8907068469733E-01
 0.1267760134081E+00 -0.1434023334997E+00  0.0000000000000E+00  0.7683118511100E-01
 0.1291265565477E+00 -0.1454956247249E+00  0.0000000000000E+00  0.6289373613150E-01
 0.1308285219269E+00 -0.1469525876134E+00  0.0000000000000E+00  0.4739561857824E-01
 0.1319235136664E+00 -0.1478075214626E+00  0.0000000000000E+00  0.3047528787310E-01
 0.1324757018265E+00 -0.1481156188447E+00  0.0000000000000E+00  0.1230761562363E-01
 0.1256842279603E-01 -0.3770489034869E-01  0.0000000000000E+00 -0.5823480371775E-01
 0.2598231532161E-01 -0.5033422900219E-01  0.0000000000000E+00 -0.1655816675882E-01
 0.3849061430972E-01 -0.6210491519696E-01  0.0000000000000E+00  0.1861960765772E-01
 0.5019922959200E-01 -0.7311876670798E-01  0.0000000000000E+00  0.4778397901640E-01
 0.6117193340281E-01 -0.8343642710243E-01  0.0000000000000E+00  0.7140382740803E-01
 0.7144034374229E-01 -0.9308714569180E-01  0.0000000000000E+00  0.8992360460352E-01
 0.8101510871761E-01 -0.1020798087315E+00  0.0000000000000E+00  0.1037638651958E+00
 0.8989480557634E-01 -0.1104118159241E+00  0.0000000000000E+00  0.1133255328281E+00
 0.9807343384291E-01 -0.1180766153032E+00  0.0000000000000E+00  0.1189895564878E+00
 0.1055471824751E+00 -0.1250704441430E+00  0.0000000000000E+00  0.1211160644250E+00
 0.1123182439273E+00 -0.1313959237933E+00  0.0000000000000E+00  0.1200441523096E+00
 0.1183939256585E+00 -0.1370606987993E+00  0.0000000000000E+00  0.1160909786816E+00
 0.1237823953675E+00 -0.1420726421255E+00  0.0000000000000E+00  0.1095491490423E+00
 0.1284892492535E+00 -0.1464360989184E+00  0.0000000000000E+00  0.1006827728977E+00
 0.1325177310095E+00 -0.1501520695032E+00  0.0000000000000E+00  0.8972449231564E-01
 0.1358724872025E+00 -0.1532220515248E+00  0.0000000000000E+00  0.7687448367681E-01
 0.1385657825618E+00 -0.1556542794940E+00  0.0000000000000E+00  0.6230218590987E-01
 0.1406251729780E+00 -0.1574712677558E+00  0.0000000000000E+00  0.4615455407274E-01
 0.1420976812251E+00 -0.1587138326263E+00  0.0000000000000E+00  0.2858021381282E-01
 0.1430477174466E+00 -0.1594388543025E+00  0.0000000000000E+00  0.9759541393754E-02
 0.1271738689896E-01 -0.3914444037214E-01  0.0000000000000E+00 -0.5108955299894E-01
 0.2717626629211E-01 -0.5275574991393E-01  0.0000000000000E+00 -0.9935058523308E-02
 0.4064133298128E-01 -0.6542305569630E-01  0.0000000000000E+00  0.2479336008381E-01
 0.5322272785411E-01 -0.7725256686651E-01  0.0000000000000E+00  0.5355268341207E-01
 0.6498992796811E-01 -0.8831080107717E-01  0.0000000000000E+00  0.7678764978647E-01
 0.7598105443188E-01 -0.9863369789088E-01  0.0000000000000E+00  0.9492581058764E-01
 0.8621331826206E-01 -0.1082369090055E+00  0.0000000000000E+00  0.1083773726430E+00
 0.9569174597290E-01 -0.1171244737773E+00  0.0000000000000E+00  0.1175370853058E+00
 0.1044166345201E+00 -0.1252962826224E+00  0.0000000000000E+00  0.1227826461289E+00
 0.1123900908090E+00 -0.1327545760185E+00  0.0000000000000E+00  0.1244727266282E+00
 0.1196197718343E+00 -0.1395074834152E+00  0.0000000000000E+00  0.1229457777268E+00
 0.1261183565028E+00 -0.1455680765470E+00  0.0000000000000E+00  0.1185185939652E+00
 0.1319000054586E+00 -0.1509503524355E+00  0.0000000000000E+00  0.1114835494692E+00
 0.1369775831072E+00 -0.1556661691916E+00  0.0000000000000E+00  0.1021048877761E+00
 0.1413631274025E+00 -0.1597256891625E+00  0.0000000000000E+00  0.9061630950169E-01
 0.1450713502305E+00 -0.1631409684753E+00  0.0000000000000E+00  0.7722094397158E-01
 0.1481249606706E+00 -0.1659313259025E+00  0.0000000000000E+00  0.6209425979141E-01
 0.1505605797656E+00 -0.1681291948266E+00  0.0000000000000E+00  0.4539264348794E-01
 0.1524313783522E+00 -0.1697826945888E+00  0.0000000000000E+00  0.2727386449725E-01
 0.1538038008857E+00 -0.1709523656807E+00  0.0000000000000E+00  0.7922730600690E-02
 0.1290785554517E-01 -0.4061357240439E-01  0.0000000000000E+00 -0.4358323378212E-01
 0.2839630229456E-01 -0.5519236695269E-01  0.0000000000000E+00 -0.3006681146281E-02
 0.4280736067017E-01 -0.6874631291412E-01  0.0000000000000E+00  0.3122240990357E-01
 0.5625546282735E-01 -0.8138605302642E-01  0.0000000000000E+00  0.5953290257858E-01
 0.6881488799650E-01 -0.9318308590496E-01  0.0000000000000E+00  0.8234609914364E-01
 0.8052912010667E-01 -0.1041789236763E+00  0.0000000000000E+00  0.1000730694163E+00
 0.9142099657615E-01 -0.1143950740328E+00  0.0000000000000E+00  0.1131138432431E+00
 0.1015013630727E+00 -0.1238416158476E+00  0.0000000000000E+00  0.1218572689817E+00
 0.1107764555425E+00 -0.1325245565275E+00  0.0000000000000E+00  0.1266781179068E+00
 0.1192541842007E+00 -0.1404520600716E+00  0.0000000000000E+00  0.1279339564280E+00
 0.1269477576765E+00 -0.1476378876731E+00  0.0000000000000E+00  0.1259630336129E+00
 0.1338754490961E+00 -0.1541007999794E+00  0.0000000000000E+00  0.1210824034718E+00
 0.1400576747472E+00 -0.1598612233392E+00  0.0000000000000E+00  0.1135851070626E+00
 0.1455147549244E+00 -0.1649387627979E+00  0.0000000000000E+00  0.1037367190849E+00
 0.1502675228490E+00 -0.1693527919421E+00  0.0000000000000E+00  0.9177342228260E-01
 0.1543405093964E+00 -0.1731257265119E+00  0.0000000000000E+00  0.7790272116845E-01
 0.1577664727714E+00 -0.1762876186090E+00  0.0000000000000E+00  0.6230713500341E-01
 0.1605909786892E+00 -0.1788807347839E+00  0.0000000000000E+00  0.4515273273435E-01
 0.1628739195147E+00 -0.1809611078929E+00  0.0000000000000E+00  0.2660651403001E-01
 0.1646853418483E+00 -0.1825945434204E+00  0.0000000000000E+00  0.6857705799844E-02
 0.1314392176961E-01 -0.4211624353863E-01  0.0000000000000E+00 -0.3572262576519E-01
 0.2964507592089E-01 -0.5764663362107E-01  0.0000000000000E+00  0.4222865652009E-02
 0.4499010258565E-01 -0.7207599051058E-01  0.0000000000000E+00  0.3790571415626E-01
 0.5929747099161E-01 -0.8551913310598E-01  0.0000000000000E+00  0.6572622944540E-01
 0.7264528957179E-01 -0.9805158579042E-01  0.0000000000000E+00  0.8808267390433E-01
 0.8508128306709E-01 -0.1097193384937E+00  0.0000000000000E+00  0.1053701174929E+00
 0.9663299391477E-01 -0.1205488633659E+00  0.0000000000000E+00  0.1179788383825E+00
 0.1073164563905E+00 -0.1305556795672E+00  0.0000000000000E+00  0.1262923133695E+00
 0.1171434802876E+00 -0.1397515796181E+00  0.0000000000000E+00  0.1306829482094E+00
 0.1261276456004E+00 -0.1481505522771E+00  0.0000000000000E+00  0.1315077677664E+00
 0.1342877588960E+00 -0.1557720727901E+00  0.0000000000000E+00  0.1291054347771E+00
 0.1416478405024E+00 -0.1626407808811E+00  0.0000000000000E+00  0.1237939959299E+00
 0.1482347281271E+00 -0.1687837362091E+00  0.0000000000000E+00  0.1158680705145E+00
 0.1540762751169E+00 -0.1742284064752E+00  0.0000000000000E+00  0.1055956595739E+00
 0.1592020122030E+00 -0.1790033162709E+00  0.0000000000000E+00  0.9321664771337E-01
 0.1636459827175E+00 -0.1831409692131E+00  0.0000000000000E+00  0.7894410790774E-01
 0.1674505696514E+00 -0.1866817555848E+00  0.0000000000000E+00  0.6296854791527E-01
 0.1706700521781E+00 -0.1896775598703E+00  0.0000000000000E+00  0.4546626119305E-01
 0.1733713526625E+00 -0.1921926228325E+00  0.0000000000000E+00  0.2661414209846E-01
 0.1756295007940E+00 -0.1942993009627E+00  0.0000000000000E+00  0.6606845572383E-02
 0.1342948234804E-01 -0.4365622336897E-01  0.0000000000000E+00 -0.2751492533837E-01
 0.3092493419886E-01 -0.6012081572553E-01  0.0000000000000E+00  0.1174912270336E-01
 0.4719067537627E-01 -0.7541312635687E-01  0.0000000000000E+00  0.4484160105883E-01
 0.6234858721621E-01 -0.8965153714392E-01  0.0000000000000E+00  0.7213325854605E-01
 0.7647950195893E-01 -0.1029145198325E+00  0.0000000000000E+00  0.9399951689812E-01
 0.8963423800511E-01 -0.1152514277942E+00  0.0000000000000E+00  0.1108200166685E+00
 0.1018441194711E+00 -0.1266928076707E+00  0.0000000000000E+00  0.1229759452608E+00
 0.1131297372127E+00 -0.1372590200792E+00  0.0000000000000E+00  0.1308461766703E+00
 0.1235081066568E+00 -0.1469673081643E+00  0.0000000000000E+00  0.1348015290447E+00
 0.1329983303832E+00 -0.1558373725609E+00  0.0000000000000E+00  0.1351992334830E+00
 0.1416248265383E+00 -0.1638944509414E+00  0.0000000000000E+00  0.1323791152300E+00
 0.1494174600868E+00 -0.1711691941561E+00  0.0000000000000E+00  0.1266610082717E+00
 0.1564095807314E+00 -0.1776954193649E+00  0.0000000000000E+00  0.1183419883650E+00
 0.1626365671516E+00 -0.1835084807714E+00  0.0000000000000E+00  0.1076934458093E+00
 0.1681364696676E+00 -0.1886459043946E+00  0.0000000000000E+00  0.9495997600844E-01
 0.1729524722145E+00 -0.1931499333480E+00  0.0000000000000E+00  0.8036118365074E-01
 0.1771360892031E+00 -0.1970708175462E+00  0.0000000000000E+00  0.6409635768363E-01
 0.1807499286458E+00 -0.2004696685737E+00  0.0000000000000E+00  0.4635260112109E-01
 0.1838679594973E+00 -0.2034188983740E+00  0.0000000000000E+00  0.2731754734164E-01
 0.1865711437669E+00 -0.2059982087334E+00  0.0000000000000E+00  0.7192978817128E-02
 0.1376827611063E-01 -0.4523714680155E-01  0.0000000000000E+00 -0.1896781808367E-01
 0.3223802358586E-01 -0.6261700653040E-01  0.0000000000000E+00  0.1956726848207E-01
 0.4941003852135E-01 -0.7875863036679E-01  0.0000000000000E+00  0.5202781428175E-01
 0.6540857602119E-01 -0.9378295251986E-01  0.0000000000000E+00  0.7875363923155E-01
 0.8031590834639E-01 -0.1077701452165E+00  0.0000000000000E+00  0.1000974430547E+00
 0.9418474305344E-01 -0.1207717598115E+00  0.0000000000000E+00  0.1164241365961E+00
 0.1070492480390E+00 -0.1328215169154E+00  0.0000000000000E+00  0.1281067097007E+00
 0.1189339373123E+00 -0.1439440205442E+00  0.0000000000000E+00  0.1355204306783E+00
 0.1298606657658E+00 -0.1541616325555E+00  0.0000000000000E+00  0.1390355068294E+00
 0.1398539057741E+00 -0.1634996462959E+00  0.0000000000000E+00  0.1390102793806E+00
 0.1489436796824E+00 -0.1719890874979E+00  0.0000000000000E+00  0.1357865819218E+00
 0.1571657555300E+00 -0.1796667082360E+00  0.0000000000000E+00  0.1296868516685E+00
 0.1645600314754E+00 -0.1865731486612E+00  0.0000000000000E+00  0.1210114302504E+00
 0.1711693411711E+00 -0.1927516042457E+00  0.0000000000000E+00  0.1100359026804E+00
 0.1770400133003E+00 -0.1982483812575E+00  0.0000000000000E+00  0.9701035795066E-01
 0.1822239394337E+00 -0.2031150423954E+00  0.0000000000000E+00  0.8216164234789E-01
 0.1867811968222E+00 -0.2074111295073E+00  0.0000000000000E+00  0.6569839867559E-01
 0.1907821922546E+00 -0.2112064265206E+00  0.0000000000000E+00  0.4781899646590E-01
 0.1943076745444E+00 -0.2145811766367E+00  0.0000000000000E+00  0.2872259406616E-01
 0.1974448936080E+00 -0.2176226209173E+00  0.0000000000000E+00  0.8620039419189E-02
 0.1416391597121E-01 -0.4686256202003E-01  0.0000000000000E+00 -0.1008952278478E-01
 0.3358638866056E-01 -0.6513723649704E-01  0.0000000000000E+00  0.2767211610636E-01
 0.5164912338478E-01 -0.8211342113159E-01  0.0000000000000E+00  0.5946153902846E-01
 0.6847726623885E-01 -0.9791316367881E-01  0.0000000000000E+00  0.8558610395341E-01
 0.8415303439660E-01 -0.1126168892167E+00  0.0000000000000E+00  0.1063759449872E+00
 0.9872974064653E-01 -0.1262771089538E+00  0.0000000000000E+00  0.1221821231140E+00
 0.1122434367672E+00 -0.1389297992465E+00  0.0000000000000E+00  0.1333705641775E+00
 0.1247219275932E+00 -0.1506032128473E+00  0.0000000000000E+00  0.1403141505325E+00
 0.1361915506049E+00 -0.1613245082221E+00  0.0000000000000E+00  0.1433836378134E+00
 0.1466820000828E+00 -0.1711244563008E+00  0.0000000000000E+00  0.1429395110675E+00
 0.1562288880535E+00 -0.1800398873867E+00  0.0000000000000E+00  0.1393265225888E+00
 0.1648739226925E+00 -0.1881137203684E+00  0.0000000000000E+00  0.1328705163289E+00
 0.1726635534034E+00 -0.1953934457098E+00  0.0000000000000E+00  0.1238758111013E+00
 0.1796479566310E+00 -0.2019300070651E+00  0.0000000000000E+00  0.1126228124137E+00
 0.1858814528199E+00 -0.2077782167335E+00  0.0000000000000E+00  0.9936764155729E-01
 0.1914241603032E+00 -0.2129984796551E+00  0.0000000000000E+00  0.8434481679839E-01
 0.1963440875769E+00 -0.2176589870906E+00  0.0000000000000E+00  0.6777263294974E-01
 0.2007187878385E+00 -0.2218375055702E+00  0.0000000000000E+00  0.4986095766171E-01
 0.2046352668425E+00 -0.2256215064482E+00  0.0000000000000E+00  0.3082106574363E-01
 0.2081868071804E+00 -0.2291053733820E+00  0.0000000000000E+00  0.1087467388144E-01
 0.1461991976615E-01 -0.4853597732866E-01  0.0000000000000E+00 -0.8887958489679E-03
 0.3497206924531E-01 -0.6768358202755E-01  0.0000000000000E+00  0.3605813289603E-01
 0.5390896423454E-01 -0.8547856508186E-01  0.0000000000000E+00  0.6713943252206E-01
 0.7155469208170E-01 -0.1020421988553E+00  0.0000000000000E+00  0.9262849022362E-01
 0.8798968676109E-01 -0.1174534916930E+00  0.0000000000000E+00  0.1128331897766E+00
 0.1032664901691E+00 -0.1317645914211E+00  0.0000000000000E+00  0.1280918608942E+00
 0.1174220541448E+00 -0.1450127924450E+00  0.0000000000000E+00  0.1387647557096E+00
 0.1304868487148E+00 -0.1572294106062E+00  0.0000000000000E+00  0.1452238117725E+00
 0.1424913560222E+00 -0.1684460982679E+00  0.0000000000000E+00  0.1478416608336E+00
 0.1534703618645E+00 -0.1786990052960E+00  0.0000000000000E+00  0.1469820715941E+00
 0.1634650616896E+00 -0.1880307891825E+00  0.0000000000000E+00  0.1429936612549E+00
 0.1725231375989E+00 -0.1964905947452E+00  0.0000000000000E+00  0.1362064428195E+00
 0.1806975792764E+00 -0.2041327719559E+00  0.0000000000000E+00  0.1269293009158E+00
 0.1880457721105E+00 -0.2110158922089E+00  0.0000000000000E+00  0.1154478885705E+00
 0.1946297153243E+00 -0.2172029661825E+00  0.0000000000000E+00  0.1020246385635E+00
 0.2005172433205E+00 -0.2227627254626E+00  0.0000000000000E+00  0.8690187445701E-01
 0.2057836209292E+00 -0.2277713160685E+00  0.0000000000000E+00  0.7030753480592E-01
 0.2105127994009E+00 -0.2323136940571E+00  0.0000000000000E+00  0.5246292893813E-01
 0.2147972998546E+00 -0.2364837356435E+00  0.0000000000000E+00  0.3359173682764E-01
 0.2187356811735E+00 -0.2403820861267E+00  0.0000000000000E+00  0.1392787514179E-01
 0.1513973882548E-01 -0.5026090522152E-01  0.0000000000000E+00  0.8625083086798E-02
 0.3639719514841E-01 -0.7025827136046E-01  0.0000000000000E+00  0.4471946058079E-01
 0.5619082840852E-01 -0.8885541443010E-01  0.0000000000000E+00  0.7505764157135E-01
 0.7464123549665E-01 -0.1061704777712E+00  0.0000000000000E+00  0.9987774290033E-01
 0.9182509447455E-01 -0.1222791501944E+00  0.0000000000000E+00  0.1194659961354E+00
 0.1077927039922E+00 -0.1372318039513E+00  0.0000000000000E+00  0.1341494215639E+00
 0.1225809119340E+00 -0.1510660980940E+00  0.0000000000000E+00  0.1442842670848E+00
 0.1362222436072E+00 -0.1638158438877E+00  0.0000000000000E+00  0.1502431906315E+00
 0.1487510189911E+00 -0.1755169163087E+00  0.0000000000000E+00  0.1524021853912E+00
 0.1602070169463E+00 -0.1862107762822E+00  0.0000000000000E+00  0.1511295288577E+00
 0.1706370347871E+00 -0.1959459535456E+00  0.0000000000000E+00  0.1467786599837E+00
 0.1800947773172E+00 -0.2047778897332E+00  0.0000000000000E+00  0.1396844572400E+00
 0.1886397691321E+00 -0.2127678048935E+00  0.0000000000000E+00  0.1301608163190E+00
 0.1963364684241E+00 -0.2199817701062E+00  0.0000000000000E+00  0.1184988504927E+00
 0.2032542326242E+00 -0.2264906727555E+00  0.0000000000000E+00  0.1049673132705E+00
 0.2094680903913E+00 -0.2323710372504E+00  0.0000000000000E+00  0.8981616243565E-01
 0.2150598676616E+00 -0.2377062423660E+00  0.0000000000000E+00  0.7328265426371E-01
 0.2201191037851E+00 -0.2425875769127E+00  0.0000000000000E+00  0.5559914548907E-01
 0.2247429298915E+00 -0.2471143353831E+00  0.0000000000000E+00  0.3700158070544E-01
 0.2290341108384E+00 -0.2513922254934E+00  0.0000000000000E+00  0.1773670319167E-01
 0.1572678758809E-01 -0.5204090851391E-01  0.0000000000000E+00  0.1844236044764E-01
 0.3786408302453E-01 -0.7286379343187E-01  0.0000000000000E+00  0.5364995416211E-01
 0.5849635056299E-01 -0.9224574996932E-01  0.0000000000000E+00  0.8321182373313E-01
 0.7773777462540E-01 -0.1102989661222E+00  0.0000000000000E+00  0.1073299105338E+00
 0.9565905774065E-01 -0.1270936730409E+00  0.0000000000000E+00  0.1262698025015E+00
 0.1123066911561E+00 -0.1426769707164E+00  0.0000000000000E+00  0.1403490047570E+00
 0.1277164040561E+00 -0.1570859231352E+00  0.0000000000000E+00  0.1499217362666E+00
 0.1419221954478E+00 -0.1703562997896E+00  0.0000000000000E+00  0.1553632701784E+00
 0.1549619620533E+00 -0.1825279728880E+00  0.0000000000000E+00  0.1570545954279E+00
 0.1668804253448E+00 -0.1936476932240E+00  0.0000000000000E+00  0.1553697905011E+00
 0.1777300448646E+00 -0.2037699473904E+00  0.0000000000000E+00  0.1506680613991E+00
 0.1875706300627E+00 -0.2129565746930E+00  0.0000000000000E+00  0.1432897612644E+00
 0.1964682592921E+00 -0.2212756960021E+00  0.0000000000000E+00  0.1335540813886E+00
 0.2044943433469E+00 -0.2288007650302E+00  0.0000000000000E+00  0.1217575816051E+00
 0.2117252868740E+00 -0.2356102280679E+00  0.0000000000000E+00  0.1081750695033E+00
 0.2182427969586E+00 -0.2417878682938E+00  0.0000000000000E+00  0.9306366261310E-01
 0.2241345662050E+00 -0.2474235710005E+00  0.0000000000000E+00  0.7666929486642E-01
 0.2294948986162E+00 -0.2526140833437E+00  0.0000000000000E+00  0.5923463202318E-01
 0.2344245565849E+00 -0.2574630716525E+00  0.0000000000000E+00  0.4100719893378E-01
 0.2390292648541E+00 -0.2620799238100E+00  0.0000000000000E+00  0.2224638406870E-01
 0.1638447516028E-01 -0.5387964843632E-01  0.0000000000000E+00  0.2855288585877E-01
 0.3937533604637E-01 -0.7550300957839E-01  0.0000000000000E+00  0.6284323353996E-01
 0.6082767081282E-01 -0.9565192772852E-01  0.0000000000000E+00  0.9159716748914E-01
 0.8084583682472E-01 -0.1144293345571E+00  0.0000000000000E+00  0.1149801317944E+00
 0.9949210125806E-01 -0.1318976368577E+00  0.0000000000000E+00  0.1332386222117E+00
 0.1168075048168E+00 -0.1480990938829E+00  0.0000000000000E+00  0.1466828682036E+00
 0.1328256477699E+00 -0.1630692236222E+00  0.0000000000000E+00  0.1556673700604E+00
 0.1475814657997E+00 -0.1768452631081E+00  0.0000000000000E+00  0.1605721482922E+00
 0.1611162340607E+00 -0.1894709191537E+00  0.0000000000000E+00  0.1617849643898E+00
 0.1734796317166E+00 -0.2009982752644E+00  0.0000000000000E+00  0.1596870409850E+00
 0.1847299005428E+00 -0.2114879166762E+00  0.0000000000000E+00  0.1546442651718E+00
 0.1949330876280E+00 -0.2210082290961E+00  0.0000000000000E+00  0.1470029683021E+00
 0.2041618858428E+00 -0.2296343030326E+00  0.0000000000000E+00  0.1370877466294E+00
 0.2124945710216E+00 -0.2374468859245E+00  0.0000000000000E+00  0.1252003570632E+00
 0.2200143085969E+00 -0.2445316846705E+00  0.0000000000000E+00  0.1116211157282E+00
 0.2268089874335E+00 -0.2509792212727E+00  0.0000000000000E+00  0.9661352745696E-01
 0.2329714906387E+00 -0.2568851745554E+00  0.0000000000000E+00  0.8043126796381E-01
 0.2386000806499E+00 -0.2623508925535E+00  0.0000000000000E+00  0.6332627381988E-01
 0.2437982059618E+00 -0.2674833957085E+00  0.0000000000000E+00  0.4555658086981E-01
 0.2486730871705E+00 -0.2723942627885E+00  0.0000000000000E+00  0.2739339169920E-01
 0.1711624004639E-01 -0.5578093607802E-01  0.0000000000000E+00  0.3894621773902E-01
 0.4093394806259E-01 -0.7817926978964E-01  0.0000000000000E+00  0.7229274851624E-01
 0.6318757811450E-01 -0.9907703085108E-01  0.0000000000000E+00  0.1002084117877E+00
 0.8396775683044E-01 -0.1185641227245E+00  0.0000000000000E+00  0.1228226119247E+00
 0.1033256317819E+00 -0.1366925482410E+00  0.0000000000000E+00  0.1403649851544E+00
 0.1212950923936E+00 -0.1534981067527E+00  0.0000000000000E+00  0.1531412457161E+00
 0.1379066254768E+00 -0.1690138489787E+00  0.0000000000000E+00  0.1615088503521E+00
 0.1531956307380E+00 -0.1832780548853E+00  0.0000000000000E+00  0.1658549451409E+00
 0.1672066456094E+00 -0.1963381851398E+00  0.0000000000000E+00  0.1665759783663E+00
 0.1799944063704E+00 -0.2082517814298E+00  0.0000000000000E+00  0.1640616963255E+00
 0.1916231346889E+00 -0.2190857444797E+00  0.0000000000000E+00  0.1586855321889E+00
 0.2021653166931E+00 -0.2289152203712E+00  0.0000000000000E+00  0.1508001772758E+00
 0.2117003790485E+00 -0.2378223929492E+00  0.0000000000000E+00  0.1407355549310E+00
 0.2203134228266E+00 -0.2458952581602E+00  0.0000000000000E+00  0.1287981263580E+00
 0.2280941248037E+00 -0.2532265178839E+00  0.0000000000000E+00  0.1152728898519E+00
 0.2351360877556E+00 -0.2599129373747E+00  0.0000000000000E+00  0.1004286734279E+00
 0.2415367346281E+00 -0.2660552982959E+00  0.0000000000000E+00  0.8452568401026E-01
 0.2473975157706E+00 -0.2717587241582E+00  0.0000000000000E+00  0.6782384121149E-01
 0.2528236544662E+00 -0.2771326180509E+00  0.0000000000000E+00  0.5059034801740E-01
 0.2579224898142E+00 -0.2822893113997E+00  0.0000000000000E+00  0.3310658920862E-01
 0.1792558962634E-01 -0.5774878910541E-01  0.0000000000000E+00  0.4961176118281E-01
 0.4254341438599E-01 -0.8089653589174E-01  0.0000000000000E+00  0.8199186023026E-01
 0.6557966087791E-01 -0.1025250288500E+00  0.0000000000000E+00  0.1090398670207E+00
 0.8710684142412E-01 -0.1227069098858E+00  0.0000000000000E+00  0.1308505901946E+00
 0.1071621004809E+00 -0.1414810102189E+00  0.0000000000000E+00  0.1476398659240E+00
 0.1257704482558E+00 -0.1588750294052E+00  0.0000000000000E+00  0.1597122523084E+00
 0.1429583264149E+00 -0.1749186860807E+00  0.0000000000000E+00  0.1674312313977E+00
 0.1587612137594E+00 -0.1896509676640E+00  0.0000000000000E+00  0.1711937078017E+00
 0.1732268975936E+00 -0.2031231110888E+00  0.0000000000000E+00  0.1714068638870E+00
 0.1864153750031E+00 -0.2153983439682E+00  0.0000000000000E+00  0.1684703716655E+00
 0.1983971409078E+00 -0.2265501922829E+00  0.0000000000000E+00  0.1627660096946E+00
 0.2092514068737E+00 -0.2366608582652E+00  0.0000000000000E+00  0.1546530749659E+00
 0.2190645265623E+00 -0.2458198132525E+00  0.0000000000000E+00  0.1444665427731E+00
 0.2279284478153E+00 -0.2541223141878E+00  0.0000000000000E+00  0.1325168363231E+00
 0.2359391567072E+00 -0.2616678360301E+00  0.0000000000000E+00  0.1190925265460E+00
 0.2431955363631E+00 -0.2685589226717E+00  0.0000000000000E+00  0.1044664127752E+00
 0.2497989270942E+00 -0.2749007928946E+00  0.0000000000000E+00  0.8890376243298E-01
 0.2558532341722E+00 -0.2808015569804E+00  0.0000000000000E+00  0.7267097075759E-01
 0.2614646337042E+00 -0.2863721093091E+00  0.0000000000000E+00  0.5604274616890E-01
 0.2667394916182E+00 -0.2917243545952E+00  0.0000000000000E+00  0.3930828795444E-01
 0.1881614604314E-01 -0.5978749537766E-01  0.0000000000000E+00  0.6053894039051E-01
 0.4420785119903E-01 -0.8365951351218E-01  0.0000000000000E+00  0.9193394065357E-01
 0.6800846659391E-01 -0.1060009459237E+00  0.0000000000000E+00  0.1180854379506E+00
 0.9026754166764E-01 -0.1268624930200E+00  0.0000000000000E+00  0.1390562975442E+00
 0.1110051702329E+00 -0.1462668935248E+00  0.0000000000000E+00  0.1550525967474E+00
 0.1302357682992E+00 -0.1642321260593E+00  0.0000000000000E+00  0.1663817741026E+00
 0.1479808869946E+00 -0.1807838017820E+00  0.0000000000000E+00  0.1734168252376E+00
 0.1642758138079E+00 -0.1959613956447E+00  0.0000000000000E+00  0.1765673084248E+00
 0.1791717009623E+00 -0.2098200697595E+00  0.0000000000000E+00  0.1762533159160E+00
 0.1927341351727E+00 -0.2224290882000E+00  0.0000000000000E+00  0.1728858559859E+00
 0.2050402914562E+00 -0.2338690224235E+00  0.0000000000000E+00  0.1668557699443E+00
 0.2161764937277E+00 -0.2442295238017E+00  0.0000000000000E+00  0.1585290571657E+00
 0.2262363038335E+00 -0.2536076299472E+00  0.0000000000000E+00  0.1482452643243E+00
 0.2353186115862E+00 -0.2621059417053E+00  0.0000000000000E+00  0.1363177797707E+00
 0.2435255666311E+00 -0.2698305386003E+00  0.0000000000000E+00  0.1230373508337E+00
 0.2509609367017E+00 -0.2768893137664E+00  0.0000000000000E+00  0.1086791072227E+00
 0.2577293829534E+00 -0.2833912811638E+00  0.0000000000000E+00  0.9351165356581E-01
 0.2639365793338E+00 -0.2894467915652E+00  0.0000000000000E+00  0.7780615295994E-01
 0.2696889842058E+00 -0.2951674803707E+00  0.0000000000000E+00  0.6184291630766E-01
 0.2750913124439E+00 -0.3006640422823E+00  0.0000000000000E+00  0.4591609573743E-01
 0.1979169939474E-01 -0.6190168297883E-01  0.0000000000000E+00  0.7171739980104E-01
 0.4593212438886E-01 -0.8647379276202E-01  0.0000000000000E+00  0.1021124849979E+00
 0.7047967080198E-01 -0.1095110376665E+00  0.0000000000000E+00  0.1273386422409E+00
 0.9345563183439E-01 -0.1310370706918E+00  0.0000000000000E+00  0.1474308974641E+00
 0.1148598857384E+00 -0.1510555097700E+00  0.0000000000000E+00  0.1625907580361E+00
 0.1346946032545E+00 -0.1695730602863E+00  0.0000000000000E+00  0.1731333360885E+00
 0.1529757259011E+00 -0.1866105793628E+00  0.0000000000000E+00  0.1794450684948E+00
 0.1697382241186E+00 -0.2022079548654E+00  0.0000000000000E+00  0.1819513292521E+00
 0.1850368832745E+00 -0.2164245747928E+00  0.0000000000000E+00  0.1810874191730E+00
 0.1989433552966E+00 -0.2293362342056E+00  0.0000000000000E+00  0.1772770864399E+00
 0.2115420328010E+00 -0.2410310975287E+00  0.0000000000000E+00  0.1709208535309E+00
 0.2229268534767E+00 -0.2516067692547E+00  0.0000000000000E+00  0.1623913577427E+00
 0.2331989689999E+00 -0.2611682291373E+00  0.0000000000000E+00  0.1520320250096E+00
 0.2424643912975E+00 -0.2698255868220E+00  0.0000000000000E+00  0.1401579541405E+00
 0.2508313527754E+00 -0.2776914205397E+00  0.0000000000000E+00  0.1270603815782E+00
 0.2584081505213E+00 -0.2848785822899E+00  0.0000000000000E+00  0.1130148305809E+00
 0.2653021918073E+00 -0.2914992594699E+00  0.0000000000000E+00  0.9829126542164E-01
 0.2716202810244E+00 -0.2976653409982E+00  0.0000000000000E+00  0.8316374910579E-01
 0.2774686720711E+00 -0.3034886274057E+00  0.0000000000000E+00  0.6791619957029E-01
 0.2829502762024E+00 -0.3090783253305E+00  0.0000000000000E+00  0.5284466467042E-01
 0.2085627055505E-01 -0.6409640238787E-01  0.0000000000000E+00  0.8313725296579E-01
 0.4772199248861E-01 -0.8934600432285E-01  0.0000000000000E+00  0.1125212496204E+00
 0.7300026056089E-01 -0.1130629834341E+00  0.0000000000000E+00  0.1367926338630E+00
 0.9667840030452E-01 -0.1352384397707E+00  0.0000000000000E+00  0.1559644163592E+00
 0.1187328512782E+00 -0.1558537929962E+00  0.0000000000000E+00  0.1702400509944E+00
 0.1391520151073E+00 -0.1749030539161E+00  0.0000000000000E+00  0.1799479512232E+00
 0.1579456779798E+00 -0.1924018541984E+00  0.0000000000000E+00  0.1854923733684E+00
 0.1751485456239E+00 -0.2083905982560E+00  0.0000000000000E+00  0.1873179367349E+00
 0.1908194856801E+00 -0.2229333797210E+00  0.0000000000000E+00  0.1858775644819E+00
 0.2050368599161E+00 -0.2361131849247E+00  0.0000000000000E+00  0.1816091231905E+00
 0.2178929628506E+00 -0.2480264616948E+00  0.0000000000000E+00  0.1749233167799E+00
 0.2294899737607E+00 -0.2587793941199E+00  0.0000000000000E+00  0.1661991826761E+00
 0.2399371266307E+00 -0.2684853872249E+00  0.0000000000000E+00  0.1557831186554E+00
 0.2493478308464E+00 -0.2772623167366E+00  0.0000000000000E+00  0.1439904214366E+00
 0.2578363947742E+00 -0.2852292261256E+00  0.0000000000000E+00  0.1311108354040E+00
 0.2655153340736E+00 -0.2925035801381E+00  0.0000000000000E+00  0.1174180340585E+00
 0.2724942421962E+00 -0.2992001332129E+00  0.0000000000000E+00  0.1031811002410E+00
 0.2788804473737E+00 -0.3054316397308E+00  0.0000000000000E+00  0.8867501082982E-01
 0.2847796926804E+00 -0.3113096606309E+00  0.0000000000000E+00  0.7418537733832E-01
 0.2902935550046E+00 -0.3169422327387E+00  0.0000000000000E+00  0.6000727474182E-01
 0.2201418594886E-01 -0.6637721835007E-01  0.0000000000000E+00  0.9478936740515E-01
 0.4958426431698E-01 -0.9228398861842E-01  0.0000000000000E+00  0.1231544093454E+00
 0.7557873251093E-01 -0.1166660913486E+00  0.0000000000000E+00  0.1464402232355E+00
 0.9994485061480E-01 -0.1394762004101E+00  0.0000000000000E+00  0.1646456529235E+00
 0.1226324123734E+00 -0.1606704833048E+00  0.0000000000000E+00  0.1779841403781E+00
 0.1436147312988E+00 -0.1802290419741E+00  0.0000000000000E+00  0.1868039384108E+00
 0.1628951204670E+00 -0.1981620400814E+00  0.0000000000000E+00  0.1915319499893E+00
 0.1805082878259E+00 -0.2145107165346E+00  0.0000000000000E+00  0.1926357316786E+00
 0.1965178431067E+00 -0.2293445586504E+00  0.0000000000000E+00  0.1905883469612E+00
 0.2110096944854E+00 -0.2427545923684E+00  0.0000000000000E+00  0.1858431111886E+00
 0.2240848841157E+00 -0.2548463963204E+00  0.0000000000000E+00  0.1788212684495E+00
 0.2358545959332E+00 -0.2657354914551E+00  0.0000000000000E+00  0.1699078318567E+00
 0.2464367569087E+00 -0.2755443053775E+00  0.0000000000000E+00  0.1594510473463E+00
 0.2559525531963E+00 -0.2843988382009E+00  0.0000000000000E+00  0.1477646444828E+00
 0.2645224463524E+00 -0.2924246480829E+00  0.0000000000000E+00  0.1351346027447E+00
 0.2722629108026E+00 -0.2997435186148E+00  0.0000000000000E+00  0.1218301865849E+00
 0.2792851734015E+00 -0.3064721757938E+00  0.0000000000000E+00  0.1081170752070E+00
 0.2856964784405E+00 -0.3127235692421E+00  0.0000000000000E+00  0.9426907351203E-01
 0.2916018814061E+00 -0.3186087377467E+00  0.0000000000000E+00  0.8057182312491E-01
 0.2971027601637E+00 -0.3242355006992E+00  0.0000000000000E+00  0.6731726430512E-01
 0.2327016399823E-01 -0.6875031497209E-01  0.0000000000000E+00  0.1066656921955E+00
 0.5152697437749E-01 -0.9529698309105E-01  0.0000000000000E+00  0.1340067319002E+00
 0.7822530868437E-01 -0.1203315212781E+00  0.0000000000000E+00  0.1562738885145E+00
 0.1032659154712E+00 -0.1437619740963E+00  0.0000000000000E+00  0.1734620597892E+00
 0.1265688432456E+00 -0.1655163163696E+00  0.0000000000000E+00  0.1858044613044E+00
 0.1480912978953E+00 -0.1855598266076E+00  0.0000000000000E+00  0.1936767052475E+00
 0.1678300923291E+00 -0.2038972485770E+00  0.0000000000000E+00  0.1975335981644E+00
 0.1858204577235E+00 -0.2205712269930E+00  0.0000000000000E+00  0.1978695756606E+00
 0.2021316484892E+00 -0.2356575707631E+00  0.0000000000000E+00  0.1951804486853E+00
 0.2168581713803E+00 -0.2492564048261E+00  0.0000000000000E+00  0.1899362336039E+00
 0.2301108359552E+00 -0.2614834548636E+00  0.0000000000000E+00  0.1825689014393E+00
 0.2420107337973E+00 -0.2724644705921E+00  0.0000000000000E+00  0.1734688135298E+00
 0.2526852166300E+00 -0.2823316157667E+00  0.0000000000000E+00  0.1629847260022E+00
 0.2622637367632E+00 -0.2912194798259E+00  0.0000000000000E+00  0.1514267970234E+00
 0.2708730809206E+00 -0.2992602789093E+00  0.0000000000000E+00  0.1390746886439E+00
 0.2786334830994E+00 -0.3065798849959E+00  0.0000000000000E+00  0.1261903771114E+00
 0.2856572520360E+00 -0.3132964085018E+00  0.0000000000000E+00  0.1130333142151E+00
 0.2920509014315E+00 -0.3195222966451E+00  0.0000000000000E+00  0.9987394220250E-01
 0.2979186448601E+00 -0.3253678151776E+00  0.0000000000000E+00  0.8699662044914E-01
 0.3033633427797E+00 -0.3309420276977E+00  0.0000000000000E+00  0.7468937433640E-01
 0.2462941933769E-01 -0.7122261909020E-01  0.0000000000000E+00  0.1187596520535E+00
 0.5355958264678E-01 -0.9839583396322E-01  0.0000000000000E+00  0.1450737950362E+00
 0.8095217781432E-01 -0.1240725330384E+00  0.0000000000000E+00  0.1662857970414E+00
 0.1066546907784E+00 -0.1481096412990E+00  0.0000000000000E+00  0.1823996085802E+00
 0.1305545457345E+00 -0.1704042239450E+00  0.0000000000000E+00  0.1936799955253E+00
 0.1525922360461E+00 -0.1909062337445E+00  0.0000000000000E+00  0.2005384971459E+00
 0.1727584098635E+00 -0.2096154039397E+00  0.0000000000000E+00  0.2034634670480E+00
 0.1910896389131E+00 -0.2265766516079E+00  0.0000000000000E+00  0.2029803901048E+00
 0.2076620025357E+00 -0.2418733094144E+00  0.0000000000000E+00  0.1996105012996E+00
 0.2225798987819E+00 -0.2556158960062E+00  0.0000000000000E+00  0.1938416521938E+00
 0.2359651086271E+00 -0.2679314785845E+00  0.0000000000000E+00  0.1861165141005E+00
 0.2479496731834E+00 -0.2789570600983E+00  0.0000000000000E+00  0.1768299434343E+00
 0.2586712179807E+00 -0.2888353652212E+00  0.0000000000000E+00  0.1663296584320E+00
 0.2682680623438E+00 -0.2977101445707E+00  0.0000000000000E+00  0.1549200264984E+00
 0.2768735953149E+00 -0.3057205196050E+00  0.0000000000000E+00  0.1428715873481E+00
 0.2846116855735E+00 -0.3129962986615E+00  0.0000000000000E+00  0.1304358371973E+00
 0.2915951682343E+00 -0.3196563969725E+00  0.0000000000000E+00  0.1178628527976E+00
 0.2979290973404E+00 -0.3258119963830E+00  0.0000000000000E+00  0.1054174247333E+00
 0.3037165714462E+00 -0.3315722552709E+00  0.0000000000000E+00  0.9338175241209E-01
 0.3090636518371E+00 -0.3370490273218E+00  0.0000000000000E+00  0.8204125215476E-01
 0.2609778208771E-01 -0.7380193611334E-01  0.0000000000000E+00  0.1310665781183E+00
 0.5569319670333E-01 -0.1015932278375E+00  0.0000000000000E+00  0.1563522157091E+00
 0.8377375925418E-01 -0.1279047544039E+00  0.0000000000000E+00  0.1764678036638E+00
 0.1101266842290E+00 -0.1525355910967E+00  0.0000000000000E+00  0.1914426048003E+00
 0.1346042512215E+00 -0.1753495350139E+00  0.0000000000000E+00  0.2015869856160E+00
 0.1571301908743E+00 -0.1962812599621E+00  0.0000000000000E+00  0.2073580853445E+00
 0.1776897659459E+00 -0.2153263394732E+00  0.0000000000000E+00  0.2092837592493E+00
 0.1963220469414E+00 -0.2325331691887E+00  0.0000000000000E+00  0.2079249088111E+00
 0.2131114346135E+00 -0.2479941201344E+00  0.0000000000000E+00  0.2038309146106E+00
 0.2281737788501E+00 -0.2618316613508E+00  0.0000000000000E+00  0.1975084263058E+00
 0.2416432279870E+00 -0.2741855810961E+00  0.0000000000000E+00  0.1894105174999E+00
 0.2536639449730E+00 -0.2852052828310E+00  0.0000000000000E+00  0.1799354266745E+00
 0.2643847819081E+00 -0.2950449727037E+00  0.0000000000000E+00  0.1694280798740E+00
 0.2739536305956E+00 -0.3038582324328E+00  0.0000000000000E+00  0.1581846562912E+00
 0.2825108730133E+00 -0.3117914472425E+00  0.0000000000000E+00  0.1464635661668E+00
 0.2901839804385E+00 -0.3189783078586E+00  0.0000000000000E+00  0.1345023469463E+00
 0.2970857530801E+00 -0.3255379645961E+00  0.0000000000000E+00  0.1225382032656E+00
 0.3033188984744E+00 -0.3315794428776E+00  0.0000000000000E+00  0.1108278797835E+00
 0.3089847693263E+00 -0.3372101439527E+00  0.0000000000000E+00  0.9965122350678E-01
 0.3141933737466E+00 -0.3425454921088E+00  0.0000000000000E+00  0.8929533076328E-01
 0.2768183926516E-01 -0.7649711197203E-01  0.0000000000000E+00  0.1435842324953E+00
 0.5794082891795E-01 -0.1049039601301E+00  0.0000000000000E+00  0.1678399385561E+00
 0.8670700502771E-01 -0.1318464889089E+00  0.0000000000000E+00  0.1868114617279E+00
 0.1137000949277E+00 -0.1570590031893E+00  0.0000000000000E+00  0.2005734769288E+00
 0.1387352413536E+00 -0.1803701970600E+00  0.0000000000000E+00  0.2094986042049E+00
 0.1617200878290E+00 -0.2017002278871E+00  0.0000000000000E+00  0.2141004069467E+00
 0.1826358269922E+00 -0.2210418923170E+00  0.0000000000000E+00  0.2149523893007E+00
 0.2015255735928E+00 -0.2384486567132E+00  0.0000000000000E+00  0.2126553921420E+00
 0.2184839062004E+00 -0.2540238010542E+00  0.0000000000000E+00  0.2077896804866E+00
 0.2336399864863E+00 -0.2679035945218E+00  0.0000000000000E+00  0.2008814234280E+00
 0.2471419238002E+00 -0.2802421161165E+00  0.0000000000000E+00  0.1923934458696E+00
 0.2591472881565E+00 -0.2912024210107E+00  0.0000000000000E+00  0.1827259417082E+00
 0.2698171874057E+00 -0.3009511834299E+00  0.0000000000000E+00  0.1722190821206E+00
 0.2793098753902E+00 -0.3096525604738E+00  0.0000000000000E+00  0.1611583326374E+00
 0.2877732329481E+00 -0.3174606697274E+00  0.0000000000000E+00  0.1497868468221E+00
 0.2953384203506E+00 -0.3245131536004E+00  0.0000000000000E+00  0.1383244963971E+00
 0.3021176444076E+00 -0.3309288520391E+00  0.0000000000000E+00  0.1269917319928E+00
 0.3082101424157E+00 -0.3368135448766E+00  0.0000000000000E+00  0.1160346343380E+00
 0.3137141210662E+00 -0.3422715386290E+00  0.0000000000000E+00  0.1057310278565E+00
 0.3187422583028E+00 -0.3474207057712E+00  0.0000000000000E+00  0.9637660411612E-01
 0.2938909888605E-01 -0.7931821191081E-01  0.0000000000000E+00  0.1563133985234E+00
 0.6031768814355E-01 -0.1083452339335E+00  0.0000000000000E+00  0.1795365680738E+00
 0.8977174040763E-01 -0.1359190574197E+00  0.0000000000000E+00  0.1973080250345E+00
 0.1173961214367E+00 -0.1617021543096E+00  0.0000000000000E+00  0.2097725119936E+00
 0.1429675813681E+00 -0.1854870063238E+00  0.0000000000000E+00  0.2173845478185E+00
 0.1663792875886E+00 -0.2071809370528E+00  0.0000000000000E+00  0.2207261269664E+00
 0.1876103165634E+00 -0.2267759817646E+00  0.0000000000000E+00  0.2204225663261E+00
 0.2067098068325E+00 -0.2443327032240E+00  0.0000000000000E+00  0.2171192738629E+00
 0.2237847820118E+00 -0.2599675677532E+00  0.0000000000000E+00  0.2114301274526E+00
 0.2389799139128E+00 -0.2738328264582E+00  0.0000000000000E+00  0.2039012045390E+00
 0.2524590697746E+00 -0.2860986139328E+00  0.0000000000000E+00  0.1950039630001E+00
 0.2643945973032E+00 -0.2969429634436E+00  0.0000000000000E+00  0.1851387273324E+00
 0.2749609202975E+00 -0.3065460217046E+00  0.0000000000000E+00  0.1746387234161E+00
 0.2843274861967E+00 -0.3150832928325E+00  0.0000000000000E+00  0.1637761079563E+00
 0.2926502833814E+00 -0.3227171877073E+00  0.0000000000000E+00  0.1527756533234E+00
 0.3000643975433E+00 -0.3295895212641E+00  0.0000000000000E+00  0.1418357458518E+00
 0.3066809287070E+00 -0.3358183466873E+00  0.0000000000000E+00  0.1311557894741E+00
 0.3125942650362E+00 -0.3415049052537E+00  0.0000000000000E+00  0.1209680796553E+00
 0.3178970848158E+00 -0.3467481602097E+00  0.0000000000000E+00  0.1115482750885E+00
 0.3227008543821E+00 -0.3516647999021E+00  0.0000000000000E+00  0.1032071898695E+00
 0.3122817257259E-01 -0.8227672178704E-01  0.0000000000000E+00  0.1692585610345E+00
 0.6284151166250E-01 -0.1119369992225E+00  0.0000000000000E+00  0.1914437551195E+00
 0.9299105035613E-01 -0.1401471865465E+00  0.0000000000000E+00  0.2079484391822E+00
 0.1212393043600E+00 -0.1664907592082E+00  0.0000000000000E+00  0.2190175283277E+00
 0.1473243689927E+00 -0.1907238548422E+00  0.0000000000000E+00  0.2252105449595E+00
 0.1711277397618E+00 -0.2127438140799E+00  0.0000000000000E+00  0.2271911142086E+00
 0.1926290827322E+00 -0.2325446719435E+00  0.0000000000000E+00  0.2256422942615E+00
 0.2118860192073E+00 -0.2501965916777E+00  0.0000000000000E+00  0.2212587361421E+00
 0.2290207572241E+00 -0.2658319731981E+00  0.0000000000000E+00  0.2146906286833E+00
 0.2441960666611E+00 -0.2796216141052E+00  0.0000000000000E+00  0.2065038978575E+00
 0.2575935810126E+00 -0.2917536731917E+00  0.0000000000000E+00  0.1971768926276E+00
 0.2694018447730E+00 -0.3024225257162E+00  0.0000000000000E+00  0.1871077153251E+00
 0.2798096221449E+00 -0.3118227433741E+00  0.0000000000000E+00  0.1766201748720E+00
 0.2889983538269E+00 -0.3201418966478E+00  0.0000000000000E+00  0.1659705034086E+00
 0.2971328054010E+00 -0.3275512908837E+00  0.0000000000000E+00  0.1553621382775E+00
 0.3043524051299E+00 -0.3341973094091E+00  0.0000000000000E+00  0.1449682534093E+00
 0.3107667658898E+00 -0.3401968968272E+00  0.0000000000000E+00  0.1349625509901E+00
 0.3164639272193E+00 -0.3456453954634E+00  0.0000000000000E+00  0.1255596140845E+00
 0.3215277896294E+00 -0.3506333802921E+00  0.0000000000000E+00  0.1170312356952E+00
 0.3260621612367E+00 -0.3552701924765E+00  0.0000000000000E+00  0.1097076035986E+00
 0.3320899239299E-01 -0.8538577769915E-01  0.0000000000000E+00  0.1824287350368E+00
 0.6553295563867E-01 -0.1157023499679E+00  0.0000000000000E+00  0.2035656954324E+00
 0.9639173498868E-01 -0.1445594597702E+00  0.0000000000000E+00  0.2187233581276E+00
 0.1252579261626E+00 -0.1714543676018E+00  0.0000000000000E+00  0.2282835001393E+00
 0.1518320197425E+00 -0.1961080095237E+00  0.0000000000000E+00  0.2329377770630E+00
 0.1759881555449E+00 -0.2184120815509E+00  0.0000000000000E+00  0.2334458198110E+00
 0.1977101670652E+00 -0.2383662331246E+00  0.0000000000000E+00  0.2305537632642E+00
 0.2170671377328E+00 -0.2560532602367E+00  0.0000000000000E+00  0.2250101798100E+00
 0.2341997488876E+00 -0.2716247881944E+00  0.0000000000000E+00  0.2175042301322E+00
 0.2492919156318E+00 -0.2852731815919E+00  0.0000000000000E+00  0.2086210371790E+00
 0.2625452726111E+00 -0.2972068097891E+00  0.0000000000000E+00  0.1988432628495E+00
 0.2741659852066E+00 -0.3076377481409E+00  0.0000000000000E+00  0.1885637222256E+00
 0.2843580593239E+00 -0.3167758060415E+00  0.0000000000000E+00  0.1780939408842E+00
 0.2933155824159E+00 -0.3248211648074E+00  0.0000000000000E+00  0.1676715981542E+00
 0.3012127314019E+00 -0.3319545581291E+00  0.0000000000000E+00  0.1574762003847E+00
 0.3081938800540E+00 -0.3383274894375E+00  0.0000000000000E+00  0.1476524241612E+00
 0.3143670429527E+00 -0.3440557641503E+00  0.0000000000000E+00  0.1383434686876E+00
 0.3198125961084E+00 -0.3492276973721E+00  0.0000000000000E+00  0.1297413254012E+00
 0.3246019968808E+00 -0.3539220912623E+00  0.0000000000000E+00  0.1221096346628E+00
 0.3288223287367E+00 -0.3582322908985E+00  0.0000000000000E+00  0.1157977398040E+00
 0.3534304161292E-01 -0.8866041869045E-01  0.0000000000000E+00  0.1958383856309E+00
 0.6841603612334E-01 -0.1196679576567E+00  0.0000000000000E+00  0.2159097069682E+00
 0.1000048266012E+00 -0.1491888388075E+00  0.0000000000000E+00  0.2296231361431E+00
 0.1294844526307E+00 -0.1766267871594E+00  0.0000000000000E+00  0.2375420888862E+00
 0.1565205719824E+00 -0.2016704193351E+00  0.0000000000000E+00  0.2405221864387E+00
 0.1809861811396E+00 -0.2242119210181E+00  0.0000000000000E+00  0.2394345246077E+00
 0.2028738520760E+00 -0.2442611854278E+00  0.0000000000000E+00  0.2350926069128E+00
 0.2222676647052E+00 -0.2619172101597E+00  0.0000000000000E+00  0.2283035588042E+00
 0.2393307130763E+00 -0.2773548057214E+00  0.0000000000000E+00  0.2197981871143E+00
 0.2542716636655E+00 -0.2907914720097E+00  0.0000000000000E+00  0.2101793674199E+00
 0.2673146364609E+00 -0.3024582200520E+00  0.0000000000000E+00  0.1999303870565E+00
 0.2786847988295E+00 -0.3125861283493E+00  0.0000000000000E+00  0.1894347453226E+00
 0.2886020804563E+00 -0.3214008197496E+00  0.0000000000000E+00  0.1789882510606E+00
 0.2972735684935E+00 -0.3291153078255E+00  0.0000000000000E+00  0.1688072776609E+00
 0.3048832694252E+00 -0.3359200089042E+00  0.0000000000000E+00  0.1590453127582E+00
 0.3115812006345E+00 -0.3419721497785E+00  0.0000000000000E+00  0.1498161681674E+00
 0.3174740844701E+00 -0.3473867427753E+00  0.0000000000000E+00  0.1412282410480E+00
 0.3226340194895E+00 -0.3522447634387E+00  0.0000000000000E+00  0.1334453048940E+00
 0.3271167258824E+00 -0.3566102678095E+00  0.0000000000000E+00  0.1267151633168E+00
 0.3309814110925E+00 -0.3605500365361E+00  0.0000000000000E+00  0.1213985688565E+00
 0.3764364917434E-01 -0.9211785475565E-01  0.0000000000000E+00  0.2095087267292E+00
 0.7151867933244E-01 -0.1238646830960E+00  0.0000000000000E+00  0.2284869463149E+00
 0.1038661967518E+00 -0.1540731991067E+00  0.0000000000000E+00  0.2406378363702E+00
 0.1339560575685E+00 -0.1820466463433E+00  0.0000000000000E+00  0.2467611506006E+00
 0.1614240548243E+00 -0.2074460390213E+00  0.0000000000000E+00  0.2479136675501E+00
 0.1861506231939E+00 -0.2301727226959E+00  0.0000000000000E+00  0.2450944886826E+00
 0.2081427337049E+00 -0.2502523522594E+00  0.0000000000000E+00  0.2391869537767E+00
 0.2275035739275E+00 -0.2678043941777E+00  0.0000000000000E+00  0.2310615428144E+00
 0.2444234066176E+00 -0.2830315841924E+00  0.0000000000000E+00  0.2214933625354E+00
 0.2591399354605E+00 -0.2961808202036E+00  0.0000000000000E+00  0.2111005911701E+00
 0.2719025397931E+00 -0.3075084611149E+00  0.0000000000000E+00  0.2003619691890E+00
 0.2829566717630E+00 -0.3172657858510E+00  0.0000000000000E+00  0.1896463717154E+00
 0.2925385415025E+00 -0.3256944619088E+00  0.0000000000000E+00  0.1792296652445E+00
 0.3008681569562E+00 -0.3330200958074E+00  0.0000000000000E+00  0.1693038581882E+00
 0.3081392676504E+00 -0.3394425256405E+00  0.0000000000000E+00  0.1599945920875E+00
 0.3145080204294E+00 -0.3451248838105E+00  0.0000000000000E+00  0.1513839724552E+00
 0.3200805315132E+00 -0.3501821420187E+00  0.0000000000000E+00  0.1435429629313E+00
 0.3249215279381E+00 -0.3546890461151E+00  0.0000000000000E+00  0.1366022588148E+00
 0.3290695751127E+00 -0.3586942723126E+00  0.0000000000000E+00  0.1307815522208E+00
 0.3325444979982E+00 -0.3622267631342E+00  0.0000000000000E+00  0.1264329289185E+00
 0.4012628428619E-01 -0.9577807930940E-01  0.0000000000000E+00  0.2234685528897E+00
 0.7487330606528E-01 -0.1283278356644E+00  0.0000000000000E+00  0.2413132377015E+00
 0.1080172746589E+00 -0.1592563528815E+00  0.0000000000000E+00  0.2517572115145E+00
 0.1387151517090E+00 -0.1877576194536E+00  0.0000000000000E+00  0.2559040391961E+00
 0.1665809181485E+00 -0.2134744400319E+00  0.0000000000000E+00  0.2550554528847E+00
 0.1915137555663E+00 -0.2363273047607E+00  0.0000000000000E+00  0.2503547554962E+00
 0.2135417802659E+00 -0.2563649510283E+00  0.0000000000000E+00  0.2427563073372E+00
 0.2327921552660E+00 -0.2737320338152E+00  0.0000000000000E+00  0.2331983779600E+00
 0.2494880294148E+00 -0.2886650642921E+00  0.0000000000000E+00  0.2225034661406E+00
 0.2639013457993E+00 -0.3014455016280E+00  0.0000000000000E+00  0.2113010507099E+00
 0.2763097917929E+00 -0.3123579993415E+00  0.0000000000000E+00  0.2000581954981E+00
 0.2869802446285E+00 -0.3216750794961E+00  0.0000000000000E+00  0.1891223093914E+00
 0.2961651434213E+00 -0.3296543008412E+00  0.0000000000000E+00  0.1787439251643E+00
 0.3040967189018E+00 -0.3365329347450E+00  0.0000000000000E+00  0.1690870925711E+00
 0.3109778240650E+00 -0.3425193791335E+00  0.0000000000000E+00  0.1602478873340E+00
 0.3169702417127E+00 -0.3477820483210E+00  0.0000000000000E+00  0.1522760815581E+00
 0.3221797438854E+00 -0.3524352155569E+00  0.0000000000000E+00  0.1452070712889E+00
 0.3266670071149E+00 -0.3565516967239E+00  0.0000000000000E+00  0.1391380612826E+00
 0.3304573320261E+00 -0.3601689374341E+00  0.0000000000000E+00  0.1342452077957E+00
 0.3335233203678E+00 -0.3632720342657E+00  0.0000000000000E+00  0.1308296898203E+00
 0.4280960904359E-01 -0.9966326105323E-01  0.0000000000000E+00  0.2377606172366E+00
 0.7851833175550E-01 -0.1331008401314E+00  0.0000000000000E+00  0.2544093157224E+00
 0.1125053323745E+00 -0.1647862455900E+00  0.0000000000000E+00  0.2629694393763E+00
 0.1438099848661E+00 -0.1938103340367E+00  0.0000000000000E+00  0.2649309180950E+00
 0.1720347483047E+00 -0.2197998568467E+00  0.0000000000000E+00  0.2618821231295E+00
 0.1971115958034E+00 -0.2427124473587E+00  0.0000000000000E+00  0.2551354847006E+00
 0.2190985610481E+00 -0.2626267904156E+00  0.0000000000000E+00  0.2457097282823E+00
 0.2381517137273E+00 -0.2797182706207E+00  0.0000000000000E+00  0.2346183003062E+00
 0.2545347029125E+00 -0.2942650089532E+00  0.0000000000000E+00  0.2227341686286E+00
 0.2685599436469E+00 -0.3065891547854E+00  0.0000000000000E+00  0.2106913911691E+00
 0.2805365891353E+00 -0.3170066456911E+00  0.0000000000000E+00  0.1989357527342E+00
 0.2907538445934E+00 -0.3258120120144E+00  0.0000000000000E+00  0.1877848793123E+00
 0.2994800884314E+00 -0.3332783585372E+00  0.0000000000000E+00  0.1774572897278E+00
 0.3069582265706E+00 -0.3396529990255E+00  0.0000000000000E+00  0.1680835756797E+00
 0.3133984909626E+00 -0.3451504704807E+00  0.0000000000000E+00  0.1597292744787E+00
 0.3189679617472E+00 -0.3499440961144E+00  0.0000000000000E+00  0.1524116909251E+00
 0.3237682208472E+00 -0.3541442723331E+00  0.0000000000000E+00  0.1461280549256E+00
 0.3278596939146E+00 -0.3578205594795E+00  0.0000000000000E+00  0.1409646185852E+00
 0.3312716496759E+00 -0.3610236626611E+00  0.0000000000000E+00  0.1370439294456E+00
 0.3339380678620E+00 -0.3637012963194E+00  0.0000000000000E+00  0.1345361843898E+00
 0.4571625655527E-01 -0.1038143759049E+00  0.0000000000000E+00  0.2524115646123E+00
 0.8249372789644E-01 -0.1382158512845E+00  0.0000000000000E+00  0.2677883922638E+00
 0.1173840256305E+00 -0.1707255424029E+00  0.0000000000000E+00  0.2742744829724E+00
 0.1492966204578E+00 -0.2002595180370E+00  0.0000000000000E+00  0.2737887527308E+00
 0.1778335537790E+00 -0.2264718317353E+00  0.0000000000000E+00  0.2683235305079E+00
 0.2029855294312E+00 -0.2493705541864E+00  0.0000000000000E+00  0.2593462110054E+00
 0.2248434632623E+00 -0.2690684469447E+00  0.0000000000000E+00  0.2479425436346E+00
 0.2436009727139E+00 -0.2857814647101E+00  0.0000000000000E+00  0.2352134184380E+00
 0.2595727412435E+00 -0.2998402040998E+00  0.0000000000000E+00  0.2220823893509E+00
 0.2731186340967E+00 -0.3116142323343E+00  0.0000000000000E+00  0.2091763192584E+00
 0.2845819350159E+00 -0.3214529578047E+00  0.0000000000000E+00  0.1969076518909E+00
 0.2942747621739E+00 -0.3296735001041E+00  0.0000000000000E+00  0.1855551667953E+00
 0.3024811939007E+00 -0.3365641840531E+00  0.0000000000000E+00  0.1752977708981E+00
 0.3094533139713E+00 -0.3423809000344E+00  0.0000000000000E+00  0.1662243339086E+00
 0.3154041530821E+00 -0.3473399101317E+00  0.0000000000000E+00  0.1583637002128E+00
 0.3205043296048E+00 -0.3516144777014E+00  0.0000000000000E+00  0.1517107952924E+00
 0.3248531424360E+00 -0.3553160492027E+00  0.0000000000000E+00  0.1462177100722E+00
 0.3284926603748E+00 -0.3584978752996E+00  0.0000000000000E+00  0.1419475011977E+00
 0.3314852228545E+00 -0.3612194712739E+00  0.0000000000000E+00  0.1390902573247E+00
 0.3338177863603E+00 -0.3635353814836E+00  0.0000000000000E+00  0.1375435926326E+00
-0.5316572709920E-01  0.7611947421185E-01  0.0000000000000E+00 -0.1055786637656E-01
-0.9364166869400E-01  0.1070196645461E+00  0.0000000000000E+00 -0.1116008189864E+00
-0.9766794108676E-01  0.1125901525214E+00  0.0000000000000E+00 -0.1259976064005E+00
-0.9255827157349E-01  0.1075496413624E+00  0.0000000000000E+00 -0.1369242027405E+00
-0.7948961911349E-01  0.9344549561442E-01  0.0000000000000E+00 -0.1422027046118E+00
-0.6442252912631E-01  0.7615569531582E-01  0.0000000000000E+00 -0.1340299569701E+00
-0.5401290792626E-01  0.6365075134836E-01  0.0000000000000E+00 -0.1132017292856E+00
-0.4923845771795E-01  0.5748915994730E-01  0.0000000000000E+00 -0.9063693179466E-01
-0.4621675491010E-01  0.5349485189799E-01  0.0000000000000E+00 -0.7131731398082E-01
-0.4302025897707E-01  0.4946476272234E-01  0.0000000000000E+00 -0.5508996627845E-01
-0.3935418168694E-01  0.4500350820228E-01  0.0000000000000E+00 -0.4103059970882E-01
-0.3525503461856E-01  0.4014445518848E-01  0.0000000000000E+00 -0.2872383177772E-01
-0.3072895885168E-01  0.3488215799033E-01  0.0000000000000E+00 -0.1814094450442E-01
-0.2582103987600E-01  0.2924533778646E-01  0.0000000000000E+00 -0.9268564842883E-02
-0.2071297027964E-01  0.2343381720383E-01  0.0000000000000E+00 -0.2174186991514E-02
-0.1554267417925E-01  0.1761469833168E-01  0.0000000000000E+00  0.2872286514081E-02
-0.1038288359539E-01  0.1178868824915E-01  0.0000000000000E+00  0.5979703611392E-02
-0.6011488625223E-02  0.6791035635531E-02  0.0000000000000E+00  0.7806829883924E-02
-0.2672438034659E-02  0.3067435234029E-02  0.0000000000000E+00  0.8840143018973E-02
 0.2555918102238E-03  0.7300976774860E-04  0.0000000000000E+00  0.8855950927389E-02
-0.4583517821738E-01  0.6483032175004E-01  0.0000000000000E+00 -0.1538124534001E-01
-0.8537292051731E-01  0.1000988928128E+00  0.0000000000000E+00 -0.9834926309794E-01
-0.8913759397150E-01  0.1024240488747E+00  0.0000000000000E+00 -0.1167662984306E+00
-0.8499892862072E-01  0.9840322939258E-01  0.0000000000000E+00 -0.1185497075168E+00
-0.7653756734947E-01  0.8918596025037E-01  0.0000000000000E+00 -0.1177880943410E+00
-0.6619116064293E-01  0.7743176830037E-01  0.0000000000000E+00 -0.1116110636075E+00
-0.5760212627781E-01  0.6715996868431E-01  0.0000000000000E+00 -0.9818341814246E-01
-0.5213177670945E-01  0.6020953028391E-01  0.0000000000000E+00 -0.8111362617473E-01
-0.4824581729162E-01  0.5523718129557E-01  0.0000000000000E+00 -0.6391570059752E-01
-0.4463096538749E-01  0.5077301528555E-01  0.0000000000000E+00 -0.4814287268954E-01
-0.4083919775579E-01  0.4622698161805E-01  0.0000000000000E+00 -0.3408840081948E-01
-0.3673952038362E-01  0.4141553464961E-01  0.0000000000000E+00 -0.2166606748228E-01
-0.3227991774162E-01  0.3627434885672E-01  0.0000000000000E+00 -0.1083279527849E-01
-0.2746700353468E-01  0.3080638077462E-01  0.0000000000000E+00 -0.1640000987524E-02
-0.2238931103265E-01  0.2510185814287E-01  0.0000000000000E+00  0.5779744824243E-02
-0.1716217809908E-01  0.1927569369106E-01  0.0000000000000E+00  0.1127444069385E-01
-0.1194341367780E-01  0.1349402185692E-01  0.0000000000000E+00  0.1474373569878E-01
-0.7255476409760E-02  0.8298091566984E-02  0.0000000000000E+00  0.1650975354196E-01
-0.3244543340445E-02  0.3931216800487E-02  0.0000000000000E+00  0.1719533386623E-01
 0.5391565085595E-03  0.3990466710890E-04  0.0000000000000E+00  0.1688433045265E-01
-0.3776535639748E-01  0.5490634096233E-01  0.0000000000000E+00 -0.2723522084919E-01
-0.7574458176296E-01  0.8954277592671E-01  0.0000000000000E+00 -0.8839300651432E-01
-0.8137054573881E-01  0.9389887629983E-01  0.0000000000000E+00 -0.1036801741476E+00
-0.7855076245087E-01  0.9052769382508E-01  0.0000000000000E+00 -0.1028227950906E+00
-0.7279403138487E-01  0.8424243721321E-01  0.0000000000000E+00 -0.9799410941810E-01
-0.6579500269915E-01  0.7626887834052E-01  0.0000000000000E+00 -0.9174390698088E-01
-0.5928044246246E-01  0.6845798164716E-01  0.0000000000000E+00 -0.8207335386719E-01
-0.5417911608253E-01  0.6201423718550E-01  0.0000000000000E+00 -0.6920173954514E-01
-0.4999036521299E-01  0.5670424847088E-01  0.0000000000000E+00 -0.5483299488253E-01
-0.4608145122778E-01  0.5191557937061E-01  0.0000000000000E+00 -0.4045393686394E-01
-0.4215236706404E-01  0.4724666709278E-01  0.0000000000000E+00 -0.2694956767323E-01
-0.3804351967769E-01  0.4246733140055E-01  0.0000000000000E+00 -0.1468055971815E-01
-0.3365294417764E-01  0.3744865229571E-01  0.0000000000000E+00 -0.3793088200357E-02
-0.2893748614508E-01  0.3214098989000E-01  0.0000000000000E+00  0.5593330188574E-02
-0.2392870256080E-01  0.2657247182229E-01  0.0000000000000E+00  0.1333011293943E-01
-0.1870572533107E-01  0.2082421944627E-01  0.0000000000000E+00  0.1922364534435E-01
-0.1340659741434E-01  0.1504245263623E-01  0.0000000000000E+00  0.2300117424424E-01
-0.8357851080717E-02  0.9573526093515E-02  0.0000000000000E+00  0.2493947730709E-01
-0.3680277915226E-02  0.4589825485964E-02  0.0000000000000E+00  0.2567335008522E-01
 0.9162346061093E-03 -0.1182741709398E-03  0.0000000000000E+00  0.2533178481533E-01
-0.3048562431056E-01  0.4595040766254E-01  0.0000000000000E+00 -0.3916577335233E-01
-0.6626662973394E-01  0.7896236524387E-01  0.0000000000000E+00 -0.8103784027657E-01
-0.7366870316071E-01  0.8517149976152E-01  0.0000000000000E+00 -0.9099497729725E-01
-0.7252985353586E-01  0.8337040746175E-01  0.0000000000000E+00 -0.8805449980086E-01
-0.6868969541321E-01  0.7898516322740E-01  0.0000000000000E+00 -0.8121760614307E-01
-0.6400133241299E-01  0.7359804796120E-01  0.0000000000000E+00 -0.7427109816364E-01
-0.5932912025513E-01  0.6792551687498E-01  0.0000000000000E+00 -0.6632908855070E-01
-0.5505939683428E-01  0.6250895017127E-01  0.0000000000000E+00 -0.5619730737814E-01
-0.5107037359984E-01  0.5745750509897E-01  0.0000000000000E+00 -0.4437746151850E-01
-0.4714248667447E-01  0.5264842022334E-01  0.0000000000000E+00 -0.3181948075629E-01
-0.4317872001741E-01  0.4795270102668E-01  0.0000000000000E+00 -0.1937796942555E-01
-0.3909282444736E-01  0.4322693829304E-01  0.0000000000000E+00 -0.7634182075233E-02
-0.3478841404803E-01  0.3834102106675E-01  0.0000000000000E+00  0.3060765568959E-02
-0.3019451704079E-01  0.3321121000512E-01  0.0000000000000E+00  0.1247792501381E-01
-0.2529515308264E-01  0.2781605039257E-01  0.0000000000000E+00  0.2042608011137E-01
-0.2012389316331E-01  0.2218931616296E-01  0.0000000000000E+00  0.2666563382948E-01
-0.1477896249667E-01  0.1643684214985E-01  0.0000000000000E+00  0.3081475624214E-01
-0.9425520676612E-02  0.1074049408936E-01  0.0000000000000E+00  0.3311107906549E-01
-0.4149125362955E-02  0.5213686825593E-02  0.0000000000000E+00  0.3415203722633E-01
 0.1191056905729E-02 -0.2206167501528E-03  0.0000000000000E+00  0.3403116454309E-01
-0.2403543365053E-01  0.3787670116213E-01  0.0000000000000E+00 -0.5038529875830E-01
-0.5731326676299E-01  0.6880748497023E-01  0.0000000000000E+00 -0.7552479532029E-01
-0.6607660230445E-01  0.7647511545729E-01  0.0000000000000E+00 -0.7968022519351E-01
-0.6655381293138E-01  0.7628301084897E-01  0.0000000000000E+00 -0.7453220798663E-01
-0.6429001624130E-01  0.7350497198567E-01  0.0000000000000E+00 -0.6638118569280E-01
-0.6127282588591E-01  0.6993582554624E-01  0.0000000000000E+00 -0.5879486565845E-01
-0.5808861650755E-01  0.6597448365527E-01  0.0000000000000E+00 -0.5152038166249E-01
-0.5476627495351E-01  0.6169578252214E-01  0.0000000000000E+00 -0.4302435646761E-01
-0.5127212467291E-01  0.5724507621336E-01  0.0000000000000E+00 -0.3316015881532E-01
-0.4758841471008E-01  0.5271929766503E-01  0.0000000000000E+00 -0.2238904989851E-01
-0.4375483577849E-01  0.4817318361542E-01  0.0000000000000E+00 -0.1128793536008E-01
-0.3977722017921E-01  0.4358280838581E-01  0.0000000000000E+00 -0.4031235640518E-03
-0.3560581766203E-01  0.3886971923552E-01  0.0000000000000E+00  0.9819627827676E-02
-0.3117284108291E-01  0.3395108402855E-01  0.0000000000000E+00  0.1905652168447E-01
-0.2643190849062E-01  0.2877271429616E-01  0.0000000000000E+00  0.2706405743727E-01
-0.2137429312988E-01  0.2332444062444E-01  0.0000000000000E+00  0.3356346990523E-01
-0.1605382888231E-01  0.1766568004885E-01  0.0000000000000E+00  0.3811060329958E-01
-0.1049851976622E-01  0.1183983498779E-01  0.0000000000000E+00  0.4090014644519E-01
-0.4744328708911E-02  0.5894132245772E-02  0.0000000000000E+00  0.4244085485863E-01
 0.1217079734402E-02 -0.1307589972208E-03  0.0000000000000E+00  0.4273681649487E-01
-0.1837776684137E-01  0.3061104923566E-01  0.0000000000000E+00 -0.6063954550395E-01
-0.4898859095019E-01  0.5922794739340E-01  0.0000000000000E+00 -0.7149556247442E-01
-0.5866184383715E-01  0.6790658460499E-01  0.0000000000000E+00 -0.6992215214243E-01
-0.6052055210236E-01  0.6913439018143E-01  0.0000000000000E+00 -0.6241859595433E-01
-0.5958009003904E-01  0.6772853724583E-01  0.0000000000000E+00 -0.5311590214717E-01
-0.5784827801107E-01  0.6555186356119E-01  0.0000000000000E+00 -0.4492227531817E-01
-0.5583861573640E-01  0.6292600370161E-01  0.0000000000000E+00 -0.3780971392643E-01
-0.5341070831618E-01  0.5970883281813E-01  0.0000000000000E+00 -0.3021907872498E-01
-0.5053397210919E-01  0.5599655331319E-01  0.0000000000000E+00 -0.2173242171635E-01
-0.4727049153068E-01  0.5195860526417E-01  0.0000000000000E+00 -0.1248868504047E-01
-0.4372460765826E-01  0.4773787156884E-01  0.0000000000000E+00 -0.2768421601904E-02
-0.3996662345651E-01  0.4339858785857E-01  0.0000000000000E+00  0.7049968751054E-02
-0.3600114526156E-01  0.3892825310367E-01  0.0000000000000E+00  0.1655068903560E-01
-0.3178540880460E-01  0.3427168504127E-01  0.0000000000000E+00  0.2537729434073E-01
-0.2726286453615E-01  0.2936413817789E-01  0.0000000000000E+00  0.3325421298988E-01
-0.2239403319050E-01  0.2416337738034E-01  0.0000000000000E+00  0.3987953306757E-01
-0.1719353409354E-01  0.1868806368768E-01  0.0000000000000E+00  0.4478380205232E-01
-0.1157057032434E-01  0.1286216292281E-01  0.0000000000000E+00  0.4811989282588E-01
-0.5499558466876E-02  0.6659380477527E-02  0.0000000000000E+00  0.5027200784414E-01
 0.9166716849249E-03  0.2164951054451E-03  0.0000000000000E+00  0.5110945805325E-01
-0.1344577958664E-01  0.2408169601754E-01  0.0000000000000E+00 -0.6987186449101E-01
-0.4131670334721E-01  0.5026419630197E-01  0.0000000000000E+00 -0.6868644133464E-01
-0.5147706858208E-01  0.5953421752756E-01  0.0000000000000E+00 -0.6169810660159E-01
-0.5442543296325E-01  0.6190787998806E-01  0.0000000000000E+00 -0.5174973856402E-01
-0.5457186429615E-01  0.6164644668840E-01  0.0000000000000E+00 -0.4127201134461E-01
-0.5385475522642E-01  0.6057173444722E-01  0.0000000000000E+00 -0.3242819175690E-01
-0.5277433810426E-01  0.5899990020239E-01  0.0000000000000E+00 -0.2519503455538E-01
-0.5112720729125E-01  0.5670341616624E-01  0.0000000000000E+00 -0.1805771341310E-01
-0.4887969402710E-01  0.5373986059260E-01  0.0000000000000E+00 -0.1049099024185E-01
-0.4612139343223E-01  0.5028942092582E-01  0.0000000000000E+00 -0.2457886806121E-02
-0.4297436424982E-01  0.4652070982271E-01  0.0000000000000E+00  0.5988985908845E-02
-0.3953884206985E-01  0.4254344208754E-01  0.0000000000000E+00  0.1466777125470E-01
-0.3586067409765E-01  0.3839811858816E-01  0.0000000000000E+00  0.2327026738061E-01
-0.3192886961570E-01  0.3406690363009E-01  0.0000000000000E+00  0.3147449403033E-01
-0.2769232160969E-01  0.2949231056873E-01  0.0000000000000E+00  0.3901192528909E-01
-0.2309521240902E-01  0.2461571472219E-01  0.0000000000000E+00  0.4558425005873E-01
-0.1812386650042E-01  0.1942675992624E-01  0.0000000000000E+00  0.5073015841467E-01
-0.1258606549678E-01  0.1374788279078E-01  0.0000000000000E+00  0.5456986632698E-01
-0.6385496098366E-02  0.7472804705757E-02  0.0000000000000E+00  0.5734557209617E-01
 0.2903568678505E-03  0.8077166770004E-03  0.0000000000000E+00  0.5876083841896E-01
-0.9169029214197E-02  0.1821835878109E-01  0.0000000000000E+00 -0.7809014897109E-01
-0.3428961368131E-01  0.4191793215095E-01  0.0000000000000E+00 -0.6687691396752E-01
-0.4456290131281E-01  0.5140541203323E-01  0.0000000000000E+00 -0.5490597135605E-01
-0.4829940097681E-01  0.5463085002121E-01  0.0000000000000E+00 -0.4249443906480E-01
-0.4930108526106E-01  0.5528410578888E-01  0.0000000000000E+00 -0.3076768779033E-01
-0.4937939203223E-01  0.5507990098866E-01  0.0000000000000E+00 -0.2119103339536E-01
-0.4902947465185E-01  0.5434004274325E-01  0.0000000000000E+00 -0.1364664209613E-01
-0.4803603827786E-01  0.5281511523639E-01  0.0000000000000E+00 -0.6671283070511E-02
-0.4636984763040E-01  0.5054352016876E-01  0.0000000000000E+00  0.3086143122352E-03
-0.4413150838210E-01  0.4770013151068E-01  0.0000000000000E+00  0.7423091565552E-02
-0.4143944176938E-01  0.4444943144986E-01  0.0000000000000E+00  0.1476841578180E-01
-0.3839871403908E-01  0.4091427851129E-01  0.0000000000000E+00  0.2233298759080E-01
-0.3507803158328E-01  0.3716714606185E-01  0.0000000000000E+00  0.2994324187577E-01
-0.3149444652812E-01  0.3322424106336E-01  0.0000000000000E+00  0.3735688403813E-01
-0.2761071509697E-01  0.2904512526743E-01  0.0000000000000E+00  0.4435088997037E-01
-0.2336750752371E-01  0.2456889611540E-01  0.0000000000000E+00  0.5066146434463E-01
-0.1873581089105E-01  0.1977021359603E-01  0.0000000000000E+00  0.5586738340678E-01
-0.1344071262102E-01  0.1438870988233E-01  0.0000000000000E+00  0.6007199345712E-01
-0.7308369733797E-02  0.8233362281110E-02  0.0000000000000E+00  0.6337819843824E-01
-0.5787236239090E-03  0.1547880887832E-02  0.0000000000000E+00  0.6531245800380E-01
-0.5479540941004E-02  0.1295401838574E-01  0.0000000000000E+00 -0.8532911977442E-01
-0.2788454177031E-01  0.3417264046139E-01  0.0000000000000E+00 -0.6587241045277E-01
-0.3795052125949E-01  0.4355524099838E-01  0.0000000000000E+00 -0.4941148684555E-01
-0.4218588215241E-01  0.4734541757290E-01  0.0000000000000E+00 -0.3458419943889E-01
-0.4381700569201E-01  0.4868613126661E-01  0.0000000000000E+00 -0.2153963489070E-01
-0.4449561872259E-01  0.4914781225985E-01  0.0000000000000E+00 -0.1113944632966E-01
-0.4470430042278E-01  0.4905163305583E-01  0.0000000000000E+00 -0.3138631250470E-02
-0.4423745225525E-01  0.4815373634701E-01  0.0000000000000E+00  0.3876640612329E-02
-0.4307524645782E-01  0.4648615083723E-01  0.0000000000000E+00  0.1051055844005E-01
-0.4132509233903E-01  0.4421682003661E-01  0.0000000000000E+00  0.1694828950204E-01
-0.3909580986068E-01  0.4149661787273E-01  0.0000000000000E+00  0.2337612382627E-01
-0.3648417272754E-01  0.3844341586908E-01  0.0000000000000E+00  0.2990918878386E-01
-0.3356651038126E-01  0.3514328601346E-01  0.0000000000000E+00  0.3650193546663E-01
-0.3038011404041E-01  0.3163765969475E-01  0.0000000000000E+00  0.4301010623904E-01
-0.2690440976370E-01  0.2790620418207E-01  0.0000000000000E+00  0.4928124641518E-01
-0.2308609475740E-01  0.2389607440921E-01  0.0000000000000E+00  0.5511199148923E-01
-0.1889309080703E-01  0.1958013863036E-01  0.0000000000000E+00  0.6014920778207E-01
-0.1398861195564E-01  0.1463547972049E-01  0.0000000000000E+00  0.6449881116652E-01
-0.8116557132837E-02  0.8783423089864E-02  0.0000000000000E+00  0.6814649596673E-01
-0.1532304981763E-02  0.2269550277948E-02  0.0000000000000E+00  0.7045388319840E-01
-0.2313980306193E-02  0.8226010303583E-02  0.0000000000000E+00 -0.9163423320122E-01
-0.2207125048892E-01  0.2700254983480E-01  0.0000000000000E+00 -0.6549951533083E-01
-0.3166323946388E-01  0.3600960684620E-01  0.0000000000000E+00 -0.4506809740869E-01
-0.3613104288759E-01  0.4009746332747E-01  0.0000000000000E+00 -0.2792886875911E-01
-0.3817511717741E-01  0.4190593656266E-01  0.0000000000000E+00 -0.1352534731782E-01
-0.3927218776269E-01  0.4284332368864E-01  0.0000000000000E+00 -0.2222524706230E-02
-0.3988225671599E-01  0.4322087047049E-01  0.0000000000000E+00  0.6349816339258E-02
-0.3981703917508E-01  0.4281100957275E-01  0.0000000000000E+00  0.1355467359335E-01
-0.3906679577911E-01  0.4164492113537E-01  0.0000000000000E+00  0.2002136306648E-01
-0.3774409558857E-01  0.3988466683282E-01  0.0000000000000E+00  0.2597600114981E-01
-0.3594857485428E-01  0.3766676915363E-01  0.0000000000000E+00  0.3165827862422E-01
-0.3376407799025E-01  0.3509652337622E-01  0.0000000000000E+00  0.3726923025493E-01
-0.3126474698167E-01  0.3226115930843E-01  0.0000000000000E+00  0.4286873486910E-01
-0.2850029177332E-01  0.2921801838336E-01  0.0000000000000E+00  0.4840806943222E-01
-0.2546652118511E-01  0.2596607659249E-01  0.0000000000000E+00  0.5381369183374E-01
-0.2212266943183E-01  0.2246722577812E-01  0.0000000000000E+00  0.5895737336652E-01
-0.1844405399148E-01  0.1870352239250E-01  0.0000000000000E+00  0.6357428615689E-01
-0.1405511419570E-01  0.1431145729694E-01  0.0000000000000E+00  0.6779233223629E-01
-0.8615330822074E-02  0.8924402577579E-02  0.0000000000000E+00  0.7151851892035E-01
-0.2355830128225E-02  0.2752793649516E-02  0.0000000000000E+00  0.7398615633120E-01
 0.3857683148801E-03  0.3976496338444E-02  0.0000000000000E+00 -0.9705428788450E-01
-0.1681571649394E-01  0.2037699714220E-01  0.0000000000000E+00 -0.6560392965631E-01
-0.2571754717780E-01  0.2878697541054E-01  0.0000000000000E+00 -0.4172688032268E-01
-0.3017935906798E-01  0.3293166396654E-01  0.0000000000000E+00 -0.2242532737784E-01
-0.3243267948360E-01  0.3499999733076E-01  0.0000000000000E+00 -0.6656764981619E-02
-0.3377595099683E-01  0.3623313164775E-01  0.0000000000000E+00  0.5605906209735E-02
-0.3463862958149E-01  0.3692496741081E-01  0.0000000000000E+00  0.1483939029623E-01
-0.3485159591239E-01  0.3686792255958E-01  0.0000000000000E+00  0.2234963675259E-01
-0.3441334136771E-01  0.3609352712098E-01  0.0000000000000E+00  0.2878660724722E-01
-0.3343954158613E-01  0.3475810759049E-01  0.0000000000000E+00  0.3441316545626E-01
-0.3202256275832E-01  0.3298563192132E-01  0.0000000000000E+00  0.3950217820408E-01
-0.3023305835624E-01  0.3086693515768E-01  0.0000000000000E+00  0.4430916817811E-01
-0.2813761399680E-01  0.2848313683512E-01  0.0000000000000E+00  0.4897295008021E-01
-0.2579193562462E-01  0.2589963326113E-01  0.0000000000000E+00  0.5352557739292E-01
-0.2320647965141E-01  0.2313212886487E-01  0.0000000000000E+00  0.5796649765394E-01
-0.2035726651896E-01  0.2016119019595E-01  0.0000000000000E+00  0.6224405252679E-01
-0.1723570466697E-01  0.1698680750509E-01  0.0000000000000E+00  0.6619103255257E-01
-0.1345312918638E-01  0.1322895530692E-01  0.0000000000000E+00  0.6997329625165E-01
-0.8586652617794E-02  0.8437030173091E-02  0.0000000000000E+00  0.7346975212112E-01
-0.2803771981732E-02  0.2750861211693E-02  0.0000000000000E+00  0.7584393786314E-01
 0.2672610025164E-02  0.1525261350646E-03  0.0000000000000E+00 -0.1016376593694E+00
-0.1208216361946E-01  0.1426283493683E-01  0.0000000000000E+00 -0.6604907593948E-01
-0.2012396895071E-01  0.2189951198622E-01  0.0000000000000E+00 -0.3924196460817E-01
-0.2437153851691E-01  0.2588919940563E-01  0.0000000000000E+00 -0.1796291485070E-01
-0.2664604138855E-01  0.2802456886014E-01  0.0000000000000E+00 -0.8584115695498E-03
-0.2807240447062E-01  0.2938305442899E-01  0.0000000000000E+00  0.1239526370516E-01
-0.2904478752639E-01  0.3023688811646E-01  0.0000000000000E+00  0.2235551185010E-01
-0.2941334190827E-01  0.3039980889635E-01  0.0000000000000E+00  0.3026190983686E-01
-0.2918225238324E-01  0.2990314691845E-01  0.0000000000000E+00  0.3677821282178E-01
-0.2846762281662E-01  0.2889650950073E-01  0.0000000000000E+00  0.4220249713172E-01
-0.2735603338968E-01  0.2749309388668E-01  0.0000000000000E+00  0.4683082219397E-01
-0.2590627777573E-01  0.2576978223717E-01  0.0000000000000E+00  0.5095185561257E-01
-0.2417465358280E-01  0.2379756427910E-01  0.0000000000000E+00  0.5475948973409E-01
-0.2221760678600E-01  0.2164347316413E-01  0.0000000000000E+00  0.5834697752365E-01
-0.2005746616680E-01  0.1933627792896E-01  0.0000000000000E+00  0.6177129508119E-01
-0.1768929167640E-01  0.1687690783483E-01  0.0000000000000E+00  0.6504639757449E-01
-0.1512782608866E-01  0.1429017772965E-01  0.0000000000000E+00  0.6809903435289E-01
-0.1200007083853E-01  0.1120647546366E-01  0.0000000000000E+00  0.7114227121629E-01
-0.7810022463711E-02  0.7102316785605E-02  0.0000000000000E+00  0.7408460338259E-01
-0.2625949260840E-02  0.2016194586532E-02  0.0000000000000E+00  0.7609701262550E-01
 0.4594494961207E-02 -0.3294132207472E-02  0.0000000000000E+00 -0.1054302842768E+00
-0.7834266080354E-02  0.8625845081750E-02  0.0000000000000E+00 -0.6671479840760E-01
-0.1488782736652E-01  0.1535398013182E-01  0.0000000000000E+00 -0.3747369275832E-01
-0.1874361107811E-01  0.1900673802876E-01  0.0000000000000E+00 -0.1442719070913E-01
-0.2086905499432E-01  0.2103380905812E-01  0.0000000000000E+00  0.3952483223028E-02
-0.2222549130493E-01  0.2235766109736E-01  0.0000000000000E+00  0.1820195827525E-01
-0.2317012601118E-01  0.2322749868459E-01  0.0000000000000E+00  0.2893174955210E-01
-0.2357251888244E-01  0.2347942679386E-01  0.0000000000000E+00  0.3730449180047E-01
-0.2344056744675E-01  0.2314393404523E-01  0.0000000000000E+00  0.4398819274375E-01
-0.2288812614957E-01  0.2236251507345E-01  0.0000000000000E+00  0.4931387804322E-01
-0.2199676313400E-01  0.2123882602578E-01  0.0000000000000E+00  0.5359646648161E-01
-0.2081503103743E-01  0.1983706477745E-01  0.0000000000000E+00  0.5714507605487E-01
-0.1938745837644E-01  0.1821578579628E-01  0.0000000000000E+00  0.6019064457979E-01
-0.1776639099122E-01  0.1643794800139E-01  0.0000000000000E+00  0.6286884641578E-01
-0.1598172830552E-01  0.1454032457344E-01  0.0000000000000E+00  0.6527450133127E-01
-0.1404713748368E-01  0.1254312057835E-01  0.0000000000000E+00  0.6746641228760E-01
-0.1200604174303E-01  0.1050074126100E-01  0.0000000000000E+00  0.6944721809504E-01
-0.9533342043928E-02  0.8084298941065E-02  0.0000000000000E+00  0.7147527178023E-01
-0.6081024947994E-02  0.4719997334024E-02  0.0000000000000E+00  0.7354747695350E-01
-0.1590654167292E-02  0.3228426023552E-03  0.0000000000000E+00  0.7493610072071E-01
 0.6194791406385E-02 -0.6407300307168E-02  0.0000000000000E+00 -0.1084745319080E+00
-0.4035868907524E-02  0.3431586384120E-02  0.0000000000000E+00 -0.6749610259920E-01
-0.1000994817075E-01  0.9152514356431E-02  0.0000000000000E+00 -0.3629058283198E-01
-0.1332664901683E-01  0.1231610600404E-01  0.0000000000000E+00 -0.1170278125595E-01
-0.1515217834656E-01  0.1407873236410E-01  0.0000000000000E+00  0.7864926553718E-02
-0.1629722394887E-01  0.1521979253281E-01  0.0000000000000E+00  0.2309075140944E-01
-0.1708287790761E-01  0.1596646671324E-01  0.0000000000000E+00  0.3461177747339E-01
-0.1739888297728E-01  0.1617872448741E-01  0.0000000000000E+00  0.4350328803935E-01
-0.1725601518640E-01  0.1588630255132E-01  0.0000000000000E+00  0.5042600534159E-01
-0.1676386865118E-01  0.1522153646800E-01  0.0000000000000E+00  0.5573951069853E-01
-0.1599951595363E-01  0.1427955301657E-01  0.0000000000000E+00  0.5977567603000E-01
-0.1500299585362E-01  0.1311354525755E-01  0.0000000000000E+00  0.6285798003780E-01
-0.1380636122304E-01  0.1176844874579E-01  0.0000000000000E+00  0.6524352580884E-01
-0.1245300109693E-01  0.1029773778979E-01  0.0000000000000E+00  0.6709688637794E-01
-0.1097385615587E-01  0.8739040550042E-02  0.0000000000000E+00  0.6853245750963E-01
-0.9396394857802E-02  0.7126527014986E-02  0.0000000000000E+00  0.6962782505842E-01
-0.7793907427481E-02  0.5544593360220E-02  0.0000000000000E+00  0.7042820596310E-01
-0.5923753010654E-02  0.3737990596645E-02  0.0000000000000E+00  0.7121693158808E-01
-0.3225524130541E-02  0.1122566509895E-02  0.0000000000000E+00  0.7212905576359E-01
 0.4979388405849E-03 -0.2516911929211E-02  0.0000000000000E+00  0.7264929450011E-01
 0.7512736361129E-02 -0.9226803112420E-02  0.0000000000000E+00 -0.1108085181484E+00
-0.6513774751721E-03 -0.1354141908550E-02  0.0000000000000E+00 -0.6830201371239E-01
-0.5487315983806E-02  0.3293319751783E-02  0.0000000000000E+00 -0.3557068403043E-01
-0.8146864158114E-02  0.5844357271725E-02  0.0000000000000E+00 -0.9675698096980E-02
-0.9542037073670E-02  0.7206697901654E-02  0.0000000000000E+00  0.1097266275788E-01
-0.1034733308568E-01  0.8030148035013E-02  0.0000000000000E+00  0.2713471620939E-01
-0.1085038811608E-01  0.8522578896333E-02  0.0000000000000E+00  0.3945010298734E-01
-0.1096254950939E-01  0.8569845714444E-02  0.0000000000000E+00  0.4889749172430E-01
-0.1069784885359E-01  0.8201961251557E-02  0.0000000000000E+00  0.5611771539990E-01
-0.1016063854279E-01  0.7541815243248E-02  0.0000000000000E+00  0.6149192002766E-01
-0.9424325470463E-02  0.6677302341481E-02  0.0000000000000E+00  0.6536697066612E-01
-0.8522764589940E-02  0.5653076007148E-02  0.0000000000000E+00  0.6807864819629E-01
-0.7476085122879E-02  0.4500839135431E-02  0.0000000000000E+00  0.6990631533554E-01
-0.6314558477901E-02  0.3260134083927E-02  0.0000000000000E+00  0.7103847652582E-01
-0.5061333955452E-02  0.1960412949722E-02  0.0000000000000E+00  0.7159935577684E-01
-0.3746558779563E-02  0.6380499727126E-03  0.0000000000000E+00  0.7166115239381E-01
-0.2465263207446E-02 -0.6009051462271E-03  0.0000000000000E+00  0.7126652559832E-01
-0.1088465305065E-02 -0.1908766862206E-02  0.0000000000000E+00  0.7067330536110E-01
 0.8909716087473E-03 -0.3815120336068E-02  0.0000000000000E+00  0.7017474060896E-01
 0.3789714979539E-02 -0.6643103738440E-02  0.0000000000000E+00  0.6959599950905E-01
 0.8583979410444E-02 -0.1178903590199E-01  0.0000000000000E+00 -0.1124656682762E+00
 0.2354127936460E-02 -0.5765119608662E-02  0.0000000000000E+00 -0.6905474100304E-01
-0.1313703337029E-02 -0.2228687415770E-02  0.0000000000000E+00 -0.3520276763481E-01
-0.3225998949026E-02 -0.3858120607144E-03  0.0000000000000E+00 -0.8235357996900E-02
-0.4081330169282E-02  0.4612613750082E-03  0.0000000000000E+00  0.1337254994859E-01
-0.4433007042204E-02  0.8469972051903E-03  0.0000000000000E+00  0.3041438761485E-01
-0.4539136852460E-02  0.9637718124745E-03  0.0000000000000E+00  0.4351180471589E-01
-0.4334489662626E-02  0.7257208812853E-03  0.0000000000000E+00  0.5353944308209E-01
-0.3837640936046E-02  0.1648523936846E-03  0.0000000000000E+00  0.6110567432879E-01
-0.3147652484717E-02 -0.6049698567181E-03  0.0000000000000E+00  0.6660371691113E-01
-0.2335635110336E-02 -0.1501353006842E-02  0.0000000000000E+00  0.7039136949106E-01
-0.1432701674973E-02 -0.2484535871760E-02  0.0000000000000E+00  0.7281524433522E-01
-0.4500973371933E-03 -0.3532977987160E-02  0.0000000000000E+00  0.7417745582815E-01
 0.5964666069465E-03 -0.4622365256988E-02  0.0000000000000E+00  0.7469505969581E-01
 0.1699843056956E-02 -0.5739697226797E-02  0.0000000000000E+00  0.7450753887579E-01
 0.2845671340426E-02 -0.6864151346386E-02  0.0000000000000E+00  0.7367560034022E-01
 0.3941559426831E-02 -0.7894171039022E-02  0.0000000000000E+00  0.7219202346066E-01
 0.4991675891744E-02 -0.8866277839068E-02  0.0000000000000E+00  0.7020325963309E-01
 0.6356472065298E-02 -0.1016878646709E-01  0.0000000000000E+00  0.6810287493202E-01
 0.8387562711530E-02 -0.1214630620421E-01  0.0000000000000E+00  0.6618657510960E-01
 0.9441334840300E-02 -0.1412770012899E-01  0.0000000000000E+00 -0.1134740399124E+00
 0.5015137454313E-02 -0.9835073664462E-02  0.0000000000000E+00 -0.6968967133358E-01
 0.2519593976478E-02 -0.7420941334596E-02  0.0000000000000E+00 -0.3508788385700E-01
 0.1417949276487E-02 -0.6355419523475E-02  0.0000000000000E+00 -0.7276294741485E-02
 0.1190957006936E-02 -0.6117543641046E-02  0.0000000000000E+00  0.1516304582856E-01
 0.1391289134433E-02 -0.6274083099727E-02  0.0000000000000E+00  0.3301666779311E-01
 0.1785424185232E-02 -0.6643017811308E-02  0.0000000000000E+00  0.4687147516739E-01
 0.2413213765866E-02 -0.7279652004254E-02  0.0000000000000E+00  0.5749363437647E-01
 0.3249884996529E-02 -0.8147935976633E-02  0.0000000000000E+00  0.6544757751119E-01
 0.4201254476938E-02 -0.9142377572945E-02  0.0000000000000E+00  0.7112756853340E-01
 0.5197075551460E-02 -0.1018445503754E-01  0.0000000000000E+00  0.7489497062710E-01
 0.6204693654247E-02 -0.1123491014953E-01  0.0000000000000E+00  0.7710236480169E-01
 0.7215522891352E-02 -0.1227607391492E-01  0.0000000000000E+00  0.7807351807670E-01
 0.8223724912362E-02 -0.1329389981304E-01  0.0000000000000E+00  0.7806322285810E-01
 0.9240555834250E-02 -0.1429325764278E-01  0.0000000000000E+00  0.7724890698236E-01
 0.1028284465544E-01 -0.1528459788606E-01  0.0000000000000E+00  0.7570714820067E-01
 0.1130981771675E-01 -0.1621445565310E-01  0.0000000000000E+00  0.7338375460944E-01
 0.1224026923456E-01 -0.1705085169450E-01  0.0000000000000E+00  0.7018831746463E-01
 0.1319796239755E-01 -0.1794524147223E-01  0.0000000000000E+00  0.6642543788849E-01
 0.1435884267113E-01 -0.1907815888071E-01  0.0000000000000E+00  0.6288846079744E-01
 0.1011596114784E-01 -0.1627603116215E-01  0.0000000000000E+00 -0.1138577094154E+00
 0.7366153698789E-02 -0.1359730898711E-01  0.0000000000000E+00 -0.7015758820288E-01
 0.6022687905750E-02 -0.1229278850512E-01  0.0000000000000E+00 -0.3514185665098E-01
 0.5769255060065E-02 -0.1204697147693E-01  0.0000000000000E+00 -0.6699815770860E-02
 0.6239062840214E-02 -0.1249314557083E-01  0.0000000000000E+00  0.1644410980933E-01
 0.7074112836214E-02 -0.1328037506685E-01  0.0000000000000E+00  0.3503339144420E-01
 0.8059180185748E-02 -0.1423222487653E-01  0.0000000000000E+00  0.4961185563236E-01
 0.9207487128287E-02 -0.1537133676262E-01  0.0000000000000E+00  0.6083477075515E-01
 0.1048618200871E-01 -0.1665552092537E-01  0.0000000000000E+00  0.6921392277025E-01
 0.1180574237405E-01 -0.1798727753146E-01  0.0000000000000E+00  0.7513410335246E-01
 0.1309637745129E-01 -0.1929154815515E-01  0.0000000000000E+00  0.7895046011681E-01
 0.1432051814612E-01 -0.2052632770809E-01  0.0000000000000E+00  0.8101080657374E-01
 0.1546435936093E-01 -0.2167016793875E-01  0.0000000000000E+00  0.8165018678393E-01
 0.1652040679753E-01 -0.2270769237227E-01  0.0000000000000E+00  0.8116066896575E-01
 0.1750566421845E-01 -0.2364837394955E-01  0.0000000000000E+00  0.7978284393654E-01
 0.1846929143794E-01 -0.2453163849602E-01  0.0000000000000E+00  0.7767016960448E-01
 0.1944675085105E-01 -0.2538124740222E-01  0.0000000000000E+00  0.7481513364360E-01
 0.2042693451936E-01 -0.2621399441131E-01  0.0000000000000E+00  0.7094225077828E-01
 0.2132821902501E-01 -0.2704039192173E-01  0.0000000000000E+00  0.6575893839332E-01
 0.2175709388377E-01 -0.2745325020195E-01  0.0000000000000E+00  0.6027405122546E-01
 0.1064083768973E-01 -0.1826701777523E-01  0.0000000000000E+00 -0.1136264654007E+00
 0.9444727537939E-02 -0.1709347499913E-01  0.0000000000000E+00 -0.7043537590898E-01
 0.9202297639978E-02 -0.1684464165799E-01  0.0000000000000E+00 -0.3530377188529E-01
 0.9811777857686E-02 -0.1744482235078E-01  0.0000000000000E+00 -0.6406517176052E-02
 0.1103109779525E-01 -0.1863214532185E-01  0.0000000000000E+00  0.1731514351039E-01
 0.1256692811044E-01 -0.2012218412082E-01  0.0000000000000E+00  0.3656054813905E-01
 0.1421993360863E-01 -0.2174009096549E-01  0.0000000000000E+00  0.5182261111510E-01
 0.1597504745709E-01 -0.2347436479627E-01  0.0000000000000E+00  0.6364561219771E-01
 0.1778907772335E-01 -0.2527356339432E-01  0.0000000000000E+00  0.7248336105641E-01
 0.1957720743581E-01 -0.2704822295909E-01  0.0000000000000E+00  0.7870533729609E-01
 0.2127197543332E-01 -0.2872880947097E-01  0.0000000000000E+00  0.8265185470327E-01
 0.2283102694983E-01 -0.3027094723814E-01  0.0000000000000E+00  0.8465165487134E-01
 0.2423051080816E-01 -0.3164522606389E-01  0.0000000000000E+00  0.8502905624591E-01
 0.2544911753070E-01 -0.3282357384945E-01  0.0000000000000E+00  0.8408887501941E-01
 0.2648475497344E-01 -0.3379594615564E-01  0.0000000000000E+00  0.8212221399899E-01
 0.2738108559617E-01 -0.3459257915928E-01  0.0000000000000E+00  0.7940429397490E-01
 0.2823711195333E-01 -0.3529019141673E-01  0.0000000000000E+00  0.7611327501926E-01
 0.2910656898120E-01 -0.3597967645910E-01  0.0000000000000E+00  0.7213825703439E-01
 0.3031402328434E-01 -0.3691333022127E-01  0.0000000000000E+00  0.6683318368990E-01
 0.3064497868072E-01 -0.3728868217012E-01  0.0000000000000E+00  0.5934729187728E-01
 0.1106079528830E-01 -0.2019864116293E-01  0.0000000000000E+00 -0.1128974018339E+00
 0.1126884724252E-01 -0.2030536936557E-01  0.0000000000000E+00 -0.7062494519456E-01
 0.1204429440578E-01 -0.2107107714955E-01  0.0000000000000E+00 -0.3548159684605E-01
 0.1353599099433E-01 -0.2253659796368E-01  0.0000000000000E+00 -0.6302165818206E-02
 0.1553787827182E-01 -0.2450535132982E-01  0.0000000000000E+00  0.1787293686822E-01
 0.1782339999044E-01 -0.2675073037650E-01  0.0000000000000E+00  0.3769649702959E-01
 0.2020782032698E-01 -0.2910541481170E-01  0.0000000000000E+00  0.5360251001970E-01
 0.2264473610712E-01 -0.3151622641139E-01  0.0000000000000E+00  0.6601554322363E-01
 0.2507492886809E-01 -0.3391658744848E-01  0.0000000000000E+00  0.7533664575410E-01
 0.2741912051288E-01 -0.3622619682029E-01  0.0000000000000E+00  0.8192264067037E-01
 0.2961659997794E-01 -0.3838533477074E-01  0.0000000000000E+00  0.8609696229359E-01
 0.3162545959684E-01 -0.4035306550161E-01  0.0000000000000E+00  0.8815860346358E-01
 0.3341393038208E-01 -0.4209455941841E-01  0.0000000000000E+00  0.8839763194819E-01
 0.3494523060345E-01 -0.4356850914024E-01  0.0000000000000E+00  0.8709344954639E-01
 0.3618627952005E-01 -0.4473597604271E-01  0.0000000000000E+00  0.8452167711075E-01
 0.3712647944681E-01 -0.4557615231947E-01  0.0000000000000E+00  0.8098774334424E-01
 0.3781965320499E-01 -0.4611236815000E-01  0.0000000000000E+00  0.7687953658274E-01
 0.3832319513075E-01 -0.4640585958754E-01  0.0000000000000E+00  0.7243506724225E-01
 0.3898951854136E-01 -0.4681535216228E-01  0.0000000000000E+00  0.6777764565430E-01
 0.4062316402179E-01 -0.4751837490442E-01  0.0000000000000E+00  0.6122263929794E-01
 0.5025114239656E-01 -0.1091540118490E+00  0.0000000000000E+00  0.2662278460911E+00
 0.8878240587885E-01 -0.1454095741362E+00  0.0000000000000E+00  0.2796770159807E+00
 0.1253887235853E+00 -0.1795272530338E+00  0.0000000000000E+00  0.2833222213848E+00
 0.1585068548764E+00 -0.2101630537338E+00  0.0000000000000E+00  0.2797218163956E+00
 0.1877553851750E+00 -0.2369823091926E+00  0.0000000000000E+00  0.2711951387875E+00
 0.2131460195296E+00 -0.2600329593617E+00  0.0000000000000E+00  0.2594784727147E+00
 0.2348432392081E+00 -0.2794822090845E+00  0.0000000000000E+00  0.2457635717088E+00
 0.2531227507256E+00 -0.2956304424313E+00  0.0000000000000E+00  0.2312376361365E+00
 0.2683916967481E+00 -0.3089077995380E+00  0.0000000000000E+00  0.2168532985054E+00
 0.2810967214496E+00 -0.3197708782196E+00  0.0000000000000E+00  0.2032056413902E+00
 0.2916455136933E+00 -0.3286321479458E+00  0.0000000000000E+00  0.1906528823192E+00
 0.3003943322876E+00 -0.3358519839154E+00  0.0000000000000E+00  0.1794187280085E+00
 0.3076562162600E+00 -0.3417494127065E+00  0.0000000000000E+00  0.1696334802917E+00
 0.3137017555957E+00 -0.3465998364098E+00  0.0000000000000E+00  0.1613411811450E+00
 0.3187526934744E+00 -0.3506290112796E+00  0.0000000000000E+00  0.1545251972798E+00
 0.3229856241904E+00 -0.3540179371630E+00  0.0000000000000E+00  0.1491193489981E+00
 0.3265444050417E+00 -0.3569111754625E+00  0.0000000000000E+00  0.1449581168571E+00
 0.3294580006151E+00 -0.3593402116321E+00  0.0000000000000E+00  0.1419864124432E+00
 0.3318024196818E+00 -0.3613960958854E+00  0.0000000000000E+00  0.1403159689532E+00
 0.3338841478577E+00 -0.3633171055637E+00  0.0000000000000E+00  0.1399894947609E+00
 0.5515255920480E-01 -0.1155020246676E+00  0.0000000000000E+00  0.2825101683027E+00
 0.9704166126032E-01 -0.1547788081816E+00  0.0000000000000E+00  0.2949658404586E+00
 0.1361046681309E+00 -0.1911862186971E+00  0.0000000000000E+00  0.2951505179492E+00
 0.1709776703552E+00 -0.2233878339813E+00  0.0000000000000E+00  0.2873122702339E+00
 0.2012105019344E+00 -0.2510200479541E+00  0.0000000000000E+00  0.2744631279948E+00
 0.2268918043349E+00 -0.2741972245358E+00  0.0000000000000E+00  0.2586280372194E+00
 0.2482926620489E+00 -0.2931871532394E+00  0.0000000000000E+00  0.2411335553050E+00
 0.2658025854603E+00 -0.3084122521386E+00  0.0000000000000E+00  0.2234519388749E+00
 0.2799761901183E+00 -0.3204543474163E+00  0.0000000000000E+00  0.2067199108300E+00
 0.2913964266281E+00 -0.3299083322226E+00  0.0000000000000E+00  0.1915536633664E+00
 0.3005696950443E+00 -0.3372881530422E+00  0.0000000000000E+00  0.1782685973962E+00
 0.3079188440555E+00 -0.3430232447652E+00  0.0000000000000E+00  0.1670284172120E+00
 0.3138017617210E+00 -0.3474778601619E+00  0.0000000000000E+00  0.1578776410811E+00
 0.3185184977490E+00 -0.3509561246151E+00  0.0000000000000E+00  0.1507510399297E+00
 0.3223099004129E+00 -0.3537021401029E+00  0.0000000000000E+00  0.1455176093899E+00
 0.3253745842667E+00 -0.3559162862899E+00  0.0000000000000E+00  0.1419843374103E+00
 0.3279029324153E+00 -0.3577846525139E+00  0.0000000000000E+00  0.1398496552050E+00
 0.3298848923465E+00 -0.3593236267055E+00  0.0000000000000E+00  0.1391528138502E+00
 0.3314203628255E+00 -0.3606473813056E+00  0.0000000000000E+00  0.1401186495401E+00
 0.3327645861072E+00 -0.3619926935761E+00  0.0000000000000E+00  0.1427247719499E+00
 0.6047176563255E-01 -0.1222295752114E+00  0.0000000000000E+00  0.2992706357824E+00
 0.1061054558635E+00 -0.1650264955447E+00  0.0000000000000E+00  0.3097159454987E+00
 0.1477757373646E+00 -0.2037959746933E+00  0.0000000000000E+00  0.3057435560952E+00
 0.1842308495708E+00 -0.2373683126882E+00  0.0000000000000E+00  0.2927998598780E+00
 0.2151346366650E+00 -0.2654696509168E+00  0.0000000000000E+00  0.2748421356700E+00
 0.2407095499338E+00 -0.2883524078834E+00  0.0000000000000E+00  0.2542681516535E+00
 0.2613776939217E+00 -0.3064280884810E+00  0.0000000000000E+00  0.2326425134825E+00
 0.2776704455404E+00 -0.3202668390275E+00  0.0000000000000E+00  0.2117701171391E+00
 0.2903282890879E+00 -0.3306413699429E+00  0.0000000000000E+00  0.1929097959294E+00
 0.3000956461623E+00 -0.3383104173426E+00  0.0000000000000E+00  0.1766172911995E+00
 0.3075838836725E+00 -0.3438950606024E+00  0.0000000000000E+00  0.1630992620918E+00
 0.3132814295261E+00 -0.3478918087711E+00  0.0000000000000E+00  0.1524039467873E+00
 0.3175915742759E+00 -0.3507099846397E+00  0.0000000000000E+00  0.1444433629113E+00
 0.3208436367083E+00 -0.3526822113011E+00  0.0000000000000E+00  0.1390171586893E+00
 0.3232974046680E+00 -0.3540710010701E+00  0.0000000000000E+00  0.1358769651979E+00
 0.3251708443006E+00 -0.3550952834829E+00  0.0000000000000E+00  0.1347272817938E+00
 0.3266748807210E+00 -0.3559589681337E+00  0.0000000000000E+00  0.1351783716462E+00
 0.3277028351304E+00 -0.3566098637652E+00  0.0000000000000E+00  0.1373976829211E+00
 0.3283611696421E+00 -0.3571869739871E+00  0.0000000000000E+00  0.1415558249613E+00
 0.3289900473727E+00 -0.3579938978140E+00  0.0000000000000E+00  0.1470066492903E+00
 0.6633432713916E-01 -0.1295609836368E+00  0.0000000000000E+00  0.3167765944759E+00
 0.1160858554674E+00 -0.1762123801210E+00  0.0000000000000E+00  0.3240599088887E+00
 0.1604372606137E+00 -0.2174032241308E+00  0.0000000000000E+00  0.3147647766266E+00
 0.1982714123941E+00 -0.2521037437724E+00  0.0000000000000E+00  0.2957263876360E+00
 0.2294523125829E+00 -0.2802521786547E+00  0.0000000000000E+00  0.2718510721371E+00
 0.2544351818924E+00 -0.3023284003769E+00  0.0000000000000E+00  0.2459833930154E+00
 0.2738523427032E+00 -0.3189504110958E+00  0.0000000000000E+00  0.2199940112406E+00
 0.2884302503699E+00 -0.3308898374227E+00  0.0000000000000E+00  0.1960446932142E+00
 0.2991377798955E+00 -0.3391515134229E+00  0.0000000000000E+00  0.1754296154681E+00
 0.3068965901686E+00 -0.3446733439051E+00  0.0000000000000E+00  0.1585370847740E+00
 0.3124213847472E+00 -0.3481815618459E+00  0.0000000000000E+00  0.1453862942172E+00
 0.3162596388881E+00 -0.3502326452832E+00  0.0000000000000E+00  0.1358564731080E+00
 0.3188530462509E+00 -0.3512731682187E+00  0.0000000000000E+00  0.1296906498669E+00
 0.3205503030855E+00 -0.3516540380805E+00  0.0000000000000E+00  0.1265374056262E+00
 0.3216177891721E+00 -0.3516441807812E+00  0.0000000000000E+00  0.1260325342487E+00
 0.3222746789666E+00 -0.3514634475011E+00  0.0000000000000E+00  0.1277853822579E+00
 0.3227191005879E+00 -0.3513001323647E+00  0.0000000000000E+00  0.1313128876160E+00
 0.3227198929583E+00 -0.3510106475393E+00  0.0000000000000E+00  0.1368489663742E+00
 0.3224908460083E+00 -0.3508462711245E+00  0.0000000000000E+00  0.1443103846168E+00
 0.3226446189685E+00 -0.3513586412438E+00  0.0000000000000E+00  0.1523826158315E+00
 0.7285463108045E-01 -0.1376230837445E+00  0.0000000000000E+00  0.3351219943805E+00
 0.1271422235549E+00 -0.1885081491554E+00  0.0000000000000E+00  0.3378730121786E+00
 0.1741692707762E+00 -0.2320788628059E+00  0.0000000000000E+00  0.3218750971234E+00
 0.2130808545289E+00 -0.2675736439430E+00  0.0000000000000E+00  0.2955944476433E+00
 0.2440446674003E+00 -0.2952420650917E+00  0.0000000000000E+00  0.2649876641485E+00
 0.2678506801521E+00 -0.3158987531743E+00  0.0000000000000E+00  0.2333591372372E+00
 0.2854246158766E+00 -0.3304528755010E+00  0.0000000000000E+00  0.2029363321717E+00
 0.2977559162684E+00 -0.3399463989145E+00  0.0000000000000E+00  0.1762166627701E+00
 0.3060839872133E+00 -0.3456566543305E+00  0.0000000000000E+00  0.1543969390960E+00
 0.3115112630169E+00 -0.3487035849692E+00  0.0000000000000E+00  0.1375694035496E+00
 0.3148421264102E+00 -0.3499044596247E+00  0.0000000000000E+00  0.1254823537438E+00
 0.3166672018221E+00 -0.3498590030741E+00  0.0000000000000E+00  0.1177956523986E+00
 0.3174508545291E+00 -0.3490341586450E+00  0.0000000000000E+00  0.1140530486918E+00
 0.3175429789081E+00 -0.3477802251586E+00  0.0000000000000E+00  0.1137395625708E+00
 0.3171979656480E+00 -0.3463535974163E+00  0.0000000000000E+00  0.1163710428724E+00
 0.3166170919361E+00 -0.3449555657877E+00  0.0000000000000E+00  0.1214526055988E+00
 0.3159619806390E+00 -0.3437350687261E+00  0.0000000000000E+00  0.1283794524924E+00
 0.3148957444561E+00 -0.3424747286617E+00  0.0000000000000E+00  0.1373858482587E+00
 0.3138552931596E+00 -0.3416517563157E+00  0.0000000000000E+00  0.1480747343504E+00
 0.3138181355717E+00 -0.3421598734201E+00  0.0000000000000E+00  0.1585575433068E+00
 0.8015735228124E-01 -0.1465576022594E+00  0.0000000000000E+00  0.3544310787206E+00
 0.1394446798471E+00 -0.2020888150236E+00  0.0000000000000E+00  0.3509418371050E+00
 0.1890579666490E+00 -0.2479090742624E+00  0.0000000000000E+00  0.3266338794141E+00
 0.2286192669651E+00 -0.2837320508253E+00  0.0000000000000E+00  0.2918550848555E+00
 0.2587441432029E+00 -0.3102637899775E+00  0.0000000000000E+00  0.2537244568518E+00
 0.2806829484791E+00 -0.3287797974673E+00  0.0000000000000E+00  0.2160056651217E+00
 0.2957561600883E+00 -0.3405864927739E+00  0.0000000000000E+00  0.1812963927338E+00
 0.3052961115970E+00 -0.3470757699425E+00  0.0000000000000E+00  0.1523441141967E+00
 0.3108455911566E+00 -0.3498280800751E+00  0.0000000000000E+00  0.1300610617183E+00
 0.3136727190947E+00 -0.3501295892555E+00  0.0000000000000E+00  0.1140969916715E+00
 0.3146428571592E+00 -0.3488590571335E+00  0.0000000000000E+00  0.1038470649360E+00
 0.3143635643275E+00 -0.3466318470723E+00  0.0000000000000E+00  0.9870750419103E-01
 0.3132984521367E+00 -0.3439101927055E+00  0.0000000000000E+00  0.9799920550166E-01
 0.3117756648611E+00 -0.3410196395355E+00  0.0000000000000E+00  0.1010347421527E+00
 0.3100186112321E+00 -0.3381842255093E+00  0.0000000000000E+00  0.1072048414450E+00
 0.3081964142371E+00 -0.3355719053279E+00  0.0000000000000E+00  0.1158995852027E+00
 0.3064239777144E+00 -0.3332813406822E+00  0.0000000000000E+00  0.1263716013560E+00
 0.3042961316152E+00 -0.3310585829354E+00  0.0000000000000E+00  0.1388274770143E+00
 0.3025627846228E+00 -0.3296979215067E+00  0.0000000000000E+00  0.1525741053470E+00
 0.3026035570984E+00 -0.3304800735300E+00  0.0000000000000E+00  0.1652633293929E+00
 0.8838683559708E-01 -0.1565267796708E+00  0.0000000000000E+00  0.3748442252281E+00
 0.1531802930231E+00 -0.2171481574958E+00  0.0000000000000E+00  0.3629720835461E+00
 0.2051820613281E+00 -0.2649717776438E+00  0.0000000000000E+00  0.3284980184828E+00
 0.2448115156165E+00 -0.3004975917189E+00  0.0000000000000E+00  0.2838839792049E+00
 0.2733272950453E+00 -0.3250832825639E+00  0.0000000000000E+00  0.2375162270176E+00
 0.2925993329699E+00 -0.3406261262594E+00  0.0000000000000E+00  0.1935832558988E+00
 0.3044648785525E+00 -0.3489569443842E+00  0.0000000000000E+00  0.1550143853102E+00
 0.3106835718090E+00 -0.3519006354927E+00  0.0000000000000E+00  0.1246321830655E+00
 0.3131142335912E+00 -0.3513504691324E+00  0.0000000000000E+00  0.1028203815775E+00
 0.3131498312633E+00 -0.3487170651149E+00  0.0000000000000E+00  0.8863131564085E-01
 0.3116711222311E+00 -0.3448935528817E+00  0.0000000000000E+00  0.8103435931700E-01
 0.3092668835737E+00 -0.3404730586052E+00  0.0000000000000E+00  0.7912949270154E-01
 0.3063711973419E+00 -0.3358821880833E+00  0.0000000000000E+00  0.8200225337256E-01
 0.3032661417022E+00 -0.3313959167205E+00  0.0000000000000E+00  0.8879240899092E-01
 0.3001277585231E+00 -0.3271885732070E+00  0.0000000000000E+00  0.9876691204812E-01
 0.2970847153404E+00 -0.3233859267220E+00  0.0000000000000E+00  0.1111998399908E+00
 0.2942026971965E+00 -0.3200335904756E+00  0.0000000000000E+00  0.1252012224914E+00
 0.2910498915848E+00 -0.3168825365013E+00  0.0000000000000E+00  0.1409514377778E+00
 0.2887512842398E+00 -0.3151111185738E+00  0.0000000000000E+00  0.1575168528813E+00
 0.2891033165041E+00 -0.3164112654325E+00  0.0000000000000E+00  0.1721959157922E+00
 0.9771326557463E-01 -0.1677223831612E+00  0.0000000000000E+00  0.3965197297627E+00
 0.1685555439008E+00 -0.2339003746497E+00  0.0000000000000E+00  0.3735744912679E+00
 0.2226047328375E+00 -0.2833292488026E+00  0.0000000000000E+00  0.3268064972319E+00
 0.2615332490224E+00 -0.3177376446337E+00  0.0000000000000E+00  0.2709757683319E+00
 0.2875029176378E+00 -0.3393959020457E+00  0.0000000000000E+00  0.2158120731165E+00
 0.3032035742976E+00 -0.3510258992524E+00  0.0000000000000E+00  0.1658357809987E+00
 0.3111308137188E+00 -0.3551304050918E+00  0.0000000000000E+00  0.1241828981259E+00
 0.3135495351216E+00 -0.3540418637099E+00  0.0000000000000E+00  0.9346216742445E-01
 0.3126127372423E+00 -0.3499407658799E+00  0.0000000000000E+00  0.7323390786333E-01
 0.3097652152112E+00 -0.3442876561007E+00  0.0000000000000E+00  0.6180615804481E-01
 0.3058406623755E+00 -0.3379250271295E+00  0.0000000000000E+00  0.5767196828211E-01
 0.3013663162381E+00 -0.3313780620631E+00  0.0000000000000E+00  0.5962239700458E-01
 0.2967157279934E+00 -0.3250043211433E+00  0.0000000000000E+00  0.6651225991041E-01
 0.2921021274196E+00 -0.3190038911395E+00  0.0000000000000E+00  0.7732164925762E-01
 0.2876419080280E+00 -0.3134882009615E+00  0.0000000000000E+00  0.9120650458869E-01
 0.2834197477861E+00 -0.3085369845379E+00  0.0000000000000E+00  0.1073383142428E+00
 0.2794534246595E+00 -0.3041441239015E+00  0.0000000000000E+00  0.1247043916981E+00
 0.2753263263225E+00 -0.3001075596243E+00  0.0000000000000E+00  0.1434782462151E+00
 0.2725794232485E+00 -0.2980380620068E+00  0.0000000000000E+00  0.1625591799046E+00
 0.2734337046545E+00 -0.3000569825447E+00  0.0000000000000E+00  0.1789921209051E+00
 0.1083392734598E+00 -0.1803739392954E+00  0.0000000000000E+00  0.4196305021983E+00
 0.1857986411726E+00 -0.2525832365380E+00  0.0000000000000E+00  0.3822389051788E+00
 0.2413636958392E+00 -0.3030175342801E+00  0.0000000000000E+00  0.3207576263103E+00
 0.2785943324390E+00 -0.3352507873169E+00  0.0000000000000E+00  0.2523404173326E+00
 0.3008983850002E+00 -0.3528114769523E+00  0.0000000000000E+00  0.1880791873745E+00
 0.3120333602659E+00 -0.3594978648618E+00  0.0000000000000E+00  0.1326351986257E+00
 0.3153076113298E+00 -0.3586451157298E+00  0.0000000000000E+00  0.8909166301917E-01
 0.3135445372740E+00 -0.3531400560014E+00  0.0000000000000E+00  0.5941752881676E-01
 0.3091179258582E+00 -0.3453720765292E+00  0.0000000000000E+00  0.4202321863789E-01
 0.3034148557696E+00 -0.3367395431403E+00  0.0000000000000E+00  0.3435943675614E-01
 0.2971455856516E+00 -0.3279542123566E+00  0.0000000000000E+00  0.3443120397720E-01
 0.2907305244572E+00 -0.3194245518772E+00  0.0000000000000E+00  0.4073721492663E-01
 0.2844534401667E+00 -0.3114075202875E+00  0.0000000000000E+00  0.5192808935505E-01
 0.2784401503358E+00 -0.3040084447848E+00  0.0000000000000E+00  0.6685273365431E-01
 0.2727399287362E+00 -0.2972676767272E+00  0.0000000000000E+00  0.8458077797334E-01
 0.2673935579761E+00 -0.2912189047580E+00  0.0000000000000E+00  0.1042078357278E+00
 0.2623742074920E+00 -0.2858078485745E+00  0.0000000000000E+00  0.1246340359061E+00
 0.2573234160011E+00 -0.2809226909587E+00  0.0000000000000E+00  0.1460542794599E+00
 0.2542238572109E+00 -0.2786417996359E+00  0.0000000000000E+00  0.1672851379718E+00
 0.2557256357921E+00 -0.2815319994818E+00  0.0000000000000E+00  0.1852194521696E+00
 0.1205079569002E+00 -0.1947593068920E+00  0.0000000000000E+00  0.4443583408017E+00
 0.2051611504755E+00 -0.2734605866190E+00  0.0000000000000E+00  0.3882955017646E+00
 0.2614570712796E+00 -0.3240316494933E+00  0.0000000000000E+00  0.3093776489798E+00
 0.2957172914148E+00 -0.3527434068288E+00  0.0000000000000E+00  0.2271034450672E+00
 0.3130445667172E+00 -0.3648375476558E+00  0.0000000000000E+00  0.1538408200947E+00
 0.3185623420319E+00 -0.3654928053130E+00  0.0000000000000E+00  0.9404103562206E-01
 0.3165423919475E+00 -0.3590319411664E+00  0.0000000000000E+00  0.5027661825742E-01
 0.3103669023716E+00 -0.3488854789686E+00  0.0000000000000E+00  0.2330170268664E-01
 0.3024871229284E+00 -0.3375017012318E+00  0.0000000000000E+00  0.1005888254504E-01
 0.2940868938929E+00 -0.3260672444288E+00  0.0000000000000E+00  0.7099102687320E-02
 0.2856702803716E+00 -0.3150757377421E+00  0.0000000000000E+00  0.1198566490296E-01
 0.2775101197283E+00 -0.3047747993810E+00  0.0000000000000E+00  0.2297754806249E-01
 0.2697775707656E+00 -0.2952962411039E+00  0.0000000000000E+00  0.3856953328146E-01
 0.2624988945934E+00 -0.2866375771485E+00  0.0000000000000E+00  0.5752017571672E-01
 0.2556536761070E+00 -0.2787649901624E+00  0.0000000000000E+00  0.7884600200350E-01
 0.2492414590032E+00 -0.2716688112410E+00  0.0000000000000E+00  0.1016032472595E+00
 0.2431952995212E+00 -0.2652514952314E+00  0.0000000000000E+00  0.1246519746136E+00
 0.2372616223053E+00 -0.2595383161932E+00  0.0000000000000E+00  0.1482401742266E+00
 0.2338786805613E+00 -0.2571002886820E+00  0.0000000000000E+00  0.1711952156193E+00
 0.2361246409574E+00 -0.2609616678798E+00  0.0000000000000E+00  0.1903686567230E+00
 0.1345133151634E+00 -0.2112190844377E+00  0.0000000000000E+00  0.4708828904014E+00
 0.2269184774788E+00 -0.2968241660655E+00  0.0000000000000E+00  0.3908576314039E+00
 0.2828219161211E+00 -0.3463027160412E+00  0.0000000000000E+00  0.2914783929633E+00
 0.3125083337231E+00 -0.3697977593506E+00  0.0000000000000E+00  0.1943139844631E+00
 0.3233604036270E+00 -0.3748616140717E+00  0.0000000000000E+00  0.1127360313571E+00
 0.3222107426015E+00 -0.3684040443966E+00  0.0000000000000E+00  0.5037800373495E-01
 0.3144078071827E+00 -0.3558481925556E+00  0.0000000000000E+00  0.8568433719758E-02
 0.3037994032906E+00 -0.3410571301897E+00  0.0000000000000E+00 -0.1386192875199E-01
 0.2926856143669E+00 -0.3263004008583E+00  0.0000000000000E+00 -0.2167698859244E-01
 0.2818755031276E+00 -0.3123761232469E+00  0.0000000000000E+00 -0.1915011009476E-01
 0.2715916784672E+00 -0.2994801142420E+00  0.0000000000000E+00 -0.9039194528206E-02
 0.2619325613642E+00 -0.2876699399113E+00  0.0000000000000E+00  0.6761979105775E-02
 0.2529444567007E+00 -0.2769391712659E+00  0.0000000000000E+00  0.2665425646146E-01
 0.2445490801674E+00 -0.2671719055326E+00  0.0000000000000E+00  0.4935117668213E-01
 0.2366577549098E+00 -0.2582610884754E+00  0.0000000000000E+00  0.7385266426177E-01
 0.2292328129911E+00 -0.2501577764376E+00  0.0000000000000E+00  0.9921839210645E-01
 0.2221723750525E+00 -0.2427267452516E+00  0.0000000000000E+00  0.1243248079842E+00
 0.2153815272716E+00 -0.2361835440167E+00  0.0000000000000E+00  0.1495044821338E+00
 0.2117571294533E+00 -0.2336075867758E+00  0.0000000000000E+00  0.1736983470318E+00
 0.2147925289480E+00 -0.2384829874729E+00  0.0000000000000E+00  0.1938443755081E+00
 0.1507143381762E+00 -0.2301773101879E+00  0.0000000000000E+00  0.4993606214252E+00
 0.2513677558019E+00 -0.3229934776413E+00  0.0000000000000E+00  0.3887352224293E+00
 0.3053003442630E+00 -0.3696612400286E+00  0.0000000000000E+00  0.2656003935195E+00
 0.3284178939274E+00 -0.3858275241486E+00  0.0000000000000E+00  0.1529696723975E+00
 0.3311402508838E+00 -0.3821355653519E+00  0.0000000000000E+00  0.6461353445376E-01
 0.3223713874271E+00 -0.3675947242132E+00  0.0000000000000E+00  0.2333339649919E-02
 0.3085503544575E+00 -0.3487296440766E+00  0.0000000000000E+00 -0.3487166611581E-01
 0.2937520644236E+00 -0.3295689524430E+00  0.0000000000000E+00 -0.5086357965310E-01
 0.2798091764700E+00 -0.3118763617309E+00  0.0000000000000E+00 -0.5216076603581E-01
 0.2669841146795E+00 -0.2958851853299E+00  0.0000000000000E+00 -0.4361742745065E-01
 0.2551709406394E+00 -0.2814443005127E+00  0.0000000000000E+00 -0.2811744349210E-01
 0.2442896776434E+00 -0.2684165607523E+00  0.0000000000000E+00 -0.7604949610076E-02
 0.2342609754232E+00 -0.2566561348255E+00  0.0000000000000E+00  0.1628515411773E-01
 0.2249022451318E+00 -0.2459331542784E+00  0.0000000000000E+00  0.4226227533622E-01
 0.2160601872089E+00 -0.2360703697103E+00  0.0000000000000E+00  0.6934634958595E-01
 0.2076643545089E+00 -0.2269840878251E+00  0.0000000000000E+00  0.9664795844970E-01
 0.1995834094586E+00 -0.2185072083905E+00  0.0000000000000E+00  0.1231248842073E+00
 0.1919454661454E+00 -0.2111078797409E+00  0.0000000000000E+00  0.1492215953341E+00
 0.1880970978221E+00 -0.2083791086335E+00  0.0000000000000E+00  0.1741049219409E+00
 0.1919130488954E+00 -0.2142496372636E+00  0.0000000000000E+00  0.1949520408124E+00
 0.1695545435455E+00 -0.2521725733950E+00  0.0000000000000E+00  0.5298842633161E+00
 0.2788197657162E+00 -0.3523105895517E+00  0.0000000000000E+00  0.3802981802472E+00
 0.3285841802237E+00 -0.3937757792932E+00  0.0000000000000E+00  0.2299373666495E+00
 0.3426872402988E+00 -0.4000159844731E+00  0.0000000000000E+00  0.1020770988724E+00
 0.3355516231011E+00 -0.3857705187738E+00  0.0000000000000E+00  0.9678614856766E-02
 0.3184619828822E+00 -0.3624546190373E+00  0.0000000000000E+00 -0.4893153504389E-01
 0.2987572681515E+00 -0.3374640544779E+00  0.0000000000000E+00 -0.7855430665054E-01
 0.2803033068326E+00 -0.3145146857636E+00  0.0000000000000E+00 -0.8639589393547E-01
 0.2640913075137E+00 -0.2944820485351E+00  0.0000000000000E+00 -0.8043291932567E-01
 0.2497119130723E+00 -0.2769114134006E+00  0.0000000000000E+00 -0.6566145539446E-01
 0.2367343571795E+00 -0.2613108832620E+00  0.0000000000000E+00 -0.4485912747849E-01
 0.2249210020533E+00 -0.2473693592210E+00  0.0000000000000E+00 -0.1994363413356E-01
 0.2140716332786E+00 -0.2348049872112E+00  0.0000000000000E+00  0.7450292768639E-02
 0.2039006067091E+00 -0.2232738475618E+00  0.0000000000000E+00  0.3606310148954E-01
 0.1941948248566E+00 -0.2125328946360E+00  0.0000000000000E+00  0.6497372676110E-01
 0.1848561781254E+00 -0.2024692099192E+00  0.0000000000000E+00  0.9339503326445E-01
 0.1757294529796E+00 -0.1928895322165E+00  0.0000000000000E+00  0.1204376304963E+00
 0.1672442351969E+00 -0.1845883825064E+00  0.0000000000000E+00  0.1466743560898E+00
 0.1631725369970E+00 -0.1816630765831E+00  0.0000000000000E+00  0.1716206861893E+00
 0.1677042070282E+00 -0.1884436014804E+00  0.0000000000000E+00  0.1928806210884E+00
 0.1915895014367E+00 -0.2779070907329E+00  0.0000000000000E+00  0.5624021505766E+00
 0.3095768837098E+00 -0.3851220159643E+00  0.0000000000000E+00  0.3632501142487E+00
 0.3521212378030E+00 -0.4180463030143E+00  0.0000000000000E+00  0.1822399958451E+00
 0.3542788529279E+00 -0.4112322070344E+00  0.0000000000000E+00  0.4078750378207E-01
 0.3356606464825E+00 -0.3847619353965E+00  0.0000000000000E+00 -0.5128045158454E-01
 0.3100188425834E+00 -0.3525053385824E+00  0.0000000000000E+00 -0.1016803395388E+00
 0.2850364933007E+00 -0.3220811617730E+00  0.0000000000000E+00 -0.1207501090200E+00
 0.2637208185746E+00 -0.2961898506755E+00  0.0000000000000E+00 -0.1192188575538E+00
 0.2458813884964E+00 -0.2744881114661E+00  0.0000000000000E+00 -0.1057224743322E+00
 0.2304218472786E+00 -0.2558339576934E+00  0.0000000000000E+00 -0.8481987740028E-01
 0.2166495389683E+00 -0.2394633160634E+00  0.0000000000000E+00 -0.5901267780745E-01
 0.2041994381411E+00 -0.2249171144151E+00  0.0000000000000E+00 -0.3019016499508E-01
 0.1927486453773E+00 -0.2117718835556E+00  0.0000000000000E+00  0.2951009625640E-04
 0.1819085091834E+00 -0.1995684360131E+00  0.0000000000000E+00  0.3046218039882E-01
 0.1714148047979E+00 -0.1880074008974E+00  0.0000000000000E+00  0.6029281297443E-01
 0.1611498887420E+00 -0.1769558991402E+00  0.0000000000000E+00  0.8888683204417E-01
 0.1509398579300E+00 -0.1661993332196E+00  0.0000000000000E+00  0.1155786146887E+00
 0.1416107041563E+00 -0.1569443517173E+00  0.0000000000000E+00  0.1410639251264E+00
 0.1373134083027E+00 -0.1537610167592E+00  0.0000000000000E+00  0.1653434808080E+00
 0.1424406866017E+00 -0.1612968664218E+00  0.0000000000000E+00  0.1866820204851E+00
 0.2175256777839E+00 -0.3083286183900E+00  0.0000000000000E+00  0.5965506288616E+00
 0.3438771563959E+00 -0.4217274333057E+00  0.0000000000000E+00  0.3342304295024E+00
 0.3749506688166E+00 -0.4414099089499E+00  0.0000000000000E+00  0.1197100029341E+00
 0.3617957668409E+00 -0.4179281079027E+00  0.0000000000000E+00 -0.3130660585334E-01
 0.3305226229572E+00 -0.3780897529965E+00  0.0000000000000E+00 -0.1165590912150E+00
 0.2968467297399E+00 -0.3375755306754E+00  0.0000000000000E+00 -0.1535881638796E+00
 0.2676820447948E+00 -0.3029270866222E+00  0.0000000000000E+00 -0.1597368837884E+00
 0.2444292833907E+00 -0.2750522496183E+00  0.0000000000000E+00 -0.1483929079402E+00
 0.2255852675437E+00 -0.2523140078170E+00  0.0000000000000E+00 -0.1275313601718E+00
 0.2095021224698E+00 -0.2330536614002E+00  0.0000000000000E+00 -0.1007892726119E+00
 0.1953105997081E+00 -0.2163126579806E+00  0.0000000000000E+00 -0.7042987032277E-01
 0.1825253713618E+00 -0.2014782274110E+00  0.0000000000000E+00 -0.3838245817915E-01
 0.1706848179031E+00 -0.1879640519451E+00  0.0000000000000E+00 -0.6205909330574E-02
 0.1593028790311E+00 -0.1752027604274E+00  0.0000000000000E+00  0.2507064882931E-01
 0.1480849349561E+00 -0.1628628399935E+00  0.0000000000000E+00  0.5479064502747E-01
 0.1369083425351E+00 -0.1508079942834E+00  0.0000000000000E+00  0.8250464238878E-01
 0.1255831822413E+00 -0.1388033589352E+00  0.0000000000000E+00  0.1078263580290E+00
 0.1154430681466E+00 -0.1285626338892E+00  0.0000000000000E+00  0.1315318655433E+00
 0.1109377660535E+00 -0.1250612089899E+00  0.0000000000000E+00  0.1542669368172E+00
 0.1164911187603E+00 -0.1331280155111E+00  0.0000000000000E+00  0.1752493247473E+00
 0.2482710779903E+00 -0.3447779132316E+00  0.0000000000000E+00  0.6312746523746E+00
 0.3817519249083E+00 -0.4622356309851E+00  0.0000000000000E+00  0.2880653798919E+00
 0.3954026833220E+00 -0.4619726168595E+00  0.0000000000000E+00  0.3894618507861E-01
 0.3634255419140E+00 -0.4180491751791E+00  0.0000000000000E+00 -0.1135226600324E+00
 0.3194126398106E+00 -0.3649961072617E+00  0.0000000000000E+00 -0.1831111201460E+00
 0.2792141923905E+00 -0.3180358315116E+00  0.0000000000000E+00 -0.2020007967291E+00
 0.2472500434066E+00 -0.2806363326506E+00  0.0000000000000E+00 -0.1942732236723E+00
 0.2228889394452E+00 -0.2515716821105E+00  0.0000000000000E+00 -0.1734733822000E+00
 0.2035921601266E+00 -0.2283495168490E+00  0.0000000000000E+00 -0.1455649109289E+00
 0.1873519610720E+00 -0.2089826621675E+00  0.0000000000000E+00 -0.1133249717985E+00
 0.1731446790187E+00 -0.1923088115598E+00  0.0000000000000E+00 -0.7902903403761E-01
 0.1603274426834E+00 -0.1775024591203E+00  0.0000000000000E+00 -0.4467339014818E-01
 0.1482827049462E+00 -0.1637973136179E+00  0.0000000000000E+00 -0.1161049488304E-01
 0.1364578903966E+00 -0.1505567338931E+00  0.0000000000000E+00  0.1940917592652E-01
 0.1245712360143E+00 -0.1374669642157E+00  0.0000000000000E+00  0.4791755273028E-01
 0.1125171372400E+00 -0.1244120993499E+00  0.0000000000000E+00  0.7363629255282E-01
 0.1000855984359E+00 -0.1111299253945E+00  0.0000000000000E+00  0.9647910993619E-01
 0.8924124367340E-01 -0.9993746211845E-01  0.0000000000000E+00  0.1172026864690E+00
 0.8460084873832E-01 -0.9609066812447E-01  0.0000000000000E+00  0.1372991347329E+00
 0.9037734361770E-01 -0.1044010095252E+00  0.0000000000000E+00  0.1572981616150E+00
 0.2849932553985E+00 -0.3892789887784E+00  0.0000000000000E+00  0.6639101927222E+00
 0.4226376433109E+00 -0.5061584261221E+00  0.0000000000000E+00  0.2162056091618E+00
 0.4105396210809E+00 -0.4762523854036E+00  0.0000000000000E+00 -0.6376397306345E-01
 0.3570513728559E+00 -0.4091595359664E+00  0.0000000000000E+00 -0.2026798810571E+00
 0.3023225691956E+00 -0.3455978844400E+00  0.0000000000000E+00 -0.2462600813547E+00
 0.2579712121636E+00 -0.2949776723831E+00  0.0000000000000E+00 -0.2448577104328E+00
 0.2243029881846E+00 -0.2557821426374E+00  0.0000000000000E+00 -0.2241669093084E+00
 0.1994340963465E+00 -0.2260552544594E+00  0.0000000000000E+00 -0.1943440634834E+00
 0.1802610054753E+00 -0.2029470165227E+00  0.0000000000000E+00 -0.1594793731148E+00
 0.1644177738387E+00 -0.1840931468221E+00  0.0000000000000E+00 -0.1221380816761E+00
 0.1506348644163E+00 -0.1679680005281E+00  0.0000000000000E+00 -0.8482823859318E-01
 0.1380542757988E+00 -0.1534599640657E+00  0.0000000000000E+00 -0.4939370970068E-01
 0.1259299441141E+00 -0.1396674089348E+00  0.0000000000000E+00 -0.1668536646466E-01
 0.1137216925666E+00 -0.1259792874282E+00  0.0000000000000E+00  0.1293621577897E-01
 0.1012284346748E+00 -0.1121729124208E+00  0.0000000000000E+00  0.3914745733361E-01
 0.8838835759280E-01 -0.9818201094378E-01  0.0000000000000E+00  0.6175719239794E-01
 0.7495735590322E-01 -0.8369743320806E-01  0.0000000000000E+00  0.8094578443129E-01
 0.6365977240639E-01 -0.7172916373149E-01  0.0000000000000E+00  0.9726446852861E-01
 0.5906860543089E-01 -0.6759439391506E-01  0.0000000000000E+00  0.1133131316547E+00
 0.6486809782862E-01 -0.7581907078098E-01  0.0000000000000E+00  0.1313608171356E+00
 0.3289830051028E+00 -0.4452158643881E+00  0.0000000000000E+00  0.6871734136766E+00
 0.4642313054466E+00 -0.5509211440224E+00  0.0000000000000E+00  0.1033052907789E+00
 0.4151273850767E+00 -0.4778247835496E+00  0.0000000000000E+00 -0.1907087483410E+00
 0.3410597101707E+00 -0.3892829763279E+00  0.0000000000000E+00 -0.2900709255809E+00
 0.2807820595998E+00 -0.3222615602216E+00  0.0000000000000E+00 -0.3007423361247E+00
 0.2341074437817E+00 -0.2694086506755E+00  0.0000000000000E+00 -0.2825995352054E+00
 0.1990045846300E+00 -0.2284608912343E+00  0.0000000000000E+00 -0.2499431560620E+00
 0.1742537960251E+00 -0.1986262298836E+00  0.0000000000000E+00 -0.2106401161713E+00
 0.1560191037636E+00 -0.1765486184986E+00  0.0000000000000E+00 -0.1685994792215E+00
 0.1412724300392E+00 -0.1590134922414E+00  0.0000000000000E+00 -0.1269477382837E+00
 0.1283221630764E+00 -0.1438703184251E+00  0.0000000000000E+00 -0.8810804380950E-01
 0.1161339827774E+00 -0.1297915352012E+00  0.0000000000000E+00 -0.5313044138178E-01
 0.1039591731558E+00 -0.1159071501162E+00  0.0000000000000E+00 -0.2205825396001E-01
 0.9139111059204E-01 -0.1017616329901E+00  0.0000000000000E+00  0.5113948561187E-02
 0.7838885639355E-01 -0.8730967452067E-01  0.0000000000000E+00  0.2806062246919E-01
 0.6496322008907E-01 -0.7255919416275E-01  0.0000000000000E+00  0.4653610531853E-01
 0.5082269685227E-01 -0.5714760777025E-01  0.0000000000000E+00  0.6089066839285E-01
 0.3957710296105E-01 -0.4484053347581E-01  0.0000000000000E+00  0.7112174989151E-01
 0.3542534573269E-01 -0.4065563226867E-01  0.0000000000000E+00  0.8127746980970E-01
 0.4113463845863E-01 -0.4848323419837E-01  0.0000000000000E+00  0.9582506997498E-01
 0.3814244165632E+00 -0.5190145778615E+00  0.0000000000000E+00  0.6810533477930E+00
 0.4981614069676E+00 -0.5873943649349E+00  0.0000000000000E+00 -0.8343053770793E-01
 0.4004439570566E+00 -0.4530732648225E+00  0.0000000000000E+00 -0.3324192587806E+00
 0.3177148145119E+00 -0.3639714611027E+00  0.0000000000000E+00 -0.3571131425703E+00
 0.2575039206481E+00 -0.2976226065892E+00  0.0000000000000E+00 -0.3479086691899E+00
 0.2076413480770E+00 -0.2412874563131E+00  0.0000000000000E+00 -0.3176319784709E+00
 0.1710606760244E+00 -0.1981793179714E+00  0.0000000000000E+00 -0.2716968002791E+00
 0.1475869644381E+00 -0.1694621187945E+00  0.0000000000000E+00 -0.2210152050031E+00
 0.1315887990781E+00 -0.1499722276899E+00  0.0000000000000E+00 -0.1719133287427E+00
 0.1186526664541E+00 -0.1345622154463E+00  0.0000000000000E+00 -0.1278710485590E+00
 0.1067268663107E+00 -0.1205575216128E+00  0.0000000000000E+00 -0.8963274849518E-01
 0.9489936795965E-01 -0.1068260739113E+00  0.0000000000000E+00 -0.5670459607088E-01
 0.8261519763117E-01 -0.9275296315702E-01  0.0000000000000E+00 -0.2837576064919E-01
 0.6969743709061E-01 -0.7813274768782E-01  0.0000000000000E+00 -0.4519977382060E-02
 0.5634450369408E-01 -0.6315103397393E-01  0.0000000000000E+00  0.1442535443666E-01
 0.4270920216616E-01 -0.4802075212007E-01  0.0000000000000E+00  0.2798572749568E-01
 0.2843709242835E-01 -0.3225560655439E-01  0.0000000000000E+00  0.3642440516120E-01
 0.1815630434785E-01 -0.2048594310909E-01  0.0000000000000E+00  0.3870549875090E-01
 0.1521965039667E-01 -0.1686780272336E-01  0.0000000000000E+00  0.4060374444484E-01
 0.2102633655110E-01 -0.2418409559892E-01  0.0000000000000E+00  0.4915518365886E-01
 0.4201333655481E+00 -0.6298304680250E+00  0.0000000000000E+00  0.5071776630945E+00
 0.4906928953110E+00 -0.5451261994781E+00  0.0000000000000E+00 -0.4003827530828E+00
 0.3642439239226E+00 -0.4145531183115E+00  0.0000000000000E+00 -0.4158553599847E+00
 0.2955265975202E+00 -0.3404577742277E+00  0.0000000000000E+00 -0.4056115748629E+00
 0.2329922803779E+00 -0.2724529292394E+00  0.0000000000000E+00 -0.3940813849476E+00
 0.1775909264782E+00 -0.2093047384557E+00  0.0000000000000E+00 -0.3525985116938E+00
 0.1398244229479E+00 -0.1638927230498E+00  0.0000000000000E+00 -0.2874435225260E+00
 0.1203516165542E+00 -0.1396304860944E+00  0.0000000000000E+00 -0.2226015544806E+00
 0.1081558616436E+00 -0.1245988502450E+00  0.0000000000000E+00 -0.1689678977946E+00
 0.9728916087485E-01 -0.1115148417572E+00  0.0000000000000E+00 -0.1260344081469E+00
 0.8618597652186E-01 -0.9835126208192E-01  0.0000000000000E+00 -0.9063445578357E-01
 0.7453079311134E-01 -0.8471924016857E-01  0.0000000000000E+00 -0.6093926367546E-01
 0.6206340909832E-01 -0.7037272352265E-01  0.0000000000000E+00 -0.3614703311911E-01
 0.4882676911655E-01 -0.5527153405120E-01  0.0000000000000E+00 -0.1631686655438E-01
 0.3529395644331E-01 -0.3989901023254E-01  0.0000000000000E+00 -0.1895253614324E-02
 0.2203338367281E-01 -0.2487583852681E-01  0.0000000000000E+00  0.6746384821483E-02
 0.8805270713236E-02 -0.1019074059610E-01  0.0000000000000E+00  0.8597182237260E-02
 0.9073511216808E-03 -0.2194265238666E-03  0.0000000000000E+00  0.3198231035633E-03
 0.2485867030124E-03  0.1973842337858E-02  0.0000000000000E+00 -0.8279269689378E-02
 0.7304428134858E-02 -0.5866354219484E-02  0.0000000000000E+00 -0.8238509707086E-02
 0.4205679108120E-01 -0.5072152991636E-01  0.0000000000000E+00  0.5050645674153E-01
 0.3279340273991E-01 -0.3956576080730E-01  0.0000000000000E+00  0.5320111562707E-01
 0.2482730460722E-01 -0.3051260817741E-01  0.0000000000000E+00  0.5592636466418E-01
 0.1805982917186E-01 -0.2272098164927E-01  0.0000000000000E+00  0.5939414435202E-01
 0.1245476251406E-01 -0.1616476021935E-01  0.0000000000000E+00  0.6340061062992E-01
 0.8111965915346E-02 -0.1092928357782E-01  0.0000000000000E+00  0.6753332882723E-01
 0.5042036563039E-02 -0.7034318153477E-02  0.0000000000000E+00  0.7134289439326E-01
 0.3179437714848E-02 -0.4423743576910E-02  0.0000000000000E+00  0.7437620209590E-01
 0.2383189567448E-02 -0.2966945496891E-02  0.0000000000000E+00  0.7621285329604E-01
 0.2447376447729E-02 -0.2467520317515E-02  0.0000000000000E+00  0.7650236134859E-01
 0.3116012877367E-02 -0.2677191298742E-02  0.0000000000000E+00  0.7500220633508E-01
 0.4104722859012E-02 -0.3316278295703E-02  0.0000000000000E+00  0.7161147282643E-01
 0.5129106532806E-02 -0.4100935113968E-02  0.0000000000000E+00  0.6639351364476E-01
 0.5937985548473E-02 -0.4775614982201E-02  0.0000000000000E+00  0.5957937065687E-01
 0.6346925113227E-02 -0.5146525922107E-02  0.0000000000000E+00  0.5154428814863E-01
 0.6264820004687E-02 -0.5109083817674E-02  0.0000000000000E+00  0.4275478963715E-01
 0.5706103551200E-02 -0.4661606782188E-02  0.0000000000000E+00  0.3369472667971E-01
 0.4784861456065E-02 -0.3901333289203E-02  0.0000000000000E+00  0.2479036714043E-01
 0.3699195878561E-02 -0.3007456975294E-02  0.0000000000000E+00  0.1636796502065E-01
 0.2688651866264E-02 -0.2217443298373E-02  0.0000000000000E+00  0.8591636465264E-02
 0.4870495753645E-01 -0.5762838067505E-01  0.0000000000000E+00  0.4416455238342E-01
 0.3996777952053E-01 -0.4762150679635E-01  0.0000000000000E+00  0.4739260682449E-01
 0.3129238072208E-01 -0.3763963516611E-01  0.0000000000000E+00  0.5085318902563E-01
 0.2376781847889E-01 -0.2902359583078E-01  0.0000000000000E+00  0.5446229700298E-01
 0.1755079267408E-01 -0.2178447124781E-01  0.0000000000000E+00  0.5872524248967E-01
 0.1267142477145E-01 -0.1594737013666E-01  0.0000000000000E+00  0.6335705576169E-01
 0.9147266783354E-02 -0.1152829369185E-01  0.0000000000000E+00  0.6790435983898E-01
 0.6934189039658E-02 -0.8492311332289E-02  0.0000000000000E+00  0.7184482403062E-01
 0.5914671591786E-02 -0.6733012463916E-02  0.0000000000000E+00  0.7466342780389E-01
 0.5894619982719E-02 -0.6068174058794E-02  0.0000000000000E+00  0.7590357584293E-01
 0.6611783130420E-02 -0.6246568551348E-02  0.0000000000000E+00  0.7521772701931E-01
 0.7754204419985E-02 -0.6964964081122E-02  0.0000000000000E+00  0.7241519761391E-01
 0.8989288356089E-02 -0.7895507018674E-02  0.0000000000000E+00  0.6750074080623E-01
 0.1000251477229E-01 -0.8722823025874E-02  0.0000000000000E+00  0.6069276265302E-01
 0.1054173596192E-01 -0.9187273350820E-02  0.0000000000000E+00  0.5240845346971E-01
 0.1045842117431E-01 -0.9126288408354E-02  0.0000000000000E+00  0.4320751508845E-01
 0.9733459576537E-02 -0.8501750869161E-02  0.0000000000000E+00  0.3369985266975E-01
 0.8477532541968E-02 -0.7402365688375E-02  0.0000000000000E+00  0.2444461457010E-01
 0.6902326143575E-02 -0.6018794263982E-02  0.0000000000000E+00  0.1587943515710E-01
 0.5313482683266E-02 -0.4623451459142E-02  0.0000000000000E+00  0.8314146545111E-02
 0.5545368607500E-01 -0.6491646558259E-01  0.0000000000000E+00  0.3894389791176E-01
 0.4691051963636E-01 -0.5517244199715E-01  0.0000000000000E+00  0.4064791654565E-01
 0.3819319980358E-01 -0.4525234803174E-01  0.0000000000000E+00  0.4400037803820E-01
 0.3016369338616E-01 -0.3606483366759E-01  0.0000000000000E+00  0.4788727194498E-01
 0.2330946370155E-01 -0.2813097245208E-01  0.0000000000000E+00  0.5241896414915E-01
 0.1779872005586E-01 -0.2159559762730E-01  0.0000000000000E+00  0.5749417393409E-01
 0.1369512452141E-01 -0.1652427360989E-01  0.0000000000000E+00  0.6272089206292E-01
 0.1099568218778E-01 -0.1292088359843E-01  0.0000000000000E+00  0.6756674083364E-01
 0.9619438769152E-02 -0.1071629263771E-01  0.0000000000000E+00  0.7144890240437E-01
 0.9399236959768E-02 -0.9757099983064E-02  0.0000000000000E+00  0.7380742805378E-01
 0.1008174317596E-01 -0.9804350229470E-02  0.0000000000000E+00  0.7417183020233E-01
 0.1133962555690E-01 -0.1054408369441E-01  0.0000000000000E+00  0.7222694469549E-01
 0.1279769059355E-01 -0.1161147085826E-01  0.0000000000000E+00  0.6787327619673E-01
 0.1407403636156E-01 -0.1262954974538E-01  0.0000000000000E+00  0.6126983845307E-01
 0.1483396212171E-01 -0.1326080695364E-01  0.0000000000000E+00  0.5284142704584E-01
 0.1484801628062E-01 -0.1326395055207E-01  0.0000000000000E+00  0.4323198770518E-01
 0.1403790712457E-01 -0.1254052891861E-01  0.0000000000000E+00  0.3319869398478E-01
 0.1248985629284E-01 -0.1115164833838E-01  0.0000000000000E+00  0.2347062254514E-01
 0.1042713747784E-01 -0.9293303176104E-02  0.0000000000000E+00  0.1462987533917E-01
 0.8150333532401E-02 -0.7239092440822E-02  0.0000000000000E+00  0.7117943655333E-02
 0.6275061350849E-01 -0.7281004481523E-01  0.0000000000000E+00  0.3371099993255E-01
 0.5416540835732E-01 -0.6308373287294E-01  0.0000000000000E+00  0.3377506703830E-01
 0.4542616612707E-01 -0.5317405500135E-01  0.0000000000000E+00  0.3620281843352E-01
 0.3711142023653E-01 -0.4370549201260E-01  0.0000000000000E+00  0.3985136556918E-01
 0.2972097616399E-01 -0.3519144849955E-01  0.0000000000000E+00  0.4445039210425E-01
 0.2355743120555E-01 -0.2794519084581E-01  0.0000000000000E+00  0.4981644049537E-01
 0.1878171693617E-01 -0.2212988021214E-01  0.0000000000000E+00  0.5560539661678E-01
 0.1546089974452E-01 -0.1782137548115E-01  0.0000000000000E+00  0.6130057976673E-01
 0.1357423093765E-01 -0.1501126462910E-01  0.0000000000000E+00  0.6628301245890E-01
 0.1300388543116E-01 -0.1359718606624E-01  0.0000000000000E+00  0.6990432586599E-01
 0.1352835823896E-01 -0.1337498518514E-01  0.0000000000000E+00  0.7156405365060E-01
 0.1482575415041E-01 -0.1404075593977E-01  0.0000000000000E+00  0.7079185049452E-01
 0.1649250882855E-01 -0.1520763007280E-01  0.0000000000000E+00  0.6733209944509E-01
 0.1808179513715E-01 -0.1644135486928E-01  0.0000000000000E+00  0.6121966504050E-01
 0.1916316117505E-01 -0.1731637673508E-01  0.0000000000000E+00  0.5282519428142E-01
 0.1939777599992E-01 -0.1748778855670E-01  0.0000000000000E+00  0.4283982283734E-01
 0.1861133752313E-01 -0.1676308400489E-01  0.0000000000000E+00  0.3217362983975E-01
 0.1683538427495E-01 -0.1514595502144E-01  0.0000000000000E+00  0.2177371395999E-01
 0.1428825457145E-01 -0.1282407756954E-01  0.0000000000000E+00  0.1242608603881E-01
 0.1128225824604E-01 -0.1008684926204E-01  0.0000000000000E+00  0.4646616507666E-02
 0.7060403804412E-01 -0.8130278508281E-01  0.0000000000000E+00  0.2836971532232E-01
 0.6194456478671E-01 -0.7155176634189E-01  0.0000000000000E+00  0.2679385791066E-01
 0.5316516451331E-01 -0.6163899186719E-01  0.0000000000000E+00  0.2791519365507E-01
 0.4464461040721E-01 -0.5197284482950E-01  0.0000000000000E+00  0.3078458345853E-01
 0.3681887728316E-01 -0.4300571765853E-01  0.0000000000000E+00  0.3501789101215E-01
 0.3003402079342E-01 -0.3509378751428E-01  0.0000000000000E+00  0.4035540238567E-01
 0.2453425285355E-01 -0.2849108266454E-01  0.0000000000000E+00  0.4645707877711E-01
 0.2047090107225E-01 -0.2335914558361E-01  0.0000000000000E+00  0.5283365964205E-01
 0.1790368447178E-01 -0.1977137978565E-01  0.0000000000000E+00  0.5885996669602E-01
 0.1678994938783E-01 -0.1770198191435E-01  0.0000000000000E+00  0.6382744114716E-01
 0.1697084636226E-01 -0.1701191510898E-01  0.0000000000000E+00  0.6701582734150E-01
 0.1816345193920E-01 -0.1744033307667E-01  0.0000000000000E+00  0.6778177238188E-01
 0.1996654526530E-01 -0.1860901199027E-01  0.0000000000000E+00  0.6566218154023E-01
 0.2188802881454E-01 -0.2004718593227E-01  0.0000000000000E+00  0.6048444873403E-01
 0.2340113431881E-01 -0.2124354516960E-01  0.0000000000000E+00  0.5246314024365E-01
 0.2403094718196E-01 -0.2172735656193E-01  0.0000000000000E+00  0.4224496827381E-01
 0.2345812393362E-01 -0.2116757335935E-01  0.0000000000000E+00  0.3085108970744E-01
 0.2160431633298E-01 -0.1945806586951E-01  0.0000000000000E+00  0.1948342608436E-01
 0.1864973894366E-01 -0.1674195167013E-01  0.0000000000000E+00  0.9231129513038E-02
 0.1495029221632E-01 -0.1334143961191E-01  0.0000000000000E+00  0.7969861288714E-03
 0.7901474311593E-01 -0.9038311134174E-01  0.0000000000000E+00  0.2298148198891E-01
 0.7032156643794E-01 -0.8065087699735E-01  0.0000000000000E+00  0.1982243414997E-01
 0.6152294459269E-01 -0.7076090489401E-01  0.0000000000000E+00  0.1941470485850E-01
 0.5285896745677E-01 -0.6097408257159E-01  0.0000000000000E+00  0.2108372482720E-01
 0.4468397409223E-01 -0.5165702376894E-01  0.0000000000000E+00  0.2447334857318E-01
 0.3733881041565E-01 -0.4316074435875E-01  0.0000000000000E+00  0.2932770870901E-01
 0.3111176986123E-01 -0.3578335183316E-01  0.0000000000000E+00  0.3533746029912E-01
 0.2622535016461E-01 -0.2975886558510E-01  0.0000000000000E+00  0.4206189981701E-01
 0.2282441701051E-01 -0.2524617258141E-01  0.0000000000000E+00  0.4890887688635E-01
 0.2095888028312E-01 -0.2231263299857E-01  0.0000000000000E+00  0.5515522963689E-01
 0.2056200370143E-01 -0.2091262215354E-01  0.0000000000000E+00  0.5999790840243E-01
 0.2142989132957E-01 -0.2086709645747E-01  0.0000000000000E+00  0.6263251565038E-01
 0.2320986674830E-01 -0.2185154743985E-01  0.0000000000000E+00  0.6236014820151E-01
 0.2540770622229E-01 -0.2340169929069E-01  0.0000000000000E+00  0.5872084976529E-01
 0.2742624946772E-01 -0.2494847989746E-01  0.0000000000000E+00  0.5164174458224E-01
 0.2864743792970E-01 -0.2589352991451E-01  0.0000000000000E+00  0.4156555361394E-01
 0.2855857130802E-01 -0.2572688962563E-01  0.0000000000000E+00  0.2949183614680E-01
 0.2689420673435E-01 -0.2416235758676E-01  0.0000000000000E+00  0.1684419263086E-01
 0.2372730087859E-01 -0.2123076371095E-01  0.0000000000000E+00  0.5125615783700E-02
 0.1944053836280E-01 -0.1726308491195E-01  0.0000000000000E+00 -0.4531685906513E-02
 0.8797263111017E-01 -0.1000387155664E+00  0.0000000000000E+00  0.1764930477901E-01
 0.7933279133558E-01 -0.9041631628790E-01  0.0000000000000E+00  0.1298932474717E-01
 0.7057591721222E-01 -0.8061863723847E-01  0.0000000000000E+00  0.1094297389107E-01
 0.6184774835078E-01 -0.7080374018281E-01  0.0000000000000E+00  0.1110165992969E-01
 0.5342170595638E-01 -0.6125337280476E-01  0.0000000000000E+00  0.1321302648304E-01
 0.4560492961100E-01 -0.5228187487888E-01  0.0000000000000E+00  0.1708622595031E-01
 0.3869563724616E-01 -0.4419551570300E-01  0.0000000000000E+00  0.2248649602826E-01
 0.3296082718044E-01 -0.3727125482832E-01  0.0000000000000E+00  0.2906121829358E-01
 0.2861755978339E-01 -0.3173901494644E-01  0.0000000000000E+00  0.3630071685080E-01
 0.2581033752231E-01 -0.2775973271166E-01  0.0000000000000E+00  0.4353004578464E-01
 0.2458296438635E-01 -0.2539789756766E-01  0.0000000000000E+00  0.4993008239348E-01
 0.2484688545145E-01 -0.2459050152642E-01  0.0000000000000E+00  0.5458989878923E-01
 0.2635118747034E-01 -0.2511757817469E-01  0.0000000000000E+00  0.5659562742364E-01
 0.2866329529155E-01 -0.2658288232511E-01  0.0000000000000E+00  0.5516241958527E-01
 0.3117495873596E-01 -0.2841818482915E-01  0.0000000000000E+00  0.4981190503083E-01
 0.3315484296616E-01 -0.2993051098684E-01  0.0000000000000E+00  0.4058077821185E-01
 0.3386985230545E-01 -0.3041274435331E-01  0.0000000000000E+00  0.2820365479056E-01
 0.3277391176537E-01 -0.2931812331288E-01  0.0000000000000E+00  0.1414700374579E-01
 0.2970470519321E-01 -0.2644745267587E-01  0.0000000000000E+00  0.3461207920280E-03
 0.2496740184829E-01 -0.2204142067638E-01  0.0000000000000E+00 -0.1137629389866E-01
 0.9745771985006E-01 -0.1102466974256E+00  0.0000000000000E+00  0.1250337227267E-01
 0.8898646713286E-01 -0.1008547833426E+00  0.0000000000000E+00  0.6447970469120E-02
 0.8036891980783E-01 -0.9125569578084E-01  0.0000000000000E+00  0.2739484853903E-02
 0.7168516281048E-01 -0.8153517467151E-01  0.0000000000000E+00  0.1188544991650E-02
 0.6313459355510E-01 -0.7189646857760E-01  0.0000000000000E+00  0.1668607215340E-02
 0.5497444702329E-01 -0.6260029638168E-01  0.0000000000000E+00  0.4085801874361E-02
 0.4748453171070E-01 -0.5393095721827E-01  0.0000000000000E+00  0.8310706576084E-02
 0.4094564978751E-01 -0.4617585359470E-01  0.0000000000000E+00  0.1411465231755E-01
 0.3562091255934E-01 -0.3960765400532E-01  0.0000000000000E+00  0.2112100182789E-01
 0.3173343532200E-01 -0.3446279812752E-01  0.0000000000000E+00  0.2877419380392E-01
 0.2943711492741E-01 -0.3091308461043E-01  0.0000000000000E+00  0.3632931455929E-01
 0.2877962889971E-01 -0.2902965529115E-01  0.0000000000000E+00  0.4286742785126E-01
 0.2965917487116E-01 -0.2874097749790E-01  0.0000000000000E+00  0.4734565074343E-01
 0.3177992991544E-01 -0.2978973043284E-01  0.0000000000000E+00  0.4869532878365E-01
 0.3461739851991E-01 -0.3169910148646E-01  0.0000000000000E+00  0.4598525596454E-01
 0.3741588560714E-01 -0.3376877202245E-01  0.0000000000000E+00  0.3866445748937E-01
 0.3925718443725E-01 -0.3513527880550E-01  0.0000000000000E+00  0.2687446124945E-01
 0.3924502823983E-01 -0.3493773970019E-01  0.0000000000000E+00  0.1173507439756E-01
 0.3679770771787E-01 -0.3258590078690E-01  0.0000000000000E+00 -0.4630161624762E-02
 0.3192660892998E-01 -0.2802555147705E-01  0.0000000000000E+00 -0.1958134663790E-01
 0.1074389060875E+00 -0.1209732745256E+00  0.0000000000000E+00  0.7683156798907E-02
 0.9926847724381E-01 -0.1119492962804E+00  0.0000000000000E+00  0.3617601068999E-03
 0.9091596713590E-01 -0.1026827684243E+00  0.0000000000000E+00 -0.4959241854530E-02
 0.8241455301578E-01 -0.9320749605140E-01  0.0000000000000E+00 -0.8310160689339E-02
 0.7389900152276E-01 -0.8365806433936E-01  0.0000000000000E+00 -0.9704266301534E-02
 0.6556913696222E-01 -0.7423382622896E-01  0.0000000000000E+00 -0.9137197913193E-02
 0.5766530300489E-01 -0.6517539892125E-01  0.0000000000000E+00 -0.6626890357664E-02
 0.5045243828329E-01 -0.5674969106147E-01  0.0000000000000E+00 -0.2263379603914E-02
 0.4420638905274E-01 -0.4923710311066E-01  0.0000000000000E+00  0.3742135752940E-02
 0.3919722337796E-01 -0.4291570931093E-01  0.0000000000000E+00  0.1101313825200E-01
 0.3566563108544E-01 -0.3803861815044E-01  0.0000000000000E+00  0.1897194964731E-01
 0.3378944849844E-01 -0.3480168607676E-01  0.0000000000000E+00  0.2681740838930E-01
 0.3363823890181E-01 -0.3329974674838E-01  0.0000000000000E+00  0.3352494345410E-01
 0.3511534645570E-01 -0.3347103767356E-01  0.0000000000000E+00  0.3788385755188E-01
 0.3789040634305E-01 -0.3503292236450E-01  0.0000000000000E+00  0.3859569850905E-01
 0.4133419129398E-01 -0.3742011129721E-01  0.0000000000000E+00  0.3446990512596E-01
 0.4448867741667E-01 -0.3975489764031E-01  0.0000000000000E+00  0.2476340216808E-01
 0.4614981995592E-01 -0.4091563827017E-01  0.0000000000000E+00  0.9684194635238E-02
 0.4515907449817E-01 -0.3979371618031E-01  0.0000000000000E+00 -0.9113439428931E-02
 0.4087381773472E-01 -0.3572088351993E-01  0.0000000000000E+00 -0.2851061479366E-01
 0.1178742649439E+00 -0.1321741782699E+00  0.0000000000000E+00  0.3323209986577E-02
 0.1101464409671E+00 -0.1236644270556E+00  0.0000000000000E+00 -0.5114222042227E-02
 0.1022034190777E+00 -0.1148818966953E+00  0.0000000000000E+00 -0.1193763676108E-01
 0.9404513103781E-01 -0.1058238698898E+00  0.0000000000000E+00 -0.1707545276342E-01
 0.8575292303884E-01 -0.9656828897798E-01  0.0000000000000E+00 -0.2045890161779E-01
 0.7746914809279E-01 -0.8725360018468E-01  0.0000000000000E+00 -0.2200710045211E-01
 0.6938241386852E-01 -0.7806463911513E-01  0.0000000000000E+00 -0.2164554252131E-01
 0.6171834966304E-01 -0.6922413308143E-01  0.0000000000000E+00 -0.1933970876152E-01
 0.5473256726820E-01 -0.6098642872874E-01  0.0000000000000E+00 -0.1513598565720E-01
 0.4870216666572E-01 -0.5362983064772E-01  0.0000000000000E+00 -0.9206922832716E-02
 0.4391225345122E-01 -0.4744408257382E-01  0.0000000000000E+00 -0.1899163331767E-02
 0.4063382114920E-01 -0.4270947747617E-01  0.0000000000000E+00  0.6218327994132E-02
 0.3908887804496E-01 -0.3966371560570E-01  0.0000000000000E+00  0.1431051103484E-01
 0.3939795933882E-01 -0.3845207768177E-01  0.0000000000000E+00  0.2124652176301E-01
 0.4150460121824E-01 -0.3905619007331E-01  0.0000000000000E+00  0.2560248675222E-01
 0.4507275309836E-01 -0.4119821283025E-01  0.0000000000000E+00  0.2573298199715E-01
 0.4936188088539E-01 -0.4422560012241E-01  0.0000000000000E+00  0.1998008829269E-01
 0.5312093033007E-01 -0.4701223948845E-01  0.0000000000000E+00  0.7149246333828E-02
 0.5467087228507E-01 -0.4801069857479E-01  0.0000000000000E+00 -0.1260490913452E-01
 0.5239157798764E-01 -0.4567371178017E-01  0.0000000000000E+00 -0.3684226635681E-01
 0.1287120192455E+00 -0.1437953834348E+00  0.0000000000000E+00 -0.4513667465393E-03
 0.1215722431074E+00 -0.1359484361079E+00  0.0000000000000E+00 -0.9843806991793E-02
 0.1141918700887E+00 -0.1278084697090E+00  0.0000000000000E+00 -0.1801401605908E-01
 0.1065501797398E+00 -0.1193500334667E+00  0.0000000000000E+00 -0.2483498863591E-01
 0.9868779595837E-01 -0.1106081717812E+00  0.0000000000000E+00 -0.3019230282763E-01
 0.9069605925503E-01 -0.1016678468396E+00  0.0000000000000E+00 -0.3396166941283E-01
 0.8270936087602E-01 -0.9265654830827E-01  0.0000000000000E+00 -0.3601194046643E-01
 0.7490117675600E-01 -0.8374073604602E-01  0.0000000000000E+00 -0.3622273592270E-01
 0.6748251527460E-01 -0.7512477720575E-01  0.0000000000000E+00 -0.3451173320349E-01
 0.6070075517951E-01 -0.6705036181245E-01  0.0000000000000E+00 -0.3087025712666E-01
 0.5483650909901E-01 -0.5979408034716E-01  0.0000000000000E+00 -0.2540756186764E-01
 0.5019563346974E-01 -0.5366037944412E-01  0.0000000000000E+00 -0.1840481243479E-01
 0.4709250577035E-01 -0.4896620806222E-01  0.0000000000000E+00 -0.1037951308692E-01
 0.4581886498514E-01 -0.4601204141429E-01  0.0000000000000E+00 -0.2159708431505E-02
 0.4658938267857E-01 -0.4503123525752E-01  0.0000000000000E+00  0.5036546306207E-02
 0.4944983945854E-01 -0.4610528637261E-01  0.0000000000000E+00  0.9530596261708E-02
 0.5412654776037E-01 -0.4902660933106E-01  0.0000000000000E+00  0.9161526035838E-02
 0.5978729930797E-01 -0.5308625162662E-01  0.0000000000000E+00  0.1421036454890E-02
 0.6472950719967E-01 -0.5679745594486E-01  0.0000000000000E+00 -0.1591456651735E-01
 0.6642934844499E-01 -0.5785591640593E-01  0.0000000000000E+00 -0.4303413915387E-01
 0.1398894936031E+00 -0.1557723707992E+00  0.0000000000000E+00 -0.3532667658355E-02
 0.1334786787528E+00 -0.1487318023861E+00  0.0000000000000E+00 -0.1371781148854E-01
 0.1268130660116E+00 -0.1413910085963E+00  0.0000000000000E+00 -0.2304769459709E-01
 0.1198632160552E+00 -0.1337144977656E+00  0.0000000000000E+00 -0.3137485731475E-01
 0.1126423030983E+00 -0.1257086609243E+00  0.0000000000000E+00 -0.3857050544116E-01
 0.1052018945823E+00 -0.1174172782470E+00  0.0000000000000E+00 -0.4449926971056E-01
 0.9762859737032E-01 -0.1089181443498E+00  0.0000000000000E+00 -0.4901255610872E-01
 0.9004311981510E-01 -0.1003222078086E+00  0.0000000000000E+00 -0.5195336149147E-01
 0.8260169968252E-01 -0.9177513256225E-01  0.0000000000000E+00 -0.5316935492978E-01
 0.7549919825281E-01 -0.8346057156466E-01  0.0000000000000E+00 -0.5253364216153E-01
 0.6897283728135E-01 -0.7560414538853E-01  0.0000000000000E+00 -0.4997446177039E-01
 0.6330519611134E-01 -0.6847678715305E-01  0.0000000000000E+00 -0.4551651522049E-01
 0.5882440476969E-01 -0.6239548503568E-01  0.0000000000000E+00 -0.3933807200638E-01
 0.5589810324438E-01 -0.5771819941676E-01  0.0000000000000E+00 -0.3184971878182E-01
 0.5491494205170E-01 -0.5482723081630E-01  0.0000000000000E+00 -0.2380288721569E-01
 0.5624169523209E-01 -0.5409023401003E-01  0.0000000000000E+00 -0.1643898179937E-01
 0.6013071122640E-01 -0.5577709881147E-01  0.0000000000000E+00 -0.1169169253345E-01
 0.6652486857568E-01 -0.5988676954330E-01  0.0000000000000E+00 -0.1244382086710E-01
 0.7460650439008E-01 -0.6577236075857E-01  0.0000000000000E+00 -0.2277702769205E-01
 0.8188531571028E-01 -0.7138347659534E-01  0.0000000000000E+00 -0.4731212480057E-01
 0.1513329455135E+00 -0.1680282929710E+00  0.0000000000000E+00 -0.5818549245296E-02
 0.1457749682592E+00 -0.1619207491838E+00  0.0000000000000E+00 -0.1662788948691E-01
 0.1399623887037E+00 -0.1555212422043E+00  0.0000000000000E+00 -0.2690060264774E-01
 0.1338663899282E+00 -0.1487944506599E+00  0.0000000000000E+00 -0.3649270335619E-01
 0.1274855313196E+00 -0.1417317873407E+00  0.0000000000000E+00 -0.4528205695450E-01
 0.1208454681008E+00 -0.1343507212281E+00  0.0000000000000E+00 -0.5314524015650E-01
 0.1139980229417E+00 -0.1266936254409E+00  0.0000000000000E+00 -0.5994674655695E-01
 0.1070215499234E+00 -0.1188279756844E+00  0.0000000000000E+00 -0.6553611570564E-01
 0.1000231858909E+00 -0.1108484355300E+00  0.0000000000000E+00 -0.6975065974796E-01
 0.9314307126509E-01 -0.1028808782370E+00  0.0000000000000E+00 -0.7242316651574E-01
 0.8656045108507E-01 -0.9508822975102E-01  0.0000000000000E+00 -0.7339536884237E-01
 0.8050150247368E-01 -0.8767795173060E-01  0.0000000000000E+00 -0.7253936883395E-01
 0.7524863695646E-01 -0.8091087814350E-01  0.0000000000000E+00 -0.6979095224440E-01
 0.7115073943028E-01 -0.7511082773554E-01  0.0000000000000E+00 -0.6520138048949E-01
 0.6863306844823E-01 -0.7067366911103E-01  0.0000000000000E+00 -0.5901883682065E-01
 0.6820349447097E-01 -0.6807262937549E-01  0.0000000000000E+00 -0.5181945150784E-01
 0.7044691235461E-01 -0.6785179799856E-01  0.0000000000000E+00 -0.4472600218664E-01
 0.7598084498909E-01 -0.7058518417883E-01  0.0000000000000E+00 -0.3979480105861E-01
 0.8530644344232E-01 -0.7673467166468E-01  0.0000000000000E+00 -0.4076518010012E-01
 0.9797398601845E-01 -0.8604293396837E-01  0.0000000000000E+00 -0.5480923272414E-01
 0.1629615085950E+00 -0.1804781204889E+00  0.0000000000000E+00 -0.7219525781876E-02
 0.1583542353667E+00 -0.1754038270375E+00  0.0000000000000E+00 -0.1847187181400E-01
 0.1535073355627E+00 -0.1700612152569E+00  0.0000000000000E+00 -0.2944324484594E-01
 0.1483985926738E+00 -0.1644218624073E+00  0.0000000000000E+00 -0.4000499622430E-01
 0.1430226467553E+00 -0.1584736288919E+00  0.0000000000000E+00 -0.5005087785100E-01
 0.1373927423981E+00 -0.1522220399839E+00  0.0000000000000E+00 -0.5947874495687E-01
 0.1315412610355E+00 -0.1456905342596E+00  0.0000000000000E+00 -0.6817978486374E-01
 0.1255207674214E+00 -0.1389212426438E+00  0.0000000000000E+00 -0.7603289349626E-01
 0.1194063685131E+00 -0.1319770452431E+00  0.0000000000000E+00 -0.8290254509598E-01
 0.1132998160934E+00 -0.1249452924524E+00  0.0000000000000E+00 -0.8863936802778E-01
 0.1073357269938E+00 -0.1179435132377E+00  0.0000000000000E+00 -0.9308345504084E-01
 0.1016904279834E+00 -0.1111275453992E+00  0.0000000000000E+00 -0.9607127916247E-01
 0.9659423588956E-01 -0.1047027829879E+00  0.0000000000000E+00 -0.9744816029498E-01
 0.9234852880441E-01 -0.9893969201464E-01  0.0000000000000E+00 -0.9708989687146E-01
 0.8934992519623E-01 -0.9419554155528E-01  0.0000000000000E+00 -0.9494016733454E-01
 0.8812582851034E-01 -0.9094578487624E-01  0.0000000000000E+00 -0.9107629359251E-01
 0.8938920684212E-01 -0.8983149846420E-01  0.0000000000000E+00 -0.8582903276582E-01
 0.9413207546255E-01 -0.9173637954151E-01  0.0000000000000E+00 -0.8001612529441E-01
 0.1037941420917E+00 -0.9792435194276E-01  0.0000000000000E+00 -0.7544012755707E-01
 0.1207996018757E+00 -0.1103705038556E+00  0.0000000000000E+00 -0.7637674214227E-01
 0.1746905505841E+00 -0.1930327948820E+00  0.0000000000000E+00 -0.7672567143134E-02
 0.1711022754628E+00 -0.1890616364898E+00  0.0000000000000E+00 -0.1917643172690E-01
 0.1673010198914E+00 -0.1848578170655E+00  0.0000000000000E+00 -0.3058615464159E-01
 0.1632739399496E+00 -0.1804030773385E+00  0.0000000000000E+00 -0.4178970053028E-01
 0.1590186008463E+00 -0.1756890907912E+00  0.0000000000000E+00 -0.5269550581700E-01
 0.1545455403817E+00 -0.1707197477149E+00  0.0000000000000E+00 -0.6321890378847E-01
 0.1498797053937E+00 -0.1655123428188E+00  0.0000000000000E+00 -0.7327294257161E-01
 0.1450620392088E+00 -0.1600989104547E+00  0.0000000000000E+00 -0.8276243942049E-01
 0.1401519657494E+00 -0.1545284196907E+00  0.0000000000000E+00 -0.9158016437931E-01
 0.1352312939147E+00 -0.1488703162843E+00  0.0000000000000E+00 -0.9960435675090E-01
 0.1304100655832E+00 -0.1432198887754E+00  0.0000000000000E+00 -0.1066970990483E+00
 0.1258350546440E+00 -0.1377060990156E+00  0.0000000000000E+00 -0.1127033444809E+00
 0.1217020236445E+00 -0.1325028745666E+00  0.0000000000000E+00 -0.1174506163899E+00
 0.1182735833989E+00 -0.1278455191618E+00  0.0000000000000E+00 -0.1207495758359E+00
 0.1159059052332E+00 -0.1240551237878E+00  0.0000000000000E+00 -0.1223957587815E+00
 0.1150902853919E+00 -0.1215762786019E+00  0.0000000000000E+00 -0.1221725902949E+00
 0.1165218670308E+00 -0.1210385785972E+00  0.0000000000000E+00 -0.1198547598705E+00
 0.1212219150526E+00 -0.1233649331269E+00  0.0000000000000E+00 -0.1152037957750E+00
 0.1307884561522E+00 -0.1299846240548E+00  0.0000000000000E+00 -0.1079295007804E+00
 0.1480317400213E+00 -0.1433661120972E+00  0.0000000000000E+00 -0.9719745658050E-01
 0.1864344680953E+00 -0.2056022097308E+00  0.0000000000000E+00 -0.7144668962384E-02
 0.1839038818964E+00 -0.2027735887420E+00  0.0000000000000E+00 -0.1870601153807E-01
 0.1811935405764E+00 -0.1997547020617E+00  0.0000000000000E+00 -0.3029276708829E-01
 0.1783001819531E+00 -0.1965379391428E+00  0.0000000000000E+00 -0.4180480808061E-01
 0.1752270231937E+00 -0.1931218208681E+00  0.0000000000000E+00 -0.5315855796430E-01
 0.1719864023749E+00 -0.1895134508758E+00  0.0000000000000E+00 -0.6427653144824E-01
 0.1686015634128E+00 -0.1857301186881E+00  0.0000000000000E+00 -0.7507933831312E-01
 0.1651084177602E+00 -0.1818008738031E+00  0.0000000000000E+00 -0.8547949625749E-01
 0.1615578497705E+00 -0.1777686197953E+00  0.0000000000000E+00 -0.9537622915386E-01
 0.1580190012276E+00 -0.1736931431010E+00  0.0000000000000E+00 -0.1046504406966E+00
 0.1545839638248E+00 -0.1696554792523E+00  0.0000000000000E+00 -0.1131590517130E+00
 0.1513744149700E+00 -0.1657641166212E+00  0.0000000000000E+00 -0.1207277633473E+00
 0.1485509642642E+00 -0.1621637540709E+00  0.0000000000000E+00 -0.1271409436945E+00
 0.1463263871469E+00 -0.1590477101443E+00  0.0000000000000E+00 -0.1321265261372E+00
 0.1449846078122E+00 -0.1566757299142E+00  0.0000000000000E+00 -0.1353320853223E+00
 0.1449084847956E+00 -0.1554000447872E+00  0.0000000000000E+00 -0.1362845501065E+00
 0.1466213190737E+00 -0.1557044668000E+00  0.0000000000000E+00 -0.1343171448003E+00
 0.1508497502577E+00 -0.1582641334874E+00  0.0000000000000E+00 -0.1284261139811E+00
 0.1586157279311E+00 -0.1640371253920E+00  0.0000000000000E+00 -0.1169457419292E+00
 0.1712187647200E+00 -0.1743264110115E+00  0.0000000000000E+00 -0.9677740026162E-01
 0.1981091265480E+00 -0.2180976671423E+00  0.0000000000000E+00 -0.5630654124883E-02
 0.1966472647710E+00 -0.2164224162896E+00  0.0000000000000E+00 -0.1706126599944E-01
 0.1950401655715E+00 -0.2146005976193E+00  0.0000000000000E+00 -0.2857596819849E-01
 0.1932927927740E+00 -0.2126340243313E+00  0.0000000000000E+00 -0.4008050092683E-01
 0.1914138669230E+00 -0.2105280766074E+00  0.0000000000000E+00 -0.5149246550210E-01
 0.1894182002890E+00 -0.2082939184006E+00  0.0000000000000E+00 -0.6273257044951E-01
 0.1873283658629E+00 -0.2059500561257E+00  0.0000000000000E+00 -0.7371725918343E-01
 0.1851761992166E+00 -0.2035237317841E+00  0.0000000000000E+00 -0.8435218789549E-01
 0.1830044906070E+00 -0.2010525018930E+00  0.0000000000000E+00 -0.9452585788939E-01
 0.1808691274643E+00 -0.1985862566722E+00  0.0000000000000E+00 -0.1041026178007E+00
 0.1788418968069E+00 -0.1961898848856E+00  0.0000000000000E+00 -0.1129141236905E+00
 0.1770141370289E+00 -0.1939467734857E+00  0.0000000000000E+00 -0.1207480901493E+00
 0.1755014134027E+00 -0.1919633257850E+00  0.0000000000000E+00 -0.1273326779492E+00
 0.1744493319679E+00 -0.1903746477846E+00  0.0000000000000E+00 -0.1323139692818E+00
 0.1740403891786E+00 -0.1893513966713E+00  0.0000000000000E+00 -0.1352223647294E+00
 0.1745010535316E+00 -0.1891072645560E+00  0.0000000000000E+00 -0.1354207539129E+00
 0.1761061467349E+00 -0.1899049206930E+00  0.0000000000000E+00 -0.1320220631768E+00
 0.1791713695419E+00 -0.1920533672440E+00  0.0000000000000E+00 -0.1237542520415E+00
 0.1839984583609E+00 -0.1958709986592E+00  0.0000000000000E+00 -0.1087477936132E+00
 0.1907261047209E+00 -0.2015507845621E+00  0.0000000000000E+00 -0.8436267189525E-01
 0.2096336595756E+00 -0.2304336788191E+00  0.0000000000000E+00 -0.3149063358119E-02
 0.2092264692427E+00 -0.2298966033360E+00  0.0000000000000E+00 -0.1427270508814E-01
 0.2087050974954E+00 -0.2292530460815E+00  0.0000000000000E+00 -0.2548619638925E-01
 0.2080805327078E+00 -0.2285120751435E+00  0.0000000000000E+00 -0.3669586045810E-01
 0.2073651859755E+00 -0.2276841605489E+00  0.0000000000000E+00 -0.4781539045376E-01
 0.2065747536946E+00 -0.2267829748328E+00  0.0000000000000E+00 -0.5875802182538E-01
 0.2057294770285E+00 -0.2258266053820E+00  0.0000000000000E+00 -0.6942958079398E-01
 0.2048550716341E+00 -0.2248384490168E+00  0.0000000000000E+00 -0.7972190159391E-01
 0.2039835044928E+00 -0.2238479669232E+00  0.0000000000000E+00 -0.8950601320704E-01
 0.2031537042585E+00 -0.2228913917649E+00  0.0000000000000E+00 -0.9862443121921E-01
 0.2024121999293E+00 -0.2220123922626E+00  0.0000000000000E+00 -0.1068817971140E+00
 0.2018135694893E+00 -0.2212625980941E+00  0.0000000000000E+00 -0.1140329456858E+00
 0.2014204050468E+00 -0.2207017333414E+00  0.0000000000000E+00 -0.1197672265264E+00
 0.2013021858674E+00 -0.2203968312801E+00  0.0000000000000E+00 -0.1236875463516E+00
 0.2015318409665E+00 -0.2204194738328E+00  0.0000000000000E+00 -0.1252821752875E+00
 0.2021775609947E+00 -0.2208389383108E+00  0.0000000000000E+00 -0.1238871589598E+00
 0.2032850353631E+00 -0.2217070243667E+00  0.0000000000000E+00 -0.1186382117741E+00
 0.2048402924385E+00 -0.2230260657828E+00  0.0000000000000E+00 -0.1084175005719E+00
 0.2067023377630E+00 -0.2246868328467E+00  0.0000000000000E+00 -0.9182958012208E-01
 0.2085179541746E+00 -0.2263814017931E+00  0.0000000000000E+00 -0.6724125552202E-01
 0.2209319260278E+00 -0.2425294795316E+00  0.0000000000000E+00  0.2610961063914E-03
 0.2215430867035E+00 -0.2430921661203E+00  0.0000000000000E+00 -0.1039589383184E-01
 0.2220636921025E+00 -0.2435807154246E+00  0.0000000000000E+00 -0.2110377683272E-01
 0.2225081972161E+00 -0.2440088517484E+00  0.0000000000000E+00 -0.3176569828326E-01
 0.2228900999667E+00 -0.2443894777114E+00  0.0000000000000E+00 -0.4228845607543E-01
 0.2232233111135E+00 -0.2447360286012E+00  0.0000000000000E+00 -0.5257527834258E-01
 0.2235228992312E+00 -0.2450632194581E+00  0.0000000000000E+00 -0.6251939494307E-01
 0.2238053318407E+00 -0.2453873056938E+00  0.0000000000000E+00 -0.7199789580585E-01
 0.2240882741338E+00 -0.2457259277302E+00  0.0000000000000E+00 -0.8086538054964E-01
 0.2243899203508E+00 -0.2460975232661E+00  0.0000000000000E+00 -0.8894694004482E-01
 0.2247277261114E+00 -0.2465201907305E+00  0.0000000000000E+00 -0.9603002313550E-01
 0.2251162769500E+00 -0.2470097638360E+00  0.0000000000000E+00 -0.1018547586882E+00
 0.2255638414461E+00 -0.2475766854052E+00  0.0000000000000E+00 -0.1061023691642E+00
 0.2260668790120E+00 -0.2482210131183E+00  0.0000000000000E+00 -0.1083815282196E+00
 0.2266013564591E+00 -0.2489245048156E+00  0.0000000000000E+00 -0.1082131164347E+00
 0.2271091721760E+00 -0.2496381922829E+00  0.0000000000000E+00 -0.1050153377260E+00
 0.2274774275849E+00 -0.2502632666407E+00  0.0000000000000E+00 -0.9809470924119E-01
 0.2275093456659E+00 -0.2506233880526E+00  0.0000000000000E+00 -0.8665620797626E-01
 0.2268907530869E+00 -0.2504311101533E+00  0.0000000000000E+00 -0.6985121862791E-01
 0.2251469885986E+00 -0.2492507586180E+00  0.0000000000000E+00 -0.4687770268409E-01
 0.2319336884352E+00 -0.2543102789429E+00  0.0000000000000E+00  0.4543095835445E-02
 0.2335075177603E+00 -0.2559140043316E+00  0.0000000000000E+00 -0.5507600776719E-02
 0.2350039078095E+00 -0.2574649838587E+00  0.0000000000000E+00 -0.1553344611951E-01
 0.2364382163535E+00 -0.2589789217225E+00  0.0000000000000E+00 -0.2543258431078E-01
 0.2378221939809E+00 -0.2604681865363E+00  0.0000000000000E+00 -0.3510407979462E-01
 0.2391650207508E+00 -0.2619428719489E+00  0.0000000000000E+00 -0.4444130350763E-01
 0.2404735932412E+00 -0.2634111065867E+00  0.0000000000000E+00 -0.5332635295258E-01
 0.2417521439573E+00 -0.2648787263017E+00  0.0000000000000E+00 -0.6162490384325E-01
 0.2430012322014E+00 -0.2663483480743E+00  0.0000000000000E+00 -0.6918115013420E-01
 0.2442160469709E+00 -0.2678177946461E+00  0.0000000000000E+00 -0.7581260651089E-01
 0.2453838742923E+00 -0.2692777336033E+00  0.0000000000000E+00 -0.8130465766956E-01
 0.2464804885027E+00 -0.2707083060364E+00  0.0000000000000E+00 -0.8540489080551E-01
 0.2474651299870E+00 -0.2720744259379E+00  0.0000000000000E+00 -0.8781750252731E-01
 0.2482736453762E+00 -0.2733193430960E+00  0.0000000000000E+00 -0.8819852513482E-01
 0.2488093507463E+00 -0.2743560265281E+00  0.0000000000000E+00 -0.8615342019611E-01
 0.2489313916422E+00 -0.2750560779746E+00  0.0000000000000E+00 -0.8123992587801E-01
 0.2484412813555E+00 -0.2752365785116E+00  0.0000000000000E+00 -0.7298096645731E-01
 0.2470704289553E+00 -0.2746472039895E+00  0.0000000000000E+00 -0.6089332252807E-01
 0.2444735645353E+00 -0.2729624185931E+00  0.0000000000000E+00 -0.4453575830039E-01
 0.2402426118143E+00 -0.2697882099297E+00  0.0000000000000E+00 -0.2359421081870E-01
 0.2425750995702E+00 -0.2657078422931E+00  0.0000000000000E+00  0.9625575173238E-02
 0.2450391974825E+00 -0.2682762949671E+00  0.0000000000000E+00  0.2990779275840E-03
 0.2474264398544E+00 -0.2708003150010E+00  0.0000000000000E+00 -0.8897431730327E-02
 0.2497505526465E+00 -0.2732948522226E+00  0.0000000000000E+00 -0.1785736927903E-01
 0.2520187805210E+00 -0.2757688195762E+00  0.0000000000000E+00 -0.2647304167609E-01
 0.2542328458689E+00 -0.2782260248332E+00  0.0000000000000E+00 -0.3463017708124E-01
 0.2563888977459E+00 -0.2806651560515E+00  0.0000000000000E+00 -0.4220354493867E-01
 0.2584767158633E+00 -0.2830790477818E+00  0.0000000000000E+00 -0.4905324518076E-01
 0.2604782237580E+00 -0.2854532861526E+00  0.0000000000000E+00 -0.5502149561765E-01
 0.2623652858167E+00 -0.2877641297184E+00  0.0000000000000E+00 -0.5992989340503E-01
 0.2640967063575E+00 -0.2899756687420E+00  0.0000000000000E+00 -0.6357727615667E-01
 0.2656143184729E+00 -0.2920361136300E+00  0.0000000000000E+00 -0.6573849466027E-01
 0.2668380565414E+00 -0.2938731036894E+00  0.0000000000000E+00 -0.6616466025782E-01
 0.2676599851531E+00 -0.2953879908037E+00  0.0000000000000E+00 -0.6458576373656E-01
 0.2679374768681E+00 -0.2964492405172E+00  0.0000000000000E+00 -0.6071695282670E-01
 0.2674862119866E+00 -0.2968855090390E+00  0.0000000000000E+00 -0.5427003364388E-01
 0.2660744911926E+00 -0.2964797157224E+00  0.0000000000000E+00 -0.4497131682931E-01
 0.2634212902635E+00 -0.2949663676134E+00  0.0000000000000E+00 -0.3258483879375E-01
 0.2592019316305E+00 -0.2920354585845E+00  0.0000000000000E+00 -0.1693662781869E-01
 0.2530704410277E+00 -0.2873500305029E+00  0.0000000000000E+00  0.2085225977509E-02
 0.2527982939618E+00 -0.2766601987830E+00  0.0000000000000E+00  0.1542801318717E-01
 0.2560658797554E+00 -0.2801020626973E+00  0.0000000000000E+00  0.6923522417384E-02
 0.2592436838036E+00 -0.2834934928514E+00  0.0000000000000E+00 -0.1324004853714E-02
 0.2623410974552E+00 -0.2868459012378E+00  0.0000000000000E+00 -0.9204812560095E-02
 0.2653584323615E+00 -0.2901621167843E+00  0.0000000000000E+00 -0.1660691065599E-01
 0.2682877041994E+00 -0.2934371662069E+00  0.0000000000000E+00 -0.2341215582388E-01
 0.2711124324820E+00 -0.2966581017805E+00  0.0000000000000E+00 -0.2949330243364E-01
 0.2738067049839E+00 -0.2998031224148E+00  0.0000000000000E+00 -0.3471196297014E-01
 0.2763336131937E+00 -0.3028400869608E+00  0.0000000000000E+00 -0.3891745094329E-01
 0.2786430974922E+00 -0.3057244574913E+00  0.0000000000000E+00 -0.4194660238453E-01
 0.2806692219245E+00 -0.3083966900224E+00  0.0000000000000E+00 -0.4362480190057E-01
 0.2823269141022E+00 -0.3107791023617E+00  0.0000000000000E+00 -0.4376857597345E-01
 0.2835082667475E+00 -0.3127723019417E+00  0.0000000000000E+00 -0.4219024371543E-01
 0.2840786218663E+00 -0.3142513680082E+00  0.0000000000000E+00 -0.3870518624835E-01
 0.2838728655431E+00 -0.3150621708127E+00  0.0000000000000E+00 -0.3314219738536E-01
 0.2826926286131E+00 -0.3150184681694E+00  0.0000000000000E+00 -0.2535688077448E-01
 0.2803052825028E+00 -0.3139006315940E+00  0.0000000000000E+00 -0.1524686927431E-01
 0.2764454790300E+00 -0.3114567837006E+00  0.0000000000000E+00 -0.2765671960011E-02
 0.2708191591948E+00 -0.3074064347066E+00  0.0000000000000E+00  0.1207226825174E-01
 0.2630996859799E+00 -0.3014409833260E+00  0.0000000000000E+00  0.2920887495373E-01
 0.2625529295811E+00 -0.2871131675548E+00  0.0000000000000E+00  0.2186192409913E-01
 0.2665260975317E+00 -0.2913251917985E+00  0.0000000000000E+00  0.1425844392027E-01
 0.2703822523099E+00 -0.2954656196828E+00  0.0000000000000E+00  0.7053532366593E-02
 0.2741241784371E+00 -0.2995398891385E+00  0.0000000000000E+00  0.3578581531749E-03
 0.2777432591732E+00 -0.3035425468395E+00  0.0000000000000E+00 -0.5715942564378E-02
 0.2812201359163E+00 -0.3074579072457E+00  0.0000000000000E+00 -0.1105072357491E-01
 0.2845245542144E+00 -0.3112599201998E+00  0.0000000000000E+00 -0.1552335166202E-01
 0.2876145901495E+00 -0.3149114348197E+00  0.0000000000000E+00 -0.1900433932124E-01
 0.2904353914871E+00 -0.3183629899328E+00  0.0000000000000E+00 -0.2135862863574E-01
 0.2929175439286E+00 -0.3215512363283E+00  0.0000000000000E+00 -0.2244763709343E-01
 0.2949751779517E+00 -0.3243971004736E+00  0.0000000000000E+00 -0.2213276040934E-01
 0.2965039635387E+00 -0.3268038278955E+00  0.0000000000000E+00 -0.2028058642475E-01
 0.2973791958786E+00 -0.3286550959503E+00  0.0000000000000E+00 -0.1677007287728E-01
 0.2974542470965E+00 -0.3298134537931E+00  0.0000000000000E+00 -0.1150182424702E-01
 0.2965597164714E+00 -0.3301194073459E+00  0.0000000000000E+00 -0.4409287909744E-02
 0.2945035827395E+00 -0.3293914543766E+00  0.0000000000000E+00  0.4528889614940E-02
 0.2910724179278E+00 -0.3274271791229E+00  0.0000000000000E+00  0.1527687895844E-01
 0.2860331194784E+00 -0.3240049840116E+00  0.0000000000000E+00  0.2773231334343E-01
 0.2791326126163E+00 -0.3188846393105E+00  0.0000000000000E+00  0.4172115164626E-01
 0.2700936758526E+00 -0.3118033272068E+00  0.0000000000000E+00  0.5698586362528E-01
 0.2717957671522E+00 -0.2970200256532E+00  0.0000000000000E+00  0.2883203286959E-01
 0.2763683799580E+00 -0.3018899792115E+00  0.0000000000000E+00  0.2218948473341E-01
 0.2807820144954E+00 -0.3066515374083E+00  0.0000000000000E+00  0.1609581955139E-01
 0.2850312118735E+00 -0.3113023384508E+00  0.0000000000000E+00  0.1065941852840E-01
 0.2890969442984E+00 -0.3158269417012E+00  0.0000000000000E+00  0.5989042682209E-02
 0.2929473633668E+00 -0.3201975706696E+00  0.0000000000000E+00  0.2195315255871E-02
 0.2965379402144E+00 -0.3243742595955E+00  0.0000000000000E+00 -0.6091163177846E-03
 0.2998111350475E+00 -0.3283045348223E+00  0.0000000000000E+00 -0.2310708411537E-02
 0.3026957525993E+00 -0.3319227824260E+00  0.0000000000000E+00 -0.2797407033469E-02
 0.3051061537454E+00 -0.3351494669161E+00  0.0000000000000E+00 -0.1962317220544E-02
 0.3069415100979E+00 -0.3378903809175E+00  0.0000000000000E+00  0.2912700953761E-03
 0.3080853096159E+00 -0.3400361257732E+00  0.0000000000000E+00  0.4043414388452E-02
 0.3084053388914E+00 -0.3414620407996E+00  0.0000000000000E+00  0.9349607241140E-02
 0.3077543593208E+00 -0.3420287950873E+00  0.0000000000000E+00  0.1623152923251E-01
 0.3059716207704E+00 -0.3415837942725E+00  0.0000000000000E+00  0.2466684374590E-01
 0.3028851652845E+00 -0.3399633881343E+00  0.0000000000000E+00  0.3457864206583E-01
 0.2983145496456E+00 -0.3369955623409E+00  0.0000000000000E+00  0.4582525631379E-01
 0.2920731430213E+00 -0.3325023932355E+00  0.0000000000000E+00  0.5819065369441E-01
 0.2839695848106E+00 -0.3263015115205E+00  0.0000000000000E+00  0.7137302176813E-01
 0.2738105550895E+00 -0.3182082425473E+00  0.0000000000000E+00  0.8496869165628E-01
 0.2804903044357E+00 -0.3063411920276E+00  0.0000000000000E+00  0.3623900369246E-01
 0.2855503181154E+00 -0.3117503065985E+00  0.0000000000000E+00  0.3059841053808E-01
 0.2903947748340E+00 -0.3169986830629E+00  0.0000000000000E+00  0.2566119939321E-01
 0.2950089124800E+00 -0.3220749019238E+00  0.0000000000000E+00  0.2152913917694E-01
 0.2993622644077E+00 -0.3269522818947E+00  0.0000000000000E+00  0.1830184684999E-01
 0.3034098278132E+00 -0.3315900371166E+00  0.0000000000000E+00  0.1607757036747E-01
 0.3070927866253E+00 -0.3359339862025E+00  0.0000000000000E+00  0.1495223129895E-01
 0.3103388640351E+00 -0.3399168855098E+00  0.0000000000000E+00  0.1501705097637E-01
 0.3130624904148E+00 -0.3434585689260E+00  0.0000000000000E+00  0.1635499493998E-01
 0.3151650098293E+00 -0.3464661122302E+00  0.0000000000000E+00  0.1903617389069E-01
 0.3165351589490E+00 -0.3488342495757E+00  0.0000000000000E+00  0.2311228992012E-01
 0.3170500496061E+00 -0.3504462671363E+00  0.0000000000000E+00  0.2861022159036E-01
 0.3165768653032E+00 -0.3511755808318E+00  0.0000000000000E+00  0.3552488984775E-01
 0.3149754258545E+00 -0.3508881558960E+00  0.0000000000000E+00  0.4381160920069E-01
 0.3121016609178E+00 -0.3494458258316E+00  0.0000000000000E+00  0.5337814290649E-01
 0.3078118545629E+00 -0.3467104045750E+00  0.0000000000000E+00  0.6407654788969E-01
 0.3019672924091E+00 -0.3425482767540E+00  0.0000000000000E+00  0.7569451262047E-01
 0.2944389263303E+00 -0.3368350309539E+00  0.0000000000000E+00  0.8794527633693E-01
 0.2851121162424E+00 -0.3294601223924E+00  0.0000000000000E+00  0.1004555817147E+00
 0.2738916363427E+00 -0.3203317775225E+00  0.0000000000000E+00  0.1127545236999E+00
 0.2886063649829E+00 -0.3150438189985E+00  0.0000000000000E+00  0.4398167892697E-01
 0.2940376833487E+00 -0.3208687651789E+00  0.0000000000000E+00  0.3936634240983E-01
 0.2991829759865E+00 -0.3264658187980E+00  0.0000000000000E+00  0.3560980819844E-01
 0.3040175385939E+00 -0.3318136538176E+00  0.0000000000000E+00  0.3280158245769E-01
 0.3084987142393E+00 -0.3368733772396E+00  0.0000000000000E+00  0.3102623788390E-01
 0.3125679776200E+00 -0.3415905938834E+00  0.0000000000000E+00  0.3036373437705E-01
 0.3161525475220E+00 -0.3458969787077E+00  0.0000000000000E+00  0.3088741266585E-01
 0.3191665921050E+00 -0.3497114281507E+00  0.0000000000000E+00  0.3266055922714E-01
 0.3215122770568E+00 -0.3529410399148E+00  0.0000000000000E+00  0.3573208158449E-01
 0.3230809385576E+00 -0.3554821990421E+00  0.0000000000000E+00  0.4013162847442E-01
 0.3237546470273E+00 -0.3572220303507E+00  0.0000000000000E+00  0.4586440392598E-01
 0.3234083958941E+00 -0.3580404458288E+00  0.0000000000000E+00  0.5290591033751E-01
 0.3219131075566E+00 -0.3578129756382E+00  0.0000000000000E+00  0.6119686191311E-01
 0.3191395949108E+00 -0.3564145217751E+00  0.0000000000000E+00  0.7063847488196E-01
 0.3149635571201E+00 -0.3537241184907E+00  0.0000000000000E+00  0.8108818461404E-01
 0.3092716349530E+00 -0.3496307390136E+00  0.0000000000000E+00  0.9235547163604E-01
 0.3019685346880E+00 -0.3440401697991E+00  0.0000000000000E+00  0.1041968589536E+00
 0.2929850952129E+00 -0.3368829245334E+00  0.0000000000000E+00  0.1163086095895E+00
 0.2822866383531E+00 -0.3281226203679E+00  0.0000000000000E+00  0.1283164916747E+00
 0.2698797345490E+00 -0.3177632579811E+00  0.0000000000000E+00  0.1397636778684E+00
 0.2961194709226E+00 -0.3231011575048E+00  0.0000000000000E+00  0.5195897566870E-01
 0.3018034361504E+00 -0.3292156743956E+00  0.0000000000000E+00  0.4837685580090E-01
 0.3071184283835E+00 -0.3350217861804E+00  0.0000000000000E+00  0.4580751551871E-01
 0.3120292506398E+00 -0.3404874837427E+00  0.0000000000000E+00  0.4432099711520E-01
 0.3164803210084E+00 -0.3455607233934E+00  0.0000000000000E+00  0.4398053446943E-01
 0.3203993627350E+00 -0.3501730726760E+00  0.0000000000000E+00  0.4484213482620E-01
 0.3237001869044E+00 -0.3542424165518E+00  0.0000000000000E+00  0.4695127637938E-01
 0.3262848114218E+00 -0.3576749840793E+00  0.0000000000000E+00  0.5033841968495E-01
 0.3280453118978E+00 -0.3603670939784E+00  0.0000000000000E+00  0.5501419102102E-01
 0.3288657639646E+00 -0.3622069740556E+00  0.0000000000000E+00  0.6096473021120E-01
 0.3286245647021E+00 -0.3630769355960E+00  0.0000000000000E+00  0.6814756737940E-01
 0.3271973543246E+00 -0.3628561168271E+00  0.0000000000000E+00  0.7648836502531E-01
 0.3244607083401E+00 -0.3614239579524E+00  0.0000000000000E+00  0.8587885209972E-01
 0.3202967484375E+00 -0.3586645454542E+00  0.0000000000000E+00  0.9617622375831E-01
 0.3145988535177E+00 -0.3544719902616E+00  0.0000000000000E+00  0.1072041261214E+00
 0.3072787866866E+00 -0.3487571225643E+00  0.0000000000000E+00  0.1187550301217E+00
 0.2982757934400E+00 -0.3414560312216E+00  0.0000000000000E+00  0.1305932269798E+00
 0.2875684627453E+00 -0.3325412449257E+00  0.0000000000000E+00  0.1424565224182E+00
 0.2751892329975E+00 -0.3220360512515E+00  0.0000000000000E+00  0.1540519377241E+00
 0.2612390851029E+00 -0.3100296693048E+00  0.0000000000000E+00  0.1650399810586E+00
 0.3030100033125E+00 -0.3304917008197E+00  0.0000000000000E+00  0.6007170367298E-01
 0.3088267055422E+00 -0.3367680726085E+00  0.0000000000000E+00  0.5751924769770E-01
 0.3141811949952E+00 -0.3426444095791E+00  0.0000000000000E+00  0.5612979023034E-01
 0.3190267124275E+00 -0.3480767142779E+00  0.0000000000000E+00  0.5594523043700E-01
 0.3232937437867E+00 -0.3529986089136E+00  0.0000000000000E+00  0.5700128777087E-01
 0.3268960820835E+00 -0.3573272902226E+00  0.0000000000000E+00  0.5932500844941E-01
 0.3297349274823E+00 -0.3609674968478E+00  0.0000000000000E+00  0.6292945022287E-01
 0.3317018221816E+00 -0.3638143116538E+00  0.0000000000000E+00  0.6780793066232E-01
 0.3326810754694E+00 -0.3657554515971E+00  0.0000000000000E+00  0.7392883494070E-01
 0.3325521312032E+00 -0.3666734897021E+00  0.0000000000000E+00  0.8123150637444E-01
 0.3311921702870E+00 -0.3664482939860E+00  0.0000000000000E+00  0.8962360949234E-01
 0.3284791267693E+00 -0.3649598529583E+00  0.0000000000000E+00  0.9898034570633E-01
 0.3242952284653E+00 -0.3620915859734E+00  0.0000000000000E+00  0.1091459330345E+00
 0.3185311653005E+00 -0.3577342202421E+00  0.0000000000000E+00  0.1199378023501E+00
 0.3110910765421E+00 -0.3517903834920E+00  0.0000000000000E+00  0.1311540193920E+00
 0.3018987880194E+00 -0.3441802674908E+00  0.0000000000000E+00  0.1425845376791E+00
 0.2909062675290E+00 -0.3348491654676E+00  0.0000000000000E+00  0.1540269852481E+00
 0.2781063517350E+00 -0.3237786855285E+00  0.0000000000000E+00  0.1653071616992E+00
 0.2635545115720E+00 -0.3110057555685E+00  0.0000000000000E+00  0.1763003618988E+00
 0.2474032993562E+00 -0.2966562124356E+00  0.0000000000000E+00  0.1869322217829E+00
 0.3092622269624E+00 -0.3371981938260E+00  0.0000000000000E+00  0.6822486975080E-01
 0.3150919828839E+00 -0.3435089212157E+00  0.0000000000000E+00  0.6669248781326E-01
 0.3203588667199E+00 -0.3493197590577E+00  0.0000000000000E+00  0.6646568536929E-01
 0.3250020897792E+00 -0.3545720311123E+00  0.0000000000000E+00  0.6754910658906E-01
 0.3289367471709E+00 -0.3591834469949E+00  0.0000000000000E+00  0.6994582412852E-01
 0.3320626404747E+00 -0.3630566662245E+00  0.0000000000000E+00  0.7365002977771E-01
 0.3342695390844E+00 -0.3660843549281E+00  0.0000000000000E+00  0.7863860782396E-01
 0.3354406391221E+00 -0.3681524760086E+00  0.0000000000000E+00  0.8486375394705E-01
 0.3354551936607E+00 -0.3691427654347E+00  0.0000000000000E+00  0.9224738485158E-01
 0.3341908540754E+00 -0.3689349243240E+00  0.0000000000000E+00  0.1006776868556E+00
 0.3315259893555E+00 -0.3674087849194E+00  0.0000000000000E+00  0.1100080730256E+00
 0.3273420687408E+00 -0.3644465270702E+00  0.0000000000000E+00  0.1200588686857E+00
 0.3215260787292E+00 -0.3599349037817E+00  0.0000000000000E+00  0.1306221611332E+00
 0.3139728914696E+00 -0.3537673702043E+00  0.0000000000000E+00  0.1414704474780E+00
 0.3045875112510E+00 -0.3458460008554E+00  0.0000000000000E+00  0.1523700814075E+00
 0.2932872399577E+00 -0.3360831402388E+00  0.0000000000000E+00  0.1631012441671E+00
 0.2800041101140E+00 -0.3244029511080E+00  0.0000000000000E+00  0.1734875614744E+00
 0.2646891222177E+00 -0.3107437434641E+00  0.0000000000000E+00  0.1834414142577E+00
 0.2473240671025E+00 -0.2950651572026E+00  0.0000000000000E+00  0.1930365710533E+00
 0.2279681295363E+00 -0.2773794302393E+00  0.0000000000000E+00  0.2026171576331E+00
 0.3148634547310E+00 -0.3432068239948E+00  0.0000000000000E+00  0.7633185937068E-01
 0.3205890674811E+00 -0.3494270639083E+00  0.0000000000000E+00  0.7581056947841E-01
 0.3256465265983E+00 -0.3550419346232E+00  0.0000000000000E+00  0.7672206225352E-01
 0.3299565056270E+00 -0.3599734978028E+00  0.0000000000000E+00  0.7902695143766E-01
 0.3334169834591E+00 -0.3641217714527E+00  0.0000000000000E+00  0.8269265841863E-01
 0.3359141137303E+00 -0.3673751494642E+00  0.0000000000000E+00  0.8767810181250E-01
 0.3373281122131E+00 -0.3696160254002E+00  0.0000000000000E+00  0.9392102608329E-01
 0.3375367498237E+00 -0.3707240880099E+00  0.0000000000000E+00  0.1013286056612E+00
 0.3364177096246E+00 -0.3705785227482E+00  0.0000000000000E+00  0.1097713965298E+00
 0.3338504098865E+00 -0.3690597066031E+00  0.0000000000000E+00  0.1190805289631E+00
 0.3297174891215E+00 -0.3660505856106E+00  0.0000000000000E+00  0.1290480873336E+00
 0.3239058817633E+00 -0.3614376600529E+00  0.0000000000000E+00  0.1394307600433E+00
 0.3163072179775E+00 -0.3551113079309E+00  0.0000000000000E+00  0.1499570383950E+00
 0.3068171076516E+00 -0.3469650043512E+00  0.0000000000000E+00  0.1603385413078E+00
 0.2953326576713E+00 -0.3368927810480E+00  0.0000000000000E+00  0.1702865644841E+00
 0.2817471973384E+00 -0.3247839083698E+00  0.0000000000000E+00  0.1795359568655E+00
 0.2659405224783E+00 -0.3105130581760E+00  0.0000000000000E+00  0.1878806268333E+00
 0.2477612724897E+00 -0.2939226680956E+00  0.0000000000000E+00  0.1952301562388E+00
 0.2269948970273E+00 -0.2747899518315E+00  0.0000000000000E+00  0.2017142493001E+00
 0.2033114217724E+00 -0.2527653595529E+00  0.0000000000000E+00  0.2079297365483E+00
 0.3198039551450E+00 -0.3485074482313E+00  0.0000000000000E+00  0.8432174157685E-01
 0.3253142386313E+00 -0.3545181979143E+00  0.0000000000000E+00  0.8480796385498E-01
 0.3300471561034E+00 -0.3598126312133E+00  0.0000000000000E+00  0.8682612528016E-01
 0.3338993163165E+00 -0.3642881350675E+00  0.0000000000000E+00  0.9029135009550E-01
 0.3367502572543E+00 -0.3678256486364E+00  0.0000000000000E+00  0.9513526360568E-01
 0.3384738163767E+00 -0.3703005536100E+00  0.0000000000000E+00  0.1012808115615E+00
 0.3389437889737E+00 -0.3715880135224E+00  0.0000000000000E+00  0.1086244591424E+00
 0.3380367810046E+00 -0.3715656203076E+00  0.0000000000000E+00  0.1170246449315E+00
 0.3356337664137E+00 -0.3701148177869E+00  0.0000000000000E+00  0.1262954218391E+00
 0.3316209630735E+00 -0.3671217044826E+00  0.0000000000000E+00  0.1362044068780E+00
 0.3258901030518E+00 -0.3624772908077E+00  0.0000000000000E+00  0.1464744176078E+00
 0.3183378158304E+00 -0.3560769371291E+00  0.0000000000000E+00  0.1567884224149E+00
 0.3088635617277E+00 -0.3478184290236E+00  0.0000000000000E+00  0.1667976627380E+00
 0.2973652492699E+00 -0.3375978612556E+00  0.0000000000000E+00  0.1761330384567E+00
 0.2837312023106E+00 -0.3253020792234E+00  0.0000000000000E+00  0.1844201131156E+00
 0.2678262759548E+00 -0.3107956424413E+00  0.0000000000000E+00  0.1912984224300E+00
 0.2494678782624E+00 -0.2938985781137E+00  0.0000000000000E+00  0.1964461745326E+00
 0.2283832064114E+00 -0.2743471005081E+00  0.0000000000000E+00  0.1996125174606E+00
 0.2041230893338E+00 -0.2517181902049E+00  0.0000000000000E+00  0.2006589733244E+00
 0.1758404736526E+00 -0.2252440879888E+00  0.0000000000000E+00  0.1996405038610E+00
 0.3240768939359E+00 -0.3530933364808E+00  0.0000000000000E+00  0.9213551629295E-01
 0.3292692993901E+00 -0.3587829633536E+00  0.0000000000000E+00  0.9362701268769E-01
 0.3335689328935E+00 -0.3636370539202E+00  0.0000000000000E+00  0.9670740510330E-01
 0.3368440190714E+00 -0.3675239191441E+00  0.0000000000000E+00  0.1012505042777E+00
 0.3389557768265E+00 -0.3703054704551E+00  0.0000000000000E+00  0.1071556703579E+00
 0.3397689788473E+00 -0.3718472262671E+00  0.0000000000000E+00  0.1143114777343E+00
 0.3391561687029E+00 -0.3720221859959E+00  0.0000000000000E+00  0.1225724890955E+00
 0.3369990445908E+00 -0.3707120155093E+00  0.0000000000000E+00  0.1317460120964E+00
 0.3331886981048E+00 -0.3678072003123E+00  0.0000000000000E+00  0.1415861171996E+00
 0.3276252632915E+00 -0.3632067145175E+00  0.0000000000000E+00  0.1517928893352E+00
 0.3202168608385E+00 -0.3568170972023E+00  0.0000000000000E+00  0.1620154711703E+00
 0.3108773083281E+00 -0.3485504294059E+00  0.0000000000000E+00  0.1718578659608E+00
 0.2995217535847E+00 -0.3383204124987E+00  0.0000000000000E+00  0.1808866834180E+00
 0.2860590451651E+00 -0.3260354453749E+00  0.0000000000000E+00  0.1886399902202E+00
 0.2703791511437E+00 -0.3115871634435E+00  0.0000000000000E+00  0.1946360066034E+00
 0.2523330364069E+00 -0.2948321774037E+00  0.0000000000000E+00  0.1983790923684E+00
 0.2317009092336E+00 -0.2755635219531E+00  0.0000000000000E+00  0.1993568040370E+00
 0.2081405075093E+00 -0.2534657827222E+00  0.0000000000000E+00  0.1970111201737E+00
 0.1811040186139E+00 -0.2280442090543E+00  0.0000000000000E+00  0.1906360214747E+00
 0.1496844345140E+00 -0.1985222255233E+00  0.0000000000000E+00  0.1789613089316E+00
 0.3276780736254E+00 -0.3569599983993E+00  0.0000000000000E+00  0.9971093226368E-01
 0.3324581254674E+00 -0.3622234186949E+00  0.0000000000000E+00  0.1021934361844E+00
 0.3362207648197E+00 -0.3665201984263E+00  0.0000000000000E+00  0.1062682370097E+00
 0.3388033257093E+00 -0.3696869832198E+00  0.0000000000000E+00  0.1117780489079E+00
 0.3400514124807E+00 -0.3715693214987E+00  0.0000000000000E+00  0.1185983231469E+00
 0.3398267203998E+00 -0.3720288232331E+00  0.0000000000000E+00  0.1265881648490E+00
 0.3380082042847E+00 -0.3709439531329E+00  0.0000000000000E+00  0.1355622810142E+00
 0.3344910049350E+00 -0.3682087700633E+00  0.0000000000000E+00  0.1452774320445E+00
 0.3291849010072E+00 -0.3637313549450E+00  0.0000000000000E+00  0.1554282148637E+00
 0.3220126011332E+00 -0.3574322311179E+00  0.0000000000000E+00  0.1656485372961E+00
 0.3129074355039E+00 -0.3492423439607E+00  0.0000000000000E+00  0.1755162703579E+00
 0.3018096168823E+00 -0.3390997902354E+00  0.0000000000000E+00  0.1845592013598E+00
 0.2886600070265E+00 -0.3269442830164E+00  0.0000000000000E+00  0.1922605453642E+00
 0.2733901154408E+00 -0.3127081653703E+00  0.0000000000000E+00  0.1980618239871E+00
 0.2559068315238E+00 -0.2963026143934E+00  0.0000000000000E+00  0.2013596349072E+00
 0.2360703580967E+00 -0.2775976774083E+00  0.0000000000000E+00  0.2014899311764E+00
 0.2136645345519E+00 -0.2563956176410E+00  0.0000000000000E+00  0.1976869530557E+00
 0.1883645285820E+00 -0.2324018473194E+00  0.0000000000000E+00  0.1889870261322E+00
 0.1597186819416E+00 -0.2052124726308E+00  0.0000000000000E+00  0.1740053909704E+00
 0.1273322112540E+00 -0.1744410116482E+00  0.0000000000000E+00  0.1504392231515E+00
 0.3306088237818E+00 -0.3601087312295E+00  0.0000000000000E+00  0.1069830638192E+00
 0.3348893110798E+00 -0.3648465644755E+00  0.0000000000000E+00  0.1104145289849E+00
 0.3380142439945E+00 -0.3684698662871E+00  0.0000000000000E+00  0.1153797408165E+00
 0.3397902700265E+00 -0.3707838522337E+00  0.0000000000000E+00  0.1217089321335E+00
 0.3400535791820E+00 -0.3716239994304E+00  0.0000000000000E+00  0.1292675511534E+00
 0.3386717971652E+00 -0.3708571157952E+00  0.0000000000000E+00  0.1378935673784E+00
 0.3355399968502E+00 -0.3683768902458E+00  0.0000000000000E+00  0.1473667223503E+00
 0.3305761512686E+00 -0.3640991527796E+00  0.0000000000000E+00  0.1573972922221E+00
 0.3237175068938E+00 -0.3579582663318E+00  0.0000000000000E+00  0.1676255985266E+00
 0.3149176034062E+00 -0.3499043630377E+00  0.0000000000000E+00  0.1776265626630E+00
 0.3041429654059E+00 -0.3399004189896E+00  0.0000000000000E+00  0.1869156226470E+00
 0.2913683233678E+00 -0.3279180254473E+00  0.0000000000000E+00  0.1949533086595E+00
 0.2765692662243E+00 -0.3139307801253E+00  0.0000000000000E+00  0.2011457890349E+00
 0.2597113668598E+00 -0.2979043849382E+00  0.0000000000000E+00  0.2048378375641E+00
 0.2407351714174E+00 -0.2797828676726E+00  0.0000000000000E+00  0.2052928851780E+00
 0.2195375435082E+00 -0.2594713183185E+00  0.0000000000000E+00  0.2016520047099E+00
 0.1959536311166E+00 -0.2368186620166E+00  0.0000000000000E+00  0.1928595748609E+00
 0.1697549007730E+00 -0.2116133937190E+00  0.0000000000000E+00  0.1775416454317E+00
 0.1407222882061E+00 -0.1836382563494E+00  0.0000000000000E+00  0.1538214348773E+00
 0.1088412708969E+00 -0.1528447587563E+00  0.0000000000000E+00  0.1192817713008E+00
 0.3328767902512E+00 -0.3625472750471E+00  0.0000000000000E+00  0.1138807931774E+00
 0.3365756093293E+00 -0.3666638365438E+00  0.0000000000000E+00  0.1181750335443E+00
 0.3389619107532E+00 -0.3694953081234E+00  0.0000000000000E+00  0.1238798105888E+00
 0.3398161007296E+00 -0.3708202016631E+00  0.0000000000000E+00  0.1308418231724E+00
 0.3389755267343E+00 -0.3704748489445E+00  0.0000000000000E+00  0.1389351499240E+00
 0.3363254874102E+00 -0.3683432577164E+00  0.0000000000000E+00  0.1479868454396E+00
 0.3317876926551E+00 -0.3643449806215E+00  0.0000000000000E+00  0.1577481220387E+00
 0.3253115724287E+00 -0.3584261518436E+00  0.0000000000000E+00  0.1678894403362E+00
 0.3168687972687E+00 -0.3505540693820E+00  0.0000000000000E+00  0.1780059154153E+00
 0.3064495313537E+00 -0.3407137023062E+00  0.0000000000000E+00  0.1876251950816E+00
 0.2940586928885E+00 -0.3289043323889E+00  0.0000000000000E+00  0.1962134527336E+00
 0.2797108940477E+00 -0.3151349375453E+00  0.0000000000000E+00  0.2031765164485E+00
 0.2634232923037E+00 -0.2994175404018E+00  0.0000000000000E+00  0.2078529886279E+00
 0.2452061753155E+00 -0.2817583229701E+00  0.0000000000000E+00  0.2094950415398E+00
 0.2250519444085E+00 -0.2621470823010E+00  0.0000000000000E+00  0.2072309892010E+00
 0.2029247669714E+00 -0.2405470090919E+00  0.0000000000000E+00  0.2000026580589E+00
 0.1787565934125E+00 -0.2168895985000E+00  0.0000000000000E+00  0.1864739960856E+00
 0.1524616599820E+00 -0.1910846487819E+00  0.0000000000000E+00  0.1649273346553E+00
 0.1239969702759E+00 -0.1630643932950E+00  0.0000000000000E+00  0.1332662746914E+00
 0.9346699174726E-01 -0.1328731922089E+00  0.0000000000000E+00  0.8929228673238E-01
 0.3344972308900E+00 -0.3642913739890E+00  0.0000000000000E+00  0.1203242756859E+00
 0.3375340923106E+00 -0.3676913644909E+00  0.0000000000000E+00  0.1253336317199E+00
 0.3390760648371E+00 -0.3696059026211E+00  0.0000000000000E+00  0.1315723369573E+00
 0.3388889663771E+00 -0.3697992642761E+00  0.0000000000000E+00  0.1389420705282E+00
 0.3368268335176E+00 -0.3681247906236E+00  0.0000000000000E+00  0.1473452971610E+00
 0.3328059526963E+00 -0.3644974975053E+00  0.0000000000000E+00  0.1566065074792E+00
 0.3267838397184E+00 -0.3588720347632E+00  0.0000000000000E+00  0.1664537445373E+00
 0.3187469419714E+00 -0.3512301385212E+00  0.0000000000000E+00  0.1765254085307E+00
 0.3087045695498E+00 -0.3415746660598E+00  0.0000000000000E+00  0.1863831739459E+00
 0.2966854730763E+00 -0.3299264979747E+00  0.0000000000000E+00  0.1955222383822E+00
 0.2827345124382E+00 -0.3163214613704E+00  0.0000000000000E+00  0.2033755566348E+00
 0.2669083536998E+00 -0.3008061834521E+00  0.0000000000000E+00  0.2093100347055E+00
 0.2492702219517E+00 -0.2834328568226E+00  0.0000000000000E+00  0.2126117882157E+00
 0.2298846044306E+00 -0.2642537318857E+00  0.0000000000000E+00  0.2124562443827E+00
 0.2088137537320E+00 -0.2433170409786E+00  0.0000000000000E+00  0.2078577979089E+00
 0.1861189150373E+00 -0.2206670475630E+00  0.0000000000000E+00  0.1975944451082E+00
 0.1618686925587E+00 -0.1963508005171E+00  0.0000000000000E+00  0.1801097919997E+00
 0.1361499717846E+00 -0.1704280460089E+00  0.0000000000000E+00  0.1534228283252E+00
 0.1090182221139E+00 -0.1429377041746E+00  0.0000000000000E+00  0.1151694941172E+00
 0.8040128712642E-01 -0.1137657318043E+00  0.0000000000000E+00  0.6315419882746E-01
 0.3354926734107E+00 -0.3653645954674E+00  0.0000000000000E+00  0.1262167246689E+00
 0.3377825144680E+00 -0.3679459330896E+00  0.0000000000000E+00  0.1317139696515E+00
 0.3383641600361E+00 -0.3688062607602E+00  0.0000000000000E+00  0.1382232152255E+00
 0.3370112792342E+00 -0.3677189115420E+00  0.0000000000000E+00  0.1457426710129E+00
 0.3336149868561E+00 -0.3645760271313E+00  0.0000000000000E+00  0.1542164985018E+00
 0.3281348670114E+00 -0.3593364447698E+00  0.0000000000000E+00  0.1634673199414E+00
 0.3205689244231E+00 -0.3519945711169E+00  0.0000000000000E+00  0.1732019123046E+00
 0.3109409131884E+00 -0.3425674166292E+00  0.0000000000000E+00  0.1830354525901E+00
 0.2992963562549E+00 -0.3310912584212E+00  0.0000000000000E+00  0.1925108612785E+00
 0.2857005507003E+00 -0.3176199348729E+00  0.0000000000000E+00  0.2011084812951E+00
 0.2702362286625E+00 -0.3022225416132E+00  0.0000000000000E+00  0.2082469517721E+00
 0.2530008888511E+00 -0.2849805052364E+00  0.0000000000000E+00  0.2132747045492E+00
 0.2341048745159E+00 -0.2659850657850E+00  0.0000000000000E+00  0.2154498692141E+00
 0.2136721227965E+00 -0.2453369606079E+00  0.0000000000000E+00  0.2139050388729E+00
 0.1918463401253E+00 -0.2231508705098E+00  0.0000000000000E+00  0.2075926403644E+00
 0.1688054773009E+00 -0.1995674650286E+00  0.0000000000000E+00  0.1952071052926E+00
 0.1447844432425E+00 -0.1747734437592E+00  0.0000000000000E+00  0.1750819698914E+00
 0.1200867133178E+00 -0.1490152429668E+00  0.0000000000000E+00  0.1450618999612E+00
 0.9500509977293E-01 -0.1225367263526E+00  0.0000000000000E+00  0.1023025006176E+00
 0.6919317655861E-01 -0.9511833044965E-01  0.0000000000000E+00  0.4327252351786E-01
 0.3358971377871E+00 -0.3658024381776E+00  0.0000000000000E+00  0.1314411562188E+00
 0.3373455923428E+00 -0.3674558303051E+00  0.0000000000000E+00  0.1371189280451E+00
 0.3368421192088E+00 -0.3671174183846E+00  0.0000000000000E+00  0.1436009584624E+00
 0.3342042639494E+00 -0.3646086658021E+00  0.0000000000000E+00  0.1510133372928E+00
 0.3293828886980E+00 -0.3598847844453E+00  0.0000000000000E+00  0.1593338183935E+00
 0.3223859038701E+00 -0.3529544108131E+00  0.0000000000000E+00  0.1683675652821E+00
 0.3132472172520E+00 -0.3438458929241E+00  0.0000000000000E+00  0.1777989513255E+00
 0.3020217756899E+00 -0.3326047164655E+00  0.0000000000000E+00  0.1872312142153E+00
 0.2887853993566E+00 -0.3192940631904E+00  0.0000000000000E+00  0.1962040904367E+00
 0.2736337628977E+00 -0.3039939916769E+00  0.0000000000000E+00  0.2041993066106E+00
 0.2566807296014E+00 -0.2867994671196E+00  0.0000000000000E+00  0.2106374526013E+00
 0.2380572931209E+00 -0.2678186026923E+00  0.0000000000000E+00  0.2148664118012E+00
 0.2179130322373E+00 -0.2471729275574E+00  0.0000000000000E+00  0.2161395867685E+00
 0.1964226756684E+00 -0.2250020938864E+00  0.0000000000000E+00  0.2135812529069E+00
 0.1738011529310E+00 -0.2014761562994E+00  0.0000000000000E+00  0.2061357916125E+00
 0.1503308614705E+00 -0.1768188622666E+00  0.0000000000000E+00  0.1924960328716E+00
 0.1264025134659E+00 -0.1513434929979E+00  0.0000000000000E+00  0.1709989686113E+00
 0.1025637906012E+00 -0.1254944281780E+00  0.0000000000000E+00  0.1394386869375E+00
 0.7954852601102E-01 -0.9986814620681E-01  0.0000000000000E+00  0.9459423554678E-01
 0.5796892444455E-01 -0.7494545937995E-01  0.0000000000000E+00  0.3043111971990E-01
 0.3357613565238E+00 -0.3656624500858E+00  0.0000000000000E+00  0.1358676993709E+00
 0.3362558828353E+00 -0.3662608849184E+00  0.0000000000000E+00  0.1413354877005E+00
 0.3345262378342E+00 -0.3645634953063E+00  0.0000000000000E+00  0.1474991153744E+00
 0.3304985298904E+00 -0.3605081995256E+00  0.0000000000000E+00  0.1545931697003E+00
 0.3241957017437E+00 -0.3541325954771E+00  0.0000000000000E+00  0.1625654139454E+00
 0.3156580919196E+00 -0.3454745810657E+00  0.0000000000000E+00  0.1711777782546E+00
 0.3049416513629E+00 -0.3345816523662E+00  0.0000000000000E+00  0.1801003482224E+00
 0.2921233035764E+00 -0.3215180919070E+00  0.0000000000000E+00  0.1889379858329E+00
 0.2773008794429E+00 -0.3063656829568E+00  0.0000000000000E+00  0.1972384497589E+00
 0.2605911362237E+00 -0.2892215191643E+00  0.0000000000000E+00  0.2044917392658E+00
 0.2421276592966E+00 -0.2701952818334E+00  0.0000000000000E+00  0.2101232992025E+00
 0.2220604592342E+00 -0.2494077925290E+00  0.0000000000000E+00  0.2134803429894E+00
 0.2005593096395E+00 -0.2269927820110E+00  0.0000000000000E+00  0.2138097420141E+00
 0.1778235970056E+00 -0.2031044381676E+00  0.0000000000000E+00  0.2102256836841E+00
 0.1541024998253E+00 -0.1779342281231E+00  0.0000000000000E+00  0.2016648611214E+00
 0.1297307045232E+00 -0.1517417025615E+00  0.0000000000000E+00  0.1868245967197E+00
 0.1051880205210E+00 -0.1249060799321E+00  0.0000000000000E+00  0.1640676686008E+00
 0.8120263010816E-01 -0.9801433680140E-01  0.0000000000000E+00  0.1312371646262E+00
 0.5898049496499E-01 -0.7204593538532E-01  0.0000000000000E+00  0.8518141354083E-01
 0.4113624676855E-01 -0.4903533106807E-01  0.0000000000000E+00  0.1971381303352E-01
 0.3351443150753E+00 -0.3650196978942E+00  0.0000000000000E+00  0.1393095045947E+00
 0.3344980438828E+00 -0.3643547793633E+00  0.0000000000000E+00  0.1440780628153E+00
 0.3313857160607E+00 -0.3611049618335E+00  0.0000000000000E+00  0.1497503501224E+00
 0.3259191687843E+00 -0.3554433449192E+00  0.0000000000000E+00  0.1563824499680E+00
 0.3181371314498E+00 -0.3474103305659E+00  0.0000000000000E+00  0.1638020124930E+00
 0.3080811455211E+00 -0.3370406815214E+00  0.0000000000000E+00  0.1717508468599E+00
 0.2958197920627E+00 -0.3243911493386E+00  0.0000000000000E+00  0.1799080452955E+00
 0.2814465452255E+00 -0.3095400696583E+00  0.0000000000000E+00  0.1878937371866E+00
 0.2650757522678E+00 -0.2925832126342E+00  0.0000000000000E+00  0.1952681737518E+00
 0.2468387360922E+00 -0.2736294130831E+00  0.0000000000000E+00  0.2015270369621E+00
 0.2268814678775E+00 -0.2527974824079E+00  0.0000000000000E+00  0.2060919078292E+00
 0.2053650611304E+00 -0.2302156541363E+00  0.0000000000000E+00  0.2082945581823E+00
 0.1824709838478E+00 -0.2060253615982E+00  0.0000000000000E+00  0.2073539420965E+00
 0.1584137956503E+00 -0.1803920153307E+00  0.0000000000000E+00  0.2023451102135E+00
 0.1334656287411E+00 -0.1535267786309E+00  0.0000000000000E+00  0.1921595337612E+00
 0.1079993447009E+00 -0.1257257692031E+00  0.0000000000000E+00  0.1754554923951E+00
 0.8256473066433E-01 -0.9743980908276E-01  0.0000000000000E+00  0.1505934540037E+00
 0.5803743467100E-01 -0.6941006743886E-01  0.0000000000000E+00  0.1155407053946E+00
 0.3596763474129E-01 -0.4298889553980E-01  0.0000000000000E+00  0.6774414735957E-01
 0.1996639422104E-01 -0.2142216478709E-01  0.0000000000000E+00  0.4479937255386E-02
</DataArray>
<DataArray type="Float64" Name="S_Centroid" NumberOfComponents="4" ComponentName0="S11" ComponentName1="S22" ComponentName2="S33" ComponentName3="S12" format="ascii">
 0.4005725191390E+00  0.3353606674290E+01  0.7508358498741E+00  0.3478179135107E+00
-0.5964171800251E-01  0.2850888644406E+01  0.5582493935993E+00 -0.1014242653226E-01
 0.1086719092358E-01  0.2766051392852E+01  0.5553837250310E+00  0.7697583885491E-02
-0.2046216820382E-02  0.2733398063266E+01  0.5462703774291E+00  0.1868566352977E-02
 0.5125250452660E-03  0.2714111765443E+01  0.5429248661880E+00  0.2216060025010E-02
-0.5536693563379E-04  0.2696763134148E+01  0.5393415614793E+00  0.2812639980112E-02
 0.7531083549206E-04  0.2677356275812E+01  0.5354863253089E+00  0.3705184764201E-02
 0.4781249792352E-04  0.2654418874363E+01  0.5308933452831E+00  0.4626708503140E-02
 0.5735169021237E-04  0.2627515437331E+01  0.5255145656350E+00  0.5522353915033E-02
 0.5690744128162E-04  0.2596602700268E+01  0.5193319292805E+00  0.6366806243500E-02
 0.5739050231279E-04  0.2561799004871E+01  0.5123712867095E+00  0.7158273130984E-02
 0.5605852271007E-04  0.2523265133801E+01  0.5046642459847E+00  0.7903291686026E-02
 0.5351866466474E-04  0.2481151764968E+01  0.4962410641211E+00  0.8612494957723E-02
 0.4958913018516E-04  0.2435574396761E+01  0.4871248044370E+00  0.9297753099826E-02
 0.4430064056371E-04  0.2386604157544E+01  0.4773296987497E+00  0.9970628396762E-02
 0.3773218971759E-04  0.2334267665811E+01  0.4668610865569E+00  0.1064122947825E-01
 0.2957896427125E-04  0.2278552646346E+01  0.4557164518528E+00  0.1131782251941E-01
 0.2049175813512E-04  0.2219424193457E+01  0.4438889436574E+00  0.1200453559843E-01
 0.1011349670521E-04  0.2156836226678E+01  0.4313692744629E+00  0.1270174478912E-01
-0.8935708024627E-06  0.2090766926934E+01  0.4181532129036E+00  0.1340257607646E-01
-0.1154115711854E-04  0.2021259213187E+01  0.4042495404298E+00  0.1408840700827E-01
-0.2072090983762E-04  0.1948510802720E+01  0.3896980221690E+00  0.1471769402455E-01
 0.3517887266552E-04  0.1873125983831E+01  0.3746322381232E+00  0.1510926520140E-01
 0.3502887086786E-03  0.1796149133395E+01  0.3592998897747E+00  0.1450550973752E-01
 0.8933399156359E-03  0.1716844871502E+01  0.3435476474027E+00  0.1165399905109E-01
 0.1394856988106E-02  0.1632403366429E+01  0.3267596495525E+00  0.5965662015383E-02
 0.1748605932517E-02  0.1540801377789E+01  0.3085100013415E+00 -0.2007571382934E-02
 0.2001738794422E-02  0.1442013869583E+01  0.2888031259791E+00 -0.1116092940228E-01
 0.2256597200718E-02  0.1337836685195E+01  0.2680186604728E+00 -0.2045709874217E-01
 0.2611758066527E-02  0.1231273454999E+01  0.2467770462904E+00 -0.2926072499024E-01
 0.3152203273006E-02  0.1125980927522E+01  0.2258266295241E+00 -0.3741573242807E-01
 0.3963313082268E-02  0.1025949283346E+01  0.2059825223551E+00 -0.4517946165610E-01
 0.5046036009910E-02  0.9352696173769E+00  0.1880631334797E+00 -0.5296184557080E-01
 0.6459750709683E-02  0.8590772122538E+00  0.1731073951722E+00 -0.6117043636272E-01
 0.8351485743740E-02  0.8045496488433E+00  0.1625802293400E+00 -0.7080596560156E-01
 0.1185560757301E-01  0.7799643888129E+00  0.1583640016370E+00 -0.8395038040146E-01
 0.1485938861688E-01  0.7948133180058E+00  0.1619345437375E+00 -0.1039185836846E+00
 0.3304088994787E-01  0.8626235088636E+00  0.1791328824316E+00 -0.1367962570287E+00
-0.1434026573657E-02  0.1008556886419E+01  0.2014245749705E+00 -0.1863790807019E+00
 0.3351354562695E+00  0.1283590535722E+01  0.3237452032226E+00 -0.3692603673107E+00
-0.1089223061799E+01  0.1367105777731E+01  0.5557654401453E-01 -0.2690372148185E+00
 0.4222058153123E+00  0.2950395269449E+01  0.6745202270034E+00  0.3468149179082E+00
 0.4744951010547E-01  0.2844250997553E+01  0.5783401101497E+00  0.1200453127239E+00
-0.3354047056258E-02  0.2693783652818E+01  0.5380859291704E+00  0.2179005135230E-01
 0.3593870135163E-02  0.2644971335655E+01  0.5297130490514E+00  0.1510892309790E-01
-0.4210357099012E-03  0.2614319187371E+01  0.5227796381223E+00  0.1032403390061E-01
-0.2936584756638E-03  0.2590527910728E+01  0.5180468581699E+00  0.1080672243888E-01
-0.5757016579130E-03  0.2567241774332E+01  0.5133332221841E+00  0.1242150159615E-01
-0.5805128284642E-03  0.2542125402957E+01  0.5083089856001E+00  0.1457629932598E-01
-0.5741303997460E-03  0.2514138260365E+01  0.5027128334841E+00  0.1685169383817E-01
-0.5440157530749E-03  0.2482898274973E+01  0.4964708592420E+00  0.1910574000654E-01
-0.5143282869793E-03  0.2448300659516E+01  0.4895572735407E+00  0.2128170066392E-01
-0.4893211062886E-03  0.2410363749686E+01  0.4819748928979E+00  0.2337089686461E-01
-0.4724886384194E-03  0.2369144942538E+01  0.4737344978391E+00  0.2538616162727E-01
-0.4646523304087E-03  0.2324700436353E+01  0.4648471637313E+00  0.2735010630549E-01
-0.4655243095367E-03  0.2277065983175E+01  0.4553200985578E+00  0.2928801679103E-01
-0.4739996154400E-03  0.2226250533641E+01  0.4451553134384E+00  0.3122346842986E-01
-0.4880986789312E-03  0.2172238469487E+01  0.4343500806339E+00  0.3317459458304E-01
-0.5046830664872E-03  0.2114999596504E+01  0.4228989889891E+00  0.3515077232454E-01
-0.5195717714511E-03  0.2054503716531E+01  0.4107968350732E+00  0.3714863512690E-01
-0.5255584109579E-03  0.1990745858168E+01  0.3980440658827E+00  0.3914469226276E-01
-0.5102484409459E-03  0.1923785922958E+01  0.3846551406352E+00  0.4108307885230E-01
-0.4343580544297E-03  0.1853817618519E+01  0.3706766576163E+00  0.4283023132029E-01
-0.9558471211885E-04  0.1781212273134E+01  0.3562233429926E+00  0.4405727456484E-01
 0.7841599516514E-03  0.1706166555410E+01  0.3413901481595E+00  0.4426326822824E-01
 0.2085581729009E-02  0.1628039805225E+01  0.3260250822490E+00  0.4293219280553E-01
 0.3294518601470E-02  0.1545485321219E+01  0.3097559725797E+00  0.3972891936189E-01
 0.4037221212780E-02  0.1457518405260E+01  0.2923111296503E+00  0.3470518550001E-01
 0.4294097120411E-02  0.1364327935945E+01  0.2737244106918E+00  0.2824466359461E-01
 0.4270865153454E-02  0.1267349508894E+01  0.2543240785992E+00  0.2077416816360E-01
 0.4253812102546E-02  0.1168966942737E+01  0.2346441544643E+00  0.1252785502242E-01
 0.4534984219689E-02  0.1072168351751E+01  0.2153406704029E+00  0.3436463654865E-02
 0.5341735916858E-02  0.9802973204418E+00  0.1971278142092E+00 -0.6850221445271E-02
 0.6831277812183E-02  0.8970476852345E+00  0.1807757953031E+00 -0.1893510106329E-01
 0.9293463343343E-02  0.8267591948398E+00  0.1672105341283E+00 -0.3371803502289E-01
 0.1356631420699E-01  0.7745690456966E+00  0.1576270743295E+00 -0.5253671395314E-01
 0.2005868967755E-01  0.7459386997406E+00  0.1531994801665E+00 -0.7730848791051E-01
 0.3302537731946E-01  0.7463606989210E+00  0.1558772175708E+00 -0.1119803987282E+00
 0.4401295460543E-01  0.7791144359389E+00  0.1646254805620E+00 -0.1569095655888E+00
 0.1059292773850E+00  0.8491904964891E+00  0.1910239576213E+00 -0.2482266983623E+00
 0.1771702891589E+00  0.8151030681524E+00  0.1984546744195E+00 -0.2478224239423E+00
-0.9536080856615E+00  0.8093105813530E+00 -0.2885950129174E-01 -0.1216704258277E+00
 0.4383691117381E+00  0.2699410576248E+01  0.6275559469485E+00  0.3045039236847E+00
 0.1205777854241E+00  0.2707386473608E+01  0.5655928602345E+00  0.1727282072065E+00
 0.1680840967415E-01  0.2614567558255E+01  0.5262752014280E+00  0.6011963933477E-01
 0.5266813566552E-02  0.2549592009304E+01  0.5109717721882E+00  0.2925980429835E-01
 0.1120509789540E-02  0.2513092874015E+01  0.5028426842539E+00  0.2184601202309E-01
-0.8764050247250E-03  0.2484123806729E+01  0.4966494877415E+00  0.2041864137109E-01
-0.1433631127880E-02  0.2457691650641E+01  0.4912516112228E+00  0.2220244102138E-01
-0.1666028071784E-02  0.2430673408567E+01  0.4858014833380E+00  0.2509545076704E-01
-0.1689168495641E-02  0.2401725493476E+01  0.4800072721487E+00  0.2843017252854E-01
-0.1647304918107E-02  0.2370197572784E+01  0.4737100606319E+00  0.3186003156337E-01
-0.1582950351903E-02  0.2335812741525E+01  0.4668459651912E+00  0.3524963305386E-01
-0.1522835925318E-02  0.2298468478272E+01  0.4593891353147E+00  0.3855302511420E-01
-0.1478065314739E-02  0.2258141049106E+01  0.4513326034836E+00  0.4177162181513E-01
-0.1453297534235E-02  0.2214833012298E+01  0.4426759495492E+00  0.4492881698372E-01
-0.1448741514517E-02  0.2168546911206E+01  0.4334196403968E+00  0.4805638572361E-01
-0.1461674223436E-02  0.2119273900854E+01  0.4235624516376E+00  0.5118562545953E-01
-0.1486650407680E-02  0.2066991997068E+01  0.4131010754877E+00  0.5434066530246E-01
-0.1515280810303E-02  0.2011672924136E+01  0.4020315346560E+00  0.5753256451413E-01
-0.1535235401141E-02  0.1953293757266E+01  0.3903517101896E+00  0.6075222865060E-01
-0.1526857791432E-02  0.1891856430683E+01  0.3780659202119E+00  0.6395982861786E-01
-0.1454662037149E-02  0.1827417574788E+01  0.3651925879921E+00  0.6706470782715E-01
-0.1217554960033E-02  0.1760111768111E+01  0.3517788478721E+00  0.6987534204864E-01
-0.5578504472449E-03  0.1690067139119E+01  0.3379018627696E+00  0.7207885002850E-01
 0.7673665033195E-03  0.1617171274150E+01  0.3235877329525E+00  0.7338654707882E-01
 0.2568933378282E-02  0.1540989024048E+01  0.3087115960855E+00  0.7358433930834E-01
 0.4263426605123E-02  0.1460954955478E+01  0.2930436807834E+00  0.7241967595704E-01
 0.5386665249132E-02  0.1376762613558E+01  0.2764298598806E+00  0.6966596589749E-01
 0.5878167170740E-02  0.1288783518413E+01  0.2589323409752E+00  0.6523134465196E-01
 0.5997141605379E-02  0.1198211727907E+01  0.2408417774912E+00  0.5909109573439E-01
 0.6151665712247E-02  0.1106954332199E+01  0.2226212028996E+00  0.5114761865482E-01
 0.6773288741957E-02  0.1017433370111E+01  0.2048413348229E+00  0.4113046017742E-01
 0.8232797608944E-02  0.9324327373969E+00  0.1881331098046E+00  0.2855732610125E-01
 0.1086641071734E-01  0.8550608834550E+00  0.1731854614151E+00  0.1266898158395E-01
 0.1526446132190E-01  0.7887065652189E+00  0.1607942077042E+00 -0.7606037185846E-02
 0.2229061225908E-01  0.7368095183239E+00  0.1518200283789E+00 -0.3352617296316E-01
 0.3363859426116E-01  0.7024833773387E+00  0.1472243965138E+00 -0.6691518834492E-01
 0.5009915412164E-01  0.6866359911898E+00  0.1473470312579E+00 -0.1088704285747E+00
 0.7637539208539E-01  0.6882854291418E+00  0.1529321665243E+00 -0.1645634350393E+00
 0.1345673184988E+00  0.6693144329309E+00  0.1607763526817E+00 -0.2208184971874E+00
 0.3585517470287E-01  0.5920377774989E+00  0.1255785923116E+00 -0.1489177092481E+00
-0.8146155361192E+00  0.6213884177403E+00 -0.3864542425165E-01 -0.1323887915319E+00
 0.4416925755706E+00  0.2506655781332E+01  0.5896696801673E+00  0.2599189590009E+00
 0.1705244804110E+00  0.2552189311870E+01  0.5445427665706E+00  0.1878520924393E+00
 0.4469364992250E-01  0.2507370271029E+01  0.5104127917960E+00  0.9147997182901E-01
 0.1211934110714E-01  0.2449572621363E+01  0.4923383998304E+00  0.4777965385466E-01
 0.2999984524502E-02  0.2408891074361E+01  0.4823782189651E+00  0.3455107540829E-01
-0.9188238393623E-03  0.2377086488757E+01  0.4752335400650E+00  0.3147113012144E-01
-0.2464144066273E-02  0.2348271942517E+01  0.4691615666812E+00  0.3279184390805E-01
-0.3035373818674E-02  0.2319786743283E+01  0.4633502807973E+00  0.3609886440334E-01
-0.3196932523480E-02  0.2290073147245E+01  0.4573752497596E+00  0.4021124003755E-01
-0.3176108173261E-02  0.2258352022057E+01  0.4510351894978E+00  0.4461081521475E-01
-0.3091676490905E-02  0.2224222115765E+01  0.4442260944742E+00  0.4905379114613E-01
-0.2998907794961E-02  0.2187490313517E+01  0.4368982876548E+00  0.5344539296437E-01
-0.2925712379030E-02  0.2148066664831E+01  0.4290281968834E+00  0.5776456764036E-01
-0.2883814976807E-02  0.2105908150440E+01  0.4206048733602E+00  0.6202768869302E-01
-0.2875528870173E-02  0.2060987720763E+01  0.4116224445122E+00  0.6626691845815E-01
-0.2896550271130E-02  0.2013279381007E+01  0.4020765721385E+00  0.7051665610189E-01
-0.2936971722962E-02  0.1962753292721E+01  0.3919632700403E+00  0.7480358569941E-01
-0.2981027510443E-02  0.1909379645793E+01  0.3812797293381E+00  0.7913803529950E-01
-0.3005100772115E-02  0.1853136568402E+01  0.3700262990398E+00  0.8350445340780E-01
-0.2972408142285E-02  0.1794023621531E+01  0.3582102480155E+00  0.8784842008583E-01
-0.2815773457953E-02  0.1732077089907E+01  0.3458522684434E+00  0.9205395883802E-01
-0.2386357732418E-02  0.1667352657828E+01  0.3329932649810E+00  0.9591605405790E-01
-0.1421874388831E-02  0.1599826198395E+01  0.3196808695648E+00  0.9918322639897E-01
 0.2557745442250E-03  0.1529299001304E+01  0.3059109597280E+00  0.1016972166093E+00
 0.2418234505833E-02  0.1455532391649E+01  0.2915901295760E+00  0.1033525842776E+00
 0.4498079009749E-02  0.1378415947336E+01  0.2765828093906E+00  0.1038921067103E+00
 0.6034314239040E-02  0.1298055948992E+01  0.2608180565328E+00  0.1029116288490E+00
 0.6960587463738E-02  0.1214950456771E+01  0.2443822124885E+00  0.1000087282346E+00
 0.7567521461028E-02  0.1130117806282E+01  0.2275370689391E+00  0.9483195499460E-01
 0.8338703186520E-02  0.1045088096170E+01  0.2106853630107E+00  0.8702229385394E-01
 0.9806196771134E-02  0.9618073395322E+00  0.1943227101563E+00  0.7613359107941E-01
 0.1246538496036E-01  0.8825336017638E+00  0.1789998000121E+00  0.6156508154555E-01
 0.1683253196752E-01  0.8097403439947E+00  0.1653145776558E+00  0.4248174315292E-01
 0.2362550915956E-01  0.7458845691798E+00  0.1539020179612E+00  0.1786593716450E-01
 0.3394449636248E-01  0.6930527998614E+00  0.1453994614114E+00 -0.1334338095694E-01
 0.4908976382233E-01  0.6521721283964E+00  0.1402523805337E+00 -0.5191673267664E-01
 0.7018598927852E-01  0.6220354829510E+00  0.1384442965089E+00 -0.9812968239239E-01
 0.1014402657910E+00  0.5929164872636E+00  0.1388713526803E+00 -0.1494784968233E+00
 0.1234012339152E+00  0.5363672862850E+00  0.1319537060063E+00 -0.1711446918549E+00
-0.5369979749993E-01  0.4821785928938E+00  0.8569576035574E-01 -0.1029370120565E+00
-0.6754044163380E+00  0.5271940145708E+00 -0.2964208079513E-01 -0.1714414559817E+00
 0.4359992685817E+00  0.2342411044875E+01  0.5556820709716E+00  0.2196519852049E+00
 0.2033262982702E+00  0.2399485796060E+01  0.5205624266230E+00  0.1855290246053E+00
 0.7135545634940E-01  0.2385248557869E+01  0.4913208101650E+00  0.1118195384249E+00
 0.2250050618072E-01  0.2341783671868E+01  0.4728568426559E+00  0.6611215753325E-01
 0.6034035234055E-02  0.2302006209893E+01  0.4616080559039E+00  0.4821179669736E-01
-0.5972121755116E-03  0.2268860977796E+01  0.4536527598841E+00  0.4325824468556E-01
-0.3453196799232E-02  0.2238704556326E+01  0.4470502785670E+00  0.4399540574522E-01
-0.4608493100050E-02  0.2209221884016E+01  0.4409226847534E+00  0.4744828157202E-01
-0.5007237642465E-02  0.2179004646803E+01  0.4347994883110E+00  0.5213235636229E-01
-0.5065522330464E-02  0.2147224668528E+01  0.4284318356237E+00  0.5732363160711E-01
-0.4986656375213E-02  0.2113421879217E+01  0.4216870508520E+00  0.6267615820788E-01
-0.4873741120492E-02  0.2077342697969E+01  0.4144937975462E+00  0.6803695574702E-01
-0.4778165448634E-02  0.2038848903316E+01  0.4068141536356E+00  0.7335642778729E-01
-0.4723336720197E-02  0.1997861387551E+01  0.3986276161062E+00  0.7863810319345E-01
-0.4715572568037E-02  0.1954328281187E+01  0.3899225475341E+00  0.8390991544368E-01
-0.4749496155028E-02  0.1908208000700E+01  0.3806917065817E+00  0.8920573146656E-01
-0.4810094965275E-02  0.1859462115183E+01  0.3709304095709E+00  0.9455213159167E-01
-0.4872620458212E-02  0.1808056493313E+01  0.3606367799448E+00  0.9995720519199E-01
-0.4899841937573E-02  0.1753965454475E+01  0.3498131277201E+00  0.1053991833140E+00
-0.4834406130054E-02  0.1697178867672E+01  0.3384688973520E+00  0.1108123405939E+00
-0.4577771104380E-02  0.1637703023542E+01  0.3266250553546E+00  0.1160687827476E+00
-0.3952561722697E-02  0.1575526244729E+01  0.3143147412849E+00  0.1209756178124E+00
-0.2716153297891E-02  0.1510547255391E+01  0.3015662249122E+00  0.1253408208552E+00
-0.7504642661907E-03  0.1442572426272E+01  0.2883643966982E+00  0.1290712748725E+00
 0.1706038903518E-02  0.1371521763975E+01  0.2746455646681E+00  0.1320780802166E+00
 0.4143904607005E-02  0.1297556562118E+01  0.2603400972244E+00  0.1340599789350E+00
 0.6154302927677E-02  0.1221023248964E+01  0.2454355140356E+00  0.1344888300264E+00
 0.7692469062612E-02  0.1142488137941E+01  0.2300361248284E+00  0.1327577701027E+00
 0.9072542300156E-02  0.1062827867436E+01  0.2143800851418E+00  0.1282846525590E+00
 0.1082491365294E-01  0.9832670458558E+00  0.1988183948644E+00  0.1205114746446E+00
 0.1355195047095E-01  0.9053439552073E+00  0.1837791838742E+00  0.1088506862826E+00
 0.1785048545094E-01  0.8308294344539E+00  0.1697359865102E+00  0.9261907237112E-01
 0.2435021438213E-01  0.7615853735465E+00  0.1571871199280E+00  0.7099225243703E-01
 0.3384900793546E-01  0.6992644749071E+00  0.1466226987534E+00  0.4310709888419E-01
 0.4735947562088E-01  0.6448236982974E+00  0.1384366368465E+00  0.8365190713283E-02
 0.6577175576977E-01  0.5978914106920E+00  0.1327326352702E+00 -0.3311447795306E-01
 0.8963903078787E-01  0.5552562295365E+00  0.1289790539868E+00 -0.7961309915192E-01
 0.1154314467518E+00  0.5065763203799E+00  0.1244015552801E+00 -0.1214557367738E+00
 0.1013984269956E+00  0.4442672560790E+00  0.1091331382411E+00 -0.1268453084967E+00
-0.9697816728590E-01  0.4163225484119E+00  0.6386887717691E-01 -0.8985549201423E-01
-0.5505402956524E+00  0.4587131193858E+00 -0.1836543552698E-01 -0.2055537651547E+00
 0.4245020112890E+00  0.2194349680688E+01  0.5237703462001E+00  0.1844157546149E+00
 0.2235300813405E+00  0.2252998818080E+01  0.4953057872648E+00  0.1752574737229E+00
 0.9363240247643E-01  0.2256987816164E+01  0.4701240507334E+00  0.1230809136463E+00
 0.3402572255793E-01  0.2227572190062E+01  0.4523195892641E+00  0.8172286484408E-01
 0.1013382569267E-01  0.2192128646129E+01  0.4404525009276E+00  0.6184690021111E-01
 0.1043034248241E-03  0.2159346498078E+01  0.4318901667362E+00  0.5535578684744E-01
-0.4363968914546E-02  0.2128748859319E+01  0.4248769844121E+00  0.5552375590388E-01
-0.6304788778176E-02  0.2098800462446E+01  0.4184991409696E+00  0.5900719282696E-01
-0.7057431418831E-02  0.2068367634459E+01  0.4122620467511E+00  0.6411163732667E-01
-0.7257734083177E-02  0.2036694209313E+01  0.4058873010941E+00  0.6995409760379E-01
-0.7219754020798E-02  0.2003312826492E+01  0.3992186204431E+00  0.7609044755640E-01
-0.7105814830761E-02  0.1967943010953E+01  0.3921674450683E+00  0.8231115504910E-01
-0.6999190593338E-02  0.1930416490289E+01  0.3846834656713E+00  0.8853497851501E-01
-0.6939215380375E-02  0.1890628655720E+01  0.3767378936817E+00  0.9474936411585E-01
-0.6938507775583E-02  0.1848508350767E+01  0.3683139740865E+00  0.1009748458981E+00
-0.6991385280515E-02  0.1804000693070E+01  0.3594018669133E+00  0.1072421720637E+00
-0.7077446308950E-02  0.1757058594445E+01  0.3499962348426E+00  0.1135759799551E+00
-0.7161890078464E-02  0.1707641648085E+01  0.3400959566691E+00  0.1199813823943E+00
-0.7192300259315E-02  0.1655716830971E+01  0.3297049110553E+00  0.1264313450464E+00
-0.7089668378788E-02  0.1601259575045E+01  0.3188339860843E+00  0.1328532633734E+00
-0.6728887927710E-02  0.1544245296225E+01  0.3075032862416E+00  0.1391181906402E+00
-0.5918896265977E-02  0.1484615174131E+01  0.2957392599799E+00  0.1450545806265E+00
-0.4443952504777E-02  0.1422238288368E+01  0.2835588713981E+00  0.1505131704327E+00
-0.2229542815893E-02  0.1356958981379E+01  0.2709458917499E+00  0.1554216229754E+00
 0.4991026795440E-03  0.1288814751349E+01  0.2578627746482E+00  0.1596637852154E+00
 0.3310770545471E-02  0.1218126144277E+01  0.2442873866047E+00  0.1628801202351E+00
 0.5872964389887E-02  0.1145368646294E+01  0.2302483255678E+00  0.1644517767978E+00
 0.8180458195037E-02  0.1071128819593E+01  0.2158618587743E+00  0.1636366974010E+00
 0.1056921184951E-01  0.9961584809230E+00  0.2013455415548E+00  0.1596937073157E+00
 0.1359801597540E-01  0.9214278301440E+00  0.1870051720105E+00  0.1519197035996E+00
 0.1791509091384E-01  0.8481236462472E+00  0.1732077500132E+00  0.1396236421910E+00
 0.2418106130360E-01  0.7775790214649E+00  0.1603520189431E+00  0.1220835094990E+00
 0.3308013374128E-01  0.7111177484431E+00  0.1488395786547E+00  0.9854268303986E-01
 0.4537706378121E-01  0.6497266801812E+00  0.1390207508641E+00  0.6837861514971E-01
 0.6182305997921E-01  0.5935883851360E+00  0.1310822909763E+00  0.3149871133441E-01
 0.8271245569085E-01  0.5415377516920E+00  0.1248500433370E+00 -0.1107234952626E-01
 0.1065527234057E+00  0.4898824664836E+00  0.1192870397554E+00 -0.5547377669223E-01
 0.1222624383035E+00  0.4327195451220E+00  0.1109963983391E+00 -0.8969475461543E-01
 0.8292443532076E-01  0.3770528907051E+00  0.9199546657601E-01 -0.9398891027187E-01
-0.1077037908852E+00  0.3653487975493E+00  0.5152900210067E-01 -0.9171478790936E-01
-0.4418197159679E+00  0.3979318353720E+00 -0.8777576249978E-02 -0.2291321112298E+00
 0.4092327112491E+00  0.2056423525285E+01  0.4931312546551E+00  0.1537387226065E+00
 0.2344628449533E+00  0.2112666265170E+01  0.4694258290197E+00  0.1616236462522E+00
 0.1107137906653E+00  0.2127091808251E+01  0.4475611264525E+00  0.1278813195790E+00
 0.4497732381252E-01  0.2109199992793E+01  0.4308354697410E+00  0.9389245507233E-01
 0.1475916578149E-01  0.2079505493564E+01  0.4188529381106E+00  0.7457411444585E-01
 0.1113865649897E-02  0.2048508974019E+01  0.4099245740422E+00  0.6734715153508E-01
-0.5201634837926E-02  0.2018293171276E+01  0.4026183132871E+00  0.6711932213416E-01
-0.8085933561286E-02  0.1988385937580E+01  0.3960600067055E+00  0.7062366690303E-01
-0.9299510950628E-02  0.1958041123617E+01  0.3897483283409E+00  0.7606181553392E-01
-0.9706523393281E-02  0.1926655049574E+01  0.3833897109491E+00  0.8244959532373E-01
-0.9748249628677E-02  0.1893805042680E+01  0.3768113642252E+00  0.8926463670761E-01
-0.9656796806823E-02  0.1859213531699E+01  0.3699113524905E+00  0.9624702623005E-01
-0.9554059081248E-02  0.1822700645078E+01  0.3626293226029E+00  0.1032850761903E+00
-0.9499499275542E-02  0.1784147002164E+01  0.3549295058665E+00  0.1103490606794E+00
-0.9514286733332E-02  0.1743468171031E+01  0.3467907820272E+00  0.1174504775133E+00
-0.9593391999008E-02  0.1700598771615E+01  0.3382010809628E+00  0.1246153915487E+00
-0.9711038280819E-02  0.1655483600600E+01  0.3291545173686E+00  0.1318654498548E+00
-0.9821783189939E-02  0.1608074855510E+01  0.3196506192272E+00  0.1392026769658E+00
-0.9857322008347E-02  0.1558329950172E+01  0.3096945302475E+00  0.1465962444305E+00
-0.9717774907352E-02  0.1506208042927E+01  0.2992980580639E+00  0.1539709206489E+00
-0.9257138557139E-02  0.1451657887455E+01  0.2884801540783E+00  0.1612031573433E+00
-0.8279504256125E-02  0.1394591921984E+01  0.2772624876771E+00  0.1681424073420E+00
-0.6593691316961E-02  0.1334875729721E+01  0.2656564116394E+00  0.1746638289655E+00
-0.4150122256886E-02  0.1272397955379E+01  0.2536495704040E+00  0.1806881113822E+00
-0.1143487259116E-02  0.1207276716950E+01  0.2412266495327E+00  0.1860527658500E+00
 0.2082024860325E-02  0.1139919104068E+01  0.2284002291891E+00  0.1903385594525E+00
 0.5280458136369E-02  0.1070857639745E+01  0.2152276227834E+00  0.1928593551705E+00
 0.8496285671695E-02  0.1000663612558E+01  0.2018319826535E+00  0.1927844062732E+00
 0.1208726574777E-01  0.9299728430744E+00  0.1884120245720E+00  0.1892664127219E+00
 0.1662806973850E-01  0.8595391721354E+00  0.1752334509860E+00  0.1815022184122E+00
 0.2278941647623E-01  0.7902475710099E+00  0.1626073999203E+00  0.1687342825811E+00
 0.3125672687485E-01  0.7230537662868E+00  0.1508621008803E+00  0.1502387306687E+00
 0.4270373929087E-01  0.6588339498532E+00  0.1403075399196E+00  0.1253663474528E+00
 0.5775975160088E-01  0.5980788998974E+00  0.1311677322542E+00  0.9376351165488E-01
 0.7679332198830E-01  0.5405027254305E+00  0.1234592113234E+00  0.5581559911329E-01
 0.9920139315309E-01  0.4846830837807E+00  0.1167768971269E+00  0.1337511898010E-01
 0.1209904020026E+00  0.4279114187636E+00  0.1097803657891E+00 -0.2848274565991E-01
 0.1265149602604E+00  0.3694521487790E+00  0.9919342328599E-01 -0.5919112009340E-01
 0.7317509515971E-01  0.3227932628976E+00  0.7919367279154E-01 -0.7098555323231E-01
-0.9728206105835E-01  0.3182401528372E+00  0.4419161901428E-01 -0.9829793690934E-01
-0.3472414840418E+00  0.3395794554699E+00 -0.1532405737201E-02 -0.2432779467350E+00
 0.3914400925286E+00  0.1925318924656E+01  0.4633518103413E+00  0.1269750499021E+00
 0.2385052887424E+00  0.1977633806305E+01  0.4432278256141E+00  0.1468992749687E+00
 0.1227498014197E+00  0.1997709923666E+01  0.4240919513365E+00  0.1283598339446E+00
 0.5433759267307E-01  0.1988565261840E+01  0.4085805769909E+00  0.1027909420049E+00
 0.1930906461778E-01  0.1964748151101E+01  0.3968114490566E+00  0.8588299901480E-01
 0.2253235870771E-02  0.1936442054946E+01  0.3877390639410E+00  0.7886218228209E-01
-0.6008040014122E-02  0.1907302725019E+01  0.3802589426674E+00  0.7855397726225E-01
-0.9943781175507E-02  0.1877893372871E+01  0.3735899239060E+00  0.8215110686537E-01
-0.1170321594130E-01  0.1847931430823E+01  0.3672456484487E+00  0.8789264531024E-01
-0.1237578654083E-01  0.1817018728720E+01  0.3609285938140E+00  0.9475382181108E-01
-0.1253563184286E-01  0.1784818340071E+01  0.3544565469274E+00  0.1021627395111E+00
-0.1249179760327E-01  0.1751082195062E+01  0.3477180846732E+00  0.1098205247255E+00
-0.1240997705438E-01  0.1715635694356E+01  0.3406451485363E+00  0.1175893771567E+00
-0.1237326979261E-01  0.1678355140699E+01  0.3331963791462E+00  0.1254234790801E+00
-0.1241347385048E-01  0.1639148919175E+01  0.3253470939129E+00  0.1333250454637E+00
-0.1252721258349E-01  0.1597944281774E+01  0.3170834185631E+00  0.1413148811135E+00
-0.1268357628384E-01  0.1554678957449E+01  0.3083990808286E+00  0.1494113099522E+00
-0.1282631254670E-01  0.1509297390099E+01  0.2992942199703E+00  0.1576136619491E+00
-0.1287129013564E-01  0.1461746484652E+01  0.2897750432213E+00  0.1658889819200E+00
-0.1269948423184E-01  0.1411969553043E+01  0.2798540179323E+00  0.1741626632269E+00
-0.1214869127502E-01  0.1359894600114E+01  0.2695491857845E+00  0.1823191852452E+00
-0.1102191701250E-01  0.1305418787894E+01  0.2588793780339E+00  0.1902242954955E+00
-0.9145576280085E-02  0.1248416357091E+01  0.2478541598556E+00  0.1977621927280E+00
-0.6477945662585E-02  0.1188814923671E+01  0.2364673991254E+00  0.2048306040296E+00
-0.3171048999072E-02  0.1126782600281E+01  0.2247223136049E+00  0.2112146733626E+00
 0.5204185023160E-03  0.1062764536569E+01  0.2126569941830E+00  0.2164403447659E+00
 0.4439392714299E-02  0.9973033791081E+00  0.2003485573499E+00  0.2197720888889E+00
 0.8684522220924E-02  0.9309306045615E+00  0.1879230281568E+00  0.2203226737540E+00
 0.1363506140236E-01  0.8641719775620E+00  0.1755614104089E+00  0.2171775698647E+00
 0.1987163593208E-01  0.7975952852381E+00  0.1634933866703E+00  0.2094700926658E+00
 0.2806573133703E-01  0.7318300964917E+00  0.1519791678304E+00  0.1964077650027E+00
 0.3888938951979E-01  0.6675192427778E+00  0.1412817285648E+00  0.1772923172055E+00
 0.5294532381022E-01  0.6051907401651E+00  0.1316272147565E+00  0.1515995869414E+00
 0.7064905805232E-01  0.5450046368102E+00  0.1231307408073E+00  0.1192307938473E+00
 0.9188588123608E-01  0.4864719142474E+00  0.1156715608203E+00  0.8097447571077E-01
 0.1150023551313E+00  0.4284061396609E+00  0.1086817005779E+00  0.3923337948042E-01
 0.1339159009463E+00  0.3697439429280E+00  0.1007319702759E+00 -0.8281841668029E-03
 0.1314407759429E+00  0.3135840650099E+00  0.8900496951684E-01 -0.3180136396207E-01
 0.7295238581926E-01  0.2744605610527E+00  0.6948259040976E-01 -0.5466440080621E-01
-0.7361378342286E-01  0.2712093592746E+00  0.3951911575923E-01 -0.1046754446692E+00
-0.2638634747499E+00  0.2822067351481E+00  0.3668652134321E-02 -0.2502595542295E+00
 0.3719061356528E+00  0.1799071666476E+01  0.4341955668957E+00  0.1035347577690E+00
 0.2373555885333E+00  0.1847002466276E+01  0.4168716171737E+00  0.1322237774692E+00
 0.1302439843416E+00  0.1869801186676E+01  0.4000090401642E+00  0.1260651321777E+00
 0.6159524113310E-01  0.1867004579536E+01  0.3857199698816E+00  0.1089179260950E+00
 0.2328522999802E-01  0.1848545120230E+01  0.3743660756241E+00  0.9558655793724E-01
 0.3296942505022E-02  0.1823352898155E+01  0.3653299735759E+00  0.8963245585317E-01
-0.6858806621559E-02  0.1795803891859E+01  0.3577890223790E+00  0.8963350482460E-01
-0.1189235613098E-01  0.1767280900331E+01  0.3510777140716E+00  0.9345716295166E-01
-0.1425408163654E-01  0.1737971517931E+01  0.3447434923960E+00  0.9951658853174E-01
-0.1523910580051E-01  0.1707713102039E+01  0.3384948042916E+00  0.1068096578700E+00
-0.1555142108353E-01  0.1676282600212E+01  0.3321462407751E+00  0.1147468802652E+00
-0.1557958125696E-01  0.1643482969701E+01  0.3255806825403E+00  0.1230056978754E+00
-0.1553630681826E-01  0.1609159547619E+01  0.3187246529096E+00  0.1314290817749E+00
-0.1553088945029E-01  0.1573193895108E+01  0.3115326057737E+00  0.1399580130188E+00
-0.1560745661280E-01  0.1535493098985E+01  0.3039771330040E+00  0.1485864400740E+00
-0.1576521668323E-01  0.1495980305566E+01  0.2960430221879E+00  0.1573302195629E+00
-0.1596850863623E-01  0.1454587609215E+01  0.2877238244031E+00  0.1662046456145E+00
-0.1615043451737E-01  0.1411252000037E+01  0.2790203172617E+00  0.1752071205303E+00
-0.1621160437041E-01  0.1365909994424E+01  0.2699396820330E+00  0.1843041482404E+00
-0.1601575097848E-01  0.1318490800420E+01  0.2604950137699E+00  0.1934238060219E+00
-0.1538757195576E-01  0.1268907300770E+01  0.2507039494986E+00  0.2024586863501E+00
-0.1412915824717E-01  0.1217049891665E+01  0.2405841502686E+00  0.2112848958640E+00
-0.1207583795999E-01  0.1162805173065E+01  0.2301458704503E+00  0.2197843564401E+00
-0.9179439729882E-02  0.1106129919020E+01  0.2193900991273E+00  0.2278237817540E+00
-0.5541285231434E-02  0.1047217773801E+01  0.2083353008183E+00  0.2351368291755E+00
-0.1327655041235E-02  0.9865191079953E+00  0.1970382935269E+00  0.2412022773484E+00
 0.3391263255773E-02  0.9245562542950E+00  0.1855895062757E+00  0.2452494887930E+00
 0.8768903300262E-02  0.8618050589835E+00  0.1741147950513E+00  0.2463576046110E+00
 0.1520468546440E-01  0.7986868510787E+00  0.1627783097342E+00  0.2435733356228E+00
 0.2327652894515E-01  0.7356093507792E+00  0.1517771782065E+00  0.2359947990990E+00
 0.3363696878290E-01  0.6729903163855E+00  0.1413254591396E+00  0.2228188351439E+00
 0.4691024693456E-01  0.6112241985636E+00  0.1316268910610E+00  0.2033891247657E+00
 0.6357892301735E-01  0.5505881115369E+00  0.1228334087412E+00  0.1773040820703E+00
 0.8378933079960E-01  0.4910573076552E+00  0.1149693294041E+00  0.1446778194200E+00
 0.1068901059157E+00  0.4321600680427E+00  0.1078100363982E+00  0.1065786708960E+00
 0.1302371037774E+00  0.3732562216701E+00  0.1006986665900E+00  0.6559100421849E-01
 0.1464319560556E+00  0.3148988544591E+00  0.9226616347781E-01  0.2614916697078E-01
 0.1388725653915E+00  0.2623106751048E+00  0.8023664929488E-01 -0.7721752074370E-02
 0.8128958626808E-01  0.2283523884675E+00  0.6192839586992E-01 -0.4225669863867E-01
-0.4176578924739E-01  0.2232375427985E+00  0.3629435125105E-01 -0.1088348916587E+00
-0.1889267856295E+00  0.2254989810296E+00  0.7314439189020E-02 -0.2520762933074E+00
 0.3511358639442E+00  0.1676444876013E+01  0.4055161540340E+00  0.8292472313540E-01
 0.2322340591189E+00  0.1720003879275E+01  0.3904475934969E+00  0.1181632211524E+00
 0.1337884061108E+00  0.1743734337139E+01  0.3755045542455E+00  0.1220695286297E+00
 0.6656226254942E-01  0.1745387376197E+01  0.3623899331494E+00  0.1128363219857E+00
 0.2633251681691E-01  0.1731511726016E+01  0.3515688538053E+00  0.1037071244029E+00
 0.4024025447928E-02  0.1709505394250E+01  0.3427058890464E+00  0.9950144513299E-01
-0.7849882219363E-02  0.1683871240441E+01  0.3352042766393E+00  0.1002068991556E+00
-0.1396218425203E-01  0.1656540808717E+01  0.3285157297882E+00  0.1044282763399E+00
-0.1695022750774E-01  0.1628117988636E+01  0.3222335570273E+00  0.1108532971639E+00
-0.1827873722858E-01  0.1598681299375E+01  0.3160805171392E+00  0.1185618512273E+00
-0.1877077971645E-01  0.1568137497444E+01  0.3098733481631E+00  0.1269790527689E+00
-0.1889252060103E-01  0.1536355999976E+01  0.3034927003973E+00  0.1357758243634E+00
-0.1890466966899E-01  0.1503213964705E+01  0.2968618634308E+00  0.1447846372375E+00
-0.1894414642071E-01  0.1468606508905E+01  0.2899324768173E+00  0.1539375790704E+00
-0.1906858512185E-01  0.1432444825571E+01  0.2826752523021E+00  0.1632224106941E+00
-0.1928053966967E-01  0.1394651177571E+01  0.2750741316792E+00  0.1726511200694E+00
-0.1954003059291E-01  0.1355153712622E+01  0.2671227403864E+00  0.1822367884849E+00
-0.1976989022324E-01  0.1313882784749E+01  0.2588225827619E+00  0.1919759063553E+00
-0.1985626234918E-01  0.1270765390546E+01  0.2501818293673E+00  0.2018357964304E+00
-0.1964724778738E-01  0.1225718888861E+01  0.2412143318092E+00  0.2117482700190E+00
-0.1895596832100E-01  0.1178645516418E+01  0.2319379130755E+00  0.2216127597668E+00
-0.1758153379769E-01  0.1129433453672E+01  0.2223703872884E+00  0.2313101919309E+00
-0.1535940570657E-01  0.1077980613089E+01  0.2125242446434E+00  0.2407127140174E+00
-0.1222360081723E-01  0.1024262104027E+01  0.2024077036580E+00  0.2496531634579E+00
-0.8219799852104E-02  0.9684780632661E+00  0.1920516555446E+00  0.2578181349800E+00
-0.3428926036446E-02  0.9110617764986E+00  0.1815265727974E+00  0.2646477959732E+00
 0.2161367006551E-02  0.8524958613662E+00  0.1709314482216E+00  0.2693480059332E+00
 0.8757420710704E-02  0.7931913171700E+00  0.1603897499661E+00  0.2709807373912E+00
 0.1677646417815E-01  0.7334714166898E+00  0.1500495784095E+00  0.2685744757632E+00
 0.2678592204210E-01  0.6736071863157E+00  0.1400786237589E+00  0.2612129307480E+00
 0.3940230201861E-01  0.6138451127235E+00  0.1306494848952E+00  0.2480986797914E+00
 0.5517387510113E-01  0.5543921306980E+00  0.1219132029765E+00  0.2286228181284E+00
 0.7442768885572E-01  0.4953618023055E+00  0.1139578999303E+00  0.2024885184184E+00
 0.9701064968243E-01  0.4366647374984E+00  0.1067350790267E+00  0.1699615672043E+00
 0.1217442909954E+00  0.3780016054555E+00  0.9994918077954E-01  0.1322394143031E+00
 0.1452015249028E+00  0.3193817617442E+00  0.9291665871396E-01  0.9175405069347E-01
 0.1594402821148E+00  0.2625949793546E+00  0.8440705355162E-01  0.5179914590029E-01
 0.1496134419581E+00  0.2136157172688E+00  0.7264583292789E-01  0.1353789576426E-01
 0.9671585473996E-01  0.1826895218751E+00  0.5588107615571E-01 -0.3180841152069E-01
-0.4860516341152E-02  0.1742846000025E+00  0.3388481723720E-01 -0.1102084279610E+00
-0.1201666938897E+00  0.1694447579692E+00  0.9855612962757E-02 -0.2502189117856E+00
 0.3294663109202E+00  0.1556620506461E+01  0.3772173690973E+00  0.6474258739924E-01
 0.2240286475390E+00  0.1596019537887E+01  0.3640096425093E+00  0.1049855940719E+00
 0.1339535721273E+00  0.1619589560854E+01  0.3507086318222E+00  0.1171015797106E+00
 0.6924200994740E-01  0.1624249657639E+01  0.3386983385643E+00  0.1150630002406E+00
 0.2822794546342E-01  0.1614140234545E+01  0.3284736408964E+00  0.1103804198435E+00
 0.4247090510464E-02  0.1595169985140E+01  0.3198834198966E+00  0.1084068796678E+00
-0.9082044391642E-02  0.1571609858521E+01  0.3125055674826E+00  0.1101699909305E+00
-0.1619423038225E-01  0.1545691440409E+01  0.3058994465637E+00  0.1149727528734E+00
-0.1979912266397E-01  0.1518347059263E+01  0.2997095917859E+00  0.1218324990610E+00
-0.2148412285277E-01  0.1489880137705E+01  0.2936792073467E+00  0.1299592518103E+00
-0.2217390596908E-01  0.1460331892237E+01  0.2876316015397E+00  0.1388226211335E+00
-0.2240637968047E-01  0.1429647492788E+01  0.2814482268155E+00  0.1481044301186E+00
-0.2248892603483E-01  0.1397744665454E+01  0.2750511519824E+00  0.1576363924590E+00
-0.2258631329347E-01  0.1364538838300E+01  0.2683905090005E+00  0.1673470148736E+00
-0.2277024558082E-01  0.1329950025771E+01  0.2614359599337E+00  0.1772207773245E+00
-0.2304712585211E-01  0.1293902636013E+01  0.2541711058196E+00  0.1872675050463E+00
-0.2337305414491E-01  0.1256322682658E+01  0.2465899293770E+00  0.1974993001991E+00
-0.2366105054505E-01  0.1217135054305E+01  0.2386948043088E+00  0.2079129093073E+00
-0.2378358140305E-01  0.1176258521486E+01  0.2304949914512E+00  0.2184775844692E+00
-0.2357422033481E-01  0.1133600830358E+01  0.2220053253128E+00  0.2291292346244E+00
-0.2283474463711E-01  0.1089056698502E+01  0.2132443939506E+00  0.2397723695594E+00
-0.2135800893067E-01  0.1042513823593E+01  0.2042311659758E+00  0.2502883050565E+00
-0.1897155040491E-01  0.9938779791255E+00  0.1949812886496E+00  0.2605350623111E+00
-0.1558287452830E-01  0.9431324044034E+00  0.1855099087393E+00  0.2703120288756E+00
-0.1117935846333E-01  0.8904692316290E+00  0.1758579772536E+00  0.2792648074284E+00
-0.5760668369604E-02  0.8362896604193E+00  0.1661058008851E+00  0.2868033960307E+00
 0.7626234532591E-03  0.7810247036573E+00  0.1563574677520E+00  0.2921195840775E+00
 0.8646431569795E-02  0.7250161492603E+00  0.1467325183525E+00  0.2942700197756E+00
 0.1832275422577E-01  0.6684965670974E+00  0.1373638663115E+00  0.2922793207514E+00
 0.3034169722205E-01  0.6116217183783E+00  0.1283926850333E+00  0.2852308975171E+00
 0.4526999384787E-01  0.5545036993664E+00  0.1199547404303E+00  0.2723420460537E+00
 0.6355932354511E-01  0.4972162548533E+00  0.1121551173509E+00  0.2530475339652E+00
 0.8536026495868E-01  0.4397826332171E+00  0.1050285812002E+00  0.2271269202595E+00
 0.1102166300003E+00  0.3821385100410E+00  0.9847102947559E-01  0.1949262164525E+00
 0.1364867333244E+00  0.3242391728458E+00  0.9214518260711E-01  0.1576246780708E+00
 0.1602266807878E+00  0.2666946502812E+00  0.8538426748613E-01  0.1172676985831E+00
 0.1735541141505E+00  0.2120666426683E+00  0.7712415251301E-01  0.7592051642410E-01
 0.1638354249624E+00  0.1661991300108E+00  0.6600691197823E-01  0.3264397503855E-01
 0.1177939843988E+00  0.1367173741027E+00  0.5090227245879E-01 -0.2208704584772E-01
 0.3522459723620E-01  0.1245961231706E+00  0.3196414455767E-01 -0.1088763170996E+00
-0.5582889014746E-01  0.1140825190087E+00  0.1165072594585E-01 -0.2457381204887E+00
 0.3071295290370E+00  0.1439034581262E+01  0.3492328272638E+00  0.4866111173871E-01
 0.2133950369503E+00  0.1474560122943E+01  0.3375910370091E+00  0.9280132136806E-01
 0.1312482466634E+00  0.1497310309999E+01  0.3257117161860E+00  0.1116518010746E+00
 0.6974315783091E-01  0.1503903734867E+01  0.3147293832294E+00  0.1160336287887E+00
 0.2885364572540E-01  0.1496798951823E+01  0.3051305240564E+00  0.1157915657700E+00
 0.3823324323331E-02  0.1480592907253E+01  0.2968832507392E+00  0.1163548310217E+00
-0.1064877642579E-01  0.1459137721653E+01  0.2896977933624E+00  0.1194623124274E+00
-0.1863375553219E-01  0.1434769073958E+01  0.2832270679056E+00  0.1250219999082E+00
-0.2281441572158E-01  0.1408650338184E+01  0.2771671886226E+00  0.1323957125566E+00
-0.2485022735113E-01  0.1381278105083E+01  0.2712855795888E+00  0.1409564328762E+00
-0.2574524713338E-01  0.1352822945689E+01  0.2654155436661E+00  0.1502435493919E+00
-0.2609996937701E-01  0.1323309384076E+01  0.2594418868058E+00  0.1599661586215E+00
-0.2626505533924E-01  0.1292701273634E+01  0.2532872474333E+00  0.1699651877638E+00
-0.2643213232625E-01  0.1260939417437E+01  0.2469014607013E+00  0.1801714539649E+00
-0.2668687885309E-01  0.1227956535370E+01  0.2402539348834E+00  0.1905696461349E+00
-0.2703973267229E-01  0.1193681890203E+01  0.2333284349831E+00  0.2011696076082E+00
-0.2744315895384E-01  0.1158041175469E+01  0.2261196066725E+00  0.2119840082135E+00
-0.2780078944446E-01  0.1120955172160E+01  0.2186308798010E+00  0.2230111075437E+00
-0.2797204644326E-01  0.1082335877227E+01  0.2108727692991E+00  0.2342229993206E+00
-0.2777653205527E-01  0.1042083357647E+01  0.2028613681412E+00  0.2455596874225E+00
-0.2700397410018E-01  0.1000086718002E+01  0.1946165516803E+00  0.2569290578623E+00
-0.2543720127786E-01  0.9562330746941E+00  0.1861591774572E+00  0.2682097009727E+00
-0.2288884158772E-01  0.9104316340911E+00  0.1775085611458E+00  0.2792435748539E+00
-0.1923343852806E-01  0.8626648682020E+00  0.1686862884484E+00  0.2897990450714E+00
-0.1439902930130E-01  0.8131061115863E+00  0.1597414188373E+00  0.2994873606653E+00
-0.8308584502641E-02  0.7621146425342E+00  0.1507612138528E+00  0.3076961605425E+00
-0.8014113438492E-03  0.7100631385758E+00  0.1418523475602E+00  0.3136107446207E+00
 0.8423951468036E-02  0.6572232669538E+00  0.1331294456682E+00  0.3162907978552E+00
 0.1981100838440E-01  0.6037449956242E+00  0.1247112026601E+00  0.3147665476931E+00
 0.3388698529502E-01  0.5496883985117E+00  0.1167150785005E+00  0.3081295012008E+00
 0.5115890916111E-01  0.4950637314312E+00  0.1092445297463E+00  0.2956142387647E+00
 0.7196916153305E-01  0.4398575607708E+00  0.1023653459861E+00  0.2766885181370E+00
 0.9628486930087E-01  0.3840599667047E+00  0.9606896863265E-01  0.2511739335101E+00
 0.1233667512214E+00  0.3276895727558E+00  0.9021126613970E-01  0.2194249365802E+00
 0.1512068189457E+00  0.2709757785327E+00  0.8443652075387E-01  0.1824817502264E+00
 0.1756014073268E+00  0.2150005405504E+00  0.7812039073954E-01  0.1418784592059E+00
 0.1891245594200E+00  0.1626896078564E+00  0.7036283450377E-01  0.9856043831043E-01
 0.1813708595984E+00  0.1192885995313E+00  0.6013189272198E-01  0.5021447491367E-01
 0.1433074414769E+00  0.9019370512793E-01  0.4670023001685E-01 -0.1238104184563E-01
 0.7738072327896E-01  0.7445159686455E-01  0.3036646448120E-01 -0.1051669106428E+00
 0.5408032240238E-02  0.5943349007835E-01  0.1296830465696E-01 -0.2393625448717E+00
 0.2842898657625E+00  0.1323283957319E+01  0.3215147694072E+00  0.3441296335871E-01
 0.2008249222672E+00  0.1355238711237E+01  0.3112127313383E+00  0.8163717657513E-01
 0.1261101314052E+00  0.1376779876662E+01  0.3005780060923E+00  0.1060484976861E+00
 0.6822650188479E-01  0.1384516457497E+01  0.2905485962059E+00  0.1160997217271E+00
 0.2816878176969E-01  0.1379749923822E+01  0.2815837453143E+00  0.1201371935594E+00
 0.2654713274155E-02  0.1365982010556E+01  0.2737273488450E+00  0.1233955849765E+00
-0.1262884178079E-01  0.1346571861851E+01  0.2667886079895E+00  0.1280599212798E+00
-0.2132501840148E-01  0.1323820240829E+01  0.2604990483672E+00  0.1345297611195E+00
-0.2601293950884E-01  0.1299030694113E+01  0.2546035547148E+00  0.1424969790450E+00
-0.2837586255210E-01  0.1272853179705E+01  0.2488954671393E+00  0.1515147228169E+00
-0.2947261416931E-01  0.1245575051064E+01  0.2432204910033E+00  0.1612113288989E+00
-0.2995471053257E-01  0.1217298860771E+01  0.2374688335862E+00  0.1713374825098E+00
-0.3021095892914E-01  0.1188037147927E+01  0.2315652412501E+00  0.1817528626339E+00
-0.3045773967232E-01  0.1157759439794E+01  0.2254603433839E+00  0.1923966645870E+00
-0.3079395315404E-01  0.1126414134896E+01  0.2191240396136E+00  0.2032576177203E+00
-0.3123390407297E-01  0.1093937646713E+01  0.2125407516952E+00  0.2143480880065E+00
-0.3172653456120E-01  0.1060257055684E+01  0.2057061072897E+00  0.2256830775974E+00
-0.3216639082904E-01  0.1025290434275E+01  0.1986248116490E+00  0.2372636690885E+00
-0.3240024824173E-01  0.9889444285962E+00  0.1913088389216E+00  0.2490655918441E+00
-0.3223379593548E-01  0.9511129463622E+00  0.1837758328238E+00  0.2610328326190E+00
-0.3144340010975E-01  0.9116804180780E+00  0.1760474062170E+00  0.2730753209400E+00
-0.2979805232246E-01  0.8705322043150E+00  0.1681468329041E+00  0.2850670695746E+00
-0.2708964634441E-01  0.8275763757370E+00  0.1600973482642E+00  0.2968338040987E+00
-0.2315513129131E-01  0.7827872627548E+00  0.1519264285566E+00  0.3081164358372E+00
-0.1786328982763E-01  0.7363115794659E+00  0.1436896600688E+00  0.3184984575895E+00
-0.1106504412513E-01  0.6884605404729E+00  0.1354791012884E+00  0.3273520851613E+00
-0.2534145495887E-02  0.6395452990681E+00  0.1274022326129E+00  0.3338620952976E+00
 0.8072262489948E-02  0.5897688443354E+00  0.1195682231468E+00  0.3370968536843E+00
 0.2120615560875E-01  0.5392069796486E+00  0.1120826287216E+00  0.3360978057429E+00
 0.3736789702345E-01  0.4878416459283E+00  0.1050419101556E+00  0.3299682636975E+00
 0.5699888661404E-01  0.4356089711847E+00  0.9852157302784E-01  0.3179575837339E+00
 0.8032711852886E-01  0.3824452403405E+00  0.9255447315304E-01  0.2995512677126E+00
 0.1071416407376E+00  0.3283481365912E+00  0.8709795676363E-01  0.2745769156131E+00
 0.1364573319478E+00  0.2734482167580E+00  0.8198111096276E-01  0.2433336008006E+00
 0.1660078770539E+00  0.2182250183107E+00  0.7684658021802E-01  0.2066383591889E+00
 0.1915413026045E+00  0.1640809796148E+00  0.7112445750369E-01  0.1654787546470E+00
 0.2063031983278E+00  0.1140054740902E+00  0.6406173543820E-01  0.1198796491767E+00
 0.2018970580862E+00  0.7246304696253E-01  0.5487202182739E-01  0.6674322401986E-01
 0.1722925761306E+00  0.4311472872443E-01  0.4308146161296E-01 -0.2319436218557E-02
 0.1209632119511E+00  0.2408630788350E-01  0.2900990439919E-01 -0.9946820442837E-01
 0.6452575413983E-01  0.5492076000303E-02  0.1400356623670E-01 -0.2315984601896E+00
 0.2610666450246E+00  0.1209071020708E+01  0.2940275375279E+00  0.2177816320482E-01
 0.1866927034377E+00  0.1237747132090E+01  0.2848879713508E+00  0.7147610078190E-01
 0.1189093778504E+00  0.1257859811183E+01  0.2753538419098E+00  0.1005100241286E+00
 0.6487333465240E-01  0.1266161943704E+01  0.2662070596380E+00  0.1155380099433E+00
 0.2618579341237E-01  0.1263170808801E+01  0.2578713242853E+00  0.1236051367446E+00
 0.6829584473338E-03  0.1251503232165E+01  0.2504372418543E+00  0.1296047334672E+00
-0.1508290659016E-01  0.1234019284582E+01  0.2437872792310E+00  0.1359669215208E+00
-0.2430734977795E-01  0.1212895200799E+01  0.2377175737466E+00  0.1434698116445E+00
-0.2941208238014E-01  0.1189498413544E+01  0.2320172696901E+00  0.1521027343108E+00
-0.3206210125455E-01  0.1164590659351E+01  0.2265057149944E+00  0.1616027184574E+00
-0.3334627222751E-01  0.1138558676035E+01  0.2210424840553E+00  0.1716996055671E+00
-0.3395414172498E-01  0.1111577788108E+01  0.2155247324882E+00  0.1821972500720E+00
-0.3430620793049E-01  0.1083709132443E+01  0.2098805880300E+00  0.1929826737921E+00
-0.3464054232540E-01  0.1054952677121E+01  0.2040624299999E+00  0.2040093445618E+00
-0.3506790024927E-01  0.1025274540937E+01  0.1980413310886E+00  0.2152739809044E+00
-0.3560592091397E-01  0.9946201098980E+00  0.1918028406549E+00  0.2267941568074E+00
-0.3619992024433E-01  0.9629193644472E+00  0.1853438916024E+00  0.2385891050572E+00
-0.3673548461162E-01  0.9300889946400E+00  0.1786707046681E+00  0.2506640751394E+00
-0.3704687679165E-01  0.8960315732323E+00  0.1717969418481E+00  0.2629991867768E+00
-0.3692552915154E-01  0.8606359509372E+00  0.1647420868120E+00  0.2755423666765E+00
-0.3613279455571E-01  0.8237821284991E+00  0.1575298691361E+00  0.2882047595390E+00
-0.3442024535654E-01  0.7853519999984E+00  0.1501863531663E+00  0.3008550445810E+00
-0.3155432340854E-01  0.7452482541085E+00  0.1427387882670E+00  0.3133037859097E+00
-0.2733117622873E-01  0.7034312064367E+00  0.1352200080565E+00  0.3252685794107E+00
-0.2156115192525E-01  0.6600154787903E+00  0.1276908672758E+00  0.3363113865574E+00
-0.1402760755228E-01  0.6152607252659E+00  0.1202466253345E+00  0.3457949794021E+00
-0.4444038070713E-02  0.5694157852182E+00  0.1129943511132E+00  0.3529081678835E+00
 0.7569944312904E-02  0.5226178991799E+00  0.1060375702787E+00  0.3567314887817E+00
 0.2247235881137E-01  0.4748770312237E+00  0.9946987948923E-01  0.3563201762011E+00
 0.4073452759353E-01  0.4261122849095E+00  0.9336936389193E-01  0.3507893931535E+00
 0.6273023394333E-01  0.3762082951103E+00  0.8778770711887E-01  0.3393971085184E+00
 0.8857480112937E-01  0.3250788309254E+00  0.8273072764373E-01  0.3216289978016E+00
 0.1178943099831E+00  0.2727547999924E+00  0.7812982315933E-01  0.2972845752170E+00
 0.1495046995846E+00  0.2194848084522E+00  0.7379790270703E-01  0.2665567461325E+00
 0.1809838572154E+00  0.1659508685154E+00  0.6938694618011E-01  0.2299915947501E+00
 0.2081852169068E+00  0.1137363512301E+00  0.6438431458678E-01  0.1880554185856E+00
 0.2251055613000E+00  0.6570205388706E-01  0.5816152390409E-01  0.1400728620661E+00
 0.2250424703534E+00  0.2552011079339E-01  0.5011251697610E-01  0.8259209854413E-01
 0.2040108521854E+00 -0.4423902905900E-02  0.3991739045072E-01  0.8260001541099E-02
 0.1656032568955E+00 -0.2632125810552E-01  0.2785640017309E-01 -0.9214605336798E-01
 0.1222491342774E+00 -0.4776816055466E-01  0.1489619496652E-01 -0.2228011106243E+00
 0.2375483804426E+00  0.1096169567489E+01  0.2667435935612E+00  0.1057425594639E-01
 0.1712876913822E+00  0.1121837226195E+01  0.2586249873693E+00  0.6227903907333E-01
 0.1099566918381E+00  0.1140408797123E+01  0.2500731015186E+00  0.9518025571597E-01
 0.5986739274500E-01  0.1148856193833E+01  0.2417447209179E+00  0.1145632010245E+00
 0.2295206871222E-01  0.1147175054214E+01  0.2340254280725E+00  0.1263649187308E+00
-0.2117537058024E-02  0.1137282846355E+01  0.2270330652425E+00  0.1350697373973E+00
-0.1805300929221E-01  0.1121572002001E+01  0.2207038018304E+00  0.1432074134832E+00
-0.2761266924835E-01  0.1102042960381E+01  0.2148860614285E+00  0.1518328007345E+00
-0.3302767632814E-01  0.1080067832363E+01  0.2094080343274E+00  0.1611909994036E+00
-0.3591086056924E-01  0.1056481108899E+01  0.2041140527074E+00  0.1711963607153E+00
-0.3735806483466E-01  0.1031749182924E+01  0.1988782265813E+00  0.1816865347133E+00
-0.3808340778814E-01  0.1006112072618E+01  0.1936057358509E+00  0.1925270722339E+00
-0.3853175770139E-01  0.9796772383984E+00  0.1882290989442E+00  0.2036396240259E+00
-0.3895906210921E-01  0.9524753367952E+00  0.1827032576597E+00  0.2149973707364E+00
-0.3948602528626E-01  0.9244913476880E+00  0.1770010671179E+00  0.2266088899069E+00
-0.4013273612612E-01  0.8956809481755E+00  0.1711096449596E+00  0.2384997010181E+00
-0.4084054640967E-01  0.8659782762019E+00  0.1650275484176E+00  0.2506952266280E+00
-0.4148600457462E-01  0.8352998132537E+00  0.1587627641016E+00  0.2632062495786E+00
-0.4189074244291E-01  0.8035451334543E+00  0.1523308804722E+00  0.2760180575638E+00
-0.4183129504304E-01  0.7705987672388E+00  0.1457534966110E+00  0.2890826504760E+00
-0.4105221084166E-01  0.7363360786800E+00  0.1390567756398E+00  0.3023120927859E+00
-0.3928443169426E-01  0.7006336144308E+00  0.1322698385183E+00  0.3155698672062E+00
-0.3626521806346E-01  0.6633849886448E+00  0.1254239559852E+00  0.3286532798130E+00
-0.3174779589668E-01  0.6245319976691E+00  0.1185568421211E+00  0.3412609525692E+00
-0.2548533815890E-01  0.5841535374187E+00  0.1117336415169E+00  0.3529390036061E+00
-0.1719778817967E-01  0.5424560866487E+00  0.1050516612592E+00  0.3630457946439E+00
-0.6543079913845E-02  0.4996269560838E+00  0.9861677670350E-01  0.3707775074451E+00
 0.6893420634469E-02  0.4557413846040E+00  0.9252696242646E-01  0.3752286358791E+00
 0.2357423266564E-01  0.4107513078091E+00  0.8686510938933E-01  0.3754684477190E+00
 0.4394136250686E-01  0.3645258479029E+00  0.8169344329928E-01  0.3706213095083E+00
 0.6830260645096E-01  0.3169157388073E+00  0.7704367019969E-01  0.3599453307322E+00
 0.9666795446364E-01  0.2678314750050E+00  0.7289988698003E-01  0.3429083870496E+00
 0.1285222782378E+00  0.2173500009235E+00  0.6917445686305E-01  0.3192523035288E+00
 0.1625322693209E+00  0.1658283337322E+00  0.6567212158922E-01  0.2890277639623E+00
 0.1962073965162E+00  0.1140952490337E+00  0.6206053003475E-01  0.2524922667963E+00
 0.2256050380245E+00  0.6380318434666E-01  0.5788164533674E-01  0.2096498421960E+00
 0.2454628743057E+00  0.1758023523622E-01  0.5260862269231E-01  0.1593271848723E+00
 0.2504423572822E+00 -0.2161430206735E-01  0.4576561172494E-01  0.9800901420965E-01
 0.2379038631499E+00 -0.5229354488466E-01  0.3712206420622E-01  0.1939772186942E-01
 0.2110931527553E+00 -0.7663880327959E-01  0.2689087029584E-01 -0.8351360568401E-01
 0.1791131040317E+00 -0.1003856714773E+00  0.1574548674550E-01 -0.2132218689853E+00
 0.2138019428645E+00  0.9844030370485E+00  0.2396409995535E+00  0.6487386375149E-03
 0.1548365783337E+00  0.1007306582432E+01  0.2324286356166E+00  0.5399704622264E-01
 0.9951237371883E-01  0.1024291469126E+01  0.2247607719182E+00  0.9015256633663E-01
 0.5338510666147E-01  0.1032579507576E+01  0.2171929260840E+00  0.1133404013772E+00
 0.1853654663558E-01  0.1031828550346E+01  0.2100730225266E+00  0.1285644512259E+00
-0.5746788132111E-02  0.1023412321727E+01  0.2035331097520E+00  0.1398810414965E+00
-0.2156375952205E-01  0.1009305084091E+01  0.1975482678574E+00  0.1498186828414E+00
-0.3126424116285E-01  0.9913078639228E+00  0.1920087274132E+00  0.1596228424453E+00
-0.3687245687192E-01  0.9707545868205E+00  0.1867764287729E+00  0.1697501140647E+00
-0.3992371095833E-01  0.9485185290453E+00  0.1817189663252E+00  0.1802786595496E+00
-0.4150061339823E-01  0.9251257065131E+00  0.1767250212564E+00  0.1911548990044E+00
-0.4232875825872E-01  0.9008710187526E+00  0.1717084546574E+00  0.2023115600418E+00
-0.4286964738103E-01  0.8759043008844E+00  0.1666069331833E+00  0.2137107019214E+00
-0.4339275859317E-01  0.8502858941136E+00  0.1613786295088E+00  0.2253499991430E+00
-0.4402639806743E-01  0.8240199513627E+00  0.1559987129836E+00  0.2372535186538E+00
-0.4479189921218E-01  0.7970732565195E+00  0.1504562737034E+00  0.2494574043294E+00
-0.4562607723638E-01  0.7693850710549E+00  0.1447518009207E+00  0.2619952262533E+00
-0.4639615815802E-01  0.7408726427821E+00  0.1388952989945E+00  0.2748846795459E+00
-0.4691080359348E-01  0.7114334028919E+00  0.1329045218401E+00  0.2881170603913E+00
-0.4693081297501E-01  0.6809480082749E+00  0.1268034409495E+00  0.3016488017280E+00
-0.4618214018482E-01  0.6492867253907E+00  0.1206209188386E+00  0.3153930914234E+00
-0.4437231399922E-01  0.6163189372809E+00  0.1143893263609E+00  0.3292090461089E+00
-0.4120652831414E-01  0.5819261363468E+00  0.1081439232180E+00  0.3428831439529E+00
-0.3639377417182E-01  0.5460282880075E+00  0.1019269042860E+00  0.3560993459815E+00
-0.2963152529120E-01  0.5086663471162E+00  0.9580696579263E-01  0.3683930155384E+00
-0.2058001853761E-01  0.4699933176065E+00  0.8988266115313E-01  0.3791222569686E+00
-0.8845597487542E-02  0.4301367399401E+00  0.8425822974607E-01  0.3874929328514E+00
 0.6018102625232E-02  0.3891139072977E+00  0.7902640316217E-01  0.3926139564982E+00
 0.2447761283537E-01  0.3468257082449E+00  0.7426066532263E-01  0.3935671674108E+00
 0.4694722313559E-01  0.3031016243853E+00  0.7000977054740E-01  0.3894816711169E+00
 0.7367350563863E-01  0.2577713204511E+00  0.6628896620572E-01  0.3796061126910E+00
 0.1045726918360E+00  0.2107537879235E+00  0.6306529689165E-01  0.3633736668170E+00
 0.1390138318059E+00  0.1621749185366E+00  0.6023775096611E-01  0.3404447272529E+00
 0.1755617452168E+00  0.1124813317288E+00  0.5760861624756E-01  0.3107056192800E+00
 0.2117257053608E+00  0.6259506194912E-01  0.5486415427952E-01  0.2741293491143E+00
 0.2438199722556E+00  0.1415711767159E-01  0.5159541875426E-01  0.2303303707677E+00
 0.2672599614207E+00 -0.3047861614221E-01  0.4735626976136E-01  0.1778041536149E+00
 0.2777648760406E+00 -0.6894543240537E-01  0.4176388934939E-01  0.1131520183711E+00
 0.2735487406283E+00 -0.1003619456522E+00  0.3463735951137E-01  0.3106472361329E-01
 0.2573157805224E+00 -0.1267611969164E+00  0.2611091711028E-01 -0.7382447607062E-01
 0.2355157155076E+00 -0.1524010190312E+00  0.1662293954297E-01 -0.2030365055680E+00
 0.1898786372929E+00  0.8736302165334E+00  0.2127017739348E+00 -0.8126758776735E-02
 0.1375193190201E+00  0.8939878427402E+00  0.2063014354262E+00  0.4657801342811E-01
 0.8779478156976E-01  0.9093820635877E+00  0.1994353720033E+00  0.8548605933181E-01
 0.4559081442321E-01  0.9172908767852E+00  0.1925763411113E+00  0.1119958665548E+00
 0.1302028074794E-01  0.9171626193004E+00  0.1860365827818E+00  0.1303300794432E+00
-0.1018560486903E-01  0.9099539413687E+00  0.1799536699815E+00  0.1441265913780E+00
-0.2562442566376E-01  0.8972766574185E+00  0.1743304489487E+00  0.1558458511971E+00
-0.3527636811441E-01  0.8807275272979E+00  0.1690902343563E+00  0.1668542653840E+00
-0.4095506721580E-01  0.8615735045109E+00  0.1641236899046E+00  0.1777772324828E+00
-0.4410093944848E-01  0.8406987823427E+00  0.1593195709529E+00  0.1888391643825E+00
-0.4576662172729E-01  0.8186701123063E+00  0.1545807004192E+00  0.2000920337449E+00
-0.4667707979878E-01  0.7958266869072E+00  0.1498299236543E+00  0.2115384320380E+00
-0.4730270204247E-01  0.7723556054407E+00  0.1450105828405E+00  0.2231850405102E+00
-0.4792184339581E-01  0.7483448851317E+00  0.1400846104346E+00  0.2350580189855E+00
-0.4866773471810E-01  0.7238174367019E+00  0.1350299424089E+00  0.2472001928233E+00
-0.4956147586845E-01  0.6987514891325E+00  0.1298380045876E+00  0.2596608600420E+00
-0.5053455575340E-01  0.6730920900327E+00  0.1245115087112E+00  0.2724836420573E+00
-0.5144440249203E-01  0.6467580101993E+00  0.1190627233156E+00  0.2856945253728E+00
-0.5208619008336E-01  0.6196451851888E+00  0.1135118007125E+00  0.2992917365794E+00
-0.5220403133101E-01  0.5916306347722E+00  0.1078853222958E+00  0.3132367379722E+00
-0.5150358823436E-01  0.5625789626250E+00  0.1022150764013E+00  0.3274444774945E+00
-0.4966662877194E-01  0.5323507781025E+00  0.9653683130462E-01  0.3417710515049E+00
-0.4636409395536E-01  0.5008130596014E+00  0.9088979448357E-01  0.3559948443855E+00
-0.4126000577003E-01  0.4678616383771E+00  0.8532032779278E-01  0.3697893031369E+00
-0.3399766492668E-01  0.4334983908194E+00  0.7990014636915E-01  0.3826835254475E+00
-0.2418079344002E-01  0.3978234372696E+00  0.7472852987946E-01  0.3940387275231E+00
-0.1136732393735E-01  0.3609068388602E+00  0.6990790402628E-01  0.4030719173594E+00
 0.4919203080547E-02  0.3227119351027E+00  0.6552622861307E-01  0.4089059002908E+00
 0.2514997066440E-01  0.2830945058971E+00  0.6164889623095E-01  0.4106324551060E+00
 0.4971489079957E-01  0.2418522595910E+00  0.5831343094705E-01  0.4073799001397E+00
 0.7880661239119E-01  0.1988023343505E+00  0.5552179017567E-01  0.3983776269112E+00
 0.1122620304383E+00  0.1538778405219E+00  0.5322797498521E-01  0.3830092696601E+00
 0.1493608182855E+00  0.1072495381168E+00  0.5132207204523E-01  0.3608362272804E+00
 0.1886078515098E+00  0.5943096749501E-01  0.4960776454018E-01  0.3315700168596E+00
 0.2275611547620E+00  0.1139139846808E-01  0.4779051135815E-01  0.2949167757458E+00
 0.2628105984838E+00 -0.3529107457047E-01  0.4550390546073E-01  0.2501746585972E+00
 0.2903609895071E+00 -0.7853892888302E-01  0.4236441275610E-01  0.1956354829872E+00
 0.3067220387932E+00 -0.1164490528781E+00  0.3805459775009E-01  0.1281125388277E+00
 0.3106201730113E+00 -0.1485080985822E+00  0.3242241536895E-01  0.4318863217725E-01
 0.3041991461516E+00 -0.1765841912084E+00  0.2552299136897E-01 -0.6327774211710E-01
 0.2917593119316E+00 -0.2038449962589E+00  0.1758286339655E-01 -0.1923576529206E+00
 0.1658183358357E+00  0.7637356132765E+00  0.1859107925927E+00 -0.1586096201585E-01
 0.1194805079846E+00  0.7817407080963E+00  0.1802442459020E+00  0.3997037404705E-01
 0.7498769488474E-01  0.7955654582124E+00  0.1741106332139E+00  0.8121660023930E-01
 0.3663487117097E-01  0.8029371670218E+00  0.1679144101407E+00  0.1106257994050E+00
 0.6489992358838E-02  0.8031838305094E+00  0.1619347669867E+00  0.1317682735479E+00
-0.1540092342752E-01  0.7969462426618E+00  0.1563090661760E+00  0.1478887336088E+00
-0.3023135012157E-01  0.7855290377129E+00  0.1510595397692E+00  0.1613379029035E+00
-0.3965472318647E-01  0.7703318208226E+00  0.1461354217048E+00  0.1735487490756E+00
-0.4527952781805E-01  0.7525371059317E+00  0.1414515177305E+00  0.1852767601970E+00
-0.4844086724198E-01  0.7330183103184E+00  0.1369154906555E+00  0.1968732727622E+00
-0.5014830184352E-01  0.7123660748499E+00  0.1324435565748E+00  0.2084896044524E+00
-0.5111547913234E-01  0.6909532876402E+00  0.1279675636084E+00  0.2201985122986E+00
-0.5181425064581E-01  0.6689985128462E+00  0.1234368542794E+00  0.2320540031559E+00
-0.5252709540563E-01  0.6466146834194E+00  0.1188175193733E+00  0.2441138624831E+00
-0.5338927611196E-01  0.6238424453591E+00  0.1140906355495E+00  0.2564424980810E+00
-0.5441996587759E-01  0.6006713788331E+00  0.1092502842191E+00  0.2691046726466E+00
-0.5554435035540E-01  0.5770526851608E+00  0.1043016685153E+00  0.2821558649945E+00
-0.5660942094121E-01  0.5529071985061E+00  0.9925955699207E-01  0.2956317167867E+00
-0.5739621484710E-01  0.5281298241455E+00  0.9414672326257E-01  0.3095383889521E+00
-0.5763116314599E-01  0.5025940445979E+00  0.8899257761647E-01  0.3238431889191E+00
-0.5699808739152E-01  0.4761582394464E+00  0.8383203166017E-01  0.3384638157397E+00
-0.5515105835522E-01  0.4486729171687E+00  0.7870437293547E-01  0.3532550568600E+00
-0.5172514196328E-01  0.4199887693915E+00  0.7365272658315E-01  0.3679900832729E+00
-0.4633905553570E-01  0.3899760236979E+00  0.6872739465655E-01  0.3823357351543E+00
-0.3858338233617E-01  0.3585971444589E+00  0.6400275337825E-01  0.3958187721991E+00
-0.2800796527948E-01  0.3259005317147E+00  0.5957851417484E-01  0.4078062211925E+00
-0.1412468897920E-01  0.2919012718396E+00  0.5555531739992E-01  0.4175270361230E+00
 0.3572287891998E-02  0.2565124187116E+00  0.5201694209582E-01  0.4241166927814E+00
 0.2556056187143E-01  0.2195494238975E+00  0.4902199788427E-01  0.4266735645189E+00
 0.5221052896143E-01  0.1807837616808E+00  0.4659885882283E-01  0.4243192147625E+00
 0.8367013139608E-01  0.1400248964332E+00  0.4473900623253E-01  0.4162545160765E+00
 0.1197129126449E+00  0.9722090469617E-01  0.4338676411473E-01  0.4018012924706E+00
 0.1595548376620E+00  0.5257897904710E-01  0.4242676397402E-01  0.3804101908559E+00
 0.2016755895426E+00  0.6656515626106E-02  0.4166642165462E-01  0.3516161582723E+00
 0.2437144518824E+00 -0.3956590885797E-01  0.4082970921330E-01  0.3148835404535E+00
 0.2825305283437E+00 -0.8460324894426E-01  0.3958545646975E-01  0.2692588365706E+00
 0.3146252134662E+00 -0.1266277348875E+00  0.3759949627602E-01  0.2129256885912E+00
 0.3370743880732E+00 -0.1640976586666E+00  0.3459534639683E-01  0.1429386173284E+00
 0.3488647894856E+00 -0.1966414492720E+00  0.3044466849637E-01  0.5566088095237E-01
 0.3516741419010E+00 -0.2259726489479E+00  0.2514029896525E-01 -0.5204097112552E-01
 0.3481056276059E+00 -0.2546988054355E+00  0.1868136471246E-01 -0.1812191593629E+00
 0.1416523570271E+00  0.6546228361262E+00  0.1592550410037E+00 -0.2264643445150E-01
 0.1008376419034E+00  0.6704459350023E+00  0.1542567176797E+00  0.3412509405488E-01
 0.6124649627049E-01  0.6827369481451E+00  0.1487966911004E+00  0.7736434988785E-01
 0.2665339240634E-01  0.6894589401582E+00  0.1432224686471E+00  0.1093033380426E+00
-0.9662032390923E-03  0.6898812808847E+00  0.1377830175823E+00  0.1329679950194E+00
-0.2135006796502E-01  0.6844088630265E+00  0.1326117609884E+00  0.1512427031146E+00
-0.3537035205588E-01  0.6740904381127E+00  0.1277440191149E+00  0.1663448721272E+00
-0.4439707049423E-01  0.6601426181561E+00  0.1231491113674E+00  0.1797329356036E+00
-0.4984507119476E-01  0.6436546488304E+00  0.1187619172968E+00  0.1922588555264E+00
-0.5293940006911E-01  0.6254731565288E+00  0.1145067529982E+00  0.2043814556194E+00
-0.5463692493306E-01  0.6061983115572E+00  0.1103122789686E+00  0.2163432774995E+00
-0.5563092588115E-01  0.5862266501543E+00  0.1061191464359E+00  0.2282856382053E+00
-0.5638786868536E-01  0.5658021182018E+00  0.1018828514215E+00  0.2403112037503E+00
-0.5718968364720E-01  0.5450592941929E+00  0.9757392356310E-01  0.2525116710676E+00
-0.5817066727852E-01  0.5240550573667E+00  0.9317687940607E-01  0.2649753612441E+00
-0.5934622069218E-01  0.5027898720004E+00  0.8868873158320E-01  0.2777845425710E+00
-0.6063410088007E-01  0.4812211898922E+00  0.8411741905587E-01  0.2910082238575E+00
-0.6187009536439E-01  0.4592722499736E+00  0.7948043210620E-01  0.3046930319662E+00
-0.6282036930202E-01  0.4368372451713E+00  0.7480337628851E-01  0.3188541354935E+00
-0.6319268631166E-01  0.4137861475444E+00  0.7011869329140E-01  0.3334656893162E+00
-0.6264765791107E-01  0.3899706294781E+00  0.6546459528891E-01  0.3484494091830E+00
-0.6081009411292E-01  0.3652300881778E+00  0.6088399972021E-01  0.3636607292801E+00
-0.5727800947285E-01  0.3393977175209E+00  0.5642394245039E-01  0.3788705258369E+00
-0.5162473913159E-01  0.3123173492816E+00  0.5213852280693E-01  0.3937426693613E+00
-0.4338944901952E-01  0.2839122883255E+00  0.4810456857801E-01  0.4078050079113E+00
-0.3207016754700E-01  0.2541807126831E+00  0.4442210968915E-01  0.4204325268959E+00
-0.1713428471197E-01  0.2230852271721E+00  0.4119018910581E-01  0.4308664349360E+00
 0.1953625515477E-02  0.1904917773035E+00  0.3848908113733E-01  0.4382532227542E+00
 0.2568038699420E-01  0.1561790791372E+00  0.3637189376827E-01  0.4416941824335E+00
 0.5440301016866E-01  0.1198958100112E+00  0.3485976455542E-01  0.4402981979854E+00
 0.8823525109794E-01  0.8144557217250E-01  0.3393616515978E-01  0.4332293460439E+00
 0.1269038477399E+00  0.4078879980762E-01  0.3353853000927E-01  0.4197380939666E+00
 0.1695845764295E+00 -0.1841653255121E-02  0.3354858513478E-01  0.3991574618375E+00
 0.2147597235189E+00 -0.4586557446857E-01  0.3377883031341E-01  0.3708502201551E+00
 0.2601672987697E+00 -0.9031785672240E-01  0.3396988891565E-01  0.3340655853750E+00
 0.3029190050402E+00 -0.1338178773478E+00  0.3382022604244E-01  0.2876549448023E+00
 0.3399077846121E+00 -0.1747586468018E+00  0.3302982805425E-01  0.2297483682480E+00
 0.3686419273772E+00 -0.2118376852684E+00  0.3136084888908E-01  0.1576723829568E+00
 0.3880827547829E+00 -0.2447972280392E+00  0.2865710577577E-01  0.6832872488456E-01
 0.3996520723983E+00 -0.2746734223650E+00  0.2499573037913E-01 -0.4030614111753E-01
 0.4047511030109E+00 -0.3048602067171E+00  0.1997817955646E-01 -0.1695427100838E+00
 0.1174055329373E+00  0.5462100098771E+00  0.1327231105406E+00 -0.2856226679118E-01
 0.8168719539671E-01  0.5600007066079E+00  0.1283375823133E+00  0.2899668520956E-01
 0.4670327645271E-01  0.5708015117006E+00  0.1235009594710E+00  0.7393891254617E-01
 0.1576886040866E-01  0.5767940856457E+00  0.1185125909768E+00  0.1080840292159E+00
-0.9261524877089E-02  0.5772319274321E+00  0.1135940822037E+00  0.1340032043857E+00
-0.2798405343563E-01  0.5723466427043E+00  0.1088725194761E+00  0.1542561255451E+00
-0.4101893266500E-01  0.5629768757365E+00  0.1043915901699E+00  0.1709159474259E+00
-0.4949418646171E-01  0.5501740451855E+00  0.1001359732369E+00  0.1854365228029E+00
-0.5464624357590E-01  0.5349315985336E+00  0.9605707242290E-01  0.1987380736159E+00
-0.5758977877318E-01  0.5180582565097E+00  0.9209369691961E-01  0.2113684652422E+00
-0.5922249379001E-01  0.5001519589433E+00  0.8818589434473E-01  0.2236523253497E+00
-0.6020996110654E-01  0.4816237570293E+00  0.8428276044046E-01  0.2357965019924E+00
-0.6100715331541E-01  0.4627369345884E+00  0.8034595745185E-01  0.2479524747865E+00
-0.6189100491139E-01  0.4436441524980E+00  0.7635063065503E-01  0.2602473255486E+00
-0.6299184331784E-01  0.4244166683985E+00  0.7228496609326E-01  0.2727951087136E+00
-0.6431936418672E-01  0.4050650576448E+00  0.6814913970711E-01  0.2856973369105E+00
-0.6578266550102E-01  0.3855528839252E+00  0.6395404463783E-01  0.2990380597795E+00
-0.6720547396728E-01  0.3658059608187E+00  0.5972009826019E-01  0.3128761654747E+00
-0.6833830380001E-01  0.3457179768662E+00  0.5547593543990E-01  0.3272369516549E+00
-0.6886931528756E-01  0.3251553995316E+00  0.5125721761260E-01  0.3421025685814E+00
-0.6843473243671E-01  0.3039628377254E+00  0.4710562175966E-01  0.3574002143956E+00
-0.6662887005699E-01  0.2819678905197E+00  0.4306780473429E-01  0.3729880748604E+00
-0.6301186148985E-01  0.2589855390304E+00  0.3919473609216E-01  0.3886376174407E+00
-0.5711173382757E-01  0.2348329703136E+00  0.3554424782685E-01  0.4040131087571E+00
-0.4841732489315E-01  0.2093949973553E+00  0.3219553497218E-01  0.4186464823237E+00
-0.3637634690943E-01  0.1826212369144E+00  0.2924897843683E-01  0.4319223991523E+00
-0.2041247099481E-01  0.1544241426722E+00  0.2680233473487E-01  0.4430942996903E+00
 0.4038634106412E-04  0.1246251466244E+00  0.2493310696462E-01  0.4513178250554E+00
 0.2548203437859E-01  0.9296867400114E-01  0.2369014202895E-01  0.4556934868978E+00
 0.5626322212673E-01  0.5918221457651E-01  0.2308908768470E-01  0.4553119615409E+00
 0.9247482740041E-01  0.2306292835821E-01  0.2310755149605E-01  0.4492935074451E+00
 0.1338130600469E+00 -0.1542133985373E-01  0.2367834439147E-01  0.4368102581629E+00
 0.1794344377622E+00 -0.5602361420376E-01  0.2468216507949E-01  0.4170746419045E+00
 0.2278443622120E+00 -0.9815904014361E-01  0.2593706480017E-01  0.3892850708381E+00
 0.2768885808843E+00 -0.1408957784999E+00  0.2719856088216E-01  0.3525020732743E+00
 0.3238988212870E+00 -0.1829600714524E+00  0.2818775038695E-01  0.3054236783110E+00
 0.3660943590910E+00 -0.2229236868328E+00  0.2863413487832E-01  0.2461712858533E+00
 0.4012027493995E+00 -0.2596641776005E+00  0.2830771478161E-01  0.1722899582756E+00
 0.4283693622747E+00 -0.2928590234442E+00  0.2710206816994E-01  0.8124600610262E-01
 0.4475305294021E+00 -0.3232700863322E+00  0.2485208898431E-01 -0.2882205577727E-01
 0.4629588213846E+00 -0.3522477225199E+00  0.2214222010288E-01 -0.1565877800516E+00
 0.9309857133198E-01  0.4384291032524E+00  0.1063055365009E+00 -0.3367375274496E-01
 0.6211197369184E-01  0.4503286298847E+00  0.1024881222425E+00  0.2454502096095E-01
 0.3147418270366E-01  0.4596945716083E+00  0.9823375232620E-01  0.7094493568264E-01
 0.4094834971133E-02  0.4649108184529E+00  0.9380113208254E-01  0.1070117068474E+00
-0.1830862130418E-01  0.4652440332970E+00  0.8938708373053E-01  0.1349363805862E+00
-0.3524664027237E-01  0.4608012474319E+00  0.8511092270015E-01  0.1569894647026E+00
-0.4714488978534E-01  0.4522507483741E+00  0.8102117292505E-01  0.1750976848182E+00
-0.5492757829022E-01  0.4404979078887E+00  0.7711406706878E-01  0.1906892722449E+00
-0.5966985619076E-01  0.4264422211472E+00  0.7335447408436E-01  0.2047297696513E+00
-0.6237900946221E-01  0.4108474142422E+00  0.6969368199452E-01  0.2178393283958E+00
-0.6388980764946E-01  0.3942999147292E+00  0.6608202240065E-01  0.2304152127416E+00
-0.6483444099049E-01  0.3772172467261E+00  0.6247656207809E-01  0.2427257874170E+00
-0.6565111700658E-01  0.3598762355062E+00  0.5884502457678E-01  0.2549705185973E+00
-0.6660766167134E-01  0.3424439157872E+00  0.5516725164522E-01  0.2673125879891E+00
-0.6782751182023E-01  0.3250037959679E+00  0.5143525759597E-01  0.2798930786760E+00
-0.6931269990447E-01  0.3075755143520E+00  0.4765256359958E-01  0.2928341450759E+00
-0.7096238178000E-01  0.2901283768584E+00  0.4383319966885E-01  0.3062361827899E+00
-0.7258733045446E-01  0.2725907670465E+00  0.4000068791448E-01  0.3201715186220E+00
-0.7392164806923E-01  0.2548559712221E+00  0.3618686516981E-01  0.3346766985263E+00
-0.7463306939138E-01  0.2367869510741E+00  0.3243077681980E-01  0.3497430929249E+00
-0.7433249680905E-01  0.2182210313769E+00  0.2877770734239E-01  0.3653049579673E+00
-0.7258286742266E-01  0.1989736304866E+00  0.2527815298945E-01  0.3812253889025E+00
-0.6890595664990E-01  0.1788412364567E+00  0.2198705628900E-01  0.3972792316080E+00
-0.6278474137744E-01  0.1576145972583E+00  0.1896597145879E-01  0.4131342340039E+00
-0.5365870817796E-01  0.1351410398128E+00  0.1629646656980E-01  0.4283290275788E+00
-0.4092635408904E-01  0.1113233951722E+00  0.1407940842643E-01  0.4422593107662E+00
-0.2396783102207E-01  0.8602612765300E-01  0.1241165951113E-01  0.4541905013337E+00
-0.2184668253026E-02  0.5902822654640E-01  0.1136871182808E-01  0.4632854676683E+00
 0.2494038066358E-01  0.3004129696632E-01  0.1099633568984E-01  0.4686404415790E+00
 0.5775957847232E-01 -0.1228205914759E-02  0.1130627467999E-01  0.4693230303416E+00
 0.9635251130541E-01 -0.3499188688142E-01  0.1227212506767E-01  0.4644041042953E+00
 0.1404003727053E+00 -0.7128079819611E-01  0.1382391510782E-01  0.4529729643664E+00
 0.1890581907300E+00 -0.1098451567868E+00  0.1584260702473E-01  0.4341215918113E+00
 0.2408696081981E+00 -0.1501101038223E+00  0.1815190114564E-01  0.4068941083772E+00
 0.2937867120611E+00 -0.1911884043978E+00  0.2051966183843E-01  0.3701859087692E+00
 0.3453357599485E+00 -0.2319062926260E+00  0.2268589380255E-01  0.3225754917663E+00
 0.3929623127634E+00 -0.2709821480001E+00  0.2439603331619E-01  0.2621911681154E+00
 0.4346240761686E+00 -0.3073975321261E+00  0.2544530918767E-01  0.1867854867813E+00
 0.4690954393733E+00 -0.3407760543074E+00  0.2566387739560E-01  0.9417236626969E-01
 0.4970944394524E+00 -0.3714099104385E+00  0.2513690617733E-01 -0.1708059971784E-01
 0.5154598321246E+00 -0.3992712195676E+00  0.2323772285767E-01 -0.1460846282738E+00
 0.6874731461875E-01  0.3312174240024E+00  0.7999294891622E-01 -0.3804459282394E-01
 0.4217877754873E-01  0.3413504685875E+00  0.7670585037026E-01  0.2072947171076E-01
 0.1565621497837E-01  0.3493369493992E+00  0.7299863396328E-01  0.6837730011192E-01
-0.8269888544390E-02  0.3537471232165E+00  0.6909544796403E-01  0.1061150160337E+00
-0.2802717684708E-01  0.3538804174938E+00  0.6517064910046E-01  0.1358151361789E+00
-0.4308235882516E-01  0.3497570915678E+00  0.6133494746248E-01  0.1594927422113E+00
-0.5371377069862E-01  0.3419090177311E+00  0.5763905026538E-01  0.1789316317854E+00
-0.6067618755361E-01  0.3311145688850E+00  0.5408767707225E-01  0.1955203557840E+00
-0.6490126310336E-01  0.3181840027217E+00  0.5065654867850E-01  0.2102515784982E+00
-0.6729416593293E-01  0.3038321456843E+00  0.4730759665522E-01  0.2238029886839E+00
-0.6862516778834E-01  0.2886268861501E+00  0.4400034432802E-01  0.2366352428025E+00
-0.6948891626405E-01  0.2729853723764E+00  0.4069929182893E-01  0.2490736270110E+00
-0.7030243355367E-01  0.2571926211636E+00  0.3737803807896E-01  0.2613640237169E+00
-0.7132072493355E-01  0.2414263764441E+00  0.3402113080907E-01  0.2737057874181E+00
-0.7265756155327E-01  0.2257801461177E+00  0.3062451736922E-01  0.2862678483591E+00
-0.7430537911369E-01  0.2102814197648E+00  0.2719520853546E-01  0.2991940756332E+00
-0.7615208911219E-01  0.1949047306184E+00  0.2375052865515E-01  0.3126023150136E+00
-0.7799460197290E-01  0.1795809265410E+00  0.2031726521636E-01  0.3265794113671E+00
-0.7954987229693E-01  0.1642029563432E+00  0.1693061706154E-01  0.3411742663662E+00
-0.8046448838477E-01  0.1486303281690E+00  0.1363316816001E-01  0.3563887484840E+00
-0.8032328709137E-01  0.1326930352229E+00  0.1047394978237E-01  0.3721658150496E+00
-0.7865719234162E-01  0.1161942290162E+00  0.7507407446783E-02  0.3883756368612E+00
-0.7494934549630E-01  0.9891199340572E-01  0.4792529653297E-02  0.4047991076985E+00
-0.6863795002604E-01  0.8061117926975E-01  0.2394645884425E-02  0.4211102947100E+00
-0.5911386312912E-01  0.6110281916137E-01  0.3977912123770E-03  0.4368568427937E+00
-0.4572695297528E-01  0.4024468742595E-01 -0.1096453126204E-02  0.4514466231094E+00
-0.2781338959207E-01  0.1785510846125E-01 -0.1991656255842E-02  0.4641567105772E+00
-0.4739890005358E-02 -0.6327910922757E-02 -0.2213560218607E-02  0.4741554165432E+00
 0.2403332050168E-01 -0.3262505775017E-01 -0.1718347475303E-02  0.4805315969504E+00
 0.5886823580814E-01 -0.6135199366833E-01 -0.4967515794388E-03  0.4823257267713E+00
 0.9984468000030E-01 -0.9273268195720E-01  0.1422399629814E-02  0.4785550719332E+00
 0.1466431389210E+00 -0.1268040913886E+00  0.3967809565612E-02  0.4682234934890E+00
 0.1984321514226E+00 -0.1633240963239E+00  0.7021611124371E-02  0.4503045408900E+00
 0.2538032173458E+00 -0.2017394020678E+00  0.1041276321076E-01  0.4236983048436E+00
 0.3108114163211E+00 -0.2412131419697E+00  0.1391965507770E-01  0.3871549489323E+00
 0.3671396657327E+00 -0.2806628325371E+00  0.1729536689685E-01  0.3391567218776E+00
 0.4204251169882E+00 -0.3189185200400E+00  0.2030131969217E-01  0.2778459751350E+00
 0.4686618155822E+00 -0.3550332911482E+00  0.2272570522544E-01  0.2011512828220E+00
 0.5107612913993E+00 -0.3885215561600E+00  0.2444794741215E-01  0.1071056186625E+00
 0.5458571734288E+00 -0.4194036164318E+00  0.2529071177627E-01 -0.5252083350037E-02
 0.5754420310679E+00 -0.4465228051707E+00  0.2578384556365E-01 -0.1373919050774E+00
 0.4436366272924E-01  0.2245165559898E+00  0.5377604454513E-01 -0.4172264141635E-01
 0.2194156795059E-01  0.2329829891442E+00  0.5098491217868E-01  0.1751722541991E-01
-0.6696684041236E-03  0.2396347342972E+00  0.4779301389078E-01  0.6623276858539E-01
-0.2124018369248E-01  0.2432122080366E+00  0.4439440553035E-01  0.1054198337354E+00
-0.3834513329967E-01  0.2430609006356E+00  0.4094315407729E-01  0.1366838801424E+00
-0.5143914131735E-01  0.2391436863058E+00  0.3754090955709E-01  0.1618156529913E+00
-0.6069186653574E-01  0.2318847279715E+00  0.3423857279735E-01  0.1824630640493E+00
-0.6671913499015E-01  0.2219535110726E+00  0.3104687567912E-01  0.1999662430495E+00
-0.7032667808865E-01  0.2100775094651E+00  0.2795016669178E-01  0.2153308801048E+00
-0.7232432183945E-01  0.1969211663305E+00  0.2491936926953E-01  0.2292795405633E+00
-0.7341802092369E-01  0.1830287573441E+00  0.2192214761074E-01  0.2423275706533E+00
-0.7416206496419E-01  0.1688113948269E+00  0.1892986625462E-01  0.2548523190865E+00
-0.7494871068026E-01  0.1545575029696E+00  0.1592175869512E-01  0.2671439836751E+00
-0.7601687993920E-01  0.1404520563010E+00  0.1288703546440E-01  0.2794376413870E+00
-0.7746810863617E-01  0.1265963126796E+00  0.9825640955104E-02  0.2919304707642E+00
-0.7928337712889E-01  0.1130243389144E+00  0.6748192457665E-02  0.3047888326968E+00
-0.8133806823062E-01  0.9971531772748E-01  0.3675449954141E-02  0.3181489418956E+00
-0.8341433009242E-01  0.8660242548246E-01  0.6376190875096E-03  0.3321131504224E+00
-0.8521126926434E-01  0.7357836426463E-01 -0.2326581034610E-02  0.3467438128063E+00
-0.8635369166144E-01  0.6049934610061E-01 -0.5170869189218E-02  0.3620546168152E+00
-0.8639976251009E-01  0.4718818552483E-01 -0.7842315513912E-02  0.3779989167584E+00
-0.8484790551742E-01  0.3343596489869E-01 -0.1028238827697E-01  0.3944561279089E+00
-0.8114241917464E-01  0.1900276340908E-01 -0.1242793133830E-01  0.4112157713315E+00
-0.7467688373985E-01  0.3628318230181E-02 -0.1420971331367E-01  0.4279608996891E+00
-0.6479386371601E-01 -0.1291137693736E-01 -0.1554104836225E-01  0.4442503127061E+00
-0.5079457447953E-01 -0.3080204805987E-01 -0.1631932475106E-01  0.4595051165929E+00
-0.3197000813324E-01 -0.5027007637405E-01 -0.1644801714655E-01  0.4730138208843E+00
-0.7648903821569E-02 -0.7161763220674E-01 -0.1585330744189E-01  0.4839486935158E+00
 0.2273676841076E-01 -0.9519804877212E-01 -0.1449225628822E-01  0.4913886457208E+00
 0.5956732884716E-01 -0.1213512070092E+00 -0.1235677581654E-01  0.4943437683103E+00
 0.1029341888403E+00 -0.1503179173970E+00 -0.9476745852546E-02  0.4917746314094E+00
 0.1525303367376E+00 -0.1821483292767E+00 -0.5923598596100E-02  0.4825983128782E+00
 0.2075502027789E+00 -0.2166174194757E+00 -0.1813443366395E-02  0.4656727086161E+00
 0.2666400090734E+00 -0.2532022342155E+00  0.2687555011627E-02  0.4397630350200E+00
 0.3279490750835E+00 -0.2911190505146E+00  0.7366005023550E-02  0.4034898644886E+00
 0.3892936211061E+00 -0.3293650971600E+00  0.1198570496781E-01  0.3552532498531E+00
 0.4484277650537E+00 -0.3668589660316E+00  0.1631376004751E-01  0.2932142789843E+00
 0.5034299192260E+00 -0.4026821232847E+00  0.2014955948851E-01  0.2154173309872E+00
 0.5529238447113E+00 -0.4363019401491E+00  0.2332438126000E-01  0.1201715941403E+00
 0.5962395913644E+00 -0.4672943400449E+00  0.2578905064818E-01  0.6229822546937E-02
 0.6340286803717E+00 -0.4958455062649E+00  0.2763663523317E-01 -0.1268697602388E+00
 0.1995790937968E-01  0.1182761139624E+00  0.2764680508038E-01 -0.4475107339740E-01
 0.1448455624103E-02  0.1251630729633E+00  0.2532230609481E-01  0.1487852054859E-01
-0.1743049106388E-01  0.1305216646305E+00  0.2261823505035E-01  0.6450543462970E-01
-0.3473657173668E-01  0.1332483866343E+00  0.1970236327311E-01  0.1049448581853E+00
-0.4919168988023E-01  0.1327432192594E+00  0.1671030612484E-01  0.1375778463700E+00
-0.6026194838661E-01  0.1289344234316E+00  0.1373449521365E-01  0.1639991386208E+00
-0.6803982681775E-01  0.1221624776899E+00  0.1082453033573E-01  0.1857299908029E+00
-0.7302885552922E-01  0.1130046779661E+00  0.7995164606513E-02  0.2040574907552E+00
-0.7592564650021E-01  0.1021130932136E+00  0.5237489420714E-02  0.2199898139650E+00
-0.7745234118906E-01  0.9010208058935E-01  0.2529947917757E-02  0.2342838175159E+00
-0.7825209011963E-01  0.7748885096790E-01 -0.1526478326192E-03  0.2475015959636E+00
-0.7883715656881E-01  0.6467390694002E-01 -0.2832649967968E-02  0.2600676695118E+00
-0.7957223232084E-01  0.5194486996655E-01 -0.5525472553193E-02  0.2723140780869E+00
-0.8067734928215E-01  0.3949069075416E-01 -0.8237331828343E-02  0.2845107272702E+00
-0.8223947481937E-01  0.2741816110904E-01 -0.1096426290545E-01  0.2968830516136E+00
-0.8422638773160E-01  0.1576660520219E-01 -0.1369195670991E-01  0.3096203761340E+00
-0.8649971609858E-01  0.4519218931950E-02 -0.1639609967765E-01  0.3228779904535E+00
-0.8882599850334E-01 -0.6388660601955E-02 -0.1904293210482E-01  0.3367746138917E+00
-0.9088587360227E-01 -0.1706446572325E-01 -0.2159006818682E-01  0.3513870913912E+00
-0.9228185889070E-01 -0.2765502670185E-01 -0.2398737747595E-01  0.3667422370365E+00
-0.9254501922829E-01 -0.3834437310000E-01 -0.2617787885574E-01  0.3828054911620E+00
-0.9114097778227E-01 -0.4935304206163E-01 -0.2809880438748E-01  0.3994676390591E+00
-0.8747510167567E-01 -0.6093828748229E-01 -0.2968267827390E-01  0.4165293017539E+00
-0.8089646545717E-01 -0.7338448839425E-01 -0.3085619123008E-01  0.4336850311427E+00
-0.7069944367827E-01 -0.8694936001458E-01 -0.3152976120840E-01  0.4505067921440E+00
-0.5613616405479E-01 -0.1018606828877E+00 -0.3159936985937E-01  0.4664299649487E+00
-0.3645073686100E-01 -0.1183884130269E+00 -0.3096783043903E-01  0.4807544189834E+00
-0.1093024746876E-01 -0.1368745833544E+00 -0.2956096660512E-01  0.4926552460475E+00
 0.2102772892609E-01 -0.1577061789095E+00 -0.2733569040402E-01  0.5011994307619E+00
 0.5983059918231E-01 -0.1812501160681E+00 -0.2428390373901E-01  0.5053642762165E+00
 0.1055924010395E+00 -0.2077690712182E+00 -0.2043533434026E-01  0.5040516440580E+00
 0.1580306855877E+00 -0.2373335857092E+00 -0.1586058026065E-01  0.4960915730222E+00
 0.2163762320036E+00 -0.2697440688308E+00 -0.1067356752448E-01  0.4802295335964E+00
 0.2793336827111E+00 -0.3045146063302E+00 -0.5036184798869E-02  0.4551039723824E+00
 0.3451388622238E+00 -0.3409146331845E+00  0.8448458204524E-03  0.4192171829464E+00
 0.4117107001732E+00 -0.3780110353818E+00  0.6739933058725E-02  0.3708974472645E+00
 0.4768945812519E+00 -0.4147853901043E+00  0.1242183841461E-01  0.3083126346846E+00
 0.5387584551308E+00 -0.4503448920516E+00  0.1768271287931E-01  0.2296214253745E+00
 0.5958201083119E+00 -0.4840412619752E+00  0.2235576960048E-01  0.1332363328901E+00
 0.6472672994189E+00 -0.5155159794838E+00  0.2635026437968E-01  0.1805565494832E-01
 0.6928963178594E+00 -0.5449240835314E+00  0.2959444730661E-01 -0.1158664797767E+00
-0.4461621857435E-02  0.1245025737274E-01  0.1597727126869E-02 -0.4716703566870E-01
-0.1925930090086E-01  0.1783321419510E-01 -0.2852173454021E-03  0.1278712289897E-01
-0.3456228624005E-01  0.2193655545395E-01 -0.2525146194846E-02  0.6318880435891E-01
-0.4868738148330E-01  0.2380026346559E-01 -0.4977423677711E-02  0.1047045414573E+00
-0.6050045855749E-01  0.2288407358445E-01 -0.7523277106714E-02  0.1385265947075E+00
-0.6949663104056E-01  0.1909920292759E-01 -0.1007948577279E-01  0.1660791652533E+00
-0.7571676807443E-01  0.1272243295852E-01 -0.1259886721092E-01  0.1887672868941E+00
-0.7957519009027E-01  0.4253928265731E-02 -0.1506425258938E-01  0.2078234653876E+00
-0.8167506847361E-01 -0.5721934261159E-02 -0.1747940080742E-01  0.2242508008304E+00
-0.8265891447697E-01 -0.1663934133374E-01 -0.1985965145807E-01  0.2388318084496E+00
-0.8310954704721E-01 -0.2801029255253E-01 -0.2222396825111E-01  0.2521682710004E+00
-0.8349647659398E-01 -0.3944849856647E-01 -0.2458899539850E-01  0.2647271380684E+00
-0.8415473177247E-01 -0.5067077609623E-01 -0.2696510197555E-01  0.2768795950685E+00
-0.8528309434776E-01 -0.6148718083270E-01 -0.2935405547350E-01  0.2889291328372E+00
-0.8695188638089E-01 -0.7178751369012E-01 -0.3174788048728E-01  0.3011291038384E+00
-0.8911408074261E-01 -0.8152850995901E-01 -0.3412851864888E-01  0.3136919815132E+00
-0.9161641311370E-01 -0.9072361602474E-01 -0.3646800637110E-01  0.3267926216169E+00
-0.9420904481220E-01 -0.9943550225563E-01 -0.3872890999067E-01  0.3405668276175E+00
-0.9655362852862E-01 -0.1077715771085E+00 -0.4086504173635E-01  0.3551068893946E+00
-0.9823002751391E-01 -0.1158813482254E+00 -0.4282227578596E-01  0.3704540100092E+00
-0.9874195031936E-01 -0.1239551732185E+00 -0.4453942537126E-01  0.3865873678952E+00
-0.9752208811255E-01 -0.1322245255354E+00 -0.4594932341428E-01  0.4034111820713E+00
-0.9393688858724E-01 -0.1409630815331E+00 -0.4697999472413E-01  0.4207395455936E+00
-0.8729100147902E-01 -0.1504781610395E+00 -0.4755383321232E-01  0.4382809074060E+00
-0.7683050591632E-01 -0.1610598077780E+00 -0.4757806344784E-01  0.4556223382258E+00
-0.6175765226017E-01 -0.1729765227343E+00 -0.4694683569845E-01  0.4722145813088E+00
-0.4126753488309E-01 -0.1865409778297E+00 -0.4556170322148E-01  0.4873690153627E+00
-0.1460149076145E-01 -0.2021351688797E+00 -0.4334733257416E-01  0.5002628475563E+00
 0.1888374817072E-01 -0.2201812545506E+00 -0.4025950187590E-01  0.5099497870634E+00
 0.5963150327367E-01 -0.2410765141707E+00 -0.3628900272016E-01  0.5153727729066E+00
 0.1077891026593E+00 -0.2651108049320E+00 -0.3146434092339E-01  0.5153738788128E+00
 0.1631097517654E+00 -0.2923820352175E+00 -0.2585445707567E-01  0.5086966026831E+00
 0.2248692974826E+00 -0.3227233910087E+00 -0.1957081899685E-01  0.4939772850246E+00
 0.2918332215230E+00 -0.3556909338087E+00 -0.1277154264746E-01  0.4697341006840E+00
 0.3623140843048E+00 -0.3906062702388E+00 -0.5658437271100E-02  0.4343595071366E+00
 0.4343120540963E+00 -0.4265947389242E+00  0.1543463057432E-02  0.3861130289016E+00
 0.5057239038161E+00 -0.4626866339078E+00  0.8607454109922E-02  0.3231655200880E+00
 0.5745913142876E+00 -0.4979865711099E+00  0.1532094886384E-01  0.2437493687424E+00
 0.6393201156310E+00 -0.5317981830399E+00  0.2150438683866E-01  0.1463832159605E+00
 0.6988312262328E+00 -0.5637405820387E+00  0.2701812924141E-01  0.3016867727832E-01
 0.7522048409413E+00 -0.5937010510364E+00  0.3170075845335E-01 -0.1046277786178E+00
-0.2888821821646E-01 -0.9300319093250E-01 -0.2437828219306E-01 -0.4900235975509E-01
-0.4014604806991E-01 -0.8905933280940E-01 -0.2584107656092E-01  0.1122012163852E-01
-0.5200864075141E-01 -0.8617743142193E-01 -0.2763721484649E-01  0.6227635293241E-01
-0.6302774547137E-01 -0.8518524022912E-01 -0.2964259758181E-01  0.1047102309113E+00
-0.7220926697896E-01 -0.8656019807808E-01 -0.3175389348458E-01  0.1395551032634E+00
-0.7909033357209E-01 -0.9039457278313E-01 -0.3389698177615E-01  0.1680873842565E+00
-0.8368092230009E-01 -0.9645874236914E-01 -0.3602793347070E-01  0.1916068388900E+00
-0.8632598713143E-01 -0.1043163125724E+00 -0.3812846050892E-01  0.2112921244898E+00
-0.8754962427921E-01 -0.1134429616746E+00 -0.4019851778977E-01  0.2281361618706E+00
-0.8792280061080E-01 -0.1233190641436E+00 -0.4224837358043E-01  0.2429402673174E+00
-0.8797111872930E-01 -0.1334869596814E+00 -0.4429161634214E-01  0.2563397788790E+00
-0.8812135341293E-01 -0.1435773400911E+00 -0.4633973939132E-01  0.2688396081002E+00
-0.8867738022970E-01 -0.1533145499221E+00 -0.4839838675155E-01  0.2808472861168E+00
-0.8981479039510E-01 -0.1625103387925E+00 -0.5046502658951E-01  0.2926983799789E+00
-0.9158544743521E-01 -0.1710530976085E+00 -0.5252770979146E-01  0.3046735229233E+00
-0.9392607654913E-01 -0.1788968948503E+00 -0.5456459509296E-01  0.3170082521908E+00
-0.9666749622628E-01 -0.1860524593012E+00 -0.5654399194807E-01  0.3298972668160E+00
-0.9954282554475E-01 -0.1925806093933E+00 -0.5842468785820E-01  0.3434940163725E+00
-0.1021943328549E+00 -0.1985885045512E+00 -0.6015656837762E-01  0.3579070865167E+00
-0.1041790103810E+00 -0.2042278423717E+00 -0.6168137146966E-01  0.3731932618466E+00
-0.1049731246354E+00 -0.2096946124804E+00 -0.6293354836096E-01  0.3893470499674E+00
-0.1039764610699E+00 -0.2152303231583E+00 -0.6384135779695E-01  0.4062880932808E+00
-0.1005166509823E+00 -0.2211239478488E+00 -0.6432812072479E-01  0.4238462377077E+00
-0.9385397042675E-01 -0.2277044164178E+00 -0.6431167832722E-01  0.4417461456389E+00
-0.8318592260332E-01 -0.2352926787146E+00 -0.6369572121273E-01  0.4595919183608E+00
-0.6766379523210E-01 -0.2441967189179E+00 -0.6237210375941E-01  0.4768508639052E+00
-0.4643117938080E-01 -0.2547712933683E+00 -0.6024049544747E-01  0.4928463051828E+00
-0.1867923581387E-01 -0.2674387939976E+00 -0.5722360681499E-01  0.5067573314491E+00
 0.1628282025537E-01 -0.2826584647989E+00 -0.5327512970256E-01  0.5176236828760E+00
 0.5894305420023E-01 -0.3008616228188E+00 -0.4838371444468E-01  0.5243531464990E+00
 0.1094923952070E+00 -0.3223707493865E+00 -0.4257567147033E-01  0.5257277159515E+00
 0.1677299536490E+00 -0.3473177967764E+00 -0.3591756916069E-01  0.5204053558392E+00
 0.2329842444965E+00 -0.3755751953350E+00 -0.2851819059264E-01  0.5069162765851E+00
 0.3040827705036E+00 -0.4067448213422E+00 -0.2053241047369E-01  0.4836634123143E+00
 0.3794061854109E+00 -0.4401984073016E+00 -0.1215844455933E-01  0.4489342748895E+00
 0.4570149997984E+00 -0.4751108317782E+00 -0.3619166449887E-02  0.4009206112513E+00
 0.5348294540126E+00 -0.5105446467904E+00  0.4856961516818E-02  0.3377853111546E+00
 0.6108451403521E+00 -0.5455955787055E+00  0.1304991252378E-01  0.2578124989863E+00
 0.6833264890675E+00 -0.5795221277530E+00  0.2076087257226E-01  0.1596255224769E+00
 0.7508827979004E+00 -0.6118405415769E+00  0.2780845167909E-01  0.4249178333206E-01
 0.8120649636778E+00 -0.6421553165770E+00  0.3398192992654E-01 -0.9327063145174E-01
-0.5331647985866E-01 -0.1981233854108E+00 -0.5028797380324E-01 -0.5028417371923E-01
-0.6118074495635E-01 -0.1955633001008E+00 -0.5134880977658E-01  0.1015772085610E-01
-0.6971948197319E-01 -0.1938733464117E+00 -0.5271856646255E-01  0.6176193307395E-01
-0.7769871293579E-01 -0.1937589343175E+00 -0.5429153025967E-01  0.1049710391327E+00
-0.8425987741829E-01 -0.1956331174482E+00 -0.5597859980744E-01  0.1406846761364E+00
-0.8899172893047E-01 -0.1995811900135E+00 -0.5771458464881E-01  0.1700517369616E+00
-0.9189012335858E-01 -0.2054070598622E+00 -0.5945943753016E-01  0.1942777471262E+00
-0.9324760271540E-01 -0.2127264006456E+00 -0.6119480158407E-01  0.2144898997654E+00
-0.9352216014324E-01 -0.2210676575630E+00 -0.6291796447880E-01  0.2316678340867E+00
-0.9322107076240E-01 -0.2299545620478E+00 -0.6463512752518E-01  0.2466263900363E+00
-0.9281621528159E-01 -0.2389601650830E+00 -0.6635527706168E-01  0.2600292487704E+00
-0.9269221025005E-01 -0.2477342123609E+00 -0.6808528553675E-01  0.2724151708436E+00
-0.9312079738658E-01 -0.2560111688171E+00 -0.6982639428122E-01  0.2842252225666E+00
-0.9425281817031E-01 -0.2636068667603E+00 -0.7157193805263E-01  0.2958253438337E+00
-0.9612012407042E-01 -0.2704101289962E+00 -0.7330605170566E-01  0.3075225558017E+00
-0.9864192630275E-01 -0.2763735565958E+00 -0.7500309769734E-01  0.3195751255909E+00
-0.1016322332087E+00 -0.2815057564465E+00 -0.7662759907288E-01  0.3321976610045E+00
-0.1048065785302E+00 -0.2858657838874E+00 -0.7813447364780E-01  0.3455616550959E+00
-0.1077875828100E+00 -0.2895602396928E+00 -0.7946956568474E-01  0.3597927185898E+00
-0.1101093075372E+00 -0.2927423926674E+00 -0.8057034124150E-01  0.3749643183226E+00
-0.1112206614647E+00 -0.2956129902372E+00 -0.8136673155284E-01  0.3910878020135E+00
-0.1104887034837E+00 -0.2984224675420E+00 -0.8178223542379E-01  0.4081001430732E+00
-0.1072024422441E+00 -0.3014737712502E+00 -0.8173524391681E-01  0.4258491404401E+00
-0.1005778171199E+00 -0.3051159663096E+00 -0.8113875789496E-01  0.4440779359553E+00
-0.8976333886797E-01 -0.3096994402105E+00 -0.7989255700618E-01  0.4624096165731E+00
-0.7385801278034E-01 -0.3155704933408E+00 -0.7788570238482E-01  0.4803294211708E+00
-0.5195116073558E-01 -0.3231255088673E+00 -0.7501533503840E-01  0.4971733855851E+00
-0.2317908377910E-01 -0.3328279572302E+00 -0.7120140926283E-01  0.5121227584317E+00
 0.1320335071119E-01 -0.3451763555902E+00 -0.6639460196515E-01  0.5242032796338E+00
 0.5773775423360E-01 -0.3606399492690E+00 -0.6058043990981E-01  0.5322875373242E+00
 0.1106686593248E+00 -0.3795793112633E+00 -0.5378213118911E-01  0.5350978187014E+00
 0.1718507246203E+00 -0.4021668026908E+00 -0.4606321630050E-01  0.5312078632656E+00
 0.2406719346311E+00 -0.4283199167583E+00 -0.3752959698469E-01  0.5190443153269E+00
 0.3160226596540E+00 -0.4576893662604E+00 -0.2833334174349E-01  0.4968982501012E+00
 0.3963436146069E+00 -0.4896949460766E+00 -0.1867026657215E-01  0.4629546105475E+00
 0.4797378380545E+00 -0.5235525608125E+00 -0.8762944682173E-02  0.4153349747528E+00
 0.5641262092332E+00 -0.5583446742054E+00  0.1156307022799E-02  0.3521827320548E+00
 0.6474357448002E+00 -0.5931497521198E+00  0.1085719869787E-01  0.2718173973297E+00
 0.7277627464744E+00 -0.6271634200905E+00  0.2011986557659E-01  0.1729500843925E+00
 0.8034059069348E+00 -0.6597587478384E+00  0.2872943224739E-01  0.5495936154086E-01
 0.8725188964543E+00 -0.6902996234387E+00  0.3644385514617E-01 -0.8184797922191E-01
-0.7774207965156E-01 -0.3029469541251E+00 -0.7613780788987E-01 -0.5103542630557E-01
-0.8233616506255E-01 -0.3017240246464E+00 -0.7681203908638E-01  0.9583029609279E-02
-0.8765007043082E-01 -0.3012009338934E+00 -0.7777020202371E-01  0.6164005643394E-01
-0.9264646585059E-01 -0.3019694601333E+00 -0.7892318637282E-01  0.1054945068774E+00
-0.9659766733309E-01 -0.3043777303335E+00 -0.8019508072832E-01  0.1419336798755E+00
-0.9915113205937E-01 -0.3084960060238E+00 -0.8152942883152E-01  0.1719969870264E+00
-0.1003021649970E+00 -0.3141505290436E+00 -0.8289054004329E-01  0.1968065446182E+00
-0.1003053111422E+00 -0.3209989016318E+00 -0.8426084381037E-01  0.2174416439923E+00
-0.9956403329946E-01 -0.3286155701816E+00 -0.8563592197229E-01  0.2348671549522E+00
-0.9852934805963E-01 -0.3365645794860E+00 -0.8701878680581E-01  0.2499075437043E+00
-0.9762307349352E-01 -0.3444495269535E+00 -0.8841452140688E-01  0.2632505013206E+00
-0.9718864022262E-01 -0.3519407271408E+00 -0.8982587481118E-01  0.2754649219844E+00
-0.9746508509594E-01 -0.3587849216145E+00 -0.9125000270183E-01  0.2870226528538E+00
-0.9857727555031E-01 -0.3648041264373E+00 -0.9267628177851E-01  0.2983181669880E+00
-0.1005357447338E+00 -0.3698892689268E+00 -0.9408500413410E-01  0.3096837630509E+00
-0.1032411047892E+00 -0.3739925849100E+00 -0.9544673936211E-01  0.3213998735606E+00
-0.1064898065671E+00 -0.3771210871777E+00 -0.9672218019023E-01  0.3337008722890E+00
-0.1099793926778E+00 -0.3793320849608E+00 -0.9786229698599E-01  0.3467765207176E+00
-0.1133127201557E+00 -0.3807312119090E+00 -0.9880878788530E-01  0.3607700470952E+00
-0.1160010247607E+00 -0.3814725511155E+00 -0.9949471665784E-01  0.3757725910061E+00
-0.1174661140003E+00 -0.3817605570040E+00 -0.9984533568868E-01  0.3918137557235E+00
-0.1170426528726E+00 -0.3818532853293E+00 -0.9977918912720E-01  0.4088496658980E+00
-0.1139813188996E+00 -0.3820661428820E+00 -0.9920949383466E-01  0.4267482031466E+00
-0.1074537603037E+00 -0.3827667122309E+00 -0.9804409596788E-01  0.4452732310396E+00
-0.9655898629032E-01 -0.3843332897123E+00 -0.9617845663369E-01  0.4640688459305E+00
-0.8034222739575E-01 -0.3871493597129E+00 -0.9349831881495E-01  0.4826397896359E+00
-0.5783556384329E-01 -0.3916525894038E+00 -0.8989763198900E-01  0.5003359503556E+00
-0.2811556756866E-01 -0.3983483766630E+00 -0.8529279011730E-01  0.5163415476775E+00
 0.9624179956790E-02 -0.4077768746502E+00 -0.7963054012527E-01  0.5296689502183E+00
 0.5598760418765E-01 -0.4204492623243E+00 -0.7289233271351E-01  0.5391561970010E+00
 0.1112826201157E+00 -0.4367696326652E+00 -0.6509740347993E-01  0.5434668068199E+00
 0.1754286779484E+00 -0.4569568552799E+00 -0.5630563630533E-01  0.5410917735610E+00
 0.2478796485216E+00 -0.4809788349154E+00 -0.4661983797345E-01  0.5303561790683E+00
 0.3275896611738E+00 -0.5085377622239E+00 -0.3618962074929E-01  0.5094411183907E+00
 0.4130525470200E+00 -0.5390995096366E+00 -0.2520939289897E-01  0.4764289852915E+00
 0.5023988716405E+00 -0.5719136620550E+00 -0.1390295829007E-01  0.4293663287634E+00
 0.5935302111472E+00 -0.6060722067664E+00 -0.2508399161209E-02  0.3663652487166E+00
 0.6842833965890E+00 -0.6406248608938E+00  0.8731707269156E-02  0.2857637744808E+00
 0.7725686494147E+00 -0.6746858674317E+00  0.1957655668832E-01  0.1863353835356E+00
 0.8563897965373E+00 -0.7074726423036E+00  0.2978343129056E-01  0.6752464185864E-01
 0.9335861134935E+00 -0.7381500643454E+00  0.3908721041207E-01 -0.7038959747571E-01
-0.1021615712036E+00 -0.4075083949105E+00 -0.1019339947418E+00 -0.5127531820688E-01
-0.1035882504296E+00 -0.4075839655634E+00 -0.1022344447220E+00  0.9481868707344E-02
-0.1057601618469E+00 -0.4082070645678E+00 -0.1027934468147E+00  0.6190609115043E-01
-0.1078216299700E+00 -0.4098634406300E+00 -0.1035370156628E+00  0.1062871187417E+00
-0.1091712976480E+00 -0.4128364142236E+00 -0.1044015439300E+00  0.1433181484534E+00
-0.1095205284584E+00 -0.4171750114590E+00 -0.1053391095532E+00  0.1739451911054E+00
-0.1088750590689E+00 -0.4227186412916E+00 -0.1063187416564E+00  0.1992174261193E+00
-0.1074636404493E+00 -0.4291581348824E+00 -0.1073243566656E+00  0.2201706315134E+00
-0.1056454191630E+00 -0.4361078000699E+00 -0.1083506454611E+00  0.2377547122001E+00
-0.1038220408886E+00 -0.4431689375335E+00 -0.1093981973146E+00  0.2528010522056E+00
-0.1023689134589E+00 -0.4499751783428E+00 -0.1104688200065E+00  0.2660178345866E+00
-0.1015895032299E+00 -0.4562184921867E+00 -0.1115616007457E+00  0.2780007840298E+00
-0.1016898848901E+00 -0.4616596840439E+00 -0.1126699154657E+00  0.2892498752297E+00
-0.1027680117173E+00 -0.4661287887698E+00 -0.1137793617929E+00  0.3001861831955E+00
-0.1048120206502E+00 -0.4695203374455E+00 -0.1148664733308E+00  0.3111659880999E+00
-0.1077030207805E+00 -0.4717871901722E+00 -0.1158980439176E+00  0.3224911096323E+00
-0.1112193128545E+00 -0.4729352074189E+00 -0.1168309057956E+00  0.3344153401016E+00
-0.1150401918730E+00 -0.4730198812992E+00 -0.1176120163870E+00  0.3471467555554E+00
-0.1187487942561E+00 -0.4721453595389E+00 -0.1181788325200E+00  0.3608466443741E+00
-0.1218338072135E+00 -0.4704656392035E+00 -0.1184598910486E+00  0.3756246837202E+00
-0.1236903702282E+00 -0.4681876554389E+00 -0.1183756068974E+00  0.3915300397188E+00
-0.1236212459003E+00 -0.4655755851087E+00 -0.1178393679578E+00  0.4085397170646E+00
-0.1208391829920E+00 -0.4629555960952E+00 -0.1167589575573E+00  0.4265437479461E+00
-0.1144716207507E+00 -0.4607120226668E+00 -0.1150367303977E+00  0.4453289579876E+00
-0.1035675117162E+00 -0.4592494588814E+00 -0.1125633957969E+00  0.4645625758915E+00
-0.8711670885252E-01 -0.4589874337790E+00 -0.1092208301538E+00  0.4837706569630E+00
-0.6409094042148E-01 -0.4604046081269E+00 -0.1048991112728E+00  0.5023184793617E+00
-0.3350205626896E-01 -0.4640492426375E+00 -0.9951026126410E-01  0.5193945951373E+00
 0.5524655034318E-02 -0.4705055754086E+00 -0.9299618546061E-01  0.5339992853911E+00
 0.5366417978499E-01 -0.4803307614656E+00 -0.8533331760768E-01  0.5449373493976E+00
 0.1112974695179E+00 -0.4939777745517E+00 -0.7653606214724E-01  0.5508149697770E+00
 0.1784178316789E+00 -0.5117178912455E+00 -0.6666001290665E-01  0.5500419598060E+00
 0.2545513918957E+00 -0.5335745136942E+00 -0.5580462519126E-01  0.5408432559615E+00
 0.3387173499821E+00 -0.5593038460893E+00 -0.4411729987883E-01  0.5212904501700E+00
 0.4294570653288E+00 -0.5884162368025E+00 -0.3179183476847E-01  0.4893613383676E+00
 0.5249160297740E+00 -0.6201887902574E+00 -0.1905455238061E-01  0.4430206527386E+00
 0.6229590177061E+00 -0.6537135904989E+00 -0.6150914650213E-02  0.3803364644928E+00
 0.7213139114643E+00 -0.6879996035904E+00  0.6662861674057E-02  0.2996466766942E+00
 0.8176934610417E+00 -0.7220661010856E+00  0.1912547227621E-01  0.1997601329120E+00
 0.9098232392948E+00 -0.7549749773224E+00  0.3096965285597E-01  0.8015506138159E-01
 0.9952738489214E+00 -0.7857222954311E+00  0.4191031132257E-01 -0.5891451843026E-01
-0.1265722315276E+00 -0.5118403931995E+00 -0.1276825268480E+00 -0.5101966754778E-01
-0.1249155790665E+00 -0.5131831178577E+00 -0.1276197412865E+00  0.9842591503523E-02
-0.1240132993453E+00 -0.5149360871663E+00 -0.1277898792066E+00  0.6255639224459E-01
-0.1231786614640E+00 -0.5174856086826E+00 -0.1281328559386E+00  0.1073546977359E+00
-0.1219323736177E+00 -0.5210507215200E+00 -0.1285966209438E+00  0.1448522707430E+00
-0.1200535336637E+00 -0.5256544480347E+00 -0.1291415982640E+00  0.1759160995845E+00
-0.1175672056054E+00 -0.5311418856803E+00 -0.1297418201904E+00  0.2015324628395E+00
-0.1146866342174E+00 -0.5372297021196E+00 -0.1303832692102E+00  0.2226985821850E+00
-0.1117355730263E+00 -0.5435666077005E+00 -0.1310604380983E+00  0.2403502309482E+00
-0.1090725572747E+00 -0.5497882367435E+00 -0.1317721607672E+00  0.2553240157082E+00
-0.1070300944010E+00 -0.5555575500893E+00 -0.1325175308727E+00  0.2683458327895E+00
-0.1058730313882E+00 -0.5605889478904E+00 -0.1332923978419E+00  0.2800353398888E+00
-0.1057744470713E+00 -0.5646587844027E+00 -0.1340866482928E+00  0.2909181128787E+00
-0.1068046722822E+00 -0.5676067110882E+00 -0.1348822786840E+00  0.3014398382169E+00
-0.1089285748675E+00 -0.5693321924109E+00 -0.1356521554771E+00  0.3119793213180E+00
-0.1120070331352E+00 -0.5697895807626E+00 -0.1363593248115E+00  0.3228587912514E+00
-0.1157997649227E+00 -0.5689839269737E+00 -0.1369567404201E+00  0.3343509101727E+00
-0.1199677194615E+00 -0.5669687347491E+00 -0.1373872928894E+00  0.3466819306840E+00
-0.1240745231290E+00 -0.5638460280875E+00 -0.1375841122935E+00  0.3600314828904E+00
-0.1275867713401E+00 -0.5597686705498E+00 -0.1374710904265E+00  0.3745285073885E+00
-0.1298735519589E+00 -0.5549446769548E+00 -0.1369636478237E+00  0.3902429214349E+00
-0.1302063847531E+00 -0.5496426548084E+00 -0.1359698099384E+00  0.4071742433313E+00
-0.1277606209096E+00 -0.5441976466435E+00 -0.1343916555132E+00  0.4252366682801E+00
-0.1216196419921E+00 -0.5390088120803E+00 -0.1321256927833E+00  0.4442422387381E+00
-0.1107817917895E+00 -0.5345053214615E+00 -0.1290574245733E+00  0.4638835608782E+00
-0.9417989440102E-01 -0.5311415555010E+00 -0.1250642918440E+00  0.4837100764040E+00
-0.7072214402313E-01 -0.5294368663936E+00 -0.1200318038720E+00  0.5031044086702E+00
-0.3935060840723E-01 -0.5299833224984E+00 -0.1138667878779E+00  0.5212613636982E+00
 0.8847643485592E-03 -0.5334117029955E+00 -0.1065053893164E+00  0.5371710688047E+00
 0.5073877217751E-01 -0.5403291590609E+00 -0.9791807883577E-01  0.5496070276979E+00
 0.1106750400487E+00 -0.5512428305154E+00 -0.8811355940632E-01  0.5571199712447E+00
 0.1807698330843E+00 -0.5664821794573E+00 -0.7714247042411E-01  0.5580401465519E+00
 0.2606281522362E+00 -0.5861311123940E+00 -0.6510059300163E-01  0.5504931946132E+00
 0.3493363189062E+00 -0.6100025251806E+00 -0.5213324203172E-01  0.5324404036040E+00
 0.4454791376777E+00 -0.6376502483480E+00 -0.3843422270679E-01  0.5017511329316E+00
 0.5472066164291E+00 -0.6683738374249E+00 -0.2423344456027E-01  0.4562997946887E+00
 0.6523316754514E+00 -0.7012570074860E+00 -0.9785066552741E-02  0.3940963730860E+00
 0.7584575311564E+00 -0.7352572494652E+00  0.4640056407368E-02  0.3134588230281E+00
 0.8630915091136E+00 -0.7692898948781E+00  0.1876032312664E-01  0.2132060366098E+00
 0.9636925778287E+00 -0.8022653718152E+00  0.3228544168379E-01  0.9282787393776E-01
 0.1057583582526E+01 -0.8330295194352E+00  0.4491081328728E-01 -0.4743690395615E-01
-0.1509719324782E+00 -0.6159740862317E+00 -0.1533892060276E+00 -0.5028121908495E-01
-0.1462989265750E+00 -0.6185593708750E+00 -0.1529716617695E+00  0.1065592131328E-01
-0.1423762173933E+00 -0.6214301561296E+00 -0.1527612769809E+00  0.6358838488726E-01
-0.1386753077527E+00 -0.6248789727988E+00 -0.1527108583859E+00  0.1087027072336E+00
-0.1348351162335E+00 -0.6290613230212E+00 -0.1527792901275E+00  0.1465487827561E+00
-0.1307053117752E+00 -0.6339705633582E+00 -0.1529351773056E+00  0.1779274953404E+00
-0.1263375015040E+00 -0.6394514056928E+00 -0.1531577837216E+00  0.2037717992021E+00
-0.1219380590994E+00 -0.6452401390818E+00 -0.1534356419226E+00  0.2250457010835E+00
-0.1178030582384E+00 -0.6510151208329E+00 -0.1537636381055E+00  0.2426724925990E+00
-0.1142535076529E+00 -0.6564436423608E+00 -0.1541394322996E+00  0.2574931633428E+00
-0.1115822753953E+00 -0.6612172285181E+00 -0.1545599030858E+00  0.2702492018477E+00
-0.1100169491498E+00 -0.6650732795401E+00 -0.1550180480479E+00  0.2815816848117E+00
-0.1096977189388E+00 -0.6678049510328E+00 -0.1555005363115E+00  0.2920394001909E+00
-0.1106667647142E+00 -0.6692629046441E+00 -0.1559859361960E+00  0.3020906169529E+00
-0.1128649911953E+00 -0.6693527077500E+00 -0.1564435421202E+00  0.3121350678732E+00
-0.1161324859176E+00 -0.6680309481461E+00 -0.1568326891497E+00  0.3225142252016E+00
-0.1202101125162E+00 -0.6653021020640E+00 -0.1571024452570E+00  0.3335188736975E+00
-0.1247405409843E+00 -0.6612174044970E+00 -0.1571915914386E+00  0.3453931157520E+00
-0.1292682734413E+00 -0.6558759928187E+00 -0.1570288555919E+00  0.3583350340981E+00
-0.1332384571404E+00 -0.6494284000492E+00 -0.1565333737705E+00  0.3724934080099E+00
-0.1359949359758E+00 -0.6420821452984E+00 -0.1556154185737E+00  0.3879599652989E+00
-0.1367788268158E+00 -0.6341083854961E+00 -0.1541774447598E+00  0.4047582718085E+00
-0.1347287649542E+00 -0.6258489588189E+00 -0.1521155470213E+00  0.4228286460815E+00
-0.1288843303298E+00 -0.6177157469851E+00 -0.1493200176880E+00  0.4420106275016E+00
-0.1181927596245E+00 -0.6101606325744E+00 -0.1456706806104E+00  0.4620245826274E+00
-0.1015282100523E+00 -0.6036715517623E+00 -0.1410399544646E+00  0.4824456909789E+00
-0.7773215171461E-01 -0.5988081692462E+00 -0.1353080662084E+00  0.5026763069163E+00
-0.4567179560376E-01 -0.5962072409727E+00 -0.1283758092282E+00  0.5219199788731E+00
-0.4314683437613E-02 -0.5965484793767E+00 -0.1201726343536E+00  0.5391592625312E+00
 0.4718258043520E-01 -0.6004929822836E+00 -0.1106620820187E+00  0.5531389344340E+00
 0.1093760236317E+00 -0.6086072705958E+00 -0.9984625088065E-01  0.5623565968405E+00
 0.1824342040328E+00 -0.6212847350479E+00 -0.8777010751090E-01  0.5650645988697E+00
 0.2660481410738E+00 -0.6386748823319E+00 -0.7452534936214E-01  0.5592896241533E+00
 0.3593743346775E+00 -0.6606503365693E+00 -0.6025520127624E-01  0.5428807207063E+00
 0.4610385753178E+00 -0.6868081831124E+00 -0.4515392223176E-01  0.5135933995454E+00
 0.5691871015900E+00 -0.7164664630702E+00 -0.2945587273496E-01  0.4692016440511E+00
 0.6815682998900E+00 -0.7486932716843E+00 -0.1342499455890E-01  0.4076419740877E+00
 0.7956474724441E+00 -0.7823857385777E+00  0.2652346812816E-02  0.3271921067439E+00
 0.9087195177938E+00 -0.8163492406811E+00  0.1847405569784E-01  0.2266582800220E+00
 0.1017981834375E+01 -0.8493464397656E+00  0.3372707942439E-01  0.1055267899582E+00
 0.1120514304531E+01 -0.8800824103248E+00  0.4808637955781E-01 -0.3596862395390E-01
-0.1753590351057E+00 -0.7199392836934E+00 -0.1790596664280E+00 -0.4906989910503E-01
-0.1677208985380E+00 -0.7237488059960E+00 -0.1782939435636E+00  0.1191480911532E-01
-0.1608183315021E+00 -0.7277295093963E+00 -0.1777095708278E+00  0.6500061809300E-01
-0.1542721261865E+00 -0.7320849670558E+00 -0.1772714212900E+00  0.1103364843718E+00
-0.1478360419739E+00 -0.7369079730396E+00 -0.1769488056394E+00  0.1484192841503E+00
-0.1414324595974E+00 -0.7421594069991E+00 -0.1767183759526E+00  0.1799954784883E+00
-0.1351453951057E+00 -0.7476786917555E+00 -0.1765648200033E+00  0.2059538287666E+00
-0.1291815609343E+00 -0.7532165793463E+00 -0.1764796306859E+00  0.2272307254098E+00
-0.1238159383724E+00 -0.7584770242856E+00 -0.1764585951610E+00  0.2447392763633E+00
-0.1193368896956E+00 -0.7631566255582E+00 -0.1764987056808E+00  0.2593247321792E+00
-0.1160005728161E+00 -0.7669747502578E+00 -0.1765950672463E+00  0.2717426277310E+00
-0.1139985994899E+00 -0.7696922551842E+00 -0.1767381735684E+00  0.2826532950913E+00
-0.1134384436997E+00 -0.7711201792065E+00 -0.1769117272174E+00  0.2926264800918E+00
-0.1143337358263E+00 -0.7711214183947E+00 -0.1770910334830E+00  0.3021509775796E+00
-0.1166008747567E+00 -0.7696086660914E+00 -0.1772419108107E+00  0.3116457204573E+00
-0.1200587539178E+00 -0.7665413647039E+00 -0.1773200263666E+00  0.3214700775199E+00
-0.1244292719578E+00 -0.7619235386680E+00 -0.1772705647667E+00  0.3319320120972E+00
-0.1293370549909E+00 -0.7558037595127E+00 -0.1770281655386E+00  0.3432929566740E+00
-0.1343080480428E+00 -0.7482773863834E+00 -0.1765170895156E+00  0.3557693782690E+00
-0.1387667878372E+00 -0.7394912741873E+00 -0.1756516150223E+00  0.3695303089653E+00
-0.1420328824155E+00 -0.7296506971323E+00 -0.1743367185074E+00  0.3846902082297E+00
-0.1433180806459E+00 -0.7190272884494E+00 -0.1724690763890E+00  0.4012981181209E+00
-0.1417251585511E+00 -0.7079674026807E+00 -0.1699385147786E+00  0.4193223885757E+00
-0.1362502932804E+00 -0.6968933438685E+00 -0.1666287299127E+00  0.4386323664353E+00
-0.1257892217298E+00 -0.6862776649222E+00 -0.1624133797506E+00  0.4589787077860E+00
-0.1091558711908E+00 -0.6766404064081E+00 -0.1571592578616E+00  0.4799649688043E+00
-0.8512185245414E-01 -0.6685810244164E+00 -0.1507405776203E+00  0.5010160585782E+00
-0.5247448080533E-01 -0.6627817051883E+00 -0.1430512393304E+00  0.5213473284725E+00
-0.1009182717605E-01 -0.6599733562192E+00 -0.1340130386760E+00  0.5399369966438E+00
 0.4296695577065E-01 -0.6608748624900E+00 -0.1235815831854E+00  0.5555043096744E+00
 0.1073602253591E+00 -0.6661172810873E+00 -0.1117514128108E+00  0.5664965166531E+00
 0.1833585877440E+00 -0.6761637202904E+00 -0.9856102797796E-01  0.5710898293922E+00
 0.2707469900427E+00 -0.6912346233364E+00 -0.8409752791188E-01  0.5672118863528E+00
 0.3687564051097E+00 -0.7112659218805E+00 -0.6850190437492E-01  0.5525965703723E+00
 0.4760528973939E+00 -0.7358986331259E+00 -0.5196914792080E-01  0.5248787306903E+00
 0.5907727584704E+00 -0.7644665048102E+00 -0.3473874978562E-01  0.4817203137900E+00
 0.7105893392425E+00 -0.7960161400963E+00 -0.1708536042535E-01  0.4209678090125E+00
 0.8328184723674E+00 -0.8293771317854E+00  0.6882681266569E-03  0.3408383251119E+00
 0.9545349788457E+00 -0.8632402777597E+00  0.1825894048928E-01  0.2401051059547E+00
 0.1072673207545E+01 -0.8962220344777E+00  0.3529023513930E-01  0.1182396672232E+00
 0.1184064276756E+01 -0.9268894342389E+00  0.5143496926984E-01 -0.2452059322574E-01
-0.1997323002316E+00 -0.8237646567092E+00 -0.2046993944384E+00 -0.4739303654751E-01
-0.1891656191454E+00 -0.8287859536445E+00 -0.2035903175917E+00  0.1361430456529E-01
-0.1793112973873E+00 -0.8338727162728E+00 -0.2026368057515E+00  0.6679279070098E-01
-0.1699320526324E+00 -0.8391436006987E+00 -0.2018151336735E+00  0.1122614125699E+00
-0.1608936542823E+00 -0.8446295077470E+00 -0.2011046354025E+00  0.1504744842573E+00
-0.1521928674528E+00 -0.8502566811647E+00 -0.2004899127110E+00  0.1821346945532E+00
-0.1439508991772E+00 -0.8558553306665E+00 -0.1999612489484E+00  0.2080953388767E+00
-0.1363807790039E+00 -0.8611864620582E+00 -0.1995134511854E+00  0.2292709637978E+00
-0.1297419386982E+00 -0.8659762741359E+00 -0.1991436455343E+00  0.2465673081922E+00
-0.1242942571547E+00 -0.8699487108632E+00 -0.1988485965667E+00  0.2608343592996E+00
-0.1202597147060E+00 -0.8728503902481E+00 -0.1986220239505E+00  0.2728406471536E+00
-0.1177950759644E+00 -0.8744660494882E+00 -0.1984522280477E+00  0.2832639053644E+00
-0.1169752702989E+00 -0.8746255812840E+00 -0.1983201732718E+00  0.2926927057873E+00
-0.1177850623630E+00 -0.8732052059982E+00 -0.1981980566256E+00  0.3016342868199E+00
-0.1201159261396E+00 -0.8701256356780E+00 -0.1980483153147E+00  0.3105249312672E+00
-0.1237653015181E+00 -0.8653496670044E+00 -0.1978229966523E+00  0.3197403822275E+00
-0.1284361688079E+00 -0.8588808819483E+00 -0.1974634130937E+00  0.3296046414632E+00
-0.1337355166959E+00 -0.8507646769129E+00 -0.1969000416558E+00  0.3403957549789E+00
-0.1391714865673E+00 -0.8410916112725E+00 -0.1960526224894E+00  0.3523483187562E+00
-0.1441490430296E+00 -0.8300033642683E+00 -0.1948304843628E+00  0.3656518609345E+00
-0.1479647767781E+00 -0.8177010432042E+00 -0.1931331668744E+00  0.3804443458164E+00
-0.1498023146697E+00 -0.8044544908208E+00 -0.1908513639420E+00  0.3968016077172E+00
-0.1487296313193E+00 -0.7906120893037E+00 -0.1878683469240E+00  0.4147218797585E+00
-0.1437000822777E+00 -0.7766040472344E+00 -0.1840608286451E+00  0.4341066564811E+00
-0.1335576704861E+00 -0.7629213310799E+00 -0.1792958029849E+00  0.4547395602559E+00
-0.1170546671978E+00 -0.7501144270473E+00 -0.1734338214334E+00  0.4762554522151E+00
-0.9288980620860E-01 -0.7388218535675E+00 -0.1663423344339E+00  0.4981050601471E+00
-0.5976555445316E-01 -0.7297717610770E+00 -0.1579074654590E+00  0.5195191751636E+00
-0.1646347011063E-01 -0.7237483190389E+00 -0.1480423600359E+00  0.5394755733458E+00
 0.3806369692897E-01 -0.7215318916058E+00 -0.1366936409723E+00  0.5566718171192E+00
 0.1045868560530E+00 -0.7238231767331E+00 -0.1238472659815E+00  0.5695080687190E+00
 0.1834890082310E+00 -0.7311609085086E+00 -0.1095343816877E+00  0.5760863249420E+00
 0.2746579247185E+00 -0.7438421782942E+00 -0.9383685211343E-01  0.5742347759840E+00
 0.3774047968287E+00 -0.7618705083148E+00 -0.7689314344302E-01  0.5615683746457E+00
 0.4904371310439E+00 -0.7849325636676E+00 -0.5889908740240E-01  0.5355932417984E+00
 0.6118771961763E+00 -0.8123763030594E+00 -0.4009982197416E-01  0.4938462841877E+00
 0.7393147363230E+00 -0.8432223731215E+00 -0.2078152766936E-01  0.4340663099527E+00
 0.8699055525867E+00 -0.8762269844294E+00 -0.1264286387379E-02  0.3543894105806E+00
 0.1000495189427E+01 -0.9099620099901E+00  0.1810663615712E-01  0.2535371388574E+00
 0.1127747624709E+01 -0.9428965527124E+00  0.3697021495018E-01  0.1309569658362E+00
 0.1248232136919E+01 -0.9734573504940E+00  0.5495495810380E-01 -0.1310353103287E-01
-0.2240908148917E+00 -0.9274779052043E+00 -0.2303137474512E+00 -0.4525554301460E-01
-0.2106184665500E+00 -0.9337040259523E+00 -0.2288645019108E+00  0.1575144627920E-01
-0.1978286285793E+00 -0.9398969125698E+00 -0.2275451116205E+00  0.6896576489727E-01
-0.1856200146299E+00 -0.9460936216285E+00 -0.2263427306244E+00  0.1144830533322E+00
-0.1739681501866E+00 -0.9522638881307E+00 -0.2252464110199E+00  0.1527243968196E+00
-0.1629455666274E+00 -0.9582976583301E+00 -0.2242486483331E+00  0.1843585197057E+00
-0.1527145742366E+00 -0.9640128297713E+00 -0.2233454841297E+00  0.2102116314442E+00
-0.1434994286658E+00 -0.9691773095416E+00 -0.2225353509575E+00  0.2311823314383E+00
-0.1355485839897E+00 -0.9735368705985E+00 -0.2218170942230E+00  0.2481722194444E+00
-0.1290968768291E+00 -0.9768412709297E+00 -0.2211876328477E+00  0.2620369902478E+00
-0.1243341943143E+00 -0.9788639892637E+00 -0.2206396400034E+00  0.2735575355760E+00
-0.1213833620822E+00 -0.9794141037043E+00 -0.2201594964379E+00  0.2834274009645E+00
-0.1202868755483E+00 -0.9783412732141E+00 -0.2197256330266E+00  0.2922519542400E+00
-0.1210003564320E+00 -0.9755360316061E+00 -0.2193072808756E+00  0.3005547638746E+00
-0.1233900314554E+00 -0.9709278894224E+00 -0.2188635874369E+00  0.3087874904484E+00
-0.1272317578976E+00 -0.9644833844828E+00 -0.2183430317296E+00  0.3173405554141E+00
-0.1322097972476E+00 -0.9562055536603E+00 -0.2176830734253E+00  0.3265526623422E+00
-0.1379140790276E+00 -0.9461359898647E+00 -0.2168100170092E+00  0.3367175534715E+00
-0.1438358844524E+00 -0.9343593022693E+00 -0.2156390405576E+00  0.3480875043344E+00
-0.1493618514497E+00 -0.9210103491553E+00 -0.2140744433109E+00  0.3608726021524E+00
-0.1537669923735E+00 -0.9062839780364E+00 -0.2120101972412E+00  0.3752349312506E+00
-0.1562082860416E+00 -0.8904457790963E+00 -0.2093308161468E+00  0.3912783121890E+00
-0.1557201920480E+00 -0.8738434544053E+00 -0.2059127323590E+00  0.4090326487898E+00
-0.1512140483029E+00 -0.8569123590981E+00 -0.2016252844847E+00  0.4284339466462E+00
-0.1414821014936E+00 -0.8401593638763E+00 -0.1963282959995E+00  0.4493016132426E+00
-0.1252137400660E+00 -0.8241634808233E+00 -0.1898754470072E+00  0.4713050277971E+00
-0.1010319844314E+00 -0.8096012875674E+00 -0.1821266571137E+00  0.4939244386360E+00
-0.6754963972825E-01 -0.7972471518009E+00 -0.1729593608831E+00  0.5164102932892E+00
-0.2344475709004E-01 -0.7879403114674E+00 -0.1622770161296E+00  0.5377444978369E+00
 0.3244538657308E-01 -0.7825261124062E+00 -0.1500161474020E+00  0.5566074592864E+00
 0.1010148565827E+00 -0.7817799512694E+00 -0.1361530209662E+00  0.5713560718641E+00
 0.1827701414125E+00 -0.7863222779280E+00 -0.1207104291018E+00  0.5800202975699E+00
 0.2777119247712E+00 -0.7965330367875E+00 -0.1037642239495E+00  0.5803282919640E+00
 0.3852390192704E+00 -0.8124884731726E+00 -0.8544989205374E-01  0.5697716253226E+00
 0.5041035646863E+00 -0.8339237876333E+00 -0.6596404557233E-01  0.5457185057006E+00
 0.6324118403951E+00 -0.8602010217195E+00 -0.4555783694375E-01  0.5055664872864E+00
 0.7676631112809E+00 -0.8903117551094E+00 -0.2452972913121E-01  0.4469279781429E+00
 0.9068430479684E+00 -0.9229339010450E+00 -0.3218170663277E-02  0.3678374028242E+00
 0.1046556720677E+01 -0.9565156475415E+00  0.1800821489540E-01  0.2669467402083E+00
 0.1183185301422E+01 -0.9893748367744E+00  0.3876209350712E-01  0.1436707437929E+00
 0.1313017730929E+01 -0.1019791834437E+01  0.5864518017224E-01 -0.1728420826805E-02
-0.2484339288912E+00 -0.1031105906753E+01 -0.2559079709422E+00 -0.4266006523431E-01
-0.2320658411382E+00 -0.1038535116976E+01 -0.2541201954095E+00  0.1832516580188E-01
-0.2163453555180E+00 -0.1045838002192E+01 -0.2524366753037E+00  0.7152156647877E-01
-0.2013025750362E+00 -0.1052972656328E+01 -0.2508550500108E+00  0.1170072401454E+00
-0.1870211343367E+00 -0.1059848233203E+01 -0.2493738772238E+00  0.1551784852466E+00
-0.1736505612405E+00 -0.1066317097214E+01 -0.2479935353864E+00  0.1866792003375E+00
-0.1613974825142E+00 -0.1072182436683E+01 -0.2467159875158E+00  0.2123166118522E+00
-0.1505013523014E+00 -0.1077216487630E+01 -0.2455435716451E+00  0.2329793693266E+00
-0.1412033108084E+00 -0.1081182595375E+01 -0.2444771848798E+00  0.2495685023488E+00
-0.1337158698892E+00 -0.1083855267074E+01 -0.2435142310212E+00  0.2629467915941E+00
-0.1281984176945E+00 -0.1085034711259E+01 -0.2426466294065E+00  0.2739072019346E+00
-0.1247404721912E+00 -0.1084554903379E+01 -0.2418590787180E+00  0.2831577166406E+00
-0.1233520925085E+00 -0.1082286170141E+01 -0.2411276561230E+00  0.2913185443788E+00
-0.1239594796537E+00 -0.1078134278525E+01 -0.2404187552182E+00  0.2989274273930E+00
-0.1264033620800E+00 -0.1072038221891E+01 -0.2396883203658E+00  0.3064493065100E+00
-0.1304380020939E+00 -0.1063968561550E+01 -0.2388813162884E+00  0.3142874111651E+00
-0.1357292892284E+00 -0.1053927578399E+01 -0.2379313770710E+00  0.3227936122653E+00
-0.1418508433759E+00 -0.1041952319387E+01 -0.2367606360806E+00  0.3322762265272E+00
-0.1482782216517E+00 -0.1028120167500E+01 -0.2352796813363E+00  0.3430045588906E+00
-0.1543811932429E+00 -0.1012557371192E+01 -0.2333877163646E+00  0.3552091293182E+00
-0.1594148614896E+00 -0.9954502577858E+00 -0.2309730272968E+00  0.3690765885117E+00
-0.1625112761024E+00 -0.9770575069361E+00 -0.2279137600039E+00  0.3847398034626E+00
-0.1626729240862E+00 -0.9577232048387E+00 -0.2240792291240E+00  0.4022620596993E+00
-0.1587701930861E+00 -0.9378848332385E+00 -0.2193310085332E+00  0.4216162477259E+00
-0.1495438168152E+00 -0.9180623678160E+00 -0.2135212401079E+00  0.4426605084580E+00
-0.1336193368572E+00 -0.8988611124541E+00 -0.2064960929393E+00  0.4651022257147E+00
-0.1095414712566E+00 -0.8809943599852E+00 -0.1981071692004E+00  0.4884553006963E+00
-0.7582874664793E-01 -0.8652825937137E+00 -0.1882222708771E+00  0.5119946363654E+00
-0.3104879341734E-01 -0.8526215969085E+00 -0.1767340806987E+00  0.5347115379940E+00
 0.2608578465345E-01 -0.8439249624394E+00 -0.1635678379945E+00  0.5552745165277E+00
 0.9660326595067E-01 -0.8400477897406E+00 -0.1486889069736E+00  0.5720016524955E+00
 0.1811456043866E+00 -0.8416985641206E+00 -0.1321105939154E+00  0.5828534327632E+00
 0.2798378683775E+00 -0.8493468833677E+00 -0.1139018046953E+00  0.5854573612420E+00
 0.3921757575989E+00 -0.8631478324562E+00 -0.9419441637505E-01  0.5771766448378E+00
 0.5169614186013E+00 -0.8828893362573E+00 -0.7318558462176E-01  0.5552314025590E+00
 0.6522853189363E+00 -0.9079488320425E+00 -0.5113270338318E-01  0.5168642641038E+00
 0.7955509016705E+00 -0.9372869996885E+00 -0.2834722002601E-01  0.4595413715860E+00
 0.9435637164564E+00 -0.9694991481005E+00 -0.5187086406116E-02  0.3811742439373E+00
 0.1092674971206E+01 -0.1002904212400E+01  0.1795415202857E-01  0.2803274247562E+00
 0.1238966069029E+01 -0.1035662236502E+01  0.4066076711115E-01  0.1563739639981E+00
 0.1378422626554E+01 -0.1065897992667E+01  0.6250492770865E-01  0.9593142422456E-02
-0.2727612008427E+00 -0.1134674855933E+01 -0.2814872155496E+00 -0.3960711139036E-01
-0.2534949629130E+00 -0.1143310394653E+01 -0.2793610756760E+00  0.2133620590664E-01
-0.2348377213296E+00 -0.1151730858947E+01 -0.2773137201876E+00  0.7446337748517E-01
-0.2169476050476E+00 -0.1159817367701E+01 -0.2753529986528E+00  0.1198401434608E+00
-0.2000153449004E+00 -0.1167418892047E+01 -0.2734868514647E+00  0.1578457674832E+00
-0.1842686537760E+00 -0.1174349214537E+01 -0.2717235777116E+00  0.1891079533373E+00
-0.1699611239964E+00 -0.1180395023366E+01 -0.2700712334969E+00  0.2144228487291E+00
-0.1573505497011E+00 -0.1185331030759E+01 -0.2685363200935E+00  0.2346752476820E+00
-0.1466735636067E+00 -0.1188936809239E+01 -0.2671220785495E+00  0.2507694611955E+00
-0.1381223448315E+00 -0.1191011044419E+01 -0.2658266818112E+00  0.2635770667472E+00
-0.1318268510057E+00 -0.1191380851299E+01 -0.2646415444044E+00  0.2739030900112E+00
-0.1278435986023E+00 -0.1189905805251E+01 -0.2635498846979E+00  0.2824687422657E+00
-0.1261500495981E+00 -0.1186477832217E+01 -0.2625255802750E+00  0.2899071609385E+00
-0.1266426708006E+00 -0.1181018810647E+01 -0.2615323001866E+00  0.2967680460973E+00
-0.1291364895514E+00 -0.1173477822207E+01 -0.2605228662338E+00  0.3035273885376E+00
-0.1333642644264E+00 -0.1163829638564E+01 -0.2594387844640E+00  0.3105991779875E+00
-0.1389740011887E+00 -0.1152075470907E+01 -0.2582098982668E+00  0.3183467182556E+00
-0.1455239293493E+00 -0.1138246968385E+01 -0.2567541833727E+00  0.3270915706998E+00
-0.1524752120355E+00 -0.1122412891832E+01 -0.2549776245729E+00  0.3371192126019E+00
-0.1591824245930E+00 -0.1104688953745E+01 -0.2527742794342E+00  0.3486802719216E+00
-0.1648826700132E+00 -0.1085250538650E+01 -0.2500266454584E+00  0.3619862315472E+00
-0.1686850491278E+00 -0.1064346562899E+01 -0.2466063260801E+00  0.3771999171457E+00
-0.1695619017802E+00 -0.1042314325707E+01 -0.2423752491092E+00  0.3944196139641E+00
-0.1663440363380E+00 -0.1019590133294E+01 -0.2371868374607E+00  0.4136574631770E+00
-0.1577212360854E+00 -0.9967039410145E+00 -0.2308850388604E+00  0.4348133972569E+00
-0.1422545588970E+00 -0.9742847434864E+00 -0.2233078638042E+00  0.4576365460300E+00
-0.1184081482946E+00 -0.9530807964120E+00 -0.2142977921346E+00  0.4816790135669E+00
-0.8460189651502E-01 -0.9339581654926E+00 -0.2037120154371E+00  0.5062455402206E+00
-0.3928622350968E-01 -0.9178702509768E+00 -0.1914312977498E+00  0.5303428212684E+00
 0.1896026651978E-01 -0.9058018630183E+00 -0.1773683219427E+00  0.5526335210209E+00
 0.9131163005980E-01 -0.8986927329442E+00 -0.1614762229831E+00  0.5714020985747E+00
 0.1785582724825E+00 -0.8973459617836E+00 -0.1437575400024E+00  0.5845426502392E+00
 0.2809626860776E+00 -0.9023282828300E+00 -0.1242731212023E+00  0.5895815545454E+00
 0.3981287975206E+00 -0.9138808472568E+00 -0.1031504114843E+00  0.5837483156195E+00
 0.5289164994239E+00 -0.9318499243982E+00 -0.8058668619569E-01  0.5641039141355E+00
 0.6714028506527E+00 -0.9556311776238E+00 -0.5684566624128E-01  0.5277192377176E+00
 0.8228915762495E+00 -0.9841537758987E+00 -0.3225244041043E-01  0.4718929902880E+00
 0.9799980186765E+00 -0.1015926505879E+01 -0.7185697547617E-02  0.3943915301867E+00
 0.1138803884923E+01 -0.1049132470167E+01  0.1793428321849E-01  0.2936734099291E+00
 0.1295069703638E+01 -0.1081764897584E+01  0.4266096184657E-01  0.1690600480118E+00
 0.1444450673807E+01 -0.1111780954488E+01  0.6653394485515E-01  0.2084871874594E-01
-0.2970723520979E+00 -0.1238210396513E+01 -0.3070565542978E+00 -0.3609515059893E-01
-0.2748936893560E+00 -0.1248060277983E+01 -0.3045907980066E+00  0.2478705401064E-01
-0.2532829031338E+00 -0.1257609513184E+01 -0.3021784877664E+00  0.7779552556304E-01
-0.2325239763509E+00 -0.1266663603732E+01 -0.2998375204845E+00  0.1229883133462E+00
-0.2129143848695E+00 -0.1275011515272E+01 -0.2975851844626E+00  0.1607348868951E+00
-0.1947612618057E+00 -0.1282427661917E+01 -0.2954377891469E+00  0.1916550311001E+00
-0.1783673546165E+00 -0.1288680974876E+01 -0.2934096702706E+00  0.2165416055199E+00
-0.1640111886372E+00 -0.1293547464974E+01 -0.2915117350660E+00  0.2362817520557E+00
-0.1519268747769E+00 -0.1296822236929E+01 -0.2897498266588E+00  0.2517871567482E+00
-0.1422875210378E+00 -0.1298328102927E+01 -0.2881231290863E+00  0.2639401727483E+00
-0.1351941653872E+00 -0.1297919609305E+01 -0.2866227592094E+00  0.2735580851930E+00
-0.1306702620009E+00 -0.1295482822228E+01 -0.2852306210960E+00  0.2813742355619E+00
-0.1286603169557E+00 -0.1290932262961E+01 -0.2839185202141E+00  0.2880327851560E+00
-0.1290306831187E+00 -0.1284206782444E+01 -0.2826474973244E+00  0.2940930952871E+00
-0.1315705115630E+00 -0.1275266092276E+01 -0.2813673249604E+00  0.3000398332364E+00
-0.1359912399487E+00 -0.1264089274941E+01 -0.2800161071506E+00  0.3062955194358E+00
-0.1419236136491E+00 -0.1250676061958E+01 -0.2785199392718E+00  0.3132329536229E+00
-0.1489115583742E+00 -0.1235051750116E+01 -0.2767926658225E+00  0.3211854005701E+00
-0.1564033676750E+00 -0.1217274970011E+01 -0.2747356716311E+00  0.3304534402116E+00
-0.1637403180838E+00 -0.1197448843522E+01 -0.2722378363778E+00  0.3413072764021E+00
-0.1701436679610E+00 -0.1175735235348E+01 -0.2691757846729E+00  0.3539832968605E+00
-0.1747018258040E+00 -0.1152370254617E+01 -0.2654144200392E+00  0.3686750336588E+00
-0.1763591183566E+00 -0.1127681002396E+01 -0.2608080280369E+00  0.3855172760377E+00
-0.1739084884009E+00 -0.1102099007433E+01 -0.2552015029697E+00  0.4045637488172E+00
-0.1659897039431E+00 -0.1076160719571E+01 -0.2484300884046E+00  0.4257593169324E+00
-0.1510990953461E+00 -0.1050515804676E+01 -0.2403229835855E+00  0.4488988264295E+00
-0.1276183499875E+00 -0.1025945252385E+01 -0.2307127239123E+00  0.4735775326438E+00
-0.9386470320424E-01 -0.1003359665080E+01 -0.2194448769268E+00  0.4991359755206E+00
-0.4816475572129E-01 -0.9837706423751E+00 -0.2063870826947E+00  0.5246029794771E+00
 0.1104631893712E-01 -0.9682368152385E+00 -0.1914381021129E+00  0.5486422709293E+00
 0.8510046269349E-01 -0.9577873615507E+00 -0.1745373823722E+00  0.5695107381764E+00
 0.1749506318130E+00 -0.9533268498992E+00 -0.1556752459370E+00  0.5850398655627E+00
 0.2810115242604E+00 -0.9555273828701E+00 -0.1349031737322E+00  0.5926547731305E+00
 0.4030089299968E+00 -0.9647246335095E+00 -0.1123431423766E+00  0.5894457490045E+00
 0.5398708107006E+00 -0.9808304024585E+00 -0.8819191966574E-01  0.5723028286353E+00
 0.6896655878968E+00 -0.1003263022230E+01 -0.6271948780126E-01  0.5381070751236E+00
 0.8495948308031E+00 -0.1030920751821E+01 -0.3626518474388E-01  0.4839670549740E+00
 0.1016073409544E+01 -0.1062222206586E+01 -0.9229759545905E-02  0.4074802259541E+00
 0.1184895635080E+01 -0.1095206972278E+01  0.1793773282778E-01  0.3069792521260E+00
 0.1351476114757E+01 -0.1127690076490E+01  0.4475720832032E-01  0.1817225717423E+00
 0.1511108441495E+01 -0.1157446408521E+01  0.7073240764873E-01  0.3202483817946E-01
-0.3213672255273E+00 -0.1341737751077E+01 -0.3326210002772E+00 -0.3212069461390E-01
-0.2962503485878E+00 -0.1352814609142E+01 -0.3298129964605E+00  0.2868188679101E-01
-0.2716587519145E+00 -0.1363507335254E+01 -0.3270332223068E+00  0.8152346793574E-01
-0.2480012670131E+00 -0.1373546549656E+01 -0.3243095681665E+00  0.1264586995126E+00
-0.2256824567551E+00 -0.1382661138513E+01 -0.3216687238468E+00  0.1638541488378E+00
-0.2050902274767E+00 -0.1390585521240E+01 -0.3191351544988E+00  0.1943297492890E+00
-0.1865782905439E+00 -0.1397070098300E+01 -0.3167296824885E+00  0.2186828396211E+00
-0.1704476003438E+00 -0.1401891648107E+01 -0.3144678543761E+00  0.2378092460906E+00
-0.1569309328907E+00 -0.1404860763214E+01 -0.3123583438754E+00  0.2526323369956E+00
-0.1461828461199E+00 -0.1405824872855E+01 -0.3104015484203E+00  0.2640474312176E+00
-0.1382753814818E+00 -0.1404666862526E+01 -0.3085884533998E+00  0.2728844203512E+00
-0.1331984663959E+00 -0.1401300403109E+01 -0.3068997784741E+00  0.2798877362137E+00
-0.1308630608569E+00 -0.1395663700031E+01 -0.3053053567269E+00  0.2857106271507E+00
-0.1311049320422E+00 -0.1387713440094E+01 -0.3037636789536E+00  0.2909197141983E+00
-0.1336871899594E+00 -0.1377420455206E+01 -0.3022215335365E+00  0.2960058116222E+00
-0.1383002152406E+00 -0.1364768161304E+01 -0.3006136797883E+00  0.3013975533724E+00
-0.1445582455497E+00 -0.1349754311467E+01 -0.2988625158566E+00  0.3074750929553E+00
-0.1519921536466E+00 -0.1332396801243E+01 -0.2968777954018E+00  0.3145816431678E+00
-0.1600390812366E+00 -0.1312742520957E+01 -0.2945563248280E+00  0.3230315992090E+00
-0.1680291227835E+00 -0.1290879830102E+01 -0.2917817949249E+00  0.3331139925875E+00
-0.1751701006970E+00 -0.1266954352881E+01 -0.2884248950134E+00  0.3450899818719E+00
-0.1805322770242E+00 -0.1241186163081E+01 -0.2843436922580E+00  0.3591843698513E+00
-0.1830344316486E+00 -0.1213888511299E+01 -0.2793845927526E+00  0.3755698153710E+00
-0.1814337354247E+00 -0.1185484233179E+01 -0.2733835977944E+00  0.3943438963036E+00
-0.1743213013388E+00 -0.1156512397454E+01 -0.2661667437247E+00  0.4154995990871E+00
-0.1601289486398E+00 -0.1127639853951E+01 -0.2575537643560E+00  0.4388816506377E+00
-0.1371544961727E+00 -0.1099677551837E+01 -0.2473664132880E+00  0.4641337774155E+00
-0.1036089159965E+00 -0.1073578986217E+01 -0.2354375839510E+00  0.4906388535483E+00
-0.5768863476140E-01 -0.1050413954576E+01 -0.2216205211699E+00  0.5174553466100E+00
 0.2324097274420E-02 -0.1031317056986E+01 -0.2057985950090E+00  0.5432558898095E+00
 0.7793176784041E-01 -0.1017411556554E+01 -0.1878959605425E+00  0.5662768463211E+00
 0.1702651827506E+00 -0.1009710600379E+01 -0.1678890860274E+00  0.5842917540435E+00
 0.2799079393799E+00 -0.1009000697628E+01 -0.1458185538226E+00  0.5946249058192E+00
 0.4067238615288E+00 -0.1015721841629E+01 -0.1217995978351E+00  0.5942218920403E+00
 0.5497221485953E+00 -0.1029860265074E+01 -0.9602762472662E-01  0.5797893573254E+00
 0.7069699410777E+00 -0.1050863152905E+01 -0.6877864339042E-01  0.5479991500600E+00
 0.8755657841555E+00 -0.1077599717129E+01 -0.4040678719684E-01  0.4957452076390E+00
 0.1051713644461E+01 -0.1108394986947E+01 -0.1133626866618E-01  0.4204303676503E+00
 0.1230900293984E+01 -0.1141136209754E+01  0.1795281711361E-01  0.3202395625711E+00
 0.1408165467960E+01 -0.1173446506624E+01  0.4694379296669E-01  0.1943550669317E+00
 0.1578405661301E+01 -0.1202901139566E+01  0.7510090546594E-01  0.4310686809178E-01
-0.3456457501942E+00 -0.1445281852688E+01 -0.3581855259139E+00 -0.2767835593816E-01
-0.3175535846699E+00 -0.1457602828029E+01 -0.3550312878301E+00  0.3302652935086E-01
-0.2899435463653E+00 -0.1469457224616E+01 -0.3518801594397E+00  0.8565377591920E-01
-0.2633494772711E+00 -0.1480500892278E+01 -0.3487700791070E+00  0.1302586559555E+00
-0.2382840994621E+00 -0.1490402285622E+01 -0.3457372821687E+00  0.1672115302418E+00
-0.2152176215932E+00 -0.1498855325531E+01 -0.3428145945331E+00  0.1971404835356E+00
-0.1945562026319E+00 -0.1505591559564E+01 -0.3400295575060E+00  0.2208551736198E+00
-0.1766242648573E+00 -0.1510388636733E+01 -0.3374025853458E+00  0.2392666141072E+00
-0.1616536438012E+00 -0.1513073252524E+01 -0.3349453842561E+00  0.2533143567324E+00
-0.1497801107521E+00 -0.1513518510211E+01 -0.3326597291496E+00  0.2639090358980E+00
-0.1410460161565E+00 -0.1511636955251E+01 -0.3305365992069E+00  0.2718935835906E+00
-0.1354068601453E+00 -0.1507371228138E+01 -0.3285556225526E+00  0.2780224844629E+00
-0.1327392070237E+00 -0.1500684421556E+01 -0.3266847305840E+00  0.2829560632300E+00
-0.1328476537723E+00 -0.1491551938505E+01 -0.3248799232966E+00  0.2872656673294E+00
-0.1354691011383E+00 -0.1479956179981E+01 -0.3230850610381E+00  0.2914455580762E+00
-0.1402732091303E+00 -0.1465884847664E+01 -0.3212316161455E+00  0.2959278719638E+00
-0.1468585843005E+00 -0.1449333136558E+01 -0.3192383489288E+00  0.3010977666581E+00
-0.1547444579499E+00 -0.1430310407753E+01 -0.3170109778643E+00  0.3073064315117E+00
-0.1633587286757E+00 -0.1408850111857E+01 -0.3144417727921E+00  0.3148805676853E+00
-0.1720226470584E+00 -0.1385023571498E+01 -0.3114092483517E+00  0.3241270615327E+00
-0.1799332648083E+00 -0.1358957320339E+01 -0.3077781216157E+00  0.3353314877657E+00
-0.1861455430860E+00 -0.1330851995526E+01 -0.3033995122435E+00  0.3487502797632E+00
-0.1895555339761E+00 -0.1301003107203E+01 -0.2981117326780E+00  0.3645951640058E+00
-0.1888871446356E+00 -0.1269820559585E+01 -0.2917415451914E+00  0.3830097404242E+00
-0.1826846693957E+00 -0.1237841748292E+01 -0.2841052877711E+00  0.4040383115944E+00
-0.1693161611792E+00 -0.1205746705608E+01 -0.2750125774554E+00  0.4275798009407E+00
-0.1469947111969E+00 -0.1174372951408E+01 -0.2642735364590E+00  0.4533320612613E+00
-0.1138219321839E+00 -0.1144714540370E+01 -0.2517072982615E+00  0.4807273925748E+00
-0.6785806749252E-01 -0.1117898775739E+01 -0.2371513721802E+00  0.5088622180897E+00
-0.7222958188572E-02 -0.1095137811405E+01 -0.2204721572039E+00  0.5364269395993E+00
 0.6976962586913E-01 -0.1077653370826E+01 -0.2015767519950E+00  0.5616455869329E+00
 0.1644449012565E+00 -0.1066574509889E+01 -0.1804259244150E+00  0.5822395212183E+00
 0.2775741329162E+00 -0.1062812016310E+01 -0.1570475790189E+00  0.5954334579123E+00
 0.4091781408913E+00 -0.1066921453524E+01 -0.1315486644868E+00  0.5980230724545E+00
 0.5583636916051E+00 -0.1078974265747E+01 -0.1041221163799E+00  0.5865186658812E+00
 0.7232068877430E+00 -0.1098454584867E+01 -0.7504954054318E-01  0.5573621182931E+00
 0.9007041650021E+00 -0.1124205817947E+01 -0.4470033125509E-01  0.5072061549398E+00
 0.1086838082838E+01 -0.1154456265712E+01 -0.1352363677621E-01  0.4332307748371E+00
 0.1276765486126E+01 -0.1186930877183E+01  0.1796692205630E-01  0.3334487985387E+00
 0.1465118287830E+01 -0.1219044830549E+01  0.4921469218967E-01  0.2069509140610E+00
 0.1646355710110E+01 -0.1248153602436E+01  0.7964042272154E-01  0.5407893794157E-01
-0.3699079088574E+00 -0.1548867480219E+01 -0.3837550835336E+00 -0.2276088872923E-01
-0.3387922085872E+00 -0.1562454146044E+01 -0.3802492765924E+00  0.3782842578592E-01
-0.3081157518642E+00 -0.1575491796272E+01 -0.3767215152409E+00  0.9019411721261E-01
-0.2785387463955E+00 -0.1587560981261E+01 -0.3732199510927E+00  0.1343959280152E+00
-0.2506839206053E+00 -0.1598269068732E+01 -0.3697906033779E+00  0.1708146596720E+00
-0.2251055384545E+00 -0.1607269075082E+01 -0.3664749281681E+00  0.2000946314918E+00
-0.2022633997190E+00 -0.1614273811440E+01 -0.3633074476456E+00  0.2230658338420E+00
-0.1825057864224E+00 -0.1619062538153E+01 -0.3603136702842E+00  0.2406611778978E+00
-0.1660631852469E+00 -0.1621479346449E+01 -0.3575085116666E+00  0.2538410801749E+00
-0.1530515613112E+00 -0.1621424663121E+01 -0.3548952501749E+00  0.2635339514243E+00
-0.1434822310634E+00 -0.1618842453541E+01 -0.3524649421731E+00  0.2705962232788E+00
-0.1372749019920E+00 -0.1613705964918E+01 -0.3501961786002E+00  0.2757913404848E+00
-0.1342706111813E+00 -0.1606004509146E+01 -0.3480550292519E+00  0.2797845752579E+00
-0.1342420726784E+00 -0.1595733111781E+01 -0.3459950420477E+00  0.2831493075816E+00
-0.1368997965743E+00 -0.1582886156210E+01 -0.3439571956822E+00  0.2863803602018E+00
-0.1418931249040E+00 -0.1567455517832E+01 -0.3418697336414E+00  0.2899105613781E+00
-0.1488060289740E+00 -0.1549433181202E+01 -0.3396478470964E+00  0.2941275145255E+00
-0.1571476666157E+00 -0.1528818766886E+01 -0.3371932917248E+00  0.2993881973287E+00
-0.1663387893056E+00 -0.1505630511962E+01 -0.3343938652364E+00  0.3060298826071E+00
-0.1756943609255E+00 -0.1479920342619E+01 -0.3311229456430E+00  0.3143761063579E+00
-0.1844035851299E+00 -0.1451792740817E+01 -0.3272392700655E+00  0.3247362695114E+00
-0.1915092744322E+00 -0.1421425348382E+01 -0.3225869293698E+00  0.3373985686016E+00
-0.1958879419286E+00 -0.1389091816444E+01 -0.3169959563981E+00  0.3526147955262E+00
-0.1962331849471E+00 -0.1355184553867E+01 -0.3102835523864E+00  0.3705765980459E+00
-0.1910448403256E+00 -0.1320234554563E+01 -0.3022558834817E+00  0.3913827443274E+00
-0.1786285365727E+00 -0.1284930475405E+01 -0.2927118067574E+00  0.4149907674038E+00
-0.1571124209938E+00 -0.1250132335519E+01 -0.2814489554966E+00  0.4411585898424E+00
-0.1244862681102E+00 -0.1216871630719E+01 -0.2682715837633E+00  0.4693755608892E+00
-0.7866858719804E-01 -0.1186331667196E+01 -0.2530000546488E+00  0.4987851874028E+00
-0.1760742796061E-01 -0.1159803042797E+01 -0.2354820976604E+00  0.5281056008012E+00
 0.6058086574420E-01 -0.1138609935042E+01 -0.2156058170724E+00  0.5555579986379E+00
 0.1574337812067E+00 -0.1124004786006E+01 -0.1933142038405E+00  0.5788186812648E+00
 0.2739312467845E+00 -0.1117033375001E+01 -0.1686204281560E+00  0.5950151444080E+00
 0.4102731124250E+00 -0.1118379639653E+01 -0.1416213075560E+00  0.6007884657569E+00
 0.5656835775107E+00 -0.1128213080820E+01 -0.1125059023383E+00  0.5924392992163E+00
 0.7382612349239E+00 -0.1146065006358E+01 -0.8156075550220E-01  0.5661573835543E+00
 0.9249034288147E+00 -0.1170757829099E+01 -0.4917088078948E-01  0.5183252327735E+00
 0.1121360902440E+01 -0.1200420354916E+01 -0.1581189073075E-01  0.4458687397712E+00
 0.1322435930406E+01 -0.1232604149902E+01  0.1796635636868E-01  0.3466010871249E+00
 0.1522315445640E+01 -0.1264498012597E+01  0.5156348737703E-01  0.2195032837208E+00
 0.1714976036441E+01 -0.1293214455703E+01  0.8435231740454E-01  0.6492389091141E-01
-0.3941537086059E+00 -0.1652519402267E+01 -0.4093346282742E+00 -0.1735921049799E-01
-0.3599550529023E+00 -0.1667397730329E+01 -0.4054705626882E+00  0.4309662256142E-01
-0.3261537812280E+00 -0.1681643579969E+01 -0.4015594782232E+00  0.9515323839848E-01
-0.2935390678347E+00 -0.1694761006033E+01 -0.3976600206991E+00  0.1388786246373E+00
-0.2628463235057E+00 -0.1706295306160E+01 -0.3938283318016E+00  0.1746707704489E+00
-0.2347158833479E+00 -0.1715858272195E+01 -0.3901148369218E+00  0.2031985421657E+00
-0.2096621048999E+00 -0.1723144539329E+01 -0.3865613346061E+00  0.2253205573999E+00
-0.1880568642507E+00 -0.1727936378261E+01 -0.3831986542125E+00  0.2419985884025E+00
-0.1701280603033E+00 -0.1730097275126E+01 -0.3800450727490E+00  0.2542187671068E+00
-0.1559700149306E+00 -0.1729557250770E+01 -0.3771054587595E+00  0.2629298038591E+00
-0.1455609865572E+00 -0.1726293912234E+01 -0.3743709853368E+00  0.2690020509776E+00
-0.1387830345530E+00 -0.1720313037195E+01 -0.3718192198901E+00  0.2732067050944E+00
-0.1354402384931E+00 -0.1711631624811E+01 -0.3694143781655E+00  0.2762116922921E+00
-0.1352725787031E+00 -0.1700265258525E+01 -0.3671075729160E+00  0.2785895407924E+00
-0.1379639745711E+00 -0.1686220684037E+01 -0.3648369371581E+00  0.2808325481782E+00
-0.1431439153801E+00 -0.1669493778276E+01 -0.3625275441333E+00  0.2833712187976E+00
-0.1503828485838E+00 -0.1650072598383E+01 -0.3600910947591E+00  0.2865928347479E+00
-0.1591815783985E+00 -0.1627945758448E+01 -0.3574254726954E+00  0.2908577580781E+00
-0.1689559870857E+00 -0.1603114451396E+01 -0.3544140929775E+00  0.2965118723811E+00
-0.1790175231139E+00 -0.1575608783433E+01 -0.3509252665386E+00  0.3038939188105E+00
-0.1885507196881E+00 -0.1545508135225E+01 -0.3468117761505E+00  0.3133362848635E+00
-0.1965897025686E+00 -0.1512963458479E+01 -0.3419106373044E+00  0.3251588111908E+00
-0.2019950167610E+00 -0.1478222213801E+01 -0.3360434511198E+00  0.3396541166175E+00
-0.2034333757599E+00 -0.1441654429620E+01 -0.3290175659787E+00  0.3570637306606E+00
-0.1993630901709E+00 -0.1403779520081E+01 -0.3206285268282E+00  0.3775439321105E+00
-0.1880293714848E+00 -0.1365289616044E+01 -0.3106638021351E+00  0.4011153096241E+00
-0.1674759442850E+00 -0.1327062415632E+01 -0.2989076764376E+00  0.4276020270540E+00
-0.1355790031545E+00 -0.1290162851479E+01 -0.2851483751756E+00  0.4565585990092E+00
-0.9011036697381E-01 -0.1255827785129E+01 -0.2691876344318E+00  0.4871855660441E+00
-0.2883714559538E-01 -0.1225426297852E+01 -0.2508526924274E+00  0.5182399283591E+00
 0.5033582648566E-01 -0.1200388480802E+01 -0.2300105342907E+00  0.5479510339395E+00
 0.1491774690214E+00 -0.1182097676238E+01 -0.2065840445216E+00  0.5739588521204E+00
 0.2688997371867E+00 -0.1171746185099E+01 -0.1805692922732E+00  0.5932974542950E+00
 0.4099069175632E+00 -0.1170160771834E+01 -0.1520507731198E+00  0.6024494896499E+00
 0.5715644892795E+00 -0.1177624116603E+01 -0.1212119272709E+00  0.5974925060539E+00
 0.7520108541944E+00 -0.1193727350215E+01 -0.8834330052062E-01  0.5743404649134E+00
 0.9480498241500E+00 -0.1217278539388E+01 -0.5384574385000E-01  0.5290739075079E+00
 0.1155190254152E+01 -0.1246304770782E+01 -0.1822290359754E-01  0.4583297099850E+00
 0.1367852926929E+01 -0.1278172040195E+01  0.1793617761409E-01  0.3596900912246E+00
 0.1579738123710E+01 -0.1309821806208E+01  0.5398326430479E-01  0.2320051361197E+00
 0.1784288640420E+01 -0.1338097139090E+01  0.8923830159559E-01  0.7562328621817E-01
-0.4183831534618E+00 -0.1756262532467E+01 -0.4349291436667E+00 -0.1146240515112E-01
-0.3810308255785E+00 -0.1772462899386E+01 -0.4306987514108E+00  0.4884176449337E-01
-0.3440357506551E+00 -0.1787945230753E+01 -0.4263962026355E+00  0.1005409473492E+00
-0.3083199958482E+00 -0.1802135183037E+01 -0.4220910420668E+00  0.1437151752470E+00
-0.2747352238041E+00 -0.1814514648164E+01 -0.4178499806200E+00  0.1787866256762E+00
-0.2440101502953E+00 -0.1824653959807E+01 -0.4137328281855E+00  0.2064574107993E+00
-0.2167143248852E+00 -0.1832230606124E+01 -0.4097889923082E+00  0.2276234656432E+00
-0.1932422603804E+00 -0.1837031963866E+01 -0.4060548509000E+00  0.2432826901997E+00
-0.1738171519716E+00 -0.1838943659440E+01 -0.4025521682807E+00  0.2544519408455E+00
-0.1585089789238E+00 -0.1837928230937E+01 -0.3992874479220E+00  0.2621027618287E+00
-0.1472602021052E+00 -0.1833999629615E+01 -0.3962519722487E+00  0.2671197416500E+00
-0.1399128654687E+00 -0.1827198381198E+01 -0.3934222551957E+00  0.2702804415699E+00
-0.1362323512832E+00 -0.1817570775495E+01 -0.3907606311785E+00  0.2722529345209E+00
-0.1359249136201E+00 -0.1805153914396E+01 -0.3882157713881E+00  0.2736057917643E+00
-0.1386476617779E+00 -0.1789967250050E+01 -0.3857229881133E+00  0.2748254836701E+00
-0.1440107592752E+00 -0.1772010430575E+01 -0.3832042436803E+00  0.2763369666941E+00
-0.1515723539147E+00 -0.1751266812147E+01 -0.3805678388833E+00  0.2785242281821E+00
-0.1608267628753E+00 -0.1727712690940E+01 -0.3777078963914E+00  0.2817483980290E+00
-0.1711874519691E+00 -0.1701330348540E+01 -0.3745035656823E+00  0.2863617834489E+00
-0.1819653320036E+00 -0.1672125608507E+01 -0.3708181936277E+00  0.2927166414158E+00
-0.1923436921747E+00 -0.1640149639694E+01 -0.3664986718350E+00  0.3011672425242E+00
-0.2013517413593E+00 -0.1605522900135E+01 -0.3613749336838E+00  0.3120646756844E+00
-0.2078380163193E+00 -0.1568462138560E+01 -0.3552600362697E+00  0.3257428730192E+00
-0.2104462656122E+00 -0.1529309809809E+01 -0.3479512202691E+00  0.3424948338200E+00
-0.2075968155781E+00 -0.1488568116826E+01 -0.3392329915358E+00  0.3625372202793E+00
-0.1974772002862E+00 -0.1446926892430E+01 -0.3288808234440E+00  0.3859580790728E+00
-0.1780480790715E+00 -0.1405275882471E+01 -0.3166647970271E+00  0.4126541396696E+00
-0.1470711953229E+00 -0.1364708462401E+01 -0.3023559360503E+00  0.4422536352600E+00
-0.1021674766863E+00 -0.1326511508705E+01 -0.2857358013360E+00  0.4740249032716E+00
-0.4091434525002E-01 -0.1292131591515E+01 -0.2666091913258E+00  0.5067762003252E+00
 0.3900922523414E-01 -0.1263107448689E+01 -0.2448196483391E+00  0.5387576667435E+00
 0.1396240124162E+00 -0.1240960717128E+01 -0.2202673442245E+00  0.5675835768480E+00
 0.2623998487992E+00 -0.1227042503884E+01 -0.1929285338919E+00  0.5902001871468E+00
 0.4079745596212E+00 -0.1222338581801E+01 -0.1628728068630E+00  0.6029291176847E+00
 0.5758832501940E+00 -0.1227262448162E+01 -0.1302758415348E+00  0.6016114478527E+00
 0.7643258692374E+00 -0.1241480472898E+01 -0.9543092215422E-01  0.5818602468560E+00
 0.9700213680757E+00 -0.1263795219564E+01 -0.5875477117327E-01  0.5394191945079E+00
 0.1188227304911E+01 -0.1292130605650E+01 -0.2078066045759E-01  0.4705969431490E+00
 0.1412953735677E+01 -0.1323653793136E+01  0.1785998877422E-01  0.3727088946862E+00
 0.1637367706230E+01 -0.1355035241571E+01  0.5646649377319E-01  0.2444492598848E+00
 0.1854320553004E+01 -0.1382818460112E+01  0.9430041998351E-01  0.8615743936941E-01
-0.4425962181259E+00 -0.1860122099870E+01 -0.4605436704618E+00 -0.5057707230706E-02
-0.4020079592434E+00 -0.1877679334690E+01 -0.4559374655807E+00  0.5507610351604E-01
-0.3617392251233E+00 -0.1894429755296E+01 -0.4512338028077E+00  0.1063680952874E+00
-0.3228503378272E+00 -0.1909717956276E+01 -0.4465136654742E+00  0.1489142702394E+00
-0.2863137516771E+00 -0.1922960711049E+01 -0.4418548991294E+00  0.1831684134492E+00
-0.2529491888014E+00 -0.1933686761942E+01 -0.4373271966654E+00  0.2098751371491E+00
-0.2233817138054E+00 -0.1941557992368E+01 -0.4329879476868E+00  0.2299769019374E+00
-0.1980267676594E+00 -0.1946369735144E+01 -0.4288793069515E+00  0.2445153571971E+00
-0.1770997824247E+00 -0.1948033300352E+01 -0.4250266228888E+00  0.2545432370836E+00
-0.1606427776578E+00 -0.1946547353771E+01 -0.4214380325657E+00  0.2610574079446E+00
-0.1485589253166E+00 -0.1941965388981E+01 -0.4181048690897E+00  0.2649568312566E+00
-0.1406473572776E+00 -0.1934365190164E+01 -0.4150025156723E+00  0.2670237988611E+00
-0.1366327052174E+00 -0.1923824066926E+01 -0.4120913605693E+00  0.2679237596516E+00
-0.1361863657209E+00 -0.1910401614255E+01 -0.4093176020944E+00  0.2682179716281E+00
-0.1389384037681E+00 -0.1894130291798E+01 -0.4066137451721E+00  0.2683835476782E+00
-0.1444802481561E+00 -0.1875013229996E+01 -0.4038987016489E+00  0.2688364632388E+00
-0.1523590824177E+00 -0.1853028261748E+01 -0.4010774748096E+00  0.2699542362196E+00
-0.1620647442751E+00 -0.1828138024270E+01 -0.3980405596402E+00  0.2720959412052E+00
-0.1730109017698E+00 -0.1800304007099E+01 -0.3946629876547E+00  0.2756178982692E+00
-0.1845111016273E+00 -0.1769505278136E+01 -0.3908032817761E+00  0.2808839422199E+00
-0.1957510540770E+00 -0.1735761655655E+01 -0.3863025477028E+00  0.2882688463045E+00
-0.2057591220062E+00 -0.1699159225709E+01 -0.3809836752202E+00  0.2981542494964E+00
-0.2133761832033E+00 -0.1659879345451E+01 -0.3746511113137E+00  0.3109155673992E+00
-0.2172274468866E+00 -0.1618231417985E+01 -0.3670917784444E+00  0.3268985521845E+00
-0.2156994421375E+00 -0.1574694357156E+01 -0.3580787651945E+00  0.3463828735828E+00
-0.2069255607549E+00 -0.1529949285550E+01 -0.3473749744372E+00  0.3695283056968E+00
-0.1887856921614E+00 -0.1484891498621E+01 -0.3347354431444E+00  0.3963105281627E+00
-0.1589272738079E+00 -0.1440636726098E+01 -0.3199128047483E+00  0.4264404065620E+00
-0.1148170840777E+00 -0.1398517065031E+01 -0.3026668343319E+00  0.4592656216787E+00
-0.5383471798737E-01 -0.1360054333717E+01 -0.2827778145546E+00  0.4936593781374E+00
 0.2658114700326E-01 -0.1326897686253E+01 -0.2600633117253E+00  0.5279070871333E+00
 0.1287247461014E+00 -0.1300714118787E+01 -0.2343978780298E+00  0.5596101863817E+00
 0.2543522159144E+00 -0.1283026471926E+01 -0.2057348542679E+00  0.5856349694913E+00
 0.4043680552029E+00 -0.1274997495232E+01 -0.1741258906005E+00  0.6021411098213E+00
 0.5785104400671E+00 -0.1277191917569E+01 -0.1397362975826E+00  0.6047202811684E+00
 0.7750677910516E+00 -0.1289369960189E+01 -0.1028604353602E+00  0.5886580970560E+00
 0.9906867113865E+00 -0.1310340181344E+01 -0.6393069494418E-01  0.5493229796434E+00
 0.1220365145357E+01 -0.1337922962818E+01 -0.2351156384250E-01  0.4826511220869E+00
 0.1457670830515E+01 -0.1369072324586E+01  0.1771970144985E-01  0.3856498958709E+00
 0.1695185589091E+01 -0.1400161138722E+01  0.5900489095314E-01  0.2568283427015E+00
 0.1925104313824E+01 -0.1427399197039E+01  0.9954102484020E-01  0.9650549902364E-01
-0.4667928221942E+00 -0.1964123838748E+01 -0.4861833394332E+00  0.1869533476552E-02
-0.4228744522366E+00 -0.1983077314320E+01 -0.4811903604817E+00  0.6181352079128E-01
-0.3792409474727E+00 -0.2001130760499E+01 -0.4760743486884E+00  0.1126465581234E+00
-0.3370978264694E+00 -0.2017544216658E+01 -0.4709284156428E+00  0.1544847834837E+00
-0.2975439357427E+00 -0.2031667223132E+01 -0.4658422387165E+00  0.1878216096845E+00
-0.2614929586535E+00 -0.2042986927470E+01 -0.4608959840925E+00  0.2134541443369E+00
-0.2296254332808E+00 -0.2051151731970E+01 -0.4561554398475E+00  0.2323812313940E+00
-0.2023751814013E+00 -0.2055968608619E+01 -0.4516687647345E+00  0.2456962980711E+00
-0.1799457809083E+00 -0.2057378957128E+01 -0.4474649542751E+00  0.2544932331439E+00
-0.1623466902930E+00 -0.2055421905752E+01 -0.4435537258184E+00  0.2597966007958E+00
-0.1494375118820E+00 -0.2050194193412E+01 -0.4399263476143E+00  0.2625196123729E+00
-0.1409710270851E+00 -0.2041813655591E+01 -0.4365569430403E+00  0.2634473367514E+00
-0.1366287539952E+00 -0.2030390457073E+01 -0.4334038486718E+00  0.2632395119329E+00
-0.1360459723099E+00 -0.2016007655489E+01 -0.4304107319734E+00  0.2624464461118E+00
-0.1388254637446E+00 -0.1998710963337E+01 -0.4275072917866E+00  0.2615321261777E+00
-0.1445405830418E+00 -0.1978506643138E+01 -0.4246094515631E+00  0.2608999069034E+00
-0.1527289954812E+00 -0.1955366141091E+01 -0.4216190335970E+00  0.2609174695137E+00
-0.1628782015093E+00 -0.1929237082269E+01 -0.4184230629906E+00  0.2619388126758E+00
-0.1744048449763E+00 -0.1900058295875E+01 -0.4148926343527E+00  0.2643216404155E+00
-0.1866284640435E+00 -0.1867779643652E+01 -0.4108816276617E+00  0.2684391771714E+00
-0.1987410789315E+00 -0.1832386464359E+01 -0.4062255147113E+00  0.2746850297749E+00
-0.2097745656648E+00 -0.1793926560135E+01 -0.4007402311315E+00  0.2834703616419E+00
-0.2185668749421E+00 -0.1752541099160E+01 -0.3942216006948E+00  0.2952118834594E+00
-0.2237296144063E+00 -0.1708500704083E+01 -0.3864460694563E+00  0.3103090152881E+00
-0.2236203741367E+00 -0.1662254494991E+01 -0.3771749794460E+00  0.3291067252586E+00
-0.2163227921507E+00 -0.1614467825760E+01 -0.3661581290384E+00  0.3518405485177E+00
-0.1996393232805E+00 -0.1566034130204E+01 -0.3531346959590E+00  0.3785714476124E+00
-0.1711044181859E+00 -0.1518084206400E+01 -0.3378377299514E+00  0.4091020935405E+00
-0.1280286049787E+00 -0.1471989151400E+01 -0.3200035560441E+00  0.4428717832089E+00
-0.6758637401518E-01 -0.1429342303235E+01 -0.2993857399113E+00  0.4788336976261E+00
 0.1303816891535E-01 -0.1391903751679E+01 -0.2757731206620E+00  0.5153250041906E+00
 0.1164353370860E+00 -0.1361492312471E+01 -0.2490113987876E+00  0.5499497215825E+00
 0.2446786192130E+00 -0.1339815956166E+01 -0.2190274706543E+00  0.5795047608294E+00
 0.3989766990934E+00 -0.1328234186527E+01 -0.1858515002562E+00  0.5999891580696E+00
 0.5793100480503E+00 -0.1327486435155E+01 -0.1496352796507E+00  0.6067331003861E+00
 0.7840885988412E+00 -0.1337449093350E+01 -0.1106721005510E+00  0.5946668330329E+00
 0.1009903877315E+01 -0.1356951449283E+01 -0.6940951542789E-01  0.5587412269120E+00
 0.1251487544209E+01 -0.1383711469778E+01 -0.2644478550797E-01  0.4944699191614E+00
 0.1501931020822E+01 -0.1414454718208E+01  0.1749526078351E-01  0.3985047028814E+00
 0.1753172912270E+01 -0.1445226664542E+01  0.6158925046341E-01  0.2691350693184E+00
 0.1996678460473E+01 -0.1471864735907E+01  0.1049627464771E+00  0.1066455627333E+00
-0.4909728041610E+00 -0.2068294202481E+01 -0.5118534089555E+00  0.9335908470682E-02
-0.4436176972777E+00 -0.2088687974276E+01 -0.5064611418577E+00  0.6906956298744E-01
-0.3965165445997E+00 -0.2108082729718E+01 -0.5009198623278E+00  0.1193892163672E+00
-0.3510287651247E+00 -0.2125649543596E+01 -0.4953356691252E+00  0.1604356743334E+00
-0.3083863641343E+00 -0.2140668182912E+01 -0.4898109167079E+00  0.1927508048334E+00
-0.2696002715687E+00 -0.2152584374367E+01 -0.4844369364057E+00  0.2171951544371E+00
-0.2354060106214E+00 -0.2161035838623E+01 -0.4792883769908E+00  0.2348345996702E+00
-0.2062522784373E+00 -0.2165845805325E+01 -0.4744196238218E+00  0.2468228300611E+00
-0.1823255644286E+00 -0.2166991110007E+01 -0.4698633418886E+00  0.2543002576976E+00
-0.1635971028138E+00 -0.2164556441129E+01 -0.4656307157271E+00  0.2583213285528E+00
-0.1498778185627E+00 -0.2158685993080E+01 -0.4617127692086E+00  0.2598130292699E+00
-0.1408701568054E+00 -0.2149540706275E+01 -0.4580821794420E+00  0.2595608542934E+00
-0.1362098622171E+00 -0.2137265511577E+01 -0.4546950815343E+00  0.2582153746402E+00
-0.1354947289303E+00 -0.2121967865653E+01 -0.4514925256445E+00  0.2563120048554E+00
-0.1383000279319E+00 -0.2103706905314E+01 -0.4484013933309E+00  0.2542975929064E+00
-0.1441817791658E+00 -0.2082491608177E+01 -0.4453346841046E+00  0.2525590338370E+00
-0.1526696867886E+00 -0.2058286136781E+01 -0.4421911713032E+00  0.2514506253883E+00
-0.1632511835080E+00 -0.2031021757930E+01 -0.4388545948270E+00  0.2513180852818E+00
-0.1753488041958E+00 -0.2000612813600E+01 -0.4351923300440E+00  0.2525176631745E+00
-0.1882915985677E+00 -0.1966977568458E+01 -0.4310538398283E+00  0.2554295358621E+00
-0.2012819902805E+00 -0.1930063806298E+01 -0.4262691656676E+00  0.2604641765528E+00
-0.2133599967483E+00 -0.1889877148311E+01 -0.4206474352799E+00  0.2680608962417E+00
-0.2233657411166E+00 -0.1846513709145E+01 -0.4139758962210E+00  0.2786771110145E+00
-0.2299026750798E+00 -0.1800199398742E+01 -0.4060204208145E+00  0.2927663893928E+00
-0.2313049952016E+00 -0.1751346646625E+01 -0.3965303342742E+00  0.3107408632879E+00
-0.2256118770346E+00 -0.1700597342734E+01 -0.3852418496942E+00  0.3329155102095E+00
-0.2105528158300E+00 -0.1648834702022E+01 -0.3718775091118E+00  0.3594427232120E+00
-0.1835519348065E+00 -0.1597196011023E+01 -0.3561495944729E+00  0.3902262804599E+00
-0.1417628084854E+00 -0.1547083540004E+01 -0.3377692747310E+00  0.4248100028373E+00
-0.8214870835057E-01 -0.1500156660122E+01 -0.3164610784102E+00  0.4622434139159E+00
-0.1625367246639E-02 -0.1458285325508E+01 -0.2919821429017E+00  0.5009340829160E+00
 0.1027170151648E+00 -0.1423445678002E+01 -0.2641457365034E+00  0.5385069380278E+00
 0.2333029314189E+00 -0.1397544429977E+01 -0.2328483031814E+00  0.5717033631206E+00
 0.3916874742509E+00 -0.1382159395016E+01 -0.1980943871049E+00  0.5963659456469E+00
 0.5781391797072E+00 -0.1378231523822E+01 -0.1600184712074E+00  0.6075527230783E+00
 0.7912297614673E+00 -0.1385780004762E+01 -0.1189100504308E+00  0.5998095104762E+00
 0.1027518848480E+01 -0.1403673559989E+01 -0.7523094342301E-01  0.5676230471508E+00
 0.1281467519017E+01 -0.1429530877030E+01 -0.2961267204382E-01  0.5060274948263E+00
 0.1545654420293E+01 -0.1459832790690E+01  0.1716432617626E-01  0.4112640219862E+00
 0.1811310201570E+01 -0.1490263945059E+01  0.6420925225888E-01  0.2813622381269E+00
 0.2069088021326E+01 -0.1516245746349E+01  0.1105684566431E+00  0.1165548296576E+00
-0.5151358943919E+00 -0.2172660606349E+01 -0.5375593081585E+00  0.1736003040026E-01
-0.4642242923932E+00 -0.2194543600462E+01 -0.5317535864947E+00  0.7686149358048E-01
-0.4135402025664E+00 -0.2215321326942E+01 -0.5257723137362E+00  0.1266099322712E+00
-0.3646076379300E+00 -0.2234070464376E+01 -0.5197356282058E+00  0.1667758652001E+00
-0.3187998169820E+00 -0.2249998018925E+01 -0.5137595748371E+00  0.1979594890305E+00
-0.2772285178689E+00 -0.2262508717989E+01 -0.5079474547405E+00  0.2210969155340E+00
-0.2406831969198E+00 -0.2271233201768E+01 -0.5023832872236E+00  0.2373326472227E+00
-0.2096228074581E+00 -0.2276016640203E+01 -0.4971278969400E+00  0.2478896198216E+00
-0.1842102355933E+00 -0.2276877682258E+01 -0.4922175909048E+00  0.2539601818000E+00
-0.1643716779405E+00 -0.2273952475629E+01 -0.4876648379806E+00  0.2566305565265E+00
-0.1498634114479E+00 -0.2267437379893E+01 -0.4834601654724E+00  0.2568405755142E+00
-0.1403330147799E+00 -0.2257539719744E+01 -0.4795745540510E+00  0.2553733246655E+00
-0.1353675260961E+00 -0.2244441135035E+01 -0.4759617393186E+00  0.2528663288932E+00
-0.1345258042565E+00 -0.2228274347064E+01 -0.4725600373059E+00  0.2498358342099E+00
-0.1373554162283E+00 -0.2209111990547E+01 -0.4692934883480E+00  0.2467072913211E+00
-0.1433958774062E+00 -0.2186965266697E+01 -0.4660722357657E+00  0.2438471096941E+00
-0.1521706003976E+00 -0.2161790131655E+01 -0.4627921533067E+00  0.2415924953704E+00
-0.1631693387552E+00 -0.2133500175989E+01 -0.4593339097935E+00  0.2402775131121E+00
-0.1758235594971E+00 -0.2101983501113E+01 -0.4555614189103E+00  0.2402539229159E+00
-0.1894754876393E+00 -0.2067124484611E+01 -0.4513200011752E+00  0.2419061719306E+00
-0.2033422238336E+00 -0.2028830382618E+01 -0.4464345279428E+00  0.2456593276556E+00
-0.2164767984477E+00 -0.1987060809388E+01 -0.4407075281341E+00  0.2519790989285E+00
-0.2277269503584E+00 -0.1941861955260E+01 -0.4339177875896E+00  0.2613625744433E+00
-0.2356939132622E+00 -0.1893408942564E+01 -0.4258205775105E+00  0.2743174491447E+00
-0.2386947263381E+00 -0.1842070273022E+01 -0.4161530060732E+00  0.2913243598843E+00
-0.2347303347953E+00 -0.1788456069280E+01 -0.4046372868447E+00  0.3127809255124E+00
-0.2214629824618E+00 -0.1733430009511E+01 -0.3909786042207E+00  0.3389367758301E+00
-0.1962106363678E+00 -0.1678125909973E+01 -0.3748673148540E+00  0.3698060627891E+00
-0.1559708773222E+00 -0.1623967598415E+01 -0.3559877004521E+00  0.4050505411191E+00
-0.9749116003820E-01 -0.1572672937209E+01 -0.3340328244269E+00  0.4438337390859E+00
-0.1740591046508E-01 -0.1526218684491E+01 -0.3087249235916E+00  0.4846545581546E+00
 0.8753802698764E-01 -0.1486742423961E+01 -0.2798408835646E+00  0.5251804333961E+00
 0.2201523002283E+00 -0.1456363083481E+01 -0.2472421603348E+00  0.5621149608737E+00
 0.3823856533582E+00 -0.1436900011119E+01 -0.2109028746949E+00  0.5911521249296E+00
 0.5748478456549E+00 -0.1429526117969E+01 -0.1709356570099E+00  0.6070692981408E+00
 0.7963211928704E+00 -0.1434435023041E+01 -0.1276227679358E+00  0.6039979958238E+00
 0.1043363960791E+01 -0.1450558470467E+01 -0.8143890314869E-01  0.5759095897302E+00
 0.1310165665007E+01 -0.1475421714380E+01 -0.3305121036693E-01  0.5172939051426E+00
 0.1588753204887E+01 -0.1505243701065E+01  0.1670190101318E-01  0.4239175223652E+00
 0.1869576859549E+01 -0.1535310710170E+01  0.6685323087198E-01  0.2935028776993E+00
 0.2142384929341E+01 -0.1560578871904E+01  0.1163612132214E+00  0.1262097720534E+00
-0.5392816855398E+00 -0.2277251706774E+01 -0.5633066868567E+00  0.2596263627383E-01
-0.4846798295961E+00 -0.2300677965691E+01 -0.5570715673583E+00  0.8520835951778E-01
-0.4302843031807E+00 -0.2322883747048E+01 -0.5506336182508E+00  0.1343235214071E+00
-0.3777966778454E+00 -0.2342844751270E+01 -0.5441282939312E+00  0.1735140888454E+00
-0.3287408666937E+00 -0.2359691771640E+01 -0.5376865356790E+00  0.2034497880587E+00
-0.2843333790464E+00 -0.2372789304375E+01 -0.5314245446030E+00  0.2251558730222E+00
-0.2454158295621E+00 -0.2381765475519E+01 -0.5254362688458E+00  0.2398681738540E+00
-0.2124514969042E+00 -0.2386494300730E+01 -0.5197891672723E+00  0.2488883887508E+00
-0.1855717036114E+00 -0.2387043755901E+01 -0.5145230995696E+00  0.2534661906889E+00
-0.1646495473473E+00 -0.2383608183797E+01 -0.5096515538232E+00  0.2547210690252E+00
-0.1493797918201E+00 -0.2376441297956E+01 -0.5051642254827E+00  0.2536041941741E+00
-0.1393500891655E+00 -0.2365800261000E+01 -0.5010300774990E+00  0.2508928354000E+00
-0.1340956009477E+00 -0.2351905338712E+01 -0.4972001953409E+00  0.2472071160950E+00
-0.1331347587115E+00 -0.2334915263844E+01 -0.4936100118665E+00  0.2430394889130E+00
-0.1359872958384E+00 -0.2314916114909E+01 -0.4901806894538E+00  0.2387895091360E+00
-0.1421771601908E+00 -0.2291920740808E+01 -0.4868195874539E+00  0.2347989073319E+00
-0.1512232567850E+00 -0.2265875950991E+01 -0.4834198487588E+00  0.2313839522472E+00
-0.1626201580044E+00 -0.2236676393310E+01 -0.4798593174133E+00  0.2288635390455E+00
-0.1758114116681E+00 -0.2204182284265E+01 -0.4759987462795E+00  0.2275817223593E+00
-0.1901562007609E+00 -0.2168241970835E+01 -0.4716796413478E+00  0.2279243009240E+00
-0.2048907272050E+00 -0.2128719366331E+01 -0.4667220256619E+00  0.2303283562575E+00
-0.2190861164637E+00 -0.2085524386808E+01 -0.4609221075225E+00  0.2352838540116E+00
-0.2316034766857E+00 -0.2038648492908E+01 -0.4540504006846E+00  0.2433260401052E+00
-0.2410482256446E+00 -0.1988209877473E+01 -0.4458516272672E+00  0.2550161429899E+00
-0.2457271602387E+00 -0.1934525607673E+01 -0.4360505600801E+00  0.2709040177848E+00
-0.2436101909565E+00 -0.1878165178675E+01 -0.4243550802496E+00  0.2914724986548E+00
-0.2322993339015E+00 -0.1819962461973E+01 -0.4104523652911E+00  0.3170737371433E+00
-0.2090122550678E+00 -0.1761036399703E+01 -0.3940097368255E+00  0.3478412894793E+00
-0.1705934514370E+00 -0.1702820793996E+01 -0.3746828546698E+00  0.3835685731979E+00
-0.1135718845781E+00 -0.1647082082104E+01 -0.3521307985836E+00  0.4235519820863E+00
-0.3428908858002E-01 -0.1595898319023E+01 -0.3260374863790E+00  0.4664050451770E+00
 0.7087532862760E-01 -0.1551570718839E+01 -0.2961390824551E+00  0.5098629211183E+00
 0.2051586022920E+00 -0.1516443282220E+01 -0.2622569398936E+00  0.5506137093499E+00
 0.3709556356508E+00 -0.1492601566367E+01 -0.2243291894861E+00  0.5842152144289E+00
 0.5692788692337E+00 -0.1481484753360E+01 -0.1824411795438E+00  0.6051587142038E+00
 0.7991801577697E+00 -0.1483498327951E+01 -0.1368636360757E+00  0.6071312858924E+00
 0.1057256101877E+01 -0.1497666669817E+01 -0.8808211490054E-01  0.5835327275848E+00
 0.1337428249307E+01 -0.1521431084576E+01 -0.3680056760219E-01  0.5282344156509E+00
 0.1631130211003E+01 -0.1550730692192E+01  0.1607990400182E-01  0.4364536927041E+00
 0.1927950588428E+01 -0.1580411067528E+01  0.6950790521561E-01  0.3055503670524E+00
 0.2216628469402E+01 -0.1604907518536E+01  0.1223441919963E+00  0.1355863365772E+00
-0.5634096012068E+00 -0.2382097723845E+01 -0.5891014737887E+00  0.3516672228029E-01
-0.5049686543765E+00 -0.2407126713469E+01 -0.5824190822479E+00  0.9413107665611E-01
-0.4467190114800E+00 -0.2430809108002E+01 -0.5755056324721E+00  0.1425457185050E+00
-0.3905553820340E+00 -0.2452011743126E+01 -0.5685134335036E+00  0.1806587008658E+00
-0.3381634395924E+00 -0.2469785273337E+01 -0.5615897509542E+00  0.2092221436095E+00
-0.2908685253666E+00 -0.2483455214297E+01 -0.5548647562009E+00  0.2293657797497E+00
-0.2495617029053E+00 -0.2492652918363E+01 -0.5484429324261E+00  0.2424307516122E+00
-0.2147030864132E+00 -0.2497289567540E+01 -0.5423985388730E+00  0.2498075850377E+00
-0.1863828344076E+00 -0.2497491231011E+01 -0.5367748210824E+00  0.2528085420730E+00
-0.1644115306111E+00 -0.2493518048084E+01 -0.5315859236603E+00  0.2525873133915E+00
-0.1484146420095E+00 -0.2485686716090E+01 -0.5268202794701E+00  0.2501041893803E+00
-0.1379143336108E+00 -0.2474307792456E+01 -0.5224444329983E+00  0.2461265427434E+00
-0.1323905346193E+00 -0.2459641985461E+01 -0.5184065117409E+00  0.2412522123849E+00
-0.1313197651485E+00 -0.2441874608434E+01 -0.5146388823852E+00  0.2359448706374E+00
-0.1341938958350E+00 -0.2421104966366E+01 -0.5110597800556E+00  0.2305734532153E+00
-0.1405223697241E+00 -0.2397346883946E+01 -0.5075738582975E+00  0.2254506781654E+00
-0.1498214847433E+00 -0.2370537075321E+01 -0.5040717195242E+00  0.2208679246835E+00
-0.1615932281563E+00 -0.2340550056443E+01 -0.5004286643769E+00  0.2171252848338E+00
-0.1752964634962E+00 -0.2307216662429E+01 -0.4965026325834E+00  0.2145557327759E+00
-0.1903112047926E+00 -0.2270347262347E+01 -0.4921317007612E+00  0.2135432752749E+00
-0.2058972958379E+00 -0.2229759829103E+01 -0.4871314322470E+00  0.2145341201451E+00
-0.2211492102011E+00 -0.2185311095014E+01 -0.4812920682148E+00  0.2180399433686E+00
-0.2349474455506E+00 -0.2136933133348E+01 -0.4743761228485E+00  0.2246321145422E+00
-0.2459084277486E+00 -0.2084681089864E+01 -0.4661179104682E+00  0.2349241655286E+00
-0.2523362761254E+00 -0.2028812913066E+01 -0.4562298446366E+00  0.2495351488949E+00
-0.2521780288095E+00 -0.1969848131435E+01 -0.4444052386711E+00  0.2690349094066E+00
-0.2429838789999E+00 -0.1908579626284E+01 -0.4303127074689E+00  0.2938826804653E+00
-0.2218788964305E+00 -0.1846098577349E+01 -0.4135955009189E+00  0.3243399754797E+00
-0.1855596567790E+00 -0.1783835046098E+01 -0.3938789464447E+00  0.3603456817544E+00
-0.1303363302727E+00 -0.1723591420407E+01 -0.3707855556610E+00  0.4013489510266E+00
-0.5224790195340E-01 -0.1667538581744E+01 -0.3439573018648E+00  0.4461036163657E+00
 0.5271656548966E-01 -0.1618140987931E+01 -0.3130848891536E+00  0.4924417199860E+00
 0.1882602355930E+00 -0.1577979322728E+01 -0.2779438215686E+00  0.5370634257763E+00
 0.3572820898461E+00 -0.1549431106847E+01 -0.2384298069530E+00  0.5754084372841E+00
 0.5612679599181E+00 -0.1534240142193E+01 -0.1945944393547E+00  0.6016807866323E+00
 0.7996101192543E+00 -0.1533067896712E+01 -0.1466915576775E+00  0.6090935151826E+00
 0.1068994638757E+01 -0.1545068441895E+01 -0.9521476204633E-01  0.5904134695694E+00
 0.1363084956998E+01 -0.1567613517415E+01 -0.4090571269296E-01  0.5388086845565E+00
 0.1672677265029E+01 -0.1596343897555E+01  0.1526667372220E-01  0.4488596771736E+00
 0.1986406630971E+01 -0.1625616353080E+01  0.7215805665341E-01  0.3174985295437E+00
 0.2291885564491E+01 -0.1649282673839E+01  0.1285205800456E+00  0.1446601389641E+00
-0.5875188584772E+00 -0.2487230816282E+01 -0.6149499441152E+00  0.4499770671345E-01
-0.5250735871381E+00 -0.2513927801643E+01 -0.6078002868131E+00  0.1036525318812E+00
-0.4628118007556E+00 -0.2539138898344E+01 -0.6003901487664E+00  0.1512931294539E+00
-0.4028399625026E+00 -0.2561612701718E+01 -0.5928905416789E+00  0.1882174440241E+00
-0.3470183323494E+00 -0.2580315331421E+01 -0.5854667414783E+00  0.2152749221011E+00
-0.2967852988261E+00 -0.2594535239714E+01 -0.5782641163248E+00  0.2337172308608E+00
-0.2530774525807E+00 -0.2603914184595E+01 -0.5713983359496E+00  0.2450062761862E+00
-0.2163423893120E+00 -0.2608410480708E+01 -0.5649505824225E+00  0.2506320173186E+00
-0.1866176366031E+00 -0.2608218437277E+01 -0.5589672231052E+00  0.2519743092820E+00
-0.1636403853500E+00 -0.2603672474152E+01 -0.5534625801477E+00  0.2502212461206E+00
-0.1469580930688E+00 -0.2595158282308E+01 -0.5484232832476E+00  0.2463391489594E+00
-0.1360214248688E+00 -0.2583043379311E+01 -0.5438129689394E+00  0.2410806385927E+00
-0.1302516050573E+00 -0.2567630539383E+01 -0.5395764369283E+00  0.2350158118055E+00
-0.1290818290684E+00 -0.2549131977567E+01 -0.5356427693088E+00  0.2285742083106E+00
-0.1319762199382E+00 -0.2527659804024E+01 -0.5319272127189E+00  0.2220892180451E+00
-0.1384309260069E+00 -0.2503228038801E+01 -0.5283318008344E+00  0.2158401088979E+00
-0.1479616570204E+00 -0.2475762354604E+01 -0.5247448101441E+00  0.2100893497294E+00
-0.1600804957595E+00 -0.2445116052386E+01 -0.5210393173931E+00  0.2051145127125E+00
-0.1742649182368E+00 -0.2411089279734E+01 -0.5170708472991E+00  0.2012339827218E+00
-0.1899197006737E+00 -0.2373452730499E+01 -0.5126744938740E+00  0.1988266224691E+00
-0.2063329464534E+00 -0.2331976122122E+01 -0.5076618212797E+00  0.1983445762344E+00
-0.2226278546168E+00 -0.2286459801134E+01 -0.5018175386278E+00  0.2003182695519E+00
-0.2377105454912E+00 -0.2236772036156E+01 -0.4948965237041E+00  0.2053526141089E+00
-0.2502156416778E+00 -0.2182898939724E+01 -0.4866229235316E+00  0.2141115160360E+00
-0.2584527495938E+00 -0.2125031595231E+01 -0.4766968760682E+00  0.2272823642557E+00
-0.2603551432983E+00 -0.2063629854411E+01 -0.4647970064678E+00  0.2455228686394E+00
-0.2534310210566E+00 -0.1999433585870E+01 -0.4505729280995E+00  0.2694029534451E+00
-0.2347225617603E+00 -0.1933491831793E+01 -0.4336428851725E+00  0.2993198804687E+00
-0.2007861451922E+00 -0.1867214927540E+01 -0.4136002207095E+00  0.3353715845321E+00
-0.1477157343714E+00 -0.1802425543044E+01 -0.3900282612949E+00  0.3771806465680E+00
-0.7124071836428E-01 -0.1741375382261E+01 -0.3625232255270E+00  0.4236691901198E+00
 0.3306237317523E-01 -0.1686688415633E+01 -0.3307252134197E+00  0.4727995154416E+00
 0.1694043154804E+00 -0.1641191559346E+01 -0.2943574531593E+00  0.5213174328669E+00
 0.3412514892923E+00 -0.1607580559696E+01 -0.2532658178546E+00  0.5645695224777E+00
 0.5506440317870E+00 -0.1587946262276E+01 -0.2074604491891E+00  0.5964771979562E+00
 0.7973995637823E+00 -0.1583257855693E+01 -0.1571716607242E+00  0.6097515814093E+00
 0.1078359049107E+01 -0.1592845343902E+01 -0.1028972604924E+00  0.5964600242456E+00
 0.1386946242756E+01 -0.1614031907519E+01 -0.4541713362936E-01  0.5489697878430E+00
 0.1713273255568E+01 -0.1642141252094E+01  0.1422640090684E-01  0.4611211105049E+00
 0.2044916882945E+01 -0.1670986130400E+01  0.7478615162343E-01  0.3293416902029E+00
 0.2368230910154E+01 -0.1693763817075E+01  0.1348934206257E+00  0.1534066124353E+00
-0.6116084262989E+00 -0.2592685522298E+01 -0.6408587992688E+00  0.5548363288417E-01
-0.5449755995327E+00 -0.2621122024334E+01 -0.6332195342091E+00  0.1137977074147E+00
-0.4785269037495E+00 -0.2647917499232E+01 -0.6252888899138E+00  0.1605831690734E+00
-0.4146027223345E+00 -0.2671691218721E+01 -0.6172587974089E+00  0.1961971576323E+00
-0.3552526804488E+00 -0.2691319925589E+01 -0.6093145302871E+00  0.2216039429847E+00
-0.3020323866180E+00 -0.2706057839308E+01 -0.6016180541500E+00  0.2381971170297E+00
-0.2559184637850E+00 -0.2715566074617E+01 -0.5942969165362E+00  0.2475764563023E+00
-0.2173343976689E+00 -0.2719861963495E+01 -0.5874392809864E+00  0.2513424553535E+00
-0.1862514927581E+00 -0.2719219716857E+01 -0.5810942505820E+00  0.2509471185708E+00
-0.1623210942621E+00 -0.2714057399233E+01 -0.5752757072712E+00  0.2476121916227E+00
-0.1450030162337E+00 -0.2704835994044E+01 -0.5699678105488E+00  0.2423058878513E+00
-0.1336700313516E+00 -0.2691983429787E+01 -0.5651307006489E+00  0.2357603376516E+00
-0.1276811590871E+00 -0.2675845863946E+01 -0.5607054129618E+00  0.2285118233244E+00
-0.1264250044062E+00 -0.2656662404733E+01 -0.5566174901221E+00  0.2209500428734E+00
-0.1293382531746E+00 -0.2634557296931E+01 -0.5527791182582E+00  0.2133677481856E+00
-0.1359051403796E+00 -0.2609543854429E+01 -0.5490898071438E+00  0.2060062619570E+00
-0.1456429257881E+00 -0.2581535778015E+01 -0.5454357488882E+00  0.1990950995846E+00
-0.1580765367979E+00 -0.2550364208804E+01 -0.5416881571921E+00  0.1928855529177E+00
-0.1727053927314E+00 -0.2515797537184E+01 -0.5377005939955E+00  0.1876778055453E+00
-0.1889629851466E+00 -0.2477565392042E+01 -0.5333056833846E+00  0.1838420362249E+00
-0.2061703282155E+00 -0.2435387272033E+01 -0.5283115279222E+00  0.1818328441452E+00
-0.2234847953485E+00 -0.2389004303058E+01 -0.5224978274671E+00  0.1821960268462E+00
-0.2398445116655E+00 -0.2338216874463E+01 -0.5156122849089E+00  0.1855668861999E+00
-0.2539097766257E+00 -0.2282936333722E+01 -0.5073692296300E+00  0.1926570198867E+00
-0.2640043759335E+00 -0.2223279229430E+01 -0.4974567284854E+00  0.2042203495449E+00
-0.2680578241745E+00 -0.2159635797573E+01 -0.4855387315846E+00  0.2210021972060E+00
-0.2635475866189E+00 -0.2092680150317E+01 -0.4712455544092E+00  0.2436855897816E+00
-0.2474447832929E+00 -0.2023403375920E+01 -0.4541696386103E+00  0.2728102397506E+00
-0.2161761927468E+00 -0.1953177730726E+01 -0.4338707911598E+00  0.3086460978134E+00
-0.1656255807241E+00 -0.1883827130978E+01 -0.4098905484482E+00  0.3510102691009E+00
-0.9120909263483E-01 -0.1817667951675E+01 -0.3817754145508E+00  0.3990232777330E+00
 0.1192900705594E-01 -0.1757475703728E+01 -0.3491093445366E+00  0.4508154549425E+00
 0.1485493202724E+00 -0.1706329994956E+01 -0.3115561395792E+00  0.5032186164470E+00
 0.3227541155123E+00 -0.1667270732965E+01 -0.2689033274974E+00  0.5515195035731E+00
 0.5372298433812E+00 -0.1642782134092E+01 -0.2211104614370E+00  0.5893691726707E+00
 0.7923208308465E+00 -0.1634201402260E+01 -0.1683761167917E+00  0.6089523098040E+00
 0.1085106199746E+01 -0.1641091999601E+01 -0.1111971616281E+00  0.6015654188847E+00
 0.1408800194794E+01 -0.1660758560063E+01 -0.5039167380486E-01  0.5586630597081E+00
 0.1752781947537E+01 -0.1688189543045E+01  0.1291848109082E-01  0.4732220153478E+00
 0.2103448968952E+01 -0.1716589440340E+01  0.7737190687533E-01  0.3410747134942E+00
 0.2445746945662E+01 -0.1738419997519E+01  0.1414653917367E+00  0.1618010798762E+00
-0.6356769753424E+00 -0.2698499278029E+01 -0.6668352606109E+00  0.6665541400949E-01
-0.5646534302653E+00 -0.2728753615674E+01 -0.6586814190030E+00  0.1245938260320E+00
-0.4938246681603E+00 -0.2757192773301E+01 -0.6502034979811E+00  0.1704339735965E+00
-0.4257913381286E+00 -0.2782293648070E+01 -0.6416170068006E+00  0.2046034122489E+00
-0.3628093689484E+00 -0.2802838374007E+01 -0.6331295580254E+00  0.2282019042303E+00
-0.3065554861864E+00 -0.2818051011498E+01 -0.6249213088490E+00  0.2427879782118E+00
-0.2580388118633E+00 -0.2827623171443E+01 -0.6171324058572E+00  0.2501182317076E+00
-0.2176444403285E+00 -0.2831645325243E+01 -0.6098579622020E+00  0.2519151967569E+00
-0.1852614445924E+00 -0.2830484897667E+01 -0.6031492774395E+00  0.2497068854823E+00
-0.1604411944434E+00 -0.2824653810612E+01 -0.5970190099073E+00  0.2447467212788E+00
-0.1425453403344E+00 -0.2814694798028E+01 -0.5914480364857E+00  0.2379994204164E+00
-0.1308620925488E+00 -0.2801099379324E+01 -0.5863923031126E+00  0.2301698922717E+00
-0.1246848511582E+00 -0.2784257971513E+01 -0.5817885732035E+00  0.2217538883939E+00
-0.1233566032962E+00 -0.2764436145040E+01 -0.5775585582735E+00  0.2130952227574E+00
-0.1262871609423E+00 -0.2741769311079E+01 -0.5736113029518E+00  0.2044408011343E+00
-0.1329504234188E+00 -0.2716269043452E+01 -0.5698439018656E+00  0.1959895067556E+00
-0.1428674570554E+00 -0.2687836172716E+01 -0.5661407343905E+00  0.1879338908860E+00
-0.1555788320101E+00 -0.2656278909692E+01 -0.5623715567203E+00  0.1804952069016E+00
-0.1706092443129E+00 -0.2621333104405E+01 -0.5583884780642E+00  0.1739517572526E+00
-0.1874248362567E+00 -0.2582686299725E+01 -0.5540222354520E+00  0.1686613341979E+00
-0.2053841698651E+00 -0.2540006236780E+01 -0.5490780895109E+00  0.1650772342723E+00
-0.2236842549216E+00 -0.2492972441771E+01 -0.5433313474348E+00  0.1637568375195E+00
-0.2413016790008E+00 -0.2441313803430E+01 -0.5365231044810E+00  0.1653621010213E+00
-0.2569301005756E+00 -0.2384861564463E+01 -0.5283583408808E+00  0.1706488336730E+00
-0.2689166071038E+00 -0.2323650309450E+01 -0.5185133910373E+00  0.1804346495194E+00
-0.2751977713171E+00 -0.2257990669509E+01 -0.5066376957146E+00  0.1955509560078E+00
-0.2732329926582E+00 -0.2188477703505E+01 -0.4923421465691E+00  0.2167948357013E+00
-0.2599363794319E+00 -0.2116027394653E+01 -0.4751927618978E+00  0.2448536962190E+00
-0.2316188605468E+00 -0.2041953162920E+01 -0.4547144114691E+00  0.2801814045379E+00
-0.1839640100871E+00 -0.1968057480700E+01 -0.4304043045709E+00  0.3228106341869E+00
-0.1120753751542E+00 -0.1896700455709E+01 -0.4017551721593E+00  0.3720922097300E+00
-0.1064862174231E-01 -0.1830795902549E+01 -0.3682889103461E+00  0.4263667167689E+00
 0.1256683133566E+00 -0.1773678213269E+01 -0.3296019848939E+00  0.4825998308030E+00
 0.3016866947623E+00 -0.1728755899808E+01 -0.2854138452621E+00  0.5360616056870E+00
 0.5208431191304E+00 -0.1698956300038E+01 -0.2356226396926E+00  0.5801548917394E+00
 0.7841290254981E+00 -0.1686054324758E+01 -0.1803850625399E+00  0.6065190508421E+00
 0.1088967187968E+01 -0.1689918157148E+01 -0.1201901956269E+00  0.6056044988918E+00
 0.1428408688171E+01 -0.1707876165731E+01 -0.5589349634473E-01  0.5678246397746E+00
 0.1791049368216E+01 -0.1734565411754E+01  0.1129679146079E-01  0.4851448005393E+00
 0.2161965211906E+01 -0.1762506228995E+01  0.7989179777263E-01  0.3526930179021E+00
 0.2524523295836E+01 -0.1783331001565E+01  0.1482384610631E+00  0.1698186019325E+00
-0.6597228166485E+00 -0.2804713034992E+01 -0.6928871806529E+00  0.7854712557814E-01
-0.5840831282200E+00 -0.2836870973006E+01 -0.6841908304405E+00  0.1360705192667E+00
-0.5086607978923E+00 -0.2867016764715E+01 -0.6751355225817E+00  0.1808642786230E+00
-0.4363480351263E+00 -0.2893469608631E+01 -0.6659635386751E+00  0.2134400507617E+00
-0.3696263840617E+00 -0.2914911511807E+01 -0.6569075889624E+00  0.2350576838928E+00
-0.3102969723094E+00 -0.2930542130943E+01 -0.6481678303090E+00  0.2474672428718E+00
-0.2593912516958E+00 -0.2940097419594E+01 -0.6398977437931E+00  0.2526031144858E+00
-0.2172384097732E+00 -0.2943757716096E+01 -0.6321992345944E+00  0.2523216028639E+00
-0.1836265429691E+00 -0.2941998748936E+01 -0.6251250676961E+00  0.2482295573609E+00
-0.1579911534237E+00 -0.2935437284758E+01 -0.6186856968555E+00  0.2416085594801E+00
-0.1395843941158E+00 -0.2924704246730E+01 -0.6128577373014E+00  0.2334129649280E+00
-0.1276031044928E+00 -0.2910357459562E+01 -0.6075921218648E+00  0.2243126335470E+00
-0.1212718751017E+00 -0.2892831877070E+01 -0.6028207594171E+00  0.2147554126813E+00
-0.1198873919182E+00 -0.2872418576121E+01 -0.5984612025256E+00  0.2050328990706E+00
-0.1228334724020E+00 -0.2849262818539E+01 -0.5944192670458E+00  0.1953408952818E+00
-0.1295754793744E+00 -0.2823373263342E+01 -0.5905897573437E+00  0.1858314223286E+00
-0.1396406567838E+00 -0.2794637025611E+01 -0.5868555452238E+00  0.1766561528856E+00
-0.1525880413226E+00 -0.2762838830472E+01 -0.5830853830476E+00  0.1680025981549E+00
-0.1679709062096E+00 -0.2727681544944E+01 -0.5791304988605E+00  0.1601234717075E+00
-0.1852919189091E+00 -0.2688810037855E+01 -0.5748203999183E+00  0.1533603435575E+00
-0.2039517614070E+00 -0.2645839254162E+01 -0.5699582116068E+00  0.1481611951414E+00
-0.2231924921297E+00 -0.2598385289018E+01 -0.5643155646386E+00  0.1450908003993E+00
-0.2420356124352E+00 -0.2546102479574E+01 -0.5576276267111E+00  0.1448334523043E+00
-0.2592159186577E+00 -0.2488737167248E+01 -0.5495906253707E+00  0.1481848629954E+00
-0.2731132290735E+00 -0.2426234971610E+01 -0.5398696481814E+00  0.1560223811691E+00
-0.2816826837548E+00 -0.2358817097204E+01 -0.5280999640611E+00  0.1692605396671E+00
-0.2823796116089E+00 -0.2286985924320E+01 -0.5138731148430E+00  0.1888097006625E+00
-0.2720774086604E+00 -0.2211564025575E+01 -0.4967282942488E+00  0.2155083477087E+00
-0.2469883125029E+00 -0.2133782867449E+01 -0.4761542430857E+00  0.2500045576642E+00
-0.2026102831161E+00 -0.2055396910989E+01 -0.4516014455503E+00  0.2925669564863E+00
-0.1337401957789E+00 -0.1978783634176E+01 -0.4225047722867E+00  0.3428098421618E+00
-0.3461355141732E-01 -0.1906975513855E+01 -0.3883178188409E+00  0.3993305935131E+00
 0.1007527563076E+00 -0.1843557900975E+01 -0.3485610341274E+00  0.4592847167322E+00
 0.2779557511746E+00 -0.1792329285492E+01 -0.3028747113767E+00  0.5179802738348E+00
 0.5012982817323E+00 -0.1756712395446E+01 -0.2510828264843E+00  0.5686066397734E+00
 0.7725611188570E+00 -0.1738999540487E+01 -0.1932876872062E+00  0.6022475979181E+00
 0.1089643722259E+01 -0.1739451340581E+01 -0.1299615256010E+00  0.6084301053238E+00
 0.1445502681752E+01 -0.1755478815276E+01 -0.6199522762866E-01  0.5763796157872E+00
 0.1827900817654E+01 -0.1781356336861E+01  0.9308896297245E-02  0.4968705299450E+00
 0.2220421931190E+01 -0.1808829189898E+01  0.8231854948498E-01  0.3641927219352E+00
 0.2604655840733E+01 -0.1828588861626E+01  0.1552133981342E+00  0.1774334786466E+00
-0.6837438297683E+00 -0.2911371998009E+01 -0.7190231762697E+00  0.9119636278258E-01
-0.6032375026882E+00 -0.2945527509271E+01 -0.7097530129680E+00  0.1482600229876E+00
-0.5229854520180E+00 -0.2977446502726E+01 -0.7000864013809E+00  0.1918932520322E+00
-0.4462086331279E+00 -0.3005272521974E+01 -0.6902962413066E+00  0.2227086122410E+00
-0.3756361003265E+00 -0.3027581817270E+01 -0.6806435936616E+00  0.2421554927397E+00
-0.3131955769139E+00 -0.3043557661080E+01 -0.6713506576026E+00  0.2522063376171E+00
-0.2599272747719E+00 -0.3052997546544E+01 -0.6625849741364E+00  0.2549964533871E+00
-0.2160830764254E+00 -0.3056191429398E+01 -0.6544549109169E+00  0.2525276160350E+00
-0.1813282760012E+00 -0.3053740313873E+01 -0.6470137276161E+00  0.2464868815189E+00
-0.1549647989672E+00 -0.3046377439992E+01 -0.6402684573327E+00  0.2381785382542E+00
-0.1361232755527E+00 -0.3034828099615E+01 -0.6341902844837E+00  0.2285380009617E+00
-0.1239024104540E+00 -0.3019718432907E+01 -0.6287241780410E+00  0.2181910575687E+00
-0.1174551869023E+00 -0.3001527427626E+01 -0.6237965322010E+00  0.2075296294761E+00
-0.1160317703125E+00 -0.2980570076190E+01 -0.6193203785291E+00  0.1967865375039E+00
-0.1189912464559E+00 -0.2956999779145E+01 -0.6151982142874E+00  0.1861012604098E+00
-0.1257924859031E+00 -0.2930820961514E+01 -0.6113226985929E+00  0.1755746899869E+00
-0.1359713878561E+00 -0.2901906257252E+01 -0.6075755380753E+00  0.1653138749516E+00
-0.1491082767193E+00 -0.2870016611248E+01 -0.6038249865912E+00  0.1554689933415E+00
-0.1647882305835E+00 -0.2834821863559E+01 -0.5999220277680E+00  0.1462634785091E+00
-0.1825542090250E+00 -0.2795924121216E+01 -0.5956956749248E+00  0.1380187426238E+00
-0.2018534679310E+00 -0.2752885071776E+01 -0.5909477167473E+00  0.1311732110387E+00
-0.2219784110973E+00 -0.2705256189320E+01 -0.5854469288072E+00  0.1262944852417E+00
-0.2420018100508E+00 -0.2652614900088E+01 -0.5789233506543E+00  0.1240843023871E+00
-0.2607073542584E+00 -0.2594618552772E+01 -0.5710651899157E+00  0.1253731298402E+00
-0.2765171776138E+00 -0.2531117439338E+01 -0.5615269317577E+00  0.1310929140164E+00
-0.2874170247052E+00 -0.2462233940591E+01 -0.5499302012538E+00  0.1422367749347E+00
-0.2908733430246E+00 -0.2388364091373E+01 -0.5358474948642E+00  0.1598255793878E+00
-0.2837373381896E+00 -0.2310217861474E+01 -0.5187910476634E+00  0.1848499692700E+00
-0.2621433104876E+00 -0.2228919438119E+01 -0.4982125571453E+00  0.2181603009353E+00
-0.2214233107169E+00 -0.2146144703803E+01 -0.4735136099598E+00  0.2602801194777E+00
-0.1560798124053E+00 -0.2064256125411E+01 -0.4440671941804E+00  0.3111209049605E+00
-0.5988295256618E-01 -0.1986377564295E+01 -0.4092521094705E+00  0.3695872944876E+00
 0.7381705158005E-01 -0.1916333741316E+01 -0.3685033434383E+00  0.4330891529253E+00
 0.2514818910730E+00 -0.1858329355027E+01 -0.3213694975796E+00  0.4970405283855E+00
 0.4784090483368E+00 -0.1816335835518E+01 -0.2675853614235E+00  0.5544677689733E+00
 0.7573354284394E+00 -0.1793252776699E+01 -0.2071834727391E+00  0.5959013291489E+00
 0.1086803980471E+01 -0.1789840174706E+01 -0.1406072409422E+00  0.6098681151345E+00
 0.1459776214763E+01 -0.1803672799337E+01 -0.6877931793950E-01  0.5842394442924E+00
 0.1863137089719E+01 -0.1828661074104E+01  0.6895203225723E-02  0.5083795813668E+00
 0.2278769195121E+01 -0.1855665797172E+01  0.8462068085066E-01  0.3755711780228E+00
 0.2686244822478E+01 -0.1874299595238E+01  0.1623890478678E+00  0.1846180998131E+00
-0.7077373689304E+00 -0.3018526512720E+01 -0.7452527874352E+00  0.1046446610128E+00
-0.6220854532962E+00 -0.3054782671984E+01 -0.7353736360139E+00  0.1611973949334E+00
-0.5367421639541E+00 -0.3088544940583E+01 -0.7250574317116E+00  0.2035402549817E+00
-0.4553014367029E+00 -0.3117760200480E+01 -0.7146123380851E+00  0.2324075961753E+00
-0.3807644989241E+00 -0.3140893482975E+01 -0.7043316068752E+00  0.2494738351710E+00
-0.3151860964427E+00 -0.3157122732113E+01 -0.6944617760594E+00  0.2569696380641E+00
-0.2595972566934E+00 -0.3166328321819E+01 -0.6851851259126E+00  0.2572566099104E+00
-0.2141465103232E+00 -0.3168933061955E+01 -0.6766159245380E+00  0.2524932605221E+00
-0.1783510869965E+00 -0.3165682147086E+01 -0.6688066567826E+00  0.2444462066437E+00
-0.1513598058763E+00 -0.3157437345213E+01 -0.6617594400788E+00  0.2344346069652E+00
-0.1321692453551E+00 -0.3145023922199E+01 -0.6554386432776E+00  0.2233643816223E+00
-0.1197734908720E+00 -0.3129137352434E+01 -0.6497821783437E+00  0.2118069534744E+00
-0.1132517114288E+00 -0.3110299171460E+01 -0.6447101861847E+00  0.2000896867574E+00
-0.1118079292377E+00 -0.3088845946918E+01 -0.6401307847698E+00  0.1883799353168E+00
-0.1147782140140E+00 -0.3064937065706E+01 -0.6359430654202E+00  0.1767557762973E+00
-0.1216172535496E+00 -0.3038571258697E+01 -0.6320377118674E+00  0.1652629592567E+00
-0.1318721730794E+00 -0.3009606026063E+01 -0.6282956491907E+00  0.1539604145511E+00
-0.1451473693669E+00 -0.2977778550325E+01 -0.6245851932455E+00  0.1429575727826E+00
-0.1610628355675E+00 -0.2942726061786E+01 -0.6207577887206E+00  0.1324449602917E+00
-0.1792054331050E+00 -0.2904008388050E+01 -0.6166427734197E+00  0.1227198326270E+00
-0.1990732728866E+00 -0.2861134153526E+01 -0.6120414944026E+00  0.1142066206011E+00
-0.2200142183294E+00 -0.2813589755850E+01 -0.6067208038766E+00  0.1074708391437E+00
-0.2411584795595E+00 -0.2760874165127E+01 -0.6004065378841E+00  0.1032262321521E+00
-0.2613462376160E+00 -0.2702552520135E+01 -0.5927797603834E+00  0.1023320429801E+00
-0.2790515047234E+00 -0.2638374290566E+01 -0.5834851677525E+00  0.1057684632202E+00
-0.2923029864274E+00 -0.2568354356344E+01 -0.5721314770798E+00  0.1146009624192E+00
-0.2985944319620E+00 -0.2492769050873E+01 -0.5582727048859E+00  0.1299558802117E+00
-0.2947754875204E+00 -0.2412196029758E+01 -0.5413943115231E+00  0.1529743497971E+00
-0.2769269667721E+00 -0.2327624950581E+01 -0.5209103912328E+00  0.1847141651178E+00
-0.2402403419177E+00 -0.2240618572223E+01 -0.4961717902217E+00  0.2259704276406E+00
-0.1789434010575E+00 -0.2153485453084E+01 -0.4664857777794E+00  0.2769850481411E+00
-0.8634391453035E-01 -0.2069404646665E+01 -0.4311497186637E+00  0.3370235913765E+00
 0.4490388348594E-01 -0.1992418748024E+01 -0.3895029787116E+00  0.4038235159033E+00
 0.2222052016653E+00 -0.1927147090068E+01 -0.3409883827616E+00  0.4729878194837E+00
 0.4519921694247E+00 -0.1878161944275E+01 -0.2852339592203E+00  0.5374495759594E+00
 0.7381517854482E+00 -0.1849069868230E+01 -0.2221836198672E+00  0.5872055027160E+00
 0.1080078060574E+01 -0.1841258915722E+01 -0.1522361732981E+00  0.6097109629308E+00
 0.1470878691774E+01 -0.1852577287890E+01 -0.7633972036068E-01  0.5912980934286E+00
 0.1896529447610E+01 -0.1876588948008E+01  0.3988099979842E-02  0.5196527970470E+00
 0.2336951756522E+01 -0.1903140279483E+01  0.8676229670078E-01  0.3868285373032E+00
 0.2769391848887E+01 -0.1920585257109E+01  0.1697613208854E+00  0.1913407592032E+00
-0.7317001497208E+00 -0.3126233145263E+01 -0.7715866704942E+00  0.1189380068653E+00
-0.6405911527587E+00 -0.3164703178794E+01 -0.7610588776511E+00  0.1749207615884E+00
-0.5498665445506E+00 -0.3200382070662E+01 -0.7500497342191E+00  0.2158245137260E+00
-0.4635459485509E+00 -0.3230995502866E+01 -0.7389083012940E+00  0.2425315312225E+00
-0.3849303244005E+00 -0.3254892425173E+01 -0.7279645607623E+00  0.2569842451635E+00
-0.3161991560604E+00 -0.3271260568663E+01 -0.7174919556361E+00  0.2617132475748E+00
-0.2583507304080E+00 -0.3280089647137E+01 -0.7076880860543E+00  0.2593340561036E+00
-0.2113986380747E+00 -0.3281962545694E+01 -0.6986722471647E+00  0.2521721523957E+00
-0.1746829972894E+00 -0.3277789491883E+01 -0.6904945081237E+00  0.2420703476558E+00
-0.1471782430702E+00 -0.3268572936871E+01 -0.6831502461679E+00  0.2303519240624E+00
-0.1277341400604E+00 -0.3255242746269E+01 -0.6765953873480E+00  0.2178805208918E+00
-0.1152342438907E+00 -0.3238563417097E+01 -0.6707595421926E+00  0.2051615867264E+00
-0.1086825230417E+00 -0.3219096341384E+01 -0.6655557828028E+00  0.1924487658322E+00
-0.1072379738354E+00 -0.3197196458622E+01 -0.6608868963394E+00  0.1798372472751E+00
-0.1102158866335E+00 -0.3173026513623E+01 -0.6566484898362E+00  0.1673389003230E+00
-0.1170693554760E+00 -0.3146577955151E+01 -0.6527294718518E+00  0.1549406855374E+00
-0.1273593751270E+00 -0.3117692651508E+01 -0.6490104149981E+00  0.1426502618311E+00
-0.1407171222983E+00 -0.3086084410891E+01 -0.6453603162546E+00  0.1305331439890E+00
-0.1568004479652E+00 -0.3051358799081E+01 -0.6416318589703E+00  0.1187434404456E+00
-0.1752435152156E+00 -0.3013034488938E+01 -0.6376556103326E+00  0.1075502273629E+00
-0.1955993433129E+00 -0.2970567969320E+01 -0.6332334719625E+00  0.9735933997406E-01
-0.2172761213249E+00 -0.2923380931528E+01 -0.6281314199304E+00  0.8872898295949E-01
-0.2394673842436E+00 -0.2870893278429E+01 -0.6220721418041E+00  0.8237896616264E-01
-0.2610771031767E+00 -0.2812575767696E+01 -0.6147305833348E+00  0.7919053193320E-01
-0.2806405062476E+00 -0.2748072663849E+01 -0.6057426430456E+00  0.8018454434191E-01
-0.2962416804419E+00 -0.2677283718989E+01 -0.5947050887480E+00  0.8649079816347E-01
-0.3054185817357E+00 -0.2600352938586E+01 -0.5811543127242E+00  0.9933358605774E-01
-0.3050418238632E+00 -0.2517705910893E+01 -0.5645495553637E+00  0.1199996664744E+00
-0.2911668638809E+00 -0.2430169032723E+01 -0.5442671874310E+00  0.1497557757512E+00
-0.2588759467451E+00 -0.2339153633030E+01 -0.5196059236977E+00  0.1896818144026E+00
-0.2021504285266E+00 -0.2246868621581E+01 -0.4898038173201E+00  0.2403816261720E+00
-0.1138489344479E+00 -0.2156501884224E+01 -0.4540701705005E+00  0.3015374351856E+00
 0.1409035841557E-01 -0.2072280069487E+01 -0.4116379483482E+00  0.3712959556895E+00
 0.1900919042380E+00 -0.1999234433542E+01 -0.3618285112524E+00  0.4455486064994E+00
 0.4218725681130E+00 -0.1942585877249E+01 -0.3041426663594E+00  0.5172282455723E+00
 0.7146927338176E+00 -0.1906756206332E+01 -0.2384126980555E+00  0.5758407253728E+00
 0.1069053280085E+01 -0.1893914012926E+01 -0.1649721490264E+00  0.6077092838574E+00
 0.1478404926792E+01 -0.1902325377582E+01 -0.8478409142127E-01  0.5974259475189E+00
 0.1927812224556E+01 -0.1925256930328E+01  0.5110588531887E-03  0.5306728954417E+00
 0.2394912228533E+01 -0.1951394454233E+01  0.8870355618191E-01  0.3979716957601E+00
 0.2854195564452E+01 -0.1967586072982E+01  0.1773219009363E+00  0.1975620244856E+00
-0.7556281028447E+00 -0.3234555999657E+01 -0.7980368323919E+00  0.1341274490506E+00
-0.6587130334384E+00 -0.3275364499947E+01 -0.7868155184016E+00  0.1894715859469E+00
-0.5622847072922E+00 -0.3313036211742E+01 -0.7750641953563E+00  0.2287646568017E+00
-0.4708513673794E+00 -0.3345046998854E+01 -0.7631796846189E+00  0.2530697791101E+00
-0.3880441811531E+00 -0.3369626121276E+01 -0.7515340716846E+00  0.2646497343924E+00
-0.3161610616105E+00 -0.3385991627433E+01 -0.7404305488420E+00  0.2663835703901E+00
-0.2561368238064E+00 -0.3394275332916E+01 -0.7300824422235E+00  0.2611703925819E+00
-0.2078119650328E+00 -0.3395251913859E+01 -0.7206127865163E+00  0.2515110373970E+00
-0.1703163498860E+00 -0.3390019268340E+01 -0.7120671342558E+00  0.2393175392989E+00
-0.1424271854611E+00 -0.3379732315881E+01 -0.7044319107652E+00  0.2259030535499E+00
-0.1228348030965E+00 -0.3365428656115E+01 -0.6976527022381E+00  0.2120736731507E+00
-0.1103072531873E+00 -0.3347939775071E+01 -0.6916494159580E+00  0.1982559499102E+00
-0.1037729976078E+00 -0.3327862790422E+01 -0.6863271678331E+00  0.1846202413152E+00
-0.1023480134188E+00 -0.3305566841223E+01 -0.6815829810846E+00  0.1711830299172E+00
-0.1053296326816E+00 -0.3281214903700E+01 -0.6773089173689E+00  0.1578855945611E+00
-0.1121722301320E+00 -0.3254789454317E+01 -0.6733923469241E+00  0.1446529520406E+00
-0.1224533572869E+00 -0.3226116436820E+01 -0.6697139688009E+00  0.1314387760818E+00
-0.1358335532709E+00 -0.3194887107585E+01 -0.6661441420975E+00  0.1182618168450E+00
-0.1520112463946E+00 -0.3160676912503E+01 -0.6625376416522E+00  0.1052364238422E+00
-0.1706710354778E+00 -0.3122965211119E+01 -0.6587272591351E+00  0.9259948792510E-01
-0.1914246193222E+00 -0.3081158094610E+01 -0.6545165525395E+00  0.8073352264867E-01
-0.2137450682707E+00 -0.3034613829833E+01 -0.6496717893016E+00  0.7018393455755E-01
-0.2368947545636E+00 -0.2982673689184E+01 -0.6439136983445E+00  0.6167021370333E-01
-0.2598482890142E+00 -0.2924713092812E+01 -0.6369122858560E+00  0.5608808768610E-01
-0.2812110027341E+00 -0.2860268080602E+01 -0.6282958260295E+00  0.5449033395911E-01
-0.2991345472102E+00 -0.2789117058878E+01 -0.6176503304214E+00  0.5806121928525E-01
-0.3112183623612E+00 -0.2711260290188E+01 -0.6044957395175E+00  0.6811279344259E-01
-0.3143781244245E+00 -0.2626952094092E+01 -0.5882660524691E+00  0.8606894955616E-01
-0.3046755749710E+00 -0.2536826024219E+01 -0.5683003283063E+00  0.1134024467236E+00
-0.2771213409026E+00 -0.2442100380570E+01 -0.5438443523984E+00  0.1514866278422E+00
-0.2254881433264E+00 -0.2344831776117E+01 -0.5140639915489E+00  0.2013154251271E+00
-0.1422110813955E+00 -0.2248159283964E+01 -0.4780740801958E+00  0.2630438587369E+00
-0.1850489459544E-01 -0.2156444824412E+01 -0.4349899502834E+00  0.3353171017276E+00
 0.1551426190594E+00 -0.2075113662298E+01 -0.3839942143698E+00  0.4144321076559E+00
 0.3878903791187E+00 -0.2010074370230E+01 -0.3244368030568E+00  0.4934421776904E+00
 0.6866263194554E+00 -0.1966678535366E+01 -0.2560104469970E+00  0.5614357467817E+00
 0.1053270022851E+01 -0.1948053417712E+01 -0.1789566816388E+00  0.6035615465974E+00
 0.1481882631563E+01 -0.1953066751593E+01 -0.9423682541033E-01  0.6024599327834E+00
 0.1956670610365E+01 -0.1974782824848E+01 -0.3622442950539E-02  0.5414246203627E+00
 0.2452597326756E+01 -0.2000583967467E+01  0.9040267320501E-01  0.4090228306682E+00
 0.2940745886277E+01 -0.2015460667364E+01  0.1850570465401E+00  0.2032296479850E+00
-0.7795161842072E+00 -0.3343568346023E+01 -0.8246169183338E+00  0.1502698296408E+00
-0.6764025262647E+00 -0.3386852684257E+01 -0.8126510542137E+00  0.2048949527796E+00
-0.5739113515874E+00 -0.3426595554622E+01 -0.8001013931642E+00  0.2423780689523E+00
-0.4771148403458E+00 -0.3459989696546E+01 -0.7874209191118E+00  0.2640049982261E+00
-0.3900075898937E+00 -0.3485143302177E+01 -0.7750301899629E+00  0.2724228904721E+00
-0.3149937905241E+00 -0.3501332477618E+01 -0.7632652650020E+00  0.2709156569319E+00
-0.2529049131257E+00 -0.3508871631146E+01 -0.7523553200652E+00  0.2626973016529E+00
-0.2033624949130E+00 -0.3508763921580E+01 -0.7424252943616E+00  0.2504493894452E+00
-0.1652486833446E+00 -0.3502319037558E+01 -0.7335135551107E+00  0.2361415099886E+00
-0.1371193831705E+00 -0.3490855123937E+01 -0.7255949122337E+00  0.2210582859031E+00
-0.1174935174249E+00 -0.3475518523804E+01 -0.7186024189539E+00  0.2059303104686E+00
-0.1050200235976E+00 -0.3457203515720E+01 -0.7124447184797E+00  0.1910910746244E+00
-0.9855291626284E-01 -0.3436537135654E+01 -0.7070180209188E+00  0.1766178671153E+00
-0.9716819845238E-01 -0.3413897492180E+01 -0.7022131485902E+00  0.1624422822932E+00
-0.1001487027130E+00 -0.3389444165931E+01 -0.6979185841286E+00  0.1484312251859E+00
-0.1069532388365E+00 -0.3363148909485E+01 -0.6940204400060E+00  0.1344452437109E+00
-0.1171786070483E+00 -0.3334821715658E+01 -0.6904000748291E+00  0.1203818562367E+00
-0.1305171098701E+00 -0.3304132616826E+01 -0.6869299555752E+00  0.1062105963217E+00
-0.1467101870645E+00 -0.3270629158821E+01 -0.6834678793616E+00  0.9200293926360E-01
-0.1654956824506E+00 -0.3233754022766E+01 -0.6798499511739E+00  0.7795964289367E-01
-0.1865474106373E+00 -0.3192865525793E+01 -0.6758825973575E+00  0.6443508634442E-01
-0.2094075127402E+00 -0.3147260783622E+01 -0.6713336692760E+00  0.5195617669119E-01
-0.2334122523459E+00 -0.3096204025772E+01 -0.6659232655467E+00  0.4123532732862E-01
-0.2576131317793E+00 -0.3038975751948E+01 -0.6593177865701E+00  0.3317459123656E-01
-0.2806937793537E+00 -0.2975002371741E+01 -0.6511392399217E+00  0.2884879191022E-01
-0.3008850120913E+00 -0.2903936514012E+01 -0.6409643147718E+00  0.2948500000446E-01
-0.3158649747200E+00 -0.2825625031805E+01 -0.6282980106673E+00  0.3647002454930E-01
-0.3226196142141E+00 -0.2740133035838E+01 -0.6125505391382E+00  0.5135240571239E-01
-0.3172517582316E+00 -0.2647871637950E+01 -0.5930246880730E+00  0.7580281745544E-01
-0.2947442963871E+00 -0.2549821995036E+01 -0.5689132667620E+00  0.1114907778004E+00
-0.2487094849361E+00 -0.2447829176103E+01 -0.5393077402441E+00  0.1598231952173E+00
-0.1711991236945E+00 -0.2344913669006E+01 -0.5032225660387E+00  0.2214821738994E+00
-0.5271384777177E-01 -0.2245506217276E+01 -0.4596440198589E+00  0.2957063690964E+00
 0.1174022853624E+00 -0.2155388073495E+01 -0.4075971637002E+00  0.3793335245218E+00
 0.3499102037022E+00 -0.2081180040111E+01 -0.3462539724414E+00  0.4656899632416E+00
 0.6536107494210E+00 -0.2029279982414E+01 -0.2751338506984E+00  0.5435595928100E+00
 0.1032219030221E+01 -0.2003979536629E+01 -0.1943521041775E+00  0.5969021095886E+00
 0.1480758481483E+01 -0.2004975628162E+01 -0.1048434308980E+00  0.6061886192342E+00
 0.1982719433992E+01 -0.2025275392669E+01 -0.8511191862227E-02  0.5518888555925E+00
 0.2509968555552E+01 -0.2050861200666E+01  0.9182147234533E-01  0.4200358189954E+00
 0.3029117305979E+01 -0.2064379266812E+01  0.1929476107086E+00  0.2082738628569E+00
-0.8033581347734E+00 -0.3453354649621E+01 -0.8513425695648E+00  0.1674286748621E+00
-0.6936024766049E+00 -0.3499266589172E+01 -0.8385738256511E+00  0.2212398633602E+00
-0.5846474174594E+00 -0.3541159969024E+01 -0.8251614895926E+00  0.2566799937414E+00
-0.4822194321785E+00 -0.3575905743555E+01 -0.8116250472409E+00  0.2753111641218E+00
-0.3907120361172E+00 -0.3601493330173E+01 -0.7984410851557E+00  0.2802435481285E+00
-0.3126151927527E+00 -0.3617294225644E+01 -0.7859818953915E+00  0.2752313035359E+00
-0.2486055605444E+00 -0.3623855337772E+01 -0.7744921912042E+00  0.2638354686150E+00
-0.1980308901440E+00 -0.3622450358765E+01 -0.7640962611678E+00  0.2489191264502E+00
-0.1594837527985E+00 -0.3614625796301E+01 -0.7548219210677E+00  0.2324917324754E+00
-0.1312739881077E+00 -0.3601871853704E+01 -0.7466291794880E+00  0.2157861289567E+00
-0.1117384331294E+00 -0.3585441735701E+01 -0.7394360447845E+00  0.1994366317153E+00
-0.9940517773721E-01 -0.3566285673668E+01 -0.7331381812056E+00  0.1836684311790E+00
-0.9305651664705E-01 -0.3545052913325E+01 -0.7276218968369E+00  0.1684560123515E+00
-0.9173270334695E-01 -0.3522124184642E+01 -0.7227713883679E+00  0.1536405075318E+00
-0.9470620504955E-01 -0.3497651568794E+01 -0.7184715654748E+00  0.1390114607901E+00
-0.1014436809804E+00 -0.3471594340082E+01 -0.7146076148609E+00  0.1243632028443E+00
-0.1115638265148E+00 -0.3443746851626E+01 -0.7110621462239E+00  0.1095355787264E+00
-0.1247928618171E+00 -0.3413759821851E+01 -0.7077105472792E+00  0.9444693018382E-01
-0.1409173176372E+00 -0.3381155871618E+01 -0.7044146483477E+00  0.7912302599915E-01
-0.1597307044225E+00 -0.3345344511313E+01 -0.7010150535931E+00  0.6372464248160E-01
-0.1809720032681E+00 -0.3305639867556E+01 -0.6973223845558E+00  0.4857316228706E-01
-0.2042562028655E+00 -0.3261281241223E+01 -0.6931074991459E+00  0.3417113171155E-01
-0.2289979821101E+00 -0.3211458645200E+01 -0.6880913357154E+00  0.2121684691194E-01
-0.2543312465999E+00 -0.3155359590363E+01 -0.6819381775542E+00  0.1061000141600E-01
-0.2790251705416E+00 -0.3092301302531E+01 -0.6742653046618E+00  0.3436616786140E-02
-0.3014003733280E+00 -0.3021808370270E+01 -0.6646417586235E+00  0.9531658611504E-03
-0.3192303638234E+00 -0.2943566897078E+01 -0.6525594619041E+00  0.4605373119995E-02
-0.3295970932280E+00 -0.2857436923135E+01 -0.6374068127707E+00  0.1604965438605E-01
-0.3286818743026E+00 -0.2763578556153E+01 -0.6184520953067E+00  0.3714059436628E-01
-0.3114897365981E+00 -0.2662690325252E+01 -0.5948360212337E+00  0.6983934161313E-01
-0.2715315345944E+00 -0.2556340714448E+01 -0.5655744582362E+00  0.1159811877590E+00
-0.2005327392641E+00 -0.2447349379957E+01 -0.5295764317356E+00  0.1768248141728E+00
-0.8831032316357E-01 -0.2340129132248E+01 -0.4856878983196E+00  0.2523004755841E+00
 0.7697196239537E-01 -0.2240753612411E+01 -0.4327563364517E+00  0.3399393572979E+00
 0.3078334661762E+00 -0.2156557818257E+01 -0.3697448759259E+00  0.4335298841524E+00
 0.6153014035923E+00 -0.2095099464780E+01 -0.2959596166478E+00  0.5217129166903E+00
 0.1005340434116E+01 -0.2062064514219E+01 -0.2113448191698E+00  0.5872882588944E+00
 0.1474387016841E+01 -0.2058267527278E+01 -0.1167761038273E+00  0.6083343104859E+00
 0.2005467760985E+01 -0.2076831963091E+01 -0.1427284063391E-01  0.5620198733895E+00
 0.2567010220340E+01 -0.2102326579861E+01  0.9293672948058E-01  0.4311173869390E+00
 0.3119373167141E+01 -0.2114478422261E+01  0.2009789519708E+00  0.2126176010960E+00
-0.8271461580738E+00 -0.3564013130914E+01 -0.8782318708842E+00  0.1856752550881E+00
-0.7102451291677E+00 -0.3612720618557E+01 -0.8645931624283E+00  0.2385595080398E+00
-0.5943771933006E+00 -0.3656843140329E+01 -0.8502440793955E+00  0.2716822755256E+00
-0.4860317633067E+00 -0.3692885067900E+01 -0.8357833786954E+00  0.2869509915419E+00
-0.3900380574992E+00 -0.3718725155263E+01 -0.8217526547974E+00  0.2880359243311E+00
-0.3089394907179E+00 -0.3733880382768E+01 -0.8085639867458E+00  0.2792368791458E+00
-0.2431918111211E+00 -0.3739191414590E+01 -0.7964766570106E+00  0.2644935031364E+00
-0.1918039106571E+00 -0.3736250068376E+01 -0.7856108075131E+00  0.2468444953488E+00
-0.1530327017163E+00 -0.3726864659374E+01 -0.7759794837811E+00  0.2283138926514E+00
-0.1249173228420E+00 -0.3712703171477E+01 -0.7675241103009E+00  0.2100539889645E+00
-0.1056039694736E+00 -0.3695119994275E+01 -0.7601448040767E+00  0.1925792047901E+00
-0.9350059493935E-01 -0.3675111328047E+01 -0.7537223958286E+00  0.1759904051164E+00
-0.8732247688429E-01 -0.3653338826688E+01 -0.7481322718625E+00  0.1601499297163E+00
-0.8607964387019E-01 -0.3630178357583E+01 -0.7432516113660E+00  0.1448037747400E+00
-0.8903902268916E-01 -0.3605769978364E+01 -0.7389618112220E+00  0.1296621475539E+00
-0.9567875926945E-01 -0.3580058806253E+01 -0.7351475240590E+00  0.1144523429345E+00
-0.1056419827871E+00 -0.3552824284703E+01 -0.7316932644011E+00  0.9895577737529E-01
-0.1186906641675E+00 -0.3523700392318E+01 -0.7284782221523E+00  0.8303818407397E-01
-0.1346580732891E+00 -0.3492188639171E+01 -0.7253693533008E+00  0.6667713451256E-01
-0.1533953536478E+00 -0.3457669827913E+01 -0.7222130470739E+00  0.4998971412040E-01
-0.1747092692787E+00 -0.3419418511801E+01 -0.7188255669274E+00  0.3325943172723E-01
-0.1982909856908E+00 -0.3376620638904E+01 -0.7149823355730E+00  0.1695850412616E-01
-0.2236375375162E+00 -0.3328396138940E+01 -0.7104067458771E+00  0.1763883644235E-02
-0.2499698781218E+00 -0.3273843094927E+01 -0.7047626051115E+00 -0.1143615439121E-01
-0.2761487767898E+00 -0.3212172061133E+01 -0.6976641779805E+00 -0.2155603827568E-01
-0.3005939168420E+00 -0.3142779862521E+01 -0.6886747661347E+00 -0.2732487030063E-01
-0.3211896947138E+00 -0.3065187438186E+01 -0.6772754366722E+00 -0.2725664270145E-01
-0.3351396033796E+00 -0.2979036880632E+01 -0.6628353066794E+00 -0.1960828299564E-01
-0.3387426423659E+00 -0.2884211035730E+01 -0.6445907452243E+00 -0.2361788374077E-02
-0.3270812144283E+00 -0.2781080504701E+01 -0.6216323530889E+00  0.2672245794045E-01
-0.2936348193522E+00 -0.2670867797411E+01 -0.5929005321876E+00  0.6991360344798E-01
-0.2298780777334E+00 -0.2556097388077E+01 -0.5571951014649E+00  0.1290879676634E+00
-0.1250007455881E+00 -0.2441054949954E+01 -0.5132111467559E+00  0.2049644796977E+00
 0.3402319029909E-01 -0.2332010997167E+01 -0.4595975682220E+00  0.2959358391125E+00
 0.2616130215659E+00 -0.2236984972895E+01 -0.3950743961528E+00  0.3964806242747E+00
 0.5713647603227E+00 -0.2164792967009E+01 -0.3186856460861E+00  0.4953218025345E+00
 0.9720169347684E+00 -0.2122778368506E+01 -0.2301522901771E+00  0.5741789625721E+00
 0.1462036876337E+01 -0.2113200092901E+01 -0.1302326452534E+00  0.6085487338057E+00
 0.2024264893715E+01 -0.2129606324664E+01 -0.2106828650369E-01  0.5716888856276E+00
 0.2623724403690E+01 -0.2154911128347E+01  0.9376265646578E-01  0.4424205399488E+00
 0.3211553886013E+01 -0.2165676588103E+01  0.2091754626990E+00  0.2162365308976E+00
-0.8508705231619E+00 -0.3675659090623E+01 -0.9053059362470E+00  0.2050898389079E+00
-0.7262495466585E+00 -0.3727348030210E+01 -0.8907195286465E+00  0.2569114951708E+00
-0.6029647576375E+00 -0.3773775202263E+01 -0.8753480050238E+00  0.2873916321427E+00
-0.4883992769550E+00 -0.3811025875856E+01 -0.8598850433754E+00  0.2988725645937E+00
-0.3878544737074E+00 -0.3836885731711E+01 -0.8449480536744E+00  0.2957051289097E+00
-0.3038782074883E+00 -0.3851084064867E+01 -0.8309924668537E+00  0.2828208894363E+00
-0.2366209500249E+00 -0.3854830107580E+01 -0.8182902237145E+00  0.2645669467571E+00
-0.1846761723946E+00 -0.3850086731926E+01 -0.8069525928886E+00  0.2441422244873E+00
-0.1459153812409E+00 -0.3838947546678E+01 -0.7969725974596E+00  0.2235506520409E+00
-0.1180836666374E+00 -0.3823259392404E+01 -0.7882686235544E+00  0.2038290860914E+00
-0.9913116157908E-01 -0.3804467340498E+01 -0.7807197120491E+00  0.1853457620643E+00
-0.8734946563546E-01 -0.3783599941890E+01 -0.7741898930413E+00  0.1680608565622E+00
-0.8139380988475E-01 -0.3761319232454E+01 -0.7685426199200E+00  0.1517160556907E+00
-0.8025090995691E-01 -0.3737987638012E+01 -0.7636477209730E+00  0.1359587779977E+00
-0.8318765376447E-01 -0.3713728344720E+01 -0.7593832110125E+00  0.1204191567475E+00
-0.8969747732206E-01 -0.3688470808921E+01 -0.7556336685084E+00  0.1047577147763E+00
-0.9945030010966E-01 -0.3661980802733E+01 -0.7522862317785E+00  0.8869755705599E-01
-0.1122452726761E+00 -0.3633878887952E+01 -0.7492248432900E+00  0.7205103247219E-01
-0.1279635358921E+00 -0.3603650203790E+01 -0.7463227590575E+00  0.5474542594766E-01
-0.1465153038874E+00 -0.3570652350168E+01 -0.7434335418892E+00  0.3685060039612E-01
-0.1677772585656E+00 -0.3534126032898E+01 -0.7403806693252E+00  0.1860732636372E-01
-0.1915196029889E+00 -0.3493209489490E+01 -0.7369458294771E+00  0.4514618547700E-03
-0.2173250561518E+00 -0.3446958053164E+01 -0.7328566327836E+00 -0.1696869464063E-01
-0.2445052941355E+00 -0.3394385648488E+01 -0.7277781993694E+00 -0.3278554055861E-01
-0.2720172870048E+00 -0.3334600910158E+01 -0.7213236501811E+00 -0.4592616672059E-01
-0.2983872406248E+00 -0.3266876052785E+01 -0.7130526693072E+00 -0.5512156155074E-01
-0.3216241966308E+00 -0.3190565951929E+01 -0.7024380401792E+00 -0.5886667738155E-01
-0.3390776886140E+00 -0.3105085822655E+01 -0.6888327125182E+00 -0.5535745441436E-01
-0.3472043698134E+00 -0.3010018757676E+01 -0.6714446355032E+00 -0.4243985743818E-01
-0.3412235489034E+00 -0.2905364306781E+01 -0.6493175808124E+00 -0.1761878942259E-01
-0.3146638617157E+00 -0.2791927476681E+01 -0.6213182769376E+00  0.2180172731437E-01
-0.2588443340784E+00 -0.2671832534376E+01 -0.5861353824250E+00  0.7834392468115E-01
-0.1624144605543E+00 -0.2549105007937E+01 -0.5423039017791E+00  0.1536058739163E+00
-0.1118665276521E-01 -0.2430078679936E+01 -0.4882530738157E+00  0.2470205601213E+00
 0.2112752450450E+00 -0.2323382942257E+01 -0.4224215457370E+00  0.3540266597182E+00
 0.5214856851996E+00 -0.2239165722360E+01 -0.3435360125512E+00  0.4637258912654E+00
 0.9316029802378E+00 -0.2186703682830E+01 -0.2510201442589E+00  0.5569325472140E+00
 0.1442805343805E+01 -0.2170147309917E+01 -0.1454683953901E+00  0.6063421176564E+00
 0.2038476083885E+01 -0.2183669816309E+01 -0.2903874691754E-01  0.5808188445790E+00
 0.2679717526631E+01 -0.2209025593459E+01  0.9413838803715E-01  0.4536523075279E+00
 0.3306167617401E+01 -0.2215669101057E+01  0.2180997065188E+00  0.2197354713557E+00
-0.8745173492925E+00 -0.3788430867538E+01 -0.9325896572628E+00  0.2257614175263E+00
-0.7415194008037E+00 -0.3843319085765E+01 -0.9169677109776E+00  0.2763592339934E+00
-0.6102495471072E+00 -0.3892128510318E+01 -0.9004756249032E+00  0.3038085408782E+00
-0.4891464663871E+00 -0.3930467631944E+01 -0.8839228328377E+00  0.3110066738869E+00
-0.3840157512767E+00 -0.3956059823774E+01 -0.8680151279445E+00  0.3031338487222E+00
-0.2973383703380E+00 -0.3968935457164E+01 -0.8532547782148E+00  0.2858509380731E+00
-0.2288525832921E+00 -0.3970762961248E+01 -0.8399231214239E+00  0.2639354791159E+00
-0.1766474499517E+00 -0.3963933828860E+01 -0.8281162681022E+00  0.2407183905936E+00
-0.1381566941544E+00 -0.3950846974666E+01 -0.8178007459502E+00  0.2181375562850E+00
-0.1108107795012E+00 -0.3933522780011E+01 -0.8088667239555E+00  0.1970730417870E+00
-0.9236258460262E-01 -0.3913480689457E+01 -0.8011686667502E+00  0.1777183727683E+00
-0.8099477330611E-01 -0.3891764032513E+01 -0.7945517730036E+00  0.1598769421841E+00
-0.7531195389392E-01 -0.3869021025223E+01 -0.7888666075785E+00  0.1431625918413E+00
-0.7428582085250E-01 -0.3845591166577E+01 -0.7839754091680E+00  0.1271222584741E+00
-0.7718932295104E-01 -0.3821575808954E+01 -0.7797530380001E+00  0.1113066632795E+00
-0.8353506576472E-01 -0.3796887608484E+01 -0.7760845464144E+00  0.9531097404545E-01
-0.9302185238328E-01 -0.3771280581769E+01 -0.7728604983470E+00  0.7880099044559E-01
-0.1054869717282E+00 -0.3744366107834E+01 -0.7699706273860E+00  0.6153552317653E-01
-0.1208600090705E+00 -0.3715618785528E+01 -0.7672957703534E+00  0.4338982635718E-01
-0.1391111599011E+00 -0.3684379718834E+01 -0.7646981871418E+00  0.2438308875274E-01
-0.1601887520070E+00 -0.3649862728734E+01 -0.7620103075031E+00  0.4708361296591E-02
-0.1839445753933E+00 -0.3611165230586E+01 -0.7590219725061E+00 -0.1524107011907E-01
-0.2100499547502E+00 -0.3567284797789E+01 -0.7554669617651E+00 -0.3485301663488E-01
-0.2379101630985E+00 -0.3517158133936E+01 -0.7510136705978E+00 -0.5328996829450E-01
-0.2665815854454E+00 -0.3459798924111E+01 -0.7452761130167E+00 -0.6950434404370E-01
-0.2947025139036E+00 -0.3394360861746E+01 -0.7378126861242E+00 -0.8224650948445E-01
-0.3204183919662E+00 -0.3320035566030E+01 -0.7280908024487E+00 -0.9001608065476E-01
-0.3412478712089E+00 -0.3236006793875E+01 -0.7154509436778E+00 -0.9097803043852E-01
-0.3538454294188E+00 -0.3141539901380E+01 -0.6990770765768E+00 -0.8287664893547E-01
-0.3536303997622E+00 -0.3036223617610E+01 -0.6779708135769E+00 -0.6299474781226E-01
-0.3342710031181E+00 -0.2920373217841E+01 -0.6509288538914E+00 -0.2823067449658E-01
-0.2870463772344E+00 -0.2795597848128E+01 -0.6165288542594E+00  0.2459595212205E-01
-0.2001873205609E+00 -0.2665504209074E+01 -0.5731383144674E+00  0.9804153577419E-01
-0.5841782153972E-01 -0.2536309939890E+01 -0.5189455600188E+00  0.1927655513173E+00
 0.1567910054077E+00 -0.2417121579261E+01 -0.4520661215069E+00  0.3054809089787E+00
 0.4652426490519E+00 -0.2319447268429E+01 -0.3708409294013E+00  0.4260588101433E+00
 0.8832254522676E+00 -0.2254798126541E+01 -0.2743145389422E+00  0.5346820598708E+00
 0.1415709019815E+01 -0.2229734008101E+01 -0.1628050000833E+00  0.6011468800796E+00
 0.2046925412412E+01 -0.2239567191152E+01 -0.3852835632227E-01  0.5889317735021E+00
 0.2735584343626E+01 -0.2264420490964E+01  0.9423277193660E-01  0.4659094393223E+00
 0.3405350490353E+01 -0.2267027767573E+01  0.2276645479486E+00  0.2164040224512E+00
-0.8980762643085E+00 -0.3902492388331E+01 -0.9601137448347E+00  0.2477992012101E+00
-0.7559391575716E+00 -0.3960820947034E+01 -0.9433520349781E+00  0.2969731605104E+00
-0.6160433569860E+00 -0.4012076797811E+01 -0.9256240447522E+00  0.3209246748352E+00
-0.4880746964435E+00 -0.4051326575336E+01 -0.9078802678844E+00  0.3232615252944E+00
-0.3783671766896E+00 -0.4076282859676E+01 -0.8909300205490E+00  0.3101786944295E+00
-0.2892318332488E+00 -0.4087394931340E+01 -0.8753253659612E+00  0.2881745404831E+00
-0.2198600262286E+00 -0.4086899217806E+01 -0.8613518616421E+00  0.2624689734078E+00
-0.1677344253404E+00 -0.4077676171424E+01 -0.8490821320052E+00  0.2364790882299E+00
-0.1297978808852E+00 -0.4062443354323E+01 -0.8384482595354E+00  0.2120173009314E+00
-0.1031505704956E+00 -0.4043380468734E+01 -0.8293062202035E+00  0.1897588978585E+00
-0.8535259616454E-01 -0.4022057899956E+01 -0.8214821114652E+00  0.1696926812106E+00
-0.7448943521485E-01 -0.3999511789567E+01 -0.8148002570979E+00  0.1514502911431E+00
-0.6912717576001E-01 -0.3976360146111E+01 -0.8090974764307E+00  0.1345125136146E+00
-0.6823216679525E-01 -0.3952909272504E+01 -0.8042282998439E+00  0.1183258766938E+00
-0.7109004008431E-01 -0.3929233727639E+01 -0.8000647654666E+00  0.1023640406817E+00
-0.7723642716788E-01 -0.3905228663861E+01 -0.7964930300745E+00  0.8615960188727E-01
-0.8640073269195E-01 -0.3880638968884E+01 -0.7934079521378E+00  0.6932313903765E-01
-0.9845873601312E-01 -0.3855072007071E+01 -0.7907061603993E+00  0.5156057779737E-01
-0.1133883140785E+00 -0.3827998799366E+01 -0.7882774344352E+00  0.3269392366489E-01
-0.1312198406219E+00 -0.3798751934784E+01 -0.7859943667935E+00  0.1268847767861E-01
-0.1519744311181E+00 -0.3766526640265E+01 -0.7837002259546E+00 -0.8315394658951E-02
-0.1755875530115E+00 -0.3730387730865E+01 -0.7811950684160E+00 -0.2997324130965E-01
-0.2018215035536E+00 -0.3689283291892E+01 -0.7782209706856E+00 -0.5171638464877E-01
-0.2301769928888E+00 -0.3642081549158E+01 -0.7744517199496E+00 -0.7274667528786E-01
-0.2598112110421E+00 -0.3587710697804E+01 -0.7695043932356E+00 -0.9205455075542E-01
-0.2894774742656E+00 -0.3525215441223E+01 -0.7629385944665E+00 -0.1084279544746E+00
-0.3174663252791E+00 -0.3453631566965E+01 -0.7542195896875E+00 -0.1203969102808E+00
-0.3414857452252E+00 -0.3371912718901E+01 -0.7426797038921E+00 -0.1261295540440E+00
-0.3584264884541E+00 -0.3278995638991E+01 -0.7274844363295E+00 -0.1233100543241E+00
-0.3639722459223E+00 -0.3174025809598E+01 -0.7075996216481E+00 -0.1090442333728E+00
-0.3520289171097E+00 -0.3056761291230E+01 -0.6817580518270E+00 -0.7986356708925E-01
-0.3139715004750E+00 -0.2928177292617E+01 -0.6484297682808E+00 -0.3194050712971E-01
-0.2377728780663E+00 -0.2791280805610E+01 -0.6058107457626E+00  0.3829589520557E-01
-0.1072032767482E+00 -0.2651943908031E+01 -0.5518294451788E+00  0.1329111177984E+00
 0.9837101571946E-01 -0.2519540216700E+01 -0.4842338474117E+00  0.2502433559569E+00
 0.4023786291135E+00 -0.2406893881445E+01 -0.4009030564402E+00  0.3814276349092E+00
 0.8260954963710E+00 -0.2328038266919E+01 -0.3003885585857E+00  0.5064503202530E+00
 0.1379407200290E+01 -0.2292591006995E+01 -0.1826367640626E+00  0.5921715335148E+00
 0.2049031591068E+01 -0.2297685539260E+01 -0.4973079037941E-01  0.5958853537455E+00
 0.2788399962344E+01 -0.2321460811948E+01  0.9338783147071E-01  0.4778174095752E+00
 0.3523182491284E+01 -0.2322095486620E+01  0.2402174045124E+00  0.2126109849670E+00
-0.9215239104247E+00 -0.4018035776236E+01 -0.9879119520531E+00  0.2713188485115E+00
-0.7693600311961E+00 -0.4080061868095E+01 -0.9698843943107E+00  0.3188210894177E+00
-0.6201136869281E+00 -0.4133796200720E+01 -0.9507819916974E+00  0.3387065987303E+00
-0.4849508130389E+00 -0.4173692032789E+01 -0.9317285830494E+00  0.3355038542233E+00
-0.3707399365520E+00 -0.4197533832603E+01 -0.9136547674455E+00  0.3166529786390E+00
-0.2794751395472E+00 -0.4206345648446E+01 -0.8971641709673E+00  0.2896059405419E+00
-0.2096322315562E+00 -0.4203060537457E+01 -0.8825385669535E+00  0.2600180610136E+00
-0.1579728985174E+00 -0.4191107500755E+01 -0.8698160928158E+00  0.2313231802768E+00
-0.1208983590892E+00 -0.4173525013851E+01 -0.8588846873865E+00  0.2051331656632E+00
-0.9517057999189E-01 -0.4152626063423E+01 -0.8495593413423E+00  0.1818643008624E+00
-0.7816868399319E-01 -0.4130000200368E+01 -0.8416337894136E+00  0.1612704111870E+00
-0.6789772683185E-01 -0.4106649820160E+01 -0.8349095218395E+00  0.1427986790436E+00
-0.6290022154138E-01 -0.4083144348028E+01 -0.8292089262700E+00  0.1257943704082E+00
-0.6214819086978E-01 -0.4059746090681E+01 -0.8243788685943E+00  0.1096061131027E+00
-0.6494700343139E-01 -0.4036498038520E+01 -0.8202890206136E+00  0.9363482040891E-01
-0.7085905950617E-01 -0.4013277662960E+01 -0.8168273566649E+00  0.7735486046779E-01
-0.7964561450265E-01 -0.3989824083120E+01 -0.8138939516526E+00  0.6032493209596E-01
-0.9122056718981E-01 -0.3965746748320E+01 -0.8113934751927E+00  0.4219973305772E-01
-0.1056090469072E+00 -0.3940521209023E+01 -0.8092260632445E+00  0.2274753920813E-01
-0.1229008870735E+00 -0.3913480843947E+01 -0.8072763582334E+00  0.1876993212274E-02
-0.1431903421412E+00 -0.3883811976345E+01 -0.8054004756987E+00 -0.2032899585178E-01
-0.1664980163785E+00 -0.3850556427786E+01 -0.8034109008047E+00 -0.4358093612261E-01
-0.1926788359612E+00 -0.3812622514397E+01 -0.8010602820084E+00 -0.6736073991277E-01
-0.2213295003193E+00 -0.3768820543364E+01 -0.7980300206283E+00 -0.9091830414349E-01
-0.2517070827356E+00 -0.3718005265666E+01 -0.7939424815109E+00 -0.1132941967843E+00
-0.2826794376515E+00 -0.3659125693964E+01 -0.7883610380706E+00 -0.1333321057036E+00
-0.3126866424935E+00 -0.3591074569499E+01 -0.7807522540327E+00 -0.1496193874841E+00
-0.3396416061554E+00 -0.3512584151204E+01 -0.7704451629524E+00 -0.1603646735948E+00
-0.3607055531948E+00 -0.3422261432101E+01 -0.7565934083334E+00 -0.1632400452601E+00
-0.3718885005433E+00 -0.3318787988846E+01 -0.7381353088770E+00 -0.1552312974737E+00
-0.3674353706246E+00 -0.3201308639391E+01 -0.7137488126387E+00 -0.1325619081563E+00
-0.3389690536226E+00 -0.3070050502714E+01 -0.6818039214269E+00 -0.9079840479932E-01
-0.2744061160701E+00 -0.2927225444871E+01 -0.6403263217299E+00 -0.2533610826256E-01
-0.1567717620251E+00 -0.2778079933585E+01 -0.5869703478685E+00  0.6744838642519E-01
 0.3658218698092E-01 -0.2631949832969E+01 -0.5190735369325E+00  0.1878872311777E+00
 0.3329838667962E+00 -0.2502816019473E+01 -0.4339664370020E+00  0.3289789038231E+00
 0.7595709762366E+00 -0.2407475631403E+01 -0.3295809359445E+00  0.4711523012379E+00
 0.1332775099765E+01 -0.2359354970006E+01 -0.2053159771075E+00  0.5784687184983E+00
 0.2042880720452E+01 -0.2358365878400E+01 -0.6309703252996E-01  0.6012472422536E+00
 0.2840764286114E+01 -0.2380930796728E+01  0.9196669924762E-01  0.4891201684374E+00
 0.3643222099176E+01 -0.2382367538437E+01  0.2521709159054E+00  0.2107922334019E+00
-0.9448344679105E+00 -0.4135299419467E+01 -0.1016026792616E+01  0.2964572752731E+00
-0.7816027823073E+00 -0.4201309454443E+01 -0.9965824622002E+00  0.3419776538049E+00
-0.6221856670760E+00 -0.4257517544267E+01 -0.9759406568113E+00  0.3571021434313E+00
-0.4795109866998E+00 -0.4297690298879E+01 -0.9554402713530E+00  0.3475633187217E+00
-0.3609567944114E+00 -0.4319812457273E+01 -0.9361538642866E+00  0.3223324945071E+00
-0.2679939699430E+00 -0.4325687467351E+01 -0.9187363011491E+00  0.2899339648817E+00
-0.1981744866354E+00 -0.4319093759805E+01 -0.9034536627506E+00  0.2564222388342E+00
-0.1474140974922E+00 -0.4304062067740E+01 -0.8902952463129E+00  0.2251484053950E+00
-0.1115283825064E+00 -0.4283937468915E+01 -0.8790931833838E+00  0.1974317915851E+00
-0.8694409734955E-01 -0.4261125488286E+01 -0.8696139300854E+00  0.1733706648906E+00
-0.7087992068574E-01 -0.4237194015609E+01 -0.8616148000980E+00  0.1524552298361E+00
-0.6128255557086E-01 -0.4213080877518E+01 -0.8548726993563E+00  0.1339390798190E+00
-0.5668855166626E-01 -0.4189287131275E+01 -0.8491951492422E+00  0.1170329454376E+00
-0.5608769700198E-01 -0.4166020260739E+01 -0.8444216041311E+00  0.1009927934361E+00
-0.5881235664631E-01 -0.4143287450304E+01 -0.8404199739133E+00  0.8515314876466E-01
-0.6445517684532E-01 -0.4120949058547E+01 -0.8370808595518E+00  0.6893604770440E-01
-0.7280995140147E-01 -0.4098742661157E+01 -0.8343105349439E+00  0.5185288010447E-01
-0.8382754054433E-01 -0.4076286919729E+01 -0.8320229044527E+00  0.3350975537107E-01
-0.9757834573261E-01 -0.4053071275864E+01 -0.8301299366892E+00  0.1362144933619E-01
-0.1142099949343E+00 -0.4028440667574E+01 -0.8285301448477E+00 -0.7962452666013E-02
-0.1338894921421E+00 -0.4001583740719E+01 -0.8270946588969E+00 -0.3122121919016E-01
-0.1567236090017E+00 -0.3971530363674E+01 -0.8256508068382E+00 -0.5592649845288E-01
-0.1826611974533E+00 -0.3937160135727E+01 -0.8239642789140E+00 -0.8161767380429E-01
-0.2113945904494E+00 -0.3897237548901E+01 -0.8217264401148E+00 -0.1076007372351E+00
-0.2422777576913E+00 -0.3850558187689E+01 -0.8185672012737E+00 -0.1329776457513E+00
-0.2742892106637E+00 -0.3795992067821E+01 -0.8140562678273E+00 -0.1566654964167E+00
-0.3060185558724E+00 -0.3732306731280E+01 -0.8076650694656E+00 -0.1773364162016E+00
-0.3355941502454E+00 -0.3658029135692E+01 -0.7987246690894E+00 -0.1932790997360E+00
-0.3604765581223E+00 -0.3571445798729E+01 -0.7863844830883E+00 -0.2022067314614E+00
-0.3770595038061E+00 -0.3470767588172E+01 -0.7695654298631E+00 -0.2010524725696E+00
-0.3800275998106E+00 -0.3354485976374E+01 -0.7469027263666E+00 -0.1858102170264E+00
-0.3614148108056E+00 -0.3221977977758E+01 -0.7166785683921E+00 -0.1515146663027E+00
-0.3093201437384E+00 -0.3074459197517E+01 -0.6767558783356E+00 -0.9255443339237E-01
-0.2063135345333E+00 -0.2916223737830E+01 -0.6245074637786E+00 -0.3641277186000E-02
-0.2794558895755E-01 -0.2756155293052E+01 -0.5568201846993E+00  0.1179166907404E+00
 0.2571617669059E+00 -0.2609078805831E+01 -0.4703834147944E+00  0.2676901121862E+00
 0.6829514107077E+00 -0.2494687208326E+01 -0.3623471649230E+00  0.4274275972991E+00
 0.1274224663671E+01 -0.2431098665802E+01 -0.2313748038739E+00  0.5588724762607E+00
 0.2027201433380E+01 -0.2422194126384E+01 -0.7899853977786E-01  0.6042932273226E+00
 0.2890744429774E+01 -0.2444189472308E+01  0.8931099282412E-01  0.5009582333405E+00
 0.3768271324235E+01 -0.2446295552802E+01  0.2643951582263E+00  0.2095563415197E+00
-0.9679740895828E+00 -0.4254577112812E+01 -0.1044510256043E+01  0.3233734919742E+00
-0.7924434025831E+00 -0.4324888538012E+01 -0.1023466403370E+01  0.3665189812146E+00
-0.6219270989645E+00 -0.4383508000963E+01 -0.1001087034903E+01  0.3760250499791E+00
-0.4714541219874E+00 -0.4423446816291E+01 -0.9789802022437E+00  0.3592142274641E+00
-0.3488348328777E+00 -0.4443086144341E+01 -0.9583842097248E+00  0.3269422282043E+00
-0.2547306670315E+00 -0.4445275313424E+01 -0.9400012100982E+00  0.2889164459386E+00
-0.1855164546909E+00 -0.4434804598292E+01 -0.9240642243663E+00  0.2515102247110E+00
-0.1361314479161E+00 -0.4416344205682E+01 -0.9104951442871E+00  0.2178548490953E+00
-0.1017745467792E+00 -0.4393507768948E+01 -0.8990564765425E+00  0.1888679069995E+00
-0.7855499717610E-01 -0.4368734854102E+01 -0.8894579835096E+00  0.1642684117687E+00
-0.6356166521833E-01 -0.4343521485136E+01 -0.8814166432049E+00  0.1432583779440E+00
-0.5471036998993E-01 -0.4318706500541E+01 -0.8746833871399E+00  0.1248937682537E+00
-0.5055166903041E-01 -0.4294702148755E+01 -0.8690507765069E+00  0.1082559442153E+00
-0.5010595185354E-01 -0.4271650791004E+01 -0.8643513614514E+00  0.9251647072558E-01
-0.5273980721143E-01 -0.4249520437143E+01 -0.8604520616926E+00  0.7695197611132E-01
-0.5807919263990E-01 -0.4228155805577E+01 -0.8572470124173E+00  0.6093964038190E-01
-0.6595047669367E-01 -0.4207298069214E+01 -0.8546497219168E+00  0.4394938421988E-01
-0.7633945522454E-01 -0.4186583268417E+01 -0.8525845574328E+00  0.2554243320298E-01
-0.8935876686091E-01 -0.4165525394543E+01 -0.8509768449613E+00  0.5381116585274E-02
-0.1052110736592E+00 -0.4143493298863E+01 -0.8497408871665E+00 -0.1674597721043E-01
-0.1241348812235E+00 -0.4119690885737E+01 -0.8487651660397E+00 -0.4088496671296E-01
-0.1463237476760E+00 -0.4093148671216E+01 -0.8478944964130E+00 -0.6687495606870E-01
-0.1718215694261E+00 -0.4062729897644E+01 -0.8469103060339E+00 -0.9431952539575E-01
-0.2004152606200E+00 -0.4027166694883E+01 -0.8455164036997E+00 -0.1225880184485E+00
-0.2315506698830E+00 -0.3985211702057E+01 -0.8433524869550E+00 -0.1508537782709E+00
-0.2643094445478E+00 -0.3935675753948E+01 -0.8399970522160E+00 -0.1781238474915E+00
-0.2974257574247E+00 -0.3877223977663E+01 -0.8349299594589E+00 -0.2031822143775E+00
-0.3292479893820E+00 -0.3808201749341E+01 -0.8274899600752E+00 -0.2244382317344E+00
-0.3575580032403E+00 -0.3726595993668E+01 -0.8168308115533E+00 -0.2397028916490E+00
-0.3791829981520E+00 -0.3630156950453E+01 -0.8018680016699E+00 -0.2459327049059E+00
-0.3893419832858E+00 -0.3516704805597E+01 -0.7812093694174E+00 -0.2389889704523E+00
-0.3806466658527E+00 -0.3384687445917E+01 -0.7530668335755E+00 -0.2134842330367E+00
-0.3416478052682E+00 -0.3234132423256E+01 -0.7151560563615E+00 -0.1628850454663E+00
-0.2548339247791E+00 -0.3068019902435E+01 -0.6645707753457E+00 -0.8020234348535E-01
-0.9432588199004E-01 -0.2894249139622E+01 -0.5977150132291E+00  0.3994317872271E-01
 0.1752749563195E+00 -0.2727967390883E+01 -0.5105384945203E+00  0.1964872755886E+00
 0.5955985179336E+00 -0.2591714071972E+01 -0.3992231167566E+00  0.3736879215432E+00
 0.1202077145223E+01 -0.2509196963373E+01 -0.2614239675256E+00  0.5318210832052E+00
 0.1999895575536E+01 -0.2490110559081E+01 -0.9804299816999E-01  0.6043962699400E+00
 0.2936975726744E+01 -0.2511514560730E+01  0.8509223447089E-01  0.5136421401071E+00
 0.3899465008965E+01 -0.2514337888188E+01  0.2770254282834E+00  0.2085438362872E+00
-0.9908977332843E+00 -0.4376235288057E+01 -0.1073426620264E+01  0.3522534668664E+00
-0.8015988290673E+00 -0.4451197096452E+01 -0.1050559200758E+01  0.3925190636195E+00
-0.6189344778289E+00 -0.4512075916724E+01 -0.1026202094202E+01  0.3953398117861E+00
-0.4604389219803E+00 -0.4551077179520E+01 -0.1002303235235E+01  0.3701583859257E+00
-0.3341923097744E+00 -0.4567274323518E+01 -0.9802933412661E+00  0.3301468415402E+00
-0.2396537432982E+00 -0.4564905624823E+01 -0.9609118879429E+00  0.2862796598185E+00
-0.1717192697494E+00 -0.4549950012408E+01 -0.9443338705031E+00  0.2451043520008E+00
-0.1242241322962E+00 -0.4527725858671E+01 -0.9303900120573E+00  0.2093502483631E+00
-0.9174077760362E-01 -0.4502044946310E+01 -0.9187571584732E+00  0.1794085574836E+00
-0.7009739242220E-01 -0.4475302067669E+01 -0.9090799055646E+00  0.1545597511235E+00
-0.5629470014356E-01 -0.4448862307467E+01 -0.9010314149486E+00  0.1337002738798E+00
-0.4825018733979E-01 -0.4423428728699E+01 -0.8943357965343E+00  0.1156911141714E+00
-0.4455019905245E-01 -0.4399304699553E+01 -0.8887709929647E+00  0.9949425786177E-01
-0.4425886513377E-01 -0.4376558347056E+01 -0.8841634556130E+00  0.8420832953026E-01
-0.4678391341510E-01 -0.4355116366027E+01 -0.8803800690070E+00  0.6906268840306E-01
-0.5178711757512E-01 -0.4334810358362E+01 -0.8773195082605E+00  0.5339868027079E-01
-0.5912673475416E-01 -0.4315391164580E+01 -0.8749035929039E+00  0.3665187180503E-01
-0.6882054525479E-01 -0.4296521372739E+01 -0.8730683966085E+00  0.1834345469863E-01
-0.8101923004182E-01 -0.4277751482718E+01 -0.8717541555421E+00 -0.1914668924771E-02
-0.9597645629565E-01 -0.4258488315093E+01 -0.8708929672550E+00 -0.2439625693600E-01
-0.1139999573848E+00 -0.4237965903143E+01 -0.8703931850754E+00 -0.4921888511722E-01
-0.1353702750707E+00 -0.4215229776009E+01 -0.8701200231817E+00 -0.7629569140242E-01
-0.1602275157991E+00 -0.4189140499975E+01 -0.8698736161169E+00 -0.1053011544814E+00
-0.1884517429278E+00 -0.4158412403369E+01 -0.8693728422140E+00 -0.1356743568892E+00
-0.2195737825002E+00 -0.4121772914620E+01 -0.8682693523622E+00 -0.1666683835620E+00
-0.2527671125152E+00 -0.4077996119622E+01 -0.8661526593341E+00 -0.1973949862438E+00
-0.2869001698576E+00 -0.4025672003802E+01 -0.8625144475843E+00 -0.2267758176160E+00
-0.3205393296997E+00 -0.3962995583375E+01 -0.8567069953809E+00 -0.2533810800204E+00
-0.3518014486865E+00 -0.3887687388889E+01 -0.8478977801497E+00 -0.2751776409786E+00
-0.3779864010455E+00 -0.3797066552024E+01 -0.8350106030565E+00 -0.2892270671940E+00
-0.3949304024054E+00 -0.3688292362571E+01 -0.8166445651642E+00 -0.2913708333261E+00
-0.3959830553993E+00 -0.3558839927570E+01 -0.7909646083801E+00 -0.2759445755384E+00
-0.3704341358522E+00 -0.3407386592388E+01 -0.7555641569069E+00 -0.2356444295573E+00
-0.3011448189391E+00 -0.3235225686313E+01 -0.7072741115896E+00 -0.1618437655470E+00
-0.1613618329605E+00 -0.3048625082259E+01 -0.6419973926104E+00 -0.4623907633531E-01
 0.8802991583798E-01 -0.2862273196377E+01 -0.5548486643758E+00  0.1143056443732E+00
 0.4970711777872E+00 -0.2701185419688E+01 -0.4408228549489E+00  0.3080752256317E+00
 0.1114430372641E+01 -0.2595537611649E+01 -0.2962214522157E+00  0.4953508013243E+00
 0.1958305630498E+01 -0.2563103805992E+01 -0.1209596369013E+00  0.6005539839043E+00
 0.2977829774031E+01 -0.2583369444421E+01  0.7889206709766E-01  0.5273082564240E+00
 0.4038110158205E+01 -0.2587022531315E+01  0.2902175297026E+00  0.2076014404577E+00
-0.1013544475067E+01 -0.4500737190270E+01 -0.1102856349501E+01  0.3833163762510E+00
-0.8087071090535E+00 -0.4580727272327E+01 -0.1077886892338E+01  0.4200432253322E+00
-0.6127155955658E+00 -0.4643574761790E+01 -0.1051258087136E+01  0.4148394835041E+00
-0.4460829152859E+00 -0.4680671932699E+01 -0.1025350984876E+01  0.3800027595516E+00
-0.3168598681780E+00 -0.4692226466611E+01 -0.1001817281886E+01  0.3315407500779E+00
-0.2227705122811E+00 -0.4684299721310E+01 -0.9814140613423E+00  0.2817203038370E+00
-0.1568836361603E+00 -0.4664230415542E+01 -0.9642228247086E+00  0.2370276772578E+00
-0.1118203679865E+00 -0.4637945166660E+01 -0.9499531210848E+00  0.1995569657911E+00
-0.8154867709768E-01 -0.4609341580300E+01 -0.9381780654594E+00  0.1690380456088E+00
-0.6167472479674E-01 -0.4580669244103E+01 -0.9284688076153E+00  0.1442616437462E+00
-0.4916397726753E-01 -0.4553096088902E+01 -0.9204520269498E+00  0.1238120883823E+00
-0.4197236857349E-01 -0.4527152119524E+01 -0.9138249112366E+00  0.1063662879639E+00
-0.3874480580592E-01 -0.4503013407594E+01 -0.9083516562155E+00  0.9078213942956E-01
-0.3860205340713E-01 -0.4480666667158E+01 -0.9038537575816E+00  0.7610002377710E-01
-0.4099927269735E-01 -0.4459996733298E+01 -0.9001992146130E+00  0.6151469227585E-01
-0.4563585742922E-01 -0.4440825786657E+01 -0.8972923421879E+00  0.4634212213760E-01
-0.5240050289360E-01 -0.4422921301270E+01 -0.8950643741702E+00  0.2999188252141E-01
-0.6133907736958E-01 -0.4405982482239E+01 -0.8934643252354E+00  0.1195120128140E-01
-0.7263486607745E-01 -0.4389609538127E+01 -0.8924488941395E+00 -0.8215281938302E-02
-0.8658704738578E-01 -0.4373263117742E+01 -0.8919700463169E+00 -0.3084423309081E-01
-0.1035690450224E+00 -0.4356224476011E+01 -0.8919587174978E+00 -0.5612916757038E-01
-0.1239480902453E+00 -0.4337570608356E+01 -0.8923037530166E+00 -0.8406426262349E-01
-0.1479619668401E+00 -0.4316174509550E+01 -0.8928273085821E+00 -0.1144018236905E+00
-0.1755825113928E+00 -0.4290748112355E+01 -0.8932661380602E+00 -0.1466562343990E+00
-0.2064170218843E+00 -0.4260012299521E+01 -0.8932858775922E+00 -0.1801667286988E+00
-0.2397156950729E+00 -0.4222728669802E+01 -0.8924888862742E+00 -0.2141621377961E+00
-0.2744653788130E+00 -0.4177442981869E+01 -0.8903816854041E+00 -0.2477253145087E+00
-0.3094414315428E+00 -0.4122237966930E+01 -0.8863358929019E+00 -0.2796254900472E+00
-0.3431001812131E+00 -0.4054613331784E+01 -0.8795427157056E+00 -0.3080422272212E+00
-0.3732402223233E+00 -0.3971507808622E+01 -0.8689496191375E+00 -0.3302256906267E+00
-0.3963798274028E+00 -0.3869463970149E+01 -0.8531687722235E+00 -0.3421212081683E+00
-0.4067481113219E+00 -0.3744988693542E+01 -0.8303473733459E+00 -0.3379646925951E+00
-0.3946604429874E+00 -0.3595301701374E+01 -0.7979924407633E+00 -0.3099050735155E+00
-0.3438677853507E+00 -0.3419662218471E+01 -0.7527060119805E+00 -0.2478687732301E+00
-0.2274995433481E+00 -0.3221972310228E+01 -0.6898943809953E+00 -0.1405485322497E+00
-0.3400266728181E-02 -0.3015374970946E+01 -0.6037550565315E+00  0.2018015802677E-01
 0.3872569095520E+00 -0.2826515624853E+01 -0.4878517503298E+00  0.2284780165780E+00
 0.1009219642649E+01 -0.2692672183513E+01 -0.3366905131898E+00  0.4469344369778E+00
 0.1899107446236E+01 -0.2642460497489E+01 -0.1486706124661E+00  0.5912285332741E+00
 0.3011222843072E+01 -0.2660386889194E+01  0.7016719182119E-01  0.5419607946502E+00
 0.4185685454135E+01 -0.2665070157186E+01  0.3041230639216E+00  0.2067317290494E+00
-0.1035830394140E+01 -0.4628677400689E+01 -0.1132901575847E+01  0.4168226390348E+00
-0.8132994987015E+00 -0.4714093445036E+01 -0.1105478605220E+01  0.4491365722431E+00
-0.6026681958620E+00 -0.4778404359068E+01 -0.1076214527023E+01  0.4342130028828E+00
-0.4279654790670E+00 -0.4812271546869E+01 -0.1048047420804E+01  0.3882307297635E+00
-0.2966980595009E+00 -0.4817691675205E+01 -0.1022877962183E+01  0.3306390758128E+00
-0.2041433839752E+00 -0.4803084131536E+01 -0.1001445518025E+01  0.2749117020967E+00
-0.1411585437722E+00 -0.4777282631884E+01 -0.9836882497893E+00  0.2271146650147E+00
-0.9907989382478E-01 -0.4746706851257E+01 -0.9691573634580E+00  0.1884207650941E+00
-0.7133691956551E-01 -0.4715176841115E+01 -0.9573027664010E+00  0.1577634421355E+00
-0.5339816174028E-01 -0.4684676057788E+01 -0.9476148580263E+00  0.1334087970631E+00
-0.4225693036114E-01 -0.4656105238454E+01 -0.9396724477653E+00  0.1136371861099E+00
-0.3594713511363E-01 -0.4629786079067E+01 -0.9331466567412E+00  0.9696181494565E-01
-0.3319495070115E-01 -0.4605752088396E+01 -0.9277894216447E+00  0.8215725939791E-01
-0.3318979587337E-01 -0.4583904109825E+01 -0.9234187948997E+00  0.6822343352928E-01
-0.3543961677795E-01 -0.4564086522196E+01 -0.9199052415024E+00  0.5433495235533E-01
-0.3968240952565E-01 -0.4546117033122E+01 -0.9171599021963E+00  0.3979415178034E-01
-0.4583509204266E-01 -0.4529787518040E+01 -0.9151245356530E+00  0.2399411761637E-01
-0.5396681303507E-01 -0.4514844583286E+01 -0.9137622928803E+00  0.6395465468515E-02
-0.6428673950037E-01 -0.4500952436638E+01 -0.9130478488332E+00 -0.1347989590235E-01
-0.7713239054968E-01 -0.4487643272455E+01 -0.9129551462050E+00 -0.3603102093463E-01
-0.9293774838677E-01 -0.4474265238415E+01 -0.9134406109717E+00 -0.6153157553495E-01
-0.1121557742996E+00 -0.4459945835510E+01 -0.9144203355878E+00 -0.9006439686769E-01
-0.1351239553665E+00 -0.4443587284816E+01 -0.9157422616822E+00 -0.1214671730873E+00
-0.1619051455317E+00 -0.4423915142224E+01 -0.9171640712180E+00 -0.1553345552419E+00
-0.1921734413535E+00 -0.4399662598426E+01 -0.9183672216406E+00 -0.1910962103261E+00
-0.2252369588025E+00 -0.4369603730983E+01 -0.9189681516509E+00 -0.2281074867737E+00
-0.2601795485646E+00 -0.4332273293471E+01 -0.9184905820937E+00 -0.2656327396443E+00
-0.2959695452270E+00 -0.4285685404453E+01 -0.9163310035904E+00 -0.3026746654511E+00
-0.3313976043125E+00 -0.4227176161016E+01 -0.9117147666513E+00 -0.3376781100211E+00
-0.3647720457059E+00 -0.4153376431118E+01 -0.9036297088299E+00 -0.3681624139050E+00
-0.3933345261152E+00 -0.4060294028263E+01 -0.8907257241486E+00 -0.3903043670415E+00
-0.4123038081261E+00 -0.3943532154130E+01 -0.8711672054327E+00 -0.3984411940124E+00
-0.4132821254900E+00 -0.3798827962419E+01 -0.8424220301349E+00 -0.3844664794967E+00
-0.3814575921836E+00 -0.3623136812358E+01 -0.8009188928428E+00 -0.3371987598012E+00
-0.2907924474884E+00 -0.3417233132458E+01 -0.7416051270401E+00 -0.2424829107438E+00
-0.9723770637877E-01 -0.3191313047487E+01 -0.6577101605737E+00 -0.8660334941221E-01
 0.2665811014327E+00 -0.2972131724814E+01 -0.5411101327393E+00  0.1325804587331E+00
 0.8843340023844E+00 -0.2804125534431E+01 -0.3839583121308E+00  0.3833244709565E+00
 0.1818169680870E+01 -0.2729999061412E+01 -0.1823658788260E+00  0.5741186507149E+00
 0.3034327177318E+01 -0.2743435088224E+01  0.5817841868572E-01  0.5574401017927E+00
 0.4343968420412E+01 -0.2749403417665E+01  0.3189130053016E+00  0.2060584532737E+00
-0.1057637522907E+01 -0.4760832236148E+01 -0.1163693969151E+01  0.4530842666132E+00
-0.8147606892994E+00 -0.4852069908472E+01 -0.1133366136443E+01  0.4798036730221E+00
-0.5880545334176E+00 -0.4917005765438E+01 -0.1101012076178E+01  0.4529967590302E+00
-0.4056383343465E+00 -0.4945825878331E+01 -0.1070292858484E+01  0.3941659282817E+00
-0.2736238073615E+00 -0.4943277323402E+01 -0.1043380241700E+01  0.3268719996674E+00
-0.1839100961278E+00 -0.4920768618958E+01 -0.1020935758230E+01  0.2655166615146E+00
-0.1247497789362E+00 -0.4888675101497E+01 -0.1002684991028E+01  0.2152263284846E+00
-0.8619495328311E-01 -0.4853685302031E+01 -0.9879760657848E+00  0.1759213148952E+00
-0.6125936226307E-01 -0.4819321331583E+01 -0.9761161533144E+00  0.1456203956430E+00
-0.4538419296794E-01 -0.4787164092384E+01 -0.9665096714724E+00  0.1220564903852E+00
-0.3566133627576E-01 -0.4757778386150E+01 -0.9586879587707E+00  0.1032323156061E+00
-0.3024283761231E-01 -0.4731247458701E+01 -0.9522980734531E+00  0.8752791511465E-01
-0.2795751127790E-01 -0.4707451753628E+01 -0.9470818670937E+00  0.7366061078136E-01
-0.2807389884552E-01 -0.4686205285874E+01 -0.9428558509936E+00  0.6061033228504E-01
-0.3015682592091E-01 -0.4667315638420E+01 -0.9394945068678E+00  0.4754748700988E-01
-0.3398296241739E-01 -0.4650602276657E+01 -0.9369170617759E+00  0.3377349181552E-01
-0.3949451855226E-01 -0.4635889887061E+01 -0.9350768950565E+00  0.1867547764562E-01
-0.4677831165241E-01 -0.4622983690089E+01 -0.9339524142652E+00  0.1696115621971E-02
-0.5606141405393E-01 -0.4611626991099E+01 -0.9335376949413E+00 -0.1767925484694E-01
-0.6771063299645E-01 -0.4601443066717E+01 -0.9338307538578E+00 -0.3991005096267E-01
-0.8221333663933E-01 -0.4591869620936E+01 -0.9348166054448E+00 -0.6535372913720E-01
-0.1001062477705E+00 -0.4582107028501E+01 -0.9364426692084E+00 -0.9419018834124E-01
-0.1218293496545E+00 -0.4571105783165E+01 -0.9385870405499E+00 -0.1263512664909E+00
-0.1475370723798E+00 -0.4557621581438E+01 -0.9410317447860E+00 -0.1615167478577E+00
-0.1769600861506E+00 -0.4540418069652E+01 -0.9434756452194E+00 -0.1992089414409E+00
-0.2094422236024E+00 -0.4518305929313E+01 -0.9455496446729E+00 -0.2389158391869E+00
-0.2441376186043E+00 -0.4489842494515E+01 -0.9467960367322E+00 -0.2800994711909E+00
-0.2801849909119E+00 -0.4453020587488E+01 -0.9466411297861E+00 -0.3220248871654E+00
-0.3166948331222E+00 -0.4405079973328E+01 -0.9443549753619E+00 -0.3634473269449E+00
-0.3524802851811E+00 -0.4342437310305E+01 -0.9389835330892E+00 -0.4022274422730E+00
-0.3855198839376E+00 -0.4260687178262E+01 -0.9292414262868E+00 -0.4348961877878E+00
-0.4120882959139E+00 -0.4154662558711E+01 -0.9133501845349E+00 -0.4561042564559E+00
-0.4252821259176E+00 -0.4018702353664E+01 -0.8887969091604E+00 -0.4578373267033E+00
-0.4122535068306E+00 -0.3847329353963E+01 -0.8519165848533E+00 -0.4282994309588E+00
-0.3488943547860E+00 -0.3637505850812E+01 -0.7972800530000E+00 -0.3509556328610E+00
-0.1909506027230E+00 -0.3394823593638E+01 -0.7171548499586E+00 -0.2062805889737E+00
 0.1363041306407E+00 -0.3143751601865E+01 -0.6014895032078E+00  0.1799683238576E-01
 0.7378399978826E+00 -0.2934850959793E+01 -0.4394021989297E+00  0.3004015141722E+00
 0.1710384276404E+01 -0.2828418489575E+01 -0.2236068459661E+00  0.5458226454256E+00
 0.3043182924457E+01 -0.2833718858785E+01  0.4189281375863E-01  0.5732905211329E+00
 0.4515150805822E+01 -0.2841200886074E+01  0.3347899889383E+00  0.2058360140305E+00
-0.1078796260494E+01 -0.4898235213103E+01 -0.1195406312532E+01  0.4924781457117E+00
-0.8122713556510E+00 -0.4995641437442E+01 -0.1161582575928E+01  0.5119726894482E+00
-0.5679727291306E+00 -0.5059842695812E+01 -0.1125563101761E+01  0.4705024213757E+00
-0.3786493610773E+00 -0.5081129284688E+01 -0.1091955745424E+01  0.3969285685685E+00
-0.2476491053815E+00 -0.5068394313173E+01 -0.1063208699554E+01  0.3195871679348E+00
-0.1623074609773E+00 -0.5036724065305E+01 -0.1039806320751E+01  0.2532102338724E+00
-0.1079267609675E+00 -0.4997907633078E+01 -0.1021166894026E+01  0.2012704615237E+00
-0.7338886775208E-01 -0.4958531364335E+01 -0.1006384061414E+01  0.1620839867702E+00
-0.5148155995942E-01 -0.4921543962586E+01 -0.9946051193299E+00  0.1326788044707E+00
-0.3775136469796E-01 -0.4887982194407E+01 -0.9851467265007E+00  0.1102829779532E+00
-0.2946273381729E-01 -0.4858014275894E+01 -0.9774954165081E+00  0.9266841326837E-01
-0.2492400364761E-01 -0.4831463361697E+01 -0.9712774875421E+00  0.7812255941487E-01
-0.2308528775983E-01 -0.4808052703023E+01 -0.9662276125544E+00  0.6533623226152E-01
-0.2330249213488E-01 -0.4787512732427E+01 -0.9621630592498E+00  0.5329195487788E-01
-0.2519987976200E-01 -0.4769620388068E+01 -0.9589640678556E+00  0.4117282750380E-01
-0.2859190786888E-01 -0.4754204374343E+01 -0.9565592706962E+00  0.2829271327462E-01
-0.3344254162982E-01 -0.4741131011958E+01 -0.9549147249470E+00  0.1404411799708E-01
-0.3985004785754E-01 -0.4730275379218E+01 -0.9540250996311E+00 -0.2138261695898E-02
-0.4805031556906E-01 -0.4721475324675E+01 -0.9539051422632E+00 -0.2079757514819E-01
-0.5842834768734E-01 -0.4714466350181E+01 -0.9545789537980E+00 -0.4244948120150E-01
-0.7151511118772E-01 -0.4708801801008E+01 -0.9560633966855E+00 -0.6753774653253E-01
-0.8792751038351E-01 -0.4703781688642E+01 -0.9583418540854E+00 -0.9634857333694E-01
-0.1082116571151E+00 -0.4698427094884E+01 -0.9613277647248E+00 -0.1289187122220E+00
-0.1326162417992E+00 -0.4691541033121E+01 -0.9648314693612E+00 -0.1650187211254E+00
-0.1609185531283E+00 -0.4681934025966E+01 -0.9685705302517E+00 -0.2042640896250E+00
-0.1924730177983E+00 -0.4668474559639E+01 -0.9721895299742E+00 -0.2462781660595E+00
-0.2264725688524E+00 -0.4649773768802E+01 -0.9752492820632E+00 -0.2907319332201E+00
-0.2621980336925E+00 -0.4623851391449E+01 -0.9772098995898E+00 -0.3371742659610E+00
-0.2990569232937E+00 -0.4587925794479E+01 -0.9773965581189E+00 -0.3847050356543E+00
-0.3363467749310E+00 -0.4538312072375E+01 -0.9749317839889E+00 -0.4315840911596E+00
-0.3727663490836E+00 -0.4470351621414E+01 -0.9686236085332E+00 -0.4748042091019E+00
-0.4056585803354E+00 -0.4378313677266E+01 -0.9567944657776E+00 -0.5095359484989E+00
-0.4297397125157E+00 -0.4255353251062E+01 -0.9370186066783E+00 -0.5282357102652E+00
-0.4345664043817E+00 -0.4093639580155E+01 -0.9056412104024E+00 -0.5191217938660E+00
-0.3991034200486E+00 -0.3885867928346E+01 -0.8569942824490E+00 -0.4641115747913E+00
-0.2811175614249E+00 -0.3631289256890E+01 -0.7824813753229E+00 -0.3382831732415E+00
-0.1078087128731E-02 -0.3348688302976E+01 -0.6699532880041E+00 -0.1174454744817E+00
 0.5683840915712E+00 -0.3091884416646E+01 -0.5047000725355E+00  0.1930670038656E+00
 0.1569512424170E+01 -0.2941867305563E+01 -0.2744709803684E+00  0.5013383282754E+00
 0.3032125530248E+01 -0.2932976867777E+01  0.1982973278973E-01  0.5884847491201E+00
 0.4701984430167E+01 -0.2941992952557E+01  0.3519983007672E+00  0.2064844563523E+00
-0.1099056670560E+01 -0.5042293359183E+01 -0.1228270024251E+01  0.5354628148548E+00
-0.8047241318692E+00 -0.5146070544546E+01 -0.1190158953018E+01  0.5454314046439E+00
-0.5413283308758E+00 -0.5207355576881E+01 -0.1149736798684E+01  0.4857090864968E+00
-0.3465894060056E+00 -0.5217718008204E+01 -0.1112861499425E+01  0.3953868328380E+00
-0.2189355903335E+00 -0.5192187794442E+01 -0.1082224693082E+01  0.3080682953981E+00
-0.1396967580256E+00 -0.5150164891151E+01 -0.1057972345600E+01  0.2377163235594E+00
-0.9102536206116E-01 -0.5104418868366E+01 -0.1039088861569E+01  0.1852268642374E+00
-0.6091119814846E-01 -0.5060883722567E+01 -0.1024358999407E+01  0.1469919956673E+00
-0.4217547544140E-01 -0.5021620946698E+01 -0.1012759299519E+01  0.1190477707208E+00
-0.3061615430326E-01 -0.4986992783200E+01 -0.1003521802454E+01  0.9819118959183E-01
-0.2374144096629E-01 -0.4956726072932E+01 -0.9960935176225E+00  0.8203088029542E-01
-0.2004920812222E-01 -0.4930374113748E+01 -0.9900846791274E+00  0.6881117517650E-01
-0.1862543315126E-01 -0.4907506678063E+01 -0.9852264369239E+00  0.5723072075648E-01
-0.1891878442956E-01 -0.4887778618754E+01 -0.9813394952599E+00  0.4629845825165E-01
-0.2061376465414E-01 -0.4870944999091E+01 -0.9783117673270E+00  0.3522744741657E-01
-0.2356077668490E-01 -0.4856852393767E+01 -0.9760826486352E+00  0.2335757457566E-01
-0.2774156195621E-01 -0.4845417705526E+01 -0.9746318680196E+00  0.1009856062024E-01
-0.3325930915058E-01 -0.4836596637426E+01 -0.9739712038287E+00 -0.5111693594856E-02
-0.4034882517231E-01 -0.4830336688482E+01 -0.9741371172466E+00 -0.2283455016729E-01
-0.4940014149937E-01 -0.4826507827278E+01 -0.9751816082868E+00 -0.4363491991638E-01
-0.6097473365548E-01 -0.4824808884359E+01 -0.9771567381637E+00 -0.6804334646520E-01
-0.7576351996462E-01 -0.4824672127126E+01 -0.9800871440226E+00 -0.9646220547761E-01
-0.9442300462164E-01 -0.4825216564053E+01 -0.9839279283966E+00 -0.1290468923719E+00
-0.1173018280642E+00 -0.4825311063813E+01 -0.9885225931056E+00 -0.1656665621814E+00
-0.1442152605727E+00 -0.4823826637168E+01 -0.9936083943540E+00 -0.2060297243348E+00
-0.1745010136277E+00 -0.4819705043164E+01 -0.9988412262422E+00 -0.2498947388339E+00
-0.2073555169807E+00 -0.4811636268057E+01 -0.1003798371965E+01 -0.2971473470561E+00
-0.2421691869655E+00 -0.4797712401047E+01 -0.1007976332623E+01 -0.3476323136516E+00
-0.2786171421203E+00 -0.4775209916736E+01 -0.1010765426833E+01 -0.4008140020921E+00
-0.3164471355201E+00 -0.4740470622363E+01 -0.1011383566647E+01 -0.4553894227401E+00
-0.3550316540098E+00 -0.4688777030563E+01 -0.1008761751946E+01 -0.5088952409465E+00
-0.3927344978442E+00 -0.4614111821386E+01 -0.1001369278768E+01 -0.5572027132477E+00
-0.4259113235233E+00 -0.4508800115645E+01 -0.9869423025401E+00 -0.5936142857229E+00
-0.4468063609148E+00 -0.4362998851843E+01 -0.9619610568858E+00 -0.6070761705681E+00
-0.4384860518497E+00 -0.4165096063876E+01 -0.9207164368648E+00 -0.5791462451529E+00
-0.3633538901577E+00 -0.3906534797962E+01 -0.8539777503492E+00 -0.4808027454055E+00
-0.1413301387433E+00 -0.3596115021512E+01 -0.7474890431896E+00 -0.2751831920597E+00
 0.3758855324272E+00 -0.3285261992246E+01 -0.5818753006343E+00  0.5527494883734E-01
 0.1388132512515E+01 -0.3076910342451E+01 -0.3377555710202E+00  0.4333470387296E+00
 0.2992919830163E+01 -0.3043873695289E+01 -0.1019077317716E-01  0.6008906963764E+00
 0.4907958597186E+01 -0.3053841731753E+01  0.3708233786124E+00  0.2086464118400E+00
-0.1118040404392E+01 -0.5194972552465E+01 -0.1262602610186E+01  0.5825987015008E+00
-0.7905993734124E+00 -0.5304984470010E+01 -0.1219116786851E+01  0.5797112975453E+00
-0.5068151796022E+00 -0.5359860840340E+01 -0.1173335221472E+01  0.4971024252365E+00
-0.3091777240448E+00 -0.5354710297293E+01 -0.1132777621147E+01  0.3881122606574E+00
-0.1878678396842E+00 -0.5313456416032E+01 -0.1100264867538E+01  0.2915834567354E+00
-0.1165862031452E+00 -0.5260144667247E+01 -0.1075346190102E+01  0.2188619066785E+00
-0.7444341755686E-01 -0.5207605056427E+01 -0.1056409710539E+01  0.1671759215996E+00
-0.4902866281035E-01 -0.5160385224645E+01 -0.1041882793016E+01  0.1307973433144E+00
-0.3351238210667E-01 -0.5119346730731E+01 -0.1030571837924E+01  0.1048791941079E+00
-0.2408806656749E-01 -0.5084078951672E+01 -0.1021633418871E+01  0.8590944533767E-01
-0.1856925159052E-01 -0.5053845938166E+01 -0.1014483053068E+01  0.7141919708590E-01
-0.1566883368322E-01 -0.5027936286444E+01 -0.1008721039057E+01  0.5966594527723E-01
-0.1461785544286E-01 -0.5005778994801E+01 -0.1004079385011E+01  0.4939251404443E-01
-0.1495981381291E-01 -0.4986966416999E+01 -0.1000385261069E+01  0.3965827399056E-01
-0.1643836618460E-01 -0.4971243127240E+01 -0.9975363135494E+00  0.2972317419600E-01
-0.1893712071999E-01 -0.4958483180355E+01 -0.9954840750490E+00  0.1896641468018E-01
-0.2245138997739E-01 -0.4948662800949E+01 -0.9942228530003E+00  0.6826911417451E-02
-0.2708284752338E-01 -0.4941828013402E+01 -0.9937821869935E+00 -0.7242054015537E-02
-0.3305502347376E-01 -0.4938049794421E+01 -0.9942209783940E+00 -0.2380739629814E-01
-0.4074794503782E-01 -0.4937354950285E+01 -0.9956205939005E+00 -0.4347248450891E-01
-0.5073646984171E-01 -0.4939621426925E+01 -0.9980715942257E+00 -0.6685156827819E-01
-0.6377528939956E-01 -0.4944454104640E+01 -0.1001645893734E+01 -0.9447293215532E-01
-0.8063547065407E-01 -0.4951105164605E+01 -0.1006348142047E+01 -0.1266283878046E+00
-0.1017751368737E+00 -0.4958530950078E+01 -0.1012061232471E+01 -0.1632978405079E+00
-0.1270415065010E+00 -0.4965672765395E+01 -0.1018542869557E+01 -0.2042838359926E+00
-0.1557271532410E+00 -0.4971551540498E+01 -0.1025455754028E+01 -0.2494774515879E+00
-0.1869944029901E+00 -0.4974949639357E+01 -0.1032388823853E+01 -0.2989791906240E+00
-0.2203085923782E+00 -0.4974069361206E+01 -0.1038875606197E+01 -0.3529300535670E+00
-0.2555787463190E+00 -0.4966325903889E+01 -0.1044380945604E+01 -0.4111606610553E+00
-0.2929578506569E+00 -0.4948227693383E+01 -0.1048237124428E+01 -0.4728181968676E+00
-0.3324192175299E+00 -0.4915219426610E+01 -0.1049527744467E+01 -0.5360300691398E+00
-0.3732400190678E+00 -0.4861335019261E+01 -0.1046915023266E+01 -0.5975025170639E+00
-0.4133163836043E+00 -0.4778558108967E+01 -0.1038374913987E+01 -0.6517150812834E+00
-0.4476473069774E+00 -0.4655661082929E+01 -0.1020661693190E+01 -0.6890603066107E+00
-0.4641109918363E+00 -0.4477271827035E+01 -0.9882765785008E+00 -0.6921743099095E+00
-0.4323839808825E+00 -0.4226367378051E+01 -0.9317502856708E+00 -0.6302625493932E+00
-0.2779134325257E+00 -0.3897142785958E+01 -0.8350112561393E+00 -0.4550337644980E+00
 0.1626776967381E+00 -0.3529244286653E+01 -0.6733133280160E+00 -0.1195958682962E+00
 0.1157880398335E+01 -0.3244192463536E+01 -0.4172624192579E+00  0.3312507829292E+00
 0.2913441035241E+01 -0.3170803094803E+01 -0.5147241267954E-01  0.6062585089165E+00
 0.5137499171135E+01 -0.3179695148406E+01  0.3915608103806E+00  0.2132449426348E+00
-0.1135158068443E+01 -0.5359104577306E+01 -0.1298852548504E+01  0.6345695174536E+00
-0.7677799904432E+00 -0.5474479678676E+01 -0.1248451952427E+01  0.6138730012525E+00
-0.4629271994967E+00 -0.5517341065302E+01 -0.1196053670782E+01  0.5024375766522E+00
-0.2664104610353E+00 -0.5490563460575E+01 -0.1151394801479E+01  0.3733625178776E+00
-0.1551443935584E+00 -0.5430573968252E+01 -0.1117143689009E+01  0.2694838122578E+00
-0.9364138575576E-01 -0.5365578947523E+01 -0.1091844082925E+01  0.1966499877606E+00
-0.5862508081893E-01 -0.5306852847767E+01 -0.1073095601707E+01  0.1473263156305E+00
-0.3801161575964E-01 -0.5256703557744E+01 -0.1058943050480E+01  0.1137286567400E+00
-0.2565420191420E-01 -0.5214546531091E+01 -0.1048040162218E+01  0.9036942399111E-01
-0.1826409766801E-01 -0.5179152124741E+01 -0.1039483259971E+01  0.7359089718398E-01
-0.1400593684501E-01 -0.5149329694327E+01 -0.1032667141622E+01  0.6094575404388E-01
-0.1182280712665E-01 -0.5124125674881E+01 -0.1027189711708E+01  0.5076465916501E-01
-0.1109364749054E-01 -0.5102850596492E+01 -0.1022788864037E+01  0.4187092928134E-01
-0.1145523352239E-01 -0.5085052500872E+01 -0.1019301562068E+01  0.3339735331773E-01
-0.1270737867686E-01 -0.5070479320871E+01 -0.1016637355059E+01  0.2466659373426E-01
-0.1476336916650E-01 -0.5059042937412E+01 -0.1014761276437E+01  0.1510962502855E-01
-0.1762790317245E-01 -0.5050787077624E+01 -0.1013683011264E+01  0.4206235438278E-02
-0.2139526679636E-01 -0.5045856088167E+01 -0.1013450286094E+01 -0.8562102485584E-02
-0.2626798639354E-01 -0.5044455789464E+01 -0.1014144770283E+01 -0.2375283006748E-01
-0.3259981693354E-01 -0.5046790695042E+01 -0.1015878117533E+01 -0.4199218907885E-01
-0.4095723903708E-01 -0.5052954590174E+01 -0.1018782381023E+01 -0.6396931456199E-01
-0.5214227714884E-01 -0.5062775243889E+01 -0.1022983519451E+01 -0.9034620358004E-01
-0.6704301970308E-01 -0.5075685746327E+01 -0.1028545768533E+01 -0.1215737943084E+00
-0.8624100332489E-01 -0.5090758189629E+01 -0.1035399854019E+01 -0.1577623739531E+00
-0.1096134602435E+00 -0.5107009559270E+01 -0.1043324619450E+01 -0.1988140682771E+00
-0.1363798639177E+00 -0.5123530899573E+01 -0.1051982168374E+01 -0.2447507872110E+00
-0.1656309616593E+00 -0.5139191235438E+01 -0.1060964455229E+01 -0.2958819588544E+00
-0.1968731101516E+00 -0.5152327099398E+01 -0.1069840057852E+01 -0.3526303981441E+00
-0.2302138332163E+00 -0.5160570755659E+01 -0.1078156933841E+01 -0.4151723487584E+00
-0.2661591136048E+00 -0.5160745231425E+01 -0.1085380885179E+01 -0.4830892266819E+00
-0.3051904913083E+00 -0.5148695450242E+01 -0.1090777204564E+01 -0.5551039919152E+00
-0.3473375449096E+00 -0.5118885708114E+01 -0.1093244666895E+01 -0.6288259096198E+00
-0.3918179773992E+00 -0.5063558950411E+01 -0.1091075401820E+01 -0.7001549525211E+00
-0.4362115979139E+00 -0.4971000616763E+01 -0.1081442459050E+01 -0.7615588048325E+00
-0.4734103567782E+00 -0.4823295400895E+01 -0.1059341167320E+01 -0.7982181396983E+00
-0.4823876516149E+00 -0.4595749920620E+01 -0.1015627529581E+01 -0.7807818138730E+00
-0.4015077867169E+00 -0.4264416737316E+01 -0.9331849187120E+00 -0.6538255404938E+00
-0.6470976863222E-01 -0.3843781187340E+01 -0.7816982028426E+00 -0.3376381004649E+00
 0.8703842469023E+00 -0.3461297698958E+01 -0.5181826981326E+00  0.1800374263277E+00
 0.2775687482207E+01 -0.3321581810198E+01 -0.1091788672250E+00  0.5963116005839E+00
 0.5396138176495E+01 -0.3324138629258E+01  0.4143999156225E+00  0.2214584035646E+00
-0.1149463798519E+01 -0.5538920013383E+01 -0.1337676782313E+01  0.6921950272206E+00
-0.7332748270685E+00 -0.5657221712144E+01 -0.1278099326888E+01  0.6460987966349E+00
-0.4080500093105E+00 -0.5679016639414E+01 -0.1217413347886E+01  0.4984007907336E+00
-0.2188078250299E+00 -0.5622722389305E+01 -0.1168306060276E+01  0.3491460981655E+00
-0.1218744403002E+00 -0.5541451251739E+01 -0.1132665155286E+01  0.2413804172402E+00
-0.7166804923926E-01 -0.5465313639951E+01 -0.1107396354339E+01  0.1713441934657E+00
-0.4403123967022E-01 -0.5401584938739E+01 -0.1089123251911E+01  0.1260345627764E+00
-0.2811709216917E-01 -0.5349554751471E+01 -0.1075534384755E+01  0.9609442846859E-01
-0.1874365654578E-01 -0.5307090096645E+01 -0.1065166766510E+01  0.7575849371476E-01
-0.1322278291303E-01 -0.5272159872699E+01 -0.1057076546874E+01  0.6141140699638E-01
-0.1009573376848E-01 -0.5243161353863E+01 -0.1050651433182E+01  0.5073382968989E-01
-0.8538410174152E-02 -0.5218940102028E+01 -0.1045495718019E+01  0.4218909582304E-01
-0.8073607844068E-02 -0.5198719939613E+01 -0.1041358725009E+01  0.3471495620660E-01
-0.8426177813996E-02 -0.5182027612445E+01 -0.1038090773521E+01  0.2753831368337E-01
-0.9447267815067E-02 -0.5168630393456E+01 -0.1035615547686E+01  0.2005846259313E-01
-0.1107569542503E-01 -0.5158488766038E+01 -0.1033912907699E+01  0.1176922542009E-01
-0.1332163020354E-01 -0.5151721237937E+01 -0.1033008589021E+01  0.2202142961520E-02
-0.1626715419474E-01 -0.5148576209162E+01 -0.1032968688064E+01 -0.9120208663935E-02
-0.2008553022052E-01 -0.5149401941222E+01 -0.1033897509695E+01 -0.2272878858179E-01
-0.2508801710002E-01 -0.5154597560343E+01 -0.1035937130925E+01 -0.3925156716017E-01
-0.3180624862157E-01 -0.5164510398529E+01 -0.1039263344916E+01 -0.5943496074355E-01
-0.4106412720659E-01 -0.5179253301121E+01 -0.1044063501223E+01 -0.8407694485606E-01
-0.5386441090976E-01 -0.5198507544736E+01 -0.1050474406783E+01 -0.1138153139198E+00
-0.7093015220197E-01 -0.5221502862069E+01 -0.1058486618627E+01 -0.1489223028070E+00
-0.9217235266808E-01 -0.5247333288900E+01 -0.1067901144227E+01 -0.1894155051998E+00
-0.1167122501767E+00 -0.5275128109980E+01 -0.1078368088100E+01 -0.2354506672724E+00
-0.1435356031002E+00 -0.5303806599129E+01 -0.1089468456680E+01 -0.2875347267258E+00
-0.1721607305974E+00 -0.5331841470688E+01 -0.1100800456660E+01 -0.3463385565071E+00
-0.2028589934807E+00 -0.5357155490007E+01 -0.1112002913268E+01 -0.4123353590529E+00
-0.2364329022429E+00 -0.5377040799067E+01 -0.1122694756991E+01 -0.4854929843469E+00
-0.2737690414268E+00 -0.5387987694252E+01 -0.1132351364009E+01 -0.5650907591668E+00
-0.3154506765797E+00 -0.5385282783249E+01 -0.1140146708955E+01 -0.6496288568405E+00
-0.3616884425571E+00 -0.5362098227706E+01 -0.1144757351111E+01 -0.7365390251779E+00
-0.4122415283686E+00 -0.5307350337677E+01 -0.1143918390255E+01 -0.8208157626832E+00
-0.4646410032909E+00 -0.5202390061209E+01 -0.1133406229789E+01 -0.8913966384199E+00
-0.5077776695143E+00 -0.5017551571518E+01 -0.1105065864673E+01 -0.9238413017002E+00
-0.4999662693178E+00 -0.4710716692532E+01 -0.1042136607899E+01 -0.8635055417435E+00
-0.2929808060721E+00 -0.4255809095614E+01 -0.9097579938937E+00 -0.6018803020121E+00
 0.5197125460133E+00 -0.3757575185309E+01 -0.6475725375086E+00 -0.4061253424116E-01
 0.2552893868559E+01 -0.3511117592230E+01 -0.1916447475899E+00  0.5551975836433E+00
 0.5690503887964E+01 -0.3495115528915E+01  0.4390776783526E+00  0.2343272529067E+00
-0.1159394777781E+01 -0.5741027288291E+01 -0.1380084433779E+01  0.7564011630264E+00
-0.6828089200937E+00 -0.5856450902730E+01 -0.1307851984053E+01  0.6728941534561E+00
-0.3407407603747E+00 -0.5842477315643E+01 -0.1236643633631E+01  0.4801657821147E+00
-0.1678044903064E+00 -0.5747166123052E+01 -0.1182994140300E+01  0.3134878083666E+00
-0.8964132938936E-01 -0.5643622355209E+01 -0.1146652754006E+01  0.2074229984049E+00
-0.5154527470260E-01 -0.5558251141664E+01 -0.1121959299992E+01  0.1435396406014E+00
-0.3109816895202E-01 -0.5491309852087E+01 -0.1104481620666E+01  0.1038083726347E+00
-0.1957058790778E-01 -0.5438728605108E+01 -0.1091659854870E+01  0.7828170272606E-01
-0.1289342405864E-01 -0.5396906120044E+01 -0.1081959924943E+01  0.6132623736555E-01
-0.9018225859991E-02 -0.5363093239786E+01 -0.1074422309139E+01  0.4956566144566E-01
-0.6864040204521E-02 -0.5335357289119E+01 -0.1068444281786E+01  0.4091472546603E-01
-0.5828264087387E-02 -0.5312401881476E+01 -0.1063646044962E+01  0.3402292986993E-01
-0.5566925753673E-02 -0.5293404606307E+01 -0.1059794322204E+01  0.2797182110075E-01
-0.5884254256232E-02 -0.5277898115478E+01 -0.1056756489694E+01  0.2209950079735E-01
-0.6676326260089E-02 -0.5265686627207E+01 -0.1054472606406E+01  0.1589314275957E-01
-0.7902937279868E-02 -0.5256790082618E+01 -0.1052938619670E+01  0.8918564543215E-02
-0.9576319970175E-02 -0.5251407828709E+01 -0.1052196845415E+01  0.7686274304697E-03
-0.1176301206942E-01 -0.5249895344727E+01 -0.1052331687040E+01 -0.8980639625970E-02
-0.1460133245660E-01 -0.5252745985511E+01 -0.1053469479291E+01 -0.2081561250421E-01
-0.1834600691415E-01 -0.5260563172815E+01 -0.1055781851678E+01 -0.3533926735316E-01
-0.2346379639350E-01 -0.5273981885632E+01 -0.1059489152193E+01 -0.5332527665206E-01
-0.3076273435338E-01 -0.5293474613978E+01 -0.1064847485534E+01 -0.7569774459809E-01
-0.4134762858836E-01 -0.5319068048351E+01 -0.1072083151363E+01 -0.1033118678240E+00
-0.5610329586402E-01 -0.5350218310427E+01 -0.1081264337370E+01 -0.1366513326090E+00
-0.7498531615955E-01 -0.5386096562831E+01 -0.1092216392073E+01 -0.1758855436144E+00
-0.9699811398398E-01 -0.5425803493542E+01 -0.1104560337964E+01 -0.2213201232445E+00
-0.1209996676412E+00 -0.5468224002446E+01 -0.1117844750675E+01 -0.2736429280569E+00
-0.1465018624345E+00 -0.5511935964455E+01 -0.1131687582241E+01 -0.3337123717000E+00
-0.1739076489802E+00 -0.5555220132146E+01 -0.1145825573299E+01 -0.4022136669805E+00
-0.2042564094169E+00 -0.5596001462898E+01 -0.1160051591749E+01 -0.4794194025589E+00
-0.2387349325858E+00 -0.5631660944567E+01 -0.1174079192926E+01 -0.5650863052007E+00
-0.2782696726722E+00 -0.5658678877794E+01 -0.1187389727787E+01 -0.6585124329023E+00
-0.3236538957629E+00 -0.5671820706692E+01 -0.1199094938359E+01 -0.7585999976919E+00
-0.3762214198434E+00 -0.5661898259463E+01 -0.1207623953856E+01 -0.8630604428091E+00
-0.4373338827139E+00 -0.5611741010468E+01 -0.1209814996664E+01 -0.9653492439108E+00
-0.5045100745272E+00 -0.5491038848058E+01 -0.1199109802385E+01 -0.1048523182091E+01
-0.5594044073229E+00 -0.5245837428139E+01 -0.1161048384393E+01 -0.1069036911751E+01
-0.4988874572956E+00 -0.4799088493926E+01 -0.1059595206034E+01 -0.9072166649203E+00
 0.1079275363109E+00 -0.4181897828790E+01 -0.8147940706371E+00 -0.3556287232537E+00
 0.2205704268704E+01 -0.3769536333397E+01 -0.3127664175992E+00  0.4530823424974E+00
 0.6027749442211E+01 -0.3708156595113E+01  0.4639185763324E+00  0.2510958556221E+00
-0.1162304336776E+01 -0.5976346904430E+01 -0.1427730269516E+01  0.8280317044861E+00
-0.6102349845533E+00 -0.6075575389272E+01 -0.1337162094690E+01  0.6874654634114E+00
-0.2604358799172E+00 -0.6001929428296E+01 -0.1252473080306E+01  0.4409510565562E+00
-0.1163131779469E+00 -0.5858006551505E+01 -0.1194863963695E+01  0.2651353339476E+00
-0.6043620623132E-01 -0.5734604895848E+01 -0.1159008237686E+01  0.1686555764442E+00
-0.3409155538924E-01 -0.5643506164710E+01 -0.1135519560940E+01  0.1141668353628E+00
-0.2019770165994E-01 -0.5575663411022E+01 -0.1119172239213E+01  0.8129512425060E-01
-0.1254732741846E-01 -0.5524118419360E+01 -0.1107333165856E+01  0.6075083167422E-01
-0.8174430383421E-02 -0.5483995140146E+01 -0.1098433930474E+01  0.4738389106781E-01
-0.5674900942669E-02 -0.5451993209142E+01 -0.1091533638282E+01  0.3826182001650E-01
-0.4314424239983E-02 -0.5425969851244E+01 -0.1086056871280E+01  0.3162402854213E-01
-0.3688620423974E-02 -0.5404559782989E+01 -0.1081649696800E+01  0.2634918514168E-01
-0.3570100241067E-02 -0.5386942601531E+01 -0.1078102556419E+01  0.2168535339957E-01
-0.3830704072549E-02 -0.5372687000781E+01 -0.1075303556994E+01  0.1709397890218E-01
-0.4403862345145E-02 -0.5361652790263E+01 -0.1073211346514E+01  0.1215807247206E-01
-0.5265612099334E-02 -0.5353929888180E+01 -0.1071839116027E+01  0.6522158853179E-02
-0.6427562634435E-02 -0.5349803061606E+01 -0.1071246140811E+01 -0.1518224807493E-03
-0.7939106361585E-02 -0.5349734929622E+01 -0.1071534823164E+01 -0.8223319684058E-02
-0.9901444849209E-02 -0.5354360974298E+01 -0.1072852499816E+01 -0.1811632362193E-01
-0.1250393586123E-01 -0.5364487925962E+01 -0.1075398388389E+01 -0.3037803630001E-01
-0.1611846271186E-01 -0.5381060580205E+01 -0.1079435824668E+01 -0.4576375034047E-01
-0.2148437315247E-01 -0.5404993777857E+01 -0.1085295646374E+01 -0.6529070516104E-01
-0.2977661694645E-01 -0.5436801055730E+01 -0.1093315550827E+01 -0.9005715439836E-01
-0.4205824009735E-01 -0.5476285728615E+01 -0.1103668810188E+01 -0.1208330267149E+00
-0.5834757476049E-01 -0.5522702785854E+01 -0.1116210088756E+01 -0.1580143070080E+00
-0.7752652799972E-01 -0.5575002321524E+01 -0.1130505786751E+01 -0.2021002763826E+00
-0.9832421404501E-01 -0.5631874341787E+01 -0.1146039728244E+01 -0.2539376462908E+00
-0.1202468497639E+00 -0.5691924150403E+01 -0.1162434217355E+01 -0.3144726883091E+00
-0.1437991543452E+00 -0.5753853174986E+01 -0.1179530483443E+01 -0.3844685963347E+00
-0.1701913398772E+00 -0.5816402075152E+01 -0.1197318700847E+01 -0.4643850032303E+00
-0.2008104936651E+00 -0.5878087802306E+01 -0.1215779677311E+01 -0.5543489008074E+00
-0.2367321270198E+00 -0.5936904196302E+01 -0.1234727283063E+01 -0.6542983362986E+00
-0.2789093530855E+00 -0.5989767189966E+01 -0.1253735327292E+01 -0.7643625543696E+00
-0.3294495855199E+00 -0.6030636717737E+01 -0.1272017279606E+01 -0.8847694360690E+00
-0.3925224252025E+00 -0.6046367314980E+01 -0.1287777967226E+01 -0.1013783724465E+01
-0.4717212431465E+00 -0.6010747109444E+01 -0.1296493689837E+01 -0.1142755786750E+01
-0.5675859684476E+00 -0.5871250936819E+01 -0.1287767400242E+01 -0.1247306525621E+01
-0.6467183423365E+00 -0.5509311699301E+01 -0.1231206026674E+01 -0.1231550230501E+01
-0.3433500254402E+00 -0.4813627488323E+01 -0.1031395518122E+01 -0.7885262066728E+00
 0.1678263062972E+01 -0.4160553817654E+01 -0.4964581583342E+00  0.2353300337392E+00
 0.6413638964141E+01 -0.3997493729291E+01  0.4832290541707E+00  0.2635700415394E+00
-0.1153667930934E+01 -0.6264321719188E+01 -0.1483597952132E+01  0.9070852437041E+00
-0.5067534609869E+00 -0.6316195071176E+01 -0.1364589726767E+01  0.6762875816964E+00
-0.1691236246229E+00 -0.6144747996433E+01 -0.1262774343028E+01  0.3721246854632E+00
-0.6937407884126E-01 -0.5947814567575E+01 -0.1203437747216E+01  0.2051187512238E+00
-0.3625785619998E-01 -0.5812661720836E+01 -0.1169783932838E+01  0.1272350763552E+00
-0.1989722141182E-01 -0.5720463369305E+01 -0.1148072135251E+01  0.8437525853303E-01
-0.1162195777514E-01 -0.5654461091129E+01 -0.1133216626667E+01  0.5928209899940E-01
-0.7145703536546E-02 -0.5605752454921E+01 -0.1122579648419E+01  0.4401830731499E-01
-0.4606473762937E-02 -0.5568437302017E+01 -0.1114608771765E+01  0.3426179294965E-01
-0.3183590527536E-02 -0.5538957121273E+01 -0.1108428158877E+01  0.2771527501139E-01
-0.2425962432761E-02 -0.5515089651888E+01 -0.1103503139308E+01  0.2299677338809E-01
-0.2098202871303E-02 -0.5495490531812E+01 -0.1099517763321E+01  0.1924743515173E-01
-0.2066101464801E-02 -0.5479393198184E+01 -0.1096291876266E+01  0.1589414918153E-01
-0.2255793628127E-02 -0.5466434598717E+01 -0.1093738094767E+01  0.1252849045624E-01
-0.2629553148223E-02 -0.5456548909771E+01 -0.1091835708854E+01  0.8833282326779E-02
-0.3175075660067E-02 -0.5449905821550E+01 -0.1090616195693E+01  0.4535681270643E-02
-0.3901526658603E-02 -0.5446878440021E+01 -0.1090156009580E+01 -0.6278235957465E-03
-0.4841410946672E-02 -0.5448033521057E+01 -0.1090575002652E+01 -0.6943051702735E-02
-0.6060437302258E-02 -0.5454140118167E+01 -0.1092040127367E+01 -0.1475564623166E-01
-0.7682186808802E-02 -0.5466194626750E+01 -0.1094775379025E+01 -0.2452597345799E-01
-0.9961321711728E-02 -0.5485449551432E+01 -0.1099082191006E+01 -0.3692983408630E-01
-0.1350107927595E-01 -0.5513337042379E+01 -0.1105367640802E+01 -0.5300504542544E-01
-0.1948147468095E-01 -0.5551059146503E+01 -0.1114108140838E+01 -0.7409345956480E-01
-0.2914219459960E-01 -0.5598988207645E+01 -0.1125626097222E+01 -0.1013580614698E+00
-0.4258711463040E-01 -0.5656496087910E+01 -0.1139816657493E+01 -0.1355679741437E+00
-0.5859437674339E-01 -0.5722168155126E+01 -0.1156152523602E+01 -0.1775144538284E+00
-0.7580422341963E-01 -0.5794218142977E+01 -0.1174004490773E+01 -0.2281717786468E+00
-0.9374848150884E-01 -0.5871139095228E+01 -0.1192977533124E+01 -0.2884137583585E+00
-0.1130053248591E+00 -0.5952116557891E+01 -0.1213024394625E+01 -0.3588809221376E+00
-0.1348698103894E+00 -0.6036923834861E+01 -0.1234358747444E+01 -0.4400583120859E+00
-0.1608402441284E+00 -0.6125483154288E+01 -0.1257264698418E+01 -0.5323335211257E+00
-0.1919808056241E+00 -0.6217527893244E+01 -0.1281901758875E+01 -0.6360876238407E+00
-0.2290657853466E+00 -0.6312504807359E+01 -0.1308314138036E+01 -0.7523055054957E+00
-0.2741213163547E+00 -0.6408419570202E+01 -0.1336508197227E+01 -0.8830238824784E+00
-0.3326351627871E+00 -0.6499022759898E+01 -0.1366331604897E+01 -0.1030883905938E+01
-0.4126537497611E+00 -0.6566773690176E+01 -0.1395885508788E+01 -0.1195424984503E+01
-0.5208216847614E+00 -0.6574084171182E+01 -0.1418981192333E+01 -0.1369982392907E+01
-0.6908939081581E+00 -0.6407751431513E+01 -0.1419729089090E+01 -0.1523544930950E+01
-0.7708538249740E+00 -0.5772273432649E+01 -0.1308625471025E+01 -0.1340767472549E+01
 0.8985171374969E+00 -0.4823260485516E+01 -0.7849486813004E+00 -0.1925882205234E+00
 0.6847527551370E+01 -0.4448117463166E+01  0.4798820247917E+00  0.2379870915751E+00
-0.1126089688228E+01 -0.6643422047185E+01 -0.1553902370237E+01  0.9896991297265E+00
-0.3600596604806E+00 -0.6569907975172E+01 -0.1385993547783E+01  0.6115574297932E+00
-0.7524523776151E-01 -0.6245596444498E+01 -0.1264168355289E+01  0.2660760790760E+00
-0.3427514775606E-01 -0.6010852071447E+01 -0.1209025461856E+01  0.1394555064091E+00
-0.1806449621459E-01 -0.5877393026175E+01 -0.1179091522048E+01  0.8581782468192E-01
-0.9346690758658E-02 -0.5788637882888E+01 -0.1159596932009E+01  0.5544733324959E-01
-0.5561008398103E-02 -0.5727851823972E+01 -0.1146682583561E+01  0.3871562156117E-01
-0.3347284541045E-02 -0.5683779573161E+01 -0.1137425388489E+01  0.2860651719327E-01
-0.2161494884382E-02 -0.5650409734833E+01 -0.1130514262789E+01  0.2230478253148E-01
-0.1494217439061E-02 -0.5624139652540E+01 -0.1125126790761E+01  0.1813749360555E-01
-0.1152935184391E-02 -0.5602847718095E+01 -0.1120800147357E+01  0.1516305272559E-01
-0.1017080347918E-02 -0.5585299365266E+01 -0.1117263305771E+01  0.1279042031643E-01
-0.1024028007738E-02 -0.5570837403484E+01 -0.1114372302904E+01  0.1062970102802E-01
-0.1138416511953E-02 -0.5559198964755E+01 -0.1112067492825E+01  0.8402379441988E-02
-0.1343009834660E-02 -0.5550410809358E+01 -0.1110350780384E+01  0.5890976433440E-02
-0.1632872418954E-02 -0.5544730990954E+01 -0.1109272789204E+01  0.2906087262534E-02
-0.2013869173738E-02 -0.5542622128943E+01 -0.1108927216148E+01 -0.7383981917682E-03
-0.2503798295242E-02 -0.5544749229951E+01 -0.1109450622181E+01 -0.5248258589558E-02
-0.3137791223174E-02 -0.5552001021998E+01 -0.1111027779200E+01 -0.1087775717967E-01
-0.3982938390585E-02 -0.5565538884748E+01 -0.1113904381226E+01 -0.1797431679699E-01
-0.5174833550809E-02 -0.5586885041307E+01 -0.1118411991637E+01 -0.2706694003485E-01
-0.7109139916930E-02 -0.5618015767574E+01 -0.1125024998262E+01 -0.3908352357355E-01
-0.1085380168063E-01 -0.5661088130849E+01 -0.1134388403410E+01 -0.5553707366299E-01
-0.1777326023800E-01 -0.5717465675868E+01 -0.1147047804314E+01 -0.7812028469058E-01
-0.2807354512324E-01 -0.5786744675544E+01 -0.1162963661463E+01 -0.1082601188502E+00
-0.4049560863523E-01 -0.5866762998573E+01 -0.1181451739047E+01 -0.1472424997731E+00
-0.5370631785841E-01 -0.5954782067869E+01 -0.1201697695052E+01 -0.1961126330723E+00
-0.6733874566200E-01 -0.6048971409338E+01 -0.1223262049228E+01 -0.2554140997996E+00
-0.8201172501275E-01 -0.6149077159347E+01 -0.1246217795442E+01 -0.3253756964812E+00
-0.9898634933501E-01 -0.6256174404150E+01 -0.1271032169637E+01 -0.4062903733762E+00
-0.1197528914672E+00 -0.6371924748458E+01 -0.1298335547332E+01 -0.4987033857564E+00
-0.1453359926081E+00 -0.6497972924519E+01 -0.1328661803224E+01 -0.6033223498578E+00
-0.1759683990044E+00 -0.6636237088916E+01 -0.1362441117886E+01 -0.7214247080689E+00
-0.2133553393237E+00 -0.6789423687768E+01 -0.1400555826288E+01 -0.8560340004056E+00
-0.2616326663314E+00 -0.6959735616580E+01 -0.1444273678104E+01 -0.1011732096041E+01
-0.3328481881287E+00 -0.7146100192956E+01 -0.1495789698506E+01 -0.1197311593062E+01
-0.4325186041074E+00 -0.7327671816773E+01 -0.1552038107303E+01 -0.1414061054848E+01
-0.5963071842348E+00 -0.7466459177918E+01 -0.1612553296459E+01 -0.1696577474016E+01
-0.1032472433317E+01 -0.7199279586975E+01 -0.1646350428591E+01 -0.1935953028593E+01
-0.2034562735192E+00 -0.6066579720201E+01 -0.1254007217430E+01 -0.9723647735953E+00
 0.7317452073063E+01 -0.5296334852166E+01  0.4042234502028E+00  0.5833885408535E-01
-0.1070968630058E+01 -0.7203200288121E+01 -0.1654833808295E+01  0.1054792611450E+01
-0.1534536426696E+00 -0.6781581436254E+01 -0.1387007036453E+01  0.4345737021584E+00
-0.3422053713433E-02 -0.6265006292319E+01 -0.1253685687888E+01  0.1304929553498E+00
-0.1705443276077E-01 -0.6052756729162E+01 -0.1213962250474E+01  0.8024972514786E-01
-0.4436600018795E-02 -0.5926788631567E+01 -0.1186245063994E+01  0.4532728880943E-01
-0.3342602595557E-02 -0.5848712070261E+01 -0.1170410952012E+01  0.2953825080991E-01
-0.1732638257171E-02 -0.5796106554443E+01 -0.1159567855819E+01  0.2037906764917E-01
-0.1118943532417E-02 -0.5758540846586E+01 -0.1151931975189E+01  0.1508930288932E-01
-0.7249328372432E-03 -0.5730175921086E+01 -0.1146180187864E+01  0.1183675643270E-01
-0.5238903293225E-03 -0.5707757496631E+01 -0.1141656294404E+01  0.9731479679508E-02
-0.4216479432324E-03 -0.5689414826834E+01 -0.1137967311913E+01  0.8241298359743E-02
-0.3872055932892E-03 -0.5674120129283E+01 -0.1134901483887E+01  0.7040990189511E-02
-0.3988733802134E-03 -0.5661377789062E+01 -0.1132355349362E+01  0.5914367746806E-02
-0.4460522557659E-03 -0.5651055883415E+01 -0.1130300403977E+01  0.4706567235348E-02
-0.5235533505730E-03 -0.5643290307869E+01 -0.1128762789064E+01  0.3295184390407E-02
-0.6303091119531E-03 -0.5638434480870E+01 -0.1127812974802E+01  0.1571877976449E-02
-0.7689542910654E-03 -0.5637039915385E+01 -0.1127561790737E+01 -0.5720330113370E-03
-0.9463956585889E-03 -0.5639861603696E+01 -0.1128161616682E+01 -0.3259126700000E-02
-0.1175446056955E-02 -0.5647889395156E+01 -0.1129812985078E+01 -0.6643508202040E-02
-0.1481304765393E-02 -0.5662416271144E+01 -0.1132779532062E+01 -0.1094038103836E-01
-0.1912674958599E-02 -0.5685167389128E+01 -0.1137416029766E+01 -0.1648243904231E-01
-0.2619326057409E-02 -0.5718566527071E+01 -0.1144237187676E+01 -0.2390120843339E-01
-0.4369742126159E-02 -0.5765990132663E+01 -0.1154071992155E+01 -0.3462894831229E-01
-0.8478697697639E-02 -0.5830631087213E+01 -0.1167821974384E+01 -0.5101059517804E-01
-0.1523384381371E-01 -0.5912617395780E+01 -0.1185570265585E+01 -0.7570122807450E-01
-0.2350392450093E-01 -0.6008299870018E+01 -0.1206360776880E+01 -0.1108820301248E+00
-0.3223807565410E-01 -0.6113207744466E+01 -0.1229089182339E+01 -0.1575316789724E+00
-0.4129752070981E-01 -0.6224916016356E+01 -0.1253242726088E+01 -0.2154476397270E+00
-0.5129566404888E-01 -0.6343848293857E+01 -0.1279028810640E+01 -0.2840517895723E+00
-0.6328394582459E-01 -0.6472707349978E+01 -0.1307198278639E+01 -0.3631513326249E+00
-0.7857099967184E-01 -0.6615357615272E+01 -0.1338785742938E+01 -0.4533454402341E+00
-0.9811429091991E-01 -0.6775591014107E+01 -0.1374741081491E+01 -0.5557274554769E+00
-0.1218620627046E+00 -0.6957201454465E+01 -0.1415812724531E+01 -0.6714977232115E+00
-0.1499945957853E+00 -0.7167037071302E+01 -0.1463406355224E+01 -0.8028499621851E+00
-0.1873234674838E+00 -0.7418046510551E+01 -0.1521074018273E+01 -0.9550085721267E+00
-0.2354376468106E+00 -0.7726968563120E+01 -0.1592481265716E+01 -0.1137069468413E+01
-0.3301100255302E+00 -0.8112226362914E+01 -0.1688467302849E+01 -0.1375360345150E+01
-0.3973698886803E+00 -0.8572125596886E+01 -0.1793899123845E+01 -0.1663441685976E+01
-0.8806345017616E+00 -0.9128395578711E+01 -0.2001806045924E+01 -0.2310783739279E+01
-0.1588647339889E+01 -0.8516518375108E+01 -0.2021033173115E+01 -0.2199100100530E+01
 0.7778264325032E+01 -0.7360703746322E+01  0.8351211698635E-01 -0.6770393723359E+00
-0.1010686040358E+01 -0.8215901821089E+01 -0.1845317599787E+01  0.9904624652021E+00
 0.1430579571565E+00 -0.6646299136279E+01 -0.1300648255206E+01  0.2787811891089E-01
-0.2787552637372E-01 -0.6250040596378E+01 -0.1255583243260E+01  0.4652296308243E-01
 0.4478516649607E-02 -0.6065422317711E+01 -0.1212188778275E+01  0.1961020992232E-01
-0.1583298537632E-02 -0.5963502550637E+01 -0.1193017187612E+01  0.1208313887859E-01
-0.3244228768073E-04 -0.5901210906563E+01 -0.1180248687357E+01  0.7616253221379E-02
-0.2802772321397E-03 -0.5859939767029E+01 -0.1172044026317E+01  0.5289745479461E-02
-0.1635590964746E-03 -0.5830500725271E+01 -0.1166132874250E+01  0.3952403443138E-02
-0.1585928745196E-03 -0.5808101327531E+01 -0.1161652001391E+01  0.3167662968610E-02
-0.1410488195710E-03 -0.5790084036048E+01 -0.1158045034230E+01  0.2676458487104E-02
-0.1350651865037E-03 -0.5775001172559E+01 -0.1155027264760E+01  0.2333840483420E-02
-0.1318986924461E-03 -0.5762114052059E+01 -0.1152449207323E+01  0.2048463064997E-02
-0.1321457682144E-03 -0.5751137846192E+01 -0.1150254015532E+01  0.1759510204077E-02
-0.1349294879549E-03 -0.5742098438237E+01 -0.1148446690658E+01  0.1422540202399E-02
-0.1402474991916E-03 -0.5735255017480E+01 -0.1147079070089E+01  0.1001527157896E-02
-0.1483002245377E-03 -0.5731061588297E+01 -0.1146241994785E+01  0.4634539464117E-03
-0.1593501382040E-03 -0.5730155585310E+01 -0.1146063004167E+01 -0.2255368869160E-03
-0.1746315901097E-03 -0.5733372907490E+01 -0.1146709524903E+01 -0.1105345909312E-02
-0.1950672015836E-03 -0.5741781702193E+01 -0.1148395370991E+01 -0.2226557942416E-02
-0.2234684814713E-03 -0.5756767359415E+01 -0.1151398182737E+01 -0.3660855471900E-02
-0.2649473037819E-03 -0.5780178876453E+01 -0.1156088781978E+01 -0.5521990350060E-02
-0.3253132791738E-03 -0.5814667851999E+01 -0.1162998650386E+01 -0.8013779166615E-02
-0.6249114828525E-03 -0.5864674894388E+01 -0.1173059978654E+01 -0.1184868532081E-01
-0.1965032995768E-02 -0.5936991075911E+01 -0.1187791239481E+01 -0.1990152765715E-01
-0.4579329734026E-02 -0.6033174200589E+01 -0.1207550724058E+01 -0.3730475512832E-01
-0.7840660540207E-02 -0.6146391654388E+01 -0.1230846481327E+01 -0.6789805219707E-01
-0.1150575652227E-01 -0.6269316699379E+01 -0.1256164509899E+01 -0.1121906506957E+00
-0.1581637272602E-01 -0.6398631491676E+01 -0.1282889591997E+01 -0.1685995753467E+00
-0.2128751821231E-01 -0.6535632012310E+01 -0.1311383925646E+01 -0.2352082190274E+00
-0.2856047831795E-01 -0.6685073541622E+01 -0.1342726823996E+01 -0.3109930520547E+00
-0.3839147706896E-01 -0.6853523545948E+01 -0.1378383025143E+01 -0.3963787378539E+00
-0.5168778965037E-01 -0.7047732130141E+01 -0.1419884005116E+01 -0.4932248182412E+00
-0.6851350497063E-01 -0.7272022375585E+01 -0.1468107197988E+01 -0.6029195662680E+00
-0.8872191240174E-01 -0.7534837671619E+01 -0.1524711939524E+01 -0.7245728358084E+00
-0.1123183724500E+00 -0.7861303180556E+01 -0.1594724334364E+01 -0.8597248049242E+00
-0.1482376050843E+00 -0.8290435236737E+01 -0.1687734593513E+01 -0.1017667334817E+01
-0.1757412306551E+00 -0.8874985913580E+01 -0.1810145455820E+01 -0.1218071109772E+01
-0.3354944436511E+00 -0.9704905577139E+01 -0.2008080034081E+01 -0.1506313299034E+01
-0.9345746991731E-02 -0.1097219984682E+02 -0.2196309151490E+01 -0.1905631589088E+01
-0.2978959678590E+01 -0.1315792468115E+02 -0.3227376920040E+01 -0.3420437907858E+01
 0.9024099047621E+01 -0.1361651106158E+02 -0.9184824164790E+00 -0.3168784527734E+01
-0.2731842754957E+00 -0.4122442809175E+00 -0.3221514206971E+00 -0.2266119030807E+00
-0.2717184010975E+00 -0.4195064332089E+00 -0.3248756713000E+00 -0.1404676654624E+00
-0.2641338916101E+00 -0.4261641200502E+00 -0.3244400646575E+00 -0.6799858656929E-01
-0.2544984331429E+00 -0.4351421628725E+00 -0.3241310793052E+00 -0.7398166595414E-02
-0.2428578418294E+00 -0.4454168911728E+00 -0.3234891236906E+00  0.4309326944717E-01
-0.2301233484618E+00 -0.4564047423940E+00 -0.3226682018838E+00  0.8465005484656E-01
-0.2166031782095E+00 -0.4673079315887E+00 -0.3214382207899E+00  0.1179999092359E+00
-0.2027640229567E+00 -0.4779019778657E+00 -0.3199130195751E+00  0.1439152529682E+00
-0.1889657198451E+00 -0.4879299078886E+00 -0.3181409442279E+00  0.1632086252048E+00
-0.1755199498413E+00 -0.4971369714551E+00 -0.3161487522074E+00  0.1766270312438E+00
-0.1627079719507E+00 -0.5053821617938E+00 -0.3140023620635E+00  0.1848512962345E+00
-0.1507045350717E+00 -0.5125425281765E+00 -0.3117261189360E+00  0.1885086693130E+00
-0.1396249744537E+00 -0.5184510137236E+00 -0.3092957136588E+00  0.1881842445795E+00
-0.1295302035584E+00 -0.5228324418941E+00 -0.3066104425850E+00  0.1843932662186E+00
-0.1204458966656E+00 -0.5253519879708E+00 -0.3035250050093E+00  0.1775739467549E+00
-0.1123314163581E+00 -0.5256371783071E+00 -0.2998452387321E+00  0.1681188841345E+00
-0.1055651850108E+00 -0.5236651799772E+00 -0.2957382707943E+00  0.1564711555753E+00
-0.1004826284207E+00 -0.5197736892100E+00 -0.2915204685470E+00  0.1427631970860E+00
-0.9468832732945E-01 -0.5126901714478E+00 -0.2854678937013E+00  0.1277573817513E+00
-0.1038895533763E+00 -0.5182500022560E+00 -0.2924055904055E+00  0.1151121287464E+00
-0.3202727715960E+00 -0.4666727465290E+00 -0.3698643925806E+00 -0.2209772298118E+00
-0.3084190965627E+00 -0.4724939648858E+00 -0.3670291379499E+00 -0.1335892663801E+00
-0.2954693705225E+00 -0.4811056965309E+00 -0.3649902805894E+00 -0.6047246064043E-01
-0.2803289771857E+00 -0.4908453707444E+00 -0.3624519426079E+00  0.7433855304727E-03
-0.2640476781745E+00 -0.5016998591520E+00 -0.3599013416306E+00  0.5158157760765E-01
-0.2470663308512E+00 -0.5129601893414E+00 -0.3572124635845E+00  0.9318024902104E-01
-0.2298230385549E+00 -0.5241585954662E+00 -0.3543713670911E+00  0.1263594893409E+00
-0.2126228606889E+00 -0.5349079371681E+00 -0.3513394741017E+00  0.1519464523618E+00
-0.1958106571254E+00 -0.5449378103843E+00 -0.3481517788465E+00  0.1707375363647E+00
-0.1796893585410E+00 -0.5540355843922E+00 -0.3448507223039E+00  0.1834705366328E+00
-0.1644962254429E+00 -0.5620604328175E+00 -0.3414816285162E+00  0.1908274434235E+00
-0.1503902245736E+00 -0.5689114625197E+00 -0.3380717920764E+00  0.1934381221512E+00
-0.1374608471726E+00 -0.5744416744259E+00 -0.3345941843027E+00  0.1918888871022E+00
-0.1257550874370E+00 -0.5784254663336E+00 -0.3309648594327E+00  0.1867067063387E+00
-0.1152841312612E+00 -0.5805827347046E+00 -0.3270574261744E+00  0.1783683833082E+00
-0.1061288497250E+00 -0.5806843390798E+00 -0.3228021979195E+00  0.1673610943514E+00
-0.9865082469470E-01 -0.5786079264223E+00 -0.3183116122177E+00  0.1542047955278E+00
-0.9276941333562E-01 -0.5741020459698E+00 -0.3134295850786E+00  0.1393443054839E+00
-0.9196040756436E-01 -0.5693879170356E+00 -0.3108337117736E+00  0.1239172430066E+00
-0.9149606787384E-01 -0.5584217793928E+00 -0.3054613874405E+00  0.1068451726117E+00
-0.3652790945015E+00 -0.5180865215787E+00 -0.4151818385046E+00 -0.2146260284949E+00
-0.3461026104274E+00 -0.5260237118814E+00 -0.4098993704455E+00 -0.1264566012535E+00
-0.3264917107828E+00 -0.5354788680814E+00 -0.4051261710386E+00 -0.5260262455299E-01
-0.3060825423119E+00 -0.5462761642998E+00 -0.4006085910914E+00  0.9062998327474E-02
-0.2850047431834E+00 -0.5577598320333E+00 -0.3960993493472E+00  0.6012005424961E-01
-0.2637689314298E+00 -0.5694952887972E+00 -0.3916341825133E+00  0.1016904774038E+00
-0.2426918452870E+00 -0.5810256739191E+00 -0.3871472330449E+00  0.1346493151099E+00
-0.2220655661767E+00 -0.5920035253000E+00 -0.3826124720236E+00  0.1598440442375E+00
-0.2021821545553E+00 -0.6021412878830E+00 -0.3780320169872E+00  0.1780742375718E+00
-0.1833152501143E+00 -0.6112378581403E+00 -0.3734399599324E+00  0.1900752234902E+00
-0.1656771372061E+00 -0.6191700627333E+00 -0.3688781830359E+00  0.1965298836080E+00
-0.1494039496058E+00 -0.6258500325437E+00 -0.3643693706861E+00  0.1980727216219E+00
-0.1345717251841E+00 -0.6311564478061E+00 -0.3598922403926E+00  0.1952963806438E+00
-0.1212206755703E+00 -0.6348980246210E+00 -0.3553757881885E+00  0.1887462953923E+00
-0.1093936935226E+00 -0.6368413261853E+00 -0.3507304583731E+00  0.1789406069244E+00
-0.9922989727194E-01 -0.6367571258707E+00 -0.3459138999997E+00  0.1664131090984E+00
-0.9100230839871E-01 -0.6343488377225E+00 -0.3409150378123E+00  0.1517249404976E+00
-0.8555107941793E-01 -0.6297028602048E+00 -0.3361693507700E+00  0.1353726352477E+00
-0.8267177485924E-01 -0.6213262569092E+00 -0.3308790740919E+00  0.1175011460031E+00
-0.8039532531737E-01 -0.6081899350357E+00 -0.3236350715451E+00  0.9712017244565E-01
-0.4099555986031E+00 -0.5687668476992E+00 -0.4599995485954E+00 -0.2073393078758E+00
-0.3835177010884E+00 -0.5787069395508E+00 -0.4522455799533E+00 -0.1187535231300E+00
-0.3575937982968E+00 -0.5896038426761E+00 -0.4451828901281E+00 -0.4440324256360E-01
-0.3316499208100E+00 -0.6013709911939E+00 -0.4385198275296E+00  0.1759743874406E-01
-0.3057568519079E+00 -0.6136369871104E+00 -0.4321151032426E+00  0.6875876712547E-01
-0.2801847610899E+00 -0.6259386829442E+00 -0.4258780176159E+00  0.1102236128850E+00
-0.2552161112204E+00 -0.6378985487624E+00 -0.4197638891272E+00  0.1428998426575E+00
-0.2310943620566E+00 -0.6491837717226E+00 -0.4137307218268E+00  0.1676471086588E+00
-0.2080775490925E+00 -0.6595240684661E+00 -0.4077727592183E+00  0.1852670832525E+00
-0.1864039299873E+00 -0.6687284130113E+00 -0.4019122001899E+00  0.1964972748886E+00
-0.1662599290704E+00 -0.6766870653080E+00 -0.3961850863530E+00  0.2020232796271E+00
-0.1477643568386E+00 -0.6833273504082E+00 -0.3906131014152E+00  0.2024852616647E+00
-0.1309837243854E+00 -0.6885475464278E+00 -0.3851796963052E+00  0.1984844511501E+00
-0.1159632846956E+00 -0.6921806977794E+00 -0.3798276707999E+00  0.1905837003159E+00
-0.1027719917198E+00 -0.6940039487632E+00 -0.3744846910772E+00  0.1793246024929E+00
-0.9155398145539E-01 -0.6937343770912E+00 -0.3690855275808E+00  0.1652510552560E+00
-0.8268370446292E-01 -0.6910636339400E+00 -0.3636612481270E+00  0.1488884659866E+00
-0.7632666722916E-01 -0.6853564524181E+00 -0.3579910653262E+00  0.1305120653888E+00
-0.7224404887118E-01 -0.6757904296095E+00 -0.3515762039942E+00  0.1100819412085E+00
-0.6864329187273E-01 -0.6618605408939E+00 -0.3433368005295E+00  0.8706965994198E-01
-0.4542306302488E+00 -0.6188055729365E+00 -0.5043270142179E+00 -0.1991638723428E+00
-0.4207542064791E+00 -0.6308311985684E+00 -0.4942451391187E+00 -0.1104182165437E+00
-0.3885462906580E+00 -0.6432724442980E+00 -0.4849548041993E+00 -0.3579905276151E-01
-0.3570719776450E+00 -0.6561843150186E+00 -0.4762304563440E+00  0.2637835167175E-01
-0.3262711033147E+00 -0.6693050532179E+00 -0.4679207923835E+00  0.7753904832559E-01
-0.2963102262317E+00 -0.6822757138194E+00 -0.4599353906574E+00  0.1188182116573E+00
-0.2673881397699E+00 -0.6947509725785E+00 -0.4522053816568E+00  0.1511484057661E+00
-0.2397122370858E+00 -0.7064316135274E+00 -0.4446876086603E+00  0.1753955250073E+00
-0.2135020670420E+00 -0.7170666431691E+00 -0.4373672926899E+00  0.1923628866364E+00
-0.1889638941902E+00 -0.7264815276082E+00 -0.4302593471539E+00  0.2027907500303E+00
-0.1662588765892E+00 -0.7345795518689E+00 -0.4233940603014E+00  0.2073685704791E+00
-0.1454903957366E+00 -0.7413010810440E+00 -0.4167919930298E+00  0.2067423078812E+00
-0.1267189620492E+00 -0.7465592380678E+00 -0.4104407530140E+00  0.2015206937335E+00
-0.1099944556726E+00 -0.7501991507509E+00 -0.4042909939936E+00  0.1922765677458E+00
-0.9539173005830E-01 -0.7519881610803E+00 -0.3982685478250E+00  0.1795561364693E+00
-0.8306605652807E-01 -0.7516181652726E+00 -0.3923015832513E+00  0.1638818464024E+00
-0.7321694051775E-01 -0.7486295977770E+00 -0.3862678720188E+00  0.1456891155675E+00
-0.6587118666661E-01 -0.7424454359465E+00 -0.3799088116646E+00  0.1251690064390E+00
-0.6061020078014E-01 -0.7324517799433E+00 -0.3727391299946E+00  0.1023030309464E+00
-0.5602408532308E-01 -0.7184625521128E+00 -0.3640087186716E+00  0.7691712800894E-01
-0.4981245781793E+00 -0.6683363704257E+00 -0.5482366444538E+00 -0.1901244719461E+00
-0.4577416409637E+00 -0.6824498591727E+00 -0.5358900037049E+00 -0.1014312104676E+00
-0.4193125365492E+00 -0.6965262379422E+00 -0.5244442226808E+00 -0.2674713803536E-01
-0.3822915318873E+00 -0.7106822639162E+00 -0.5136976827247E+00  0.3544932455358E-01
-0.3465416478367E+00 -0.7247615712792E+00 -0.5035125117074E+00  0.8649766529348E-01
-0.3121346103072E+00 -0.7384853319529E+00 -0.4937913716098E+00  0.1275113146957E+00
-0.2792071128099E+00 -0.7515619867934E+00 -0.4844614755848E+00  0.1594324057791E+00
-0.2479221895867E+00 -0.7637228367223E+00 -0.4754731611593E+00  0.1831297275013E+00
-0.2184640137675E+00 -0.7747425210146E+00 -0.4668070701636E+00  0.1994070282538E+00
-0.1910075145180E+00 -0.7844649955418E+00 -0.4584720785653E+00  0.2090070109344E+00
-0.1656902627252E+00 -0.7928075218325E+00 -0.4504939575995E+00  0.2126227568468E+00
-0.1426009965108E+00 -0.7997218463316E+00 -0.4428917350126E+00  0.2109049180965E+00
-0.1217937655345E+00 -0.8051317337771E+00 -0.4356549835715E+00  0.2044664233635E+00
-0.1033157920258E+00 -0.8088874768275E+00 -0.4287355352736E+00  0.1938816912280E+00
-0.8723821696141E-01 -0.8107517842712E+00 -0.4220552995088E+00  0.1796872623096E+00
-0.7366622924284E-01 -0.8103833663702E+00 -0.4155033088843E+00  0.1623675140942E+00
-0.6270240367099E-01 -0.8073300461432E+00 -0.4089152503755E+00  0.1422981020336E+00
-0.5425639215281E-01 -0.8010848642728E+00 -0.4020103895004E+00  0.1196531411345E+00
-0.4787852354404E-01 -0.7912156290456E+00 -0.3943742507169E+00  0.9448680116012E-01
-0.4241646459792E-01 -0.7775883636771E+00 -0.3854022683118E+00  0.6685805814444E-01
-0.5416193304877E+00 -0.7174248390154E+00 -0.5917507581656E+00 -0.1802450317720E+00
-0.4944424314354E+00 -0.7336255590493E+00 -0.5771919540638E+00 -0.9178697198456E-01
-0.4498438405233E+00 -0.7493868812992E+00 -0.5636384378270E+00 -0.1722001956978E-01
-0.4072784974106E+00 -0.7648684643439E+00 -0.5509090706273E+00  0.4484582229049E-01
-0.3665483325148E+00 -0.7799911947984E+00 -0.5388735764704E+00  0.9567061089216E-01
-0.3276529106402E+00 -0.7945509118062E+00 -0.5274357952121E+00  0.1363378695480E+00
-0.2906726792956E+00 -0.8083079967459E+00 -0.5165209164294E+00  0.1677882838043E+00
-0.2557300471372E+00 -0.8210301618234E+00 -0.5060772969279E+00  0.1908890504809E+00
-0.2229739206425E+00 -0.8325193294524E+00 -0.4960818262863E+00  0.2064430682991E+00
-0.1925496927322E+00 -0.8426402089176E+00 -0.4865392525414E+00  0.2151945107844E+00
-0.1645721539110E+00 -0.8513245813191E+00 -0.4774714643471E+00  0.2178390748734E+00
-0.1391150907803E+00 -0.8585349616470E+00 -0.4688955234516E+00  0.2150301271031E+00
-0.1162229361365E+00 -0.8642040096306E+00 -0.4608006633418E+00  0.2073810666161E+00
-0.9593400756643E-01 -0.8681887911359E+00 -0.4531377142408E+00  0.1954615291722E+00
-0.7829771625616E-01 -0.8702526528397E+00 -0.4458186723443E+00  0.1797912220907E+00
-0.6337301780592E-01 -0.8700638091910E+00 -0.4387153075758E+00  0.1608220491173E+00
-0.5118187325378E-01 -0.8672107028406E+00 -0.4316445096695E+00  0.1388967788531E+00
-0.4157047601328E-01 -0.8612760727969E+00 -0.4243378768645E+00  0.1142030535589E+00
-0.3408351655995E-01 -0.8519289662848E+00 -0.4164258658808E+00  0.8686610862907E-01
-0.2776642296409E-01 -0.8390311197123E+00 -0.4073948440246E+00  0.5708371785398E-01
-0.5846958235360E+00 -0.7661198548111E+00 -0.6348833672129E+00 -0.1695450142810E+00
-0.5308203907930E+00 -0.7844007343994E+00 -0.6181539272726E+00 -0.8148582126200E-01
-0.4801044741373E+00 -0.8018795646639E+00 -0.6025324967083E+00 -0.7199699954166E-02
-0.4320045524267E+00 -0.8187465028680E+00 -0.5878529944975E+00  0.5459618252362E-01
-0.3862758767994E+00 -0.8349845722359E+00 -0.5739924095907E+00  0.1050898062505E+00
-0.3428591982639E+00 -0.8504535339973E+00 -0.5608569827402E+00  0.1453308121096E+00
-0.3017868974122E+00 -0.8649644699413E+00 -0.5483731412653E+00  0.1762505906248E+00
-0.2631434233802E+00 -0.8783228579062E+00 -0.5364891508439E+00  0.1987109148899E+00
-0.2270445789955E+00 -0.8903601622300E+00 -0.5251802270439E+00  0.2135121335329E+00
-0.1936074046955E+00 -0.9009631210298E+00 -0.5144481457861E+00  0.2213986527931E+00
-0.1629244119427E+00 -0.9100789767054E+00 -0.5043115913855E+00  0.2230673869104E+00
-0.1350531375075E+00 -0.9176814957382E+00 -0.4947852763705E+00  0.2191723308446E+00
-0.1100250648578E+00 -0.9237137463452E+00 -0.4858572400331E+00  0.2103244619433E+00
-0.8786264815238E-01 -0.9280439720275E+00 -0.4774761102735E+00  0.1970853432961E+00
-0.6858914817290E-01 -0.9304516143442E+00 -0.4695491571921E+00  0.1799581484348E+00
-0.5221906252551E-01 -0.9306353302017E+00 -0.4619415634101E+00  0.1593717626242E+00
-0.3871464591295E-01 -0.9282423407288E+00 -0.4544697825689E+00  0.1356546458538E+00
-0.2787960802486E-01 -0.9229337278750E+00 -0.4468822667395E+00  0.1090178003043E+00
-0.1926815711347E-01 -0.9144476964514E+00 -0.4388464500624E+00  0.7964303973238E-01
-0.1207820629609E-01 -0.9026413164591E+00 -0.4299181746045E+00  0.4780658397092E-01
-0.6273326810698E+00 -0.8144575427286E+00 -0.6776414034665E+00 -0.1580410387955E+00
-0.5668449980769E+00 -0.8348081989141E+00 -0.6587770009149E+00 -0.7053077645306E-01
-0.5100642681655E+00 -0.8540242137790E+00 -0.6411215848878E+00  0.3325845350612E-02
-0.4564470643700E+00 -0.8723211420643E+00 -0.6245210554401E+00  0.6472281437104E-01
-0.4057112190750E+00 -0.8897328909472E+00 -0.6088587301661E+00  0.1147829076561E+00
-0.3577496210409E+00 -0.9061747143534E+00 -0.5940444361286E+00  0.1545201917121E+00
-0.3125531672145E+00 -0.9215050916611E+00 -0.5800073802004E+00  0.1848515336415E+00
-0.2701719030050E+00 -0.9355675925793E+00 -0.5666975614873E+00  0.2066302655785E+00
-0.2306907395471E+00 -0.9482242969915E+00 -0.5540900657678E+00  0.2206525517816E+00
-0.1941997256464E+00 -0.9593852434041E+00 -0.5421849340786E+00  0.2276617127945E+00
-0.1607691864385E+00 -0.9690143526610E+00 -0.5309982620300E+00  0.2283545158996E+00
-0.1304389819998E+00 -0.9770983969349E+00 -0.5205425667790E+00  0.2233839475046E+00
-0.1032244322306E+00 -0.9835940688791E+00 -0.5108046942259E+00  0.2133570073897E+00
-0.7912854546199E-01 -0.9883880399180E+00 -0.5017327938560E+00  0.1988268462960E+00
-0.5814658178751E-01 -0.9912874820902E+00 -0.4932340087715E+00  0.1802833925926E+00
-0.4025354763532E-01 -0.9920347650641E+00 -0.4851755057382E+00  0.1581413908574E+00
-0.2536481919933E-01 -0.9903401662255E+00 -0.4773813419388E+00  0.1327260781364E+00
-0.1325500523092E-01 -0.9859354652560E+00 -0.4696195199377E+00  0.1042731702741E+00
-0.3492617804907E-02 -0.9786157530268E+00 -0.4615909331201E+00  0.7300725869255E-01
 0.4610132546267E-02 -0.9682494671142E+00 -0.4529104860982E+00  0.3924689772449E-01
-0.6695078051707E+00 -0.8624659845498E+00 -0.7200276793424E+00 -0.1457477503136E+00
-0.6024895787574E+00 -0.8848727526478E+00 -0.6990602939873E+00 -0.5892636233431E-01
-0.5396983212072E+00 -0.9058362759895E+00 -0.6794012589592E+00  0.1436456105373E-01
-0.4805875165160E+00 -0.9255954502756E+00 -0.6609059927158E+00  0.7524337327236E-01
-0.4248442675977E+00 -0.9442272983298E+00 -0.6434636343539E+00  0.1247734266647E+00
-0.3723221543408E+00 -0.9616954253164E+00 -0.6269882608486E+00  0.1639327778063E+00
-0.3229765757102E+00 -0.9779022106004E+00 -0.6114130280152E+00  0.1936204250875E+00
-0.2768267256579E+00 -0.9927285701899E+00 -0.5966909875350E+00  0.2146791113657E+00
-0.2339290452931E+00 -0.1006067726240E+01 -0.5827984811421E+00  0.2278994802141E+00
-0.1943478984062E+00 -0.1017854105220E+01 -0.5697349402593E+00  0.2340226456329E+00
-0.1581315020175E+00 -0.1028069931561E+01 -0.5575146723676E+00  0.2337441817948E+00
-0.1253007576122E+00 -0.1036717489403E+01 -0.5461485747119E+00  0.2277151410954E+00
-0.9585268422785E-01 -0.1043771367995E+01 -0.5356233031864E+00  0.2165383125412E+00
-0.6976887426186E-01 -0.1049143372877E+01 -0.5258887548214E+00  0.2007598067889E+00
-0.4701680169098E-01 -0.1052677085146E+01 -0.5168561255024E+00  0.1808604975291E+00
-0.2753630602002E-01 -0.1054165656597E+01 -0.5083999211407E+00  0.1572480281097E+00
-0.1120521177155E-01 -0.1053383682051E+01 -0.5003567788275E+00  0.1302509037051E+00
 0.2222722046240E-02 -0.1050129629720E+01 -0.4925162453576E+00  0.1001280618622E+00
 0.1316466332643E-01 -0.1044252952230E+01 -0.4846114945554E+00  0.6713659750134E-01
 0.2222588777794E-01 -0.1035651251897E+01 -0.4763099199277E+00  0.3161818362711E-01
-0.7111988161843E+00 -0.9101675636931E+00 -0.7620421966096E+00 -0.1326786131957E+00
-0.6377308456598E+00 -0.9346133436231E+00 -0.7390017670886E+00 -0.4667807692700E-01
-0.5689860452410E+00 -0.9573270768164E+00 -0.7173671655475E+00  0.2592143945655E-01
-0.5044112051420E+00 -0.9785705296523E+00 -0.6970014135854E+00  0.8617167244056E-01
-0.4436676711327E+00 -0.9984581509999E+00 -0.6777991346832E+00  0.1350810792566E+00
-0.3865767877223E+00 -0.1016996034163E+01 -0.6596792246129E+00  0.1735919305838E+00
-0.3330638522240E+00 -0.1034126977158E+01 -0.6425796881797E+00  0.2025833648387E+00
-0.2831207748991E+00 -0.1049768026313E+01 -0.6264577349806E+00  0.2228861816160E+00
-0.2367779723033E+00 -0.1063843657484E+01 -0.6112921644494E+00  0.2352846145492E+00
-0.1940754714725E+00 -0.1076313703806E+01 -0.5970829108665E+00  0.2405168302875E+00
-0.1550395650994E+00 -0.1087180531471E+01 -0.5838434439073E+00  0.2392766473001E+00
-0.1196713682825E+00 -0.1096464832687E+01 -0.5715840130059E+00  0.2322129999492E+00
-0.8794830695601E-01 -0.1104163347154E+01 -0.5602924760106E+00  0.2199251920203E+00
-0.5982978667599E-01 -0.1110218646030E+01 -0.5499227619771E+00  0.2029545121516E+00
-0.3525642102512E-01 -0.1114516663957E+01 -0.5403933485709E+00  0.1817769076930E+00
-0.1413668764624E-01 -0.1116905451430E+01 -0.5315898040173E+00  0.1567983370884E+00
 0.3682426858527E-02 -0.1117224436388E+01 -0.5233647431512E+00  0.1283545636378E+00
 0.1846263697520E-01 -0.1115337811048E+01 -0.5155313305064E+00  0.9672575227892E-01
 0.3060731100135E-01 -0.1111152016981E+01 -0.5078560105225E+00  0.6219446509758E-01
 0.4066540287587E-01 -0.1104605294670E+01 -0.5000517478751E+00  0.2511758292574E-01
-0.7523832579280E+00 -0.9575804546035E+00 -0.8036829428514E+00 -0.1188465382959E+00
-0.6725483016846E+00 -0.9840444012180E+00 -0.7785985683894E+00 -0.3379217708622E-01
-0.5979104827463E+00 -0.1008504481066E+01 -0.7550150310766E+00  0.3799919933228E-01
-0.5279066816266E+00 -0.1031245442443E+01 -0.7328014964540E+00  0.9751832460234E-01
-0.4621765712792E+00 -0.1052414777902E+01 -0.7118579323095E+00  0.1457220968693E+00
-0.4005153650627E+00 -0.1072056138808E+01 -0.6921086050636E+00  0.1835175605642E+00
-0.3428232700035E+00 -0.1090149464280E+01 -0.6734971834048E+00  0.2117629903672E+00
-0.2890684438566E+00 -0.1106646491460E+01 -0.6559860179351E+00  0.2312765977959E+00
-0.2392577456587E+00 -0.1121502844930E+01 -0.6395574759544E+00  0.2428358297639E+00
-0.1934082754974E+00 -0.1134704711437E+01 -0.6242131022758E+00  0.2471756418841E+00
-0.1515247975613E+00 -0.1146276503350E+01 -0.6099666098810E+00  0.2449880661367E+00
-0.1135882630718E+00 -0.1156260200480E+01 -0.5968287763554E+00  0.2369203648484E+00
-0.7955591100400E-01 -0.1164678513896E+01 -0.5847901782199E+00  0.2235696921044E+00
-0.4936490008753E-01 -0.1171509179250E+01 -0.5738108158333E+00  0.2054750468966E+00
-0.2293026403870E-01 -0.1176684552781E+01 -0.5638189624753E+00  0.1831112089559E+00
-0.1323574586607E-03 -0.1180110067506E+01 -0.5547139383266E+00  0.1568867015085E+00
 0.1920773709501E-01 -0.1181690476351E+01 -0.5463668860647E+00  0.1271473182865E+00
 0.3536368491552E-01 -0.1181356482332E+01 -0.5386166134195E+00  0.9419296757177E-01
 0.4872585344334E-01 -0.1179076244905E+01 -0.5312646826395E+00  0.5832696701225E-01
 0.5979789461972E-01 -0.1174841174745E+01 -0.5240703403297E+00  0.1991743143198E-01
-0.7930388709425E+00 -0.1004719798751E+01 -0.8449465726130E+00 -0.1042643939599E+00
-0.7069238656418E+00 -0.1033176993278E+01 -0.8178474016179E+00 -0.2027562965585E-01
-0.6264577695430E+00 -0.1059373642047E+01 -0.7923407614378E+00  0.5059869408963E-01
-0.5510653193007E+00 -0.1083617543082E+01 -0.7683009433712E+00  0.1092911907255E+00
-0.4803683146636E+00 -0.1106085576580E+01 -0.7456333269934E+00  0.1567094894872E+00
-0.4141414091623E+00 -0.1126854684527E+01 -0.7242681621970E+00  0.1937261442135E+00
-0.3522644979801E+00 -0.1145938895634E+01 -0.7041555932126E+00  0.2211783116957E+00
-0.2946855025440E+00 -0.1163323134882E+01 -0.6852640578522E+00  0.2398716028594E+00
-0.2413902125814E+00 -0.1178993956780E+01 -0.6675805579068E+00  0.2505768290376E+00
-0.1923742991596E+00 -0.1192964776818E+01 -0.6511093640579E+00  0.2540259729167E+00
-0.1476216149381E+00 -0.1205283882120E+01 -0.6358655820046E+00  0.2509097506663E+00
-0.1070929690769E+00 -0.1216017186506E+01 -0.6218617715466E+00  0.2418746817578E+00
-0.7072533156139E-01 -0.1225216589208E+01 -0.6090927012169E+00  0.2275174480809E+00
-0.3843402057109E-01 -0.1232898316637E+01 -0.5975261969722E+00  0.2083773221610E+00
-0.1010993321940E-01 -0.1239043879379E+01 -0.5871022904321E+00  0.1849312440310E+00
 0.1439189101954E-01 -0.1243617574106E+01 -0.5777360695853E+00  0.1575937633351E+00
 0.3527253982497E-01 -0.1246589855390E+01 -0.5693191368717E+00  0.1267229792689E+00
 0.5281537802261E-01 -0.1247959213204E+01 -0.5617176011107E+00  0.9263804800970E-01
 0.6739893982713E-01 -0.1247760542631E+01 -0.5547699519109E+00  0.5566094799871E-01
 0.7948319327717E-01 -0.1246052181538E+01 -0.5482874230920E+00  0.1616883797370E-01
-0.8331438809926E+00 -0.1051598689127E+01 -0.8858290057095E+00 -0.8894537513768E-01
-0.7408416141558E+00 -0.1082019856258E+01 -0.8567448889214E+00 -0.6136083976977E-02
-0.6546166943460E+00 -0.1109937811386E+01 -0.8293406155905E+00  0.6371920393650E-01
-0.5738808932968E+00 -0.1135682999278E+01 -0.8034950274722E+00  0.1214957196466E+00
-0.4982421264605E+00 -0.1159458347003E+01 -0.7791192205516E+00  0.1680532636947E+00
-0.4274598643900E+00 -0.1181370247789E+01 -0.7561501508062E+00  0.2042307540764E+00
-0.3613983780886E+00 -0.1201463973092E+01 -0.7345453031918E+00  0.2308445782343E+00
-0.2999888829605E+00 -0.1219756144606E+01 -0.7142801611444E+00  0.2486883042460E+00
-0.2431986191290E+00 -0.1236263975322E+01 -0.6953474176285E+00  0.2585267714481E+00
-0.1910034141778E+00 -0.1251028901863E+01 -0.6777551868203E+00  0.2610897072077E+00
-0.1433670223440E+00 -0.1264124759374E+01 -0.6615211357294E+00  0.2570674157450E+00
-0.1002304468555E+00 -0.1275643709341E+01 -0.6466608517724E+00  0.2471069460613E+00
-0.6151067759740E-01 -0.1285669446290E+01 -0.6331746566210E+00  0.2318063411320E+00
-0.2710190608630E-01 -0.1294259122307E+01 -0.6210396817696E+00  0.2117075901409E+00
 0.3127569826234E-02 -0.1301445144665E+01 -0.6102092586264E+00  0.1872926986878E+00
 0.2934550292935E-01 -0.1307251379413E+01 -0.6006157604239E+00  0.1589851453707E+00
 0.5177212185003E-01 -0.1311713966523E+01 -0.5921726654941E+00  0.1271574184774E+00
 0.7069889258889E-01 -0.1314899939037E+01 -0.5847744903476E+00  0.9214843422646E-01
 0.8649367302662E-01 -0.1316914603244E+01 -0.5782978357356E+00  0.5429900826854E-01
 0.9957796796100E-01 -0.1317890952652E+01 -0.5726071013526E+00  0.1399531797021E-01
-0.8726772353769E+00 -0.1098228930695E+01 -0.9263258957045E+00 -0.7290331794727E-01
-0.7742875521580E+00 -0.1130580244455E+01 -0.8952878621373E+00  0.8618093174354E-02
-0.6823782748000E+00 -0.1160199063335E+01 -0.8660113467271E+00  0.7735860038164E-01
-0.5963491442441E+00 -0.1187437324714E+01 -0.8383796382837E+00  0.1341351622423E+00
-0.5157987312803E+00 -0.1212520672099E+01 -0.8123101175280E+00  0.1797605591342E+00
-0.4404767743021E+00 -0.1235581352746E+01 -0.7877473177147E+00  0.2150410562823E+00
-0.3702366351277E+00 -0.1256693196176E+01 -0.7646570187732E+00  0.2407731397513E+00
-0.3049963980625E+00 -0.1275903076228E+01 -0.7430227510320E+00  0.2577394152488E+00
-0.2447073076053E+00 -0.1293258573377E+01 -0.7228439622282E+00  0.2666998945211E+00
-0.1893270045406E+00 -0.1308829853928E+01 -0.7041337216944E+00  0.2683831997408E+00
-0.1388001068915E+00 -0.1322717788203E+01 -0.6869134089522E+00  0.2634804793507E+00
-0.9304837631878E-01 -0.1335042750320E+01 -0.6712028278178E+00  0.2526408082250E+00
-0.5196936756667E-01 -0.1345922284274E+01 -0.6570090746987E+00  0.2364654502213E+00
-0.1543706334642E-01 -0.1355456172973E+01 -0.6443198194357E+00  0.2155013462440E+00
 0.1670123903689E-01 -0.1363728674221E+01 -0.6331028929307E+00  0.1902380567122E+00
 0.4463372095330E-01 -0.1370823226850E+01 -0.6233090661905E+00  0.1611104244322E+00
 0.6859708662133E-01 -0.1376840976739E+01 -0.6148746267959E+00  0.1285072407476E+00
 0.8888944857497E-01 -0.1381917132407E+01 -0.6077230098597E+00  0.9278828822434E-01
 0.1058696976215E+00 -0.1386228162752E+01 -0.6017684770850E+00  0.5431457575518E-01
 0.1199295469886E+00 -0.1389983930794E+01 -0.5969255588745E+00  0.1348335832192E-01
-0.9116189625355E+00 -0.1144621843202E+01 -0.9664331762454E+00 -0.5615290889935E-01
-0.8072495030719E+00 -0.1178864809187E+01 -0.9334737243941E+00  0.2397780145487E-01
-0.7097354344240E+00 -0.1210159115373E+01 -0.9023504361160E+00  0.9151347162284E-01
-0.6184673944192E+00 -0.1238876065780E+01 -0.8729514240795E+00  0.1472107318460E+00
-0.5330399839562E+00 -0.1265260481658E+01 -0.8452012166948E+00  0.1918357489272E+00
-0.4531989399323E+00 -0.1289466964281E+01 -0.8190529729029E+00  0.2261632995069E+00
-0.3787915507721E+00 -0.1311595335781E+01 -0.7944818346649E+00  0.2509713170624E+00
-0.3097264108006E+00 -0.1331721339351E+01 -0.7714804406147E+00  0.2670330138295E+00
-0.2459413500653E+00 -0.1349922635945E+01 -0.7500560715223E+00  0.2751051615388E+00
-0.1873775203401E+00 -0.1366298757803E+01 -0.7302278488749E+00  0.2759168032503E+00
-0.1339614582516E+00 -0.1380978918364E+01 -0.7120219752033E+00  0.2701614598722E+00
-0.8559639293749E-01 -0.1394113350092E+01 -0.6954635774599E+00  0.2584918538254E+00
-0.4216114907919E-01 -0.1405855028129E+01 -0.6805676015619E+00  0.2415142621653E+00
-0.3510541332492E-02 -0.1416347472776E+01 -0.6673332649386E+00  0.2197825426462E+00
 0.3052750110341E-01 -0.1425727088087E+01 -0.6557438042189E+00  0.1937958695621E+00
 0.6015931987438E-01 -0.1434136214246E+01 -0.6457691387166E+00  0.1640024157468E+00
 0.8563560734688E-01 -0.1441739523481E+01 -0.6373688389663E+00  0.1308088933380E+00
 0.1072597514095E+00 -0.1448738605850E+01 -0.6304950599881E+00  0.9459714522180E-01
 0.1253834481439E+00 -0.1455379238327E+01 -0.6250980198007E+00  0.5575009666080E-01
 0.1403774475769E+00 -0.1461946441479E+01 -0.6211374255584E+00  0.1467954861829E-01
-0.9499504791964E+00 -0.1190788940258E+01 -0.1006147524591E+01 -0.3870983285522E-01
-0.8397170051165E+00 -0.1226880393660E+01 -0.9713007749614E+00  0.3993320101620E-01
-0.7366826722283E+00 -0.1259820096686E+01 -0.9383562990096E+00  0.1061792129060E+00
-0.6402341385706E+00 -0.1289995480081E+01 -0.9072079184654E+00  0.1607217128478E+00
-0.5499684550528E+00 -0.1317666633483E+01 -0.8777884893856E+00  0.2042804961957E+00
-0.4656335217956E+00 -0.1343007003588E+01 -0.8500610447745E+00  0.2376002789602E+00
-0.3870755770154E+00 -0.1366139924562E+01 -0.8240112836513E+00  0.2614422649072E+00
-0.3141974412970E+00 -0.1387168698724E+01 -0.7996420837819E+00  0.2765723077311E+00
-0.2469261200895E+00 -0.1406200808055E+01 -0.7769696542574E+00  0.2837459325350E+00
-0.1851879749137E+00 -0.1423365739469E+01 -0.7560202438422E+00  0.2836944479455E+00
-0.1288925466667E+00 -0.1438822209689E+01 -0.7368259336183E+00  0.2771154735345E+00
-0.7792530570455E-01 -0.1452751689538E+01 -0.7194181859392E+00  0.2646670444360E+00
-0.3214712597430E-01 -0.1465343780756E+01 -0.7038207243779E+00  0.2469621027521E+00
 0.8605255382398E-02 -0.1476786359768E+01 -0.6900451173110E+00  0.2245630668767E+00
 0.4452165170132E-01 -0.1487267715083E+01 -0.6780906480694E+00  0.1979803225088E+00
 0.7582438026952E-01 -0.1496987791737E+01 -0.6679468016955E+00  0.1676768212541E+00
 0.1027757726833E+00 -0.1506172499354E+01 -0.6595964598624E+00  0.1340783647528E+00
 0.1256831182004E+00 -0.1515086755682E+01 -0.6530197079602E+00  0.9758978878506E-01
 0.1448921696473E+00 -0.1524041918159E+01 -0.6482003801566E+00  0.5861753895807E-01
 0.1607593322385E+00 -0.1533393789647E+01 -0.6451381933455E+00  0.1759191719629E-01
-0.9876549691690E+00 -0.1236742634641E+01 -0.1045466871139E+01 -0.2059086284277E-01
-0.8716812617036E+00 -0.1274634834102E+01 -0.1008768562470E+01  0.5647370638531E-01
-0.7632157783498E+00 -0.1309185348247E+01 -0.9740285270300E+00  0.1213500797483E+00
-0.6616486561566E+00 -0.1340793268616E+01 -0.9411477022561E+00  0.1746655184139E+00
-0.5665870165223E+00 -0.1369729562534E+01 -0.9100687898482E+00  0.2170937654560E+00
-0.4777876274843E+00 -0.1396182932720E+01 -0.8807661610622E+00  0.2493512718634E+00
-0.3951009274650E+00 -0.1420297809985E+01 -0.8532374044373E+00  0.2721848250727E+00
-0.3184277485342E+00 -0.1442203832876E+01 -0.8274968411640E+00  0.2863554094821E+00
-0.2476868399595E+00 -0.1462038101463E+01 -0.8035707204304E+00  0.2926196692441E+00
-0.1827914240833E+00 -0.1479960634864E+01 -0.7814934657232E+00  0.2917132881294E+00
-0.1236350973997E+00 -0.1496160712554E+01 -0.7613040287475E+00  0.2843398422485E+00
-0.7008633232865E-01 -0.1510852223542E+01 -0.7430411193745E+00  0.2711643192584E+00
-0.2198882506802E-01 -0.1524262292055E+01 -0.7267380232043E+00  0.2528077779627E+00
 0.2083769637953E-01 -0.1536623381194E+01 -0.7124192700558E+00  0.2298424745000E+00
 0.5859922214872E-01 -0.1548174940597E+01 -0.7001005858949E+00  0.2027911053834E+00
 0.9153196956012E-01 -0.1559172684670E+01 -0.6897911343520E+00  0.1721322793200E+00
 0.1199076808222E+00 -0.1569900788579E+01 -0.6814967589171E+00  0.1383114959280E+00
 0.1440360787557E+00 -0.1580683487577E+01 -0.6752242804332E+00  0.1017570565350E+00
 0.1642574023689E+00 -0.1591892694119E+01 -0.6709885854209E+00  0.6290013422169E-01
 0.1809171927782E+00 -0.1603948851781E+01 -0.6688248780351E+00  0.2219321202093E-01
-0.1024717769168E+01 -0.1282496941193E+01 -0.1084390911119E+01 -0.1813869080997E-02
-0.9031351165837E+00 -0.1322137775180E+01 -0.1045878256476E+01  0.7358802637810E-01
-0.7893315596156E+00 -0.1358260251164E+01 -0.1009368148506E+01  0.1370192501561E+00
-0.6827106164004E+00 -0.1391269355493E+01 -0.9747705843176E+00  0.1890377353035E+00
-0.5828984036664E+00 -0.1421441989873E+01 -0.9420399825744E+00  0.2302718160573E+00
-0.4896678651651E+00 -0.1448978403046E+01 -0.9111637437480E+00  0.2614119612205E+00
-0.4028791298668E+00 -0.1474041769877E+01 -0.8821528206424E+00  0.2831933792289E+00
-0.3224348733734E+00 -0.1496786953187E+01 -0.8550342563148E+00  0.2963751263067E+00
-0.2482480939761E+00 -0.1517380561495E+01 -0.8298454659668E+00  0.3017176754153E+00
-0.1802204218948E+00 -0.1536013758343E+01 -0.8066300626660E+00  0.2999634116598E+00
-0.1182304580706E+00 -0.1552907401569E+01 -0.7854347920385E+00  0.2918237987161E+00
-0.6213034879957E-01 -0.1568308849385E+01 -0.7663064212030E+00  0.2779723325102E+00
-0.1174730185951E-01 -0.1582483430612E+01 -0.7492884423611E+00  0.2590393898342E+00
 0.3311498892393E-01 -0.1595708132068E+01 -0.7344187754149E+00  0.2356079360491E+00
 0.7267724254786E-01 -0.1608272479252E+01 -0.7217297594202E+00  0.2082135482575E+00
 0.1071876486877E+00 -0.1620485694685E+01 -0.7112500798149E+00  0.1773507643418E+00
 0.1369252366491E+00 -0.1632686752532E+01 -0.7030079106817E+00  0.1434847650264E+00
 0.1622005381449E+00 -0.1645254538660E+01 -0.6970353784739E+00  0.1070672020014E+00
 0.1833478641866E+00 -0.1658615547503E+01 -0.6933758094003E+00  0.6855456500997E-01
 0.2007027874093E+00 -0.1673247284724E+01 -0.6920959119823E+00  0.2842423500630E-01
-0.1061126747719E+01 -0.1328068152208E+01 -0.1122921600118E+01  0.1760221039549E-01
-0.9340730237505E+00 -0.1369401458834E+01 -0.1082633004069E+01  0.9126420534092E-01
-0.8150275568951E+00 -0.1407053038349E+01 -0.1044377877116E+01  0.1531788604739E+00
-0.7034196681093E+00 -0.1441426661638E+01 -0.1008077772424E+01  0.2038321285333E+00
-0.5989047565947E+00 -0.1472799633503E+01 -0.9737010608763E+00  0.2438081555760E+00
-0.5012798749877E+00 -0.1501379908221E+01 -0.9412500957208E+00  0.2737743299443E+00
-0.4104205590538E+00 -0.1527347131502E+01 -0.9107508122514E+00  0.2944576881670E+00
-0.3262351681003E+00 -0.1550880424174E+01 -0.8822443261314E+00  0.3066187566394E+00
-0.2486333381604E+00 -0.1572175932294E+01 -0.8557803549431E+00  0.3110248683976E+00
-0.1775064868414E+00 -0.1591456664430E+01 -0.8314126789890E+00  0.3084276101637E+00
-0.1127189950886E+00 -0.1608976091538E+01 -0.8091966886619E+00  0.2995482859240E+00
-0.5410719093104E-01 -0.1625016037309E+01 -0.7891879152710E+00  0.2850703211292E+00
-0.1482325208938E-02 -0.1639880587867E+01 -0.7714405671888E+00  0.2656343192338E+00
 0.4536712824287E-01 -0.1653890989585E+01 -0.7560062129135E+00  0.2418343889567E+00
 0.8667534411199E-01 -0.1667385495595E+01 -0.7429337693128E+00  0.2142190068483E+00
 0.1227007385168E+00 -0.1680724273728E+01 -0.7322710596919E+00  0.1832982908336E+00
 0.1537276462852E+00 -0.1694297294102E+01 -0.7240677326373E+00  0.1495564373942E+00
 0.1800655990281E+00 -0.1708533099229E+01 -0.7183797232724E+00  0.1134676439473E+00
 0.2020418815860E+00 -0.1723906141505E+01 -0.7152762003476E+00  0.7551343007234E-01
 0.2199818509700E+00 -0.1740941972383E+01 -0.7148512552508E+00  0.3619735348174E-01
-0.1096872712342E+01 -0.1373475553799E+01 -0.1161063682141E+01  0.3763747033183E-01
-0.9644910357888E+00 -0.1416441552304E+01 -0.1119038313565E+01  0.1094897024604E+00
-0.8403017705219E+00 -0.1455575650745E+01 -0.1079062385258E+01  0.1698200485727E+00
-0.7237750263723E+00 -0.1491271928005E+01 -0.1041072065917E+01  0.2190406339200E+00
-0.6146071503020E+00 -0.1523801970556E+01 -0.1005052284254E+01  0.2576934747019E+00
-0.5126278453547E+00 -0.1553377486495E+01 -0.9710225035063E+00  0.2864265405527E+00
-0.4177339554604E+00 -0.1580192434735E+01 -0.9390254010102E+00  0.3059627273227E+00
-0.3298433165179E+00 -0.1604449420561E+01 -0.9091175841214E+00  0.3170678985804E+00
-0.2488644098231E+00 -0.1626374349476E+01 -0.8813622146352E+00  0.3205195827658E+00
-0.1746795818228E+00 -0.1646222924113E+01 -0.8558241756191E+00  0.3170812053614E+00
-0.1071395223928E+00 -0.1664282349186E+01 -0.8325682775305E+00  0.3074858398394E+00
-0.4606501147581E-01 -0.1680869930172E+01 -0.8116594205157E+00  0.2924280844503E+00
 0.8748353525590E-02 -0.1696329016405E+01 -0.7931629095416E+00  0.2725593499937E+00
 0.5752672743307E-01 -0.1711024736765E+01 -0.7771440624147E+00  0.2484848606200E+00
 0.1005166889147E+00 -0.1725342557227E+01 -0.7636681561698E+00  0.2207654481449E+00
 0.1379853577835E+00 -0.1739690828443E+01 -0.7528015693004E+00  0.1899258422216E+00
 0.1702205566769E+00 -0.1754506535519E+01 -0.7446144081670E+00  0.1564679488339E+00
 0.1975290854948E+00 -0.1770262679202E+01 -0.7391847871678E+00  0.1208870042270E+00
 0.2202293723596E+00 -0.1787475234319E+01 -0.7366055532529E+00  0.8368816115721E-01
 0.2386358260393E+00 -0.1806707802820E+01 -0.7369938272176E+00  0.4540078385049E-01
-0.1131949809432E+01 -0.1418742150876E+01 -0.1198825218304E+01  0.5827119567740E-01
-0.9943867817228E+00 -0.1463277988735E+01 -0.1155102439185E+01  0.1282514971243E+00
-0.8651523687093E+00 -0.1503844608171E+01 -0.1113428576310E+01  0.1869329950274E+00
-0.7437750385265E+00 -0.1540816555017E+01 -0.1073758046242E+01  0.2346533303829E+00
-0.6300051034031E+00 -0.1574453014846E+01 -0.1036095312949E+01  0.2719155557545E+00
-0.5237140106530E+00 -0.1604965434794E+01 -0.1000479336822E+01  0.2993527924950E+00
-0.4248259311948E+00 -0.1632560101122E+01 -0.9669714327362E+00  0.3176885105850E+00
-0.3332718509872E+00 -0.1657462582297E+01 -0.9356451812705E+00  0.3276982620866E+00
-0.2489610469165E+00 -0.1679929020380E+01 -0.9065783293301E+00  0.3301733969816E+00
-0.1717676203924E+00 -0.1700248874615E+01 -0.8798477504220E+00  0.3258919206419E+00
-0.1015287768528E+00 -0.1718744358650E+01 -0.8555283715163E+00  0.3156005414229E+00
-0.3804970848566E-01 -0.1735769369961E+01 -0.8336949647552E+00  0.3000060580026E+00
 0.1888963113514E-01 -0.1751707059588E+01 -0.8144241893073E+00  0.2797709117155E+00
 0.6952971112402E-01 -0.1766966033003E+01 -0.7977950692594E+00  0.2555109329893E+00
 0.1141287244709E+00 -0.1781977372036E+01 -0.7838888623673E+00  0.2277981955485E+00
 0.1529612124931E+00 -0.1797194742991E+01 -0.7727897573739E+00  0.1971704643578E+00
 0.1863169030491E+00 -0.1813098058548E+01 -0.7645871411453E+00  0.1641454449572E+00
 0.2144982121591E+00 -0.1830199639309E+01 -0.7593796688344E+00  0.1292372936148E+00
 0.2378131734788E+00 -0.1849050508500E+01 -0.7572815455394E+00  0.9297261409541E-01
 0.2565600791929E+00 -0.1870245432569E+01 -0.7584321141631E+00  0.5590488106410E-01
-0.1166355916856E+01 -0.1463895411483E+01 -0.1236218121184E+01  0.7948207708287E-01
-0.1023759428583E+01 -0.1509935828374E+01 -0.1190836767749E+01  0.1475362215814E+00
-0.8895773739366E+00 -0.1551881900864E+01 -0.1147485856246E+01  0.2045069629979E+00
-0.7634167266755E+00 -0.1590077460223E+01 -0.1106142265037E+01  0.2506583918863E+00
-0.6450960662308E+00 -0.1624762107935E+01 -0.1066833339152E+01  0.2864591536087E+00
-0.5345381341290E+00 -0.1656143029513E+01 -0.1029620144300E+01  0.3125331547761E+00
-0.4317004696865E+00 -0.1684437101133E+01 -0.9945846557625E+00  0.3296098989451E+00
-0.3365306742375E+00 -0.1709892657487E+01 -0.9618189634709E+00  0.3384794801538E+00
-0.2489404263203E+00 -0.1732796879561E+01 -0.9314165314019E+00  0.3399509765335E+00
-0.1687960092702E+00 -0.1753474328107E+01 -0.9034670562757E+00  0.3348197886908E+00
-0.9592095073900E-01 -0.1772283724215E+01 -0.8780561950014E+00  0.3238480251380E+00
-0.3010443510186E-01 -0.1789616832710E+01 -0.8552689937021E+00  0.3077554640777E+00
 0.2888957339842E-01 -0.1805897252570E+01 -0.8351936070923E+00  0.2872154184595E+00
 0.8131586884414E-01 -0.1821576708155E+01 -0.8179225924016E+00  0.2628533193112E+00
 0.1274437579169E+00 -0.1837130295462E+01 -0.8035526706081E+00  0.2352507958069E+00
 0.1675541794967E+00 -0.1853054087980E+01 -0.7921849549778E+00  0.2049564765497E+00
 0.2019373907051E+00 -0.1869866826991E+01 -0.7839268330662E+00  0.1725013960792E+00
 0.2308900333901E+00 -0.1888115029262E+01 -0.7788957460845E+00  0.1384160025847E+00
 0.2547079502844E+00 -0.1908378878070E+01 -0.7772253340879E+00  0.1032456082825E+00
 0.2736696415687E+00 -0.1931276487623E+01 -0.7790752156695E+00  0.6756446782749E-01
-0.1200093034059E+01 -0.1508968049542E+01 -0.1273258706063E+01  0.1012484922919E+00
-0.1052609625516E+01 -0.1556446157670E+01 -0.1226256214987E+01  0.1673303271362E+00
-0.9135743245614E+00 -0.1599715915844E+01 -0.1181246409994E+01  0.2225303410391E+00
-0.7826953056840E+00 -0.1639077964786E+01 -0.1138233434234E+01  0.2670420210218E+00
-0.6598748893892E+00 -0.1674744729803E+01 -0.1097271218237E+01  0.3013058490689E+00
-0.5450969791587E+00 -0.1706915256268E+01 -0.1058445747966E+01  0.3259433723222E+00
-0.4383584236913E+00 -0.1735815618603E+01 -0.1021861797286E+01  0.3416963908847E+00
-0.3396265918302E+00 -0.1761717129405E+01 -0.9876315464758E+00  0.3493749141644E+00
-0.2488167276266E+00 -0.1784939213290E+01 -0.9558652898063E+00  0.3498099265837E+00
-0.1657872339836E+00 -0.1805843231115E+01 -0.9266663162459E+00  0.3438170853105E+00
-0.9034728799492E-01 -0.1824826200384E+01 -0.9001315372551E+00  0.3321755302583E+00
-0.2226919709555E-01 -0.1842319260363E+01 -0.8763565727828E+00  0.3156185205945E+00
 0.3869982186447E-01 -0.1858787280959E+01 -0.8554411036049E+00  0.2948296793678E+00
 0.9282926499194E-01 -0.1874724867229E+01 -0.8374909309272E+00  0.2704425233278E+00
 0.1403993628228E+00 -0.1890649588773E+01 -0.8226176041099E+00  0.2430459727399E+00
 0.1816966750205E+00 -0.1907097037019E+01 -0.8109381680827E+00  0.2131967609387E+00
 0.2170108299849E+00 -0.1924620681910E+01 -0.8025766283692E+00  0.1814362500104E+00
 0.2466314849737E+00 -0.1943796235793E+01 -0.7976674308618E+00  0.1483081037072E+00
 0.2708411555128E+00 -0.1965227185130E+01 -0.7963614319003E+00  0.1143729514579E+00
 0.2898968978079E+00 -0.1989547374299E+01 -0.7988357219247E+00  0.8022099589045E-01
-0.1233167661585E+01 -0.1553998851318E+01 -0.1309968257742E+01  0.1235488580400E+00
-0.1080939417979E+01 -0.1602847029468E+01 -0.1261379627101E+01  0.1876202872003E+00
-0.9371399010682E+00 -0.1647382401716E+01 -0.1214725479228E+01  0.2409906898904E+00
-0.8016036678931E+00 -0.1687848708153E+01 -0.1170042613774E+01  0.2837883625653E+00
-0.6743332680728E+00 -0.1724423325078E+01 -0.1127415595921E+01  0.3164338711697E+00
-0.5553837673793E+00 -0.1757293541246E+01 -0.1086958332297E+01  0.3395546413011E+00
-0.4447970125133E+00 -0.1786693702486E+01 -0.1048800633389E+01  0.3539118885270E+00
-0.3425628577800E+00 -0.1812918815922E+01 -0.1013076384070E+01  0.3603414460572E+00
-0.2486007259151E+00 -0.1836322240353E+01 -0.9799137916606E+00  0.3597006450181E+00
-0.1627604914570E+00 -0.1857304261700E+01 -0.9494304315755E+00  0.3528282778083E+00
-0.8483574799365E-01 -0.1876302336710E+01 -0.9217348974730E+00  0.3405219797543E+00
-0.1458054108273E-01 -0.1893788777420E+01 -0.8969335774215E+00  0.3235286883556E+00
 0.4827588441968E-01 -0.1910270785661E+01 -0.8751376013640E+00  0.3025413560093E+00
 0.1040185083428E+00 -0.1926285792453E+01 -0.8564656213594E+00  0.2781995507780E+00
 0.1529386188275E+00 -0.1942392424633E+01 -0.8410432865952E+00  0.2510966345580E+00
 0.1953278570887E+00 -0.1959162962896E+01 -0.8290024976266E+00  0.2217940965527E+00
 0.2314742401995E+00 -0.1977181533499E+01 -0.8204824257697E+00  0.1908401094727E+00
 0.2616595592680E+00 -0.1997048078886E+01 -0.8156326021518E+00  0.1587880673940E+00
 0.2861528139110E+00 -0.2019383778067E+01 -0.8146185510871E+00  0.1262100333833E+00
 0.3051902200193E+00 -0.2044831637912E+01 -0.8176314643356E+00  0.9370631790748E-01
-0.1265591122400E+01 -0.1599033499705E+01 -0.1346373568974E+01  0.1463620405290E+00
-0.1108752100665E+01 -0.1649184416005E+01 -0.1296230159548E+01  0.2083928266953E+00
-0.9602694839586E+00 -0.1694925437487E+01 -0.1247941609914E+01  0.2598747802943E+00
-0.8201318106128E+00 -0.1736428556361E+01 -0.1201583369430E+01  0.3008793828237E+00
-0.6884591455536E+00 -0.1773828107693E+01 -0.1157275006090E+01  0.3318178738122E+00
-0.5653876138417E+00 -0.1807296445628E+01 -0.1115161505122E+01  0.3533333392427E+00
-0.4510093136082E+00 -0.1837075866830E+01 -0.1075400032078E+01  0.3662144257966E+00
-0.3453387321705E+00 -0.1863486402724E+01 -0.1038147810767E+01  0.3713292436728E+00
-0.2482994147247E+00 -0.1886917612247E+01 -0.1003552000131E+01  0.3695661618773E+00
-0.1597313719374E+00 -0.1907811330507E+01 -0.9717450676839E+00  0.3617899726197E+00
-0.7941073938982E-01 -0.1926648007540E+01 -0.9428476086655E+00  0.3488180687133E+00
-0.7071335871121E-02 -0.1943943266958E+01 -0.9169768610038E+00  0.3314109344375E+00
 0.5757730828475E-01 -0.1960247991871E+01 -0.8942552190172E+00  0.3102694390468E+00
 0.1148368793399E+00 -0.1976142624884E+01 -0.8748136981869E+00  0.2860366413350E+00
 0.1650101940764E+00 -0.1992225617122E+01 -0.8587912466534E+00  0.2593069013902E+00
 0.2083936481926E+00 -0.2009103222223E+01 -0.8463334976476E+00  0.2306425115766E+00
 0.2452728047892E+00 -0.2027386181859E+01 -0.8375932850982E+00  0.2005944193905E+00
 0.2759210336422E+00 -0.2047693752008E+01 -0.8327331755196E+00  0.1697219370882E+00
 0.3005946828297E+00 -0.2070659602672E+01 -0.8319305102158E+00  0.1386044890314E+00
 0.3195125173373E+00 -0.2096930756185E+01 -0.8353865701396E+00  0.1078462545169E+00
-0.1297379924115E+01 -0.1644125528245E+01 -0.1382507559102E+01  0.1696678633331E+00
-0.1136052054376E+01 -0.1695513266305E+01 -0.1330835697344E+01  0.2296352034931E+00
-0.9829566892868E+00 -0.1742398502127E+01 -0.1280916936716E+01  0.2791686407632E+00
-0.8382662431760E+00 -0.1784865591189E+01 -0.1232871959025E+01  0.3182947275218E+00
-0.7022361089518E+00 -0.1822997923225E+01 -0.1186859992113E+01  0.3474286757805E+00
-0.5750929680448E+00 -0.1856950393670E+01 -0.1143060377107E+01  0.3672407170798E+00
-0.4569837731185E+00 -0.1886973701536E+01 -0.1101660010293E+01  0.3785558643241E+00
-0.3479490709730E+00 -0.1913414965630E+01 -0.1062841094508E+01  0.3822815038506E+00
-0.2479156750536E+00 -0.1936702882142E+01 -0.1026770719278E+01  0.3793419686380E+00
-0.1567116016009E+00 -0.1957324030983E+01 -0.9935967447942E+00  0.3706308639546E+00
-0.7409293115264E-01 -0.1975804869615E+01 -0.9634519639170E+00  0.3569863610647E+00
 0.2293495747363E-03 -0.1992706847472E+01 -0.9364644216367E+00  0.3391820057364E+00
 0.6656773377861E-01 -0.2008626202009E+01 -0.9127674777530E+00  0.3179247322077E+00
 0.1252423155426E+00 -0.2024186860009E+01 -0.8925039336354E+00  0.2938580031701E+00
 0.1765682651468E+00 -0.2040026107671E+01 -0.8758251837647E+00  0.2675731336946E+00
 0.2208465940793E+00 -0.2056781629040E+01 -0.8628894642430E+00  0.2396286411300E+00
 0.2583596114020E+00 -0.2075086820731E+01 -0.8538617862190E+00  0.2105736741320E+00
 0.2893719024209E+00 -0.2095575393817E+01 -0.8489156388031E+00  0.1809694100035E+00
 0.3141290581580E+00 -0.2118888712433E+01 -0.8482370353577E+00  0.1513987293846E+00
 0.3328391359670E+00 -0.2145674285403E+01 -0.8520325180740E+00  0.1224638261030E+00
-0.1328556000412E+01 -0.1689337242741E+01 -0.1418409820685E+01  0.1934476887388E+00
-0.1162844471303E+01 -0.1741898565386E+01 -0.1365229223781E+01  0.2513355294801E+00
-0.1005192782225E+01 -0.1789865533309E+01 -0.1313677404969E+01  0.2988575986822E+00
-0.8559892919525E+00 -0.1833218072439E+01 -0.1263927458058E+01  0.3360115368510E+00
-0.7156427107582E+00 -0.1871981061403E+01 -0.1216183169831E+01  0.3632329398417E+00
-0.5844790080919E+00 -0.1906290328645E+01 -0.1170661585297E+01  0.3812325276781E+00
-0.4627036935774E+00 -0.1936406390888E+01 -0.1127581736839E+01  0.3908815309073E+00
-0.3503839151129E+00 -0.1962706383198E+01 -0.1087152437449E+01  0.3931341466017E+00
-0.2474479639365E+00 -0.1985661850069E+01 -0.1049561609920E+01  0.3889558104403E+00
-0.1537088236044E+00 -0.2005807955122E+01 -0.1014972883427E+01  0.3792716557945E+00
-0.6889912101438E-01 -0.2023720675400E+01 -0.9835313018203E+00  0.3649413644785E+00
 0.7296289418258E-02 -0.2040010191378E+01 -0.9553755314978E+00  0.3467506775398E+00
 0.7521484445065E-01 -0.2055320105384E+01 -0.9306494702783E+00  0.3254103009705E+00
 0.1351972657429E+00 -0.2070318619300E+01 -0.9095070338649E+00  0.3015604991890E+00
 0.1875722805700E+00 -0.2085681167948E+01 -0.8921111748050E+00  0.2757849037843E+00
 0.2326455459325E+00 -0.2102074576032E+01 -0.8786316419182E+00  0.2486330340484E+00
 0.2706952260605E+00 -0.2120151099124E+01 -0.8692442581352E+00  0.2206470924381E+00
 0.3019766374328E+00 -0.2140554171416E+01 -0.8641314387801E+00  0.1923858644663E+00
 0.3267272751548E+00 -0.2163928315244E+01 -0.8634844866518E+00  0.1644322922250E+00
 0.3451549728796E+00 -0.2190919563311E+01 -0.8675093553024E+00  0.1373821721627E+00
-0.1359146954450E+01 -0.1734740746470E+01 -0.1454127215744E+01  0.2176850862898E+00
-0.1189135018862E+01 -0.1788416478403E+01 -0.1399449200165E+01  0.2734831265487E+00
-0.1026966025421E+01 -0.1837402066741E+01 -0.1346252999901E+01  0.3189263033495E+00
-0.8732783558715E+00 -0.1881555456965E+01 -0.1294771888749E+01  0.3540042039386E+00
-0.7286517692787E+00 -0.1920836095206E+01 -0.1245259293149E+01  0.3791927784797E+00
-0.5935190397073E+00 -0.1955360365313E+01 -0.1197973317321E+01  0.3952585824582E+00
-0.4681467473310E+00 -0.1985401201239E+01 -0.1153167532903E+01  0.4031297924992E+00
-0.3526281229251E+00 -0.2011369694542E+01 -0.1111078971391E+01  0.4038154608593E+00
-0.2468900609664E+00 -0.2033784834874E+01 -0.1071917198326E+01  0.3983274466196E+00
-0.1507264486267E+00 -0.2053234924481E+01 -0.1035861842733E+01  0.3876249668530E+00
-0.6384218415736E-01 -0.2070349495249E+01 -0.1003070086777E+01  0.3725895950762E+00
 0.1410805030525E-01 -0.2085790744824E+01 -0.9736908639541E+00  0.3540179870826E+00
 0.8349020364268E-01 -0.2100251971176E+01 -0.9478780283365E+00  0.3326218900700E+00
 0.1446684043107E+00 -0.2114446767273E+01 -0.9257958282439E+00  0.3090342798903E+00
 0.1979865555709E+00 -0.2129088384397E+01 -0.9076178572464E+00  0.2838258954219E+00
 0.2437551464465E+00 -0.2144870847717E+01 -0.8935243773306E+00  0.2575313820688E+00
 0.2822470840652E+00 -0.2162461736439E+01 -0.8837008843742E+00  0.2306802332792E+00
 0.3137074071471E+00 -0.2182509729884E+01 -0.8783370894584E+00  0.2038243720071E+00
 0.3383679722288E+00 -0.2205658397335E+01 -0.8776264975740E+00  0.1775441235096E+00
 0.3564502862247E+00 -0.2232551228027E+01 -0.8817674404107E+00  0.1524272946877E+00
-0.1389186245868E+01 -0.1780419056095E+01 -0.1489714488144E+01  0.2423666370404E+00
-0.1214929407047E+01 -0.1835155597795E+01 -0.1433539948639E+01  0.2960689697018E+00
-0.1048260914436E+01 -0.1885096469616E+01 -0.1378677967008E+01  0.3393587697475E+00
-0.8901050670050E+00 -0.1929959484491E+01 -0.1325430335841E+01  0.3722440994451E+00
-0.7412296076141E+00 -0.1969632750159E+01 -0.1274105304922E+01  0.3952652973110E+00
-0.6021798640405E+00 -0.2004214435751E+01 -0.1225005317795E+01  0.4092622394051E+00
-0.4732844828155E+00 -0.2033993928176E+01 -0.1178420850177E+01  0.4152315657408E+00
-0.3546610157100E+00 -0.2059421386566E+01 -0.1134618726192E+01  0.4142456944275E+00
-0.2462308438127E+00 -0.2081068853260E+01 -0.1093830854850E+01  0.4073683703295E+00
-0.1477635451644E+00 -0.2099583117311E+01 -0.1056252928684E+01  0.3955952088795E+00
-0.5893106992588E-01 -0.2115651835723E+01 -0.1022053963063E+01  0.3798296209213E+00
 0.2064688144949E-01 -0.2129992847975E+01 -0.9913926017526E+00  0.3608774358728E+00
 0.9136901198608E-01 -0.2143351737589E+01 -0.9644318785873E+00  0.3394482827896E+00
 0.1536262367906E+00 -0.2156488895346E+01 -0.9413454471334E+00  0.3161633196409E+00
 0.2077797196016E+00 -0.2170155445265E+01 -0.9223165887226E+00  0.2915746682938E+00
 0.2541451394588E+00 -0.2185071124703E+01 -0.9075352107630E+00  0.2661955863328E+00
 0.2929886495346E+00 -0.2201915700271E+01 -0.8971957115707E+00  0.2405364344759E+00
 0.3245431189312E+00 -0.2221338898331E+01 -0.8914940140568E+00  0.2151376016711E+00
 0.3490356086228E+00 -0.2243980012733E+01 -0.8906238676731E+00  0.1905750050772E+00
 0.3667138226389E+00 -0.2270480788312E+01 -0.8947704715968E+00  0.1674311269822E+00
-0.1418713233735E+01 -0.1826467185907E+01 -0.1525234793363E+01  0.2674828127032E+00
-0.1240232784606E+01 -0.1882218191416E+01 -0.1467551955008E+01  0.3190861547672E+00
-0.1069057231366E+01 -0.1933051165365E+01 -0.1410990942885E+01  0.3601383751162E+00
-0.9064343090010E+00 -0.1978525229567E+01 -0.1355930979688E+01  0.3906991937868E+00
-0.7533352046662E+00 -0.2018452700531E+01 -0.1302740312138E+01  0.4114020117949E+00
-0.6104211053214E+00 -0.2052916824191E+01 -0.1251768823696E+01  0.4231797663523E+00
-0.4780818271425E+00 -0.2082229197501E+01 -0.1203346178530E+01  0.4271097131000E+00
-0.3564560492874E+00 -0.2106885504299E+01 -0.1157770527249E+01  0.4243365489382E+00
-0.2454541107407E+00 -0.2127517601034E+01 -0.1115296701705E+01  0.4159814587264E+00
-0.1448147875731E+00 -0.2144836994096E+01 -0.1076136334655E+01  0.4030784213592E+00
-0.5417085960310E-01 -0.2159594571854E+01 -0.1040469750146E+01  0.3865520768438E+00
 0.2689853960031E-01 -0.2172567698118E+01 -0.1008464501945E+01  0.3672151567764E+00
 0.9882978577723E-01 -0.2184556969592E+01 -0.9802917739065E+00  0.3457715918601E+00
 0.1620445964866E+00 -0.2196371172889E+01 -0.9561334884840E+00  0.3228258294274E+00
 0.2169240188720E+00 -0.2208799739241E+01 -0.9361815861990E+00  0.2989052373175E+00
 0.2637894907532E+00 -0.2222587198190E+01 -0.9206349201602E+00  0.2744945858273E+00
 0.3028983905564E+00 -0.2238422908142E+01 -0.9096965209579E+00  0.2500779660510E+00
 0.3344679322734E+00 -0.2256953871265E+01 -0.9035683890340E+00  0.2261793466803E+00
 0.3587184115790E+00 -0.2278811848841E+01 -0.9024439132244E+00  0.2033698440563E+00
 0.3759256709094E+00 -0.2304641130674E+01 -0.9064962637902E+00  0.1822353690524E+00
-0.1447773256034E+01 -0.1872993465511E+01 -0.1560760355168E+01  0.2930290461464E+00
-0.1265049048751E+01 -0.1929721657650E+01 -0.1501542228200E+01  0.3425304871269E+00
-0.1089328995826E+01 -0.1981384073842E+01 -0.1443235139084E+01  0.3812478813866E+00
-0.9222231521645E+00 -0.2027362329049E+01 -0.1386305172654E+01  0.4093336267172E+00
-0.7649193117487E+00 -0.2067390490004E+01 -0.1331185603447E+01  0.4275481721935E+00
-0.6181945422152E+00 -0.2101542770831E+01 -0.1278276533889E+01  0.4369396063679E+00
-0.4824966208016E+00 -0.2130160782584E+01 -0.1227948976477E+01  0.4386783458673E+00
-0.3579805388889E+00 -0.2153793725268E+01 -0.1180533901159E+01  0.4339905965601E+00
-0.2445384698008E+00 -0.2173141358118E+01 -0.1136309516240E+01  0.4240605727655E+00
-0.1418704699648E+00 -0.2188987128801E+01 -0.1095503068641E+01  0.4099620889610E+00
-0.4956287779595E-01 -0.2202150797569E+01 -0.1058305424737E+01  0.3926396857665E+00
 0.3285207382215E-01 -0.2213473271539E+01 -0.1024891960328E+01  0.3729100854213E+00
 0.1058539954310E+00 -0.2223812826195E+01 -0.9954406479344E+00  0.3514675148168E+00
 0.1699000774821E+00 -0.2234028234116E+01 -0.9701402311573E+00  0.3288945566696E+00
 0.2253945090560E+00 -0.2244947952847E+01 -0.9491901161744E+00  0.3056874427420E+00
 0.2726653861584E+00 -0.2257341040183E+01 -0.9327975550256E+00  0.2822948908353E+00
 0.3119586159069E+00 -0.2271904636991E+01 -0.9211746275732E+00  0.2591668001955E+00
 0.3434700653552E+00 -0.2289279680830E+01 -0.9145305169536E+00  0.2368053763921E+00
 0.3674055497396E+00 -0.2310086940984E+01 -0.9130602515688E+00  0.2157776080454E+00
 0.3840588954009E+00 -0.2334973613228E+01 -0.9169299150533E+00  0.1966869473353E+00
-0.1476417429529E+01 -0.1920120739264E+01 -0.1596372935283E+01  0.3190069360208E+00
-0.1289379883932E+01 -0.1977799974600E+01 -0.1535574529615E+01  0.3664011596315E+00
-0.1109043106638E+01 -0.2030230037293E+01 -0.1475458373905E+01  0.4026694391725E+00
-0.9374195438749E+00 -0.2076596180498E+01 -0.1416587386862E+01  0.4281071676810E+00
-0.7759234021467E+00 -0.2116554373405E+01 -0.1359464551061E+01  0.4436419346833E+00
-0.6254433462356E+00 -0.2150178958254E+01 -0.1304542479801E+01  0.4504614839703E+00
-0.4864791073762E+00 -0.2177851754984E+01 -0.1252235502133E+01  0.4498419724589E+00
-0.3591953844105E+00 -0.2200185222869E+01 -0.1202908882370E+01  0.4431005592632E+00
-0.2434572559043E+00 -0.2217956644301E+01 -0.1156864530162E+01  0.4314900563757E+00
-0.1389165558335E+00 -0.2232029783535E+01 -0.1114344776677E+01  0.4161249075600E+00
-0.4510482313309E-01 -0.2243299452293E+01 -0.1075550006722E+01  0.3979672717516E+00
 0.3849961900447E-01 -0.2252674100188E+01 -0.1040662003517E+01  0.3778341377194E+00
 0.1124257268986E+00 -0.2261071997484E+01 -0.1009863744614E+01  0.3564055582810E+00
 0.1771714738873E+00 -0.2269403136379E+01 -0.9833488788771E+00  0.3342369552838E+00
 0.2331682020332E+00 -0.2278535763631E+01 -0.9613227515128E+00  0.3117870478516E+00
 0.2807521288300E+00 -0.2289263868387E+01 -0.9440005151973E+00  0.2894607060547E+00
 0.3201544118658E+00 -0.2302291612278E+01 -0.9316044818310E+00  0.2676648766949E+00
 0.3515411958170E+00 -0.2318251338144E+01 -0.9243537645490E+00  0.2468736321499E+00
 0.3750898116654E+00 -0.2337747925333E+01 -0.9224493110839E+00  0.2276495411816E+00
 0.3910882618116E+00 -0.2361424615050E+01 -0.9260580836732E+00  0.2106269182718E+00
-0.1504702502049E+01 -0.1967987785526E+01 -0.1632164431021E+01  0.3454256350445E+00
-0.1313223639026E+01 -0.2026605316687E+01 -0.1569719605204E+01  0.3907015413770E+00
-0.1128157827527E+01 -0.2079742468717E+01 -0.1507713135411E+01  0.4243845701037E+00
-0.9519608591374E+00 -0.2126369282817E+01 -0.1446815163049E+01  0.4469745479700E+00
-0.7862785957001E+00 -0.2166067265533E+01 -0.1387602551260E+01  0.4596133574330E+00
-0.6321013418037E+00 -0.2198924011816E+01 -0.1330581912826E+01  0.4636553354955E+00
-0.4899715087203E+00 -0.2225374590437E+01 -0.1276212663367E+01  0.4604944784582E+00
-0.3600549082824E+00 -0.2246106382812E+01 -0.1224895803708E+01  0.4515484414726E+00
-0.2421785949554E+00 -0.2261985659541E+01 -0.1176957196628E+01  0.4381441405252E+00
-0.1359348705303E+00 -0.2273966222331E+01 -0.1132653510772E+01  0.4214365265815E+00
-0.4079100579708E-01 -0.2283024698245E+01 -0.1092193378130E+01  0.4024018220154E+00
 0.4383614283524E-01 -0.2290140881462E+01 -0.1055763224477E+01  0.3818524805649E+00
 0.1185313597550E+00 -0.2296294623913E+01 -0.1023548731558E+01  0.3604493367658E+00
 0.1838392329751E+00 -0.2302447505672E+01 -0.9957458856421E+00  0.3387153133534E+00
 0.2402231805711E+00 -0.2309507826740E+01 -0.9725637812328E+00  0.3170655885785E+00
 0.2880299246931E+00 -0.2318295442886E+01 -0.9542247911304E+00  0.2958535786262E+00
 0.3274724490775E+00 -0.2329522094779E+01 -0.9409633310933E+00  0.2754337777542E+00
 0.3586766083339E+00 -0.2343810425216E+01 -0.9330128915680E+00  0.2562441105843E+00
 0.3817714523208E+00 -0.2361743529175E+01 -0.9305868737612E+00  0.2388392567144E+00
 0.3970037807163E+00 -0.2383944604042E+01 -0.9338621845943E+00  0.2238930687501E+00
-0.1532690376321E+01 -0.2016750662804E+01 -0.1668237284158E+01  0.3723035411934E+00
-0.1336573946637E+01 -0.2076309888488E+01 -0.1604055398440E+01  0.4154401950970E+00
-0.1146620789433E+01 -0.2130095054552E+01 -0.1540056442767E+01  0.4463742006224E+00
-0.9657721768937E+00 -0.2176842764669E+01 -0.1477029018788E+01  0.4658846945397E+00
-0.7959042954007E+00 -0.2216067681313E+01 -0.1415626825465E+01  0.4753832188815E+00
-0.6380921806038E+00 -0.2247889068014E+01 -0.1356411183410E+01  0.4764200408169E+00
-0.4929074981039E+00 -0.2272811173792E+01 -0.1299887772494E+01  0.4705178845942E+00
-0.3605067035771E+00 -0.2291610370324E+01 -0.1246495021572E+01  0.4592044489643E+00
-0.2406654966127E+00 -0.2305255445560E+01 -0.1196582839786E+01  0.4438861843033E+00
-0.1329033571478E+00 -0.2314801714932E+01 -0.1150421380960E+01  0.4257572190779E+00
-0.3661261419968E-01 -0.2321314993196E+01 -0.1108225972665E+01  0.4058025775730E+00
 0.4885926522780E-01 -0.2325849852402E+01 -0.1070185573258E+01  0.3848239232216E+00
 0.1241594046062E+00 -0.2329448211120E+01 -0.1036485736433E+01  0.3634570225073E+00
 0.1898851598081E+00 -0.2333121973761E+01 -0.1007321300003E+01  0.3421869352862E+00
 0.2465378187789E+00 -0.2337818467117E+01 -0.9829019022257E+00  0.3213800010458E+00
 0.2944787071565E+00 -0.2344384027602E+01 -0.9634554981655E+00  0.3013314781244E+00
 0.3338996059931E+00 -0.2353540425178E+01 -0.9492311826093E+00  0.2823336097955E+00
 0.3648747456691E+00 -0.2365901964629E+01 -0.9404827905259E+00  0.2647782153192E+00
 0.3874609551495E+00 -0.2382025121150E+01 -0.9374451556425E+00  0.2492033362486E+00
 0.4018134760049E+00 -0.2402491096209E+01 -0.9403184791110E+00  0.2363219181590E+00
-0.1560447869996E+01 -0.2066584443073E+01 -0.1704705182819E+01  0.3996701750811E+00
-0.1359417683755E+01 -0.2127107454909E+01 -0.1638666811016E+01  0.4406320553945E+00
-0.1164367018882E+01 -0.2181484021375E+01 -0.1572549984933E+01  0.4686186455699E+00
-0.9787638874613E+00 -0.2228197520271E+01 -0.1507271857811E+01  0.4847797736303E+00
-0.8047070101621E+00 -0.2266711057542E+01 -0.1443566488159E+01  0.4908616053749E+00
-0.6433283009102E+00 -0.2297198106977E+01 -0.1382047408201E+01  0.4886418873507E+00
-0.4952118866934E+00 -0.2320252857577E+01 -0.1323268426451E+01  0.4797808308234E+00
-0.3604915440698E+00 -0.2336756341039E+01 -0.1267706502786E+01  0.4659256305905E+00
-0.2388761908844E+00 -0.2347796677483E+01 -0.1215736245049E+01  0.4485677291684E+00
-0.1297965563112E+00 -0.2354544050667E+01 -0.1167640082318E+01  0.4289374848782E+00
-0.3255819063438E-01 -0.2358161688491E+01 -0.1123638340339E+01  0.4080211984053E+00
 0.5356896119971E-01 -0.2359781763936E+01 -0.1083920014537E+01  0.3866015213801E+00
 0.1293005450835E+00 -0.2360507212878E+01 -0.1048667131204E+01  0.3652821453179E+00
 0.1952923305138E+00 -0.2361396962658E+01 -0.1018069174525E+01  0.3445046485668E+00
 0.2520904238114E+00 -0.2363433163327E+01 -0.9923310850555E+00  0.3245822711983E+00
 0.3000766359053E+00 -0.2367488061821E+01 -0.9716833677160E+00  0.3057472822223E+00
 0.3394215144957E+00 -0.2374296149931E+01 -0.9563910762288E+00  0.2882209003316E+00
 0.3701355174133E+00 -0.2384471762078E+01 -0.9467380325914E+00  0.2723373571474E+00
 0.3921795535944E+00 -0.2398542871901E+01 -0.9429907572124E+00  0.2586023743257E+00
 0.4055531496141E+00 -0.2417024189934E+01 -0.9453913865527E+00  0.2477521815407E+00
-0.1588044667305E+01 -0.2117683459286E+01 -0.1741692215080E+01  0.4275688304063E+00
-0.1381734692884E+01 -0.2179217805483E+01 -0.1673647669988E+01  0.4662998908167E+00
-0.1181314171307E+01 -0.2234128032808E+01 -0.1605257831863E+01  0.4910976256435E+00
-0.9908307705000E+00 -0.2280637726288E+01 -0.1537590189590E+01  0.5035941853077E+00
-0.8125774407106E+00 -0.2318169661710E+01 -0.1471451134405E+01  0.5059462607166E+00
-0.6477107828171E+00 -0.2346989747011E+01 -0.1407509245449E+01  0.5001928344518E+00
-0.4967997188846E+00 -0.2367800071276E+01 -0.1346361897961E+01  0.4881366407565E+00
-0.3599435568384E+00 -0.2381608734418E+01 -0.1288529573622E+01  0.4715541693913E+00
-0.2367645101269E+00 -0.2389642025383E+01 -0.1234411068559E+01  0.4520272708469E+00
-0.1265863243013E+00 -0.2393201655381E+01 -0.1184300347447E+01  0.4308175333495E+00
-0.2861428071743E-01 -0.2393557143484E+01 -0.1138420566487E+01  0.4089019782684E+00
 0.5796716781086E-01 -0.2391920416274E+01 -0.1096958023995E+01  0.3870334119780E+00
 0.1339476571105E+00 -0.2389452358860E+01 -0.1060087207133E+01  0.3657748273263E+00
 0.2000461767690E+00 -0.2387252816201E+01 -0.1027987117926E+01  0.3455180782153E+00
 0.2568588727001E+00 -0.2386332122468E+01 -0.1000852424852E+01  0.3265195759536E+00
 0.3047997311950E+00 -0.2387579471967E+01 -0.9789064756801E+00  0.3089468828121E+00
 0.3440187452624E+00 -0.2391747271372E+01 -0.9624324048305E+00  0.2929448225463E+00
 0.3744597774829E+00 -0.2399460935188E+01 -0.9517505417072E+00  0.2787801202562E+00
 0.3959569670823E+00 -0.2411242412441E+01 -0.9471841569160E+00  0.2669011271977E+00
 0.4082997184056E+00 -0.2427501349741E+01 -0.9490247643204E+00  0.2580263857572E+00
-0.1615562280088E+01 -0.2170273968683E+01 -0.1779343032409E+01  0.4560582715733E+00
-0.1403485000161E+01 -0.2232877416056E+01 -0.1709090331287E+01  0.4924759957086E+00
-0.1197369338863E+01 -0.2288282105219E+01 -0.1638256174563E+01  0.5137902279973E+00
-0.1001840120746E+01 -0.2334382044939E+01 -0.1568024413895E+01  0.5222531416400E+00
-0.8193945084596E+00 -0.2370640869638E+01 -0.1499316623903E+01  0.5205213328398E+00
-0.6511252996453E+00 -0.2397415343213E+01 -0.1432814098509E+01  0.5109280728555E+00
-0.4975770474471E+00 -0.2415563707346E+01 -0.1369176151280E+01  0.4954210357838E+00
-0.3587899859216E+00 -0.2426235657317E+01 -0.1308962049002E+01  0.4759150574471E+00
-0.2342805341373E+00 -0.2430823775539E+01 -0.1252599022371E+01  0.4540887067777E+00
-0.1232429759918E+00 -0.2430781130628E+01 -0.1200391327067E+01  0.4312266344515E+00
-0.2476662070520E-01 -0.2427492300753E+01 -0.1152561690162E+01  0.4082820319599E+00
 0.6205734557864E-01 -0.2422250101843E+01 -0.1109290592631E+01  0.3859638970302E+00
 0.1380955976121E+00 -0.2416269483082E+01 -0.1070741723455E+01  0.3647835210393E+00
 0.2041348526984E+00 -0.2410680062266E+01 -0.1037076245867E+01  0.3450756994045E+00
 0.2608257953397E+00 -0.2406509730083E+01 -0.1008471446771E+01  0.3270365050285E+00
 0.3086167355584E+00 -0.2404657919840E+01 -0.9851393541138E+00  0.3107675136358E+00
 0.3476675886236E+00 -0.2405862860313E+01 -0.9673517752403E+00  0.2963409620543E+00
 0.3778378849606E+00 -0.2410809888071E+01 -0.9554968390386E+00  0.2839552273376E+00
 0.3988425833245E+00 -0.2420040151452E+01 -0.9499628546106E+00  0.2739698120502E+00
 0.4101703595890E+00 -0.2433892314691E+01 -0.9511493164854E+00  0.2669993671968E+00
-0.1643036652512E+01 -0.2224558571746E+01 -0.1817769750791E+01  0.4852257498560E+00
-0.1424671970330E+01 -0.2288423693018E+01 -0.1745154957347E+01  0.5192026855689E+00
-0.1212361105073E+01 -0.2344163465030E+01 -0.1671566543709E+01  0.5366723256930E+00
-0.1011671022916E+01 -0.2389713142004E+01 -0.1598650553458E+01  0.5406753434894E+00
-0.8250010324664E+00 -0.2424325952749E+01 -0.1527183679178E+01  0.5344533129427E+00
-0.6534492234402E+00 -0.2448649401068E+01 -0.1457986349821E+01  0.5206846630766E+00
-0.4974389987001E+00 -0.2463664924636E+01 -0.1391718840438E+01  0.5014484254726E+00
-0.3569508907916E+00 -0.2470705930661E+01 -0.1328998702712E+01  0.4788128581561E+00
-0.2313714882825E+00 -0.2471370314040E+01 -0.1270288643870E+01  0.4545595281822E+00
-0.1197368613688E+00 -0.2467284203813E+01 -0.1215899897551E+01  0.4299824313060E+00
-0.2100207542553E-01 -0.2459954056287E+01 -0.1166049378947E+01  0.4059913324399E+00
 0.6584303979938E-01 -0.2450752295335E+01 -0.1120907347259E+01  0.3832344478870E+00
 0.1417427911136E+00 -0.2440944749628E+01 -0.1080624917761E+01  0.3621577344320E+00
 0.2075477001677E+00 -0.2431681794202E+01 -0.1045343021545E+01  0.3430277057470E+00
 0.2639782121255E+00 -0.2423976734721E+01 -0.1015199303045E+01  0.3259781114454E+00
 0.3115166783278E+00 -0.2418736621281E+01 -0.9903933706759E+00  0.3110442674463E+00
 0.3502958952483E+00 -0.2416693875078E+01 -0.9712070480566E+00  0.2982205204981E+00
 0.3802704366787E+00 -0.2418424477403E+01 -0.9579323967109E+00  0.2876828953052E+00
 0.4008743859448E+00 -0.2424820768743E+01 -0.9512547975023E+00  0.2796814888912E+00
 0.4113991355787E+00 -0.2436108475634E+01 -0.9516133874124E+00  0.2745636418345E+00
-0.1670961875281E+01 -0.2281290987858E+01 -0.1857558840964E+01  0.5151256424836E+00
-0.1444882532566E+01 -0.2345737958525E+01 -0.1781591626294E+01  0.5465069234306E+00
-0.1226358523808E+01 -0.2402315945306E+01 -0.1705476996158E+01  0.5597438432547E+00
-0.1020051947917E+01 -0.2446811698032E+01 -0.1629425909463E+01  0.5587525570466E+00
-0.8292500990621E+00 -0.2479476163724E+01 -0.1555101339565E+01  0.5475990422969E+00
-0.6545461874353E+00 -0.2500897550637E+01 -0.1483058553132E+01  0.5292779820728E+00
-0.4962675960691E+00 -0.2512234578141E+01 -0.1413996018292E+01  0.5060051915013E+00
-0.3543382341207E+00 -0.2515082878420E+01 -0.1348627919473E+01  0.4800273849566E+00
-0.2279824673819E+00 -0.2511300613492E+01 -0.1287463044745E+01  0.4532293663897E+00
-0.1160416573066E+00 -0.2502706420185E+01 -0.1230811593299E+01  0.4268904478123E+00
-0.1731046785173E-01 -0.2490922277289E+01 -0.1178869387226E+01  0.4018523511236E+00
 0.6932514336019E-01 -0.2477402459840E+01 -0.1131796335875E+01  0.3786840141751E+00
 0.1448889075706E+00 -0.2463459575989E+01 -0.1089728211393E+01  0.3577505531433E+00
 0.2102880302937E+00 -0.2450259784132E+01 -0.1052786721634E+01  0.3392333347825E+00
 0.2662887081166E+00 -0.2438789103113E+01 -0.1021075183059E+01  0.3231912251861E+00
 0.3135027750149E+00 -0.2429839297848E+01 -0.9946781632085E+00  0.3096138681947E+00
 0.3519471411712E+00 -0.2424253643279E+01 -0.9739840535202E+00  0.2984034901852E+00
 0.3814360005797E+00 -0.2422607004447E+01 -0.9593503693845E+00  0.2896887781895E+00
 0.4023140959004E+00 -0.2425052004876E+01 -0.9506868148072E+00  0.2838576682398E+00
 0.4123672155795E+00 -0.2433972247316E+01 -0.9501543625062E+00  0.2807012096819E+00
 0.5168923174902E+00  0.1044587017147E+01  0.7338952854180E+00 -0.2154666609209E-01
 0.4552092949536E-01  0.8645467801190E+00  0.4277318224339E+00 -0.2277567736264E+00
 0.7846004173775E-01  0.9366563428753E+00  0.4771046995580E+00 -0.2571379724544E+00
 0.1015270210710E+00  0.9182940133084E+00  0.4793158849426E+00 -0.2794371486767E+00
 0.1217608525713E+00  0.8276184642780E+00  0.4462082777875E+00 -0.2902096014840E+00
 0.1121929339938E+00  0.6859816056514E+00  0.3751420326817E+00 -0.2735305246506E+00
 0.8768787363055E-01  0.5679477077940E+00  0.3081487224880E+00 -0.2310239375049E+00
 0.6282465452642E-01  0.4984475841256E+00  0.2637979514974E+00 -0.1849733303432E+00
 0.4406123439653E-01  0.4510473849637E+00  0.2327010505091E+00 -0.1455455388544E+00
 0.3045585673277E-01  0.4079457415263E+00  0.2060487506591E+00 -0.1124285027003E+00
 0.1999540469319E-01  0.3643125065611E+00  0.1806247178314E+00 -0.8373591784101E-01
 0.1243030569756E-01  0.3201833255677E+00  0.1563284062982E+00 -0.5862006490003E-01
 0.7365032764026E-02  0.2751655098874E+00  0.1327893547093E+00 -0.3702233575334E-01
 0.4092350841283E-02  0.2288530761764E+00  0.1094843504206E+00 -0.1891543847020E-01
 0.2450325412110E-02  0.1826412948785E+00  0.8699306131595E-01 -0.4437116312810E-02
 0.2808902024073E-02  0.1381451164642E+00  0.6624838852144E-01  0.5861809217165E-02
 0.2568377118681E-02  0.9306458880243E-01  0.4494749386892E-01  0.1220347676784E-01
 0.3876028467808E-03  0.5264280395346E-01  0.2492429113290E-01  0.1593230589848E-01
 0.1721251278691E-02  0.2514930545560E-01  0.1262916163308E-01  0.1804110821662E-01
 0.1154954039928E-01  0.1080430757225E-01  0.1050630851997E-01  0.1807336925423E-01
 0.4202453329874E+00  0.8719412515880E+00  0.6073276932100E+00 -0.3139029663771E-01
 0.1223694868509E+00  0.8793972969753E+00  0.4708303872041E+00 -0.2007127819953E+00
 0.6097808863597E-01  0.8428623457850E+00  0.4248050031004E+00 -0.2382985684190E+00
 0.8163846123702E-01  0.8302186986331E+00  0.4285728640519E+00 -0.2419381788018E+00
 0.9200614777230E-01  0.7684287099528E+00  0.4044043821051E+00 -0.2403838661971E+00
 0.8922556041838E-01  0.6754415973970E+00  0.3593935632617E+00 -0.2277776810164E+00
 0.7048014730127E-01  0.5797131883759E+00  0.3055908669932E+00 -0.2003743229022E+00
 0.4548553860422E-01  0.5040214858878E+00  0.2582683008562E+00 -0.1655380127357E+00
 0.2661169427005E-01  0.4489912806827E+00  0.2235333976608E+00 -0.1304402054068E+00
 0.1421125217513E-01  0.4036152552380E+00  0.1963784579861E+00 -0.9825076067057E-01
 0.5571866866364E-02  0.3609440278641E+00  0.1722624700864E+00 -0.6956816499413E-01
-0.4520143476088E-03  0.3185482105365E+00  0.1495052118296E+00 -0.4421646428542E-01
-0.4041668014292E-02  0.2757716652671E+00  0.1277130983849E+00 -0.2210774548424E-01
-0.5341018756398E-02  0.2325095296377E+00  0.1067691998434E+00 -0.3346940793580E-02
-0.4657249938980E-02  0.1891842570571E+00  0.8672769312554E-01  0.1179539761006E-01
-0.2474721070615E-02  0.1462512863567E+00  0.6757498551307E-01  0.2300906265917E-01
 0.8286389608138E-03  0.1046549065337E+00  0.4957726625666E-01  0.3008925655253E-01
 0.3721123716941E-02  0.6720507469391E-01  0.3333531316855E-01  0.3369337460275E-01
 0.8711830765600E-02  0.3800064769112E-01  0.2195486481897E-01  0.3509251812280E-01
 0.2071483889930E-01  0.1867707627948E-01  0.1851420008707E-01  0.3445781727824E-01
 0.3939007500521E+00  0.7721525763172E+00  0.5480450620035E+00 -0.5558208341076E-01
 0.1320051754159E+00  0.8066474522473E+00  0.4411667338827E+00 -0.1803938909918E+00
 0.6844097763588E-01  0.7838263742921E+00  0.4005656543902E+00 -0.2115921923095E+00
 0.6232052800058E-01  0.7524366766253E+00  0.3829358852029E+00 -0.2098424391306E+00
 0.6891895439409E-01  0.7098841328652E+00  0.3660374500835E+00 -0.1999879785665E+00
 0.6632797157766E-01  0.6461805477200E+00  0.3348790032205E+00 -0.1872324633781E+00
 0.5147052294795E-01  0.5728518462671E+00  0.2934315127868E+00 -0.1674966406811E+00
 0.2937141483815E-01  0.5036299999902E+00  0.2505106643339E+00 -0.1412280400026E+00
 0.1061925749434E-01  0.4461074769653E+00  0.2146615646516E+00 -0.1119040712796E+00
-0.1554215133938E-02  0.3984336651839E+00  0.1865333410503E+00 -0.8255905489131E-01
-0.9171504194515E-02  0.3557225130680E+00  0.1628789737574E+00 -0.5499911774508E-01
-0.1383807884206E-01  0.3147776401111E+00  0.1414415934377E+00 -0.2996032597971E-01
-0.1599958576678E-01  0.2742110123190E+00  0.1213593701717E+00 -0.7740996333536E-02
-0.1568724302225E-01  0.2336126593639E+00  0.1024249454208E+00  0.1141495957777E-01
-0.1313950023333E-01  0.1929877423138E+00  0.8452867356342E-01  0.2720431214335E-01
-0.8615736592873E-02  0.1527309769149E+00  0.6773416277955E-01  0.3923192930600E-01
-0.2417953952724E-02  0.1137006177764E+00  0.5230285186449E-01  0.4694117196509E-01
 0.4754841297659E-02  0.7794413594571E-01  0.3886851920580E-01  0.5089689250472E-01
 0.1405922894083E-01  0.4781475305469E-01  0.2908077146414E-01  0.5239459205314E-01
 0.2925275274768E-01  0.2503026793998E-01  0.2551301965849E-01  0.5169752007321E-01
 0.3700211165953E+00  0.6820049208201E+00  0.4944522363311E+00 -0.7993014976345E-01
 0.1354420173474E+00  0.7282134259008E+00  0.4059180572971E+00 -0.1653833476373E+00
 0.6708789013580E-01  0.7154152495278E+00  0.3677764747091E+00 -0.1857040354511E+00
 0.5056251144452E-01  0.6868901078692E+00  0.3466027301983E+00 -0.1797030609638E+00
 0.4880870366691E-01  0.6515632292194E+00  0.3291748076217E+00 -0.1657502167529E+00
 0.4560382127584E-01  0.6072339457076E+00  0.3068337497040E+00 -0.1515736698446E+00
 0.3269109017816E-01  0.5520977727631E+00  0.2748507648853E+00 -0.1353654869479E+00
 0.1345075581504E-01  0.4933215603085E+00  0.2381829879739E+00 -0.1146883824974E+00
-0.4236104649883E-02  0.4387348291739E+00  0.2042144000083E+00 -0.9056624807038E-01
-0.1637826816919E-01  0.3909315562338E+00  0.1760400449439E+00 -0.6493771588183E-01
-0.2360219196070E-01  0.3483627921944E+00  0.1526374817227E+00 -0.3954687641075E-01
-0.2738340420640E-01  0.3086156276595E+00  0.1321791446877E+00 -0.1557996343148E-01
-0.2840677653095E-01  0.2700807139755E+00  0.1135867503108E+00  0.6246460349880E-02
-0.2679084282091E-01  0.2320080432906E+00  0.9645208397613E-01  0.2546515311007E-01
-0.2264540813916E-01  0.1941350143844E+00  0.8060011473085E-01  0.4168587781211E-01
-0.1610100824418E-01  0.1566059687378E+00  0.6603733126450E-01  0.5441966092062E-01
-0.7315261621170E-02  0.1200961860190E+00  0.5300703433253E-01  0.6288725768803E-01
 0.3571852878450E-02  0.8588211729612E-01  0.4204336587541E-01  0.6757363080070E-01
 0.1710179215753E-01  0.5531735214178E-01  0.3403699773434E-01  0.6969803521231E-01
 0.3588913391913E-01  0.3012720062514E-01  0.3102767715711E-01  0.6945135626672E-01
 0.3444400979949E+00  0.5971426892719E+00  0.4425439088929E+00 -0.1028271404064E+00
 0.1335704982889E+00  0.6483490772093E+00  0.3675021995520E+00 -0.1541322354725E+00
 0.6276903657913E-01  0.6446127830173E+00  0.3324694543670E+00 -0.1626127046084E+00
 0.3942136411913E-01  0.6224288085933E+00  0.3110695803859E+00 -0.1521065470348E+00
 0.3221959473989E-01  0.5946481185714E+00  0.2946278245090E+00 -0.1354718076462E+00
 0.2688708268062E-01  0.5624325991645E+00  0.2769802497647E+00 -0.1199895218492E+00
 0.1503676275355E-01  0.5214167638288E+00  0.2521331568542E+00 -0.1051436361312E+00
-0.1980141337063E-02  0.4733751956837E+00  0.2215556749810E+00 -0.8780480918878E-01
-0.1830206634397E-01  0.4246252845714E+00  0.1909719120825E+00 -0.6767379355554E-01
-0.3018979565147E-01  0.3792294388647E+00  0.1640486318941E+00 -0.4569193860544E-01
-0.3732426881515E-01  0.3378921371786E+00  0.1412668977725E+00 -0.2303660279436E-01
-0.4068073671722E-01  0.2995642781098E+00  0.1216752641459E+00 -0.8227011517933E-03
-0.4097383574952E-01  0.2630079477523E+00  0.1043560323766E+00  0.2004005680743E-01
-0.3840791402598E-01  0.2274040254200E+00  0.8882817212991E-01  0.3889086061210E-01
-0.3304325358764E-01  0.1922817375615E+00  0.7484208727791E-01  0.5523277032494E-01
-0.2489036084301E-01  0.1575534505471E+00  0.6235165200277E-01  0.6849687741316E-01
-0.1399045692918E-01  0.1236401918810E+00  0.5153537529667E-01  0.7777674149078E-01
 0.3448581739979E-04  0.9121144407100E-01  0.4288558693878E-01  0.8346968669052E-01
 0.1739781749340E-01  0.6082010713957E-01  0.3676242448425E-01  0.8661398957765E-01
 0.3970037479111E-01  0.3419899220859E-01  0.3473270240177E-01  0.8721799291740E-01
 0.3161208486768E+00  0.5160752001738E+00  0.3911321419678E+00 -0.1237541745982E+00
 0.1274273380530E+00  0.5691274949157E+00  0.3273807706649E+00 -0.1459093112906E+00
 0.5614403725515E-01  0.5727498680502E+00  0.2955801347438E+00 -0.1426982697941E+00
 0.2838575511695E-01  0.5575896016024E+00  0.2754084169596E+00 -0.1273848898060E+00
 0.1734453218783E-01  0.5369715827515E+00  0.2605285733607E+00 -0.1083998003883E+00
 0.1018968537099E-01  0.5138637330132E+00  0.2463051060158E+00 -0.9167811296857E-01
-0.1309166079426E-02  0.4834443830402E+00  0.2266035513968E+00 -0.7716268154508E-01
-0.1663429308741E-01  0.4450781200801E+00  0.2013685981758E+00 -0.6167158928467E-01
-0.3160716119592E-01  0.4032113102684E+00  0.1746539496211E+00 -0.4435188108974E-01
-0.4304871637842E-01  0.3619680055617E+00  0.1498920655359E+00 -0.2548711234815E-01
-0.5015255114693E-01  0.3231636908991E+00  0.1283152353581E+00 -0.5649840008468E-02
-0.5339960593517E-01  0.2868665629737E+00  0.1097294695298E+00  0.1438769134035E-01
-0.5335565229228E-01  0.2524786269975E+00  0.9358779787407E-01  0.3377691642658E-01
-0.5024318007074E-01  0.2193776113556E+00  0.7949318250224E-01  0.5179039665574E-01
-0.4409342196082E-01  0.1870372015492E+00  0.6718357623614E-01  0.6786574085071E-01
-0.3483335086889E-01  0.1551968965131E+00  0.5657086630930E-01  0.8138680224471E-01
-0.2239341267549E-01  0.1240620885911E+00  0.4778427755915E-01  0.9139551446660E-01
-0.5931001626677E-02  0.9379444027927E-01  0.4129581606198E-01  0.9820386298960E-01
 0.1463556558670E-01  0.6426388784900E-01  0.3708274302072E-01  0.1025959344590E+00
 0.3997201840353E-01  0.3711415481150E-01  0.3623050131917E-01  0.1043050165198E+00
 0.2851791659462E+00  0.4383525358834E+00  0.3400598989974E+00 -0.1425956419340E+00
 0.1174366878596E+00  0.4912362785676E+00  0.2860762934952E+00 -0.1401764110007E+00
 0.4749902924715E-01  0.5006063198580E+00  0.2576095134260E+00 -0.1259145033707E+00
 0.1709006635427E-01  0.4919199155202E+00  0.2392346908742E+00 -0.1056117114408E+00
 0.3451818100290E-02  0.4778122714831E+00  0.2261941215305E+00 -0.8422859464914E-01
-0.5054776416803E-02  0.4619921205891E+00  0.2147605512162E+00 -0.6617998323101E-01
-0.1635688598778E-01  0.4398644952257E+00  0.1990485758370E+00 -0.5141843790982E-01
-0.3039553587614E-01  0.4097294581848E+00  0.1782869430329E+00 -0.3685247638315E-01
-0.4411588115162E-01  0.3747394441664E+00  0.1553930742228E+00 -0.2141018418440E-01
-0.5498712703482E-01  0.3385264012764E+00  0.1332634585555E+00 -0.5016095526764E-02
-0.6201901407663E-01  0.3032670028422E+00  0.1133865544322E+00  0.1222242023204E-01
-0.6531759022812E-01  0.2697121412982E+00  0.9606543875928E-01  0.2993422707468E-01
-0.6524092425257E-01  0.2378561889966E+00  0.8112917422390E-01  0.4749034163160E-01
-0.6196300907471E-01  0.2074074941878E+00  0.6835890782975E-01  0.6423366133847E-01
-0.5547921920106E-01  0.1779274429410E+00  0.5755066501179E-01  0.7961617412393E-01
-0.4565147538116E-01  0.1490870028633E+00  0.4861469779330E-01  0.9302908182796E-01
-0.3231783035096E-01  0.1209500327393E+00  0.4165713501685E-01  0.1035309356241E+00
-0.1422515815495E-01  0.9326034514673E-01  0.3714653779192E-01  0.1113670742270E+00
 0.8701037964125E-02  0.6526553108805E-01  0.3476428736635E-01  0.1170317798830E+00
 0.3629360250115E-01  0.3840527519327E-01  0.3510847242733E-01  0.1199200785033E+00
 0.2519076848161E+00  0.3636929420304E+00  0.2893322938840E+00 -0.1593676510906E+00
 0.1039410006485E+00  0.4149922083793E+00  0.2438986076244E+00 -0.1364834980036E+00
 0.3688474995369E-01  0.4285921516838E+00  0.2187741432147E+00 -0.1120530028583E+00
 0.5293664389516E-02  0.4254171381915E+00  0.2024340766996E+00 -0.8672334510054E-01
-0.9935073916919E-02  0.4169432572453E+00  0.1912938456792E+00 -0.6279119962303E-01
-0.1928737591141E-01  0.4070770857441E+00  0.1822611631591E+00 -0.4324700696437E-01
-0.3032663823307E-01  0.3915897596401E+00  0.1697936666306E+00 -0.2785029001469E-01
-0.4326504909048E-01  0.3683723125260E+00  0.1528004134271E+00 -0.1361486342025E-01
-0.5582073798526E-01  0.3397440288627E+00  0.1334439463739E+00  0.6298251275213E-03
-0.6602977579463E-01  0.3087932444799E+00  0.1140988299927E+00  0.1514916647260E-01
-0.7290281748348E-01  0.2776640122671E+00  0.9623776130421E-01  0.3013962406892E-01
-0.7629983614255E-01  0.2474266643256E+00  0.8042960904203E-01  0.4557752573246E-01
-0.7638082533907E-01  0.2184974510026E+00  0.6679481389245E-01  0.6110865693887E-01
-0.7324240784813E-01  0.1909155009028E+00  0.5530635359540E-01  0.7623853891515E-01
-0.6683470442165E-01  0.1644136237839E+00  0.4586209198391E-01  0.9051202042110E-01
-0.5696583931132E-01  0.1386929512110E+00  0.3841174249544E-01  0.1033907436443E+00
-0.4339995940073E-01  0.1137674876128E+00  0.3307273817577E-01  0.1140150682696E+00
-0.2454993629763E-01  0.8903954339998E-01  0.3031011526123E-01  0.1225959051140E+00
-0.2554901477276E-03  0.6318015078089E-01  0.2957459042257E-01  0.1293432622237E+00
 0.2862452229218E-01  0.3730454071449E-01  0.3098665953454E-01  0.1332907307281E+00
 0.2166144079349E+00  0.2918534256561E+00  0.2389798811816E+00 -0.1741410609053E+00
 0.8723358875471E-01  0.3405282103140E+00  0.2010480450524E+00 -0.1344334908290E+00
 0.2429842793468E-01  0.3569750088488E+00  0.1791985148337E+00 -0.1008397691543E+00
-0.7222543136880E-02  0.3582113335893E+00  0.1649647310942E+00 -0.7057999891212E-01
-0.2316540261722E-01  0.3543984220099E+00  0.1556795187197E+00 -0.4395843858810E-01
-0.3287117371903E-01  0.3493469122336E+00  0.1487435967246E+00 -0.2273356395652E-01
-0.4347018875699E-01  0.3392070910579E+00  0.1389963437289E+00 -0.6405369904114E-02
-0.5534650956821E-01  0.3217603829917E+00  0.1252145201915E+00  0.7911511460149E-02
-0.6676121072847E-01  0.2987955132212E+00  0.1090561218950E+00  0.2145011928281E-01
-0.7621725039708E-01  0.2729334126438E+00  0.9245659602144E-01  0.3458834595059E-01
-0.8281420916075E-01  0.2461344757322E+00  0.7676052509387E-01  0.4770637519434E-01
-0.8627252565191E-01  0.2195543668272E+00  0.6264246519352E-01  0.6103916083289E-01
-0.8659225225186E-01  0.1938558965255E+00  0.5041391268073E-01  0.7449374591067E-01
-0.8379322522919E-01  0.1693405453237E+00  0.4020724034244E-01  0.8777572708964E-01
-0.7778375714429E-01  0.1459330346525E+00  0.3203016034763E-01  0.1005739723574E+00
-0.6833165074847E-01  0.1234323051891E+00  0.2589730752143E-01  0.1124734521101E+00
-0.5514782216083E-01  0.1018857675068E+00  0.2196683425691E-01  0.1227534853691E+00
-0.3641420960161E-01  0.8041881774264E-01  0.2068216577383E-01  0.1316302269772E+00
-0.1180724092231E-01  0.5717227024670E-01  0.2132156372838E-01  0.1390744816775E+00
 0.1731748135102E-01  0.3283525793386E-01  0.2357178740411E-01  0.1437834352154E+00
 0.1795792629307E+00  0.2225996328014E+00  0.1890240805146E+00 -0.1870086393378E+00
 0.6758065075220E-01  0.2678818767258E+00  0.1576673875147E+00 -0.1336724803754E+00
 0.9727769770248E-02  0.2859434692191E+00  0.1389654819725E+00 -0.9197570907191E-01
-0.2065612554850E-01  0.2904806347653E+00  0.1268175190102E+00 -0.5699769139135E-01
-0.3653210844486E-01  0.2903293356572E+00  0.1192846964873E+00 -0.2760274965058E-01
-0.4611547292992E-01  0.2890498802045E+00  0.1141791711294E+00 -0.4535764710271E-02
-0.5603993233634E-01  0.2831565054345E+00  0.1067447890854E+00  0.1295880886614E-01
-0.6679294720288E-01  0.2704643948985E+00  0.9572558017414E-01  0.2766259919254E-01
-0.7702645452013E-01  0.2524091249898E+00  0.8242985491169E-01  0.4085992465861E-01
-0.8561750299779E-01  0.2312345887750E+00  0.6844003014172E-01  0.5301224728750E-01
-0.9179341536014E-01  0.2086773767525E+00  0.5493546171508E-01  0.6460873193855E-01
-0.9521056976991E-01  0.1858531095048E+00  0.4260199356735E-01  0.7605965364316E-01
-0.9575313239870E-01  0.1635362812406E+00  0.3185807987488E-01  0.8748721408952E-01
-0.9338000102438E-01  0.1422049385817E+00  0.2294772059373E-01  0.9879197851322E-01
-0.8797280548349E-01  0.1219561652076E+00  0.1597217902980E-01  0.1098238609742E+00
-0.7928018305763E-01  0.1027193893755E+00  0.1101642694144E-01  0.1203211702333E+00
-0.6698592496357E-01  0.8463683591032E-01  0.8295928123929E-02  0.1297434412417E+00
-0.4917180951275E-01  0.6661011504092E-01  0.8196003577454E-02  0.1383516985536E+00
-0.2528272997816E-01  0.4630801864990E-01  0.9881885650653E-02  0.1459561611803E+00
 0.3076397242380E-02  0.2392792288273E-01  0.1269203042661E-01  0.1509921559004E+00
 0.1410483265963E+00  0.1557043593575E+00  0.1394737620445E+00 -0.1980699754351E+00
 0.4522849284550E-01  0.1970354874019E+00  0.1138640704275E+00 -0.1338855708357E+00
-0.6831402880595E-02  0.2156360364359E+00  0.9813817752208E-01 -0.8515689868677E-01
-0.3518219706497E-01  0.2224138155297E+00  0.8799886045524E-01 -0.4576597427760E-01
-0.5029397499710E-01  0.2249414407949E+00  0.8208430871678E-01 -0.1358523466738E-01
-0.5929810907528E-01  0.2264532488894E+00  0.7856291551339E-01  0.1144062492711E-01
-0.6828156743859E-01  0.2238147470526E+00  0.7310059423316E-01  0.3028447001686E-01
-0.7778382799668E-01  0.2149489006978E+00  0.6446758400599E-01  0.4561150361371E-01
-0.8674239540412E-01  0.2010407415178E+00  0.5372022253717E-01  0.5874817810320E-01
-0.9432969390763E-01  0.1840280580594E+00  0.4215823104440E-01  0.7023094996770E-01
-0.9991233191921E-01  0.1654272384170E+00  0.3079200597584E-01  0.8061669027778E-01
-0.1031334298314E+00  0.1462542989991E+00  0.2026680845745E-01  0.9042687390621E-01
-0.1038000757757E+00  0.1273050298481E+00  0.1104732838599E-01  0.9994479616311E-01
-0.1018298130387E+00  0.1091561825844E+00  0.3443393677742E-02  0.1092358723190E+00
-0.9709752710477E-01  0.9203965066611E-01 -0.2377201920144E-02  0.1182989748999E+00
-0.8935999048434E-01  0.7602146562902E-01 -0.6269106666096E-02  0.1270286787291E+00
-0.7830775116259E-01  0.6137597210192E-01 -0.7957936138330E-02  0.1350837400127E+00
-0.6207819529378E-01  0.4682827211412E-01 -0.7167463876260E-02  0.1428026455273E+00
-0.3983140840680E-01  0.2965301120418E-01 -0.4783846673101E-02  0.1499382697565E+00
-0.1313567210390E-01  0.9536300132544E-02 -0.1691704822248E-02  0.1547835467850E+00
 0.1012360912853E+00  0.9095003458266E-01  0.9032747892883E-01 -0.2074237947997E+00
 0.2040718768112E-01  0.1279377941206E+00  0.6972214126995E-01 -0.1347940326389E+00
-0.2536958815881E-01  0.1461548239678E+00  0.5676906068622E-01 -0.8008564212244E-01
-0.5095181796447E-01  0.1541940512735E+00  0.4852384953217E-01 -0.3665900992911E-01
-0.6468398638275E-01  0.1584613617521E+00  0.4407536631180E-01 -0.1751860347441E-02
-0.7267610984409E-01  0.1618359674874E+00  0.4190513298606E-01  0.2529645656166E-01
-0.8043537407444E-01  0.1615306491538E+00  0.3811477919063E-01  0.4562349360863E-01
-0.8851435719403E-01  0.1556209524105E+00  0.3154009967176E-01  0.6175899971714E-01
-0.9606222632065E-01  0.1451026689838E+00  0.2304900799324E-01  0.7505757724818E-01
-0.1024816760005E+00  0.1316576397704E+00  0.1371270293708E-01  0.8612754523661E-01
-0.1072750730472E+00  0.1165989160174E+00  0.4382206184908E-02  0.9557310659580E-01
-0.1101040522631E+00  0.1008186418382E+00 -0.4364142888645E-02  0.1039833788855E+00
-0.1107286518051E+00  0.8507631921855E-01 -0.1205659628511E-01  0.1117540607725E+00
-0.1090407618590E+00  0.6998405440914E-01 -0.1835665245489E-01  0.1190754644305E+00
-0.1049256073956E+00  0.5586518496237E-01 -0.2305839848513E-01  0.1260638676149E+00
-0.9817536674490E-01  0.4291116198678E-01 -0.2597417617044E-01  0.1327477502597E+00
-0.8852818220856E-01  0.3154530286152E-01 -0.2678195322518E-01  0.1389776212410E+00
-0.7435333752517E-01  0.2036725970348E-01 -0.2537345651184E-01  0.1451883087224E+00
-0.5450496619872E-01  0.6361724664176E-02 -0.2262732346384E-01  0.1511930682504E+00
-0.3021371706262E-01 -0.1126619113962E-01 -0.1949555680561E-01  0.1553000258923E+00
 0.6032926304836E-01  0.2813078478274E-01  0.4157622237516E-01 -0.2151638456373E+00
-0.6667608841611E-02  0.6051651840513E-01  0.2530898743066E-01 -0.1361526499218E+00
-0.4586243891889E-01  0.7757351015406E-01  0.1490420344273E-01 -0.7647692405860E-01
-0.6809163291955E-01  0.8599142478447E-01  0.8412902155176E-02 -0.2944324636904E-01
-0.7991216965279E-01  0.9111992865914E-01  0.5267646719622E-02  0.8066292298436E-02
-0.8649045438842E-01  0.9548159638076E-01  0.4225836725685E-02  0.3714685365309E-01
-0.9273757866737E-01  0.9664048146894E-01  0.1834364312086E-02  0.5904438688890E-01
-0.9919077645645E-01  0.9285798156174E-01 -0.2976413592966E-02  0.7613161598106E-01
-0.1051599823727E+00  0.8498084019779E-01 -0.9484196798137E-02  0.8977182199882E-01
-0.1102261745323E+00  0.7447032040535E-01 -0.1680525139702E-01  0.1006405675168E+00
-0.1140160690616E+00  0.6245572357039E-01 -0.2423336231942E-01  0.1093805439287E+00
-0.1162276181218E+00  0.4969930370611E-01 -0.3126830769607E-01  0.1166226042882E+00
-0.1165941219983E+00  0.3688850740262E-01 -0.3746163876494E-01  0.1228380502624E+00
-0.1149899074604E+00  0.2461963956142E-01 -0.4247402580480E-01  0.1283037682995E+00
-0.1113172398028E+00  0.1326256796744E-01 -0.4608569564574E-01  0.1332132681310E+00
-0.1054228684288E+00  0.3108797218500E-02 -0.4808761334688E-01  0.1376865558006E+00
-0.9713290492416E-01 -0.5268484425044E-02 -0.4812865287206E-01  0.1417290166354E+00
-0.8524154783725E-01 -0.1333280906468E-01 -0.4632994762640E-01  0.1458679017106E+00
-0.6833635708973E-01 -0.2425055182125E-01 -0.4351584707779E-01  0.1500968918636E+00
-0.4702793611763E-01 -0.3921774521478E-01 -0.4053547012342E-01  0.1529308179214E+00
 0.1849036091550E-01 -0.3294674816112E-01 -0.6794501988208E-02 -0.2213765959102E+00
-0.3579353121580E-01 -0.5314121837428E-02 -0.1932059688601E-01 -0.1377471482733E+00
-0.6827148073137E-01  0.9942652096052E-02 -0.2741454938906E-01 -0.7406241400288E-01
-0.8670436312764E-01  0.1795994316483E-01 -0.3230987730057E-01 -0.2388322707233E-01
-0.9616668655557E-01  0.2314315317654E-01 -0.3432106060109E-01  0.1605087053081E-01
-0.1009677675020E+00  0.2767311620101E-01 -0.3444848602410E-01  0.4712398250646E-01
-0.1054208105365E+00  0.2947447373965E-01 -0.3569477820398E-01  0.7063628061523E-01
-0.1100277174113E+00  0.2702374173944E-01 -0.3901186846682E-01  0.8878222056046E-01
-0.1142262465185E+00  0.2104851986767E-01 -0.4379353141479E-01  0.1029102150663E+00
-0.1177366133282E+00  0.1281606073354E-01 -0.4931265959441E-01  0.1137541035586E+00
-0.1202961567960E+00  0.3291879917274E-02 -0.5499200999353E-01  0.1219911756704E+00
-0.1216477207675E+00 -0.6886328383963E-02 -0.6041100294798E-01  0.1282815920179E+00
-0.1215102380032E+00 -0.1712325845392E-01 -0.6515774316958E-01  0.1331500527791E+00
-0.1197383522978E+00 -0.2687819350118E-01 -0.6890977635073E-01  0.1369324212905E+00
-0.1162445347671E+00 -0.3578373182053E-01 -0.7145328511493E-01  0.1398621582963E+00
-0.1109266349534E+00 -0.4348613745879E-01 -0.7257400284967E-01  0.1420976022753E+00
-0.1037287084223E+00 -0.4928584802021E-01 -0.7191684134558E-01  0.1437310326943E+00
-0.9406350155899E-01 -0.5462781333396E-01 -0.6988491782243E-01  0.1453406768282E+00
-0.8040282236140E-01 -0.6265551361053E-01 -0.6723741773627E-01  0.1472021547389E+00
-0.6251979468373E-01 -0.7482530803982E-01 -0.6455219811634E-01  0.1482638664470E+00
-0.2413926242665E-01 -0.9246391339450E-01 -0.5480349249694E-01 -0.2261398331393E+00
-0.6678072923874E-01 -0.6964915549975E-01 -0.6412204566446E-01 -0.1393918648322E+00
-0.9254538405383E-01 -0.5670605449175E-01 -0.7014817593850E-01 -0.7259323277403E-01
-0.1068700708583E+00 -0.4976304456776E-01 -0.7361756406353E-01 -0.1974632266291E-01
-0.1136143938927E+00 -0.4525221026455E-01 -0.7466730376454E-01  0.2239318931995E-01
-0.1163208785240E+00 -0.4131075143990E-01 -0.7408686589511E-01  0.5537697190080E-01
-0.1187138486675E+00 -0.3964051385883E-01 -0.7442655019860E-01  0.8051041432517E-01
-0.1212465107547E+00 -0.4152244855200E-01 -0.7650141068014E-01  0.9979079951827E-01
-0.1234651738813E+00 -0.4632309175691E-01 -0.7980048464756E-01  0.1145259498886E+00
-0.1252030757016E+00 -0.5294816223063E-01 -0.8373108161579E-01  0.1254937144439E+00
-0.1262966221617E+00 -0.6057569226370E-01 -0.8782998755715E-01  0.1334019810594E+00
-0.1265387383539E+00 -0.6867816444127E-01 -0.9175194408099E-01  0.1389360168398E+00
-0.1256415417591E+00 -0.7675613658347E-01 -0.9512690857972E-01  0.1426659497801E+00
-0.1234321710631E+00 -0.8435179322800E-01 -0.9765846296911E-01  0.1449764828233E+00
-0.1198035952271E+00 -0.9114340375421E-01 -0.9914508926977E-01  0.1461211343569E+00
-0.1146797690884E+00 -0.9678340681974E-01 -0.9938769242476E-01  0.1462472499019E+00
-0.1080962489145E+00 -0.1004866241686E+00 -0.9803395010040E-01  0.1454418890941E+00
-0.1002725835760E+00 -0.1036207531997E+00 -0.9582986804149E-01  0.1442312355478E+00
-0.8985656791086E-01 -0.1090651064767E+00 -0.9349318672502E-01  0.1432137564610E+00
-0.7576256885186E-01 -0.1183455024292E+00 -0.9123079327069E-01  0.1420326521745E+00
-0.6743794037588E-01 -0.1505931049839E+00 -0.1024745910592E+00 -0.2295217721784E+00
-0.9945022742600E-01 -0.1325900133513E+00 -0.1090589128887E+00 -0.1409280429776E+00
-0.1186221622497E+00 -0.1223567911456E+00 -0.1132601078085E+00 -0.7184238298645E-01
-0.1286470096117E+00 -0.1170544100582E+00 -0.1154796669520E+00 -0.1680685306853E-01
-0.1324021818449E+00 -0.1138609918531E+00 -0.1157436913445E+00  0.2729091828456E-01
-0.1327486378411E+00 -0.1111976000791E+00 -0.1146547315317E+00  0.6207017885615E-01
-0.1328414769039E+00 -0.1103806251921E+00 -0.1143143876952E+00  0.8879960153302E-01
-0.1330741929846E+00 -0.1124202723805E+00 -0.1153823984290E+00  0.1092641696439E+00
-0.1330931292304E+00 -0.1167564217489E+00 -0.1174292886624E+00  0.1247054579150E+00
-0.1328293589512E+00 -0.1224510625020E+00 -0.1199817977787E+00  0.1359259529901E+00
-0.1322124113630E+00 -0.1288071782847E+00 -0.1226792068232E+00  0.1436558562207E+00
-0.1310927667481E+00 -0.1353859675548E+00 -0.1252450048047E+00  0.1486025395801E+00
-0.1291871540871E+00 -0.1417703404237E+00 -0.1273500220971E+00  0.1513825630374E+00
-0.1262846456205E+00 -0.1475860001844E+00 -0.1287192032018E+00  0.1524388974620E+00
-0.1222272651429E+00 -0.1525927357134E+00 -0.1291654000749E+00  0.1520562019106E+00
-0.1168670233965E+00 -0.1564989527626E+00 -0.1284820084689E+00  0.1503583681632E+00
-0.1102880146193E+00 -0.1585971186007E+00 -0.1263760122929E+00  0.1473306602433E+00
-0.1035076385027E+00 -0.1600707150009E+00 -0.1238818258325E+00  0.1432719585511E+00
-0.9594553539634E-01 -0.1633955702771E+00 -0.1218903193574E+00  0.1389854591577E+00
-0.8594255817770E-01 -0.1697542681058E+00 -0.1201775080484E+00  0.1350746431904E+00
-0.1113001022776E+00 -0.2075002450874E+00 -0.1498361628815E+00 -0.2315796734785E+00
-0.1336368487987E+00 -0.1942499554551E+00 -0.1541067976084E+00 -0.1422238191635E+00
-0.1464256819110E+00 -0.1869992954584E+00 -0.1567097389661E+00 -0.7160792629685E-01
-0.1520771403544E+00 -0.1838051762983E+00 -0.1578646884264E+00 -0.1484958111711E-01
-0.1526556599696E+00 -0.1824862748835E+00 -0.1575167089814E+00  0.3094499151196E-01
-0.1504378041091E+00 -0.1817250377432E+00 -0.1561165352746E+00  0.6738095473446E-01
-0.1480233645166E+00 -0.1824251686120E+00 -0.1553108101765E+00  0.9565607184776E-01
-0.1457437449755E+00 -0.1853064624367E+00 -0.1555935970891E+00  0.1173339478022E+00
-0.1433395078402E+00 -0.1898612261357E+00 -0.1566043445714E+00  0.1335664848250E+00
-0.1408335027221E+00 -0.1952973070515E+00 -0.1579814801929E+00  0.1451583032471E+00
-0.1382478726482E+00 -0.2010296302052E+00 -0.1594604259367E+00  0.1528468789548E+00
-0.1355047642996E+00 -0.2066868206992E+00 -0.1608300445415E+00  0.1573517650290E+00
-0.1323488101109E+00 -0.2119063481602E+00 -0.1617999239770E+00  0.1593337104898E+00
-0.1285414019981E+00 -0.2163684417648E+00 -0.1621076261574E+00  0.1593126998396E+00
-0.1238324082341E+00 -0.2198887898509E+00 -0.1615489626902E+00  0.1576508307041E+00
-0.1179492000747E+00 -0.2223061084920E+00 -0.1599199946207E+00  0.1545043842083E+00
-0.1106524265953E+00 -0.2229963996245E+00 -0.1568149479256E+00  0.1497627646305E+00
-0.1038474495073E+00 -0.2234030452330E+00 -0.1538077321378E+00  0.1432414643297E+00
-0.9791451211547E-01 -0.2250296300544E+00 -0.1517837464349E+00  0.1355621182497E+00
-0.9228217452833E-01 -0.2287597319935E+00 -0.1508896956825E+00  0.1283437976499E+00
-0.1556649739672E+00 -0.2633873916464E+00 -0.1969546113389E+00 -0.2323626724647E+00
-0.1691614722311E+00 -0.2547266261205E+00 -0.1992274057200E+00 -0.1431787515506E+00
-0.1758901962502E+00 -0.2506472428858E+00 -0.2004725958854E+00 -0.7171807485608E-01
-0.1771681149460E+00 -0.2498874069926E+00 -0.2007160948021E+00 -0.1367309342101E-01
-0.1744948973334E+00 -0.2509528909098E+00 -0.1999604599671E+00  0.3355940780136E-01
-0.1695575753019E+00 -0.2526371178307E+00 -0.1984315052690E+00  0.7149671729104E-01
-0.1644748348867E+00 -0.2554601617452E+00 -0.1973694479164E+00  0.1012486850461E+00
-0.1594938761820E+00 -0.2598156064303E+00 -0.1970754563279E+00  0.1241525934785E+00
-0.1544502210595E+00 -0.2652326821047E+00 -0.1972509639869E+00  0.1412529037273E+00
-0.1494542081973E+00 -0.2710583711756E+00 -0.1976409118040E+00  0.1533349049253E+00
-0.1446222763521E+00 -0.2768178911794E+00 -0.1980768782374E+00  0.1611233881241E+00
-0.1399659376688E+00 -0.2821979616789E+00 -0.1984170321902E+00  0.1653281768152E+00
-0.1352971665463E+00 -0.2868666658515E+00 -0.1984170007237E+00  0.1666330343880E+00
-0.1303945367961E+00 -0.2905092274149E+00 -0.1978247686774E+00  0.1656340184318E+00
-0.1249478639426E+00 -0.2929235300706E+00 -0.1963995546880E+00  0.1628221306148E+00
-0.1184452729241E+00 -0.2939592727969E+00 -0.1938301359972E+00  0.1585105503418E+00
-0.1103679055371E+00 -0.2933393271274E+00 -0.1897423988711E+00  0.1526839463352E+00
-0.1016531948494E+00 -0.2920243334963E+00 -0.1850284378532E+00  0.1447801037465E+00
-0.9558013657174E-01 -0.2930030385553E+00 -0.1826340918465E+00  0.1342019151972E+00
-0.9331753227618E-01 -0.2941760797277E+00 -0.1821219971799E+00  0.1230082679068E+00
-0.2003982469164E+00 -0.3183894938078E+00 -0.2438302375219E+00 -0.2318907459037E+00
-0.2060018710866E+00 -0.3143210652033E+00 -0.2445517794359E+00 -0.1437456652369E+00
-0.2067866449449E+00 -0.3131006829820E+00 -0.2443470435059E+00 -0.7204851411004E-01
-0.2040016388484E+00 -0.3152530683610E+00 -0.2440497117694E+00 -0.1307452485969E-01
-0.1980017905528E+00 -0.3190762523534E+00 -0.2430266795495E+00  0.3533702760087E-01
-0.1902690129529E+00 -0.3236939609438E+00 -0.2415625971187E+00  0.7461336360959E-01
-0.1823998499299E+00 -0.3291754605556E+00 -0.2404403953183E+00  0.1057604309329E+00
-0.1745698064677E+00 -0.3355878157956E+00 -0.2397740818556E+00  0.1298890045905E+00
-0.1666913915128E+00 -0.3424572737683E+00 -0.2392998720751E+00  0.1479252267657E+00
-0.1589622247111E+00 -0.3492701040283E+00 -0.2388691939017E+00  0.1606231374692E+00
-0.1515913826770E+00 -0.3556762191866E+00 -0.2384157722712E+00  0.1686772546333E+00
-0.1446871273756E+00 -0.3614298793390E+00 -0.2378749925526E+00  0.1727584794694E+00
-0.1381690731994E+00 -0.3662333055152E+00 -0.2370691173946E+00  0.1735286863569E+00
-0.1319079777567E+00 -0.3697556978686E+00 -0.2357819269459E+00  0.1716099491584E+00
-0.1256581233651E+00 -0.3717018016425E+00 -0.2337591641607E+00  0.1675963552359E+00
-0.1188120202059E+00 -0.3717657541068E+00 -0.2305715533422E+00  0.1620495796720E+00
-0.1102530946789E+00 -0.3695482106854E+00 -0.2255066129493E+00  0.1553332144510E+00
-0.1009500843803E+00 -0.3666082292500E+00 -0.2197524068489E+00  0.1472209328426E+00
-0.8726753287235E-01 -0.3616648943423E+00 -0.2109982402557E+00  0.1363942525390E+00
-0.8733617606926E-01 -0.3646164246649E+00 -0.2124177218063E+00  0.1211169222968E+00
-0.2470163037529E+00 -0.3746058403920E+00 -0.2921624070071E+00 -0.2304028610724E+00
-0.2429275092952E+00 -0.3718018629021E+00 -0.2889228041999E+00 -0.1441325413303E+00
-0.2394510237233E+00 -0.3746158056914E+00 -0.2886114090929E+00 -0.7241142219351E-01
-0.2325255537336E+00 -0.3797606108245E+00 -0.2877744966124E+00 -0.1286156290473E-01
-0.2232952017309E+00 -0.3867369553396E+00 -0.2867151130959E+00  0.3647538139330E-01
-0.2126830685161E+00 -0.3946182946511E+00 -0.2854316399646E+00  0.7693162665339E-01
-0.2020000009408E+00 -0.4032785118741E+00 -0.2844809003015E+00  0.1093928776799E+00
-0.1912187824898E+00 -0.4122839358058E+00 -0.2836462768795E+00  0.1347255985248E+00
-0.1803458249782E+00 -0.4211275244248E+00 -0.2826924735024E+00  0.1537482567657E+00
-0.1696720041325E+00 -0.4294488097847E+00 -0.2815867818269E+00  0.1671890627282E+00
-0.1594768150761E+00 -0.4370357326427E+00 -0.2803608967167E+00  0.1757080864559E+00
-0.1499623828446E+00 -0.4437522814438E+00 -0.2790458915078E+00  0.1799155174185E+00
-0.1411605206372E+00 -0.4493584384401E+00 -0.2775439100624E+00  0.1804033306528E+00
-0.1330766602954E+00 -0.4535409044071E+00 -0.2757102547109E+00  0.1777417339123E+00
-0.1256585323864E+00 -0.4559534533185E+00 -0.2733576325880E+00  0.1724932187332E+00
-0.1186229467260E+00 -0.4561847093111E+00 -0.2701595976522E+00  0.1652811089998E+00
-0.1107752835656E+00 -0.4533549628433E+00 -0.2651412151397E+00  0.1568970135614E+00
-0.1020041107125E+00 -0.4478369873942E+00 -0.2584253154547E+00  0.1478266679612E+00
-0.9107282550686E-01 -0.4412967878465E+00 -0.2502137176414E+00  0.1383217259373E+00
-0.5465028144106E-01 -0.4144116651051E+00 -0.2204591143175E+00  0.1249441619338E+00
-0.1678182241400E+01 -0.2328815524563E+01 -0.1883288945226E+01  0.5433221353204E+00
-0.1448151266696E+01 -0.2404036900186E+01 -0.1810528433842E+01  0.5707694208316E+00
-0.1219169004394E+01 -0.2463724012012E+01 -0.1730959713321E+01  0.5782086155399E+00
-0.1004625928984E+01 -0.2509401067389E+01 -0.1651592684106E+01  0.5708608502500E+00
-0.8075734836289E+00 -0.2541196727352E+01 -0.1573921995169E+01  0.5534594673621E+00
-0.6291224234879E+00 -0.2560465196039E+01 -0.1499106177375E+01  0.5295479039287E+00
-0.4686884767412E+00 -0.2567976022495E+01 -0.1427232311021E+01  0.5015583100165E+00
-0.3259353209172E+00 -0.2565744274394E+01 -0.1359089406349E+01  0.4719135435183E+00
-0.1999364424312E+00 -0.2556260918979E+01 -0.1295412756577E+01  0.4425577524107E+00
-0.8918704949576E-01 -0.2541707866461E+01 -0.1236520607363E+01  0.4147053909285E+00
 0.7824044755099E-02 -0.2523921515009E+01 -0.1182565808020E+01  0.3890875152526E+00
 0.9241934542556E-01 -0.2504504396285E+01 -0.1133679971028E+01  0.3661606697019E+00
 0.1656851241561E+00 -0.2484950098265E+01 -0.1090054535066E+01  0.3461907763862E+00
 0.2285719734324E+00 -0.2466536567551E+01 -0.1051843356568E+01  0.3292677168894E+00
 0.2818566582782E+00 -0.2450313567423E+01 -0.1019174744713E+01  0.3153575457247E+00
 0.3261191139275E+00 -0.2437160730572E+01 -0.9921895573065E+00  0.3043252022838E+00
 0.3619240008443E+00 -0.2427690615721E+01 -0.9709103065293E+00  0.2958328917850E+00
 0.3893089426722E+00 -0.2422112334086E+01 -0.9554175915413E+00  0.2897681888947E+00
 0.4081032624516E+00 -0.2421278436036E+01 -0.9461923291846E+00  0.2863591205449E+00
 0.4217387305740E+00 -0.2423980673454E+01 -0.9410537107667E+00  0.2856928466824E+00
-0.1704428165748E+01 -0.2400977488240E+01 -0.1929540652480E+01  0.5765513643505E+00
-0.1449929132486E+01 -0.2477767784103E+01 -0.1846017546114E+01  0.6019711034648E+00
-0.1205581469268E+01 -0.2541462641077E+01 -0.1761110727395E+01  0.6023479963032E+00
-0.9778309968244E+00 -0.2587486117871E+01 -0.1675699039656E+01  0.5863515723814E+00
-0.7712826893022E+00 -0.2617121669936E+01 -0.1592550044803E+01  0.5601288330966E+00
-0.5863971633629E+00 -0.2631658507351E+01 -0.1512486161399E+01  0.5278123212840E+00
-0.4219626020176E+00 -0.2632084298864E+01 -0.1435402039774E+01  0.4921092969398E+00
-0.2774413175441E+00 -0.2621175350461E+01 -0.1362349830507E+01  0.4560243654207E+00
-0.1514395728257E+00 -0.2602176462710E+01 -0.1294199533419E+01  0.4218773693830E+00
-0.4195981408689E-01 -0.2577897607371E+01 -0.1231332984962E+01  0.3909258439220E+00
 0.5282361726757E-01 -0.2550677805605E+01 -0.1173991465541E+01  0.3638134643689E+00
 0.1344260550215E+00 -0.2522480432115E+01 -0.1122385554387E+01  0.3408743211173E+00
 0.2041047692195E+00 -0.2494995730451E+01 -0.1076718749048E+01  0.3221992677737E+00
 0.2629541418715E+00 -0.2469595339382E+01 -0.1037121360199E+01  0.3076551837796E+00
 0.3118531971338E+00 -0.2447379623536E+01 -0.1003697417863E+01  0.2969747132815E+00
 0.3515561711636E+00 -0.2429222894588E+01 -0.9765033575325E+00  0.2897639541336E+00
 0.3829774215514E+00 -0.2415747417164E+01 -0.9554018955146E+00  0.2854074598335E+00
 0.4052305429776E+00 -0.2407865455434E+01 -0.9412384064672E+00  0.2839853346184E+00
 0.4182669162963E+00 -0.2406499388570E+01 -0.9344692595986E+00  0.2859564278647E+00
 0.4237187239324E+00 -0.2412025277074E+01 -0.9345040776064E+00  0.2912750450319E+00
-0.1727745806645E+01 -0.2473465565797E+01 -0.1974569340040E+01  0.6107564000513E+00
-0.1450786404421E+01 -0.2557447431475E+01 -0.1883869898093E+01  0.6320733586733E+00
-0.1187956884608E+01 -0.2622943465600E+01 -0.1791123160055E+01  0.6239664415166E+00
-0.9469901800322E+00 -0.2667803088608E+01 -0.1698952831951E+01  0.5975507349296E+00
-0.7312501705525E+00 -0.2692900325538E+01 -0.1609350729081E+01  0.5609023181487E+00
-0.5407870272216E+00 -0.2700223591492E+01 -0.1523274986932E+01  0.5189145956321E+00
-0.3735389739419E+00 -0.2691113597873E+01 -0.1440386705100E+01  0.4747806401451E+00
-0.2285766913553E+00 -0.2669137038510E+01 -0.1361925449582E+01  0.4321839128792E+00
-0.1039081535280E+00 -0.2638478192444E+01 -0.1288921579338E+01  0.3936934613996E+00
 0.3047420017662E-02 -0.2602691616809E+01 -0.1221832769393E+01  0.3604434517198E+00
 0.9447486978633E-01 -0.2564622864104E+01 -0.1160969554385E+01  0.3328556371921E+00
 0.1721094024561E+00 -0.2526556878497E+01 -0.1106590310932E+01  0.3110284630835E+00
 0.2374042344483E+00 -0.2490357232725E+01 -0.1058887906504E+01  0.2947823735274E+00
 0.2915978761843E+00 -0.2457487219961E+01 -0.1017967988993E+01  0.2837084873510E+00
 0.3356635773124E+00 -0.2429105427943E+01 -0.9839176673006E+00  0.2772999292003E+00
 0.3704601932864E+00 -0.2406136248898E+01 -0.9567677437105E+00  0.2749536365369E+00
 0.3970729486966E+00 -0.2389187661133E+01 -0.9362939124705E+00  0.2758742280732E+00
 0.4133243012765E+00 -0.2379788757705E+01 -0.9242382921773E+00  0.2804034347602E+00
 0.4186083478976E+00 -0.2379547342654E+01 -0.9216413251978E+00  0.2888894389309E+00
 0.4154825657264E+00 -0.2388533539350E+01 -0.9273339552512E+00  0.3000135702235E+00
-0.1750780114982E+01 -0.2550352812675E+01 -0.2021532470871E+01  0.6464828463934E+00
-0.1448592794681E+01 -0.2641646818459E+01 -0.1922412613300E+01  0.6613467533704E+00
-0.1166514700567E+01 -0.2708720761999E+01 -0.1821360662786E+01  0.6423770956772E+00
-0.9118986357468E+00 -0.2750164580774E+01 -0.1721169707399E+01  0.6035232405630E+00
-0.6876732855562E+00 -0.2768099782090E+01 -0.1624213337674E+01  0.5547981068522E+00
-0.4927687638432E+00 -0.2765273183112E+01 -0.1531279711185E+01  0.5020069249282E+00
-0.3241463054552E+00 -0.2743749384148E+01 -0.1441910970456E+01  0.4489673702429E+00
-0.1802850374970E+00 -0.2708122132578E+01 -0.1357551366492E+01  0.4000912109656E+00
-0.5838007958021E-01 -0.2663642503401E+01 -0.1279350610756E+01  0.3580196236947E+00
 0.4481101395032E-01 -0.2614658106874E+01 -0.1207828130611E+01  0.3235450712297E+00
 0.1318367728211E+00 -0.2564501786888E+01 -0.1143352553712E+01  0.2967067231329E+00
 0.2046439459183E+00 -0.2515732726375E+01 -0.1086211724060E+01  0.2772581086084E+00
 0.2648793263604E+00 -0.2470329714509E+01 -0.1036561679801E+01  0.2646747958615E+00
 0.3138954666154E+00 -0.2429795724042E+01 -0.9944731184683E+00  0.2582396035283E+00
 0.3526982241381E+00 -0.2395309818716E+01 -0.9600274470167E+00  0.2572092537774E+00
 0.3821605517866E+00 -0.2367790987047E+01 -0.9332463022051E+00  0.2607864946153E+00
 0.4034055559769E+00 -0.2347693356265E+01 -0.9138152638175E+00  0.2679854851479E+00
 0.4126897613222E+00 -0.2337230814368E+01 -0.9045342926372E+00  0.2792836050718E+00
 0.4096871785138E+00 -0.2338627587522E+01 -0.9066019899346E+00  0.2945109892527E+00
 0.3988494723804E+00 -0.2352184245003E+01 -0.9180673408039E+00  0.3109849305205E+00
-0.1773462151127E+01 -0.2632554865395E+01 -0.2070827992513E+01  0.6839224380658E+00
-0.1443091865095E+01 -0.2731460734345E+01 -0.1962039716760E+01  0.6895367601074E+00
-0.1140636113634E+01 -0.2798791762252E+01 -0.1851531096970E+01  0.6568879538457E+00
-0.8725686177281E+00 -0.2834423715123E+01 -0.1742286392021E+01  0.6032539752715E+00
-0.6408228477137E+00 -0.2841993186201E+01 -0.1636923531788E+01  0.5407911517621E+00
-0.4429627593163E+00 -0.2825613509519E+01 -0.1536230842456E+01  0.4762431376050E+00
-0.2746805564328E+00 -0.2788466237564E+01 -0.1439678989527E+01  0.4141557802782E+00
-0.1336170769327E+00 -0.2736483671627E+01 -0.1348947348401E+01  0.3596258426796E+00
-0.1592609022222E-01 -0.2676091976232E+01 -0.1265248488024E+01  0.3150957943290E+00
 0.8233232676045E-01 -0.2612422157001E+01 -0.1189142217197E+01  0.2807538850228E+00
 0.1640293654690E+00 -0.2549222008302E+01 -0.1121040539288E+01  0.2560864364194E+00
 0.2312847743621E+00 -0.2489230349869E+01 -0.1061234417797E+01  0.2403992908044E+00
 0.2859114944338E+00 -0.2434435500319E+01 -0.1009806280205E+01  0.2327613240495E+00
 0.3293247347911E+00 -0.2386280181969E+01 -0.9667690577214E+00  0.2321215564552E+00
 0.3624987477111E+00 -0.2345874981278E+01 -0.9321868274122E+00  0.2374919244220E+00
 0.3862546512609E+00 -0.2314041913067E+01 -0.9060600107506E+00  0.2478624606066E+00
 0.4016576866682E+00 -0.2290983333332E+01 -0.8879830516798E+00  0.2619988828501E+00
 0.4035117444569E+00 -0.2279633045955E+01 -0.8817770094675E+00  0.2803792823880E+00
 0.3923115961340E+00 -0.2283227383486E+01 -0.8887304178014E+00  0.3021933356540E+00
 0.3747259804851E+00 -0.2302735282877E+01 -0.9061643698259E+00  0.3235868233374E+00
-0.1795828235034E+01 -0.2721195397174E+01 -0.2123001101753E+01  0.7233287326694E+00
-0.1433745681265E+01 -0.2827759947174E+01 -0.2002907640286E+01  0.7162078314073E+00
-0.1109968804309E+01 -0.2893507748251E+01 -0.1881633974930E+01  0.6665997544468E+00
-0.8289694769583E+00 -0.2920199347187E+01 -0.1762109342879E+01  0.5956226226371E+00
-0.5911281887963E+00 -0.2913609550600E+01 -0.1647226733338E+01  0.5178050144033E+00
-0.3921456574703E+00 -0.2879748704167E+01 -0.1537790346069E+01  0.4408278883609E+00
-0.2261827121693E+00 -0.2823499664734E+01 -0.1433350713509E+01  0.3699926385323E+00
-0.8970557126156E-01 -0.2752447947052E+01 -0.1335812150219E+01  0.3109063557555E+00
 0.2237867023746E-01 -0.2674248561466E+01 -0.1246378845716E+01  0.2654307384158E+00
 0.1146690405325E+00 -0.2594728138604E+01 -0.1165627773137E+01  0.2328510036000E+00
 0.1902692601160E+00 -0.2517901820826E+01 -0.1093987300759E+01  0.2119327857556E+00
 0.2514096335867E+00 -0.2446530823294E+01 -0.1031706956546E+01  0.2014438862675E+00
 0.3000265083421E+00 -0.2382457758496E+01 -0.9787426850897E+00  0.1999983787370E+00
 0.3375423387580E+00 -0.2326928293593E+01 -0.9350113964008E+00  0.2061933514992E+00
 0.3648488794302E+00 -0.2280876986966E+01 -0.9005332082577E+00  0.2187853908814E+00
 0.3826737816347E+00 -0.2244952014639E+01 -0.8752707672920E+00  0.2365297659116E+00
 0.3920053473681E+00 -0.2219036770654E+01 -0.8587047667663E+00  0.2579012274663E+00
 0.3863548512052E+00 -0.2206929700084E+01 -0.8556701768028E+00  0.2833213818917E+00
 0.3673641690773E+00 -0.2213291776401E+01 -0.8675859732418E+00  0.3113757254505E+00
 0.3438266163953E+00 -0.2240188204592E+01 -0.8912899441916E+00  0.3372721010754E+00
-0.1817861377324E+01 -0.2817508787391E+01 -0.2178623971891E+01  0.7649882153717E+00
-0.1420005269849E+01 -0.2931549967071E+01 -0.2045230956165E+01  0.7407593547764E+00
-0.1074166109766E+01 -0.2993161372432E+01 -0.1911643911785E+01  0.6704041198962E+00
-0.7812084172818E+00 -0.3006959877599E+01 -0.1780439094078E+01  0.5793550600717E+00
-0.5391615924575E+00 -0.2981653747945E+01 -0.1654783205792E+01  0.4847269943066E+00
-0.3412674773942E+00 -0.2925861190630E+01 -0.1535550470077E+01  0.3950678695016E+00
-0.1798215881545E+00 -0.2846849439039E+01 -0.1422535379173E+01  0.3163558886448E+00
-0.4972821799122E-01 -0.2754153556109E+01 -0.1317824430485E+01  0.2543513942176E+00
 0.5549823615185E-01 -0.2656602593491E+01 -0.1222519044849E+01  0.2098375135937E+00
 0.1409789574055E+00 -0.2560518581023E+01 -0.1137183620216E+01  0.1808802361484E+00
 0.2099133054862E+00 -0.2469942513474E+01 -0.1062213725060E+01  0.1653762436382E+00
 0.2645653995088E+00 -0.2387434366637E+01 -0.9977484120196E+00  0.1614887607463E+00
 0.3069460395944E+00 -0.2314496352022E+01 -0.9435486444477E+00  0.1673515376307E+00
 0.3384336603041E+00 -0.2252023723114E+01 -0.8993873272394E+00  0.1812089980876E+00
 0.3598015749582E+00 -0.2200673250506E+01 -0.8652096853131E+00  0.2015651267923E+00
 0.3716676257161E+00 -0.2160865609245E+01 -0.8409230501258E+00  0.2269384491449E+00
 0.3749416672322E+00 -0.2132145223259E+01 -0.8258856692377E+00  0.2555126991693E+00
 0.3620170681558E+00 -0.2119339783187E+01 -0.8259416739699E+00  0.2876559956982E+00
 0.3357792819842E+00 -0.2128965221295E+01 -0.8427973893382E+00  0.3214629653245E+00
 0.3069022816424E+00 -0.2164585809899E+01 -0.8731112560662E+00  0.3514202365955E+00
-0.1839557004232E+01 -0.2922967816277E+01 -0.2238386659962E+01  0.8092239389474E+00
-0.1401274594308E+01 -0.3043951814213E+01 -0.2089256406706E+01  0.7623969215731E+00
-0.1032941315588E+01 -0.3097977977019E+01 -0.1941532062601E+01  0.6669520357081E+00
-0.7295285638066E+00 -0.3093899560239E+01 -0.1797011213743E+01  0.5530117725543E+00
-0.4856820808313E+00 -0.3044452775492E+01 -0.1659163378264E+01  0.4404328026358E+00
-0.2914474370238E+00 -0.2961771821026E+01 -0.1529013047405E+01  0.3384403696597E+00
-0.1368679081377E+00 -0.2856301456509E+01 -0.1406789597816E+01  0.2534344861767E+00
-0.1485860713281E-01 -0.2739721461716E+01 -0.1294652629075E+01  0.1907391173474E+00
 0.8248921887812E-01 -0.2621810796058E+01 -0.1193481138248E+01  0.1494569549443E+00
 0.1605691416613E+00 -0.2509034416879E+01 -0.1103778676553E+01  0.1261350165203E+00
 0.2225026495420E+00 -0.2405112411793E+01 -0.1025826585656E+01  0.1176978945487E+00
 0.2705074174165E+00 -0.2312122700193E+01 -0.9595591804713E+00  0.1216783613325E+00
 0.3066194193751E+00 -0.2231013436302E+01 -0.9044651856616E+00  0.1357393060497E+00
 0.3321291996806E+00 -0.2162181082175E+01 -0.8601243825909E+00  0.1577992843272E+00
 0.3476705660271E+00 -0.2105921717553E+01 -0.8263780391211E+00  0.1861357238013E+00
 0.3537472174888E+00 -0.2062402712324E+01 -0.8030680805355E+00  0.2190577843467E+00
 0.3511957367732E+00 -0.2030835075611E+01 -0.7894304872517E+00  0.2544987587739E+00
 0.3314558111424E+00 -0.2017253929321E+01 -0.7923251135341E+00  0.2928127476151E+00
 0.2985854209414E+00 -0.2030465541173E+01 -0.8139836544444E+00  0.3317534286457E+00
 0.2648355240137E+00 -0.2075942792984E+01 -0.8512204142568E+00  0.3652900429598E+00
-0.1860947967763E+01 -0.3039369245270E+01 -0.2303149084284E+01  0.8563887806910E+00
-0.1376927893941E+01 -0.3166241681966E+01 -0.2135289695260E+01  0.7800793989566E+00
-0.9860871499103E+00 -0.3208051356281E+01 -0.1971245092910E+01  0.6546074011642E+00
-0.6743450835806E+00 -0.3179835370330E+01 -0.1811464808744E+01  0.5149804439535E+00
-0.4316495980408E+00 -0.3099853118378E+01 -0.1659806272507E+01  0.3838350765857E+00
-0.2439669798629E+00 -0.2984910758117E+01 -0.1517572533001E+01  0.2706840790474E+00
-0.9865098832197E-01 -0.2849478447939E+01 -0.1385620831528E+01  0.1818197205947E+00
 0.1379450485941E-01 -0.2707367102553E+01 -0.1265979117705E+01  0.1212602629897E+00
 0.1025595549424E+00 -0.2568828212071E+01 -0.1159146265910E+01  0.8576167075911E-01
 0.1729448262681E+00 -0.2439930273442E+01 -0.1065483157469E+01  0.7012129955920E-01
 0.2278014423539E+00 -0.2323626306687E+01 -0.9850376837383E+00  0.7026776327576E-01
 0.2692271532882E+00 -0.2221201731729E+01 -0.9174280495404E+00  0.8313717338707E-01
 0.2992373668270E+00 -0.2132848188020E+01 -0.8617970837747E+00  0.1059756926473E+00
 0.3190007578882E+00 -0.2058340448613E+01 -0.8174896525674E+00  0.1364341504256E+00
 0.3290037183442E+00 -0.1997557938495E+01 -0.7842204814818E+00  0.1726138327386E+00
 0.3296395216576E+00 -0.1950411348494E+01 -0.7617627566809E+00  0.2126690526783E+00
 0.3216763000120E+00 -0.1915801481666E+01 -0.7492388334770E+00  0.2543551755249E+00
 0.2957650477810E+00 -0.1901157839550E+01 -0.7545346102179E+00  0.2980699583232E+00
 0.2569387061981E+00 -0.1918023160246E+01 -0.7807096914225E+00  0.3413982410357E+00
 0.2186767162379E+00 -0.1974211592781E+01 -0.8251013898822E+00  0.3779988822853E+00
-0.1882153444174E+01 -0.3168958603553E+01 -0.2374022656410E+01  0.9068537574736E+00
-0.1346330926393E+01 -0.3299889038567E+01 -0.2183723377992E+01  0.7924398001622E+00
-0.9335119899002E+00 -0.3323261872544E+01 -0.2000683710274E+01  0.6313829576137E+00
-0.6162745329259E+00 -0.3263052895250E+01 -0.1823283886618E+01  0.4634764188804E+00
-0.3782330621477E+00 -0.3145098837342E+01 -0.1655965988560E+01  0.3139608575907E+00
-0.2002432850469E+00 -0.2992305113209E+01 -0.1500497743374E+01  0.1919204810170E+00
-0.6649957636763E-01 -0.2823945836211E+01 -0.1358509340467E+01  0.1026053434657E+00
 0.3525740866735E-01 -0.2655568639801E+01 -0.1231546275509E+01  0.4755449531741E-01
 0.1151276374244E+00 -0.2497071646980E+01 -0.1119513681652E+01  0.2052833174121E-01
 0.1778537087885E+00 -0.2353387674169E+01 -0.1022500961135E+01  0.1448796467975E-01
 0.2258266969468E+00 -0.2226197868771E+01 -0.9401744483727E+00  0.2446054063812E-01
 0.2609665504603E+00 -0.2115706590689E+01 -0.8717278166963E+00  0.4689295526760E-01
 0.2852299113823E+00 -0.2021193812404E+01 -0.8159030314110E+00  0.7871333329130E-01
 0.2996430855669E+00 -0.1941730270299E+01 -0.7717809748667E+00  0.1173881138028E+00
 0.3045512532791E+00 -0.1876749427141E+01 -0.7389331398407E+00  0.1609102083009E+00
 0.3002471045992E+00 -0.1825917265469E+01 -0.7170649737899E+00  0.2073535660039E+00
 0.2874358115065E+00 -0.1787857229983E+01 -0.7051980648952E+00  0.2543917851321E+00
 0.2561667793642E+00 -0.1771588073294E+01 -0.7122480063407E+00  0.3025309680547E+00
 0.2121473116214E+00 -0.1791848482833E+01 -0.7424595485864E+00  0.3493779913432E+00
 0.1696650543803E+00 -0.1859258656805E+01 -0.7941089911253E+00  0.3885074630150E+00
-0.1903463343390E+01 -0.3314615995968E+01 -0.2452497283278E+01  0.9609854913944E+00
-0.1308881878483E+01 -0.3446606955908E+01 -0.2235079746495E+01  0.7976686361651E+00
-0.8752829758055E+00 -0.3443138619367E+01 -0.2029658144583E+01  0.5948538636727E+00
-0.5561584278873E+00 -0.3341081259018E+01 -0.1831702648199E+01  0.3965591522871E+00
-0.3267988892557E+00 -0.3176684678092E+01 -0.1646637272477E+01  0.2300735335684E+00
-0.1617827463802E+00 -0.2980618613964E+01 -0.1476928635616E+01  0.1028122526037E+00
-0.4166747425072E-01 -0.2777406250911E+01 -0.1324964647466E+01  0.1748659944226E-01
 0.4876416977540E-01 -0.2583303315952E+01 -0.1191233395682E+01 -0.2828965053721E-01
 0.1198767265560E+00 -0.2406596807025E+01 -0.1074758435094E+01 -0.4423875226535E-01
 0.1753224040587E+00 -0.2250194440253E+01 -0.9751898545379E+00 -0.3908185736793E-01
 0.2168664252054E+00 -0.2114038853049E+01 -0.8916710388249E+00 -0.1844733578681E-01
 0.2462167536756E+00 -0.1997058763554E+01 -0.8228957425555E+00  0.1379995736992E-01
 0.2652484378421E+00 -0.1897541882143E+01 -0.7671779168756E+00  0.5439644180220E-01
 0.2748447170838E+00 -0.1813812369100E+01 -0.7233147946128E+00  0.1007166871881E+00
 0.2752312211765E+00 -0.1744845692238E+01 -0.6907187996470E+00  0.1507197231054E+00
 0.2666147196273E+00 -0.1690081565342E+01 -0.6690294157889E+00  0.2024865146672E+00
 0.2496455048242E+00 -0.1647901926527E+01 -0.6571805165337E+00  0.2537240981327E+00
 0.2140098082981E+00 -0.1629112933149E+01 -0.6650984669930E+00  0.3051111882755E+00
 0.1656947797115E+00 -0.1652120390045E+01 -0.6986200350847E+00  0.3544864228013E+00
 0.1192541974334E+00 -0.1730849952723E+01 -0.7574500030652E+00  0.3956007666638E+00
-0.1925492176809E+01 -0.3480151967311E+01 -0.2540652741293E+01  0.1019103309857E+01
-0.1264083163837E+01 -0.3608414730812E+01 -0.2290074004677E+01  0.7933371892746E+00
-0.8116734071432E+00 -0.3566618651384E+01 -0.2057797262288E+01  0.5420416198671E+00
-0.4950647233747E+00 -0.3410352146457E+01 -0.1835545924165E+01  0.3121830051459E+00
-0.2788695059253E+00 -0.3190199370473E+01 -0.1630462367772E+01  0.1318643561350E+00
-0.1301145678161E+00 -0.2946302780877E+01 -0.1445916150218E+01  0.4761917656757E-02
-0.2525469765660E-01 -0.2708030204053E+01 -0.1284643900545E+01 -0.7116666560018E-01
 0.5382225908520E-01 -0.2490345158760E+01 -0.1145165759943E+01 -0.1038032238660E+00
 0.1168009628650E+00 -0.2298242052159E+01 -0.1025277309367E+01 -0.1064505430165E+00
 0.1656832823971E+00 -0.2131742433790E+01 -0.9240477988110E+00 -0.8901515813474E-01
 0.2014814845097E+00 -0.1988784807683E+01 -0.8400325597608E+00 -0.5738253778552E-01
 0.2256970122104E+00 -0.1866981513551E+01 -0.7714037136734E+00 -0.1552030533927E-01
 0.2401315683081E+00 -0.1763611740454E+01 -0.7160356790927E+00  0.3323500843049E-01
 0.2455515530442E+00 -0.1676225588964E+01 -0.6724167951768E+00  0.8624954157243E-01
 0.2420969970997E+00 -0.1603333848965E+01 -0.6397813187539E+00  0.1415231625351E+00
 0.2299038774491E+00 -0.1544171398822E+01 -0.6177057334785E+00  0.1972407316900E+00
 0.2095795542855E+00 -0.1496912764850E+01 -0.6050466074308E+00  0.2512752740963E+00
 0.1707750994298E+00 -0.1474340599399E+01 -0.6126757834318E+00  0.3045338682758E+00
 0.1192708294118E+00 -0.1498999402332E+01 -0.6484724276275E+00  0.3553161675144E+00
 0.6915556770820E-01 -0.1588651315918E+01 -0.7141629998472E+00  0.3978613081030E+00
-0.1949469374036E+01 -0.3670804546618E+01 -0.2641528736008E+01  0.1081396456624E+01
-0.1211666654013E+01 -0.3787708922502E+01 -0.2349706515002E+01  0.7761187358277E+00
-0.7431972423698E+00 -0.3691605242789E+01 -0.2084357162738E+01  0.4692599323182E+00
-0.4342363408250E+00 -0.3465678077046E+01 -0.1832959771750E+01  0.2083206101127E+00
-0.2360396316415E+00 -0.3180211641682E+01 -0.1605638094390E+01  0.1975227523391E-01
-0.1067223909645E+00 -0.2885973829624E+01 -0.1406567220109E+01 -0.9986027568076E-01
-0.1814644323014E-01 -0.2614968170354E+01 -0.1237563865246E+01 -0.1603149116617E+00
 0.5026197229325E-01 -0.2377566570885E+01 -0.1093833158564E+01 -0.1763181510317E+00
 0.1062469915521E+00 -0.2173644259476E+01 -0.9716767134595E+00 -0.1641488150835E+00
 0.1495884470907E+00 -0.1999894519848E+01 -0.8696438519902E+00 -0.1340029703015E+00
 0.1804826300976E+00 -0.1852355087638E+01 -0.7857800530512E+00 -0.9154923982626E-01
 0.2003083471248E+00 -0.1727407414742E+01 -0.7177365599595E+00 -0.4070129418313E-01
 0.2108586437309E+00 -0.1621290829142E+01 -0.6629031254619E+00  0.1520467913200E-01
 0.2128308564125E+00 -0.1530738346107E+01 -0.6194165185855E+00  0.7359816636487E-01
 0.2063127252958E+00 -0.1453800416837E+01 -0.5863192135370E+00  0.1325994424771E+00
 0.1913772854871E+00 -0.1389542666997E+01 -0.5631377278815E+00  0.1906021088575E+00
 0.1686075020661E+00 -0.1335959785668E+01 -0.5486555719015E+00  0.2457910828449E+00
 0.1280887906465E+00 -0.1307962711348E+01 -0.5545407413230E+00  0.2993354208342E+00
 0.7481625732055E-01 -0.1332676044148E+01 -0.5911940983094E+00  0.3502462986295E+00
 0.2141071030243E-01 -0.1432253815401E+01 -0.6630962577146E+00  0.3936339209077E+00
-0.1977815999427E+01 -0.3894128622082E+01 -0.2759813965109E+01  0.1147759491903E+01
-0.1151809363933E+01 -0.3987315079188E+01 -0.2415388482140E+01  0.7413267643740E+00
-0.6705785768232E+00 -0.3814119562300E+01 -0.2107808120042E+01  0.3719183591691E+00
-0.3749213692016E+00 -0.3499456310357E+01 -0.1820957504774E+01  0.8323980370438E-01
-0.1998616345230E+00 -0.3140361971108E+01 -0.1569905090664E+01 -0.1046539829105E+00
-0.9302868853870E-01 -0.2797209022021E+01 -0.1358411720517E+01 -0.2075108971863E+00
-0.2100706450303E-01 -0.2499038311711E+01 -0.1184421323817E+01 -0.2464287941182E+00
 0.3828603215123E-01 -0.2247063640110E+01 -0.1038125473108E+01 -0.2433037911234E+00
 0.8896082200337E-01 -0.2034996322423E+01 -0.9146366828774E+00 -0.2157601518734E+00
 0.1280013230035E+00 -0.1856716249920E+01 -0.8124960135901E+00 -0.1731017907532E+00
 0.1548637794914E+00 -0.1706821344596E+01 -0.7294200537493E+00 -0.1204340364394E+00
 0.1710652281183E+00 -0.1580430906184E+01 -0.6624018670109E+00 -0.6161258167258E-01
 0.1785032080909E+00 -0.1472600992974E+01 -0.6082259573524E+00  0.6022468628639E-04
 0.1778466186406E+00 -0.1379202138526E+01 -0.5646370929142E+00  0.6216771515005E-01
 0.1691407110743E+00 -0.1297888701117E+01 -0.5305115539744E+00  0.1230465571905E+00
 0.1523924321925E+00 -0.1227631192936E+01 -0.5053622162674E+00  0.1814016981964E+00
 0.1281930880518E+00 -0.1166252591159E+01 -0.4878879652232E+00  0.2358747240457E+00
 0.8774341506070E-01 -0.1130848650718E+01 -0.4902594595153E+00  0.2878855617160E+00
 0.3458699665320E-01 -0.1153471882114E+01 -0.5258758948329E+00  0.3374356753921E+00
-0.2149407788991E-01 -0.1261239193277E+01 -0.6028846359192E+00  0.3809837155848E+00
-0.2015363240664E+01 -0.4161707308420E+01 -0.2903223150706E+01  0.1217450263970E+01
-0.1085510151702E+01 -0.4210426846895E+01 -0.2489090383027E+01  0.6821029179050E+00
-0.5944762870967E+00 -0.3926560280683E+01 -0.2124887181467E+01  0.2443061286351E+00
-0.3179900120507E+00 -0.3500536442157E+01 -0.1794707428925E+01 -0.6389103240556E-01
-0.1717818229948E+00 -0.3064077237396E+01 -0.1520853754526E+01 -0.2378756965500E+00
-0.9059400320738E-01 -0.2680072619247E+01 -0.1302213309251E+01 -0.3134452326615E+00
-0.3430246743893E-01 -0.2363319332254E+01 -0.1126882242998E+01 -0.3259936406489E+00
 0.1856894456752E-01 -0.2101763844944E+01 -0.9791016006934E+00 -0.3028426695113E+00
 0.6616385415025E-01 -0.1884445434618E+01 -0.8545923406523E+00 -0.2602680821943E+00
 0.1021023483035E+00 -0.1704247791406E+01 -0.7530083563483E+00 -0.2056923932523E+00
 0.1256917696051E+00 -0.1554403161099E+01 -0.6714943522992E+00 -0.1437344293467E+00
 0.1390258718902E+00 -0.1428335757025E+01 -0.6059756444764E+00 -0.7833154736792E-01
 0.1442074434991E+00 -0.1319665495844E+01 -0.5524652832009E+00 -0.1266512109307E-01
 0.1418522995367E+00 -0.1223476842217E+01 -0.5083635337704E+00  0.5116458948906E-01
 0.1319374846905E+00 -0.1137237107970E+01 -0.4724908217428E+00  0.1118176430039E+00
 0.1143989461171E+00 -0.1059953450013E+01 -0.4444106157037E+00  0.1683768213381E+00
 0.8989851374901E-01 -0.9892302266219E+00 -0.4226859039782E+00  0.2200537920745E+00
 0.5172710551286E-01 -0.9442145362572E+00 -0.4194690913859E+00  0.2684323788776E+00
 0.1241364879924E-02 -0.9620197585275E+00 -0.4515658438690E+00  0.3148304835557E+00
-0.5645401478898E-01 -0.1075307624886E+01 -0.5319279692982E+00  0.3576516834477E+00
-0.2072241223895E+01 -0.4492849353295E+01 -0.3085592563453E+01  0.1288315618136E+01
-0.1015117331607E+01 -0.4459964501312E+01 -0.2573288454945E+01  0.5878885308684E+00
-0.5145378535232E+00 -0.4014028877510E+01 -0.2128426358187E+01  0.7948201042897E-01
-0.2631002746705E+00 -0.3452793000086E+01 -0.1746469834706E+01 -0.2316788982133E+00
-0.1537054700371E+00 -0.2947210562393E+01 -0.1457430531546E+01 -0.3736961638664E+00
-0.1015862634944E+00 -0.2539341465072E+01 -0.1241236029278E+01 -0.4122465242712E+00
-0.5826888963789E-01 -0.2212907161006E+01 -0.1067452741095E+01 -0.3964759669998E+00
-0.7316470491029E-02 -0.1943890437595E+01 -0.9170672444745E+00 -0.3540273108994E+00
 0.3942669662679E-01 -0.1723600557765E+01 -0.7915617127272E+00 -0.2970712470347E+00
 0.7310806666965E-01 -0.1544584274395E+01 -0.6915938158770E+00 -0.2312754528376E+00
 0.9398223324381E-01 -0.1397664668287E+01 -0.6127307429160E+00 -0.1612837430647E+00
 0.1052645699425E+00 -0.1273632989558E+01 -0.5491331558264E+00 -0.9117018404981E-01
 0.1091902401800E+00 -0.1164605754992E+01 -0.4960452907035E+00 -0.2369488753563E-01
 0.1061916504619E+00 -0.1065296612895E+01 -0.4507793312002E+00  0.3961056314746E-01
 0.9614164378037E-01 -0.9734020314953E+00 -0.4123123811803E+00  0.9779092401865E-01
 0.7893852245084E-01 -0.8881195868636E+00 -0.3803150993094E+00  0.1502781481888E+00
 0.5539472487710E-01 -0.8067094547213E+00 -0.3531179221311E+00  0.1968961428866E+00
 0.2226205197341E-01 -0.7498959314766E+00 -0.3419879224991E+00  0.2391891562532E+00
-0.2205197001172E-01 -0.7595683659681E+00 -0.3673615569788E+00  0.2802023160086E+00
-0.7948857699275E-01 -0.8745022639351E+00 -0.4483756940988E+00  0.3210166566174E+00
-0.2171067844802E+01 -0.4923199455919E+01 -0.3334305622882E+01  0.1354918761756E+01
-0.9453406581259E+00 -0.4736345026233E+01 -0.2670392264876E+01  0.4412359374228E+00
-0.4253483446433E+00 -0.4044907557719E+01 -0.2101020268781E+01 -0.1301305573779E+00
-0.2086906978078E+00 -0.3336082164925E+01 -0.1666043241259E+01 -0.4136324106561E+00
-0.1496627996652E+00 -0.2794236081955E+01 -0.1383632470852E+01 -0.5025715950090E+00
-0.1302559754878E+00 -0.2387190199958E+01 -0.1183199699458E+01 -0.4997096135333E+00
-0.9095392362931E-01 -0.2050485071431E+01 -0.1006476325125E+01 -0.4574834887555E+00
-0.3713591862424E-01 -0.1773827147812E+01 -0.8511526390661E+00 -0.3966205380428E+00
 0.1042418960054E-01 -0.1553690187170E+01 -0.7253350170179E+00 -0.3254681086615E+00
 0.4201642989947E-01 -0.1380477124972E+01 -0.6290765250884E+00 -0.2492613913778E+00
 0.6064749915235E-01 -0.1239772358818E+01 -0.5541886826372E+00 -0.1731188544122E+00
 0.7092403873811E-01 -0.1118930002490E+01 -0.4925628017141E+00 -0.1008034892668E+00
 0.7477472482680E-01 -0.1009296104823E+01 -0.4392250474842E+00 -0.3405176832284E-01
 0.7226069478991E-01 -0.9061106529209E+00 -0.3919094793275E+00  0.2640044038666E-01
 0.6325182027844E-01 -0.8077740869407E+00 -0.3499254644437E+00  0.7989277013339E-01
 0.4763840651410E-01 -0.7138733024160E+00 -0.3131304002797E+00  0.1260350866286E+00
 0.2650375475394E-01 -0.6210668135723E+00 -0.2794446369359E+00  0.1651954785652E+00
 0.1834869519382E-02 -0.5507730335324E+00 -0.2580009364317E+00  0.1984989155255E+00
-0.3149687705379E-01 -0.5484887115382E+00 -0.2725932259468E+00  0.2312512892788E+00
-0.8536538784587E-01 -0.6595987295752E+00 -0.3501331342998E+00  0.2680833004942E+00
-0.2373500767135E+01 -0.5533496155375E+01 -0.3716288544154E+01  0.1402394722926E+01
-0.8768941559143E+00 -0.5020373544862E+01 -0.2771715812335E+01  0.2108271242095E+00
-0.3102131248752E+00 -0.3954915856918E+01 -0.2004610616358E+01 -0.3892015275422E+00
-0.1497518045800E+00 -0.3130742364135E+01 -0.1541832255385E+01 -0.5919814812574E+00
-0.1801660472317E+00 -0.2641568579111E+01 -0.1326215271017E+01 -0.6137598701400E+00
-0.1731374091060E+00 -0.2228305143251E+01 -0.1128677996745E+01 -0.5767337457848E+00
-0.1295366287425E+00 -0.1874293674502E+01 -0.9418002401361E+00 -0.5100880740095E+00
-0.6801467132885E-01 -0.1589973961986E+01 -0.7792546556816E+00 -0.4298777884533E+00
-0.1957314911450E-01 -0.1376992424755E+01 -0.6563858180538E+00 -0.3440805701188E+00
 0.9390946931979E-02 -0.1216265879697E+01 -0.5672312169610E+00 -0.2590770171155E+00
 0.2664605986018E-01 -0.1084343661455E+01 -0.4971178714887E+00 -0.1798123344509E+00
 0.3734623124191E-01 -0.9664313939743E+00 -0.4366700253767E+00 -0.1084294722956E+00
 0.4231302420992E-01 -0.8551005408933E+00 -0.3820101318723E+00 -0.4501684485286E-01
 0.4145042958911E-01 -0.7469281162836E+00 -0.3315745119054E+00  0.1043662972517E-01
 0.3473109125988E-01 -0.6415894436323E+00 -0.2852234248916E+00  0.5726657651418E-01
 0.2229153346238E-01 -0.5390244435308E+00 -0.2428644671162E+00  0.9497164358421E-01
 0.5214544585770E-02 -0.4354805766798E+00 -0.2022250345713E+00  0.1242666702903E+00
-0.6747351005234E-02 -0.3513091326596E+00 -0.1682865468956E+00  0.1451464284677E+00
-0.2263359348998E-01 -0.3331681978290E+00 -0.1672268414958E+00  0.1658723875012E+00
-0.6705860850044E-01 -0.4328458441318E+00 -0.2349550921412E+00  0.1955613674545E+00
-0.2842306674598E+01 -0.6517567879312E+01 -0.4399141029180E+01  0.1389904792541E+01
-0.8197145621392E+00 -0.5250554451049E+01 -0.2853026428962E+01 -0.1702664036237E+00
-0.4824055656465E-01 -0.3531984322162E+01 -0.1682705688733E+01 -0.6784066511228E+00
-0.1821587829993E+00 -0.2964551746948E+01 -0.1478953945324E+01 -0.7288023323672E+00
-0.2316698203501E+00 -0.2497492382340E+01 -0.1282706232011E+01 -0.7100176928002E+00
-0.2282441714701E+00 -0.2060606639854E+01 -0.1075759878594E+01 -0.6482285280173E+00
-0.1688517426425E+00 -0.1675953760174E+01 -0.8670585841248E+00 -0.5544832663254E+00
-0.9701389440760E-01 -0.1391091786202E+01 -0.6994096681127E+00 -0.4510514391476E+00
-0.5067232232768E-01 -0.1199901003945E+01 -0.5877694618574E+00 -0.3508435283308E+00
-0.2437603560092E-01 -0.1057906166645E+01 -0.5086726337653E+00 -0.2609613238014E+00
-0.6584744123747E-02 -0.9342761241554E+00 -0.4422046069696E+00 -0.1829239766691E+00
 0.6014320907731E-02 -0.8173548302536E+00 -0.3813300384254E+00 -0.1157236655446E+00
 0.1307226274114E-01 -0.7027161492197E+00 -0.3241326258228E+00 -0.5790971565755E-01
 0.1477893962709E-01 -0.5886095701620E+00 -0.2697003956673E+00 -0.9224443644337E-02
 0.1235381806119E-01 -0.4753830707752E+00 -0.2176237482236E+00  0.2943949887420E-01
 0.4498214776598E-02 -0.3658281295492E+00 -0.1698250595124E+00  0.5711372962934E-01
-0.6018776716917E-02 -0.2537440788882E+00 -0.1220885418247E+00  0.7433552079743E-01
-0.3776809955662E-03 -0.1581011401314E+00 -0.7448504574075E-01  0.7899081384141E-01
 0.9424997490708E-02 -0.1215441990238E+00 -0.5269602458688E-01  0.8286478464850E-01
-0.1514057801691E-01 -0.1996729542891E+00 -0.1009623599277E+00  0.1003167014260E+00
-0.4989770892818E+01 -0.9275337563938E+01 -0.6704600957670E+01  0.1035056456134E+01
 0.2624436629059E+00 -0.3965389380478E+01 -0.1740384482845E+01 -0.8171076600153E+00
-0.1218153013142E+00 -0.3300578741582E+01 -0.1608525196081E+01 -0.8486844088203E+00
-0.2303439667599E+00 -0.2826198547428E+01 -0.1436574978025E+01 -0.8277787248813E+00
-0.3106780518330E+00 -0.2373719725413E+01 -0.1261666952106E+01 -0.8042477250350E+00
-0.2891180553798E+00 -0.1868284035982E+01 -0.1013978980368E+01 -0.7195887999586E+00
-0.1988187207617E+00 -0.1438480542166E+01 -0.7695306516242E+00 -0.5866194342022E+00
-0.1251681162624E+00 -0.1186319556505E+01 -0.6163992046373E+00 -0.4542888870635E+00
-0.8427568832277E-01 -0.1034294921292E+01 -0.5257281851853E+00 -0.3448324447583E+00
-0.5773605988148E-01 -0.9099972958055E+00 -0.4548346760192E+00 -0.2572130780594E+00
-0.3717859732363E-01 -0.7903918167254E+00 -0.3889580936165E+00 -0.1849682772593E+00
-0.2154573660207E-01 -0.6715458729656E+00 -0.3257530556706E+00 -0.1243658443365E+00
-0.1235190942801E-01 -0.5529075532173E+00 -0.2656719467694E+00 -0.7376945540495E-01
-0.6764166280971E-02 -0.4316551999633E+00 -0.2060571016122E+00 -0.3329972768901E-01
-0.3179442372800E-02 -0.3100895106864E+00 -0.1472364075644E+00 -0.3867864522164E-02
-0.9490275203035E-03 -0.1924152407353E+00 -0.9088120584961E-01  0.1376813229991E-01
-0.8357454063041E-02 -0.8589219416404E-01 -0.4429733455437E-01  0.1754526988619E-01
 0.2569834115048E-01  0.2109924871594E-01  0.2199486718143E-01  0.6527002118829E-03
 0.7207189170702E-01  0.7911375144679E-01  0.7105725210206E-01 -0.1689646876754E-01
 0.7579322453392E-01  0.2203492916648E-01  0.4597923212257E-01 -0.1681328513014E-01
-0.1053754841333E+00 -0.4840625089202E+00 -0.2770358560325E+00  0.1030744015969E+00
-0.8268054378991E-01 -0.3780240687119E+00 -0.2165311673266E+00  0.1085737054494E+00
-0.8043906731675E-01 -0.3063162625392E+00 -0.1817750045713E+00  0.1141354381827E+00
-0.7531645050071E-01 -0.2417687397015E+00 -0.1490300390170E+00  0.1212125395922E+00
-0.6778320392789E-01 -0.1845975825263E+00 -0.1186189693326E+00  0.1293890013905E+00
-0.5696743477200E-01 -0.1346868205214E+00 -0.9007749975944E-01  0.1378231201673E+00
-0.4311905541866E-01 -0.9241029919952E-01 -0.6369879650898E-01  0.1455977437778E+00
-0.2680663046776E-01 -0.5784002352051E-01 -0.3978392727358E-01  0.1517881676657E+00
-0.8937000088415E-02 -0.3077428608302E-01 -0.1866430445323E-01  0.1555364354242E+00
 0.9345235957542E-02 -0.1071556718217E-01 -0.6440556739426E-03  0.1561272681850E+00
 0.2674876912899E-01  0.3103037778760E-02  0.1403034921106E-01  0.1530657273386E+00
 0.4196274157355E-01  0.1167294091750E-01  0.2520877070685E-01  0.1461458630296E+00
 0.5380863530856E-01  0.1613499590342E-01  0.3287350658625E-01  0.1354969667318E+00
 0.6140090317647E-01  0.1767192138315E-01  0.3716422744876E-01  0.1215905524596E+00
 0.6428592541063E-01  0.1737388033041E-01  0.3838010860094E-01  0.1051924248784E+00
 0.6252280176599E-01  0.1609870449421E-01  0.3695210784857E-01  0.8725467279963E-01
 0.5668569213817E-01  0.1436850706962E-01  0.3339547354296E-01  0.6876474838171E-01
 0.4777890536086E-01  0.1232504922897E-01  0.2824885858557E-01  0.5059258604190E-01
 0.3721557986048E-01  0.9841486557243E-02  0.2211682116023E-01  0.3340401027332E-01
 0.2603994080498E-01  0.6015062565730E-02  0.1506585154602E-01  0.1753395198415E-01
-0.8651096916281E-01 -0.5205245948678E+00 -0.2853067143708E+00  0.9013173963110E-01
-0.8157720389872E-01 -0.4390844952780E+00 -0.2447109979924E+00  0.9671960584271E-01
-0.7521541633704E-01 -0.3565705834558E+00 -0.2029394193879E+00  0.1037820185038E+00
-0.7103034986948E-01 -0.2865055104918E+00 -0.1680418539436E+00  0.1111475449942E+00
-0.6372661808524E-01 -0.2242787158558E+00 -0.1353625066089E+00  0.1198474337496E+00
-0.5302100482363E-01 -0.1698324127065E+00 -0.1047411059735E+00  0.1293001139042E+00
-0.3879228524807E-01 -0.1231823280724E+00 -0.7612806806755E-01  0.1385803263144E+00
-0.2151470098345E-01 -0.8448000867511E-01 -0.4981751341317E-01  0.1466220899773E+00
-0.2023122323738E-02 -0.5364632259296E-01 -0.2616463904448E-01  0.1523743425805E+00
 0.1851066577392E-01 -0.3031706504736E-01 -0.5549007644442E-02  0.1549052569479E+00
 0.3866379817643E-01 -0.1381926995497E-01  0.1167692823447E-01  0.1535055654700E+00
 0.5688402785456E-01 -0.3194210974192E-02  0.2523421386977E-01  0.1477861176992E+00
 0.7166221150159E-01  0.2744679303809E-02  0.3497123858984E-01  0.1377566140020E+00
 0.8174190358527E-01  0.5311953326688E-02  0.4091531264484E-01  0.1238627810250E+00
 0.8633343939129E-01  0.5806870702548E-02  0.4330594563426E-01  0.1069560275759E+00
 0.8527943163316E-01  0.5341841435012E-02  0.4259199823401E-01  0.8817860229284E-01
 0.7910956758710E-01  0.4680137136130E-02  0.3938116112003E-01  0.6877520958587E-01
 0.6897825531751E-01  0.4162344120689E-02  0.3437608164876E-01  0.4988696855087E-01
 0.5642173708449E-01  0.3682470072104E-02  0.2824897729195E-01  0.3240701055096E-01
 0.4374990633646E-01  0.3190991436592E-02  0.2206222189737E-01  0.1696764602419E-01
-0.7620986509987E-01 -0.5675166069579E+00 -0.3025514410998E+00  0.7947734274152E-01
-0.7268518150385E-01 -0.4893503313663E+00 -0.2641566903790E+00  0.8295493179309E-01
-0.6981003670741E-01 -0.4104041097808E+00 -0.2257006482770E+00  0.8979668994669E-01
-0.6555878997541E-01 -0.3358793087813E+00 -0.1886759059371E+00  0.9772912649758E-01
-0.5901640786145E-01 -0.2689773719241E+00 -0.1541570761082E+00  0.1069774779422E+00
-0.4874892383441E-01 -0.2095420573655E+00 -0.1213967608560E+00  0.1173350489402E+00
-0.3455731595266E-01 -0.1579017982212E+00 -0.9045578343231E-01  0.1280018206404E+00
-0.1667372065895E-01 -0.1142923566002E+00 -0.6155405615569E-01  0.1378913079356E+00
 0.4193539440079E-02 -0.7880944596137E-01 -0.3506947597606E-01  0.1458140866578E+00
 0.2692235401821E-01 -0.5126677642410E-01 -0.1144187850174E-01  0.1506274043135E+00
 0.5001899799271E-01 -0.3114873025854E-01  0.8869025812562E-02  0.1513710821683E+00
 0.7171987713148E-01 -0.1760138519121E-01  0.2543569114741E-01  0.1474019280695E+00
 0.9016222372167E-01 -0.9467006774659E-02  0.3792675186890E-01  0.1385168903097E+00
 0.1036293104651E+00 -0.5364918631200E-02  0.4618426404480E-01  0.1250404867403E+00
 0.1108449405688E+00 -0.3827586362389E-02  0.5029815634943E-01  0.1078396471198E+00
 0.1112511455177E+00 -0.3491576341421E-02  0.5064699738439E-01  0.8822854640866E-01
 0.1051729357674E+00 -0.3310476741696E-02  0.4787535562067E-01  0.6775243675858E-01
 0.9376524426501E-01 -0.2730693083493E-02  0.4278623894679E-01  0.4789922972280E-01
 0.7881158836050E-01 -0.1680006210673E-02  0.3625184351847E-01  0.2985688847151E-01
 0.6240158555276E-01 -0.4123980623584E-03  0.2913491804659E-01  0.1452641563491E-01
-0.6550310915460E-01 -0.6188119190879E+00 -0.3216280624582E+00  0.6879795910181E-01
-0.6406039758321E-01 -0.5426283213601E+00 -0.2851436971801E+00  0.6892870829733E-01
-0.6230868367970E-01 -0.4647585661629E+00 -0.2477216067977E+00  0.7388330298546E-01
-0.5935567280648E-01 -0.3892206210296E+00 -0.2108308575682E+00  0.8132931755408E-01
-0.5359614420588E-01 -0.3185448165168E+00 -0.1749062510960E+00  0.9071508600060E-01
-0.4413612734280E-01 -0.2543509113964E+00 -0.1402889078516E+00  0.1016662051750E+00
-0.3039004471931E-01 -0.1973761556642E+00 -0.1070501139087E+00  0.1134804013508E+00
-0.1236527651659E-01 -0.1482112979560E+00 -0.7547098981071E-01  0.1251032241152E+00
 0.9459051016727E-02 -0.1072164411871E+00 -0.4594597326353E-01  0.1352714541075E+00
 0.3410760813470E-01 -0.7446819398355E-01 -0.1896947530085E-01  0.1426618896381E+00
 0.6012155287782E-01 -0.4968801220756E-01  0.4903764102587E-02  0.1460490892013E+00
 0.8561186349989E-01 -0.3221062675968E-01  0.2509858120424E-01  0.1444731643917E+00
 0.1083975184136E+00 -0.2099080373764E-01  0.4108115579349E-01  0.1374124479586E+00
 0.1262526940845E+00 -0.1465812238253E-01  0.5244944856690E-01  0.1249380920207E+00
 0.1372638314446E+00 -0.1163224177870E-01  0.5904684699321E-01  0.1078065190291E+00
 0.1402422191858E+00 -0.1031110565721E-01  0.6106762320355E-01  0.8742820994301E-01
 0.1350584605339E+00 -0.9326933575111E-02  0.5909381752075E-01  0.6566046911395E-01
 0.1227316172479E+00 -0.7804461618739E-02  0.5401576300870E-01  0.4443615097479E-01
 0.1051332270305E+00 -0.5529353226509E-02  0.4681382056915E-01  0.2535935928344E-01
 0.8427059146253E-01 -0.2950255579975E-02  0.3822055776786E-01  0.9482890839661E-02
-0.5388902133416E-01 -0.6739168713347E+00 -0.3420687686867E+00  0.5789737825577E-01
-0.5433405806138E-01 -0.5992170427016E+00 -0.3071690165795E+00  0.5468134271916E-01
-0.5393121209571E-01 -0.5225196058655E+00 -0.2709318837546E+00  0.5696978301574E-01
-0.5208118429016E-01 -0.4464381447598E+00 -0.2343040840592E+00  0.6282568057857E-01
-0.4752940252235E-01 -0.3733440760180E+00 -0.1978105344122E+00  0.7146508375621E-01
-0.3918700756040E-01 -0.3050147967870E+00 -0.1617748476330E+00  0.8235796411918E-01
-0.2637107222108E-01 -0.2428010132868E+00 -0.1265108798678E+00  0.9481036492814E-01
-0.8790530525553E-02 -0.1876886802864E+00 -0.9234522884738E-01  0.1078237952753E+00
 0.1336083728293E-01 -0.1404149353211E+00 -0.5971542592648E-01  0.1201223811097E+00
 0.3937018329231E-01 -0.1014132098920E+00 -0.2916022242790E-01  0.1302600840794E+00
 0.6795567839483E-01 -0.7074947057987E-01 -0.1313082323637E-02  0.1367669946854E+00
 0.9725666452622E-01 -0.4806490708499E-01  0.2312012593874E-01  0.1383301478303E+00
 0.1249002265102E+00 -0.3255102772181E-01  0.4340412332046E-01  0.1340044522316E+00
 0.1481957720225E+00 -0.2296836993998E-01  0.5885687882952E-01  0.1234376505777E+00
 0.1644989740376E+00 -0.1772420769552E-01  0.6898414000581E-01  0.1070676332371E+00
 0.1717377128307E+00 -0.1503087403052E-01  0.7365221404926E-01  0.8621422103688E-01
 0.1689827321379E+00 -0.1316297124642E-01  0.7323528743324E-01  0.6296140761727E-01
 0.1568024936759E+00 -0.1079906647015E-01  0.6862161061266E-01  0.3976209408195E-01
 0.1371186611501E+00 -0.7337219023361E-02  0.6099727764484E-01  0.1883903983780E-01
 0.1124611038389E+00 -0.3015352696545E-02  0.5143950290642E-01  0.1626502305138E-02
-0.4096926896587E-01 -0.7323890836395E+00 -0.3634784248026E+00  0.4690098368886E-01
-0.4323005251270E-01 -0.6594441078503E+00 -0.3302568545330E+00  0.4045394727765E-01
-0.4424928456060E-01 -0.5841833645360E+00 -0.2953633443263E+00  0.3962184668213E-01
-0.4371196570385E-01 -0.5083366600739E+00 -0.2594628534575E+00  0.4302800988632E-01
-0.4056426969110E-01 -0.4337928327086E+00 -0.2229478375624E+00  0.4994560937353E-01
-0.3374015054731E-01 -0.3623097621378E+00 -0.1861434584899E+00  0.5985246680163E-01
-0.2237668316905E-01 -0.2954179964288E+00 -0.1493634990321E+00  0.7211726597505E-01
-0.5934093035550E-02 -0.2344410962809E+00 -0.1129763386922E+00  0.8584061194106E-01
 0.1573060888521E-01 -0.1804758794042E+00 -0.7743027694753E-01  0.9981403454288E-01
 0.4226320191326E-01 -0.1343552197879E+00 -0.4328324829129E-01  0.1125616932278E+00
 0.7271629642371E-01 -0.9656789087670E-01 -0.1121024936447E-01  0.1224447111247E+00
 0.1054630652884E+00 -0.6717770132932E-01  0.1799412101513E-01  0.1278214606146E+00
 0.1381634050702E+00 -0.4576073462241E-01  0.4342925500032E-01  0.1272656086777E+00
 0.1678425573696E+00 -0.3137950611026E-01  0.6413763392920E-01  0.1198384690059E+00
 0.1911650761314E+00 -0.2260932961410E-01  0.7922120066222E-01  0.1053913155594E+00
 0.2049784347381E+00 -0.1763776072488E-01  0.8805011656290E-01  0.8482766050541E-01
 0.2071023547901E+00 -0.1447095532283E-01  0.9053675751999E-01  0.6018742075657E-01
 0.1971171055442E+00 -0.1127703471098E-01  0.8734483307008E-01  0.3437590335615E-01
 0.1766673791842E+00 -0.6834925411710E-02  0.7982125307061E-01  0.1046044038338E-01
 0.1489683933456E+00 -0.8423140197886E-03  0.6961925710654E-01 -0.9248338592220E-02
-0.2671439376853E-01 -0.7941076461318E+00 -0.3857863577747E+00  0.3601898937414E-01
-0.3056387942945E-01 -0.7234173804953E+00 -0.3543711912658E+00  0.2650882603612E-01
-0.3302878778696E-01 -0.6501494186984E+00 -0.3210937562337E+00  0.2233259979581E-01
-0.3390823690311E-01 -0.5753428844181E+00 -0.2863480262947E+00  0.2265644885447E-01
-0.3235244259472E-01 -0.5004139889381E+00 -0.2504002221853E+00  0.2696536019133E-01
-0.2733798414354E-01 -0.4268759619773E+00 -0.2134805541353E+00  0.3486984890646E-01
-0.1790507012827E-01 -0.3562363069298E+00 -0.1758464467713E+00  0.4589080825816E-01
-0.3282399869163E-02 -0.2899439593210E+00 -0.1378163884698E+00  0.5930860881050E-01
 0.1700474303317E-01 -0.2293486234108E+00 -0.9980162352435E-01  0.7408309567396E-01
 0.4302071779530E-01 -0.1756326302758E+00 -0.6232759870774E-01  0.8883682820396E-01
 0.7428294456066E-01 -0.1297205737844E+00 -0.2605568566905E-01  0.1018981274163E+00
 0.1096131678955E+00 -0.9217208523904E-01  0.8197308827757E-02  0.1114079568031E+00
 0.1469977955386E+00 -0.6307879910121E-01  0.3944192822555E-01  0.1155012805501E+00
 0.1835096443930E+00 -0.4198495830686E-01  0.6651660229177E-01  0.1125763665918E+00
 0.2153864767450E+00 -0.2785084412615E-01  0.8814174710731E-01  0.1016569491249E+00
 0.2384167719069E+00 -0.1907446892638E-01  0.1030908821394E+00  0.8281791478523E-01
 0.2487776741572E+00 -0.1360027160155E-01  0.1105333789208E+00  0.5755847921108E-01
 0.2442622593772E+00 -0.9174618698740E-02  0.1104911908386E+00  0.2887143623931E-01
 0.2253871382797E+00 -0.3805343004451E-02  0.1041434435152E+00  0.7063689638953E-03
 0.1954595378157E+00  0.3586792661410E-02  0.9355177508695E-01 -0.2321692634262E-01
-0.1111265411869E-01 -0.8588857865436E+00 -0.4088992660742E+00  0.2551708629144E-01
-0.1625308537393E-01 -0.7911153328409E+00 -0.3794631555985E+00  0.1315912341704E-01
-0.2004417025727E-01 -0.7205528058811E+00 -0.3480805779022E+00  0.5590785420662E-02
-0.2233983745715E-01 -0.6477289705439E+00 -0.3149323389617E+00  0.2425602025743E-02
-0.2244935193560E-01 -0.5735965447609E+00 -0.2801415707368E+00  0.3405320850395E-02
-0.1943416501796E-01 -0.4993310772641E+00 -0.2438196632542E+00  0.8338371178926E-02
-0.1229577945485E-01 -0.4262365509292E+00 -0.2061101947577E+00  0.1696062567923E-01
-0.9909511669104E-04 -0.3556970683937E+00 -0.1672241964257E+00  0.2880541291631E-01
 0.1792424172593E-01 -0.2891311322564E+00 -0.1274672382260E+00  0.4310408539800E-01
 0.4225888812623E-01 -0.2279298200501E+00 -0.8726533778287E-01  0.5872284454541E-01
 0.7296062413746E-01 -0.1733667211147E+00 -0.4719086545960E-01  0.7414145834440E-01
 0.1094738324001E+00 -0.1264824297948E+00 -0.7994040755243E-02  0.8748454670618E-01
 0.1504151864797E+00 -0.8795278256688E-01  0.2935732976457E-01  0.9662377710577E-01
 0.1933462254767E+00 -0.5795851084248E-01  0.6363222571671E-01  0.9937822208805E-01
 0.2346015960363E+00 -0.3607799604597E-01  0.9330609175878E-01  0.9384746122822E-01
 0.2693262892507E+00 -0.2122333396282E-01  0.1166083886895E+00  0.7890705616475E-01
 0.2920222200508E+00 -0.1162048730874E-01  0.1317888140545E+00  0.5484583932906E-01
 0.2978998112920E+00 -0.4886996872048E-02  0.1377160224281E+00  0.2394913144302E-01
 0.2848579347170E+00  0.1659532427055E-02  0.1346632092161E+00 -0.9449309445952E-02
 0.2550403717149E+00  0.1033767597755E-01  0.1247276820991E+00 -0.3996193194648E-01
 0.5794657708952E-02 -0.9264999577948E+00 -0.4327314899428E+00  0.1567991184722E-01
-0.2636775946412E-03 -0.8623770396172E+00 -0.4054411360612E+00  0.7382859330475E-03
-0.5131860114993E-02 -0.7953307814099E+00 -0.3762174405625E+00 -0.1012090175215E-01
-0.8694546357832E-02 -0.7255192370093E+00 -0.3450804773073E+00 -0.1695951162465E-01
-0.1039586657585E-01 -0.6534859318407E+00 -0.3120244444644E+00 -0.1980462512123E-01
-0.9405140516570E-02 -0.5800294805351E+00 -0.2770342711916E+00 -0.1864734269511E-01
-0.4750119132005E-02 -0.5061407396453E+00 -0.2401187030163E+00 -0.1352426604702E-01
 0.4587592953952E-02 -0.4329721190121E+00 -0.2013407267367E+00 -0.4619142052551E-02
 0.1958828817185E-01 -0.3618137209676E+00 -0.1608459530060E+00  0.7637011746888E-02
 0.4109830534339E-01 -0.2940565222300E+00 -0.1188903616352E+00  0.2247579236925E-01
 0.6970299269091E-01 -0.2311306779036E+00 -0.7587101185752E-01  0.3871826461774E-01
 0.1055520591474E+00 -0.1744117556722E+00 -0.3236405728456E-01  0.5472940492051E-01
 0.1481214721947E+00 -0.1250947959869E+00  0.1082253779021E-01  0.6841825200263E-01
 0.1959010805861E+00 -0.8404334465838E-01  0.5257313575266E-01  0.7731399506653E-01
 0.2460164487524E+00 -0.5162979111164E-01  0.9136172885941E-01  0.7876673171499E-01
 0.2938550341399E+00 -0.2759109914605E-01  0.1251440491297E+00  0.7034674521206E-01
 0.3329385748168E+00 -0.1091275222530E-01  0.1513521362341E+00  0.5053755548605E-01
 0.3557179925103E+00  0.3487749728281E-03  0.1673513802926E+00  0.1976366253692E-01
 0.3558682161172E+00  0.9122131434046E-02  0.1715454629140E+00 -0.1859885599249E-01
 0.3315855814018E+00  0.1895414745583E-01  0.1647536721452E+00 -0.5818492819751E-01
 0.2391135495145E-01 -0.9966945365447E+00 -0.4572080941892E+00  0.6782061202595E-02
 0.1736960987709E-01 -0.9369604644588E+00 -0.4322077005571E+00 -0.1043718784974E-01
 0.1179053853180E-01 -0.8742719755457E+00 -0.4053662743684E+00 -0.2436252402196E-01
 0.7258560267843E-02 -0.8085332809146E+00 -0.3765991177488E+00 -0.3484786281075E-01
 0.4214531011582E-02 -0.7399536819054E+00 -0.3457974000430E+00 -0.4175286047832E-01
 0.3364394341361E-02 -0.6689733542752E+00 -0.3128362103754E+00 -0.4491244993869E-01
 0.5598580868953E-02 -0.5962261256748E+00 -0.2775949453547E+00 -0.4417457660992E-01
 0.1193081104810E-01 -0.5225283026280E+00 -0.2399808204339E+00 -0.3946879342287E-01
 0.2344484858299E-01 -0.4488775844406E+00 -0.1999533853459E+00 -0.3088976667239E-01
 0.4123319910205E-01 -0.3764484229242E+00 -0.1575511547968E+00 -0.1878963844935E-01
 0.6631126465403E-01 -0.3065717398322E+00 -0.1129224230473E+00 -0.3875843537361E-02
 0.9948781208851E-01 -0.2406889172705E+00 -0.6636451926721E-01  0.1269046530444E-01
 0.1411672817859E+00 -0.1802718762325E+00 -0.1837915934328E-01  0.2920512458458E-01
 0.1910504709270E+00 -0.1267047824759E+00  0.3024247349532E-01  0.4336024853110E-01
 0.2476890656814E+00 -0.8113049087727E-01  0.7828252995941E-01  0.5224997300609E-01
 0.3078502747349E+00 -0.4427611709603E-01  0.1238798537760E+00  0.5251628983269E-01
 0.3656982798664E+00 -0.1629143884256E-01  0.1642212148647E+00  0.4077569042632E-01
 0.4121319999258E+00  0.3425184008553E-02  0.1953118759538E+00  0.1459029865230E-01
 0.4360907383543E+00  0.1698228552518E-01  0.2129443206832E+00 -0.2572430437702E-01
 0.4286320862861E+00  0.2836559711324E-01  0.2147889106529E+00 -0.7518829874835E-01
 0.4309797863645E-01 -0.1069177135246E+01 -0.4822572023835E+00 -0.9211566263375E-03
 0.3656626954358E-01 -0.1014538544433E+01 -0.4596469680320E+00 -0.2008940204036E-01
 0.3072861596624E-01 -0.9570278738051E+00 -0.4353606500800E+00 -0.3676329810957E-01
 0.2565168621441E-01 -0.8963900010901E+00 -0.4092470069536E+00 -0.5068365031846E-01
 0.2167968420763E-01 -0.8325895725652E+00 -0.3811276465614E+00 -0.6161694459616E-01
 0.1938936114214E-01 -0.7657694398807E+00 -0.3507986361174E+00 -0.6930952947015E-01
 0.1954991546032E-01 -0.6962293062805E+00 -0.3180393128788E+00 -0.7349375611354E-01
 0.2309373571090E-01 -0.6244242762510E+00 -0.2826253533370E+00 -0.7392395092260E-01
 0.3109441911873E-01 -0.5509761629057E+00 -0.2443444189601E+00 -0.7043210863566E-01
 0.4474355918189E-01 -0.4766895718204E+00 -0.2030146254252E+00 -0.6300052479937E-01
 0.6531511282911E-01 -0.4025648444734E+00 -0.1585073734708E+00 -0.5185216711887E-01
 0.9410254899205E-01 -0.3297995448777E+00 -0.1107775877853E+00 -0.3756084173412E-01
 0.1323068236630E+00 -0.2597695596451E+00 -0.5990748575965E-01 -0.2118267978640E-01
 0.1808393866258E+00 -0.1939806397983E+00 -0.6176388975383E-02 -0.4407568231135E-02
 0.2399790626197E+00 -0.1339826435451E+00  0.4981831683869E-01  0.1027866593937E-01
 0.3087707656551E+00 -0.8125015642101E-01  0.1069346860688E+00  0.1945019646824E-01
 0.3839839340577E+00 -0.3704936053445E-01  0.1630592491424E+00  0.1869699192504E-01
 0.4582809687782E+00 -0.2427402756967E-02  0.2142511754866E+00  0.2900074400087E-02
 0.5178118619265E+00  0.2178344052612E-01  0.2536097915095E+00 -0.3247870720460E-01
 0.5452567211712E+00  0.3796992544994E-01  0.2741165232167E+00 -0.8782477385463E-01
 0.6315766329042E-01 -0.1143625457698E+01 -0.5078198620833E+00 -0.7209525839223E-02
 0.5712604906469E-01 -0.1094753466722E+01 -0.4876848850621E+00 -0.2799553367279E-01
 0.5150688681276E-01 -0.1043203622679E+01 -0.4660974646748E+00 -0.4703611146077E-01
 0.4637352620071E-01 -0.9886375514581E+00 -0.4428640907477E+00 -0.6403032110243E-01
 0.4199661685806E-01 -0.9308644615741E+00 -0.4177678859569E+00 -0.7871531729069E-01
 0.3883561875714E-01 -0.8698140669973E+00 -0.3905598696823E+00 -0.9081483621764E-01
 0.3752578140297E-01 -0.8055221446688E+00 -0.3609582898194E+00 -0.1000256247928E+00
 0.3887183922717E-01 -0.7381294986426E+00 -0.3286510990917E+00 -0.1060272684359E+00
 0.4384957212660E-01 -0.6678926008783E+00 -0.2933002227694E+00 -0.1085088876998E+00
 0.5361269370195E-01 -0.5952026938343E+00 -0.2545472994166E+00 -0.1072115147023E+00
 0.6950037816894E-01 -0.5206097556561E+00 -0.2120214068812E+00 -0.1019886975733E+00
 0.9303837285279E-01 -0.4448472735605E+00 -0.1653501829132E+00 -0.9289084746409E-01
 0.1259222199739E+00 -0.3688528408575E+00 -0.1141773915257E+00 -0.8028177966995E-01
 0.1699619749547E+00 -0.2937780362832E+00 -0.5819354867677E-01 -0.6499942613807E-01
 0.2269469935173E+00 -0.2209802430418E+00  0.2804372716380E-02 -0.4857732088775E-01
 0.2983461530003E+00 -0.1519882524348E+00  0.6878821309132E-01 -0.3354894247489E-01
 0.3846286004549E+00 -0.8846450212411E-01  0.1391971258624E+00 -0.2386059702640E-01
 0.4837686077306E+00 -0.3219726256123E-01  0.2122385316913E+00 -0.2539555281060E-01
 0.5869685443327E+00  0.1399358407760E-01  0.2824521996364E+00 -0.4648373002146E-01
 0.6699988521071E+00  0.4441194422984E-01  0.3357730734267E+00 -0.9655535681417E-01
 0.8388869105486E-01 -0.1219626569123E+01 -0.5337968013381E+00 -0.1187459030615E-01
 0.7877424372540E-01 -0.1177126644816E+01 -0.5162256272030E+00 -0.3393446836815E-01
 0.7381513516712E-01 -0.1132240502170E+01 -0.4974599212297E+00 -0.5489918912153E-01
 0.6910171083051E-01 -0.1084616006791E+01 -0.4772917178909E+00 -0.7447490486895E-01
 0.6485658728605E-01 -0.1033989612219E+01 -0.4554925205630E+00 -0.9241236120657E-01
 0.6144621668799E-01 -0.9801708834583E+00 -0.4318005922868E+00 -0.1084596738767E+00
 0.5938424862676E-01 -0.9230306435272E+00 -0.4059138045736E+00 -0.1223402991950E+00
 0.5933830768873E-01 -0.8624964914581E+00 -0.3774843454141E+00 -0.1337471750179E+00
 0.6214449244305E-01 -0.7985560038505E+00 -0.3461134094836E+00 -0.1423482853153E+00
 0.6883096553685E-01 -0.7312667881818E+00 -0.3113448358534E+00 -0.1478023807642E+00
 0.8065110629243E-01 -0.6607720813949E+00 -0.2726568576066E+00 -0.1497864671467E+00
 0.9912647220635E-01 -0.5873202802045E+00 -0.2294510891772E+00 -0.1480395283526E+00
 0.1260996580600E+00 -0.5112861183751E+00 -0.1810376358889E+00 -0.1424305149000E+00
 0.1637961185698E+00 -0.4331898703463E+00 -0.1266150630138E+00 -0.1330640419232E+00
 0.2148912815295E+00 -0.3537076477449E+00 -0.6524369195579E-01 -0.1204466058541E+00
 0.2825657322381E+00 -0.2736633451373E+00  0.4184121926775E-02 -0.1057539827548E+00
 0.3705114586039E+00 -0.1939730739076E+00  0.8297304059681E-01 -0.9127755555695E-01
 0.4826402162391E+00 -0.1155884747273E+00  0.1725143180730E+00 -0.8121387977730E-01
 0.6222530053837E+00 -0.3913930171180E-01  0.2740634400307E+00 -0.8319424516976E-01
 0.7813628161164E+00  0.3027334617332E-01  0.3814689953086E+00 -0.1118555770787E+00
 0.1050941003302E+00 -0.1296700305231E+01 -0.5600549148829E+00 -0.1473372609741E-01
 0.1012208419537E+00 -0.1261056964882E+01 -0.5451229763939E+00 -0.3769769761016E-01
 0.9728687126359E-01 -0.1223401092336E+01 -0.5292736825618E+00 -0.6008825483635E-01
 0.9339993912601E-01 -0.1183418245914E+01 -0.5123086028909E+00 -0.8164284950355E-01
 0.8975493259873E-01 -0.1140842111857E+01 -0.4940109729985E+00 -0.1021446487583E+00
 0.8665271933611E-01 -0.1095448434202E+01 -0.4741339847845E+00 -0.1213851938880E+00
 0.8451139652445E-01 -0.1047046952536E+01 -0.4523917101782E+00 -0.1391424182021E+00
 0.8387911278751E-01 -0.9954760312111E+00 -0.4284505505724E+00 -0.1551691705264E+00
 0.8545335363649E-01 -0.9406013972208E+00 -0.4019195794652E+00 -0.1691888676800E+00
 0.9010988498765E-01 -0.8823191302737E+00 -0.3723383443401E+00 -0.1808966695912E+00
 0.9894450999532E-01 -0.8205625937358E+00 -0.3391604984978E+00 -0.1899662349313E+00
 0.1133320192140E+00 -0.7553127708074E+00 -0.3017309524836E+00 -0.1960638351844E+00
 0.1350093319627E+00 -0.6866111539178E+00 -0.2592528556614E+00 -0.1988737966816E+00
 0.1661949083260E+00 -0.6145733405482E+00 -0.2107378626100E+00 -0.1981426468371E+00
 0.2097657089656E+00 -0.5393994620562E+00 -0.1549278635596E+00 -0.1937554436970E+00
 0.2695353930535E+00 -0.4613691519742E+00 -0.9016186646404E-01 -0.1858699870742E+00
 0.3507126095999E+00 -0.3808004738762E+00 -0.1414129617397E-01 -0.1751612915009E+00
 0.4608096305128E+00 -0.2978371252210E+00  0.7659707729287E-01 -0.1632982150190E+00
 0.6113231147049E+00 -0.2120176779401E+00  0.1876735548035E+00 -0.1539594441189E+00
 0.8265069377298E+00 -0.1170445149995E+00  0.3334473378375E+00 -0.1558709024576E+00
 0.1265699714940E+00 -0.1374341643871E+01 -0.5864526845296E+00 -0.1565830030481E-01
 0.1241657961465E+00 -0.1345890988526E+01 -0.5742108389618E+00 -0.3913557498460E-01
 0.1215215559125E+00 -0.1315861453241E+01 -0.5613397503205E+00 -0.6242072380897E-01
 0.1187579704741E+00 -0.1284005366533E+01 -0.5476662747587E+00 -0.8528510319217E-01
 0.1160534768212E+00 -0.1250100367705E+01 -0.5330020373635E+00 -0.1075418486933E+00
 0.1136636257816E+00 -0.1213949796097E+01 -0.5171344987368E+00 -0.1290181711015E+00
 0.1119349010695E+00 -0.1175379582474E+01 -0.4998189989926E+00 -0.1495366176143E+00
 0.1113192630633E+00 -0.1134235634532E+01 -0.4807706933710E+00 -0.1689029377298E+00
 0.1123935292203E+00 -0.1090383555184E+01 -0.4596553110371E+00 -0.1868982948032E+00
 0.1158868975204E+00 -0.1043711512396E+01 -0.4360775678854E+00 -0.2032741976157E+00
 0.1227202238513E+00 -0.9941367336202E+00 -0.4095657585526E+00 -0.2177491819077E+00
 0.1340620858115E+00 -0.9416160932633E+00 -0.3795503825397E+00 -0.2300068256577E+00
 0.1514096395718E+00 -0.8861613743761E+00 -0.3453333144821E+00 -0.2396951356840E+00
 0.1767078495001E+00 -0.8278599168682E+00 -0.3060414708867E+00 -0.2464277059873E+00
 0.2125320923681E+00 -0.7669006799405E+00 -0.2605532354982E+00 -0.2497872630219E+00
 0.2623809827761E+00 -0.7036049934920E+00 -0.2073752845105E+00 -0.2493318171306E+00
 0.3311875972328E+00 -0.6384468755042E+00 -0.1444118604213E+00 -0.2446015509544E+00
 0.4262650650265E+00 -0.5720486018216E+00 -0.6851826211988E-01 -0.2351097874867E+00
 0.5595311867757E+00 -0.5048487332999E+00  0.2570075306842E-01 -0.2202642874855E+00
 0.7533843157769E+00 -0.4359946734263E+00  0.1491731315264E+00 -0.1983621564476E+00
 0.1481108775254E+00 -0.1452038829185E+01 -0.6128461357256E+00 -0.1458095707791E-01
 0.1473109573502E+00 -0.1430964434290E+01 -0.6033171326317E+00 -0.3817553378211E-01
 0.1461133950317E+00 -0.1408777392507E+01 -0.5934520773083E+00 -0.6182197369970E-01
 0.1446439049051E+00 -0.1385307611013E+01 -0.5831119403917E+00 -0.8531593492757E-01
 0.1430657715594E+00 -0.1360398899300E+01 -0.5721465685868E+00 -0.1084868530763E+00
 0.1415967140822E+00 -0.1333912892219E+01 -0.5603886023031E+00 -0.1311765948987E+00
 0.1405219841744E+00 -0.1305729780675E+01 -0.5476476629664E+00 -0.1532231395388E+00
 0.1402075550162E+00 -0.1275748738227E+01 -0.5337043547555E+00 -0.1744479516874E+00
 0.1411162856024E+00 -0.1243889713749E+01 -0.5183035099141E+00 -0.1946453657780E+00
 0.1438295038271E+00 -0.1210097616979E+01 -0.5011460119105E+00 -0.2135723281255E+00
 0.1490765904633E+00 -0.1174349708884E+01 -0.4818783644353E+00 -0.2309368404179E+00
 0.1577758782252E+00 -0.1136667108911E+01 -0.4600788772555E+00 -0.2463831907046E+00
 0.1710916271582E+00 -0.1097131714013E+01 -0.4352388397179E+00 -0.2594713138726E+00
 0.1905143996649E+00 -0.1055910488249E+01 -0.4067361606029E+00 -0.2696459719273E+00
 0.2179761439229E+00 -0.1013290541673E+01 -0.3737977659946E+00 -0.2761879294531E+00
 0.2560187825303E+00 -0.9697303188019E+00 -0.3354444211968E+00 -0.2781317351368E+00
 0.3080408093321E+00 -0.9259419911531E+00 -0.2904135547193E+00 -0.2741166222638E+00
 0.3786547652600E+00 -0.8830345571719E+00 -0.2370585015973E+00 -0.2620941103780E+00
 0.4740739443950E+00 -0.8428764783998E+00 -0.1733371905426E+00 -0.2386647796408E+00
 0.5994919860599E+00 -0.8108964874577E+00 -0.9936011540497E-01 -0.1975048986533E+00
 0.1695193137922E+00 -0.1529283927138E+01 -0.6390893666514E+00 -0.1149113087643E-01
 0.1703751746586E+00 -0.1515623524915E+01 -0.6322667230169E+00 -0.3481891023118E-01
 0.1706807661560E+00 -0.1501322350264E+01 -0.6254015429447E+00 -0.5831830249318E-01
 0.1705570830465E+00 -0.1486287069747E+01 -0.6183930921809E+00 -0.8179694073333E-01
 0.1701465201036E+00 -0.1470432842575E+01 -0.6111345700116E+00 -0.1050866643752E+00
 0.1696261824444E+00 -0.1453688589033E+01 -0.6035093295661E+00 -0.1280256540824E+00
 0.1692182245078E+00 -0.1435999825727E+01 -0.5953873510630E+00 -0.1504433862106E+00
 0.1691994566548E+00 -0.1417330875247E+01 -0.5866217652502E+00 -0.1721473223753E+00
 0.1699118702449E+00 -0.1397667692251E+01 -0.5770452348790E+00 -0.1929099142164E+00
 0.1717753247759E+00 -0.1377022162751E+01 -0.5664660124117E+00 -0.2124543222145E+00
 0.1753033849099E+00 -0.1355438582423E+01 -0.5546635414245E+00 -0.2304369873104E+00
 0.1811230901783E+00 -0.1333003076416E+01 -0.5413835921584E+00 -0.2464246739740E+00
 0.1899990689678E+00 -0.1309857010566E+01 -0.5263332312162E+00 -0.2598626082703E+00
 0.2028613471439E+00 -0.1286216122441E+01 -0.5091767430983E+00 -0.2700285089573E+00
 0.2208333425850E+00 -0.1262398437597E+01 -0.4895355934139E+00 -0.2759640098756E+00
 0.2452479131640E+00 -0.1238867672070E+01 -0.4670012855015E+00 -0.2763688857606E+00
 0.2776153279761E+00 -0.1216307397431E+01 -0.4411852715247E+00 -0.2694327822120E+00
 0.3194383341688E+00 -0.1195764674350E+01 -0.4118733788403E+00 -0.2525596982487E+00
 0.3714159048815E+00 -0.1179071676050E+01 -0.3795982114862E+00 -0.2219342728599E+00
 0.4323787059946E+00 -0.1168751455642E+01 -0.3460951914567E+00 -0.1721687182932E+00
 0.1906129894971E+00 -0.1605580229897E+01 -0.6650346013012E+00 -0.6426659919740E-02
 0.1931037784802E+00 -0.1599235294723E+01 -0.6608818109579E+00 -0.2912796959126E-01
 0.1948823418224E+00 -0.1592701919125E+01 -0.6569751996658E+00 -0.5201264573452E-01
 0.1960549269351E+00 -0.1585955718801E+01 -0.6532533705200E+00 -0.7488951119972E-01
 0.1967342527255E+00 -0.1578977367181E+01 -0.6496542621465E+00 -0.9758242957661E-01
 0.1970490945961E+00 -0.1571757962052E+01 -0.6461131660656E+00 -0.1199143303531E+00
 0.1971509317833E+00 -0.1564302467239E+01 -0.6425612200344E+00 -0.1416930221434E+00
 0.1972188658196E+00 -0.1556632240300E+01 -0.6389242843854E+00 -0.1626977584869E+00
 0.1974634914519E+00 -0.1548787413703E+01 -0.6351222418471E+00 -0.1826653332237E+00
 0.1981298994556E+00 -0.1540829677560E+01 -0.6310688941087E+00 -0.2012743495902E+00
 0.1994994551663E+00 -0.1532845820491E+01 -0.6266727901133E+00 -0.2181261167361E+00
 0.2018891914227E+00 -0.1524952310318E+01 -0.6218396643035E+00 -0.2327202975068E+00
 0.2056462850259E+00 -0.1517301219996E+01 -0.6164778178725E+00 -0.2444229114765E+00
 0.2111325299299E+00 -0.1510087949619E+01 -0.6105090457052E+00 -0.2524235641876E+00
 0.2186886658979E+00 -0.1503561599986E+01 -0.6038902774896E+00 -0.2556779089573E+00
 0.2285582785468E+00 -0.1498039679202E+01 -0.5966562567947E+00 -0.2528309368577E+00
 0.2407324938094E+00 -0.1493928975882E+01 -0.5890023450804E+00 -0.2421187997353E+00
 0.2546329550229E+00 -0.1491760345256E+01 -0.5814498719346E+00 -0.2212602054282E+00
 0.2686685671400E+00 -0.1492103559226E+01 -0.5750144448218E+00 -0.1874073065236E+00
 0.2799494712948E+00 -0.1495149942258E+01 -0.5711442199039E+00 -0.1372270521970E+00
 0.2112289691522E+00 -0.1680450238747E+01 -0.6905339949579E+00  0.5328491971492E-03
 0.2152733542184E+00 -0.1681197067008E+01 -0.6889841432638E+00 -0.2121610987810E-01
 0.2184231969319E+00 -0.1682166223087E+01 -0.6879592205480E+00 -0.4306893234659E-01
 0.2207608593602E+00 -0.1683390362447E+01 -0.6874358647074E+00 -0.6482795573270E-01
 0.2223604685550E+00 -0.1684903115351E+01 -0.6873950422508E+00 -0.8630297165250E-01
 0.2232940052846E+00 -0.1686744117549E+01 -0.6878215510196E+00 -0.1072964865004E+00
 0.2236342774067E+00 -0.1688962126958E+01 -0.6887040875423E+00 -0.1275906020281E+00
 0.2234552810184E+00 -0.1691616710472E+01 -0.6900358700928E+00 -0.1469344813556E+00
 0.2228299109039E+00 -0.1694779077851E+01 -0.6918161067104E+00 -0.1650313890106E+00
 0.2218246452214E+00 -0.1698532269058E+01 -0.6940525814428E+00 -0.1815243675856E+00
 0.2204901790019E+00 -0.1702970707627E+01 -0.6967658466865E+00 -0.1959796392110E+00
 0.2188461372904E+00 -0.1708198928705E+01 -0.6999958101895E+00 -0.2078668546342E+00
 0.2168567527842E+00 -0.1714329072665E+01 -0.7038119885586E+00 -0.2165354474494E+00
 0.2143925274484E+00 -0.1721476421592E+01 -0.7083294284510E+00 -0.2211867924644E+00
 0.2111702112946E+00 -0.1729751673034E+01 -0.7137332852070E+00 -0.2208430949438E+00
 0.2066606347219E+00 -0.1739246976892E+01 -0.7203155789931E+00 -0.2143170159411E+00
 0.1999525002704E+00 -0.1750009518558E+01 -0.7285267967474E+00 -0.2001932843280E+00
 0.1895892027002E+00 -0.1761972977325E+01 -0.7390203721993E+00 -0.1768494041766E+00
 0.1734338662435E+00 -0.1774818638357E+01 -0.7526508409846E+00 -0.1425535075195E+00
 0.1483025773784E+00 -0.1788014759770E+01 -0.7706647237693E+00 -0.9566878106552E-01
 0.2312261370621E+00 -0.1753443119152E+01 -0.7154419797677E+00  0.9271624161489E-02
 0.2366940697373E+00 -0.1760944797564E+01 -0.7163978402614E+00 -0.1124000159426E-01
 0.2410564064356E+00 -0.1769020704044E+01 -0.7181432180546E+00 -0.3170091047369E-01
 0.2443647556824E+00 -0.1777746013615E+01 -0.7206891894004E+00 -0.5190323332940E-01
 0.2466473190946E+00 -0.1787190970380E+01 -0.7240555142676E+00 -0.7164097923080E-01
 0.2479123562905E+00 -0.1797425982918E+01 -0.7282714026679E+00 -0.9069653784421E-01
 0.2481486245416E+00 -0.1808523621321E+01 -0.7333762466264E+00 -0.1088292918282E+00
 0.2473221359198E+00 -0.1820558968855E+01 -0.7394213096042E+00 -0.1257651099862E+00
 0.2453693835815E+00 -0.1833608496781E+01 -0.7464723813103E+00 -0.1411860207965E+00
 0.2421865226351E+00 -0.1847747526476E+01 -0.7546136698913E+00 -0.1547196052497E+00
 0.2376135414251E+00 -0.1863046084342E+01 -0.7639532932334E+00 -0.1659278729296E+00
 0.2314119424137E+00 -0.1879562730886E+01 -0.7746308686174E+00 -0.1742956956628E+00
 0.2232339587687E+00 -0.1897335658971E+01 -0.7868277970993E+00 -0.1792193930582E+00
 0.2125810404363E+00 -0.1916369934646E+01 -0.8007807782474E+00 -0.1799969902170E+00
 0.1987499277047E+00 -0.1936618960861E+01 -0.8167984435119E+00 -0.1758233066653E+00
 0.1807674451398E+00 -0.1957956922377E+01 -0.8352790521831E+00 -0.1657957672324E+00
 0.1573256974269E+00 -0.1980134956825E+01 -0.8567203497443E+00 -0.1489407479928E+00
 0.1267443551480E+00 -0.2002715372884E+01 -0.8817063760998E+00 -0.1242720868928E+00
 0.8698319945655E-01 -0.2025000406862E+01 -0.9108680851702E+00 -0.9088930272757E-01
 0.3592695116095E-01 -0.2045831506625E+01 -0.9446551386722E+00 -0.4815145068945E-01
 0.2504841739490E+00 -0.1824140080237E+01 -0.7396182740792E+00  0.1964403098172E-01
 0.2572052038047E+00 -0.1837960073199E+01 -0.7429547867310E+00  0.6103631180133E-03
 0.2625758870672E+00 -0.1852635358956E+01 -0.7473279498920E+00 -0.1815802395417E-01
 0.2666131176167E+00 -0.1868266087662E+01 -0.7527768940119E+00 -0.3644361080308E-01
 0.2692931258786E+00 -0.1884941978306E+01 -0.7593549587149E+00 -0.5402661570929E-01
 0.2705562665854E+00 -0.1902745248247E+01 -0.7671288194352E+00 -0.7067383083536E-01
 0.2703056426302E+00 -0.1921751721586E+01 -0.7761796551403E+00 -0.8612968361814E-01
 0.2684018668110E+00 -0.1942029823329E+01 -0.7866051375683E+00 -0.1001086637154E+00
 0.2646540543818E+00 -0.1963637824611E+01 -0.7985223699825E+00 -0.1122887666577E+00
 0.2588068723102E+00 -0.1986619315368E+01 -0.8120718461776E+00 -0.1223059050074E+00
 0.2505231685653E+00 -0.2010996731634E+01 -0.8274225725435E+00 -0.1297495432821E+00
 0.2393616266895E+00 -0.2036762587821E+01 -0.8447784495892E+00 -0.1341601932930E+00
 0.2247491001898E+00 -0.2063867882200E+01 -0.8643858253524E+00 -0.1350299190030E+00
 0.2059480956989E+00 -0.2092206910070E+01 -0.8865416405057E+00 -0.1318076812019E+00
 0.1820217867783E+00 -0.2121597469723E+01 -0.9116005686720E+00 -0.1239121487264E+00
 0.1518029721426E+00 -0.2151755074728E+01 -0.9399774858311E+00 -0.1107551707916E+00
 0.1138785406784E+00 -0.2182261081245E+01 -0.9721397916006E+00 -0.9177819768527E-01
 0.6660487679672E-01 -0.2212528422508E+01 -0.1008584063926E+01 -0.6649967106158E-01
 0.8187679037523E-02 -0.2241760854277E+01 -0.1049779389700E+01 -0.3456454659678E-01
-0.6307346335639E-01 -0.2268871308127E+01 -0.1096014039817E+01  0.4255563222858E-02
 0.2688981529966E+00 -0.1892156921184E+01 -0.7629316191129E+00  0.3148574122384E-01
 0.2766630805087E+00 -0.1911777502705E+01 -0.7685037764831E+00  0.1412963759796E-01
 0.2828034871362E+00 -0.1932450296926E+01 -0.7753339986346E+00 -0.2702050724056E-02
 0.2872930993065E+00 -0.1954286489014E+01 -0.7834868911751E+00 -0.1878533177053E-01
 0.2900527047095E+00 -0.1977378109969E+01 -0.7930429384606E+00 -0.3389165442746E-01
 0.2909534429650E+00 -0.2001801131981E+01 -0.8040984117982E+00 -0.4777990988339E-01
 0.2898150945332E+00 -0.2027615659438E+01 -0.8167662634336E+00 -0.6019041317869E-01
 0.2864004507757E+00 -0.2054864152750E+01 -0.8311779378197E+00 -0.7084074081283E-01
 0.2804064388467E+00 -0.2083567849415E+01 -0.8474858608176E+00 -0.7942336933642E-01
 0.2714521898800E+00 -0.2113721505865E+01 -0.8658665763167E+00 -0.8560531105825E-01
 0.2590642083968E+00 -0.2145286454561E+01 -0.8865244534486E+00 -0.8903020803255E-01
 0.2426589749913E+00 -0.2178181910498E+01 -0.9096957773809E+00 -0.8932362450805E-01
 0.2215238127666E+00 -0.2212274428755E+01 -0.9356527871413E+00 -0.8610253826458E-01
 0.1947977705507E+00 -0.2247365455407E+01 -0.9647068094357E+00 -0.7899017608109E-01
 0.1614557195561E+00 -0.2283177083879E+01 -0.9972090387024E+00 -0.6763713757600E-01
 0.1203002563952E+00 -0.2319336875308E+01 -0.1033547208267E+01 -0.5174873631641E-01
 0.6996622759198E-01 -0.2355364035995E+01 -0.1074136967225E+01 -0.3111605976872E-01
 0.8939880430997E-02 -0.2390661193884E+01 -0.1119409014484E+01 -0.5644228494395E-02
-0.6441287161075E-01 -0.2424517338428E+01 -0.1169797195751E+01  0.2463728216639E-01
-0.1520018934646E+00 -0.2456249525153E+01 -0.1225878163641E+01  0.5960994893351E-01
 0.2863853346003E+00 -0.1957149757569E+01 -0.7852592768038E+00  0.4461617166705E-01
 0.2949654450825E+00 -0.1981978594846E+01 -0.7928961783779E+00  0.2909886516700E-01
 0.3016158486561E+00 -0.2007967304207E+01 -0.8019851820750E+00  0.1439496402513E-01
 0.3062630738203E+00 -0.2035222918183E+01 -0.8126111247894E+00  0.7303227621737E-03
 0.3087708070412E+00 -0.2063824321466E+01 -0.8248751496872E+00 -0.1166518891635E-01
 0.3089425955867E+00 -0.2093824929472E+01 -0.8388946947984E+00 -0.2255249710995E-01
 0.3065205288842E+00 -0.2125252838044E+01 -0.8548041831369E+00 -0.3168030954001E-01
 0.3011808816266E+00 -0.2158109018201E+01 -0.8727562219764E+00 -0.3878436599317E-01
 0.2925273998701E+00 -0.2192363954879E+01 -0.8929231785894E+00 -0.4358903806747E-01
 0.2800828421834E+00 -0.2227952997634E+01 -0.9154989707397E+00 -0.4581150430945E-01
 0.2632794339816E+00 -0.2264770684090E+01 -0.9407008851650E+00 -0.4516889883120E-01
 0.2414491271786E+00 -0.2302664309310E+01 -0.9687711331446E+00 -0.4138895192081E-01
 0.2138149212895E+00 -0.2341427088247E+01 -0.9999777159339E+00 -0.3422463855281E-01
 0.1794849199626E+00 -0.2380791412275E+01 -0.1034614048763E+01 -0.2347311072724E-01
 0.1374509486862E+00 -0.2420423028152E+01 -0.1072996874628E+01 -0.8998546761877E-02
 0.8659292442986E-01 -0.2459917433211E+01 -0.1115462516298E+01  0.9242631874720E-02
 0.2568762153445E-01 -0.2498800531740E+01 -0.1162363064848E+01  0.3117730402211E-01
-0.4658424544354E-01 -0.2536535690279E+01 -0.1214066366710E+01  0.5659655788963E-01
-0.1316663266032E+00 -0.2572553071141E+01 -0.1270983113716E+01  0.8514520751039E-01
-0.2311506639032E+00 -0.2606240474235E+01 -0.1333573831542E+01  0.1162976809622E+00
 0.3028806148585E+00 -0.2018816500516E+01 -0.8064898642133E+00  0.5884088345504E-01
 0.3120375278338E+00 -0.2048200674772E+01 -0.8159966769913E+00  0.4528466275798E-01
 0.3189282733658E+00 -0.2078759695533E+01 -0.8271207663205E+00  0.3284861135601E-01
 0.3234315474065E+00 -0.2110582945687E+01 -0.8399611550613E+00  0.2175391538173E-01
 0.3253549941193E+00 -0.2143722093596E+01 -0.8546325345863E+00  0.1222253609605E-01
 0.3244384295907E+00 -0.2178193956261E+01 -0.8712650953250E+00  0.4480235219696E-02
 0.3203542082061E+00 -0.2213981303277E+01 -0.8900047324260E+00 -0.1243094527099E-02
 0.3127054951381E+00 -0.2251031934981E+01 -0.9110134244155E+00 -0.4715731455941E-02
 0.3010232463724E+00 -0.2289256490525E+01 -0.9344696223816E+00 -0.5708993950485E-02
 0.2847627642731E+00 -0.2328525485444E+01 -0.9605684765141E+00 -0.4004729024766E-02
 0.2633008121549E+00 -0.2368666092083E+01 -0.9895216790565E+00  0.5944287665557E-03
 0.2359343959618E+00 -0.2409459220017E+01 -0.1021556664715E+01  0.8251866105573E-02
 0.2018823874701E+00 -0.2450637531787E+01 -0.1056914915148E+01  0.1908083111984E-01
 0.1602909817597E+00 -0.2491885160832E+01 -0.1095849261385E+01  0.3312556988912E-01
 0.1102432931333E+00 -0.2532840035716E+01 -0.1138620466126E+01  0.5034049748144E-01
 0.5077183094782E-01 -0.2573099817787E+01 -0.1185494150808E+01  0.7056865733444E-01
-0.1912940270532E-01 -0.2612231902712E+01 -0.1236739810409E+01  0.9352093132846E-01
-0.1005005590003E+00 -0.2649788464157E+01 -0.1292635837605E+01  0.1187564362074E+00
-0.1944101786566E+00 -0.2685312614681E+01 -0.1353469709436E+01  0.1456592282163E+00
-0.3019237361424E+00 -0.2718326993763E+01 -0.1419517839455E+01  0.1734054933167E+00
 0.3183334432241E+00 -0.2076897156528E+01 -0.8265249431563E+00  0.7395715045276E-01
 0.3278248315858E+00 -0.2110136903917E+01 -0.8376866718711E+00  0.6244573584264E-01
 0.3346836840142E+00 -0.2144473289004E+01 -0.8506011121878E+00  0.5236979472248E-01
 0.3387428742858E+00 -0.2179966574303E+01 -0.8653751368130E+00  0.4393701876407E-01
 0.3397570202583E+00 -0.2216628885090E+01 -0.8821297742334E+00  0.3735070788741E-01
 0.3374076095297E+00 -0.2254428575959E+01 -0.9009998519366E+00  0.3281136812348E-01
 0.3313063927376E+00 -0.2293292682157E+01 -0.9221335536885E+00  0.3051475777771E-01
 0.3209974381293E+00 -0.2333107664207E+01 -0.9456918038577E+00  0.3064704283378E-01
 0.3059587164754E+00 -0.2373719078925E+01 -0.9718473678865E+00  0.3337754072091E-01
 0.2856042916056E+00 -0.2414930902664E+01 -0.1000783504659E+01  0.3884933450229E-01
 0.2592882712390E+00 -0.2456505235146E+01 -0.1032691970417E+01  0.4716793865075E-01
 0.2263116600925E+00 -0.2498163104331E+01 -0.1067770176084E+01  0.5838820737461E-01
 0.1859330822701E+00 -0.2539587108246E+01 -0.1106217389403E+01  0.7249977525829E-01
 0.1373838875474E+00 -0.2580426652414E+01 -0.1148230096575E+01  0.8941144742085E-01
 0.7988727132578E-01 -0.2620306554331E+01 -0.1193997059984E+01  0.1089349856118E+00
 0.1267983272592E-01 -0.2658839594493E+01 -0.1243695084876E+01  0.1307684651870E+00
-0.6496763891488E-01 -0.2695643433551E+01 -0.1297487200768E+01  0.1544785973099E+00
-0.1537301192354E+00 -0.2730358518404E+01 -0.1355521656252E+01  0.1794801559352E+00
-0.2542064651633E+00 -0.2762664584074E+01 -0.1417929389545E+01  0.2050113914208E+00
-0.3668957316755E+00 -0.2792297422888E+01 -0.1484820778879E+01  0.2301112730435E+00
 0.3327060571997E+00 -0.2131172246763E+01 -0.8452791069510E+00  0.8975852849518E-01
 0.3422893250284E+00 -0.2167532915895E+01 -0.8578644855315E+00  0.8033947437092E-01
 0.3488464614953E+00 -0.2204822090716E+01 -0.8723085435214E+00  0.7267307801493E-01
 0.3521686202017E+00 -0.2243060738684E+01 -0.8887192934327E+00  0.6694200506998E-01
 0.3519613477663E+00 -0.2282210456324E+01 -0.9072170787213E+00  0.6331885287563E-01
 0.3478537138910E+00 -0.2322181274002E+01 -0.9279339508988E+00  0.6196680490137E-01
 0.3394061761265E+00 -0.2362836790268E+01 -0.9510123862342E+00  0.6303553610388E-01
 0.3261172241897E+00 -0.2403997146415E+01 -0.9766035609689E+00  0.6665420255842E-01
 0.3074298440973E+00 -0.2445440839652E+01 -0.1004865165362E+01  0.7292261553768E-01
 0.2827390838676E+00 -0.2486906377969E+01 -0.1035958625600E+01  0.8190128266728E-01
 0.2514019950703E+00 -0.2528094649543E+01 -0.1070045544888E+01  0.9360082441465E-01
 0.2127510867331E+00 -0.2568672759290E+01 -0.1107283183293E+01  0.1079712456743E+00
 0.1661121884572E+00 -0.2608279990098E+01 -0.1147818863860E+01  0.1248915550260E+00
 0.1108272660102E+00 -0.2646536477801E+01 -0.1191783326519E+01  0.1441601529372E+00
 0.4628233698335E-01 -0.2683055116703E+01 -0.1239283203325E+01  0.1654860911833E+00
-0.2805986461085E-01 -0.2717457311554E+01 -0.1290393069524E+01  0.1884805545121E+00
-0.1126228290040E+00 -0.2749393053539E+01 -0.1345147461383E+01  0.2126466510981E+00
-0.2076784488561E+00 -0.2778568327456E+01 -0.1403535981307E+01  0.2373645095588E+00
-0.3133137645455E+00 -0.2804780128692E+01 -0.1465504126105E+01  0.2618703913852E+00
-0.4294197955055E+00 -0.2827962624104E+01 -0.1530969733333E+01  0.2852319958811E+00
 0.3459711633960E+00 -0.2181459975092E+01 -0.8626797393089E+00  0.1060387259405E+00
 0.3554050845331E+00 -0.2220183123866E+01 -0.8764456762634E+00  0.9872827722476E-01
 0.3613964691945E+00 -0.2259584000539E+01 -0.8921481374690E+00  0.9348472562419E-01
 0.3636997312778E+00 -0.2299633880606E+01 -0.9098890478767E+00  0.9045101459417E-01
 0.3619748790238E+00 -0.2340233467664E+01 -0.9297815343028E+00  0.8975619286755E-01
 0.3558039923534E+00 -0.2381226358482E+01 -0.9519485096662E+00  0.9151456094401E-01
 0.3447050265928E+00 -0.2422407642820E+01 -0.9765202271499E+00  0.9581893146419E-01
 0.3281434125073E+00 -0.2463529224455E+01 -0.1003631329070E+01  0.1027314688281E+00
 0.3055429783545E+00 -0.2504303578521E+01 -0.1033417479457E+01  0.1122738593176E+00
 0.2762978068611E+00 -0.2544407248570E+01 -0.1066011434900E+01  0.1244178168584E+00
 0.2397864115196E+00 -0.2583485020558E+01 -0.1101538343454E+01  0.1390766682340E+00
 0.1953893601450E+00 -0.2621155422350E+01 -0.1140110046345E+01  0.1560987042599E+00
 0.1425112869885E+00 -0.2657017965456E+01 -0.1181818135882E+01  0.1752629636109E+00
 0.8060823616831E-01 -0.2690662353392E+01 -0.1226725431984E+01  0.1962780078292E+00
 0.9221614542584E-02 -0.2721679790853E+01 -0.1274855339632E+01  0.2187839310374E+00
-0.7197890054990E-01 -0.2749676491500E+01 -0.1326178030900E+01  0.2423572045266E+00
-0.1631403602055E+00 -0.2774290667064E+01 -0.1380592579315E+01  0.2665167899709E+00
-0.2641563924957E+00 -0.2795216425858E+01 -0.1437905220979E+01  0.2907275970077E+00
-0.3746020185858E+00 -0.2812256241987E+01 -0.1497823378670E+01  0.3143917098959E+00
-0.4936890139607E+00 -0.2825398217516E+01 -0.1559970994837E+01  0.3368162881478E+00
 0.3581090422230E+00 -0.2227612201230E+01 -0.8786664825047E+00  0.1225953137177E+00
 0.3671537667288E+00 -0.2267926962554E+01 -0.8933633997718E+00  0.1173862198864E+00
 0.3723239057971E+00 -0.2308596931374E+01 -0.9100483197131E+00  0.1145505923997E+00
 0.3733403032386E+00 -0.2349530828379E+01 -0.9288095444603E+00  0.1141739397599E+00
 0.3698189532081E+00 -0.2390557998828E+01 -0.9497473490324E+00  0.1163291588104E+00
 0.3612991638470E+00 -0.2431449296810E+01 -0.9729705600250E+00  0.1210714459133E+00
 0.3472645354986E+00 -0.2471929035482E+01 -0.9985923124593E+00  0.1284274495386E+00
 0.3271591782923E+00 -0.2511682186603E+01 -0.1026725811302E+01  0.1383835320761E+00
 0.3004019325757E+00 -0.2550359404701E+01 -0.1057480009217E+01  0.1508751734707E+00
 0.2664006842721E+00 -0.2587581444186E+01 -0.1090954954393E+01  0.1657785845721E+00
 0.2245682164552E+00 -0.2622943884927E+01 -0.1127236561323E+01  0.1829053256429E+00
 0.1743406138913E+00 -0.2656022570966E+01 -0.1166390516867E+01  0.2020007056869E+00
 0.1151990769695E+00 -0.2686379759746E+01 -0.1208454917840E+01  0.2227468022918E+00
 0.4669624999429E-01 -0.2713570632010E+01 -0.1253430956368E+01  0.2447710254028E+00
-0.3151080719088E-01 -0.2737149421769E+01 -0.1301270304311E+01  0.2676612642823E+00
-0.1196168184892E+00 -0.2756674190057E+01 -0.1351856770588E+01  0.2909888526422E+00
-0.2176044291796E+00 -0.2771708239400E+01 -0.1404976950669E+01  0.3143407864755E+00
-0.3251438690663E+00 -0.2781817492542E+01 -0.1460271836252E+01  0.3373615547618E+00
-0.4414158535027E+00 -0.2786559802917E+01 -0.1517148554669E+01  0.3597966572281E+00
-0.5649435519778E+00 -0.2785594622317E+01 -0.1574752937924E+01  0.3814943304785E+00
 0.3691040647157E+00 -0.2269509899826E+01 -0.8931907402362E+00  0.1392344281758E+00
 0.3775209881757E+00 -0.2310645969513E+01 -0.9085687389240E+00  0.1361071180966E+00
 0.3816267472348E+00 -0.2351755401013E+01 -0.9259604649271E+00  0.1356442559657E+00
 0.3811056838257E+00 -0.2392666240430E+01 -0.9454334592059E+00  0.1378553196813E+00
 0.3755276543141E+00 -0.2433126201702E+01 -0.9670713148194E+00  0.1427465799699E+00
 0.3643923092653E+00 -0.2472829353032E+01 -0.9909654080571E+00  0.1503061833417E+00
 0.3471571112104E+00 -0.2511430213608E+01 -0.1017208355547E+01  0.1604869548729E+00
 0.3232568479237E+00 -0.2548551787592E+01 -0.1045888618991E+01  0.1731913347263E+00
 0.2921192897032E+00 -0.2583790749753E+01 -0.1077085583492E+01  0.1882599692375E+00
 0.2531795184350E+00 -0.2616721620217E+01 -0.1110864785020E+01  0.2054646672190E+00
 0.2058942967129E+00 -0.2646900702641E+01 -0.1147273007876E+01  0.2245062716629E+00
 0.1497571053500E+00 -0.2673869818618E+01 -0.1186332972227E+01  0.2450180995572E+00
 0.8431413015049E-01 -0.2697159270109E+01 -0.1228037212666E+01  0.2665758392635E+00
 0.9181583238066E-02 -0.2716288874784E+01 -0.1272340423800E+01  0.2887151991689E+00
-0.7593460001172E-01 -0.2730765263824E+01 -0.1319148932657E+01  0.3109593500633E+00
-0.1712134616597E+00 -0.2740072158422E+01 -0.1368304237968E+01  0.3328596822437E+00
-0.2766808014626E+00 -0.2743648400288E+01 -0.1419554721222E+01  0.3540562481941E+00
-0.3921308668290E+00 -0.2740836442945E+01 -0.1472494631859E+01  0.3743702334825E+00
-0.5169297536429E+00 -0.2730763324030E+01 -0.1526415742635E+01  0.3939521861425E+00
-0.6493348696781E+00 -0.2711977972476E+01 -0.1579817031805E+01  0.4135044036682E+00
 0.3789404284023E+00 -0.2307060711432E+01 -0.9062165307255E+00  0.1557793049645E+00
 0.3864956670507E+00 -0.2348264055124E+01 -0.9220311400557E+00  0.1547154480406E+00
 0.3893163546186E+00 -0.2389003897518E+01 -0.9398531427791E+00  0.1565756373791E+00
 0.3870343276188E+00 -0.2429006504990E+01 -0.9597269209304E+00  0.1612794928607E+00
 0.3791679772210E+00 -0.2467928983912E+01 -0.9817176706546E+00  0.1687605275218E+00
 0.3651809971639E+00 -0.2505387426366E+01 -0.1005897019173E+01  0.1789349018033E+00
 0.3445148422065E+00 -0.2540971436106E+01 -0.1032334596514E+01  0.1916755635907E+00
 0.3166092996639E+00 -0.2574251265267E+01 -0.1061091721142E+01  0.2067930729457E+00
 0.2809170810513E+00 -0.2604781828933E+01 -0.1092216428734E+01  0.2240232584057E+00
 0.2369153631808E+00 -0.2632105522777E+01 -0.1125739372155E+01  0.2430214878768E+00
 0.1841152871741E+00 -0.2655754407913E+01 -0.1161670383801E+01  0.2633634437515E+00
 0.1220692419604E+00 -0.2675251339149E+01 -0.1199995582635E+01  0.2845525717477E+00
 0.5037493687802E-01 -0.2690108844562E+01 -0.1240674933465E+01  0.3060347724828E+00
-0.3132545526877E-01 -0.2699823873771E+01 -0.1283640181393E+01  0.3272215131384E+00
-0.1233535852059E+00 -0.2703865582071E+01 -0.1328793005250E+01  0.3475236012697E+00
-0.2260150674906E+00 -0.2701652235654E+01 -0.1376003628988E+01  0.3663999122676E+00
-0.3396367039224E+00 -0.2692508463603E+01 -0.1425108225122E+01  0.3834298509911E+00
-0.4646380050195E+00 -0.2675592866344E+01 -0.1475908505797E+01  0.3984288906065E+00
-0.6016313601271E+00 -0.2649732785701E+01 -0.1528141144663E+01  0.4116617335993E+00
-0.7513377195164E+00 -0.2612875603987E+01 -0.1581180258036E+01  0.4243464014632E+00
 0.3875915736775E+00 -0.2340210074968E+01 -0.9177306932790E+00  0.1720851870311E+00
 0.3940812271968E+00 -0.2380745046668E+01 -0.9337319927830E+00  0.1730774773954E+00
 0.3954460313371E+00 -0.2420308204892E+01 -0.9516852191570E+00  0.1771961741848E+00
 0.3912391003007E+00 -0.2458505601537E+01 -0.9716152531165E+00  0.1842680615688E+00
 0.3809239528979E+00 -0.2494896073478E+01 -0.9935668941525E+00  0.1941535993527E+00
 0.3639362666407E+00 -0.2529020347896E+01 -0.1017589515609E+01  0.2066955339665E+00
 0.3397171736828E+00 -0.2560412634776E+01 -0.1043726864066E+01  0.2216825698582E+00
 0.3077315005248E+00 -0.2588604833711E+01 -0.1072010463878E+01  0.2388258061763E+00
 0.2674784032454E+00 -0.2613128065216E+01 -0.1102455338330E+01  0.2577457590643E+00
 0.2184972809580E+00 -0.2633513609339E+01 -0.1135057671460E+01  0.2779681775274E+00
 0.1603692970508E+00 -0.2649293537307E+01 -0.1169794389953E+01  0.2989273831154E+00
 0.9271310818436E-01 -0.2660000171434E+01 -0.1206624916667E+01  0.3199763725347E+00
 0.1517189447171E-01 -0.2665162763830E+01 -0.1245495705439E+01  0.3404033936188E+00
-0.7261305296426E-01 -0.2664299220476E+01 -0.1286348765254E+01  0.3594551808153E+00
-0.1710502847948E+00 -0.2656900415521E+01 -0.1329136825777E+01  0.3763675780922E+00
-0.2806819619720E+00 -0.2642404079790E+01 -0.1373850436143E+01  0.3904049440514E+00
-0.4023370990734E+00 -0.2620159371795E+01 -0.1420573337705E+01  0.4009105605957E+00
-0.5374174784982E+00 -0.2589377916568E+01 -0.1469593831954E+01  0.4073724849439E+00
-0.6885925926527E+00 -0.2549169245340E+01 -0.1521748059997E+01  0.4095081091575E+00
-0.8618550576562E+00 -0.2498934902418E+01 -0.1579571277228E+01  0.4074296000467E+00
 0.3950262735562E+00 -0.2368933852835E+01 -0.9277365599079E+00  0.1880316660565E+00
 0.4003222103189E+00 -0.2408054374586E+01 -0.9436341148120E+00  0.1910755362523E+00
 0.4001441968188E+00 -0.2445594527178E+01 -0.9613616528303E+00  0.1973620513913E+00
 0.3939516139038E+00 -0.2481019564817E+01 -0.9809219344414E+00  0.2066336823670E+00
 0.3811558660918E+00 -0.2513788002711E+01 -0.1002337101669E+01  0.2186850417241E+00
 0.3611811622556E+00 -0.2543374779342E+01 -0.1025630997429E+01  0.2332887302592E+00
 0.3334926973758E+00 -0.2569276099667E+01 -0.1050818196412E+01  0.2501479371324E+00
 0.2976086406171E+00 -0.2591007933563E+01 -0.1077897664950E+01  0.2688694126598E+00
 0.2531038462303E+00 -0.2608103904731E+01 -0.1106850024688E+01  0.2889512598253E+00
 0.1996077843938E+00 -0.2620114576297E+01 -0.1137638189309E+01  0.3097814070578E+00
 0.1367960059983E+00 -0.2626607906613E+01 -0.1170211590321E+01  0.3306438189831E+00
 0.6437226818912E-01 -0.2627169520663E+01 -0.1204514705608E+01  0.3507303389798E+00
-0.1796351727122E-01 -0.2621400931968E+01 -0.1240501287996E+01  0.3691564970708E+00
-0.1105690201187E+00 -0.2608913881492E+01 -0.1278156960515E+01  0.3849795721902E+00
-0.2139466595987E+00 -0.2589319374126E+01 -0.1317535032509E+01  0.3972163403290E+00
-0.3288852546686E+00 -0.2562212659788E+01 -0.1358816016348E+01  0.4048552908761E+00
-0.4566920107570E+00 -0.2527159078504E+01 -0.1402410008396E+01  0.4068506208137E+00
-0.5996223133406E+00 -0.2483729621936E+01 -0.1449175405904E+01  0.4020635108847E+00
-0.7616086711993E+00 -0.2431601438546E+01 -0.1500808747774E+01  0.3890531053659E+00
-0.9505234520099E+00 -0.2371775126784E+01 -0.1561480328072E+01  0.3652271613811E+00
 0.4012367592090E+00 -0.2393204353362E+01 -0.9362247668774E+00  0.2034916986623E+00
 0.4052925379107E+00 -0.2430142338520E+01 -0.9516794038728E+00  0.2085580331985E+00
 0.4035722925772E+00 -0.2464758171978E+01 -0.9687573608611E+00  0.2168739532570E+00
 0.3954340905418E+00 -0.2496363091106E+01 -0.9874366277605E+00  0.2281184673440E+00
 0.3802495334099E+00 -0.2524324893351E+01 -0.1007715416616E+01  0.2420373943735E+00
 0.3574568392092E+00 -0.2548075994302E+01 -0.1029591000282E+01  0.2583431937789E+00
 0.3265776161028E+00 -0.2567104661418E+01 -0.1053047708627E+01  0.2766577165798E+00
 0.2872184598046E+00 -0.2580943889453E+01 -0.1078050949201E+01  0.2964845554332E+00
 0.2390654012858E+00 -0.2589164217140E+01 -0.1104546440650E+01  0.3172004387546E+00
 0.1818728354467E+00 -0.2591371380072E+01 -0.1132464313101E+01  0.3380582396539E+00
 0.1154448897151E+00 -0.2587207273557E+01 -0.1161728317459E+01  0.3581964704085E+00
 0.3960518900324E-01 -0.2576351576864E+01 -0.1192270799271E+01  0.3766514316519E+00
-0.4585092065144E-01 -0.2558521494293E+01 -0.1224055031919E+01  0.3923684602451E+00
-0.1412296435985E+00 -0.2533467526400E+01 -0.1257107666711E+01  0.4042078043832E+00
-0.2470481127626E+00 -0.2500964220375E+01 -0.1291565793299E+01  0.4109380307561E+00
-0.3641916850277E+00 -0.2460795913279E+01 -0.1327744167836E+01  0.4112039415098E+00
-0.4941317099076E+00 -0.2412744577557E+01 -0.1366231851643E+01  0.4034427616653E+00
-0.6391610356697E+00 -0.2356574816252E+01 -0.1407995846832E+01  0.3856878087459E+00
-0.8026503274226E+00 -0.2292165245252E+01 -0.1454563315468E+01  0.3551130430848E+00
-0.9864763663810E+00 -0.2218203807797E+01 -0.1506199678043E+01  0.3070188230072E+00
 0.4062294909839E+00 -0.2413025837879E+01 -0.9431942806485E+00  0.2183327834815E+00
 0.4090782427819E+00 -0.2446986557719E+01 -0.9578169055911E+00  0.2253357736212E+00
 0.4058988280334E+00 -0.2477709787699E+01 -0.9737511485730E+00  0.2354688590002E+00
 0.3959478356956E+00 -0.2504354706494E+01 -0.9909512267619E+00  0.2483855759840E+00
 0.3785794466613E+00 -0.2526226999010E+01 -0.1009394347044E+01  0.2638113290985E+00
 0.3532795045912E+00 -0.2542756877187E+01 -0.1029054362510E+01  0.2814154438576E+00
 0.3196639844413E+00 -0.2553466169301E+01 -0.1049887024221E+01  0.3007484132037E+00
 0.2774666010419E+00 -0.2557942805536E+01 -0.1071823813394E+01  0.3212189639790E+00
 0.2265234122997E+00 -0.2555826684755E+01 -0.1094772535277E+01  0.3420930584949E+00
 0.1667537329686E+00 -0.2546805315942E+01 -0.1118624241160E+01  0.3625031894021E+00
 0.9813438446114E-01 -0.2530614125407E+01 -0.1143265475345E+01  0.3814604546910E+00
 0.2066259531580E-01 -0.2507036789653E+01 -0.1168595868374E+01  0.3978638955462E+00
-0.6569760669959E-01 -0.2475901879469E+01 -0.1194551755469E+01  0.4105016106082E+00
-0.1610908658741E+00 -0.2437073528120E+01 -0.1221137262080E+01  0.4180364035310E+00
-0.2658711688625E+00 -0.2390434595443E+01 -0.1248463706057E+01  0.4189650721315E+00
-0.3807225007828E+00 -0.2335860713906E+01 -0.1276794107665E+01  0.4115347038233E+00
-0.5067582210996E+00 -0.2273175745525E+01 -0.1306568960999E+01  0.3935909694231E+00
-0.6454555655955E+00 -0.2202060850498E+01 -0.1338332712170E+01  0.3623298889299E+00
-0.7977664552274E+00 -0.2121687046324E+01 -0.1372143142249E+01  0.3139212959225E+00
-0.9626640936931E+00 -0.2030770338042E+01 -0.1406914179347E+01  0.2434321865256E+00
 0.4100326636300E+00 -0.2428432911318E+01 -0.9486481140071E+00  0.2324097821832E+00
 0.4117734946689E+00 -0.2458591592855E+01 -0.9620045037076E+00  0.2411735380411E+00
 0.4072801695707E+00 -0.2484381950638E+01 -0.9762378346254E+00  0.2528159401822E+00
 0.3957169541311E+00 -0.2504839384518E+01 -0.9912875397676E+00  0.2670241291399E+00
 0.3764524350742E+00 -0.2519263386371E+01 -0.1007121144555E+01  0.2835411225238E+00
 0.3490597170775E+00 -0.2527139244955E+01 -0.1023697375506E+01  0.3020139705298E+00
 0.3132882221533E+00 -0.2528069630259E+01 -0.1040947259170E+01  0.3219349431971E+00
 0.2690369171336E+00 -0.2521729306649E+01 -0.1058765420387E+01  0.3426315111680E+00
 0.2163299737905E+00 -0.2507844994340E+01 -0.1077012056926E+01  0.3632773786931E+00
 0.1552933480413E+00 -0.2486189240468E+01 -0.1095521066662E+01  0.3829085617015E+00
 0.8612732663034E-01 -0.2456578901054E+01 -0.1114112237153E+01  0.4004356181485E+00
 0.9071694073587E-02 -0.2418870477663E+01 -0.1132605425414E+01  0.4146459522719E+00
-0.7563934378576E-01 -0.2372948866896E+01 -0.1150836456101E+01  0.4241897730540E+00
-0.1678325275176E+00 -0.2318708032468E+01 -0.1168674060229E+01  0.4275409014484E+00
-0.2674556061998E+00 -0.2256023063770E+01 -0.1186034971878E+01  0.4229203864674E+00
-0.3746236078460E+00 -0.2184712491205E+01 -0.1202887963503E+01  0.4081686902471E+00
-0.4895997302418E+00 -0.2104482147521E+01 -0.1219218479456E+01  0.3805591759935E+00
-0.6125921344875E+00 -0.2014821967314E+01 -0.1234884624715E+01  0.3365863975288E+00
-0.7429843425200E+00 -0.1914663378453E+01 -0.1249094425689E+01  0.2719719893867E+00
-0.8784281591627E+00 -0.1802265645447E+01 -0.1259926084971E+01  0.1822291567445E+00
 0.4126930063771E+00 -0.2439505383197E+01 -0.9526018146893E+00  0.2455597464969E+00
 0.4134781100666E+00 -0.2464993144518E+01 -0.9642120637468E+00  0.2557829220847E+00
 0.4078599145005E+00 -0.2484719546858E+01 -0.9761240247323E+00  0.2685149736000E+00
 0.3949318767992E+00 -0.2497673148621E+01 -0.9882883952497E+00  0.2835552462059E+00
 0.3741204624187E+00 -0.2503233107838E+01 -0.1000682940809E+01  0.3007046883275E+00
 0.3451246078439E+00 -0.2501011925899E+01 -0.1013267036916E+01  0.3196051175636E+00
 0.3078625410369E+00 -0.2490732867280E+01 -0.1025949050732E+01  0.3397015197393E+00
 0.2624295774427E+00 -0.2472170753316E+01 -0.1038578350026E+01  0.3602559360691E+00
 0.2090700318950E+00 -0.2445130931929E+01 -0.1050948620350E+01  0.3803738246879E+00
 0.1481528805793E+00 -0.2409447003336E+01 -0.1062808235000E+01  0.3990249766137E+00
 0.8015002832656E-01 -0.2364976397365E+01 -0.1073868390724E+01  0.4150521567341E+00
 0.5613735507845E-02 -0.2311588458828E+01 -0.1083808117211E+01  0.4271633364801E+00
-0.7484519689744E-01 -0.2249143479372E+01 -0.1092274675076E+01  0.4339016089554E+00
-0.1605723100073E+00 -0.2177463480281E+01 -0.1098876818648E+01  0.4335841725613E+00
-0.2508652448618E+00 -0.2096297061504E+01 -0.1103166281194E+01  0.4241995879132E+00
-0.3449310682028E+00 -0.2005281937306E+01 -0.1104600109787E+01  0.4032539699356E+00
-0.4418005787126E+00 -0.1903920959800E+01 -0.1102489120304E+01  0.3675710043790E+00
-0.5402514220232E+00 -0.1791590271175E+01 -0.1095965593023E+01  0.3131078131624E+00
-0.6395280663527E+00 -0.1667919603058E+01 -0.1084500401872E+01  0.2350397841032E+00
-0.7385857902661E+00 -0.1531104235524E+01 -0.1066754309416E+01  0.1288861201606E+00
 0.4142692269688E+00 -0.2446372689140E+01 -0.9550886247978E+00  0.2575851525943E+00
 0.4142955591959E+00 -0.2466228718885E+01 -0.9644085826079E+00  0.2688040199149E+00
 0.4077593790151E+00 -0.2478650504127E+01 -0.9733188263337E+00  0.2820881945665E+00
 0.3937476315789E+00 -0.2482702129024E+01 -0.9818086113089E+00  0.2974340227166E+00
 0.3717830545317E+00 -0.2477976188544E+01 -0.9899107704751E+00  0.3147275482180E+00
 0.3417245645070E+00 -0.2464280791977E+01 -0.9976014243808E+00  0.3336067756612E+00
 0.3036790576409E+00 -0.2441478069238E+01 -0.1004765532902E+01  0.3534732907042E+00
 0.2579591024175E+00 -0.2409421837777E+01 -0.1011187483054E+01  0.3735417402827E+00
 0.2050461218543E+00 -0.2367964552380E+01 -0.1016571659769E+01  0.3928793090503E+00
 0.1455730011446E+00 -0.2316959595029E+01 -0.1020551696537E+01  0.4104254723637E+00
 0.8031341968777E-01 -0.2256252991496E+01 -0.1022691596156E+01  0.4249937794713E+00
 0.1017920173575E-01 -0.2185663224892E+01 -0.1022477488290E+01  0.4352544994331E+00
-0.6376848931238E-01 -0.2104951920767E+01 -0.1019298590152E+01  0.4396936109976E+00
-0.1402820255874E+00 -0.2013788489982E+01 -0.1012413139750E+01  0.4365408960130E+00
-0.2178468199890E+00 -0.1911712987220E+01 -0.1000893106850E+01  0.4236584500668E+00
-0.2945445568893E+00 -0.1798107588025E+01 -0.9835465056150E+00  0.3983818478590E+00
-0.3678750378830E+00 -0.1672192945070E+01 -0.9588319495559E+00  0.3573101429253E+00
-0.4347758888684E+00 -0.1533151221533E+01 -0.9249257395426E+00  0.2960446940384E+00
-0.4924869363910E+00 -0.1380412758032E+01 -0.8802628541460E+00  0.2087806136747E+00
-0.5464783147416E+00 -0.1217137527564E+01 -0.8288994437813E+00  0.8831127255704E-01
 0.4148529035919E+00 -0.2449227000628E+01 -0.9561558231817E+00  0.2682472578070E+00
 0.4142125375139E+00 -0.2462527965422E+01 -0.9627082486752E+00  0.2798345472578E+00
 0.4068800779777E+00 -0.2466424159428E+01 -0.9679857158263E+00  0.2930631807731E+00
 0.3919855493177E+00 -0.2460312125450E+01 -0.9721134883167E+00  0.3081904845210E+00
 0.3691893150404E+00 -0.2444148128642E+01 -0.9752306399194E+00  0.3251710582097E+00
 0.3385004476430E+00 -0.2417990634932E+01 -0.9773603855469E+00  0.3436072763646E+00
 0.3002351075358E+00 -0.2381777589235E+01 -0.9783249639174E+00  0.3628550029994E+00
 0.2549200671774E+00 -0.2335392147802E+01 -0.9778218754136E+00  0.3821045191167E+00
 0.2032688821835E+00 -0.2278688109817E+01 -0.9754470345138E+00  0.4004165114200E+00
 0.1461713505174E+00 -0.2211492955781E+01 -0.9707011520117E+00  0.4167332791351E+00
 0.8469644502829E-01 -0.2133590073999E+01 -0.9629800031738E+00  0.4298723525961E+00
 0.2011038641113E-01 -0.2044689190011E+01 -0.9515520352787E+00  0.4385028815825E+00
-0.4607947519739E-01 -0.1944389516715E+01 -0.9355204238261E+00  0.4411011978444E+00
-0.1120384663832E+00 -0.1832139568002E+01 -0.9137636738434E+00  0.4358801083267E+00
-0.1754545482672E+00 -0.1707198668817E+01 -0.8848470097853E+00  0.4206852893462E+00
-0.2332998749984E+00 -0.1568604870926E+01 -0.8468952284366E+00  0.3928490469953E+00
-0.2815040190423E+00 -0.1415161189202E+01 -0.7974326458522E+00  0.3489774872447E+00
-0.3145286920534E+00 -0.1245378565376E+01 -0.7331564091325E+00  0.2845687490828E+00
-0.3249870429607E+00 -0.1057299991382E+01 -0.6496749044935E+00  0.1930494604561E+00
-0.3061792938315E+00 -0.8486869833510E+00 -0.5427871488991E+00  0.6210432600935E-01
 0.4144331983901E+00 -0.2448521116624E+01 -0.9560213191450E+00  0.2772810193492E+00
 0.4131294280366E+00 -0.2454285952875E+01 -0.9593435642408E+00  0.2884397710513E+00
 0.4050383578078E+00 -0.2448389126712E+01 -0.9603748589493E+00  0.3010186030491E+00
 0.3894807935891E+00 -0.2430954838967E+01 -0.9594927988941E+00  0.3154962649503E+00
 0.3660818128600E+00 -0.2402605116817E+01 -0.9571659504321E+00  0.3317661511781E+00
 0.3350840961186E+00 -0.2363416612132E+01 -0.9533162801084E+00  0.3493424048846E+00
 0.2969863403174E+00 -0.2313312860694E+01 -0.9476734621732E+00  0.3675517313642E+00
 0.2525066861361E+00 -0.2252152072970E+01 -0.9398333294282E+00  0.3855877265022E+00
 0.2025575302694E+00 -0.2179754971253E+01 -0.9292827949054E+00  0.4025274488140E+00
 0.1482441334657E+00 -0.2095889155652E+01 -0.9153931581058E+00  0.4173300804726E+00
 0.9087602205969E-01 -0.2000238025065E+01 -0.8974001391362E+00  0.4288230599447E+00
 0.3199873804167E-01 -0.1892361474797E+01 -0.8743704840574E+00  0.4356741697194E+00
-0.2654237492146E-01 -0.1771652954502E+01 -0.8451518026854E+00  0.4363464126276E+00
-0.8248836901278E-01 -0.1637296677103E+01 -0.8082989696242E+00  0.4290320078665E+00
-0.1329769958193E+00 -0.1488228947728E+01 -0.7619667915347E+00  0.4115609413979E+00
-0.1742398892075E+00 -0.1323106857832E+01 -0.7037529693236E+00  0.3812746874923E+00
-0.2011024695652E+00 -0.1140262064013E+01 -0.6304413291828E+00  0.3348319770078E+00
-0.2060778236579E+00 -0.9375756483718E+00 -0.5375171304906E+00  0.2678309484339E+00
-0.1770018396042E+00 -0.7118035965698E+00 -0.4177385539423E+00  0.1738396196121E+00
-0.8465269787267E-01 -0.4526999546471E+00 -0.2525557460437E+00  0.4023227152961E-01
 0.4127367059975E+00 -0.2445075594155E+01 -0.9551992750112E+00  0.2843051116484E+00
 0.4106950717842E+00 -0.2441765433574E+01 -0.9546030676202E+00  0.2940368631268E+00
 0.4023876221537E+00 -0.2424104942972E+01 -0.9502071383744E+00  0.3056129596812E+00
 0.3863121044116E+00 -0.2394759382348E+01 -0.9439702182359E+00  0.3191478573363E+00
 0.3625731216555E+00 -0.2353947133673E+01 -0.9359457832743E+00  0.3342898216854E+00
 0.3315569653383E+00 -0.2301593351257E+01 -0.9259170990331E+00  0.3505119326515E+00
 0.2939217806280E+00 -0.2237551451634E+01 -0.9135059430560E+00  0.3671592764109E+00
 0.2505331150538E+00 -0.2161657151734E+01 -0.8982282949616E+00  0.3834566068142E+00
 0.2024516539336E+00 -0.2073707388328E+01 -0.8794901929349E+00  0.3985064773678E+00
 0.1509324159139E+00 -0.1973427378361E+01 -0.8565726301776E+00  0.4112796676032E+00
 0.9743957547048E-01 -0.1860433692588E+01 -0.8286072329437E+00  0.4205957306048E+00
 0.4368200335559E-01 -0.1734198468563E+01 -0.7945427366321E+00  0.4250909354107E+00
-0.8319594827352E-02 -0.1594018965281E+01 -0.7530991213406E+00  0.4231713107442E+00
-0.5611803229754E-01 -0.1438998894566E+01 -0.7027049538434E+00  0.4129492048522E+00
-0.9665321947782E-01 -0.1268050801538E+01 -0.6414108882505E+00  0.3921623141164E+00
-0.1259495566865E+00 -0.1079929614211E+01 -0.5667632088843E+00  0.3580724337497E+00
-0.1385988246881E+00 -0.8733112324149E+00 -0.4755977256321E+00  0.3073335798487E+00
-0.1267272854549E+00 -0.6469211720395E+00 -0.3636147741001E+00  0.2357973581393E+00
-0.7768260899651E-01 -0.3999541614256E+00 -0.2244892815290E+00  0.1382533620704E+00
 0.3495044330349E-01 -0.1339824507442E+00 -0.4654504337909E-01  0.9142729100039E-02
</DataArray>
<DataArray type="Float64" Name="S_Mises" NumberOfComponents="1" ComponentName0="S_Mises" format="ascii">
 0.2794415062833E+01
 0.2656046982890E+01
 0.2527309812827E+01
 0.2506674491347E+01
 0.2487155457225E+01
 0.2471664107073E+01
 0.2453783324248E+01
 0.2432780650449E+01
 0.2408116373859E+01
 0.2379784702295E+01
 0.2347886240749E+01
 0.2312570323764E+01
 0.2273974612700E+01
 0.2232205094495E+01
 0.2187326937250E+01
 0.2139364480335E+01
 0.2088306692834E+01
 0.2034121114509E+01
 0.1976765769058E+01
 0.1916220182075E+01
 0.1852522977758E+01
 0.1785854568840E+01
 0.1716722986732E+01
 0.1645945633302E+01
 0.1572871084817E+01
 0.1495118142744E+01
 0.1410908931282E+01
 0.1320186538273E+01
 0.1224523223900E+01
 0.1126600956915E+01
 0.1029710154439E+01
 0.9374466847407E+00
 0.8535598101116E+00
 0.7827140483861E+00
 0.7313831949982E+00
 0.7063437019916E+00
 0.7178073474625E+00
 0.7670429024166E+00
 0.9253906809375E+00
 0.9542011941739E+00
 0.2128876045743E+01
 0.2411950630421E+01
 0.2572770446334E+01
 0.2471309541081E+01
 0.2421569111633E+01
 0.2396366318551E+01
 0.2374469520530E+01
 0.2353330545481E+01
 0.2330314476127E+01
 0.2304659239908E+01
 0.2276005632166E+01
 0.2244275013396E+01
 0.2209487251573E+01
 0.2171697468575E+01
 0.2130957762543E+01
 0.2087300693445E+01
 0.2040733668939E+01
 0.1991240949046E+01
 0.1938792600092E+01
 0.1883357933871E+01
 0.1824927203896E+01
 0.1763546384036E+01
 0.1699364717841E+01
 0.1632576845618E+01
 0.1563162850718E+01
 0.1490621728634E+01
 0.1414089480468E+01
 0.1332932367714E+01
 0.1247337321239E+01
 0.1158472009211E+01
 0.1068315369919E+01
 0.9793961711987E+00
 0.8946157742617E+00
 0.8172476269513E+00
 0.7510633992090E+00
 0.7001771404352E+00
 0.6693160843438E+00
 0.6605341011049E+00
 0.6828316943275E+00
 0.7045784332896E+00
 0.6275613504127E+00
 0.1527345942844E+01
 0.2172634549090E+01
 0.2395505947432E+01
 0.2384205734990E+01
 0.2332948850491E+01
 0.2302480849477E+01
 0.2277368243721E+01
 0.2253544134035E+01
 0.2228948913193E+01
 0.2202434382733E+01
 0.2173508411832E+01
 0.2141947837876E+01
 0.2107677954564E+01
 0.2070685007818E+01
 0.2030974698306E+01
 0.1988549507596E+01
 0.1943399367856E+01
 0.1895500208126E+01
 0.1844820070297E+01
 0.1791329061230E+01
 0.1735014792988E+01
 0.1675903603522E+01
 0.1614046012193E+01
 0.1549373868275E+01
 0.1481609422167E+01
 0.1410490582169E+01
 0.1335919344694E+01
 0.1257948443652E+01
 0.1176961342355E+01
 0.1093865815526E+01
 0.1010116491958E+01
 0.9276234599136E+00
 0.8486729601755E+00
 0.7758755935079E+00
 0.7119218790999E+00
 0.6593663018803E+00
 0.6199062889301E+00
 0.5939145043088E+00
 0.5774504086751E+00
 0.5221361742543E+00
 0.5171912367616E+00
 0.1244966192831E+01
 0.1995094731672E+01
 0.2218429816182E+01
 0.2265999738870E+01
 0.2236353576218E+01
 0.2205625445290E+01
 0.2179297476119E+01
 0.2154001713599E+01
 0.2128306193405E+01
 0.2101189660323E+01
 0.2072101773563E+01
 0.2040760367265E+01
 0.2007028277362E+01
 0.1970843174992E+01
 0.1932174080963E+01
 0.1890997871181E+01
 0.1847287620681E+01
 0.1801008843957E+01
 0.1752122859380E+01
 0.1700592601474E+01
 0.1646391157249E+01
 0.1589503366848E+01
 0.1529873011183E+01
 0.1467289069286E+01
 0.1401441504630E+01
 0.1332276759542E+01
 0.1260102510372E+01
 0.1185347439690E+01
 0.1108515058352E+01
 0.1030329493704E+01
 0.9518459422868E+00
 0.8744670307846E+00
 0.7999100647870E+00
 0.7300802300387E+00
 0.6667358770436E+00
 0.6110524298662E+00
 0.5630634020240E+00
 0.5210842042208E+00
 0.4738707348937E+00
 0.4087569259980E+00
 0.4815575808448E+00
 0.1042429474145E+01
 0.1849476988254E+01
 0.2055980098284E+01
 0.2135115277589E+01
 0.2130115340233E+01
 0.2105481094706E+01
 0.2079875523622E+01
 0.2054294261082E+01
 0.2028105646557E+01
 0.2000698565814E+01
 0.1971613784120E+01
 0.1940576190930E+01
 0.1907427704704E+01
 0.1872078691920E+01
 0.1834473524579E+01
 0.1794569219375E+01
 0.1752323790619E+01
 0.1707691195576E+01
 0.1660622311061E+01
 0.1611066755057E+01
 0.1558973881409E+01
 0.1504278391685E+01
 0.1446841703956E+01
 0.1386396235176E+01
 0.1322679958402E+01
 0.1255792280192E+01
 0.1186248453480E+01
 0.1114659921809E+01
 0.1041577310524E+01
 0.9675781910730E+00
 0.8934049852960E+00
 0.8200384167626E+00
 0.7486816826489E+00
 0.6806094960990E+00
 0.6168097688008E+00
 0.5575331392304E+00
 0.5019998868974E+00
 0.4472467124476E+00
 0.3867378479615E+00
 0.3390676456505E+00
 0.4547378293123E+00
 0.8744731228213E+00
 0.1722360340929E+01
 0.1908152270957E+01
 0.2001840993104E+01
 0.2017193305147E+01
 0.2001829772525E+01
 0.1978998643711E+01
 0.1954174697933E+01
 0.1928125907250E+01
 0.1900776650015E+01
 0.1871892029324E+01
 0.1841270163694E+01
 0.1808771079261E+01
 0.1774300623786E+01
 0.1737791297716E+01
 0.1699186991295E+01
 0.1658433310633E+01
 0.1615472387240E+01
 0.1570242084001E+01
 0.1522674312103E+01
 0.1472689530855E+01
 0.1420174915010E+01
 0.1364938716114E+01
 0.1306705524904E+01
 0.1245279625867E+01
 0.1180858850269E+01
 0.1114048483615E+01
 0.1045523771415E+01
 0.9758258956941E+00
 0.9054030660087E+00
 0.8347459655601E+00
 0.7644846376181E+00
 0.6953848534163E+00
 0.6282085626039E+00
 0.5633951300877E+00
 0.5007409955517E+00
 0.4392748996001E+00
 0.3771238689430E+00
 0.3162406694327E+00
 0.2896994709401E+00
 0.4169032848287E+00
 0.7273653511995E+00
 0.1606885071628E+01
 0.1772441088245E+01
 0.1870838013904E+01
 0.1900895737297E+01
 0.1895288379754E+01
 0.1876687475436E+01
 0.1853544386735E+01
 0.1828214394352E+01
 0.1801278801598E+01
 0.1772806912233E+01
 0.1742729653761E+01
 0.1710960149408E+01
 0.1677421538736E+01
 0.1642047338483E+01
 0.1604775455977E+01
 0.1565542350019E+01
 0.1524278827378E+01
 0.1480908270305E+01
 0.1435342314362E+01
 0.1387471365789E+01
 0.1337142970680E+01
 0.1284135415851E+01
 0.1228187745481E+01
 0.1169162937306E+01
 0.1107311023585E+01
 0.1043254477031E+01
 0.9776592626866E+00
 0.9110177465901E+00
 0.8436577508612E+00
 0.7758637488317E+00
 0.7079806748139E+00
 0.6404263779665E+00
 0.5735906973023E+00
 0.5076118360073E+00
 0.4422269828532E+00
 0.3770013224958E+00
 0.3126767838425E+00
 0.2576865563558E+00
 0.2466639548468E+00
 0.3659071680662E+00
 0.5948088229129E+00
 0.1499217030677E+01
 0.1646341554976E+01
 0.1743926041173E+01
 0.1783686683875E+01
 0.1786850132368E+01
 0.1773156319367E+01
 0.1752401634718E+01
 0.1728287604784E+01
 0.1702097771486E+01
 0.1674251912621E+01
 0.1644855528446E+01
 0.1613904460187E+01
 0.1581358397910E+01
 0.1547164023963E+01
 0.1511260363943E+01
 0.1473578323879E+01
 0.1434038513381E+01
 0.1392549364420E+01
 0.1349001379604E+01
 0.1303256498590E+01
 0.1255131389524E+01
 0.1204389383670E+01
 0.1150790074509E+01
 0.1094237929233E+01
 0.1034998404597E+01
 0.9736650673432E+00
 0.9108502303314E+00
 0.8469724130683E+00
 0.7822460295354E+00
 0.7167867534150E+00
 0.6507172661281E+00
 0.5842027066299E+00
 0.5174109838636E+00
 0.4504137688016E+00
 0.3832471774864E+00
 0.3166114336047E+00
 0.2540506643072E+00
 0.2066552026343E+00
 0.2032652855445E+00
 0.3044523128154E+00
 0.4729426903665E+00
 0.1397062667317E+01
 0.1527819249963E+01
 0.1621592026295E+01
 0.1667147835943E+01
 0.1677503395319E+01
 0.1668757388880E+01
 0.1650825188888E+01
 0.1628317569325E+01
 0.1603162209678E+01
 0.1576142559627E+01
 0.1547562369088E+01
 0.1517521879923E+01
 0.1486033180334E+01
 0.1453066787863E+01
 0.1418569493885E+01
 0.1382470322631E+01
 0.1344681267290E+01
 0.1305096177751E+01
 0.1263584899839E+01
 0.1219983816146E+01
 0.1174086045066E+01
 0.1125647828275E+01
 0.1074446397184E+01
 0.1020408376091E+01
 0.9637864477962E+00
 0.9051160790769E+00
 0.8449298773136E+00
 0.7835585000270E+00
 0.7211109316085E+00
 0.6575676663484E+00
 0.5928899706001E+00
 0.5270866736880E+00
 0.4602516320149E+00
 0.3926076697353E+00
 0.3248109739233E+00
 0.2590544650880E+00
 0.2010974192237E+00
 0.1609752907447E+00
 0.1576376680817E+00
 0.2358685103994E+00
 0.3590709043403E+00
 0.1298972865338E+01
 0.1415311004211E+01
 0.1503729586046E+01
 0.1552200003283E+01
 0.1568065231575E+01
 0.1563891459068E+01
 0.1548952725556E+01
 0.1528319662470E+01
 0.1504431657500E+01
 0.1478414799294E+01
 0.1450777983063E+01
 0.1421738743040E+01
 0.1391373248410E+01
 0.1359684557988E+01
 0.1326633068422E+01
 0.1292149437034E+01
 0.1256138891295E+01
 0.1218481689087E+01
 0.1179028334529E+01
 0.1137592809593E+01
 0.1093949802824E+01
 0.1047851065827E+01
 0.9990841006846E+00
 0.9475795134477E+00
 0.8935561924898E+00
 0.8374734010735E+00
 0.7797698833234E+00
 0.7206825669618E+00
 0.6602251204381E+00
 0.5982748997086E+00
 0.5346908480168E+00
 0.4694204019478E+00
 0.4026270620564E+00
 0.3348977780126E+00
 0.2678208252842E+00
 0.2053763679553E+00
 0.1549545318040E+00
 0.1222554955327E+00
 0.1121145228962E+00
 0.1632578827874E+00
 0.2512461825889E+00
 0.1203989066316E+01
 0.1307631841242E+01
 0.1389992060942E+01
 0.1439322356421E+01
 0.1459144245150E+01
 0.1458941015355E+01
 0.1446953541023E+01
 0.1428340886021E+01
 0.1405890602559E+01
 0.1381022541197E+01
 0.1354442480506E+01
 0.1326489657861E+01
 0.1297311504152E+01
 0.1266950049749E+01
 0.1235384071589E+01
 0.1202549017322E+01
 0.1168345288070E+01
 0.1132640916442E+01
 0.1095268756074E+01
 0.1056023147475E+01
 0.1014663277596E+01
 0.9709355194694E+00
 0.9246285494356E+00
 0.8756612185873E+00
 0.8242033698814E+00
 0.7706274213418E+00
 0.7152719150751E+00
 0.6582800686497E+00
 0.5995826545001E+00
 0.5389855090230E+00
 0.4763032520992E+00
 0.4115166854830E+00
 0.3450089369331E+00
 0.2779808514150E+00
 0.2134066212319E+00
 0.1578136088336E+00
 0.1203981478337E+00
 0.9903152429541E-01
 0.7809234109148E-01
 0.9104554810990E-01
 0.1481817427681E+00
 0.1111451662915E+01
 0.1203881373501E+01
 0.1279957981125E+01
 0.1328715629838E+01
 0.1351159867841E+01
 0.1354234298868E+01
 0.1345003746798E+01
 0.1328448104594E+01
 0.1307542431885E+01
 0.1283934716035E+01
 0.1258506997663E+01
 0.1231717054881E+01
 0.1203786356629E+01
 0.1174799927204E+01
 0.1144758472757E+01
 0.1113604872079E+01
 0.1081236559145E+01
 0.1047510848514E+01
 0.1012244654185E+01
 0.9752147384732E+00
 0.9361658870317E+00
 0.8948361205904E+00
 0.8510060106132E+00
 0.8045696726689E+00
 0.7556371733856E+00
 0.7044885251965E+00
 0.6513608854884E+00
 0.5963079513005E+00
 0.5391921396935E+00
 0.4797798905446E+00
 0.4179006382755E+00
 0.3536713144738E+00
 0.2878831084567E+00
 0.2227588917463E+00
 0.1637067058703E+00
 0.1220471542190E+00
 0.1079985811179E+00
 0.1050062142562E+00
 0.8380246020333E-01
 0.4562027624375E-01
 0.5067011579757E-01
 0.1020890768297E+01
 0.1103369138425E+01
 0.1173205931884E+01
 0.1220412234126E+01
 0.1244379299675E+01
 0.1250032387441E+01
 0.1243268381990E+01
 0.1228717325380E+01
 0.1209403633479E+01
 0.1187132218374E+01
 0.1162932229819E+01
 0.1137370587199E+01
 0.1110741584956E+01
 0.1083174901846E+01
 0.1054695425029E+01
 0.1025255477440E+01
 0.9947511608892E+00
 0.9630305207348E+00
 0.9298960260427E+00
 0.8951081557883E+00
 0.8583970233182E+00
 0.8194882423123E+00
 0.7781456265916E+00
 0.7342281958781E+00
 0.6877789719249E+00
 0.6389834513291E+00
 0.5879795897843E+00
 0.5347386682949E+00
 0.4790712881327E+00
 0.4207386410906E+00
 0.3596509722090E+00
 0.2961937918227E+00
 0.2318789687983E+00
 0.1708710241315E+00
 0.1238229168046E+00
 0.1093050797669E+00
 0.1249917611184E+00
 0.1390664745504E+00
 0.1291944841742E+00
 0.9451134089117E-01
 0.5527165680186E-01
 0.9319611828989E+00
 0.1005559123780E+01
 0.1069345813940E+01
 0.1114347199310E+01
 0.1138955040175E+01
 0.1146529911555E+01
 0.1141890862017E+01
 0.1129225091823E+01
 0.1111498592899E+01
 0.1090604994462E+01
 0.1067686941390E+01
 0.1043406485851E+01
 0.1018126175301E+01
 0.9920198348587E+00
 0.9651375005129E+00
 0.9374422614742E+00
 0.9088301880934E+00
 0.8791412988151E+00
 0.8481647645886E+00
 0.8156453604339E+00
 0.7812973106657E+00
 0.7448293527339E+00
 0.7059808742606E+00
 0.6645677216793E+00
 0.6205611818335E+00
 0.5740524081342E+00
 0.5250844682285E+00
 0.4735554030964E+00
 0.4192428504963E+00
 0.3619421868983E+00
 0.3017306807173E+00
 0.2394795528525E+00
 0.1781037161116E+00
 0.1262010484033E+00
 0.1048914972690E+00
 0.1265600870269E+00
 0.1633043927609E+00
 0.1884336050110E+00
 0.1901813103470E+00
 0.1713832469232E+00
 0.1489250744059E+00
 0.8444021996482E+00
 0.9100295573942E+00
 0.9680293901568E+00
 0.1010402690934E+01
 0.1034956888929E+01
 0.1043862514001E+01
 0.1040988351352E+01
 0.1030042435847E+01
 0.1013855307523E+01
 0.9943494789136E+00
 0.9727466069100E+00
 0.9497869781868E+00
 0.9258942173085E+00
 0.9012839189603E+00
 0.8760310372158E+00
 0.8501100425053E+00
 0.8234178684884E+00
 0.7957874460484E+00
 0.7669953918861E+00
 0.7367707487357E+00
 0.7048100331072E+00
 0.6708006277499E+00
 0.6344508938490E+00
 0.5955272914335E+00
 0.5539265136472E+00
 0.5096469458600E+00
 0.4626423374229E+00
 0.4127482978264E+00
 0.3597319085929E+00
 0.3034747114462E+00
 0.2443598832394E+00
 0.1842012429464E+00
 0.1291675657374E+00
 0.9854952838559E-01
 0.1171439254342E+00
 0.1648424110060E+00
 0.2125444041635E+00
 0.2454052249352E+00
 0.2574131091904E+00
 0.2524267742312E+00
 0.2432025799606E+00
 0.7580119378024E+00
 0.8164439563441E+00
 0.8689513428070E+00
 0.9084354555402E+00
 0.9323971937648E+00
 0.9421168906497E+00
 0.9406513121170E+00
 0.9312313456444E+00
 0.9165022737359E+00
 0.8983666032318E+00
 0.8780923800086E+00
 0.8564799451082E+00
 0.8340050244584E+00
 0.8109211043358E+00
 0.7873267697517E+00
 0.7632078065403E+00
 0.7384624670521E+00
 0.7129171801342E+00
 0.6863363435597E+00
 0.6584327493781E+00
 0.6288830330443E+00
 0.5973489442052E+00
 0.5635022008021E+00
 0.5270550766408E+00
 0.4878279836328E+00
 0.4457287924789E+00
 0.4006281062489E+00
 0.3523115579469E+00
 0.3005647597044E+00
 0.2454371311541E+00
 0.1878989473476E+00
 0.1319264556195E+00
 0.9255618019157E-01
 0.1022328080993E+00
 0.1531425185006E+00
 0.2134208660515E+00
 0.2674548220150E+00
 0.3067254942333E+00
 0.3279578187333E+00
 0.3349184204481E+00
 0.3368698108149E+00
 0.6726304795041E+00
 0.7245302622117E+00
 0.7718463539777E+00
 0.8082935425929E+00
 0.8312500497467E+00
 0.8413412282233E+00
 0.8409457715503E+00
 0.8328434670817E+00
 0.8194667056383E+00
 0.8026606012032E+00
 0.7837106173896E+00
 0.7634590419443E+00
 0.7424237058277E+00
 0.7208910082031E+00
 0.6989810047782E+00
 0.6766901137424E+00
 0.6539179235115E+00
 0.6304845774634E+00
 0.6061422019469E+00
 0.5805864301565E+00
 0.5534716410379E+00
 0.5244299332927E+00
 0.4930915485744E+00
 0.4591107076117E+00
 0.4222303826316E+00
 0.3822701558831E+00
 0.3390236680836E+00
 0.2922412699232E+00
 0.2417702554745E+00
 0.1879856443971E+00
 0.1331737034350E+00
 0.8759934584434E-01
 0.8518461464082E-01
 0.1343580791349E+00
 0.2004641404157E+00
 0.2670343003330E+00
 0.3257353756410E+00
 0.3708957702376E+00
 0.4005799626868E+00
 0.4181269723283E+00
 0.4300154952208E+00
 0.5881285152409E+00
 0.6340657688797E+00
 0.6764849478811E+00
 0.7098265378722E+00
 0.7314658266709E+00
 0.7415552004668E+00
 0.7419174283362E+00
 0.7349208542714E+00
 0.7227743287385E+00
 0.7072389968096E+00
 0.6895933905670E+00
 0.6707047473666E+00
 0.6511226893177E+00
 0.6311608552056E+00
 0.6109579498546E+00
 0.5905198188517E+00
 0.5697469977244E+00
 0.5484532023408E+00
 0.5263778758084E+00
 0.5031982602494E+00
 0.4785439606741E+00
 0.4520136051717E+00
 0.4231916106417E+00
 0.3916706639432E+00
 0.3571149264328E+00
 0.3192569753775E+00
 0.2778188278034E+00
 0.2325338623257E+00
 0.1833871868379E+00
 0.1314689225039E+00
 0.8297859037197E-01
 0.6793263598286E-01
 0.1123963688095E+00
 0.1800847946380E+00
 0.2528571108296E+00
 0.3234442401141E+00
 0.3862758055270E+00
 0.4371189205170E+00
 0.4746243434851E+00
 0.5016761296743E+00
 0.5227954891291E+00
 0.5043995536055E+00
 0.5448662741003E+00
 0.5826695532114E+00
 0.6128922525515E+00
 0.6329826557420E+00
 0.6427596577519E+00
 0.6435974364542E+00
 0.6374989891259E+00
 0.6264513380383E+00
 0.6121145630778E+00
 0.5957408861961E+00
 0.5782073369196E+00
 0.5600853000730E+00
 0.5417096834808E+00
 0.5232345929737E+00
 0.5046737006708E+00
 0.4859277536188E+00
 0.4668035671670E+00
 0.4470271520108E+00
 0.4262558216559E+00
 0.4040917159039E+00
 0.3800961924037E+00
 0.3538035638845E+00
 0.3247411892511E+00
 0.2924917633180E+00
 0.2566995387990E+00
 0.2170172378051E+00
 0.1731852964875E+00
 0.1254949772584E+00
 0.7714393789230E-01
 0.5124272742708E-01
 0.8995957549775E-01
 0.1567565184046E+00
 0.2313253778443E+00
 0.3077763442508E+00
 0.3816122318561E+00
 0.4484593995717E+00
 0.5049062455643E+00
 0.5497731998303E+00
 0.5851853760174E+00
 0.6152716435503E+00
 0.4213545558969E+00
 0.4567784618841E+00
 0.4902318983562E+00
 0.5173623033616E+00
 0.5357369323282E+00
 0.5449472126634E+00
 0.5460108153031E+00
 0.5406132808864E+00
 0.5305300985940E+00
 0.5173111295185E+00
 0.5021678253552E+00
 0.4859741722865E+00
 0.4693140904199E+00
 0.4525378859106E+00
 0.4358116612864E+00
 0.4191550880889E+00
 0.4024681388411E+00
 0.3855499700421E+00
 0.3681120834807E+00
 0.3497899897463E+00
 0.3301553824369E+00
 0.3087282890610E+00
 0.2849881678135E+00
 0.2583919852886E+00
 0.2284351944728E+00
 0.1946659635349E+00
 0.1566595117123E+00
 0.1141917527811E+00
 0.6840019151273E-01
 0.3472576508680E-01
 0.6938959823439E-01
 0.1340323599253E+00
 0.2072464510502E+00
 0.2849952792221E+00
 0.3641047815993E+00
 0.4409843405776E+00
 0.5119096595169E+00
 0.5739005196231E+00
 0.6259236877734E+00
 0.6685729960735E+00
 0.7067704062591E+00
 0.3389200966283E+00
 0.3696859642143E+00
 0.3990510402730E+00
 0.4231554027137E+00
 0.4397101210981E+00
 0.4481588278488E+00
 0.4492404371444E+00
 0.4443699046030E+00
 0.4351272120340E+00
 0.4229493545020E+00
 0.4089972390767E+00
 0.3941316307327E+00
 0.3789410290265E+00
 0.3637857915691E+00
 0.3488407872757E+00
 0.3341298693920E+00
 0.3195511506794E+00
 0.3048951670536E+00
 0.2898575387810E+00
 0.2740497603247E+00
 0.2570097800430E+00
 0.2382119117254E+00
 0.2170753847508E+00
 0.1929799069287E+00
 0.1653225693979E+00
 0.1335327918869E+00
 0.9705984802243E-01
 0.5568726041266E-01
 0.1707580579914E-01
 0.5382648671379E-01
 0.1152274904493E+00
 0.1844902842410E+00
 0.2599464017515E+00
 0.3396913411923E+00
 0.4211270886747E+00
 0.5010631221587E+00
 0.5761560636328E+00
 0.6437420630727E+00
 0.7024249461619E+00
 0.7530913280481E+00
 0.7929468166940E+00
 0.2570318652356E+00
 0.2834895001830E+00
 0.3090257676284E+00
 0.3302031861759E+00
 0.3448859055850E+00
 0.3524295254712E+00
 0.3533597712421E+00
 0.3488657623227E+00
 0.3403519262637E+00
 0.3291452167490E+00
 0.3163508187018E+00
 0.3028092657091E+00
 0.2891077184822E+00
 0.2756125830839E+00
 0.2625052119660E+00
 0.2498125058232E+00
 0.2374300880353E+00
 0.2251391680028E+00
 0.2126182826269E+00
 0.1994530485472E+00
 0.1851453437736E+00
 0.1691216128186E+00
 0.1507398508594E+00
 0.1293034384155E+00
 0.1041124106956E+00
 0.7447178785356E-01
 0.3966275139642E-01
 0.3593886082102E-02
 0.4913524686893E-01
 0.1041164391261E+00
 0.1667905348041E+00
 0.2368870273461E+00
 0.3134670937809E+00
 0.3948205494264E+00
 0.4785230271260E+00
 0.5616129444744E+00
 0.6410141053224E+00
 0.7141549211176E+00
 0.7796647097743E+00
 0.8368007167122E+00
 0.8858921547592E+00
 0.1756359589178E+00
 0.1981228120668E+00
 0.2201114299864E+00
 0.2385073220963E+00
 0.2513240656246E+00
 0.2578754629233E+00
 0.2585312888420E+00
 0.2542984790205E+00
 0.2464297218309E+00
 0.2361504674488E+00
 0.2245106205949E+00
 0.2123283806137E+00
 0.2001879290803E+00
 0.1884615890203E+00
 0.1773384850218E+00
 0.1668506936171E+00
 0.1568937268392E+00
 0.1472419357311E+00
 0.1375601322696E+00
 0.1274147608025E+00
 0.1162870766322E+00
 0.1035914686795E+00
 0.8870915117855E-01
 0.7108508537054E-01
 0.5061890667730E-01
 0.2998327226072E-01
 0.2932367978441E-01
 0.6028669159301E-01
 0.1044223307642E+00
 0.1577725886824E+00
 0.2197829419611E+00
 0.2899763911177E+00
 0.3673500076553E+00
 0.4502146377805E+00
 0.5362425651327E+00
 0.6226363252468E+00
 0.7064829457309E+00
 0.7852978962304E+00
 0.8574087707892E+00
 0.9218593908074E+00
 0.9793774917013E+00
 0.9470813084917E-01
 0.1136737568847E+00
 0.1325460126770E+00
 0.1484507381340E+00
 0.1595415638189E+00
 0.1651389781912E+00
 0.1655183403589E+00
 0.1615555095311E+00
 0.1543860908269E+00
 0.1451560009936E+00
 0.1348758057480E+00
 0.1243568365604E+00
 0.1141983167466E+00
 0.1047995184018E+00
 0.9637988229918E-01
 0.8899862770105E-01
 0.8257243523697E-01
 0.7689512866077E-01
 0.7166585653947E-01
 0.6653651358961E-01
 0.6119775708369E-01
 0.5555308190028E-01
 0.5010528822974E-01
 0.4673924958641E-01
 0.4934397499982E-01
 0.6176341150050E-01
 0.8481215507901E-01
 0.1177397379329E+00
 0.1601269721387E+00
 0.2119357835292E+00
 0.2731046789723E+00
 0.3432210450270E+00
 0.4212968567389E+00
 0.5056838790821E+00
 0.5941411068857E+00
 0.6839938046288E+00
 0.7724422684755E+00
 0.8569991830649E+00
 0.9357884056774E+00
 0.1007775258760E+01
 0.1072902665635E+01
 0.1484090263338E-01
 0.3212590920427E-01
 0.4907582043427E-01
 0.6321856673052E-01
 0.7308956468284E-01
 0.7820170977210E-01
 0.7888767308975E-01
 0.7603346057210E-01
 0.7081031126675E-01
 0.6446976760865E-01
 0.5820851784802E-01
 0.5306185326346E-01
 0.4976840377967E-01
 0.4861502151992E-01
 0.4939945694451E-01
 0.5161255709165E-01
 0.5470747221256E-01
 0.5826942406463E-01
 0.6206265199280E-01
 0.6602732820625E-01
 0.7028684558951E-01
 0.7519115547304E-01
 0.8139174807805E-01
 0.8990293914513E-01
 0.1020499558518E+00
 0.1193157144954E+00
 0.1431746642677E+00
 0.1749411055308E+00
 0.2156639012883E+00
 0.2660488489654E+00
 0.3263713626951E+00
 0.3963692660525E+00
 0.4751369302375E+00
 0.5610995022844E+00
 0.6521033932696E+00
 0.7455707477009E+00
 0.8387675040032E+00
 0.9291639446154E+00
 0.1014731018068E+01
 0.1094170065229E+01
 0.1166558233920E+01
 0.6648476272353E-01
 0.5741815721954E-01
 0.5093343505608E-01
 0.4842782168235E-01
 0.4922559035287E-01
 0.5177935235344E-01
 0.5516322458944E-01
 0.5927682997081E-01
 0.6433249865831E-01
 0.7039710798402E-01
 0.7725088989708E-01
 0.8448733845540E-01
 0.9167268490639E-01
 0.9845607816439E-01
 0.1046156820249E+00
 0.1100633611792E+00
 0.1148303320896E+00
 0.1190473472052E+00
 0.1229276432134E+00
 0.1267582629701E+00
 0.1309059317435E+00
 0.1358434156989E+00
 0.1421982088199E+00
 0.1508076187983E+00
 0.1627296055253E+00
 0.1792373647168E+00
 0.2017901529390E+00
 0.2319023622625E+00
 0.2709436424168E+00
 0.3199402562116E+00
 0.3794178159940E+00
 0.4492864345404E+00
 0.5287611369542E+00
 0.6163647083339E+00
 0.7100326603557E+00
 0.8072629037315E+00
 0.9053498415743E+00
 0.1001698321846E+01
 0.1094102258851E+01
 0.1180889970466E+01
 0.1260422827274E+01
 0.1463446628164E+00
 0.1395585133483E+00
 0.1334688823017E+00
 0.1293619495498E+00
 0.1278812213648E+00
 0.1291015537760E+00
 0.1327376222494E+00
 0.1383191793089E+00
 0.1452855741754E+00
 0.1530420191005E+00
 0.1610134818639E+00
 0.1686968584051E+00
 0.1756995625916E+00
 0.1817589474283E+00
 0.1867451538855E+00
 0.1906533350632E+00
 0.1935907738750E+00
 0.1957627828231E+00
 0.1974605026192E+00
 0.1990532261987E+00
 0.2009891133888E+00
 0.2038089192772E+00
 0.2081765450994E+00
 0.2149180324992E+00
 0.2250339136401E+00
 0.2397240136011E+00
 0.2604094291480E+00
 0.2886494579725E+00
 0.3259533050248E+00
 0.3735470566143E+00
 0.4321637060829E+00
 0.5018926038248E+00
 0.5820924597723E+00
 0.6714007560809E+00
 0.7678427903196E+00
 0.8689743920475E+00
 0.9720898474312E+00
 0.1074501981655E+01
 0.1173788527724E+01
 0.1267870344619E+01
 0.1354544071724E+01
 0.2260112806814E+00
 0.2222014290561E+00
 0.2186582665133E+00
 0.2165110673540E+00
 0.2164479842962E+00
 0.2186888518446E+00
 0.2230644189482E+00
 0.2291375065721E+00
 0.2363236216263E+00
 0.2439942284819E+00
 0.2515571700672E+00
 0.2585121195567E+00
 0.2644821516141E+00
 0.2692258547200E+00
 0.2726361362029E+00
 0.2747316001045E+00
 0.2756449197879E+00
 0.2756110832230E+00
 0.2749575121271E+00
 0.2740976911958E+00
 0.2735308359584E+00
 0.2738507750499E+00
 0.2757676228056E+00
 0.2801363342137E+00
 0.2879647568188E+00
 0.3004451971679E+00
 0.3189967375165E+00
 0.3452139684136E+00
 0.3807033374598E+00
 0.4268477159526E+00
 0.4845675548617E+00
 0.5541361088689E+00
 0.6350717969838E+00
 0.7261395185736E+00
 0.8254544563626E+00
 0.9306156417021E+00
 0.1038892981951E+01
 0.1147478960222E+01
 0.1253703123109E+01
 0.1355081239029E+01
 0.1448952710957E+01
 0.3054606755194E+00
 0.3046748738308E+00
 0.3039411195221E+00
 0.3042067487250E+00
 0.3060778681876E+00
 0.3097663594484E+00
 0.3151295173023E+00
 0.3217641589346E+00
 0.3291181063397E+00
 0.3365934616190E+00
 0.3436279173928E+00
 0.3497495785238E+00
 0.3546073010715E+00
 0.3579821383964E+00
 0.3597864725708E+00
 0.3600566102905E+00
 0.3589429982535E+00
 0.3567007308406E+00
 0.3536818905881E+00
 0.3503309751657E+00
 0.3471851779178E+00
 0.3448816296459E+00
 0.3441746656054E+00
 0.3459581932498E+00
 0.3512704085222E+00
 0.3613261028817E+00
 0.3775672048205E+00
 0.4016320653018E+00
 0.4352151627680E+00
 0.4798405371667E+00
 0.5366083953669E+00
 0.6059814275349E+00
 0.6876508440931E+00
 0.7805195753868E+00
 0.8827931048588E+00
 0.9921016618918E+00
 0.1105669406894E+01
 0.1220542225269E+01
 0.1333779458956E+01
 0.1442505752182E+01
 0.1543668525426E+01
 0.3847142156416E+00
 0.3869225449139E+00
 0.3890482456784E+00
 0.3918533391060E+00
 0.3958283017192E+00
 0.4011341014486E+00
 0.4076237541008E+00
 0.4149174909264E+00
 0.4225001969690E+00
 0.4298156709003E+00
 0.4363423803522E+00
 0.4416450656695E+00
 0.4454036260406E+00
 0.4474244658870E+00
 0.4476404892559E+00
 0.4461051903957E+00
 0.4429847583537E+00
 0.4385507749377E+00
 0.4331747375074E+00
 0.4273254848159E+00
 0.4215707956430E+00
 0.4165844597981E+00
 0.4131614196584E+00
 0.4122365638677E+00
 0.4148877109788E+00
 0.4223671881999E+00
 0.4361554449346E+00
 0.4579443697241E+00
 0.4895172932490E+00
 0.5325353146025E+00
 0.5882775265142E+00
 0.6574031021319E+00
 0.7397882365412E+00
 0.8344839612642E+00
 0.9397875431757E+00
 0.1053350945510E+01
 0.1172334070928E+01
 0.1293613669981E+01
 0.1413963815984E+01
 0.1530131006398E+01
 0.1638704254386E+01
 0.4637982414802E+00
 0.4689596824437E+00
 0.4739467501545E+00
 0.4793400300695E+00
 0.4855028896463E+00
 0.4925267114620E+00
 0.5002432873013E+00
 0.5082857602096E+00
 0.5161721147424E+00
 0.5233882634358E+00
 0.5294559960896E+00
 0.5339798535436E+00
 0.5366737341896E+00
 0.5373717154762E+00
 0.5360286750557E+00
 0.5327157211658E+00
 0.5276140694025E+00
 0.5210098444316E+00
 0.5132907589021E+00
 0.5049456491700E+00
 0.4965677712999E+00
 0.4888625112031E+00
 0.4826617296129E+00
 0.4789406698385E+00
 0.4788206029570E+00
 0.4835995804322E+00
 0.4948068044664E+00
 0.5141962072036E+00
 0.5436441297229E+00
 0.5849499478000E+00
 0.6395747595564E+00
 0.7083827922846E+00
 0.7914476441995E+00
 0.8879790526472E+00
 0.9963692126718E+00
 0.1114284983805E+01
 0.1238806538931E+01
 0.1366622639919E+01
 0.1494210350055E+01
 0.1617944860980E+01
 0.1734068362589E+01
 0.5427393951968E+00
 0.5508174970461E+00
 0.5586571087932E+00
 0.5666633556239E+00
 0.5750685011949E+00
 0.5838842011986E+00
 0.5929096317195E+00
 0.6017816545712E+00
 0.6100456520323E+00
 0.6172272030815E+00
 0.6228913398675E+00
 0.6266837189437E+00
 0.6283541228300E+00
 0.6277661334370E+00
 0.6248979450916E+00
 0.6198388520104E+00
 0.6127847265581E+00
 0.6040348342935E+00
 0.5939906517273E+00
 0.5831575945765E+00
 0.5721502638534E+00
 0.5617013226232E+00
 0.5526759252598E+00
 0.5460879235062E+00
 0.5431033111579E+00
 0.5450704938527E+00
 0.5535743630160E+00
 0.5704379083037E+00
 0.5976356432147E+00
 0.6371090130216E+00
 0.6905066541569E+00
 0.7589078132106E+00
 0.8425967923754E+00
 0.9409539410116E+00
 0.1052471694014E+01
 0.1174827796775E+01
 0.1305010287015E+01
 0.1439503989471E+01
 0.1574477782520E+01
 0.1705934789777E+01
 0.1829766837146E+01
 0.6215636946067E+00
 0.6325313539934E+00
 0.6432159455289E+00
 0.6538532716913E+00
 0.6645434153017E+00
 0.6752120207688E+00
 0.6856172858412E+00
 0.6953920425926E+00
 0.7041034541021E+00
 0.7113136710584E+00
 0.7166300532155E+00
 0.7197399617689E+00
 0.7204304240806E+00
 0.7185960251630E+00
 0.7142394368246E+00
 0.7074686455857E+00
 0.6984938466137E+00
 0.6876261829857E+00
 0.6752786914084E+00
 0.6619702960952E+00
 0.6483332022091E+00
 0.6351233319211E+00
 0.6232354883610E+00
 0.6137197587667E+00
 0.6077867023408E+00
 0.6068376180925E+00
 0.6125178705700E+00
 0.6267251886645E+00
 0.6515374943274E+00
 0.6890433094791E+00
 0.7410858330897E+00
 0.8089705544946E+00
 0.8932070824990E+00
 0.9933601637452E+00
 0.1108030402955E+01
 0.1234905467135E+01
 0.1370871798815E+01
 0.1512196324577E+01
 0.1654727378205E+01
 0.1794087727718E+01
 0.1925804569581E+01
 0.7002963610371E+00
 0.7141373812767E+00
 0.7276652718745E+00
 0.7409520199178E+00
 0.7539655588157E+00
 0.7665412469920E+00
 0.7783899092890E+00
 0.7891339728773E+00
 0.7983574533207E+00
 0.8056561567504E+00
 0.8106787505347E+00
 0.8131546706937E+00
 0.8129093139396E+00
 0.8098695558454E+00
 0.8040635344611E+00
 0.7956183056107E+00
 0.7847579694846E+00
 0.7718042500754E+00
 0.7571795632274E+00
 0.7414133457555E+00
 0.7251517659511E+00
 0.7091700403167E+00
 0.6943888537753E+00
 0.6818916881544E+00
 0.6729325619948E+00
 0.6689668101975E+00
 0.6717035116579E+00
 0.6831196506938E+00
 0.7054014488027E+00
 0.7407899875669E+00
 0.7913309699628E+00
 0.8585684909198E+00
 0.9432536555768E+00
 0.1045151734399E+01
 0.1162982467892E+01
 0.1294445742015E+01
 0.1436319719020E+01
 0.1584640673703E+01
 0.1734921856961E+01
 0.1882390445724E+01
 0.2022186608456E+01
 0.7789618494896E+00
 0.7956713695330E+00
 0.8120487361481E+00
 0.8280066513944E+00
 0.8433811981423E+00
 0.8579142946983E+00
 0.8712644084138E+00
 0.8830384489611E+00
 0.8928332689908E+00
 0.9002759607651E+00
 0.9050557348293E+00
 0.9069445306116E+00
 0.9058071799053E+00
 0.9016040171979E+00
 0.8943894924563E+00
 0.8843099626618E+00
 0.8716028813567E+00
 0.8565991427544E+00
 0.8397282715740E+00
 0.8215271553934E+00
 0.8026522257148E+00
 0.7838939343538E+00
 0.7661948728377E+00
 0.7506686465632E+00
 0.7386108835360E+00
 0.7315310372579E+00
 0.7312039242639E+00
 0.7396892461349E+00
 0.7592858516181E+00
 0.7923928992058E+00
 0.8412670666935E+00
 0.9077044470211E+00
 0.9927156182585E+00
 0.1096285231585E+01
 0.1217266566267E+01
 0.1353377515392E+01
 0.1501283922244E+01
 0.1656779309686E+01
 0.1815024621618E+01
 0.1970829867471E+01
 0.2118919044041E+01
 0.8575839439572E+00
 0.8771684513573E+00
 0.8964102210608E+00
 0.9150660630370E+00
 0.9328403342716E+00
 0.9493789866990E+00
 0.9642842167696E+00
 0.9771434609304E+00
 0.9875633943354E+00
 0.9952007627149E+00
 0.9997850182071E+00
 0.1001131264725E+01
 0.9991448983583E+00
 0.9938208337802E+00
 0.9852405672495E+00
 0.9735698456914E+00
 0.9590587701101E+00
 0.9420458406229E+00
 0.9229652729515E+00
 0.9023582005687E+00
 0.8808874678222E+00
 0.8593545157750E+00
 0.8387195905929E+00
 0.8201227108705E+00
 0.8048985998569E+00
 0.7946100113016E+00
 0.7910984707103E+00
 0.7965088611409E+00
 0.8132562848516E+00
 0.8439032333862E+00
 0.8909260687544E+00
 0.9563871898275E+00
 0.1041576548108E+01
 0.1146720103787E+01
 0.1270822918223E+01
 0.1411630445088E+01
 0.1565694789295E+01
 0.1728554947882E+01
 0.1894999421389E+01
 0.2059393586889E+01
 0.2216010001267E+01
 0.9361858738553E+00
 0.9586630761456E+00
 0.9807933427036E+00
 0.1002179763663E+01
 0.1022394662269E+01
 0.1040985823640E+01
 0.1057496108621E+01
 0.1071490595598E+01
 0.1082583806426E+01
 0.1090461356656E+01
 0.1094893235885E+01
 0.1095738726832E+01
 0.1092945072781E+01
 0.1086542900136E+01
 0.1076641404163E+01
 0.1063425676409E+01
 0.1047157599094E+01
 0.1028181541944E+01
 0.1006933816046E+01
 0.9839564103098E+00
 0.9599145269632E+00
 0.9356161028814E+00
 0.9120344563318E+00
 0.8903318417609E+00
 0.8718789171809E+00
 0.8582900810919E+00
 0.8514735603194E+00
 0.8536608989504E+00
 0.8673862688432E+00
 0.8953802651283E+00
 0.9403476363638E+00
 0.1004632178481E+01
 0.1089825123008E+01
 0.1196419045667E+01
 0.1323593297418E+01
 0.1469134561787E+01
 0.1629482513062E+01
 0.1799910046377E+01
 0.1974810089631E+01
 0.2148070289809E+01
 0.2313470478622E+01
 0.1014790439845E+01
 0.1040189114431E+01
 0.1065241345358E+01
 0.1089397398434E+01
 0.1112096654408E+01
 0.1132786658048E+01
 0.1150948568683E+01
 0.1166123231806E+01
 0.1177932102830E+01
 0.1186089810558E+01
 0.1190407872260E+01
 0.1190791206491E+01
 0.1187230409031E+01
 0.1179793005164E+01
 0.1168616485680E+01
 0.1153905118288E+01
 0.1135931540899E+01
 0.1115044078213E+01
 0.1091678349780E+01
 0.1066373602140E+01
 0.1039793104821E+01
 0.1012746510710E+01
 0.9862152556245E+00
 0.9613791521294E+00
 0.9396409733746E+00
 0.9226642807436E+00
 0.9124230313443E+00
 0.9112359038720E+00
 0.9217580428831E+00
 0.9468922382959E+00
 0.9895800885976E+00
 0.1052462498213E+01
 0.1137455918916E+01
 0.1245348506138E+01
 0.1375521132425E+01
 0.1525819949476E+01
 0.1692576497648E+01
 0.1870786231594E+01
 0.2054420371896E+01
 0.2236850164755E+01
 0.2411315194720E+01
 0.1093420145134E+01
 0.1121780026737E+01
 0.1149797190340E+01
 0.1176768643310E+01
 0.1201999190665E+01
 0.1224834052882E+01
 0.1244690922427E+01
 0.1261085513511E+01
 0.1273646391299E+01
 0.1282118332642E+01
 0.1286356143228E+01
 0.1286312346095E+01
 0.1282022669549E+01
 0.1273592815024E+01
 0.1261189129240E+01
 0.1245034774958E+01
 0.1225411965741E+01
 0.1202670889390E+01
 0.1177243493168E+01
 0.1149662468331E+01
 0.1120584610541E+01
 0.1090816199216E+01
 0.1061341430786E+01
 0.1033352464957E+01
 0.1008279683199E+01
 0.9878324815334E+00
 0.9740485912945E+00
 0.9693332446196E+00
 0.9764634403969E+00
 0.9985173897752E+00
 0.1038681527752E+01
 0.1099909994625E+01
 0.1184470404312E+01
 0.1293479366894E+01
 0.1426551742050E+01
 0.1581616535517E+01
 0.1754904868702E+01
 0.1941123841310E+01
 0.2133793839865E+01
 0.2325725355156E+01
 0.2509563500432E+01
 0.1172097332149E+01
 0.1203469064626E+01
 0.1234503741467E+01
 0.1264343283971E+01
 0.1292155461462E+01
 0.1317180978709E+01
 0.1338772839493E+01
 0.1356421700075E+01
 0.1369764539342E+01
 0.1378578469785E+01
 0.1382764181072E+01
 0.1382324334902E+01
 0.1377341885262E+01
 0.1367962101148E+01
 0.1354380723433E+01
 0.1336839424647E+01
 0.1315628666022E+01
 0.1291098235513E+01
 0.1263673238926E+01
 0.1233875787016E+01
 0.1202351407331E+01
 0.1169897596305E+01
 0.1137495531959E+01
 0.1106343948492E+01
 0.1077895607570E+01
 0.1053901527377E+01
 0.1036460225502E+01
 0.1028061779885E+01
 0.1031604783411E+01
 0.1050345039467E+01
 0.1087721072299E+01
 0.1147016545279E+01
 0.1230878077187E+01
 0.1340787739831E+01
 0.1476632644245E+01
 0.1636453907029E+01
 0.1816393975872E+01
 0.2010861430079E+01
 0.2212893724597E+01
 0.2414690295406E+01
 0.2608240207926E+01
 0.1250844327163E+01
 0.1285289499066E+01
 0.1319404017194E+01
 0.1352171412778E+01
 0.1382619038420E+01
 0.1409880716051E+01
 0.1433244061552E+01
 0.1452175743899E+01
 0.1466323643070E+01
 0.1475500512204E+01
 0.1479656412504E+01
 0.1478847285598E+01
 0.1473205742850E+01
 0.1462918139736E+01
 0.1448210134282E+01
 0.1429341424873E+01
 0.1406609251686E+01
 0.1380360578750E+01
 0.1351010324703E+01
 0.1319065793887E+01
 0.1285156206620E+01
 0.1250064548194E+01
 0.1214762768432E+01
 0.1180449820490E+01
 0.1148594862637E+01
 0.1120985391155E+01
 0.1099776625610E+01
 0.1087540564171E+01
 0.1087295855248E+01
 0.1102476805816E+01
 0.1136780263269E+01
 0.1193835544069E+01
 0.1276697833223E+01
 0.1387255981907E+01
 0.1525714038745E+01
 0.1690261246489E+01
 0.1876967970006E+01
 0.2079935319436E+01
 0.2291682773530E+01
 0.2503742074369E+01
 0.2707376503875E+01
 0.1329683595243E+01
 0.1367274871353E+01
 0.1404541488660E+01
 0.1440303699826E+01
 0.1473444044215E+01
 0.1502986872796E+01
 0.1528154250536E+01
 0.1548390985152E+01
 0.1563359605054E+01
 0.1572912997867E+01
 0.1577055028238E+01
 0.1575898696262E+01
 0.1569629053299E+01
 0.1558475189898E+01
 0.1542693188336E+01
 0.1522560192159E+01
 0.1498378618231E+01
 0.1470490034469E+01
 0.1439295667632E+01
 0.1405283608570E+01
 0.1369061504561E+01
 0.1331391795762E+01
 0.1293230566255E+01
 0.1255770038233E+01
 0.1220488997834E+01
 0.1189205292991E+01
 0.1164125588432E+01
 0.1147899550293E+01
 0.1143662911789E+01
 0.1155027911824E+01
 0.1185954616822E+01
 0.1240433582567E+01
 0.1321959560839E+01
 0.1432873927319E+01
 0.1573749453924E+01
 0.1742967354149E+01
 0.1936548395234E+01
 0.2148279114541E+01
 0.2370123051284E+01
 0.2592880752602E+01
 0.2807010869663E+01
 0.1408637908855E+01
 0.1449459268546E+01
 0.1489960418601E+01
 0.1528791721214E+01
 0.1564685390786E+01
 0.1596553473603E+01
 0.1623552906007E+01
 0.1645109909171E+01
 0.1660906767814E+01
 0.1670842266881E+01
 0.1674979498949E+01
 0.1673492956900E+01
 0.1666623264215E+01
 0.1654644014883E+01
 0.1637842197631E+01
 0.1616511721387E+01
 0.1590958450735E+01
 0.1561515852960E+01
 0.1528567822076E+01
 0.1492578674296E+01
 0.1454129019161E+01
 0.1413954436270E+01
 0.1372988094387E+01
 0.1332407941011E+01
 0.1293694815110E+01
 0.1258689758335E+01
 0.1229644367958E+01
 0.1209280275442E+01
 0.1200845722375E+01
 0.1208128578571E+01
 0.1235355329545E+01
 0.1286892348627E+01
 0.1366705998276E+01
 0.1477640380337E+01
 0.1620696594634E+01
 0.1794500773473E+01
 0.1995053789073E+01
 0.2215823169601E+01
 0.2448175672054E+01
 0.2682109630916E+01
 0.2907190013881E+01
 0.1487730534204E+01
 0.1531877628618E+01
 0.1575706243625E+01
 0.1617688340325E+01
 0.1656399072758E+01
 0.1690635099689E+01
 0.1719489324273E+01
 0.1742373937076E+01
 0.1758997574739E+01
 0.1769312041119E+01
 0.1773446117208E+01
 0.1771640884215E+01
 0.1764196002755E+01
 0.1751431435400E+01
 0.1733665516604E+01
 0.1711208135015E+01
 0.1684366753571E+01
 0.1653463920488E+01
 0.1618862448080E+01
 0.1580998197198E+01
 0.1540419113540E+01
 0.1497827355588E+01
 0.1454125744761E+01
 0.1410469831372E+01
 0.1368334117051E+01
 0.1329574605300E+01
 0.1296479971965E+01
 0.1271836524928E+01
 0.1258998638617E+01
 0.1261925511232E+01
 0.1285111152143E+01
 0.1333310773488E+01
 0.1410994901911E+01
 0.1521564929284E+01
 0.1666518446292E+01
 0.1844790052910E+01
 0.2052399299386E+01
 0.2282494001623E+01
 0.2525800471814E+01
 0.2771435489017E+01
 0.3007969843344E+01
 0.1566985439786E+01
 0.1614566081648E+01
 0.1661826004898E+01
 0.1707048142147E+01
 0.1748642508501E+01
 0.1785287063573E+01
 0.1816012578126E+01
 0.1840223226028E+01
 0.1857662235525E+01
 0.1868343008839E+01
 0.1872467548582E+01
 0.1870349271073E+01
 0.1862350638147E+01
 0.1848839905458E+01
 0.1830167121943E+01
 0.1806657252972E+01
 0.1778617395890E+01
 0.1746356268673E+01
 0.1710211778156E+01
 0.1670586571452E+01
 0.1627990190030E+01
 0.1583084614180E+01
 0.1536734548125E+01
 0.1490064475652E+01
 0.1444533363226E+01
 0.1402002839737E+01
 0.1364789381798E+01
 0.1335734953944E+01
 0.1318291675890E+01
 0.1316583470239E+01
 0.1335370436419E+01
 0.1379807450141E+01
 0.1454901570118E+01
 0.1564670141364E+01
 0.1711184690323E+01
 0.1893764172310E+01
 0.2108496314444E+01
 0.2348213635023E+01
 0.2602955611073E+01
 0.2860868792338E+01
 0.3109416469527E+01
 0.1646427531897E+01
 0.1697562332285E+01
 0.1748368830504E+01
 0.1796927917772E+01
 0.1841474916623E+01
 0.1880565596744E+01
 0.1913171487300E+01
 0.1938696444701E+01
 0.1956928360329E+01
 0.1967952379215E+01
 0.1972052358294E+01
 0.1969620418244E+01
 0.1961085831762E+01
 0.1946867078246E+01
 0.1927346181612E+01
 0.1902862147530E+01
 0.1873719634841E+01
 0.1840210551562E+01
 0.1802644039104E+01
 0.1761384744141E+01
 0.1716898006154E+01
 0.1669798734934E+01
 0.1620905470593E+01
 0.1571302465484E+01
 0.1522423173256E+01
 0.1476124393975E+01
 0.1434739630120E+01
 0.1401155603897E+01
 0.1378911549794E+01
 0.1372286880299E+01
 0.1386303324006E+01
 0.1426523313929E+01
 0.1498521741646E+01
 0.1606994179363E+01
 0.1754673469241E+01
 0.1941353137328E+01
 0.2163252061766E+01
 0.2412898805725E+01
 0.2679597037964E+01
 0.2950423794795E+01
 0.3211607156916E+01
 0.1726082924818E+01
 0.1780906098914E+01
 0.1835386489487E+01
 0.1887387219317E+01
 0.1934957745115E+01
 0.1976528063887E+01
 0.2011014592158E+01
 0.2037830539050E+01
 0.2056820583608E+01
 0.2068153435527E+01
 0.2072204550390E+01
 0.2069451692949E+01
 0.2060395125727E+01
 0.2045505418214E+01
 0.2025196673359E+01
 0.1999820746831E+01
 0.1969677682924E+01
 0.1935039558980E+01
 0.1896182899093E+01
 0.1853429591218E+01
 0.1807194984218E+01
 0.1758039963913E+01
 0.1706728660117E+01
 0.1654295506086E+01
 0.1602137737656E+01
 0.1552095764630E+01
 0.1506507786817E+01
 0.1468292360330E+01
 0.1441062715442E+01
 0.1429241531033E+01
 0.1438104142701E+01
 0.1473624672112E+01
 0.1541974986683E+01
 0.1648593990374E+01
 0.1796973660653E+01
 0.1987488873746E+01
 0.2216569265508E+01
 0.2476460105078E+01
 0.2755677933447E+01
 0.3040118692780E+01
 0.3314631383218E+01
 0.1805979251329E+01
 0.1864639615313E+01
 0.1922934020082E+01
 0.1978488978883E+01
 0.2029155133343E+01
 0.2073233169886E+01
 0.2109590085732E+01
 0.2137660436943E+01
 0.2157360123547E+01
 0.2168955032440E+01
 0.2172923064820E+01
 0.2169835058923E+01
 0.2160266513010E+01
 0.2144741799521E+01
 0.2123706989318E+01
 0.2097525419599E+01
 0.2066490247675E+01
 0.2030850689972E+01
 0.1990846859449E+01
 0.1946753219591E+01
 0.1898929425040E+01
 0.1847875409764E+01
 0.1794292543213E+01
 0.1739155525667E+01
 0.1683814024171E+01
 0.1630079430695E+01
 0.1580280729270E+01
 0.1537353227515E+01
 0.1504968289619E+01
 0.1487676261812E+01
 0.1490993923304E+01
 0.1521306525490E+01
 0.1585408575819E+01
 0.1689549094693E+01
 0.1838087699456E+01
 0.2032106412491E+01
 0.2268345764155E+01
 0.2538800904906E+01
 0.2831147988277E+01
 0.3129975685842E+01
 0.3418591782318E+01
 0.1886146024485E+01
 0.1948808212239E+01
 0.2011070452770E+01
 0.2070300208382E+01
 0.2124134415083E+01
 0.2170741158978E+01
 0.2208945698786E+01
 0.2238218687046E+01
 0.2258564277497E+01
 0.2270361044792E+01
 0.2274201246801E+01
 0.2270756598088E+01
 0.2260682013239E+01
 0.2244557117913E+01
 0.2222859555582E+01
 0.2195962571130E+01
 0.2164150074618E+01
 0.2127645417839E+01
 0.2086648622983E+01
 0.2041382227165E+01
 0.1992144657062E+01
 0.1939368091447E+01
 0.1883682798633E+01
 0.1825993627668E+01
 0.1767590794290E+01
 0.1710243057991E+01
 0.1656254694339E+01
 0.1608560410826E+01
 0.1570870846583E+01
 0.1547844629333E+01
 0.1545223052614E+01
 0.1569796227146E+01
 0.1629001919823E+01
 0.1729966127360E+01
 0.1878035134132E+01
 0.2075145513818E+01
 0.2318474139327E+01
 0.2599816052080E+01
 0.2905952557636E+01
 0.3220021053018E+01
 0.3523605028885E+01
 0.1966615061640E+01
 0.2033461000298E+01
 0.2099859653356E+01
 0.2162892801206E+01
 0.2219966673560E+01
 0.2269114007573E+01
 0.2309128535594E+01
 0.2339535032785E+01
 0.2360445862251E+01
 0.2372369786561E+01
 0.2376026316310E+01
 0.2372196059057E+01
 0.2361617294877E+01
 0.2344925960469E+01
 0.2322630513945E+01
 0.2295112299809E+01
 0.2262643544346E+01
 0.2225418798929E+01
 0.2183594492001E+01
 0.2137336974530E+01
 0.2086878174323E+01
 0.2032575946314E+01
 0.1974981256566E+01
 0.1914918928422E+01
 0.1853607463465E+01
 0.1792758511469E+01
 0.1734634620058E+01
 0.1682150202991E+01
 0.1639033077417E+01
 0.1610026551189E+01
 0.1601074070360E+01
 0.1619357515123E+01
 0.1672971669797E+01
 0.1769984297684E+01
 0.1916857139260E+01
 0.2116552921672E+01
 0.2366841415243E+01
 0.2659390284187E+01
 0.2980031727235E+01
 0.3310285412562E+01
 0.3629802719495E+01
 0.2047420983930E+01
 0.2118651667285E+01
 0.2189371293785E+01
 0.2256344426112E+01
 0.2316727314154E+01
 0.2368415552996E+01
 0.2410184787001E+01
 0.2441635840952E+01
 0.2463012517495E+01
 0.2474973318888E+01
 0.2478378756119E+01
 0.2474126348213E+01
 0.2463041254801E+01
 0.2445816238112E+01
 0.2422989363773E+01
 0.2394948004922E+01
 0.2361950207351E+01
 0.2324158901863E+01
 0.2281683666057E+01
 0.2234630732039E+01
 0.2183160620902E+01
 0.2127550649861E+01
 0.2068264567760E+01
 0.2006037116283E+01
 0.1942002630833E+01
 0.1877800489208E+01
 0.1815633078468E+01
 0.1758372466092E+01
 0.1709738103526E+01
 0.1674529728116E+01
 0.1658864440475E+01
 0.1670294794655E+01
 0.1717577425625E+01
 0.1809781818392E+01
 0.1954622125516E+01
 0.2156285363431E+01
 0.2413328739810E+01
 0.2717396032945E+01
 0.3053318984631E+01
 0.3400804043261E+01
 0.3737331859265E+01
 0.2128601812327E+01
 0.2204439432357E+01
 0.2279682004121E+01
 0.2350739564280E+01
 0.2414496695773E+01
 0.2468711592737E+01
 0.2512159359763E+01
 0.2544543439135E+01
 0.2566265947715E+01
 0.2578156744155E+01
 0.2581231734458E+01
 0.2576513095053E+01
 0.2564915699538E+01
 0.2547188935781E+01
 0.2523898728446E+01
 0.2495436119204E+01
 0.2462042438715E+01
 0.2423846347755E+01
 0.2380907638098E+01
 0.2333268908496E+01
 0.2281014834640E+01
 0.2224336464727E+01
 0.2163602861917E+01
 0.2099448949021E+01
 0.2032912486896E+01
 0.1965544971395E+01
 0.1899468971335E+01
 0.1837489856165E+01
 0.1783289568834E+01
 0.1741690957425E+01
 0.1718949412603E+01
 0.1722957808799E+01
 0.1763128249190E+01
 0.1849583613632E+01
 0.1991432894826E+01
 0.2194313787396E+01
 0.2457811353595E+01
 0.2773690605739E+01
 0.3125739573372E+01
 0.3491617851357E+01
 0.3846355305769E+01
 0.2210199679261E+01
 0.2290890179296E+01
 0.2370876718316E+01
 0.2446170673493E+01
 0.2513360766189E+01
 0.2570069866737E+01
 0.2615095316832E+01
 0.2648275252509E+01
 0.2670200995820E+01
 0.2681897382259E+01
 0.2684550457885E+01
 0.2679314182746E+01
 0.2667195011499E+01
 0.2648997854256E+01
 0.2625314110322E+01
 0.2596535819907E+01
 0.2562885056456E+01
 0.2524453795458E+01
 0.2481249513722E+01
 0.2433248177300E+01
 0.2380454757536E+01
 0.2322968918016E+01
 0.2261058185515E+01
 0.2195248468970E+01
 0.2126468865005E+01
 0.2056167232616E+01
 0.1986365715926E+01
 0.1919776495693E+01
 0.1860011200677E+01
 0.1811877028949E+01
 0.1781724690638E+01
 0.1777746466326E+01
 0.1809989841257E+01
 0.1889670316624E+01
 0.2027435544275E+01
 0.2230629142180E+01
 0.2500158912126E+01
 0.2828112168566E+01
 0.3197207724783E+01
 0.3582774903965E+01
 0.3957051552985E+01
 0.2292261689222E+01
 0.2378077821087E+01
 0.2463050269023E+01
 0.2542739512899E+01
 0.2613411702929E+01
 0.2672559902676E+01
 0.2719033107374E+01
 0.2752842734180E+01
 0.2774804564523E+01
 0.2786163865001E+01
 0.2788291504452E+01
 0.2782479302651E+01
 0.2769825863875E+01
 0.2751189410394E+01
 0.2727183703565E+01
 0.2698198790344E+01
 0.2664434978306E+01
 0.2625945449748E+01
 0.2582683334748E+01
 0.2534555584809E+01
 0.2481484301132E+01
 0.2423473398174E+01
 0.2360682811378E+01
 0.2293521025805E+01
 0.2222797018403E+01
 0.2149839483122E+01
 0.2076548961178E+01
 0.2005516101405E+01
 0.1940245813186E+01
 0.1885485155835E+01
 0.1847628863991E+01
 0.1835115816375E+01
 0.1858592449987E+01
 0.1930388786266E+01
 0.2062830594586E+01
 0.2265250410118E+01
 0.2540236792556E+01
 0.2880474297742E+01
 0.3267621857961E+01
 0.3674332955897E+01
 0.4069613799430E+01
 0.2374840965456E+01
 0.2466085959484E+01
 0.2556309294921E+01
 0.2640558660703E+01
 0.2714748549970E+01
 0.2776252689519E+01
 0.2824009554827E+01
 0.2858250080676E+01
 0.2880054406126E+01
 0.2890915193515E+01
 0.2892402198204E+01
 0.2885949602923E+01
 0.2872747059271E+01
 0.2853702574097E+01
 0.2829448345989E+01
 0.2800369116155E+01
 0.2766641004548E+01
 0.2728276683555E+01
 0.2685173501937E+01
 0.2637167739563E+01
 0.2584096269339E+01
 0.2525863777075E+01
 0.2462517527006E+01
 0.2394341211429E+01
 0.2322013218067E+01
 0.2246728215268E+01
 0.2170243878724E+01
 0.2094999567289E+01
 0.2024353702070E+01
 0.1962942846783E+01
 0.1917145493626E+01
 0.1895581085390E+01
 0.1909439499972E+01
 0.1972164307642E+01
 0.2097886795783E+01
 0.2298235689794E+01
 0.2577909415388E+01
 0.2930559129626E+01
 0.3336855858723E+01
 0.3766362974621E+01
 0.4184247900525E+01
 0.2457997932300E+01
 0.2555009899921E+01
 0.2650774500569E+01
 0.2739753200688E+01
 0.2817477750251E+01
 0.2881220029884E+01
 0.2930056442322E+01
 0.2964492584862E+01
 0.2985917650230E+01
 0.2996099637555E+01
 0.2996819902237E+01
 0.2989657298829E+01
 0.2975889345959E+01
 0.2956468780896E+01
 0.2932041434089E+01
 0.2902983126311E+01
 0.2869443523287E+01
 0.2831393557445E+01
 0.2788674067298E+01
 0.2741049840934E+01
 0.2688271086639E+01
 0.2630140795923E+01
 0.2566589631510E+01
 0.2497770427055E+01
 0.2424221878319E+01
 0.2346990942181E+01
 0.2267671685589E+01
 0.2188521617282E+01
 0.2112709995967E+01
 0.2044706746155E+01
 0.1990804377010E+01
 0.1959722354629E+01
 0.1963116632905E+01
 0.2015514399956E+01
 0.2132957918180E+01
 0.2329696979722E+01
 0.2613046909999E+01
 0.2978110013244E+01
 0.3404742884513E+01
 0.3858951434778E+01
 0.4301167434140E+01
 0.2541801906108E+01
 0.2644959144528E+01
 0.2746583393720E+01
 0.2840462650730E+01
 0.2921713586323E+01
 0.2987533565042E+01
 0.3037198721774E+01
 0.3071554711673E+01
 0.3092349213226E+01
 0.3101653664227E+01
 0.3101471446278E+01
 0.3093525479112E+01
 0.3079175460265E+01
 0.3059412082315E+01
 0.3034889078119E+01
 0.3005969471803E+01
 0.2972774448221E+01
 0.2935232564118E+01
 0.2893128241910E+01
 0.2846154911768E+01
 0.2793975715402E+01
 0.2736290617869E+01
 0.2672911061751E+01
 0.2603854516552E+01
 0.2529512649276E+01
 0.2450772758570E+01
 0.2369045797775E+01
 0.2286376868019E+01
 0.2205701217299E+01
 0.2131260594227E+01
 0.2069182064633E+01
 0.2028188922353E+01
 0.2020301255862E+01
 0.2061064470267E+01
 0.2168503261929E+01
 0.2359819681949E+01
 0.2645536800856E+01
 0.3022827986735E+01
 0.3471048816824E+01
 0.3952195112747E+01
 0.4420582004068E+01
 0.2626333080499E+01
 0.2736060469585E+01
 0.2843893565759E+01
 0.2942843082841E+01
 0.3027578354393E+01
 0.3095263240586E+01
 0.3145452125530E+01
 0.3179407715959E+01
 0.3199289943111E+01
 0.3207500762658E+01
 0.3206272549137E+01
 0.3197467951895E+01
 0.3182520218089E+01
 0.3162449336744E+01
 0.3137910281091E+01
 0.3109249208241E+01
 0.3076557138045E+01
 0.3039720329950E+01
 0.2998467834143E+01
 0.2952422933311E+01
 0.2901162445512E+01
 0.2844283217659E+01
 0.2781476306998E+01
 0.2712621114720E+01
 0.2637957111614E+01
 0.2558202338448E+01
 0.2474567194018E+01
 0.2388854821880E+01
 0.2303720487091E+01
 0.2223111642242E+01
 0.2152900893696E+01
 0.2101702625181E+01
 0.2081771982744E+01
 0.2109564994096E+01
 0.2205111936315E+01
 0.2388888204524E+01
 0.2675299937603E+01
 0.3064378987005E+01
 0.3535440090614E+01
 0.4046166506042E+01
 0.4542662771266E+01
 0.2711685043824E+01
 0.2828461754824E+01
 0.2942886663545E+01
 0.3047069442276E+01
 0.3135202143147E+01
 0.3204475055911E+01
 0.3254820078946E+01
 0.3288006785536E+01
 0.3306664548635E+01
 0.3313550247193E+01
 0.3311127327931E+01
 0.3301389219947E+01
 0.3285830741107E+01
 0.3265490524058E+01
 0.3241017225567E+01
 0.3212735969272E+01
 0.3180706388804E+01
 0.3144773369836E+01
 0.3104612719634E+01
 0.3059779989597E+01
 0.3009767671082E+01
 0.2954070733183E+01
 0.2892260249140E+01
 0.2824076859700E+01
 0.2749605231127E+01
 0.2669387525212E+01
 0.2584419122238E+01
 0.2496233865026E+01
 0.2407161341631E+01
 0.2320785342233E+01
 0.2242626200930E+01
 0.2181059726974E+01
 0.2148417571454E+01
 0.2161910182962E+01
 0.2243531242843E+01
 0.2417318873789E+01
 0.2702314034947E+01
 0.3102402417001E+01
 0.3597496808570E+01
 0.4140808965707E+01
 0.4667376459627E+01
 0.2797968036363E+01
 0.2922336713902E+01
 0.3043773293701E+01
 0.3153338025292E+01
 0.3244722039620E+01
 0.3315227902983E+01
 0.3365289817986E+01
 0.3397287734473E+01
 0.3414379421316E+01
 0.3419696185503E+01
 0.3415928048971E+01
 0.3405184737869E+01
 0.3389006967781E+01
 0.3368439335595E+01
 0.3344115825550E+01
 0.3316336396925E+01
 0.3285128675718E+01
 0.3250298082562E+01
 0.3211470540788E+01
 0.3168137629938E+01
 0.3119710875461E+01
 0.3065586015648E+01
 0.3005216183738E+01
 0.2938204744003E+01
 0.2864481863645E+01
 0.2784410810177E+01
 0.2698761427393E+01
 0.2608774488776E+01
 0.2516410254609E+01
 0.2424818198181E+01
 0.2339061376537E+01
 0.2267130796267E+01
 0.2221244970303E+01
 0.2219157237983E+01
 0.2284701072369E+01
 0.2445697316549E+01
 0.2726655887807E+01
 0.3136508014941E+01
 0.3656745043294E+01
 0.4236129902507E+01
 0.4793228284584E+01
 0.2885315702230E+01
 0.3017902894717E+01
 0.3146819639907E+01
 0.3261899366702E+01
 0.3356320477540E+01
 0.3427618292175E+01
 0.3476884998232E+01
 0.3507228358066E+01
 0.3522392786411E+01
 0.3525895957701E+01
 0.3520641685831E+01
 0.3508835256833E+01
 0.3492043814031E+01
 0.3471303384067E+01
 0.3447224368978E+01
 0.3420077705951E+01
 0.3389859205153E+01
 0.3356337912810E+01
 0.3319094639822E+01
 0.3277562244269E+01
 0.3231076078903E+01
 0.3178936661578E+01
 0.3120482738763E+01
 0.3055183927009E+01
 0.2982819095640E+01
 0.2903573376675E+01
 0.2817984886640E+01
 0.2726981752209E+01
 0.2632114170182E+01
 0.2536026356744E+01
 0.2443212493881E+01
 0.2361115294180E+01
 0.2301616262712E+01
 0.2282738945791E+01
 0.2329933040514E+01
 0.2474934378037E+01
 0.2748582002884E+01
 0.3166477293853E+01
 0.3712661324062E+01
 0.4332437632891E+01
 0.4924279277147E+01
 0.2973882729445E+01
 0.3115406033430E+01
 0.3252312556497E+01
 0.3372999804186E+01
 0.3470142200049E+01
 0.3541676117435E+01
 0.3589544513651E+01
 0.3617713271289E+01
 0.3630566770500E+01
 0.3632009564527E+01
 0.3625135907113E+01
 0.3612218718475E+01
 0.3594828114752E+01
 0.3573975265099E+01
 0.3550237686261E+01
 0.3523853846699E+01
 0.3494788860009E+01
 0.3462779794263E+01
 0.3427368696143E+01
 0.3387936651217E+01
 0.3343749285638E+01
 0.3294017465605E+01
 0.3237970808144E+01
 0.3174951063952E+01
 0.3104592478013E+01
 0.3026907580459E+01
 0.2942202479453E+01
 0.2851079662380E+01
 0.2754644927143E+01
 0.2654970710260E+01
 0.2555869607890E+01
 0.2464059965919E+01
 0.2390829771291E+01
 0.2354132331374E+01
 0.2380688940647E+01
 0.2506119779153E+01
 0.2768473357511E+01
 0.3191822292057E+01
 0.3765106499017E+01
 0.4427485826563E+01
 0.5074967081273E+01
 0.3063857331621E+01
 0.3215133013694E+01
 0.3360571810745E+01
 0.3486886087292E+01
 0.3586291242428E+01
 0.3657357911394E+01
 0.3703116169335E+01
 0.3728530009903E+01
 0.3738666013264E+01
 0.3737799966142E+01
 0.3729180289084E+01
 0.3715111717344E+01
 0.3697139948424E+01
 0.3676233509748E+01
 0.3652927567999E+01
 0.3627425237399E+01
 0.3599663072915E+01
 0.3569351952202E+01
 0.3536003215977E+01
 0.3498955022720E+01
 0.3457411592404E+01
 0.3410501448733E+01
 0.3357352178316E+01
 0.3297186112474E+01
 0.3229503482453E+01
 0.3154155426758E+01
 0.3071223236225E+01
 0.2980979900101E+01
 0.2884062898625E+01
 0.2781916746904E+01
 0.2677566487990E+01
 0.2576825892564E+01
 0.2490105980435E+01
 0.2434880753771E+01
 0.2438653590342E+01
 0.2540680259139E+01
 0.2786941196741E+01
 0.3212275875122E+01
 0.3812766252656E+01
 0.4524224228381E+01
 0.5232004944372E+01
 0.3155471175184E+01
 0.3317445182744E+01
 0.3471997070734E+01
 0.3603861622652E+01
 0.3704897792278E+01
 0.3774629673850E+01
 0.3817459341293E+01
 0.3839492066727E+01
 0.3846499572118E+01
 0.3843092049439E+01
 0.3832621154462E+01
 0.3817379781362E+01
 0.3798858524335E+01
 0.3777964641389E+01
 0.3755181808160E+01
 0.3730675770301E+01
 0.3704357868030E+01
 0.3675920102357E+01
 0.3644853016892E+01
 0.3610462739640E+01
 0.3571902373687E+01
 0.3528227058851E+01
 0.3478470954504E+01
 0.3421747496628E+01
 0.3357437008046E+01
 0.3285245851180E+01
 0.3205045142861E+01
 0.3116784091234E+01
 0.3020619767245E+01
 0.2917326148489E+01
 0.2809047026850E+01
 0.2700514682440E+01
 0.2600959843270E+01
 0.2526901556565E+01
 0.2505983983027E+01
 0.2580569218977E+01
 0.2805076680421E+01
 0.3227617991750E+01
 0.3855111200165E+01
 0.4622130117601E+01
 0.5396565286677E+01
 0.3249011114324E+01
 0.3422786026967E+01
 0.3587061801178E+01
 0.3724256921405E+01
 0.3826067943552E+01
 0.3893405109287E+01
 0.3932378447489E+01
 0.3950369478118E+01
 0.3953847642537E+01
 0.3947693909123E+01
 0.3935296225295E+01
 0.3918884659941E+01
 0.3899861626242E+01
 0.3879054383393E+01
 0.3856886775320E+01
 0.3833486288858E+01
 0.3808743711654E+01
 0.3782341078448E+01
 0.3753760019038E+01
 0.3722287799402E+01
 0.3687038913454E+01
 0.3647005837097E+01
 0.3601139268806E+01
 0.3548456044523E+01
 0.3488233932476E+01
 0.3420056536358E+01
 0.3343607255497E+01
 0.3258527819120E+01
 0.3164496951211E+01
 0.3061593753958E+01
 0.2951007756008E+01
 0.2836228555399E+01
 0.2724997028980E+01
 0.2632343759665E+01
 0.2585250457864E+01
 0.2628321434525E+01
 0.2824504223693E+01
 0.3237890861118E+01
 0.3891239427476E+01
 0.4720257022403E+01
 0.5570037938998E+01
 0.3344836802670E+01
 0.3531705457537E+01
 0.3706327932141E+01
 0.3848424014818E+01
 0.3949864709393E+01
 0.4013526379963E+01
 0.4047610747096E+01
 0.4060883898439E+01
 0.4060461200725E+01
 0.4051398548505E+01
 0.4037036929739E+01
 0.4019486599723E+01
 0.4000027650754E+01
 0.3979389438089E+01
 0.3957928966434E+01
 0.3935735940566E+01
 0.3912686641539E+01
 0.3888463653739E+01
 0.3862553631717E+01
 0.3834240655871E+01
 0.3802615668730E+01
 0.3766621164798E+01
 0.3725135572569E+01
 0.3677092766286E+01
 0.3621688103543E+01
 0.3558409560411E+01
 0.3486783069569E+01
 0.3406170292100E+01
 0.3315789635789E+01
 0.3215023767008E+01
 0.3104064827616E+01
 0.2985029966651E+01
 0.2863875659460E+01
 0.2753571381205E+01
 0.2679473497586E+01
 0.2687172239895E+01
 0.2847606837680E+01
 0.3243505496870E+01
 0.3919856852438E+01
 0.4817593430941E+01
 0.5754024360274E+01
 0.3443405570939E+01
 0.3644892631858E+01
 0.3830462388919E+01
 0.3976723957885E+01
 0.4076280135122E+01
 0.4134739721454E+01
 0.4162813215075E+01
 0.4170704828516E+01
 0.4166063131782E+01
 0.4153986728182E+01
 0.4137671459443E+01
 0.4119047084499E+01
 0.4099237937106E+01
 0.4078859468922E+01
 0.4058196734451E+01
 0.4037303713748E+01
 0.4016049610443E+01
 0.3994129601484E+01
 0.3971051367685E+01
 0.3946114225176E+01
 0.3918403612186E+01
 0.3886827038481E+01
 0.3850202997045E+01
 0.3807396845417E+01
 0.3757543765543E+01
 0.3700067716395E+01
 0.3634374707801E+01
 0.3559584728062E+01
 0.3474490889091E+01
 0.3377804371766E+01
 0.3268715827640E+01
 0.3147889812633E+01
 0.3019248272734E+01
 0.2893122491159E+01
 0.2792140288128E+01
 0.2761188883804E+01
 0.2877802789239E+01
 0.3245468138119E+01
 0.3939430311340E+01
 0.4912885653475E+01
 0.5950440631559E+01
 0.3545308240784E+01
 0.3763220901314E+01
 0.3960254296441E+01
 0.4109502681705E+01
 0.4205195098972E+01
 0.4256665528337E+01
 0.4277549602386E+01
 0.4279448052693E+01
 0.4270351405923E+01
 0.4255231184149E+01
 0.4237028646863E+01
 0.4217432052997E+01
 0.4197379386174E+01
 0.4177359284207E+01
 0.4157582196531E+01
 0.4138070179745E+01
 0.4118694087428E+01
 0.4099175063995E+01
 0.4079059772795E+01
 0.4057684137425E+01
 0.4034149696640E+01
 0.4007346872512E+01
 0.3976047768112E+01
 0.3939063869166E+01
 0.3895493544715E+01
 0.3844731772936E+01
 0.3786108376993E+01
 0.3718550124376E+01
 0.3640476811442E+01
 0.3549982009059E+01
 0.3445297754094E+01
 0.3325624424600E+01
 0.3192680512372E+01
 0.3053632749242E+01
 0.2927187101302E+01
 0.2855396222675E+01
 0.2919888001429E+01
 0.3245805642185E+01
 0.3948317126757E+01
 0.5004449843526E+01
 0.6161637801728E+01
 0.3651321867890E+01
 0.3887809981613E+01
 0.4096629837218E+01
 0.4247047489664E+01
 0.4336322530437E+01
 0.4378763350876E+01
 0.4391279645743E+01
 0.4386677632302E+01
 0.4373004841884E+01
 0.4354902350552E+01
 0.4334942655558E+01
 0.4314515544167E+01
 0.4294347309498E+01
 0.4274791166269E+01
 0.4255983274120E+01
 0.4237919404355E+01
 0.4220481902493E+01
 0.4203432246866E+01
 0.4186375712999E+01
 0.4168709267972E+01
 0.4149576417816E+01
 0.4127872226033E+01
 0.4102337524076E+01
 0.4071744172879E+01
 0.4035176977578E+01
 0.3992038829920E+01
 0.3941631448265E+01
 0.3882745008528E+01
 0.3813493662008E+01
 0.3731436769918E+01
 0.3633943138863E+01
 0.3518823063222E+01
 0.3385544489369E+01
 0.3237711178832E+01
 0.3088923589919E+01
 0.2975869868845E+01
 0.2980453122661E+01
 0.3248216632142E+01
 0.3945002909286E+01
 0.5089934154276E+01
 0.6390549460428E+01
 0.3762489447416E+01
 0.4020112618037E+01
 0.4240657893853E+01
 0.4389511872422E+01
 0.4469129311713E+01
 0.4500294042514E+01
 0.4503353604586E+01
 0.4491913041640E+01
 0.4473691905596E+01
 0.4452775637878E+01
 0.4431258431868E+01
 0.4410183697987E+01
 0.4390048441401E+01
 0.4371067289591E+01
 0.4353305819109E+01
 0.4336740996591E+01
 0.4321277327962E+01
 0.4306731474589E+01
 0.4292788101117E+01
 0.4278932636942E+01
 0.4264381493501E+01
 0.4248061350719E+01
 0.4228699342687E+01
 0.4205041118142E+01
 0.4176179538351E+01
 0.4141561943425E+01
 0.4100511570241E+01
 0.4051743831472E+01
 0.3993148020110E+01
 0.3921860671568E+01
 0.3834537130728E+01
 0.3727769641352E+01
 0.3598888414142E+01
 0.3447757356897E+01
 0.3281864282766E+01
 0.3129754176374E+01
 0.3068347231983E+01
 0.3259033446124E+01
 0.3928601851659E+01
 0.5166015844471E+01
 0.6640901592802E+01
 0.3880243914542E+01
 0.4162035871795E+01
 0.4393531681538E+01
 0.4536789268743E+01
 0.4602733006331E+01
 0.4620284666428E+01
 0.4613016741370E+01
 0.4594643008514E+01
 0.4572082778505E+01
 0.4548640222205E+01
 0.4525837832841E+01
 0.4504339037106E+01
 0.4484404063941E+01
 0.4466112198350E+01
 0.4449465812045E+01
 0.4434432296644E+01
 0.4420949427209E+01
 0.4408903695834E+01
 0.4398080231093E+01
 0.4388082884977E+01
 0.4378237791562E+01
 0.4367537513777E+01
 0.4354717275197E+01
 0.4338509096124E+01
 0.4318032139717E+01
 0.4292811291544E+01
 0.4262238373138E+01
 0.4225016806359E+01
 0.4178901171904E+01
 0.4120740875410E+01
 0.4046679162017E+01
 0.3952364576017E+01
 0.3833289651459E+01
 0.3685716081680E+01
 0.3510425009178E+01
 0.3325127610074E+01
 0.3195124189137E+01
 0.3288586825306E+01
 0.3899888859661E+01
 0.5228038897940E+01
 0.6917520928326E+01
 0.4006607501009E+01
 0.4316110210495E+01
 0.4556495249029E+01
 0.4688306264533E+01
 0.4735773939639E+01
 0.4737507397384E+01
 0.4719429468222E+01
 0.4694346999605E+01
 0.4667864538744E+01
 0.4642309134160E+01
 0.4618566234658E+01
 0.4596904877493E+01
 0.4577353132790E+01
 0.4559865254974E+01
 0.4544391556835E+01
 0.4530900635521E+01
 0.4519374621774E+01
 0.4509783448564E+01
 0.4502032842286E+01
 0.4495876537211E+01
 0.4490793640613E+01
 0.4485886955553E+01
 0.4479928959073E+01
 0.4471650759894E+01
 0.4460210844483E+01
 0.4445237019773E+01
 0.4426228239496E+01
 0.4401933853025E+01
 0.4370068646369E+01
 0.4327349681267E+01
 0.4269653064193E+01
 0.4192054069778E+01
 0.4088704184657E+01
 0.3952780413127E+01
 0.3778445268607E+01
 0.3570586682168E+01
 0.3375339138792E+01
 0.3353021813634E+01
 0.3863344008258E+01
 0.5269675620571E+01
 0.7226808472495E+01
 0.4144524492021E+01
 0.4485720557127E+01
 0.4730649992115E+01
 0.4842693284605E+01
 0.4866275815030E+01
 0.4850491932406E+01
 0.4821708491296E+01
 0.4790523972181E+01
 0.4760758971922E+01
 0.4733630325416E+01
 0.4709359368169E+01
 0.4687829713680E+01
 0.4668855308292E+01
 0.4652282995993E+01
 0.4638025824665E+01
 0.4626065624830E+01
 0.4616439444872E+01
 0.4609212311197E+01
 0.4604428101206E+01
 0.4602021435524E+01
 0.4601673873124E+01
 0.4602656440685E+01
 0.4603820777291E+01
 0.4603912793595E+01
 0.4602136438086E+01
 0.4598234014428E+01
 0.4591832833000E+01
 0.4581773454445E+01
 0.4565825746628E+01
 0.4540742897943E+01
 0.4502409758111E+01
 0.4445775247420E+01
 0.4364329857398E+01
 0.4249076192061E+01
 0.4088530682544E+01
 0.3874362544881E+01
 0.3626420519092E+01
 0.3476478491695E+01
 0.3831025486017E+01
 0.5282929080833E+01
 0.7577519848880E+01
 0.4298441268418E+01
 0.4675403700629E+01
 0.4916505982935E+01
 0.4997282478960E+01
 0.4991538116095E+01
 0.4957599668611E+01
 0.4918989975229E+01
 0.4882726279536E+01
 0.4850542388966E+01
 0.4822498182401E+01
 0.4798170035691E+01
 0.4777091388867E+01
 0.4758893765549E+01
 0.4743341306983E+01
 0.4730327873302E+01
 0.4719861401223E+01
 0.4712043394700E+01
 0.4707042782490E+01
 0.4705054638355E+01
 0.4706221829557E+01
 0.4710482191066E+01
 0.4717350443437E+01
 0.4725820742044E+01
 0.4734679041771E+01
 0.4743173199718E+01
 0.4751148851306E+01
 0.4758352219773E+01
 0.4763737248363E+01
 0.4765219587846E+01
 0.4759767319407E+01
 0.4743565990309E+01
 0.4711926433259E+01
 0.4658500778382E+01
 0.4573379869746E+01
 0.4441291618681E+01
 0.4242779645559E+01
 0.3967546322351E+01
 0.3693269562809E+01
 0.3829481771210E+01
 0.5259449932189E+01
 0.7982197614031E+01
 0.4475370541416E+01
 0.4891165623821E+01
 0.5112995745560E+01
 0.5147404789918E+01
 0.5108165716824E+01
 0.5057187014302E+01
 0.5010505243538E+01
 0.4970596328963E+01
 0.4937066768865E+01
 0.4908864607361E+01
 0.4884994346220E+01
 0.4864700821870E+01
 0.4847477631561E+01
 0.4833037307587E+01
 0.4821275242047E+01
 0.4812238718335E+01
 0.4806101747170E+01
 0.4803142417319E+01
 0.4803713647196E+01
 0.4808185723589E+01
 0.4816805878562E+01
 0.4829428278377E+01
 0.4845287879081E+01
 0.4863259039601E+01
 0.4882625761675E+01
 0.4903289243866E+01
 0.4925053697196E+01
 0.4946971290372E+01
 0.4967187779250E+01
 0.4983076881389E+01
 0.4991420385452E+01
 0.4988372938752E+01
 0.4968629642834E+01
 0.4922914249510E+01
 0.4834675212782E+01
 0.4678065461506E+01
 0.4416453977211E+01
 0.4049069781143E+01
 0.3910972036793E+01
 0.5195933655347E+01
 0.8460209557331E+01
 0.4686969706557E+01
 0.5140570460230E+01
 0.5315365536560E+01
 0.5285603720846E+01
 0.5212443553876E+01
 0.5147845138038E+01
 0.5095648037615E+01
 0.5053907592603E+01
 0.5020280138936E+01
 0.4992748740964E+01
 0.4969877209979E+01
 0.4950705051307E+01
 0.4934643959871E+01
 0.4921390884302E+01
 0.4910865276627E+01
 0.4903166831674E+01
 0.4898548236566E+01
 0.4897398014104E+01
 0.4900225883785E+01
 0.4907635189622E+01
 0.4920224754711E+01
 0.4938302333936E+01
 0.4961496481747E+01
 0.4988868815413E+01
 0.5019732505876E+01
 0.5053936825256E+01
 0.5091198139681E+01
 0.5130595555353E+01
 0.5170583796195E+01
 0.5209156241732E+01
 0.5243984989269E+01
 0.5272495788254E+01
 0.5291227679722E+01
 0.5293223381431E+01
 0.5263630738556E+01
 0.5176158925333E+01
 0.4982762523013E+01
 0.4598294692302E+01
 0.4169056600214E+01
 0.5111105162121E+01
 0.9045394472403E+01
 0.4953935591990E+01
 0.5431569311344E+01
 0.5510799637048E+01
 0.5401447694696E+01
 0.5301322341080E+01
 0.5228575075485E+01
 0.5174034189760E+01
 0.5132612826573E+01
 0.5100240541577E+01
 0.5074245807320E+01
 0.5052916358919E+01
 0.5035189447908E+01
 0.5020459110923E+01
 0.5008445784041E+01
 0.4999116308131E+01
 0.4992635078286E+01
 0.4989337471897E+01
 0.4989719557217E+01
 0.4994438928750E+01
 0.5004319929068E+01
 0.5020327391831E+01
 0.5043340284695E+01
 0.5073612781063E+01
 0.5110598307866E+01
 0.5153653059101E+01
 0.5202364874566E+01
 0.5256076282485E+01
 0.5313743615030E+01
 0.5374209545482E+01
 0.5436347535311E+01
 0.5499030031004E+01
 0.5561274616836E+01
 0.5622051742747E+01
 0.5678140801668E+01
 0.5720025473058E+01
 0.5726168942556E+01
 0.5657904380293E+01
 0.5389528158931E+01
 0.4755394282320E+01
 0.5093169865532E+01
 0.9808763551026E+01
 0.5316351690404E+01
 0.5765749093703E+01
 0.5670158639836E+01
 0.5484389155314E+01
 0.5373720852464E+01
 0.5298646167930E+01
 0.5245659264411E+01
 0.5206859922445E+01
 0.5177129669379E+01
 0.5153533185065E+01
 0.5134264540661E+01
 0.5118279032173E+01
 0.5105019422663E+01
 0.5094270251919E+01
 0.5086068459023E+01
 0.5080654111255E+01
 0.5078446988287E+01
 0.5080043771253E+01
 0.5086233710840E+01
 0.5098032949416E+01
 0.5116739059652E+01
 0.5143878648634E+01
 0.5180660594856E+01
 0.5227354691874E+01
 0.5283446774156E+01
 0.5347864722916E+01
 0.5419058509769E+01
 0.5495614562319E+01
 0.5576857928132E+01
 0.5662874678358E+01
 0.5754129707777E+01
 0.5851411514818E+01
 0.5956329112908E+01
 0.6070173669185E+01
 0.6192073291299E+01
 0.6312639880491E+01
 0.6409149962753E+01
 0.6422614679626E+01
 0.5883934861193E+01
 0.5414828156609E+01
 0.1094067446608E+02
 0.5862146972269E+01
 0.6105537035282E+01
 0.5739509148547E+01
 0.5535170392222E+01
 0.5428797203210E+01
 0.5358026413650E+01
 0.5310971783743E+01
 0.5276984124366E+01
 0.5251270953313E+01
 0.5230868894816E+01
 0.5214131184012E+01
 0.5200138163921E+01
 0.5188451214314E+01
 0.5178957058374E+01
 0.5171783983160E+01
 0.5167256671190E+01
 0.5165878695818E+01
 0.5168337046418E+01
 0.5175529710316E+01
 0.5188623582449E+01
 0.5209164733501E+01
 0.5239266773700E+01
 0.5281471088775E+01
 0.5337758148447E+01
 0.5408040064118E+01
 0.5489788333666E+01
 0.5579662122992E+01
 0.5675538925322E+01
 0.5777367206424E+01
 0.5886871631315E+01
 0.6006660102792E+01
 0.6139529759914E+01
 0.6289004769120E+01
 0.6461243645708E+01
 0.6664702950318E+01
 0.6913629193688E+01
 0.7199692689386E+01
 0.7573680707336E+01
 0.7748253570409E+01
 0.6722115835014E+01
 0.1311132936868E+02
 0.6826275983565E+01
 0.6194983483114E+01
 0.5708205000199E+01
 0.5562277017275E+01
 0.5464500273558E+01
 0.5408525766210E+01
 0.5370521673722E+01
 0.5343624395707E+01
 0.5323098584822E+01
 0.5306598098082E+01
 0.5292778734250E+01
 0.5280969773455E+01
 0.5270909736699E+01
 0.5262622977883E+01
 0.5256347049607E+01
 0.5252497909432E+01
 0.5251659586830E+01
 0.5254597307003E+01
 0.5262289378797E+01
 0.5276003508551E+01
 0.5297430649239E+01
 0.5328996847796E+01
 0.5374613321267E+01
 0.5439927251738E+01
 0.5526198432453E+01
 0.5627616542114E+01
 0.5737641853749E+01
 0.5853059822427E+01
 0.5974688318200E+01
 0.6106425623775E+01
 0.6253749522795E+01
 0.6422198681779E+01
 0.6615694745954E+01
 0.6842087348655E+01
 0.7124405358614E+01
 0.7492032068614E+01
 0.8008124184796E+01
 0.8655187201497E+01
 0.1004945860341E+02
 0.1005705768316E+02
 0.1965568726551E+02
 0.1221723984371E+00
 0.1296571997812E+00
 0.1418421885081E+00
 0.1578041874872E+00
 0.1766323194785E+00
 0.1970447682665E+00
 0.2180839655366E+00
 0.2391498406668E+00
 0.2597057147117E+00
 0.2792585756544E+00
 0.2974405996237E+00
 0.3139919695984E+00
 0.3286664474178E+00
 0.3411715219056E+00
 0.3511937592396E+00
 0.3584446166555E+00
 0.3625769465072E+00
 0.3635931674007E+00
 0.3624585135817E+00
 0.3593317243002E+00
 0.1289653808711E+00
 0.1440113347749E+00
 0.1624450557722E+00
 0.1837745980752E+00
 0.2070909262771E+00
 0.2313969194018E+00
 0.2559037017345E+00
 0.2800065624146E+00
 0.3031685411766E+00
 0.3249397478118E+00
 0.3449899569505E+00
 0.3630918278084E+00
 0.3790386619551E+00
 0.3925928389697E+00
 0.4035008059906E+00
 0.4114932873232E+00
 0.4161513259997E+00
 0.4173260994111E+00
 0.4139401086836E+00
 0.4048393125373E+00
 0.1349625270725E+00
 0.1579976139237E+00
 0.1828261959920E+00
 0.2095795694074E+00
 0.2375620568130E+00
 0.2659442621607E+00
 0.2940459049919E+00
 0.3213051631778E+00
 0.3472142334000E+00
 0.3713576471107E+00
 0.3934415608270E+00
 0.4132693665955E+00
 0.4306680807415E+00
 0.4454355825219E+00
 0.4573313175097E+00
 0.4660355676994E+00
 0.4710547835342E+00
 0.4717375327606E+00
 0.4669663159326E+00
 0.4575501035563E+00
 0.1406338066125E+00
 0.1714859113980E+00
 0.2029259978854E+00
 0.2352563859687E+00
 0.2680548261603E+00
 0.3006630749580E+00
 0.3324940217142E+00
 0.3630378307354E+00
 0.3918295921123E+00
 0.4184923015268E+00
 0.4427656262386E+00
 0.4644808200492E+00
 0.4834899483333E+00
 0.4996075133835E+00
 0.5125795421462E+00
 0.5220353740271E+00
 0.5273835610209E+00
 0.5279300185955E+00
 0.5231680182691E+00
 0.5142084214646E+00
 0.1461162206152E+00
 0.1846469759047E+00
 0.2227605104118E+00
 0.2608163383177E+00
 0.2985737310207E+00
 0.3355426734008E+00
 0.3712309035092E+00
 0.4051862555554E+00
 0.4369923616283E+00
 0.4663133506824E+00
 0.4929215469095E+00
 0.5166725644081E+00
 0.5374363489930E+00
 0.5550337633781E+00
 0.5691971559894E+00
 0.5795243477241E+00
 0.5854439185755E+00
 0.5864320713640E+00
 0.5823181117216E+00
 0.5741588528894E+00
 0.1515044843966E+00
 0.1975863623388E+00
 0.2423967075327E+00
 0.2862786881585E+00
 0.3291210331736E+00
 0.3705733739782E+00
 0.4102384449939E+00
 0.4477262711252E+00
 0.4826718829474E+00
 0.5147817288536E+00
 0.5438601739152E+00
 0.5697850766925E+00
 0.5924410147736E+00
 0.6116555036770E+00
 0.6271599947834E+00
 0.6385667502129E+00
 0.6453944571514E+00
 0.6472812548866E+00
 0.6442408016101E+00
 0.6371526175662E+00
 0.1568673188831E+00
 0.2103895491691E+00
 0.2618947573981E+00
 0.3116720617681E+00
 0.3597003585944E+00
 0.4057446425855E+00
 0.4494960780295E+00
 0.4906288170542E+00
 0.5288306567621E+00
 0.5638507921619E+00
 0.5955254100758E+00
 0.6237543491504E+00
 0.6484380294941E+00
 0.6694174091102E+00
 0.6864431799290E+00
 0.6991757279972E+00
 0.7072385654992E+00
 0.7104023985100E+00
 0.7087735188977E+00
 0.7030569040826E+00
 0.1622597983814E+00
 0.2231234390842E+00
 0.2813068458965E+00
 0.3370236529791E+00
 0.3903164735223E+00
 0.4410448991912E+00
 0.4889804818448E+00
 0.5338604249569E+00
 0.5754254133515E+00
 0.6134674875908E+00
 0.6478550458717E+00
 0.6785114483903E+00
 0.7053571486835E+00
 0.7282563782419E+00
 0.7469962899628E+00
 0.7613020143408E+00
 0.7708995688044E+00
 0.7756642634284E+00
 0.7757541160478E+00
 0.7717383174186E+00
 0.1677279603444E+00
 0.2358418461785E+00
 0.3006759001331E+00
 0.3623568668476E+00
 0.4209727926475E+00
 0.4764612435428E+00
 0.5286657210677E+00
 0.5773837500658E+00
 0.6224079540306E+00
 0.6635731609909E+00
 0.7007809617801E+00
 0.7339809935567E+00
 0.7631193091142E+00
 0.7880927951513E+00
 0.8087367529741E+00
 0.8248482719315E+00
 0.8362485015267E+00
 0.8428991644877E+00
 0.8449952247614E+00
 0.8430169578635E+00
 0.1733115510662E+00
 0.2485884447534E+00
 0.3200365054851E+00
 0.3876901616700E+00
 0.4516702014200E+00
 0.5119787907181E+00
 0.5685233043625E+00
 0.6211579364001E+00
 0.6697256452192E+00
 0.7141038754474E+00
 0.7542287583715E+00
 0.7900794910030E+00
 0.8216332771084E+00
 0.8488271759599E+00
 0.8715519768526E+00
 0.8896791213163E+00
 0.9031179256211E+00
 0.9119059174490E+00
 0.9162727973131E+00
 0.9166528022812E+00
 0.1790457151008E+00
 0.2613990302185E+00
 0.3394160225186E+00
 0.4130370567703E+00
 0.4824065834547E+00
 0.5475804368793E+00
 0.6085223238944E+00
 0.6651390377228E+00
 0.7173218878472E+00
 0.7649906691259E+00
 0.8081174949804E+00
 0.8467143513114E+00
 0.8807943989498E+00
 0.9103404192888E+00
 0.9353030441556E+00
 0.9556283485550E+00
 0.9713084604641E+00
 0.9824512271208E+00
 0.9893238052001E+00
 0.9923469652084E+00
 0.1849621465601E+00
 0.2743031801851E+00
 0.3588357366664E+00
 0.4384065363225E+00
 0.5131768153778E+00
 0.5832468417464E+00
 0.6486296326924E+00
 0.7092803509506E+00
 0.7651364675466E+00
 0.8161597460397E+00
 0.8623595982200E+00
 0.9037836248334E+00
 0.9404847712565E+00
 0.9724954075550E+00
 0.9998284289490E+00
 0.1022503898389E+01
 0.1040592916994E+01
 0.1054271285617E+01
 0.1063848399646E+01
 0.1069751940010E+01
 0.1910899114048E+00
 0.2873255707123E+00
 0.3783119605517E+00
 0.4638037006499E+00
 0.5439730888836E+00
 0.6189566720663E+00
 0.6888101620525E+00
 0.7535328212199E+00
 0.8131059759134E+00
 0.8675328385961E+00
 0.9168611790517E+00
 0.9611764918894E+00
 0.1000574368562E+01
 0.1035139301431E+01
 0.1064947571410E+01
 0.1090092086509E+01
 0.1110720019168E+01
 0.1127074281002E+01
 0.1139511858862E+01
 0.1148480656083E+01
 0.1974560881613E+00
 0.3004870819967E+00
 0.3978571066134E+00
 0.4892305721797E+00
 0.5747854745045E+00
 0.6546870632062E+00
 0.7290273917775E+00
 0.7978455516670E+00
 0.8611643455355E+00
 0.9190277675546E+00
 0.9715227011138E+00
 0.1018774253739E+01
 0.1060922675416E+01
 0.1098106075732E+01
 0.1130464303434E+01
 0.1158161542540E+01
 0.1181418403069E+01
 0.1200544178439E+01
 0.1215947628246E+01
 0.1228108083053E+01
 0.2040862556067E+00
 0.3138057223634E+00
 0.4174806724060E+00
 0.5146869269719E+00
 0.6056025730556E+00
 0.6904141669743E+00
 0.7692438734020E+00
 0.8421663447868E+00
 0.9092434344159E+00
 0.9705591167342E+00
 0.1026239854199E+01
 0.1076451586823E+01
 0.1121380534919E+01
 0.1161219111191E+01
 0.1196170177614E+01
 0.1226467153732E+01
 0.1252401193009E+01
 0.1274346392331E+01
 0.1292765409823E+01
 0.1308178415672E+01
 0.2110049068805E+00
 0.3272974750005E+00
 0.4371902231053E+00
 0.5401712155675E+00
 0.6364123186112E+00
 0.7261138702964E+00
 0.8094219191765E+00
 0.8864424072241E+00
 0.9572737923589E+00
 0.1022039129514E+01
 0.1080904690268E+01
 0.1134078064931E+01
 0.1181792207934E+01
 0.1224293895838E+01
 0.1261847849481E+01
 0.1294754180862E+01
 0.1323371153110E+01
 0.1348134924605E+01
 0.1369561974959E+01
 0.1388219461882E+01
 0.2182357952042E+00
 0.3409770662444E+00
 0.4569923357254E+00
 0.5656814993444E+00
 0.6672028363737E+00
 0.7617625828590E+00
 0.8495243585871E+00
 0.9306211214690E+00
 0.1005185504069E+01
 0.1073378699812E+01
 0.1135406864664E+01
 0.1191519770834E+01
 0.1241997471709E+01
 0.1287140702528E+01
 0.1327274411294E+01
 0.1362762389909E+01
 0.1394025995757E+01
 0.1421559612763E+01
 0.1445931392164E+01
 0.1467757409536E+01
 0.2258022351564E+00
 0.3548586929553E+00
 0.4768935316548E+00
 0.5912164155851E+00
 0.6979633599865E+00
 0.7973380975818E+00
 0.8895153688950E+00
 0.9746508899266E+00
 0.1052909104996E+01
 0.1124488435341E+01
 0.1189634938962E+01
 0.1248640939256E+01
 0.1301833699305E+01
 0.1349567190584E+01
 0.1392224608297E+01
 0.1430230038881E+01
 0.1464063430868E+01
 0.1494272648219E+01
 0.1521473529006E+01
 0.1546328753889E+01
 0.2337273888010E+00
 0.3689567410766E+00
 0.4969012255042E+00
 0.6167761903622E+00
 0.7286852215709E+00
 0.8328205363422E+00
 0.9293613937137E+00
 0.1018482065138E+01
 0.1100376578904E+01
 0.1175279793226E+01
 0.1243477736401E+01
 0.1305305617735E+01
 0.1361137907882E+01
 0.1411380918597E+01
 0.1456473900569E+01
 0.1496897608420E+01
 0.1533185741067E+01
 0.1565934192554E+01
 0.1595800952789E+01
 0.1623489514397E+01
 0.2420345275461E+00
 0.3832864860599E+00
 0.5170246670382E+00
 0.6423636597771E+00
 0.7593628614794E+00
 0.8681933190417E+00
 0.9690320818788E+00
 0.1062067892991E+01
 0.1147522357456E+01
 0.1225666201019E+01
 0.1296825657053E+01
 0.1361379249973E+01
 0.1419748680399E+01
 0.1472391669207E+01
 0.1519801254227E+01
 0.1562511127918E+01
 0.1601103730164E+01
 0.1636217092586E+01
 0.1668544666661E+01
 0.1698822730196E+01
 0.2507472988159E+00
 0.3978648117505E+00
 0.5372759151128E+00
 0.6679853370938E+00
 0.7899948926547E+00
 0.9034441887482E+00
 0.1008501277237E+01
 0.1105365496191E+01
 0.1194284343864E+01
 0.1275564178612E+01
 0.1349571961550E+01
 0.1416730184517E+01
 0.1477507957317E+01
 0.1532413573887E+01
 0.1581991638227E+01
 0.1626825070436E+01
 0.1667540029687E+01
 0.1704810682729E+01
 0.1739358782589E+01
 0.1771944097598E+01
 0.2598900004366E+00
 0.4127109496408E+00
 0.5576708392701E+00
 0.6936525120726E+00
 0.8205851969505E+00
 0.9385662632664E+00
 0.1047748024463E+01
 0.1148336858755E+01
 0.1240604917481E+01
 0.1324894414591E+01
 0.1401613974531E+01
 0.1471231058554E+01
 0.1534262647571E+01
 0.1591266987313E+01
 0.1642838182630E+01
 0.1689604788623E+01
 0.1732231773441E+01
 0.1771423557489E+01
 0.1807923255488E+01
 0.1842503689605E+01
 0.2694878726159E+00
 0.4278472504694E+00
 0.5782301585606E+00
 0.7193823865563E+00
 0.8511440511674E+00
 0.9735591055094E+00
 0.1086757579013E+01
 0.1190949796038E+01
 0.1286431900694E+01
 0.1373582775748E+01
 0.1452854184462E+01
 0.1524760031999E+01
 0.1589866033177E+01
 0.1648780087497E+01
 0.1702143981533E+01
 0.1750628500595E+01
 0.1794932680435E+01
 0.1835785553128E+01
 0.1873944939220E+01
 0.1910186762881E+01
 0.2795674206269E+00
 0.4433000041831E+00
 0.5989805322102E+00
 0.7451992563899E+00
 0.8816892871163E+00
 0.1008429811801E+01
 0.1125522416169E+01
 0.1233178901864E+01
 0.1331719477000E+01
 0.1421561236667E+01
 0.1503201225367E+01
 0.1577201856438E+01
 0.1644178951877E+01
 0.1704790187790E+01
 0.1759723535479E+01
 0.1809688836395E+01
 0.1855414640459E+01
 0.1897649211921E+01
 0.1937159019761E+01
 0.1974715061219E+01
 0.2901567804451E+00
 0.4591003217588E+00
 0.6199557143482E+00
 0.7711357466761E+00
 0.9122474862402E+00
 0.1043194113035E+01
 0.1164043229870E+01
 0.1275006460449E+01
 0.1376429046215E+01
 0.1468768714839E+01
 0.1552570726399E+01
 0.1628448765854E+01
 0.1697070745998E+01
 0.1759144751821E+01
 0.1815403830261E+01
 0.1866593963111E+01
 0.1913468836902E+01
 0.1956790883613E+01
 0.1997330196423E+01
 0.2035847677705E+01
 0.3012861291650E+00
 0.4752850813866E+00
 0.6411977714475E+00
 0.7972340910846E+00
 0.9428551909390E+00
 0.1077877463785E+01
 0.1202329891609E+01
 0.1316423290657E+01
 0.1420529983788E+01
 0.1515151779860E+01
 0.1600886001078E+01
 0.1678401164957E+01
 0.1748419957240E+01
 0.1811702094367E+01
 0.1869025040940E+01
 0.1921168284516E+01
 0.1968906419234E+01
 0.2013011305234E+01
 0.2054252901165E+01
 0.2093380487364E+01
 0.3129881707030E+00
 0.4918979795263E+00
 0.6627584067188E+00
 0.8235474991128E+00
 0.9735601727331E+00
 0.1112516155643E+01
 0.1240402402410E+01
 0.1357429553031E+01
 0.1464000333291E+01
 0.1560665266142E+01
 0.1648078607307E+01
 0.1726968148036E+01
 0.1798114800451E+01
 0.1862331798348E+01
 0.1920440883774E+01
 0.1973252729381E+01
 0.2021558714690E+01
 0.2066135605074E+01
 0.2107750707724E+01
 0.2147144457022E+01
 0.3252986949377E+00
 0.5089906800796E+00
 0.6847003805805E+00
 0.8501415883245E+00
 0.1004422721500E+01
 0.1147158408634E+01
 0.1278291784663E+01
 0.1398035462446E+01
 0.1506827374755E+01
 0.1605272735863E+01
 0.1694088732706E+01
 0.1774067812473E+01
 0.1846053388933E+01
 0.1910914824067E+01
 0.1969518587567E+01
 0.2022704581640E+01
 0.2071276913297E+01
 0.2116012735072E+01
 0.2157675075081E+01
 0.2197002890829E+01
 0.3382572248054E+00
 0.5266240908594E+00
 0.7070990577712E+00
 0.8770959088876E+00
 0.1035516976245E+01
 0.1181865455608E+01
 0.1316040925139E+01
 0.1438261915845E+01
 0.1549008079488E+01
 0.1648946808430E+01
 0.1738865431578E+01
 0.1819627405518E+01
 0.1892143760415E+01
 0.1957343363658E+01
 0.2016138529785E+01
 0.2069396873988E+01
 0.2117931207444E+01
 0.2162514318233E+01
 0.2203903519487E+01
 0.2242847388950E+01
 0.3519077898547E+00
 0.5448698129972E+00
 0.7300441338803E+00
 0.9045056082795E+00
 0.1066932335360E+01
 0.1216712648003E+01
 0.1353705389147E+01
 0.1478141047535E+01
 0.1590549459327E+01
 0.1691669365550E+01
 0.1782366730338E+01
 0.1863583333532E+01
 0.1936303744647E+01
 0.2001520486038E+01
 0.2060193574193E+01
 0.2113217361140E+01
 0.2161409352369E+01
 0.2205532698789E+01
 0.2246336849756E+01
 0.2284591529809E+01
 0.3662997969524E+00
 0.5638117395929E+00
 0.7536415119128E+00
 0.9324831899026E+00
 0.1098774879891E+01
 0.1251790500347E+01
 0.1391354111335E+01
 0.1517716608795E+01
 0.1631468703896E+01
 0.1733431531693E+01
 0.1824559518919E+01
 0.1905880978708E+01
 0.1978460648675E+01
 0.2043359572465E+01
 0.2101588119801E+01
 0.2154067078662E+01
 0.2201614654594E+01
 0.2244978080098E+01
 0.2284894415321E+01
 0.2322159928294E+01
 0.3814890734425E+00
 0.5835479092368E+00
 0.7780154549977E+00
 0.9611604964289E+00
 0.1131168934839E+01
 0.1287205791619E+01
 0.1429070073104E+01
 0.1557044270305E+01
 0.1671793194212E+01
 0.1774233515911E+01
 0.1865419324885E+01
 0.1946474445293E+01
 0.2018550915833E+01
 0.2082783728169E+01
 0.2140237053717E+01
 0.2191858670623E+01
 0.2238463587396E+01
 0.2280775301812E+01
 0.2319508814074E+01
 0.2355478464967E+01
 0.3975390490332E+00
 0.6041925889117E+00
 0.8033109945074E+00
 0.9906908798553E+00
 0.1164258706790E+01
 0.1323082645464E+01
 0.1466950874558E+01
 0.1596191741500E+01
 0.1711560276201E+01
 0.1814084200437E+01
 0.1904929876882E+01
 0.1985326187496E+01
 0.2056519778359E+01
 0.2119725261210E+01
 0.2176064747259E+01
 0.2226514625422E+01
 0.2271883215206E+01
 0.2312860844274E+01
 0.2350124095643E+01
 0.2384478843700E+01
 0.4145220878637E+00
 0.6258786432065E+00
 0.8296966672393E+00
 0.1021251616744E+01
 0.1198210036742E+01
 0.1359563604293E+01
 0.1505109194226E+01
 0.1635238665432E+01
 0.1750816720509E+01
 0.1853000379743E+01
 0.1943082359688E+01
 0.2022406452547E+01
 0.2092320909048E+01
 0.2154125335563E+01
 0.2209004278537E+01
 0.2257965615732E+01
 0.2301808503624E+01
 0.2341180002863E+01
 0.2376696047254E+01
 0.2409109499327E+01
 0.4325210401064E+00
 0.6487603155617E+00
 0.8573677177456E+00
 0.1053046724007E+01
 0.1233212394655E+01
 0.1396810836736E+01
 0.1543673249554E+01
 0.1674276375564E+01
 0.1789617916075E+01
 0.1891005676172E+01
 0.1979874380152E+01
 0.2057692582216E+01
 0.2125916206759E+01
 0.2185934094385E+01
 0.2238997357954E+01
 0.2286149448442E+01
 0.2328179867468E+01
 0.2365683787059E+01
 0.2399191593639E+01
 0.2429340556702E+01
 0.4516309344540E+00
 0.6730163157070E+00
 0.8865497705353E+00
 0.1086310012914E+01
 0.1269481045405E+01
 0.1435007326874E+01
 0.1582787119979E+01
 0.1713407290420E+01
 0.1828026532480E+01
 0.1928128837526E+01
 0.2015308341105E+01
 0.2091167867008E+01
 0.2157275471268E+01
 0.2215111264711E+01
 0.2265995304017E+01
 0.2311011214540E+01
 0.2350941155211E+01
 0.2386325154692E+01
 0.2417585921286E+01
 0.2445168407853E+01
 0.4719609277403E+00
 0.6988539414600E+00
 0.9175028566523E+00
 0.1121308942120E+01
 0.1307259489286E+01
 0.1474358557947E+01
 0.1622611191363E+01
 0.1752744153117E+01
 0.1866110770406E+01
 0.1964401484698E+01
 0.2049389245971E+01
 0.2122819937104E+01
 0.2186375837345E+01
 0.2241627209240E+01
 0.2289961826912E+01
 0.2332505842400E+01
 0.2370039165612E+01
 0.2403053819029E+01
 0.2431857624424E+01
 0.2456622728783E+01
 0.4936376146683E+00
 0.7265119779224E+00
 0.9505276366882E+00
 0.1158347239001E+01
 0.1346823169043E+01
 0.1515094362707E+01
 0.1663322690106E+01
 0.1792408835823E+01
 0.1903941743305E+01
 0.1999854991497E+01
 0.2082121571147E+01
 0.2152638167283E+01
 0.2213200576789E+01
 0.2265463470810E+01
 0.2310877034333E+01
 0.2350605999911E+01
 0.2385426586843E+01
 0.2415809797867E+01
 0.2441976990116E+01
 0.2463778658324E+01
 0.5168058354150E+00
 0.7562794796140E+00
 0.9859596430500E+00
 0.1197773991673E+01
 0.1388482072086E+01
 0.1557471821027E+01
 0.1705117185795E+01
 0.1832530042262E+01
 0.1941589654637E+01
 0.2034516479273E+01
 0.2113505311833E+01
 0.2180609564769E+01
 0.2237736333192E+01
 0.2286613508780E+01
 0.2328739011095E+01
 0.2365313646989E+01
 0.2397085165920E+01
 0.2424512029581E+01
 0.2447876948250E+01
 0.2466761885620E+01
 0.5416959412683E+00
 0.7884080784874E+00
 0.1024210644539E+01
 0.1239979745180E+01
 0.1432580696395E+01
 0.1601786864934E+01
 0.1748209979393E+01
 0.1873238715102E+01
 0.1979118395251E+01
 0.2068404838422E+01
 0.2143531816102E+01
 0.2206713634982E+01
 0.2259966714821E+01
 0.2305081718965E+01
 0.2343572541252E+01
 0.2376652117817E+01
 0.2405064054409E+01
 0.2429144421805E+01
 0.2449322686569E+01
 0.2465748253986E+01
 0.4593916282976E+00
 0.7098224489012E+00
 0.7438434537490E+00
 0.7080023101860E+00
 0.6119537687164E+00
 0.4974921649370E+00
 0.4163820402921E+00
 0.3776361032664E+00
 0.3527731769467E+00
 0.3271802809156E+00
 0.2984101595173E+00
 0.2667086604935E+00
 0.2320768468053E+00
 0.1947739072837E+00
 0.1561487179822E+00
 0.1172808570801E+00
 0.7842451367551E-01
 0.4528228719783E-01
 0.2030529773424E-01
 0.9307277141186E-03
 0.3930962653501E+00
 0.6562937696401E+00
 0.6776743159656E+00
 0.6488664069409E+00
 0.5863675684697E+00
 0.5081960013873E+00
 0.4414399096799E+00
 0.3974458119140E+00
 0.3660696172186E+00
 0.3374666343578E+00
 0.3079576758740E+00
 0.2764270686553E+00
 0.2424625323407E+00
 0.2060973253376E+00
 0.1679629202325E+00
 0.1288727026801E+00
 0.8997185382057E-01
 0.5501987365628E-01
 0.2540354203468E-01
 0.2123889866575E-02
 0.3294382271017E+00
 0.5849355632966E+00
 0.6200692889016E+00
 0.5981577303389E+00
 0.5555836128583E+00
 0.5026217853730E+00
 0.4519177622489E+00
 0.4110311249413E+00
 0.3773926752964E+00
 0.3466042271528E+00
 0.3161784634121E+00
 0.2847327276963E+00
 0.2514490987505E+00
 0.2159990123567E+00
 0.1785929476310E+00
 0.1397972236976E+00
 0.1006170337187E+00
 0.6343232494204E-01
 0.2929201439144E-01
 0.4003000796368E-02
 0.2720229835109E+00
 0.5140085289218E+00
 0.5619584982836E+00
 0.5515197732147E+00
 0.5224234224751E+00
 0.4867801094616E+00
 0.4501613673703E+00
 0.4158583029526E+00
 0.3838454720333E+00
 0.3529195814211E+00
 0.3222784271222E+00
 0.2911059849504E+00
 0.2585994047917E+00
 0.2242109504058E+00
 0.1878078313351E+00
 0.1496280134354E+00
 0.1103934116080E+00
 0.7133327788245E-01
 0.3316687878400E-01
 0.5368635539777E-02
 0.2206623441431E+00
 0.4464280428362E+00
 0.5043381396667E+00
 0.5052895223054E+00
 0.4874403042010E+00
 0.4641328668743E+00
 0.4388331497105E+00
 0.4119126294605E+00
 0.3837799725825E+00
 0.3547220433069E+00
 0.3250720234667E+00
 0.2947631612159E+00
 0.2633402034659E+00
 0.2302697069606E+00
 0.1951956324675E+00
 0.1580510923183E+00
 0.1192370218420E+00
 0.7900899648540E-01
 0.3767794671137E-01
 0.5254894188151E-02
 0.1749560010369E+00
 0.3830939065502E+00
 0.4477914080536E+00
 0.4586409966222E+00
 0.4503173808547E+00
 0.4364777525918E+00
 0.4200579858608E+00
 0.4000612104034E+00
 0.3767288255949E+00
 0.3508852338833E+00
 0.3234050772809E+00
 0.2947623711058E+00
 0.2649276122972E+00
 0.2335535788407E+00
 0.2002109224700E+00
 0.1646106309929E+00
 0.1268708526687E+00
 0.8640498138719E-01
 0.4304451637259E-01
 0.3387268656139E-02
 0.1344161794282E+00
 0.3242345370849E+00
 0.3927467888492E+00
 0.4114981425331E+00
 0.4110618365019E+00
 0.4047067031566E+00
 0.3953035344462E+00
 0.3813292705921E+00
 0.3628749349496E+00
 0.3408988527360E+00
 0.3164297491614E+00
 0.2902090456502E+00
 0.2625408758151E+00
 0.2333225015099E+00
 0.2021694750971E+00
 0.1686770144389E+00
 0.1327604929688E+00
 0.9311536914046E-01
 0.4903652067765E-01
 0.2892455991716E-02
 0.9855468301176E-01
 0.2698277281902E+00
 0.3395158587083E+00
 0.3640669726284E+00
 0.3698890675850E+00
 0.3694256804907E+00
 0.3655510156512E+00
 0.3566218072075E+00
 0.3426750133523E+00
 0.3246879472533E+00
 0.3036619189596E+00
 0.2804023738903E+00
 0.2554076659321E+00
 0.2287946958058E+00
 0.2002883208153E+00
 0.1694632205545E+00
 0.1361273713514E+00
 0.9839039812024E-01
 0.5496930022227E-01
 0.7772967090092E-02
 0.6692060925640E-01
 0.2197346266233E+00
 0.2883333368121E+00
 0.3166501421460E+00
 0.3271308225159E+00
 0.3311467048498E+00
 0.3315269817903E+00
 0.3266819325185E+00
 0.3166579301838E+00
 0.3024309287305E+00
 0.2849200486628E+00
 0.2648840383415E+00
 0.2428965377599E+00
 0.2192352979240E+00
 0.1937552117772E+00
 0.1660806839213E+00
 0.1360023058815E+00
 0.1011889814848E+00
 0.5975350958965E-01
 0.1352275157902E-01
 0.3916168098006E-01
 0.1737576399746E+00
 0.2393742129097E+00
 0.2695738998092E+00
 0.2831726937123E+00
 0.2903531916031E+00
 0.2938317397679E+00
 0.2921373306455E+00
 0.2853480926176E+00
 0.2744367321428E+00
 0.2602389639542E+00
 0.2434234752837E+00
 0.2245604264315E+00
 0.2040278003463E+00
 0.1818066801124E+00
 0.1576178217435E+00
 0.1313102304106E+00
 0.1002714526926E+00
 0.6200261545584E-01
 0.1807611410604E-01
 0.1550340025539E-01
 0.1316694549009E+00
 0.1927642617490E+00
 0.2231553929263E+00
 0.2384184391892E+00
 0.2475187380638E+00
 0.2530058580729E+00
 0.2535473736197E+00
 0.2492510945294E+00
 0.2410799033050E+00
 0.2297992138207E+00
 0.2159799827229E+00
 0.2001441346097E+00
 0.1827193642446E+00
 0.1637976710312E+00
 0.1432251013065E+00
 0.1209707192895E+00
 0.9431687699775E-01
 0.6017604728051E-01
 0.1963480083294E-01
 0.1061104051390E-01
 0.9323051594173E-01
 0.1485886877708E+00
 0.1776885303352E+00
 0.1932700172629E+00
 0.2031110295959E+00
 0.2095628452217E+00
 0.2114369646318E+00
 0.2088601075220E+00
 0.2027724845867E+00
 0.1938807635518E+00
 0.1826646237293E+00
 0.1695738253569E+00
 0.1550444662468E+00
 0.1392566889347E+00
 0.1221957657265E+00
 0.1040007389713E+00
 0.8204643015793E-01
 0.5273188349708E-01
 0.1645615625173E-01
 0.2801069732409E-01
 0.5820558349671E-01
 0.1069029006882E+00
 0.1334409227557E+00
 0.1481185236296E+00
 0.1575926495825E+00
 0.1640062527928E+00
 0.1663192117168E+00
 0.1646678954255E+00
 0.1599554533761E+00
 0.1528368830439E+00
 0.1437107892809E+00
 0.1329413623851E+00
 0.1209358066170E+00
 0.1079293733214E+00
 0.9404128449322E-01
 0.7961621226902E-01
 0.6234496970924E-01
 0.3828033140364E-01
 0.7241809012941E-02
 0.4454795428585E-01
 0.2642473561622E-01
 0.6775802504300E-01
 0.9066540671529E-01
 0.1033485732163E+00
 0.1114279705264E+00
 0.1168449586069E+00
 0.1187161637519E+00
 0.1171847289373E+00
 0.1131057382249E+00
 0.1070879223614E+00
 0.9946105664608E-01
 0.9049739470088E-01
 0.8053945362792E-01
 0.6983020080316E-01
 0.5858860386035E-01
 0.4737183654116E-01
 0.3444239142874E-01
 0.1595757958243E-01
 0.1142569713780E-01
 0.5927419437607E-01
 0.4787766216853E-02
 0.3135907447462E-01
 0.4967886754074E-01
 0.5939491436765E-01
 0.6513257505535E-01
 0.6864410174105E-01
 0.6921552523226E-01
 0.6700090206527E-01
 0.6280241611607E-01
 0.5719142949950E-01
 0.5044980860290E-01
 0.4276921171235E-01
 0.3441385927387E-01
 0.2561452141604E-01
 0.1674678617904E-01
 0.9087680019701E-02
 0.6769263353471E-02
 0.1767311001193E-01
 0.3733483394545E-01
 0.7231092474310E-01
 0.2953205831363E-01
 0.7919871481114E-02
 0.1245486035608E-01
 0.1767520281970E-01
 0.2004729946938E-01
 0.2077519412183E-01
 0.1934370985165E-01
 0.1601088165218E-01
 0.1180817796156E-01
 0.8367485743810E-02
 0.8816660887557E-02
 0.1359516849789E-01
 0.2019443989392E-01
 0.2755938655366E-01
 0.3528843203561E-01
 0.4260746934715E-01
 0.4961917387225E-01
 0.5892930032724E-01
 0.7298729222103E-01
 0.8385893458702E-01
 0.5340618234210E-01
 0.3653380063938E-01
 0.2926664388498E-01
 0.2772160353385E-01
 0.2886983178698E-01
 0.3139888073350E-01
 0.3567269660912E-01
 0.4151051877570E-01
 0.4823292468590E-01
 0.5531509849259E-01
 0.6249439531751E-01
 0.6966858586496E-01
 0.7676104620471E-01
 0.8382392964569E-01
 0.9095036869963E-01
 0.9780626564937E-01
 0.1040025911088E+00
 0.1105104227709E+00
 0.1185847962062E+00
 0.9413359582082E-01
 0.7518483684140E-01
 0.6599396031119E-01
 0.6426671274314E-01
 0.6743347712910E-01
 0.7305533057805E-01
 0.7979635424969E-01
 0.8778710372586E-01
 0.9676303857526E-01
 0.1060652021134E+00
 0.1151807756560E+00
 0.1238259327660E+00
 0.1318726086939E+00
 0.1392371344416E+00
 0.1460103529638E+00
 0.1525022717341E+00
 0.1589200661574E+00
 0.1652887220293E+00
 0.1713702100048E+00
 0.1743366090166E+00
 0.1033618760687E+00
 0.9509704644288E-01
 0.9338233549505E-01
 0.9759776304602E-01
 0.1059948193383E+00
 0.1165736021720E+00
 0.1280345589795E+00
 0.1402830504165E+00
 0.1529821661808E+00
 0.1655152162374E+00
 0.1773966002103E+00
 0.1883178281440E+00
 0.1980882382885E+00
 0.2065312404672E+00
 0.2136018467579E+00
 0.2195581780198E+00
 0.2250170132866E+00
 0.2304938983278E+00
 0.2380164286188E+00
 0.2405142142339E+00
 0.1120584227248E+00
 0.1131218470110E+00
 0.1184968733943E+00
 0.1288255660450E+00
 0.1427229149541E+00
 0.1586103822551E+00
 0.1752555423350E+00
 0.1923022244071E+00
 0.2093023250903E+00
 0.2256901476948E+00
 0.2410382937702E+00
 0.2550522021210E+00
 0.2674945023835E+00
 0.2780875887030E+00
 0.2865754636586E+00
 0.2928452170526E+00
 0.2971650150249E+00
 0.2999539575950E+00
 0.3037230540026E+00
 0.3118801165454E+00
 0.5761451041227E+00
 0.8358489263027E+00
 0.1083464446617E+01
 0.1307430575943E+01
 0.1504719242888E+01
 0.1675326774634E+01
 0.1820317375798E+01
 0.1941670348295E+01
 0.2042311372228E+01
 0.2125411305132E+01
 0.2193854907878E+01
 0.2250165778220E+01
 0.2296571662970E+01
 0.2334997895736E+01
 0.2367022938593E+01
 0.2393908409196E+01
 0.2416671871512E+01
 0.2435525868785E+01
 0.2451060624289E+01
 0.2465197207254E+01
 0.6156741347741E+00
 0.8978994064946E+00
 0.1162355447146E+01
 0.1398099619111E+01
 0.1601772241404E+01
 0.1773877326288E+01
 0.1916213171609E+01
 0.2031595110774E+01
 0.2124007448025E+01
 0.2197592468285E+01
 0.2255943282224E+01
 0.2302063549250E+01
 0.2338499731478E+01
 0.2367383015021E+01
 0.2390424385988E+01
 0.2409031794894E+01
 0.2424533868787E+01
 0.2436953285238E+01
 0.2447046437982E+01
 0.2456550641931E+01
 0.6579959194026E+00
 0.9659106156280E+00
 0.1247982584850E+01
 0.1494208103984E+01
 0.1701941780647E+01
 0.1872652781999E+01
 0.2009183164780E+01
 0.2115374240424E+01
 0.2196543324578E+01
 0.2257983454650E+01
 0.2304038202206E+01
 0.2338180671588E+01
 0.2363277424299E+01
 0.2381664044047E+01
 0.2395183706635E+01
 0.2405378438346E+01
 0.2413712453592E+01
 0.2419626149776E+01
 0.2423987872343E+01
 0.2429070475626E+01
 0.7043700345067E+00
 0.1040476084789E+01
 0.1340639906132E+01
 0.1595771255772E+01
 0.1804682503160E+01
 0.1970472178451E+01
 0.2097458004360E+01
 0.2190885412665E+01
 0.2257700752869E+01
 0.2304457790156E+01
 0.2336237850695E+01
 0.2356935287182E+01
 0.2369684363700E+01
 0.2376954005255E+01
 0.2380633568802E+01
 0.2382272770934E+01
 0.2383235437072E+01
 0.2382200842111E+01
 0.2380813783177E+01
 0.2383185651805E+01
 0.7556466816737E+00
 0.1122766653918E+01
 0.1440859916920E+01
 0.1702652102252E+01
 0.1909130732014E+01
 0.2065764672123E+01
 0.2178940894131E+01
 0.2255792457961E+01
 0.2305186363719E+01
 0.2334959853052E+01
 0.2350833893092E+01
 0.2357008780774E+01
 0.2356771174529E+01
 0.2352592295191E+01
 0.2346275046824E+01
 0.2339240449186E+01
 0.2332584262884E+01
 0.2324353097748E+01
 0.2317779029614E+01
 0.2319470760918E+01
 0.8127677665115E+00
 0.1214002149366E+01
 0.1549252534812E+01
 0.1814547441868E+01
 0.2014074136119E+01
 0.2156562415665E+01
 0.2251202350093E+01
 0.2307578335270E+01
 0.2336702375808E+01
 0.2347586085747E+01
 0.2346384247972E+01
 0.2337412829034E+01
 0.2323939381654E+01
 0.2308270933861E+01
 0.2291986707572E+01
 0.2276276403773E+01
 0.2261893000617E+01
 0.2246514325952E+01
 0.2235599592012E+01
 0.2238545513299E+01
 0.8768176553794E+00
 0.1315529535894E+01
 0.1666372093005E+01
 0.1930904547221E+01
 0.2117895765777E+01
 0.2240468748811E+01
 0.2311497962892E+01
 0.2343611078092E+01
 0.2350044117157E+01
 0.2340691237180E+01
 0.2321813379020E+01
 0.2297581986663E+01
 0.2271034432179E+01
 0.2244136300668E+01
 0.2218123852898E+01
 0.2193894834843E+01
 0.2171840808042E+01
 0.2149564661231E+01
 0.2135209138303E+01
 0.2141096898672E+01
 0.9490772996782E+00
 0.1428837069806E+01
 0.1792662923081E+01
 0.2050815545089E+01
 0.2218489636819E+01
 0.2314627255001E+01
 0.2356809766444E+01
 0.2361246942397E+01
 0.2343231159578E+01
 0.2313017754029E+01
 0.2276523246113E+01
 0.2237461757719E+01
 0.2198412687832E+01
 0.2160833639541E+01
 0.2125527845772E+01
 0.2093074990522E+01
 0.2063514517284E+01
 0.2034670933512E+01
 0.2017686362194E+01
 0.2027901488193E+01
 0.1031076781859E+01
 0.1555573600414E+01
 0.1928386740278E+01
 0.2172896780817E+01
 0.2313159501772E+01
 0.2375702566339E+01
 0.2383927663650E+01
 0.2357980103980E+01
 0.2314672478932E+01
 0.2263838005710E+01
 0.2210495623819E+01
 0.2157569514071E+01
 0.2106966071295E+01
 0.2059499012289E+01
 0.2015483198484E+01
 0.1975180545983E+01
 0.1938302667127E+01
 0.1903200511575E+01
 0.1884231307979E+01
 0.1899827114378E+01
 0.1124661282389E+01
 0.1697563135421E+01
 0.2073520313100E+01
 0.2295129852251E+01
 0.2398506232065E+01
 0.2419892573790E+01
 0.2389592353260E+01
 0.2331649211541E+01
 0.2263359255184E+01
 0.2193090708947E+01
 0.2124363361055E+01
 0.2059011284499E+01
 0.1998100350095E+01
 0.1941711280230E+01
 0.1889650528634E+01
 0.1841881130549E+01
 0.1797820081151E+01
 0.1756675598553E+01
 0.1736158192255E+01
 0.1757830430800E+01
 0.1232079289412E+01
 0.1856813019195E+01
 0.2227598672231E+01
 0.2414646146345E+01
 0.2470310449181E+01
 0.2443003060716E+01
 0.2370728253124E+01
 0.2280705140377E+01
 0.2189065455198E+01
 0.2101481276721E+01
 0.2019425388397E+01
 0.1943443512901E+01
 0.1873671374616E+01
 0.1809419215441E+01
 0.1749993383491E+01
 0.1695086692747E+01
 0.1643859574213E+01
 0.1596755568439E+01
 0.1574905555483E+01
 0.1602966481807E+01
 0.1356106260583E+01
 0.2035506076089E+01
 0.2389465415665E+01
 0.2527430043208E+01
 0.2523432618676E+01
 0.2440636177013E+01
 0.2324798287066E+01
 0.2204525769276E+01
 0.2092512219882E+01
 0.1990503087426E+01
 0.1897583945737E+01
 0.1812981520221E+01
 0.1735894388601E+01
 0.1664861160332E+01
 0.1598711645366E+01
 0.1536900089055E+01
 0.1478370227881E+01
 0.1425248610501E+01
 0.1402074246674E+01
 0.1436426374135E+01
 0.1500224921664E+01
 0.2235953870076E+01
 0.2556859994189E+01
 0.2627911271407E+01
 0.2551786690703E+01
 0.2408576244945E+01
 0.2250300485636E+01
 0.2103720107028E+01
 0.1975417628252E+01
 0.1862334298245E+01
 0.1761203432869E+01
 0.1670079301256E+01
 0.1587252076832E+01
 0.1510492755773E+01
 0.1438187170228E+01
 0.1369588610671E+01
 0.1303464032034E+01
 0.1244160692839E+01
 0.1219508066497E+01
 0.1259621707319E+01
 0.1668898533030E+01
 0.2460455046909E+01
 0.2725708845902E+01
 0.2708421804689E+01
 0.2548518796723E+01
 0.2343493457258E+01
 0.2147369253968E+01
 0.1980279821742E+01
 0.1840327093900E+01
 0.1719598061521E+01
 0.1612938728274E+01
 0.1517429310364E+01
 0.1430425122951E+01
 0.1348925332932E+01
 0.1270935929577E+01
 0.1195570754523E+01
 0.1121455314838E+01
 0.1055795543105E+01
 0.1029436563223E+01
 0.1074340182457E+01
 0.1868003004852E+01
 0.2710916914949E+01
 0.2888855067527E+01
 0.2758545697597E+01
 0.2506681726775E+01
 0.2244094151751E+01
 0.2018269902447E+01
 0.1837325252891E+01
 0.1690157679456E+01
 0.1565083321624E+01
 0.1455636055783E+01
 0.1357925971822E+01
 0.1268241506368E+01
 0.1182854881024E+01
 0.1099551124169E+01
 0.1017414531434E+01
 0.9349422691030E+00
 0.8629262400972E+00
 0.8347064032201E+00
 0.8830061184194E+00
 0.2105539874480E+01
 0.2987843350660E+01
 0.3033691677917E+01
 0.2764603378328E+01
 0.2421034311750E+01
 0.2112644046439E+01
 0.1867215032419E+01
 0.1678143478782E+01
 0.1527662142764E+01
 0.1401657982861E+01
 0.1292396026130E+01
 0.1194674615149E+01
 0.1103593987744E+01
 0.1014946529404E+01
 0.9266258048726E+00
 0.8378486359334E+00
 0.7469442675609E+00
 0.6690646228493E+00
 0.6391382190784E+00
 0.6890966264294E+00
 0.2392899302721E+01
 0.3287527792819E+01
 0.3137497656286E+01
 0.2710487394460E+01
 0.2291969845184E+01
 0.1956020923294E+01
 0.1698219339368E+01
 0.1504999650463E+01
 0.1355353769623E+01
 0.1232569780862E+01
 0.1126752038935E+01
 0.1030923355298E+01
 0.9392513880876E+00
 0.8476636395076E+00
 0.7546611692606E+00
 0.6597912883654E+00
 0.5610961463554E+00
 0.4788557410172E+00
 0.4480660249019E+00
 0.4978025938940E+00
 0.2746897647355E+01
 0.3592717088384E+01
 0.3158997577987E+01
 0.2583488729543E+01
 0.2133317319621E+01
 0.1781284942314E+01
 0.1512199280561E+01
 0.1318993591981E+01
 0.1176305943797E+01
 0.1062067269524E+01
 0.9626684125522E+00
 0.8697436519118E+00
 0.7775653614734E+00
 0.6830837998515E+00
 0.5859936423016E+00
 0.4863610090769E+00
 0.3818713898897E+00
 0.2985925317933E+00
 0.2691426030960E+00
 0.3171358389501E+00
 0.3195231638695E+01
 0.3841538746753E+01
 0.3018921856944E+01
 0.2411471451941E+01
 0.1963967261958E+01
 0.1588357364155E+01
 0.1306361491046E+01
 0.1121593155002E+01
 0.9959681030941E+00
 0.8956520530899E+00
 0.8038999749709E+00
 0.7134739066287E+00
 0.6202361130071E+00
 0.5228332657415E+00
 0.4226208833508E+00
 0.3208951610140E+00
 0.2146778937705E+00
 0.1366752397334E+00
 0.1134725141673E+00
 0.1599396098253E+00
 0.3736001240815E+01
 0.3663095659318E+01
 0.2754803851568E+01
 0.2249945323908E+01
 0.1788460539961E+01
 0.1369128497059E+01
 0.1074701701760E+01
 0.9198259533161E+00
 0.8234248523912E+00
 0.7386506398995E+00
 0.6527740811118E+00
 0.5633005160393E+00
 0.4684419595652E+00
 0.3682014167247E+00
 0.2659580159056E+00
 0.1659160446462E+00
 0.6720655949462E-01
 0.4223121067205E-02
 0.7600146834574E-02
 0.4664846250612E-01
 0.3284289733172E+00
 0.2561481449595E+00
 0.1959591850833E+00
 0.1444654358606E+00
 0.1014471574037E+00
 0.6755209405929E-01
 0.4288066489431E-01
 0.2699541005830E-01
 0.1894913144302E-01
 0.1737321377825E-01
 0.2049737728875E-01
 0.2628104118630E-01
 0.3269373380731E-01
 0.3794463265579E-01
 0.4070081660323E-01
 0.4027357462640E-01
 0.3670969822484E-01
 0.3075683945150E-01
 0.2374865615228E-01
 0.1736869547096E-01
 0.3763077377067E+00
 0.3100041569171E+00
 0.2440048007649E+00
 0.1869149735719E+00
 0.1393103888623E+00
 0.1013823260898E+00
 0.7324528445999E-01
 0.5462219211054E-01
 0.4473818596162E-01
 0.4228753864715E-01
 0.4545778102738E-01
 0.5205420657903E-01
 0.5972606156804E-01
 0.6624178069422E-01
 0.6979281519085E-01
 0.6928134481390E-01
 0.6450677275759E-01
 0.5617509547073E-01
 0.4570912357678E-01
 0.3515326850584E-01
 0.4259221541194E+00
 0.3612363227597E+00
 0.2953147254031E+00
 0.2344140022899E+00
 0.1820975748271E+00
 0.1394663638864E+00
 0.1069753824101E+00
 0.8463146853007E-01
 0.7191753937475E-01
 0.6771771168127E-01
 0.7029559417510E-01
 0.7737151838662E-01
 0.8631539969014E-01
 0.9443779320032E-01
 0.9936120353586E-01
 0.9942268391988E-01
 0.9399907689687E-01
 0.8361254693361E-01
 0.6974616083163E-01
 0.5443028382164E-01
 0.4796190548216E+00
 0.4148514280546E+00
 0.3488903134944E+00
 0.2859882194887E+00
 0.2297237237087E+00
 0.1822714367186E+00
 0.1447755526251E+00
 0.1177446920680E+00
 0.1010864912737E+00
 0.9403719840326E-01
 0.9509838805722E-01
 0.1020498453272E+00
 0.1120842512255E+00
 0.1220782604010E+00
 0.1290028504871E+00
 0.1304412572847E+00
 0.1250982977515E+00
 0.1131001252932E+00
 0.9588317809229E-01
 0.7557485571873E-01
 0.5374036028868E+00
 0.4722896530526E+00
 0.4061777666202E+00
 0.3418504476964E+00
 0.2824461402602E+00
 0.2304450857497E+00
 0.1876076965317E+00
 0.1550424285991E+00
 0.1332282614559E+00
 0.1219362015608E+00
 0.1201222118878E+00
 0.1258608248342E+00
 0.1363849281706E+00
 0.1482800941915E+00
 0.1578713226684E+00
 0.1618146473912E+00
 0.1578120551981E+00
 0.1452132828799E+00
 0.1251630332373E+00
 0.1000594300730E+00
 0.5992364265986E+00
 0.5340732135299E+00
 0.4679765409745E+00
 0.4027174715633E+00
 0.3408431314993E+00
 0.2847975811639E+00
 0.2366528326045E+00
 0.1980242159730E+00
 0.1699916657981E+00
 0.1529809890462E+00
 0.1466061528764E+00
 0.1495157012359E+00
 0.1593070974565E+00
 0.1725799318638E+00
 0.1852031110744E+00
 0.1928731830495E+00
 0.1919751155460E+00
 0.1805607131984E+00
 0.1589993100683E+00
 0.1298159590897E+00
 0.6650381017783E+00
 0.6004549270856E+00
 0.5348349877032E+00
 0.4692522524290E+00
 0.4056681703780E+00
 0.3462782495210E+00
 0.2932183537055E+00
 0.2484119980690E+00
 0.2134433573647E+00
 0.1894011412206E+00
 0.1766800572242E+00
 0.1747519386421E+00
 0.1819490859287E+00
 0.1953302029887E+00
 0.2107248166522E+00
 0.2230910223970E+00
 0.2273354732306E+00
 0.2195960563388E+00
 0.1985977939308E+00
 0.1662739313606E+00
 0.7346568387066E+00
 0.6714873687161E+00
 0.6070649857881E+00
 0.5419758009875E+00
 0.4776422979435E+00
 0.4158942058334E+00
 0.3587245479120E+00
 0.3081418030340E+00
 0.2660421956825E+00
 0.2340565740316E+00
 0.2133470037540E+00
 0.2043447543122E+00
 0.2064412214107E+00
 0.2176741824921E+00
 0.2344910480977E+00
 0.2517334150154E+00
 0.2630968128344E+00
 0.2623683655916E+00
 0.2454075881745E+00
 0.2120682435875E+00
 0.8078631481001E+00
 0.7470604533054E+00
 0.6847535453387E+00
 0.6211790327884E+00
 0.5572883357844E+00
 0.4944914488101E+00
 0.4344874270854E+00
 0.3791556911573E+00
 0.3304633502558E+00
 0.2903517830364E+00
 0.2605746074202E+00
 0.2424645761728E+00
 0.2366132373819E+00
 0.2424622070710E+00
 0.2578351617545E+00
 0.2784950974312E+00
 0.2979406516510E+00
 0.3079440952147E+00
 0.3004904850412E+00
 0.2709509188367E+00
 0.8843522860216E+00
 0.8269343993043E+00
 0.7677887541502E+00
 0.7069052858842E+00
 0.6448464373509E+00
 0.5826038688093E+00
 0.5214965866493E+00
 0.4631085693235E+00
 0.4092422928748E+00
 0.3618626609137E+00
 0.3230065848655E+00
 0.2946321424698E+00
 0.2783769485485E+00
 0.2751908921640E+00
 0.2848099246279E+00
 0.3050528988155E+00
 0.3309788294359E+00
 0.3541699663171E+00
 0.3632129803404E+00
 0.3469119614187E+00
 0.9637502276990E+00
 0.9107561607448E+00
 0.8558734659160E+00
 0.7989386845005E+00
 0.7402187445004E+00
 0.6803360434795E+00
 0.6202153063556E+00
 0.5610571454534E+00
 0.5043291298228E+00
 0.4517602264648E+00
 0.4053222230344E+00
 0.3671780721405E+00
 0.3395696391556E+00
 0.3246039041350E+00
 0.3238759484368E+00
 0.3378369855587E+00
 0.3647740445994E+00
 0.3992194571199E+00
 0.4298781140392E+00
 0.4396715340438E+00
 0.1045607381142E+01
 0.9980424930013E+00
 0.9485138064035E+00
 0.8967915162203E+00
 0.8429442958722E+00
 0.7873084918118E+00
 0.7304643665883E+00
 0.6732298080673E+00
 0.6166710447108E+00
 0.5621254691830E+00
 0.5112295250181E+00
 0.4659421842077E+00
 0.4285497455111E+00
 0.4016278076697E+00
 0.3879164072072E+00
 0.3900257505755E+00
 0.4098069724187E+00
 0.4470448629678E+00
 0.4965382852984E+00
 0.5421979149945E+00
 0.1129391400580E+01
 0.1088141085366E+01
 0.1044957361894E+01
 0.9996132108951E+00
 0.9520727517525E+00
 0.9024878320843E+00
 0.8511906730478E+00
 0.7986958773501E+00
 0.7457158171860E+00
 0.6931899095903E+00
 0.6423271314257E+00
 0.5946607081465E+00
 0.5521132155276E+00
 0.5170681956192E+00
 0.4924387269149E+00
 0.4817085853664E+00
 0.4888866328781E+00
 0.5181982529053E+00
 0.5730496116136E+00
 0.6509181376145E+00
 0.1214515788086E+01
 0.1180280185038E+01
 0.1144248156173E+01
 0.1106240405265E+01
 0.1066194691545E+01
 0.1024176866994E+01
 0.9803836240422E+00
 0.9351489471011E+00
 0.8889597371247E+00
 0.8424835181035E+00
 0.7966107234962E+00
 0.7525149525490E+00
 0.7117366122722E+00
 0.6762989226285E+00
 0.6488714300090E+00
 0.6330080652182E+00
 0.6335095565374E+00
 0.6570255543164E+00
 0.7131346618873E+00
 0.8174166692899E+00
 0.1300366486301E+01
 0.1273633999204E+01
 0.1245325756324E+01
 0.1215331541671E+01
 0.1183612986323E+01
 0.1150220681105E+01
 0.1115303437576E+01
 0.1079118609969E+01
 0.1042048633312E+01
 0.1004627357250E+01
 0.9675797267946E+00
 0.9318795994533E+00
 0.8988331774460E+00
 0.8702004924518E+00
 0.8483766903351E+00
 0.8366731085309E+00
 0.8397786764883E+00
 0.8645760583193E+00
 0.9217815098216E+00
 0.1030076428010E+01
 0.1386322299586E+01
 0.1367368969458E+01
 0.1347107608667E+01
 0.1325499548356E+01
 0.1302550660223E+01
 0.1278329341328E+01
 0.1252978477023E+01
 0.1226727221828E+01
 0.1199906543059E+01
 0.1172971534754E+01
 0.1146533446480E+01
 0.1121405096527E+01
 0.1098664929630E+01
 0.1079747780879E+01
 0.1066575131358E+01
 0.1061745774816E+01
 0.1068821213127E+01
 0.1092759771793E+01
 0.1140566186533E+01
 0.1221448712535E+01
 0.1471772197896E+01
 0.1460675335304E+01
 0.1448547328339E+01
 0.1435411941210E+01
 0.1421318808053E+01
 0.1406359509595E+01
 0.1390678972221E+01
 0.1374485692715E+01
 0.1358063293663E+01
 0.1341785229118E+01
 0.1326134109052E+01
 0.1311726984216E+01
 0.1299347862662E+01
 0.1289988401000E+01
 0.1284896399499E+01
 0.1285627416877E+01
 0.1294081473749E+01
 0.1312467626607E+01
 0.1342980223634E+01
 0.1386795358465E+01
 0.1556128041086E+01
 0.1552784273618E+01
 0.1548661237083E+01
 0.1543829685576E+01
 0.1538370356698E+01
 0.1532386910964E+01
 0.1526014662714E+01
 0.1519427023983E+01
 0.1512840915845E+01
 0.1506521777614E+01
 0.1500788175251E+01
 0.1496015249134E+01
 0.1492635077211E+01
 0.1491129944437E+01
 0.1492010486720E+01
 0.1495762616733E+01
 0.1502731267465E+01
 0.1512876269004E+01
 0.1525315041134E+01
 0.1537713395619E+01
 0.1638835079981E+01
 0.1642980244310E+01
 0.1646544380529E+01
 0.1649627007339E+01
 0.1652321370654E+01
 0.1654724067864E+01
 0.1656940319318E+01
 0.1659085741540E+01
 0.1661285088835E+01
 0.1663667817711E+01
 0.1666359598231E+01
 0.1669467989961E+01
 0.1673059234004E+01
 0.1677121227799E+01
 0.1681504921686E+01
 0.1685832513531E+01
 0.1689356775643E+01
 0.1690760585866E+01
 0.1687919979239E+01
 0.1677621355740E+01
 0.1719380549115E+01
 0.1730610236169E+01
 0.1741381262139E+01
 0.1751803386492E+01
 0.1761961857770E+01
 0.1771924824811E+01
 0.1781745447158E+01
 0.1791459395161E+01
 0.1801078017075E+01
 0.1810576784048E+01
 0.1819878011171E+01
 0.1828826212246E+01
 0.1837153772228E+01
 0.1844434004748E+01
 0.1850018483099E+01
 0.1852956826960E+01
 0.1851902780070E+01
 0.1845024766980E+01
 0.1829955295878E+01
 0.1803863756607E+01
 0.1797297443619E+01
 0.1815085965185E+01
 0.1832447658698E+01
 0.1849483895319E+01
 0.1866251845908E+01
 0.1882771160485E+01
 0.1899023739436E+01
 0.1914948333576E+01
 0.1930430370400E+01
 0.1945286836357E+01
 0.1959245654562E+01
 0.1971918777571E+01
 0.1982768239459E+01
 0.1991064915627E+01
 0.1995841180533E+01
 0.1995841823476E+01
 0.1989483163671E+01
 0.1974836939194E+01
 0.1949664398427E+01
 0.1911557550575E+01
 0.1872162051625E+01
 0.1895879843012E+01
 0.1919104269492E+01
 0.1941908923854E+01
 0.1964305025967E+01
 0.1986246952357E+01
 0.2007630924878E+01
 0.2028288607544E+01
 0.2047976337478E+01
 0.2066360261427E+01
 0.2082997511767E+01
 0.2097313655380E+01
 0.2108577053328E+01
 0.2115871604719E+01
 0.2118070747033E+01
 0.2113817444100E+01
 0.2101516334651E+01
 0.2079343483908E+01
 0.2045273848998E+01
 0.1997070489370E+01
 0.1943604792886E+01
 0.1972540755716E+01
 0.2000812641644E+01
 0.2028449619834E+01
 0.2055402132099E+01
 0.2081546554677E+01
 0.2106684193182E+01
 0.2130535959022E+01
 0.2152733663271E+01
 0.2172808691292E+01
 0.2190178855802E+01
 0.2204134440278E+01
 0.2213824825044E+01
 0.2218247585067E+01
 0.2216242366434E+01
 0.2206491707187E+01
 0.2187529425213E+01
 0.2157753207957E+01
 0.2115426103074E+01
 0.2058648686774E+01
 0.2011307563311E+01
 0.2044689735931E+01
 0.2077129751205E+01
 0.2108600112344E+01
 0.2138979210293E+01
 0.2168056598172E+01
 0.2195534013639E+01
 0.2221023099084E+01
 0.2244040908965E+01
 0.2264004389756E+01
 0.2280225130494E+01
 0.2291905828580E+01
 0.2298140041780E+01
 0.2297916755925E+01
 0.2290130823846E+01
 0.2273599073464E+01
 0.2247079679994E+01
 0.2209289319852E+01
 0.2158914017039E+01
 0.2094627234439E+01
 0.2075001328051E+01
 0.2112013740663E+01
 0.2147699298658E+01
 0.2181965641180E+01
 0.2214611039493E+01
 0.2245332621688E+01
 0.2273731443995E+01
 0.2299314930535E+01
 0.2321497983050E+01
 0.2339604321371E+01
 0.2352869686890E+01
 0.2360448524103E+01
 0.2361425618271E+01
 0.2354833796879E+01
 0.2339678050431E+01
 0.2314965222923E+01
 0.2279736877153E+01
 0.2233102461081E+01
 0.2174272973027E+01
 0.2102596602957E+01
 0.2134463224175E+01
 0.2174259442607E+01
 0.2212242637494E+01
 0.2248250318554E+01
 0.2281994543338E+01
 0.2313076587598E+01
 0.2340998212658E+01
 0.2365170011695E+01
 0.2384918600986E+01
 0.2399494635682E+01
 0.2408083510788E+01
 0.2409820385226E+01
 0.2403810877744E+01
 0.2389158419048E+01
 0.2364998840632E+01
 0.2330542436722E+01
 0.2285123614764E+01
 0.2228257610642E+01
 0.2159699919439E+01
 0.2079496396349E+01
 0.2189512100298E+01
 0.2231226259729E+01
 0.2270549883093E+01
 0.2307245653011E+01
 0.2340933492926E+01
 0.2371116500412E+01
 0.2397200358245E+01
 0.2418508004868E+01
 0.2434292371223E+01
 0.2443749710192E+01
 0.2446035530330E+01
 0.2440284674205E+01
 0.2425636719786E+01
 0.2401267718343E+01
 0.2366429494289E+01
 0.2320498622547E+01
 0.2263038907158E+01
 0.2193882963121E+01
 0.2113234261598E+01
 0.2021772876534E+01
 0.2240002522262E+01
 0.2282759181890E+01
 0.2322472096616E+01
 0.2358820721445E+01
 0.2391325100431E+01
 0.2419388340697E+01
 0.2442325136551E+01
 0.2459382066357E+01
 0.2469754285290E+01
 0.2472601784490E+01
 0.2467067259179E+01
 0.2452296819288E+01
 0.2427464285487E+01
 0.2391799728760E+01
 0.2344623459447E+01
 0.2285388245193E+01
 0.2213736004334E+01
 0.2129582554848E+01
 0.2033261653724E+01
 0.1925765270848E+01
 0.2285817824930E+01
 0.2328743109393E+01
 0.2367916118187E+01
 0.2402914845436E+01
 0.2433148721943E+01
 0.2457920061183E+01
 0.2476460536895E+01
 0.2487955058563E+01
 0.2491559852569E+01
 0.2486418530289E+01
 0.2471678001425E+01
 0.2446504809981E+01
 0.2410101651695E+01
 0.2361723417462E+01
 0.2300692112912E+01
 0.2226410626799E+01
 0.2138377188555E+01
 0.2036209063163E+01
 0.1919710152101E+01
 0.1789145329359E+01
 0.2326864301093E+01
 0.2369102516879E+01
 0.2406843668189E+01
 0.2439532160851E+01
 0.2466454430994E+01
 0.2486814175035E+01
 0.2499773044999E+01
 0.2504474666929E+01
 0.2500060791727E+01
 0.2485683784347E+01
 0.2460516818514E+01
 0.2423761269294E+01
 0.2374649425356E+01
 0.2312439429842E+01
 0.2236397879726E+01
 0.2145762953861E+01
 0.2039676114649E+01
 0.1917059204811E+01
 0.1776387857356E+01
 0.1615295208454E+01
 0.2363071692342E+01
 0.2403809016477E+01
 0.2439271202545E+01
 0.2468730418910E+01
 0.2491340524439E+01
 0.2506215735067E+01
 0.2512469506140E+01
 0.2509233999845E+01
 0.2495670668398E+01
 0.2470976257003E+01
 0.2434384768686E+01
 0.2385163446577E+01
 0.2322598892904E+01
 0.2245967389256E+01
 0.2154480385045E+01
 0.2047190394360E+01
 0.1922829597784E+01
 0.1779523923624E+01
 0.1614231675656E+01
 0.1421333258825E+01
 0.2394392065955E+01
 0.2432871178642E+01
 0.2465245858852E+01
 0.2490585217682E+01
 0.2507911144920E+01
 0.2516270988155E+01
 0.2514766166436E+01
 0.2502561287387E+01
 0.2478885590092E+01
 0.2443030620309E+01
 0.2394343362092E+01
 0.2332211190717E+01
 0.2256032889810E+01
 0.2165167733414E+01
 0.2058851408106E+01
 0.1936062002333E+01
 0.1795310123682E+01
 0.1634304627861E+01
 0.1449425339470E+01
 0.1234868877305E+01
 0.2420794702244E+01
 0.2456309878496E+01
 0.2484816568528E+01
 0.2505162812584E+01
 0.2516257499543E+01
 0.2517123301778E+01
 0.2506903629596E+01
 0.2484854423374E+01
 0.2450333191486E+01
 0.2402787490501E+01
 0.2341739777498E+01
 0.2266762873602E+01
 0.2177438756734E+01
 0.2073292109400E+01
 0.1953688762383E+01
 0.1817689320937E+01
 0.1663854392461E+01
 0.1490036764951E+01
 0.1293294673924E+01
 0.1071030973270E+01
 0.2442288878429E+01
 0.2474180141393E+01
 0.2498051670290E+01
 0.2512531983691E+01
 0.2516461109664E+01
 0.2508901049031E+01
 0.2489105973155E+01
 0.2456489444737E+01
 0.2410598916387E+01
 0.2351095535135E+01
 0.2277732273215E+01
 0.2190322347736E+01
 0.2088690315239E+01
 0.1972599356689E+01
 0.1841650802937E+01
 0.1695159554958E+01
 0.1532034067204E+01
 0.1350763682176E+01
 0.1149889206458E+01
 0.9293561197307E+00
 0.2458928966241E+01
 0.2486567376918E+01
 0.2505027999848E+01
 0.2512752248683E+01
 0.2508587264607E+01
 0.2491718278543E+01
 0.2461584970191E+01
 0.2417819109843E+01
 0.2360206109664E+01
 0.2288659535084E+01
 0.2203196168576E+01
 0.2103902043715E+01
 0.1990884052365E+01
 0.1864205909858E+01
 0.1723813084581E+01
 0.1569462170890E+01
 0.1400692775529E+01
 0.1216922081697E+01
 0.1017831324536E+01
 0.8040984290864E+00
 0.2470824540914E+01
 0.2493588862553E+01
 0.2505822014201E+01
 0.2505863572484E+01
 0.2492679779899E+01
 0.2465674946536E+01
 0.2424539260459E+01
 0.2369161009207E+01
 0.2299584101342E+01
 0.2215985103970E+01
 0.2118650706692E+01
 0.2007948025955E+01
 0.1884287822307E+01
 0.1748086744174E+01
 0.1599741290523E+01
 0.1439633601944E+01
 0.1268187358228E+01
 0.1085946786933E+01
 0.8932993609248E+00
 0.6897104163746E+00
 0.2478138541219E+01
 0.2495366601220E+01
 0.2500476202942E+01
 0.2491866725383E+01
 0.2468772620657E+01
 0.2430906058702E+01
 0.2378240716353E+01
 0.2310921184966E+01
 0.2229237165972E+01
 0.2133610442071E+01
 0.2024578520942E+01
 0.1902774928869E+01
 0.1768913611335E+01
 0.1623790587556E+01
 0.1468321649765E+01
 0.1303636304903E+01
 0.1131229239452E+01
 0.9530512799593E+00
 0.7710163271565E+00
 0.5832127757393E+00
 0.2481116700960E+01
 0.2492088075833E+01
 0.2489121427424E+01
 0.2470941459599E+01
 0.2437216770827E+01
 0.2388006316583E+01
 0.2323530420876E+01
 0.2244144281521E+01
 0.2150339394465E+01
 0.2042737069277E+01
 0.1922075565441E+01
 0.1789200099427E+01
 0.1645068852877E+01
 0.1490792640014E+01
 0.1327731141160E+01
 0.1157670829289E+01
 0.9830944717282E+00
 0.8074968078945E+00
 0.6355559272456E+00
 0.4711011457136E+00
 0.2480141995931E+01
 0.2484009443073E+01
 0.2471900900418E+01
 0.2443336596336E+01
 0.2398531461263E+01
 0.2337762236442E+01
 0.2261394581837E+01
 0.2169927498436E+01
 0.2063995644426E+01
 0.1944354559689E+01
 0.1811863561572E+01
 0.1667479093235E+01
 0.1512272580342E+01
 0.1347491577315E+01
 0.1174689902865E+01
 0.9959615084985E+00
 0.8143309468159E+00
 0.6344241087018E+00
 0.4639188151925E+00
 0.3191456728845E+00
 0.2475688938193E+01
 0.2471054617648E+01
 0.2448565656187E+01
 0.2409232125712E+01
 0.2353333962042E+01
 0.2281140807061E+01
 0.2193095408591E+01
 0.2089804672267E+01
 0.1972010757507E+01
 0.1840561800371E+01
 0.1696392682721E+01
 0.1540524680378E+01
 0.1374097016317E+01
 0.1198449601253E+01
 0.1015285869563E+01
 0.8269626308588E+00
 0.6370033809889E+00
 0.4510985906817E+00
 0.2794629462757E+00
 0.1463303407495E+00
</DataArray>
<DataArray type="Float64" Name="S_Hyd" NumberOfComponents="1" ComponentName0="S_Hyd" format="ascii">
-0.1501671681101E+01
-0.1116498773334E+01
-0.1110767436269E+01
-0.1092540741291E+01
-0.1085849718892E+01
-0.1078683109564E+01
-0.1070972637319E+01
-0.1061786677381E+01
-0.1051029118219E+01
-0.1038663845663E+01
-0.1024742560694E+01
-0.1009328479436E+01
-0.9924821159179E+00
-0.9742495967762E+00
-0.9546593856449E+00
-0.9337221615193E+00
-0.9114328923877E+00
-0.8877778762907E+00
-0.8627385382126E+00
-0.8363064154222E+00
-0.8084990708199E+00
-0.7793960346596E+00
-0.7492644669424E+00
-0.7185997706260E+00
-0.6870952862733E+00
-0.6535192909898E+00
-0.6170199950211E+00
-0.5776062447856E+00
-0.5360373142894E+00
-0.4935540864520E+00
-0.4516532534397E+00
-0.4119650395946E+00
-0.3761262622888E+00
-0.3462147860452E+00
-0.3251604546423E+00
-0.3167279993410E+00
-0.3238690834534E+00
-0.3582657604143E+00
-0.4028491449386E+00
-0.6474903984048E+00
-0.1111530866488E+00
-0.1349040437255E+01
-0.1156680205936E+01
-0.1076171844977E+01
-0.1059426084947E+01
-0.1045559263261E+01
-0.1036093703474E+01
-0.1026666431619E+01
-0.1016617958576E+01
-0.1005425654483E+01
-0.9929417061541E+00
-0.9791145349232E+00
-0.9639497738258E+00
-0.9474689839130E+00
-0.9296943159180E+00
-0.9106401858076E+00
-0.8903106158213E+00
-0.8687001504806E+00
-0.8457979674754E+00
-0.8215936599441E+00
-0.7960881218799E+00
-0.7693102717173E+00
-0.7413533060268E+00
-0.7124466771383E+00
-0.6827802878404E+00
-0.6520501564011E+00
-0.6195119374666E+00
-0.5846222520410E+00
-0.5474488145856E+00
-0.5086481508822E+00
-0.4692883031011E+00
-0.4306813354578E+00
-0.3942556235226E+00
-0.3615515861166E+00
-0.3344210641038E+00
-0.3152541447444E+00
-0.3063989565282E+00
-0.3117544312704E+00
-0.3292509570354E+00
-0.3820479104985E+00
-0.3969093439103E+00
 0.5771900186675E-01
-0.1255111878311E+01
-0.1131185706422E+01
-0.1052550389786E+01
-0.1021943531686E+01
-0.1005685356020E+01
-0.9932989631485E+00
-0.9825032102453E+00
-0.9716029546110E+00
-0.9600145323764E+00
-0.9474201094991E+00
-0.9336919187882E+00
-0.9187782592204E+00
-0.9026651957582E+00
-0.8853518881044E+00
-0.8668392700294E+00
-0.8471248927559E+00
-0.8262021407159E+00
-0.8040630593274E+00
-0.7807034106847E+00
-0.7561318310344E+00
-0.7303851669144E+00
-0.7035576870077E+00
-0.6758037171473E+00
-0.6471754578685E+00
-0.6174231845040E+00
-0.5860873542890E+00
-0.5528597128961E+00
-0.5178646755197E+00
-0.4816835490011E+00
-0.4452424002704E+00
-0.4096826645586E+00
-0.3762662149368E+00
-0.3463709185292E+00
-0.3215884114150E+00
-0.3036400529873E+00
-0.2944487893712E+00
-0.2946940588565E+00
-0.3058643292505E+00
-0.3215527013705E+00
-0.2511571815045E+00
 0.7729084754354E-01
-0.1179339345690E+01
-0.1089085519617E+01
-0.1020825570916E+01
-0.9846767874334E+00
-0.9647564259503E+00
-0.9504670683274E+00
-0.9383231217107E+00
-0.9267005500871E+00
-0.9147504881602E+00
-0.9020703677939E+00
-0.8884521779160E+00
-0.8737965644591E+00
-0.8580563831118E+00
-0.8412097362746E+00
-0.8232448788016E+00
-0.8041531342914E+00
-0.7839265303460E+00
-0.7625594492070E+00
-0.7400525888899E+00
-0.7164204871347E+00
-0.6917045282975E+00
-0.6659865216921E+00
-0.6393617311903E+00
-0.6118219118586E+00
-0.5831802519104E+00
-0.5531656119123E+00
-0.5216361065880E+00
-0.4887644189077E+00
-0.4550741322273E+00
-0.4213707207889E+00
-0.3886454154866E+00
-0.3579995955788E+00
-0.3306291512060E+00
-0.3078040321002E+00
-0.2907989192118E+00
-0.2805047575841E+00
-0.2768885895795E+00
-0.2777427019116E+00
-0.2639074087355E+00
-0.1713915185832E+00
 0.5928416085409E-01
-0.1111364128143E+01
-0.1041124840318E+01
-0.9826416081279E+00
-0.9457136735683E+00
-0.9232161003437E+00
-0.9073055085017E+00
-0.8941005460314E+00
-0.8818453585563E+00
-0.8695989658237E+00
-0.8568636606071E+00
-0.8433740912312E+00
-0.8289875847984E+00
-0.8136282971678E+00
-0.7972552223124E+00
-0.7798450853843E+00
-0.7613834037088E+00
-0.7418608099297E+00
-0.7212735509332E+00
-0.6996262467526E+00
-0.6769377862981E+00
-0.6532501025973E+00
-0.6286294747636E+00
-0.6031324423350E+00
-0.5767287862347E+00
-0.5492911225154E+00
-0.5206801879831E+00
-0.4908710219758E+00
-0.4600722439439E+00
-0.4287601649594E+00
-0.3976367847910E+00
-0.3675583631842E+00
-0.3394719688050E+00
-0.3143742359522E+00
-0.2932453938653E+00
-0.2768732702549E+00
-0.2654652672440E+00
-0.2579581047704E+00
-0.2488031074706E+00
-0.2182662737719E+00
-0.1277377527676E+00
 0.3673087059786E-01
-0.1047540679392E+01
-0.9906115622286E+00
-0.9402480897911E+00
-0.9046391672947E+00
-0.8809049909165E+00
-0.8637803227462E+00
-0.8497539582722E+00
-0.8369982715457E+00
-0.8245240832636E+00
-0.8117745921078E+00
-0.7984372309716E+00
-0.7843348803969E+00
-0.7693669217888E+00
-0.7534757780070E+00
-0.7366279390259E+00
-0.7188037249008E+00
-0.6999924609929E+00
-0.6801919048918E+00
-0.6594098139224E+00
-0.6376679642502E+00
-0.6150065648463E+00
-0.5914785126150E+00
-0.5671177357539E+00
-0.5418917767709E+00
-0.5157255428922E+00
-0.4885747671425E+00
-0.4604966454173E+00
-0.4317237121875E+00
-0.4026910781091E+00
-0.3740103393766E+00
-0.3464154957248E+00
-0.3207040339039E+00
-0.2976791536130E+00
-0.2780414982755E+00
-0.2621645786972E+00
-0.2497000835733E+00
-0.2385740765482E+00
-0.2219927939215E+00
-0.1839909308673E+00
-0.1030580029216E+00
 0.1755515228196E-01
-0.9862624970632E+00
-0.9388516463810E+00
-0.8951222417898E+00
-0.8616709287821E+00
-0.8377058658189E+00
-0.8198491379037E+00
-0.8052366165751E+00
-0.7921200035748E+00
-0.7794966470023E+00
-0.7667794123767E+00
-0.7536227190922E+00
-0.7398226957941E+00
-0.7252586361998E+00
-0.7098590029182E+00
-0.6935815554417E+00
-0.6764021535262E+00
-0.6583090265626E+00
-0.6393012305159E+00
-0.6193890528037E+00
-0.5985961086946E+00
-0.5769603009920E+00
-0.5545249684683E+00
-0.5313128166811E+00
-0.5072991345086E+00
-0.4824532930745E+00
-0.4568004527057E+00
-0.4304552402216E+00
-0.4036639602944E+00
-0.3768240444647E+00
-0.3504668976199E+00
-0.3252147958021E+00
-0.3017241980140E+00
-0.2806150763546E+00
-0.2623354612508E+00
-0.2469184195807E+00
-0.2335537913536E+00
-0.2195607288518E+00
-0.1983868441085E+00
-0.1583873436163E+00
-0.8838323693106E-01
 0.3064811436344E-02
-0.9267036091752E+00
-0.8864556402206E+00
-0.8481838921406E+00
-0.8171611438346E+00
-0.7936228882584E+00
-0.7754781182524E+00
-0.7605178758909E+00
-0.7471798385337E+00
-0.7344912877767E+00
-0.7218571786643E+00
-0.7089130850518E+00
-0.6954361607106E+00
-0.6812902886126E+00
-0.6663927500174E+00
-0.6506941797457E+00
-0.6341668292513E+00
-0.6167981539980E+00
-0.5985884325075E+00
-0.5795500792460E+00
-0.5597080289144E+00
-0.5390983648746E+00
-0.5177587496385E+00
-0.4957083135557E+00
-0.4729347923781E+00
-0.4494446216288E+00
-0.4253139830847E+00
-0.4006971097241E+00
-0.3758460516464E+00
-0.3511228164578E+00
-0.3269867692802E+00
-0.3039583318864E+00
-0.2825634536208E+00
-0.2632544262439E+00
-0.2462614785566E+00
-0.2313431187679E+00
-0.2173633984567E+00
-0.2014639380501E+00
-0.1780099368232E+00
-0.1389651790939E+00
-0.7903823053700E-01
-0.7337304177530E-02
-0.8683911230081E+00
-0.8337432239942E+00
-0.8000180703940E+00
-0.7714399301837E+00
-0.7487321419508E+00
-0.7306599380787E+00
-0.7155780358721E+00
-0.7021554194240E+00
-0.6894869762302E+00
-0.6769896001767E+00
-0.6642924733012E+00
-0.6511613569947E+00
-0.6374492979035E+00
-0.6230652038103E+00
-0.6079542584586E+00
-0.5920860370235E+00
-0.5754476416605E+00
-0.5580406275939E+00
-0.5398793573620E+00
-0.5209900210704E+00
-0.5014078927709E+00
-0.4811682945622E+00
-0.4602917351850E+00
-0.4387801928059E+00
-0.4166705964625E+00
-0.3940765821603E+00
-0.3711790079422E+00
-0.3482295857784E+00
-0.3255566154258E+00
-0.3035543526436E+00
-0.2826509147693E+00
-0.2632537788531E+00
-0.2456668144318E+00
-0.2299386559530E+00
-0.2156200701189E+00
-0.2013973306792E+00
-0.1845323246642E+00
-0.1604732965971E+00
-0.1238567902018E+00
-0.7258870160072E-01
-0.1462887819638E-01
-0.8110322979970E+00
-0.7808951772969E+00
-0.7510090991652E+00
-0.7247798572987E+00
-0.7031376988793E+00
-0.6854117695816E+00
-0.6704085449536E+00
-0.6570314514177E+00
-0.6444671060518E+00
-0.6321610264284E+00
-0.6197466886303E+00
-0.6069853932573E+00
-0.5937237194889E+00
-0.5798649464340E+00
-0.5653504975838E+00
-0.5501482565269E+00
-0.5342454741386E+00
-0.5176451590958E+00
-0.5003636525213E+00
-0.4824286576277E+00
-0.4638758203908E+00
-0.4447407690541E+00
-0.4250484840088E+00
-0.4048154022891E+00
-0.3841033063195E+00
-0.3630531410865E+00
-0.3418628921981E+00
-0.3207794959489E+00
-0.3000991530925E+00
-0.2801572440389E+00
-0.2612989665458E+00
-0.2438264029252E+00
-0.2279157970305E+00
-0.2134701554025E+00
-0.1998983590768E+00
-0.1858333151203E+00
-0.1688141050070E+00
-0.1452916640516E+00
-0.1117621509236E+00
-0.6776963363286E-01
-0.1971122568075E-01
-0.7544347288262E+00
-0.7280192759783E+00
-0.7014172549346E+00
-0.6773966687170E+00
-0.6569472736350E+00
-0.6397668318489E+00
-0.6250111272040E+00
-0.6117988855303E+00
-0.5994191761284E+00
-0.5873584073998E+00
-0.5752631959359E+00
-0.5628964466412E+00
-0.5501022971338E+00
-0.5367810113355E+00
-0.5228719133745E+00
-0.5083422053268E+00
-0.4931798526299E+00
-0.4773896026895E+00
-0.4609899771780E+00
-0.4440106451120E+00
-0.4264887826051E+00
-0.4084623268794E+00
-0.3899625724567E+00
-0.3710198128715E+00
-0.3517159501398E+00
-0.3322115976449E+00
-0.3127149316209E+00
-0.2934650330609E+00
-0.2747277292116E+00
-0.2567853668779E+00
-0.2399094778815E+00
-0.2243102319165E+00
-0.2100571597920E+00
-0.1969420565056E+00
-0.1842903629258E+00
-0.1707685328517E+00
-0.1542483031106E+00
-0.1320138223172E+00
-0.1018045436534E+00
-0.6392828832149E-01
-0.2330145160236E-01
-0.6984656458543E+00
-0.6751820656340E+00
-0.6514234242829E+00
-0.6294587586423E+00
-0.6102610405348E+00
-0.5937664941052E+00
-0.5793955795300E+00
-0.5664541287771E+00
-0.5543343703618E+00
-0.5425711524402E+00
-0.5308310807405E+00
-0.5188837671683E+00
-0.5065744885761E+00
-0.4938029152707E+00
-0.4805078638000E+00
-0.4666568641713E+00
-0.4522392077293E+00
-0.4372617541722E+00
-0.4217455333610E+00
-0.4057227312443E+00
-0.3892330985273E+00
-0.3723183502912E+00
-0.3550171178831E+00
-0.3373725727074E+00
-0.3194828337074E+00
-0.3015224239615E+00
-0.2837046915974E+00
-0.2662588880300E+00
-0.2494224022229E+00
-0.2334301541024E+00
-0.2184890567796E+00
-0.2047306894300E+00
-0.1921379348794E+00
-0.1804225300390E+00
-0.1688730394107E+00
-0.1562407795389E+00
-0.1407256672601E+00
-0.1202637839506E+00
-0.9340045887388E-01
-0.6073292820823E-01
-0.2593660899185E-01
-0.6430295308294E+00
-0.6224254549475E+00
-0.6011560047197E+00
-0.5810971851959E+00
-0.5631674836354E+00
-0.5474546908919E+00
-0.5335772093533E+00
-0.5209980902648E+00
-0.5092071031064E+00
-0.4977909280972E+00
-0.4864409759661E+00
-0.4749376612748E+00
-0.4631304767492E+00
-0.4509206811684E+00
-0.4382480737853E+00
-0.4250814981119E+00
-0.4114122094707E+00
-0.3972496183651E+00
-0.3826176730920E+00
-0.3675516610835E+00
-0.3520948080618E+00
-0.3362936616322E+00
-0.3201946925523E+00
-0.3038528533400E+00
-0.2873793165690E+00
-0.2709581992120E+00
-0.2548044620617E+00
-0.2391364433240E+00
-0.2241652546597E+00
-0.2100838177025E+00
-0.1970431436089E+00
-0.1851089440075E+00
-0.1741959113642E+00
-0.1639622198895E+00
-0.1536931585275E+00
-0.1422489132410E+00
-0.1281234692854E+00
-0.1097440422920E+00
-0.8616292215598E-01
-0.5801980807792E-01
-0.2800713212561E-01
-0.5880550677536E+00
-0.5697759356262E+00
-0.5507076769811E+00
-0.5324141126647E+00
-0.5157426421663E+00
-0.5008744774890E+00
-0.4875745524075E+00
-0.4754351415893E+00
-0.4640345336179E+00
-0.4530114243635E+00
-0.4420849626210E+00
-0.4310494596237E+00
-0.4197611708476E+00
-0.4081248549318E+00
-0.3960826572589E+00
-0.3836056765463E+00
-0.3706877786018E+00
-0.3573414048988E+00
-0.3435938794296E+00
-0.3294841695325E+00
-0.3150597343598E+00
-0.3003727026027E+00
-0.2854775729890E+00
-0.2704400127548E+00
-0.2553817313803E+00
-0.2404932476827E+00
-0.2259886994202E+00
-0.2120751379238E+00
-0.1989397565081E+00
-0.1867387254650E+00
-0.1755754120575E+00
-0.1654614532328E+00
-0.1562596443783E+00
-0.1475958035813E+00
-0.1387738906370E+00
-0.1287686275746E+00
-0.1163230463637E+00
-0.1002250327076E+00
-0.7983477991008E-01
-0.5571279965437E-01
-0.2979238956308E-01
-0.5334871804977E+00
-0.5172499683155E+00
-0.5001461968265E+00
-0.4834894358320E+00
-0.4680508503329E+00
-0.4540661248467E+00
-0.4414075981796E+00
-0.4297721175203E+00
-0.4188160634541E+00
-0.4082281003456E+00
-0.3977564482234E+00
-0.3872114668935E+00
-0.3764581932137E+00
-0.3654065107819E+00
-0.3540021298399E+00
-0.3422192856696E+00
-0.3300550927366E+00
-0.3175255242602E+00
-0.3046617571612E+00
-0.2915069896023E+00
-0.2781135478261E+00
-0.2645396737516E+00
-0.2508479088555E+00
-0.2371136812979E+00
-0.2234672802589E+00
-0.2101033199094E+00
-0.1972335509578E+00
-0.1850539225550E+00
-0.1737302166213E+00
-0.1633868845697E+00
-0.1540873384860E+00
-0.1457997721496E+00
-0.1383489120081E+00
-0.1313442415474E+00
-0.1241210585282E+00
-0.1157632892360E+00
-0.1052172440781E+00
-0.9153122231327E-01
-0.7424412749050E-01
-0.5378173992385E-01
-0.3149097309996E-01
-0.4792819931555E+00
-0.4648572654607E+00
-0.4495215382544E+00
-0.4343858467740E+00
-0.4201460398360E+00
-0.4070662144491E+00
-0.3950965308087E+00
-0.3840174500577E+00
-0.3735528529072E+00
-0.3634379281374E+00
-0.3534500381237E+00
-0.3434169050505E+00
-0.3332138622289E+00
-0.3227572550097E+00
-0.3119974220929E+00
-0.3009125436703E+00
-0.2895035982464E+00
-0.2777905945395E+00
-0.2658090403795E+00
-0.2536068787498E+00
-0.2412418346815E+00
-0.2287786498808E+00
-0.2162878437502E+00
-0.2038538060406E+00
-0.1916139292059E+00
-0.1797653200740E+00
-0.1685164573996E+00
-0.1580528043617E+00
-0.1485213288010E+00
-0.1400195393561E+00
-0.1325779307651E+00
-0.1261305922171E+00
-0.1204755004362E+00
-0.1152172310644E+00
-0.1097283071965E+00
-0.1031908362271E+00
-0.9471253834661E-01
-0.8352777766156E-01
-0.6927471816251E-01
-0.5222183357210E-01
-0.3324587867311E-01
-0.4254035425870E+00
-0.4126028657288E+00
-0.3988707390536E+00
-0.3851526774399E+00
-0.3720731609434E+00
-0.3599073354937E+00
-0.3486608935678E+00
-0.3381804645133E+00
-0.3282473757332E+00
-0.3186391379490E+00
-0.3091613969994E+00
-0.2996598435876E+00
-0.2900211620796E+00
-0.2801692173902E+00
-0.2700598814642E+00
-0.2596760059505E+00
-0.2490230143302E+00
-0.2381254436743E+00
-0.2270235986060E+00
-0.2157706419123E+00
-0.2044301502640E+00
-0.1930736602117E+00
-0.1817795867099E+00
-0.1706406534666E+00
-0.1598002907540E+00
-0.1494570579030E+00
-0.1398158063164E+00
-0.1310524555988E+00
-0.1232977909308E+00
-0.1166268604459E+00
-0.1110435789724E+00
-0.1064559486485E+00
-0.1026441428159E+00
-0.9921552784834E-01
-0.9558102152941E-01
-0.9100780979137E-01
-0.8472882446008E-01
-0.7610919455507E-01
-0.6484482993267E-01
-0.5104598210406E-01
-0.3516572635642E-01
-0.3718215805683E+00
-0.3604884873276E+00
-0.3482212621037E+00
-0.3358288161112E+00
-0.3238695299516E+00
-0.3126181284701E+00
-0.3021190757868E+00
-0.2922708397803E+00
-0.2829030319481E+00
-0.2738309779107E+00
-0.2648871098604E+00
-0.2559351240388E+00
-0.2468737054933E+00
-0.2376350357957E+00
-0.2281812682656E+00
-0.2185005657249E+00
-0.2086033344402E+00
-0.1985191115190E+00
-0.1882934441870E+00
-0.1779851530228E+00
-0.1676640612384E+00
-0.1574087439163E+00
-0.1473054513371E+00
-0.1374547876062E+00
-0.1280055051670E+00
-0.1191570268700E+00
-0.1111106334201E+00
-0.1040338828998E+00
-0.9804399455106E-01
-0.9319771648836E-01
-0.8947801135395E-01
-0.8677352715193E-01
-0.8485352689436E-01
-0.8333284227445E-01
-0.8165941741258E-01
-0.7917091195638E-01
-0.7519899161825E-01
-0.6919069193448E-01
-0.6088933623663E-01
-0.5028059730614E-01
-0.3736272896097E-01
-0.3185100780524E+00
-0.3085134315285E+00
-0.2975933785053E+00
-0.2864449337372E+00
-0.2755660317426E+00
-0.2652235186833E+00
-0.2554880350572E+00
-0.2462982196764E+00
-0.2375238316442E+00
-0.2290135031527E+00
-0.2206245551976E+00
-0.2122382902364E+00
-0.2037657003126E+00
-0.1951478447029E+00
-0.1863537564981E+00
-0.1773774609638E+00
-0.1682348360227E+00
-0.1589608622385E+00
-0.1496067507193E+00
-0.1402373848414E+00
-0.1309291889520E+00
-0.1217679979284E+00
-0.1128478834995E+00
-0.1042770443190E+00
-0.9620913596133E-01
-0.8884421827507E-01
-0.8238037718866E-01
-0.7697816131877E-01
-0.7274378663324E-01
-0.6971952824508E-01
-0.6787232947674E-01
-0.6707705918560E-01
-0.6709716943637E-01
-0.6755765978791E-01
-0.6793977698765E-01
-0.6764045124495E-01
-0.6605965528820E-01
-0.6272169699931E-01
-0.5731421083983E-01
-0.4999146013747E-01
-0.3995635861676E-01
-0.2654462177850E+00
-0.2566751614393E+00
-0.2470019158748E+00
-0.2370251790104E+00
-0.2271881615862E+00
-0.2177450362483E+00
-0.2087831777471E+00
-0.2002719439869E+00
-0.1921141424602E+00
-0.1841873915520E+00
-0.1763717864993E+00
-0.1685655187877E+00
-0.1606919129083E+00
-0.1527012594139E+00
-0.1445699303913E+00
-0.1362982777217E+00
-0.1279080876873E+00
-0.1194401950372E+00
-0.1109518695020E+00
-0.1025144339522E+00
-0.9421124234944E-01
-0.8613560839899E-01
-0.7838947121091E-01
-0.7108849477096E-01
-0.6439106914477E-01
-0.5849795614725E-01
-0.5360466880409E-01
-0.4986621331003E-01
-0.4738028346956E-01
-0.4617817479598E-01
-0.4621510241822E-01
-0.4735668819488E-01
-0.4936432954598E-01
-0.5187412895619E-01
-0.5439712108884E-01
-0.5637550007386E-01
-0.5726826904550E-01
-0.5661542886019E-01
-0.5420413566679E-01
-0.4970417735141E-01
-0.4428443965585E-01
-0.2126110703618E+00
-0.2049762419397E+00
-0.1964675022127E+00
-0.1876022618355E+00
-0.1787741652411E+00
-0.1702218432865E+00
-0.1620423438379E+00
-0.1542281322224E+00
-0.1467089463469E+00
-0.1393873622582E+00
-0.1321640431601E+00
-0.1249531226046E+00
-0.1176900476921E+00
-0.1103345019204E+00
-0.1028705139145E+00
-0.9530512601569E-01
-0.8766639824910E-01
-0.8000137483552E-01
-0.7237372944090E-01
-0.6486155283417E-01
-0.5755541397009E-01
-0.5055630535112E-01
-0.4397411203195E-01
-0.3793194244656E-01
-0.3259293273486E-01
-0.2815881650319E-01
-0.2482331871402E-01
-0.2273742337382E-01
-0.2199267110658E-01
-0.2261254907918E-01
-0.2454424983055E-01
-0.2764782987232E-01
-0.3168521365601E-01
-0.3630380184048E-01
-0.4103932316725E-01
-0.4537178704169E-01
-0.4879206602650E-01
-0.5089061774341E-01
-0.5132775415383E-01
-0.5027381173039E-01
-0.4647544513823E-01
-0.1599858958458E+00
-0.1534116988355E+00
-0.1459972661136E+00
-0.1381908942121E+00
-0.1303412965824E+00
-0.1226698934017E+00
-0.1152780990993E+00
-0.1081753528012E+00
-0.1013130960989E+00
-0.9461519213554E-01
-0.8800068756327E-01
-0.8139858264709E-01
-0.7475607522962E-01
-0.6804226077321E-01
-0.6124903397788E-01
-0.5439041639553E-01
-0.4750105672044E-01
-0.4063452992814E-01
-0.3386123370260E-01
-0.2726633598143E-01
-0.2094789930462E-01
-0.1501481470712E-01
-0.9585059187570E-02
-0.4789291709377E-02
-0.7955824148748E-03
 0.2192906225178E-02
 0.3983312462220E-02
 0.4427120382241E-02
 0.3436694907931E-02
 0.9935031465407E-03
-0.2844799224302E-02
-0.7935619032682E-02
-0.1404322207436E-01
-0.2082552616292E-01
-0.2783930980970E-01
-0.3459073336416E-01
-0.4060263888014E-01
-0.4545140988647E-01
-0.4889589421712E-01
-0.5058142292444E-01
-0.5156769048696E-01
-0.1075520877547E+00
-0.1019698230911E+00
-0.9558602659462E-01
-0.8878880995815E-01
-0.8188630713775E-01
-0.7508181818184E-01
-0.6847714474438E-01
-0.6209375058718E-01
-0.5590033268941E-01
-0.4983873792019E-01
-0.4384429467704E-01
-0.3785973203911E-01
-0.3184351699482E-01
-0.2577407060875E-01
-0.1965128166619E-01
-0.1349638474774E-01
-0.7350899817001E-02
-0.1275238159184E-02
 0.4653162011439E-02
 0.1034173825002E-01
 0.1568463083306E-01
 0.2056477629857E-01
 0.2485586236795E-01
 0.2841942627445E-01
 0.3108209633854E-01
 0.3263864909682E-01
 0.3289603388461E-01
 0.3170661449007E-01
 0.2898451221653E-01
 0.2471355132620E-01
 0.1895349146973E-01
 0.1184719704508E-01
 0.3626886687752E-02
-0.5375109956507E-02
-0.1473200986416E-01
-0.2397140963795E-01
-0.3262751968987E-01
-0.4029911847659E-01
-0.4664876194073E-01
-0.5157810065588E-01
-0.5527326977998E-01
-0.5529360947415E-01
-0.5064461156074E-01
-0.4523646953898E-01
-0.3940472605690E-01
-0.3342061183467E-01
-0.2746899008620E-01
-0.2164906040263E-01
-0.1599032901446E-01
-0.1047497871135E-01
-0.5059895772682E-02
 0.3052956614474E-03
 0.5665299865586E-02
 0.1105094496916E-01
 0.1647466345211E-01
 0.2192852553859E-01
 0.2738391307977E-01
 0.3279219894809E-01
 0.3808586373670E-01
 0.4318013583745E-01
 0.4797475435617E-01
 0.5235575706134E-01
 0.5619760807713E-01
 0.5936535581062E-01
 0.6171238169383E-01
 0.6305952163375E-01
 0.6319873893396E-01
 0.6193566010896E-01
 0.5912193247609E-01
 0.5467138012914E-01
 0.4856780687493E-01
 0.4087066817299E-01
 0.3172116012740E-01
 0.2134713478388E-01
 0.1007236947266E-01
-0.1689691619923E-02
-0.1347986595006E-01
-0.2484367652072E-01
-0.3536542531947E-01
-0.4471153864575E-01
-0.5270052810494E-01
-0.5918889387822E-01
-0.3195454214057E-02
 0.5704346837207E-03
 0.5050292326979E-02
 0.9954847231807E-02
 0.1504655402658E-01
 0.2015897129525E-01
 0.2519773410894E-01
 0.3012850480464E-01
 0.3495880118073E-01
 0.3971930242293E-01
 0.4444793595029E-01
 0.4917799018632E-01
 0.5393020328142E-01
 0.5870811021798E-01
 0.6349576018610E-01
 0.6825703645017E-01
 0.7293601183651E-01
 0.7745781901950E-01
 0.8173008245781E-01
 0.8564455050841E-01
 0.8907884963637E-01
 0.9189864568740E-01
 0.9395998828149E-01
 0.9510766524362E-01
 0.9515612571407E-01
 0.9389367023096E-01
 0.9112340531142E-01
 0.8669466407178E-01
 0.8051900275193E-01
 0.7257800453908E-01
 0.6292868106536E-01
 0.5170891350923E-01
 0.3914163750765E-01
 0.2554308497774E-01
 0.1131687440167E-01
-0.3086926076531E-02
-0.1721490800608E-01
-0.3064189734718E-01
-0.4300877314325E-01
-0.5403625781183E-01
-0.6340151611940E-01
 0.4875656378067E-01
 0.5168215248008E-01
 0.5527442900661E-01
 0.5928519442743E-01
 0.6350778618054E-01
 0.6779396271046E-01
 0.7205586604664E-01
 0.7625692007092E-01
 0.8039703458119E-01
 0.8449674611162E-01
 0.8858323158429E-01
 0.9267947763179E-01
 0.9679677230112E-01
 0.1009300519257E+00
 0.1050554182784E+00
 0.1091291888308E+00
 0.1130879824919E+00
 0.1168493742654E+00
 0.1203131352612E+00
 0.1233627414074E+00
 0.1258670951589E+00
 0.1276827140084E+00
 0.1286562398520E+00
 0.1286233550573E+00
 0.1273914408436E+00
 0.1247442059698E+00
 0.1204809893989E+00
 0.1144472122088E+00
 0.1065502580820E+00
 0.9676742768775E-01
 0.8515134188327E-01
 0.7183513742937E-01
 0.5703638047703E-01
 0.4106482043745E-01
 0.2431688881671E-01
 0.7238332809892E-02
-0.9713922913013E-02
-0.2609982472346E-01
-0.4152174462892E-01
-0.5561690266756E-01
-0.6796385900913E-01
 0.1005759463576E+00
 0.1026976182779E+00
 0.1054371316158E+00
 0.1085830591710E+00
 0.1119571982246E+00
 0.1154291678643E+00
 0.1189188735836E+00
 0.1223896016484E+00
 0.1258359273950E+00
 0.1292702534451E+00
 0.1327105524754E+00
 0.1361705693826E+00
 0.1396527868283E+00
 0.1431438743277E+00
 0.1466121015907E+00
 0.1500061935320E+00
 0.1532551962427E+00
 0.1562689453551E+00
 0.1589391293958E+00
 0.1611406804820E+00
 0.1627334610849E+00
 0.1635644688165E+00
 0.1634704858037E+00
 0.1622775137748E+00
 0.1597851120282E+00
 0.1557714028353E+00
 0.1500306682138E+00
 0.1424028167574E+00
 0.1327892022814E+00
 0.1211608783151E+00
 0.1075642610425E+00
 0.9212643145700E-01
 0.7505919303732E-01
 0.5666668278331E-01
 0.3734053268063E-01
 0.1752588914672E-01
-0.2312614016881E-02
-0.2171439712609E-01
-0.4023973065350E-01
-0.5745886378129E-01
-0.7288770938724E-01
 0.1522756138888E+00
 0.1536240762651E+00
 0.1555404021160E+00
 0.1578463707856E+00
 0.1603901594650E+00
 0.1630588556382E+00
 0.1657810780280E+00
 0.1685216855281E+00
 0.1712718418178E+00
 0.1740375714505E+00
 0.1768290406180E+00
 0.1796517473915E+00
 0.1825000031374E+00
 0.1853525612554E+00
 0.1881700059316E+00
 0.1908934763538E+00
 0.1934443579783E+00
 0.1957245915415E+00
 0.1976175733167E+00
 0.1989894308447E+00
 0.1996906688977E+00
 0.1995583757763E+00
 0.1984189852054E+00
 0.1960881895008E+00
 0.1923569108788E+00
 0.1869966353079E+00
 0.1797952617454E+00
 0.1705855781163E+00
 0.1592610782729E+00
 0.1457846636167E+00
 0.1301948053432E+00
 0.1126112712123E+00
 0.9323967478908E-01
 0.7237924059981E-01
 0.5041878517187E-01
 0.2780591623485E-01
 0.5016798260121E-02
-0.1746341432146E-01
-0.3915311289045E-01
-0.5956686184144E-01
-0.7817441985340E-01
 0.2038679869519E+00
 0.2044688869050E+00
 0.2055868910765E+00
 0.2070740287543E+00
 0.2088030852672E+00
 0.2106782164902E+00
 0.2126374806723E+00
 0.2146487106657E+00
 0.2167012882313E+00
 0.2187963919122E+00
 0.2209376372694E+00
 0.2231231987208E+00
 0.2253398281332E+00
 0.2275587207600E+00
 0.2297329438088E+00
 0.2317960849567E+00
 0.2336618086897E+00
 0.2352240298531E+00
 0.2363576621050E+00
 0.2369197791552E+00
 0.2367512108548E+00
 0.2356787329889E+00
 0.2335179122148E+00
 0.2300734579384E+00
 0.2251267887982E+00
 0.2184416575951E+00
 0.2097982199404E+00
 0.1990205200568E+00
 0.1859923686116E+00
 0.1706666330961E+00
 0.1530721223937E+00
 0.1333200241578E+00
 0.1116092489966E+00
 0.8823459866200E-01
 0.6358366874738E-01
 0.3810910428800E-01
 0.1230182914767E-01
-0.1332572318264E-01
-0.3825094407744E-01
-0.6193930494279E-01
-0.8382062160429E-01
 0.2553650505251E+00
 0.2552394794036E+00
 0.2555797552394E+00
 0.2562657086951E+00
 0.2571932386938E+00
 0.2582831933208E+00
 0.2594836371587E+00
 0.2607665351824E+00
 0.2621208729417E+00
 0.2635443182618E+00
 0.2650350584543E+00
 0.2665847923735E+00
 0.2681732932556E+00
 0.2697645540181E+00
 0.2713043075852E+00
 0.2727186462364E+00
 0.2739134774388E+00
 0.2747745823667E+00
 0.2751682211700E+00
 0.2749421774388E+00
 0.2739272922458E+00
 0.2719396165000E+00
 0.2687833076888E+00
 0.2642513822852E+00
 0.2581148459415E+00
 0.2501285805820E+00
 0.2400636047629E+00
 0.2277335729278E+00
 0.2130107759878E+00
 0.1958361552397E+00
 0.1762271166243E+00
 0.1542849389324E+00
 0.1302011843865E+00
 0.1042664827687E+00
 0.7686844445905E-01
 0.4846688851870E-01
 0.1957013286247E-01
-0.9280112699498E-02
-0.3752064578737E-01
-0.6457088256577E-01
-0.8982162545920E-01
 0.3067784082458E+00
 0.3059433197398E+00
 0.3055225501679E+00
 0.3054217129791E+00
 0.3055585764608E+00
 0.3058703508130E+00
 0.3063155636395E+00
 0.3068712800346E+00
 0.3075272723923E+00
 0.3082788607711E+00
 0.3091198023331E+00
 0.3100360922460E+00
 0.3110010687610E+00
 0.3119718685181E+00
 0.3128870803552E+00
 0.3136653744045E+00
 0.3142048866124E+00
 0.3143831789733E+00
 0.3140577072839E+00
 0.3130667436534E+00
 0.3112308332826E+00
 0.3083548856906E+00
 0.3042310902648E+00
 0.2986400316677E+00
 0.2913413576031E+00
 0.2820799054264E+00
 0.2706161290564E+00
 0.2567516152682E+00
 0.2403452657226E+00
 0.2213241612890E+00
 0.1996924992816E+00
 0.1755402128420E+00
 0.1490506968734E+00
 0.1205104010560E+00
 0.9030784334212E-01
 0.5891174473838E-01
 0.2684998878439E-01
-0.5304693559761E-02
-0.3694811093687E-01
-0.6745415801115E-01
-0.9617275792138E-01
 0.3581193284090E+00
 0.3565878826992E+00
 0.3554191372421E+00
 0.3545428381775E+00
 0.3538976068843E+00
 0.3534367475164E+00
 0.3531296356215E+00
 0.3529592569888E+00
 0.3529171859397E+00
 0.3529974069782E+00
 0.3531901301067E+00
 0.3534763427475E+00
 0.3538234500412E+00
 0.3541820625680E+00
 0.3544838172196E+00
 0.3546400483294E+00
 0.3545411251308E+00
 0.3540563266807E+00
 0.3530341746473E+00
 0.3513032256823E+00
 0.3486734326850E+00
 0.3449381484948E+00
 0.3398770253368E+00
 0.3332574556872E+00
 0.3248267554675E+00
 0.3143185118202E+00
 0.3014811514969E+00
 0.2861024751080E+00
 0.2680260740237E+00
 0.2471631633016E+00
 0.2235028228463E+00
 0.1971220535081E+00
 0.1681950537352E+00
 0.1370038070486E+00
 0.1039382945509E+00
 0.6947749870849E-01
 0.3417072042639E-01
-0.1376536236221E-02
-0.3651788052510E-01
-0.7058046940217E-01
-0.1028699372623E+00
 0.4093987837931E+00
 0.4071806301272E+00
 0.4052736064705E+00
 0.4036302623349E+00
 0.4022092658106E+00
 0.4009798204428E+00
 0.3999224929307E+00
 0.3990268974158E+00
 0.3982872861228E+00
 0.3976971881948E+00
 0.3972440429682E+00
 0.3969044511668E+00
 0.3966403416182E+00
 0.3963961083290E+00
 0.3960966257108E+00
 0.3956459883916E+00
 0.3949268212833E+00
 0.3938000784215E+00
 0.3921052401097E+00
 0.3896609638869E+00
 0.3862663289522E+00
 0.3817027231442E+00
 0.3757366891823E+00
 0.3681216527191E+00
 0.3585916015170E+00
 0.3468676385595E+00
 0.3326846647367E+00
 0.3158149269964E+00
 0.2960847163951E+00
 0.2733872785497E+00
 0.2476945288872E+00
 0.2190687606551E+00
 0.1876737018964E+00
 0.1537862849764E+00
 0.1177981733420E+00
 0.8019964295244E-01
 0.4156305482261E-01
 0.2528572743360E-02
-0.3621327186455E-01
-0.7394042898219E-01
-0.1099099148428E+00
 0.4606274891824E+00
 0.4577289981377E+00
 0.4550902175899E+00
 0.4526854556276E+00
 0.4504928164457E+00
 0.4484972910968E+00
 0.4466909627125E+00
 0.4450706963883E+00
 0.4436341829371E+00
 0.4423752602022E+00
 0.4412792745271E+00
 0.4403189874082E+00
 0.4394512605963E+00
 0.4386145563046E+00
 0.4377271694383E+00
 0.4366860580367E+00
 0.4353661414444E+00
 0.4336200286338E+00
 0.4312780757598E+00
 0.4281488813053E+00
 0.4240203892170E+00
 0.4186616270949E+00
 0.4118254596041E+00
 0.4032505639619E+00
 0.3926565871231E+00
 0.3797508892989E+00
 0.3642533097042E+00
 0.3459187174708E+00
 0.3245540282290E+00
 0.3000322910784E+00
 0.2723060385509E+00
 0.2414208552058E+00
 0.2075284453219E+00
 0.1708997819853E+00
 0.1319280895064E+00
 0.9111567275605E-01
 0.4905945765321E-01
 0.6436341246629E-02
-0.3601642934356E-01
-0.7752418605157E-01
-0.1172903588880E+00
 0.5118159355289E+00
 0.5082403845079E+00
 0.5048733443380E+00
 0.5017100937916E+00
 0.4987477482544E+00
 0.4959870646138E+00
 0.4934319689044E+00
 0.4910871371921E+00
 0.4889543636879E+00
 0.4870284559947E+00
 0.4852932527868E+00
 0.4837181514294E+00
 0.4822553062576E+00
 0.4808375044656E+00
 0.4793766347790E+00
 0.4777626266441E+00
 0.4758627482330E+00
 0.4735212662812E+00
 0.4705593568293E+00
 0.4667754269330E+00
 0.4619460488574E+00
 0.4558275143474E+00
 0.4481584526830E+00
 0.4386620116193E+00
 0.4270424749130E+00
 0.4129921807502E+00
 0.3962143334807E+00
 0.3764445370796E+00
 0.3534681570082E+00
 0.3271356719268E+00
 0.2973778102545E+00
 0.2642211845498E+00
 0.2278036065619E+00
 0.1883888304108E+00
 0.1463711674259E+00
 0.1022654054965E+00
 0.5669443934800E-01
 0.1037417268341E-01
-0.3590830361125E-01
-0.8132153321248E-01
-0.1250098538650E+00
 0.5629744241084E+00
 0.5587221444140E+00
 0.5546274334880E+00
 0.5507059904671E+00
 0.5469736961373E+00
 0.5434471486748E+00
 0.5401424602865E+00
 0.5370726335179E+00
 0.5342441504649E+00
 0.5316533570206E+00
 0.5292830822363E+00
 0.5270997628504E+00
 0.5250511540301E+00
 0.5230645938780E+00
 0.5210457259975E+00
 0.5188775624848E+00
 0.5164197901210E+00
 0.5135083603689E+00
 0.5099552428134E+00
 0.5055485525907E+00
 0.5000532847072E+00
 0.4932126460356E+00
 0.4847504921989E+00
 0.4743736690307E+00
 0.4617700719868E+00
 0.4466157220625E+00
 0.4285955789471E+00
 0.4074240258149E+00
 0.3828625907454E+00
 0.3547366394804E+00
 0.3229524419558E+00
 0.2875150764345E+00
 0.2485462393182E+00
 0.2063008204069E+00
 0.1611733703900E+00
 0.1136913310708E+00
 0.6450488001985E-01
 0.1437139491678E-01
-0.3586856599158E-01
-0.8532192263364E-01
-0.1330678880579E+00
 0.6141131009697E+00
 0.6091815884486E+00
 0.6043569680282E+00
 0.5996750335225E+00
 0.5951703615346E+00
 0.5908755709565E+00
 0.5868193332543E+00
 0.5830234628922E+00
 0.5794996461216E+00
 0.5762462510169E+00
 0.5732455113004E+00
 0.5704612351083E+00
 0.5678370333769E+00
 0.5652949876292E+00
 0.5627346429330E+00
 0.5600322073469E+00
 0.5570398716264E+00
 0.5535853247708E+00
 0.5494713364391E+00
 0.5444756659944E+00
 0.5383515626607E+00
 0.5308288334867E+00
 0.5216160495965E+00
 0.5104029996014E+00
 0.4968601706394E+00
 0.4806459612026E+00
 0.4614254420948E+00
 0.4388897484036E+00
 0.4127741602637E+00
 0.3828761994714E+00
 0.3490747604098E+00
 0.3113504880077E+00
 0.2698063441140E+00
 0.2246862819631E+00
 0.1763838371412E+00
 0.1254389740449E+00
 0.7253036858711E-01
 0.1845951886259E-01
-0.3587546521007E-01
-0.8951441552908E-01
-0.1414648135408E+00
 0.6652419922937E+00
 0.6596259847300E+00
 0.6540664364916E+00
 0.6486191282786E+00
 0.6433374397048E+00
 0.6382703010718E+00
 0.6334593571109E+00
 0.6289357009424E+00
 0.6247166799934E+00
 0.6208030891317E+00
 0.6171768991358E+00
 0.6137995493263E+00
 0.6106107058715E+00
 0.6075273503632E+00
 0.6044430595673E+00
 0.6012273521109E+00
 0.5977250242910E+00
 0.5937555834306E+00
 0.5891126423407E+00
 0.5835635826034E+00
 0.5768497828638E+00
 0.5686873774542E+00
 0.5587691785666E+00
 0.5467671887992E+00
 0.5323334808391E+00
 0.5151075223156E+00
 0.4947328204326E+00
 0.4708751620549E+00
 0.4432410368357E+00
 0.4115971849070E+00
 0.3757919164186E+00
 0.3357781678853E+00
 0.2916371040237E+00
 0.2435991926452E+00
 0.1920552470684E+00
 0.1375572850727E+00
 0.8081357339018E-01
 0.2267253705083E-01
-0.3590563378136E-01
-0.9388758476751E-01
-0.1502018090667E+00
 0.7163710429321E+00
 0.7100625668429E+00
 0.7037603101404E+00
 0.6975401495521E+00
 0.6914745557510E+00
 0.6856291805523E+00
 0.6800591065673E+00
 0.6748051623122E+00
 0.6698907601937E+00
 0.6653194500376E+00
 0.6610731902049E+00
 0.6571112369454E+00
 0.6533694530547E+00
 0.6497598385247E+00
 0.6461701140523E+00
 0.6424632243131E+00
 0.6384766899293E+00
 0.6340219478556E+00
 0.6288835377749E+00
 0.6228184889695E+00
 0.6155562355877E+00
 0.6067990169519E+00
 0.5962234579524E+00
 0.5834830831373E+00
 0.5682105684863E+00
 0.5500251480807E+00
 0.5285470663547E+00
 0.5034145902718E+00
 0.4743027384707E+00
 0.4409443089323E+00
 0.4031534989838E+00
 0.3608518443491E+00
 0.3140951541374E+00
 0.2630973257065E+00
 0.2082442301738E+00
 0.1500990792225E+00
 0.8940066140003E-01
 0.2704727321655E-01
-0.3593384366638E-01
-0.9842938315708E-01
-0.1592808434652E+00
 0.7675101575365E+00
 0.7604985437412E+00
 0.7534430211257E+00
 0.7464398929165E+00
 0.7395811975719E+00
 0.7329498472348E+00
 0.7266148862683E+00
 0.7206273316198E+00
 0.7150170144543E+00
 0.7097904915358E+00
 0.7049298755926E+00
 0.7003923485033E+00
 0.6961100498598E+00
 0.6919900755025E+00
 0.6879143828221E+00
 0.6837394587924E+00
 0.6792956857575E+00
 0.6743865750754E+00
 0.6687877221680E+00
 0.6622458830625E+00
 0.6544785320040E+00
 0.6451738507281E+00
 0.6339919049235E+00
 0.6205670970667E+00
 0.6045117594568E+00
 0.5854236062452E+00
 0.5628979040032E+00
 0.5365431608640E+00
 0.5060001030142E+00
 0.4709641894726E+00
 0.4312116287901E+00
 0.3866284028801E+00
 0.3372408521243E+00
 0.2832426115948E+00
 0.2250118018825E+00
 0.1631215089788E+00
 0.9834176035778E-01
 0.3162378106880E-01
-0.3593271229117E-01
-0.1031269734735E+00
-0.1687046327142E+00
 0.8186692463825E+00
 0.8109411153065E+00
 0.8031189464735E+00
 0.7953200315222E+00
 0.7876566538223E+00
 0.7802296641550E+00
 0.7731226596118E+00
 0.7663972989081E+00
 0.7600901360596E+00
 0.7542109081535E+00
 0.7487419613759E+00
 0.7436384305460E+00
 0.7388287471565E+00
 0.7342151367149E+00
 0.7296738652553E+00
 0.7250550792632E+00
 0.7201821805753E+00
 0.7148509365141E+00
 0.7088281771530E+00
 0.7018505243619E+00
 0.6936235436878E+00
 0.6838212661174E+00
 0.6720868938938E+00
 0.6580351237863E+00
 0.6412570456935E+00
 0.6213275965548E+00
 0.5978153454517E+00
 0.5702967432695E+00
 0.5383752621783E+00
 0.5017053786248E+00
 0.4600210628689E+00
 0.4131680839126E+00
 0.3611385800619E+00
 0.3041015424634E+00
 0.2424238515315E+00
 0.1766865988472E+00
 0.1076914863627E+00
 0.3644580674252E-01
-0.3587235478273E-01
-0.1079665272689E+00
-0.1784766009749E+00
 0.8698582765318E+00
 0.8613974921251E+00
 0.8527923946813E+00
 0.8441820736508E+00
 0.8356999508626E+00
 0.8274656460958E+00
 0.8195779744391E+00
 0.8121096917155E+00
 0.8051043265640E+00
 0.7985748859275E+00
 0.7925039346564E+00
 0.7868445006207E+00
 0.7815212526523E+00
 0.7764315331348E+00
 0.7714459666470E+00
 0.7664084778437E+00
 0.7611356683150E+00
 0.7554157834023E+00
 0.7490071220637E+00
 0.7416363780460E+00
 0.7329973345680E+00
 0.7227498583927E+00
 0.7105200637163E+00
 0.6959024318968E+00
 0.6784659746466E+00
 0.6577616387202E+00
 0.6333295861898E+00
 0.6047118645914E+00
 0.5714715955757E+00
 0.5332183760303E+00
 0.4896392905980E+00
 0.4405346829786E+00
 0.3858570629923E+00
 0.3257456096809E+00
 0.2605516798342E+00
 0.1908618419384E+00
 0.1175095408874E+00
 0.4156132039908E-01
-0.3571997710487E-01
-0.1129329861440E+00
-0.1886008376250E+00
 0.9210873294860E+00
 0.9118749198380E+00
 0.9024675944090E+00
 0.8930273198590E+00
 0.8837097872852E+00
 0.8746543824697E+00
 0.8659758846202E+00
 0.8577586032517E+00
 0.8500532352219E+00
 0.8428760546649E+00
 0.8362097277957E+00
 0.8300050210379E+00
 0.8241827109043E+00
 0.8186351940234E+00
 0.8132274802459E+00
 0.8077973932669E+00
 0.8021549396584E+00
 0.7960811093950E+00
 0.7893259655079E+00
 0.7816065538466E+00
 0.7726050858116E+00
 0.7619673409785E+00
 0.7493022133228E+00
 0.7341835477721E+00
 0.7161575214960E+00
 0.6947499402473E+00
 0.6694708779756E+00
 0.6398256015514E+00
 0.6053336611470E+00
 0.5655556220863E+00
 0.5201266169918E+00
 0.4687957502383E+00
 0.4114697034264E+00
 0.3482517768766E+00
 0.2794725916948E+00
 0.2057208681659E+00
 0.1278613883006E+00
 0.4702312710108E-01
-0.3543940245962E-01
-0.1180097804409E+00
-0.1990820472083E+00
 0.9723666667918E+00
 0.9623807090128E+00
 0.9521486855534E+00
 0.9418568195901E+00
 0.9316844658638E+00
 0.9217919567386E+00
 0.9123108683662E+00
 0.9033375182517E+00
 0.8949298974373E+00
 0.8871074406211E+00
 0.8798526843029E+00
 0.8731138752387E+00
 0.8668076865799E+00
 0.8608214532574E+00
 0.8550145729560E+00
 0.8492188925810E+00
 0.8432380567229E+00
 0.8368461155895E+00
 0.8297852584014E+00
 0.8217632451190E+00
 0.8124510193340E+00
 0.8014804523105E+00
 0.7884431915990E+00
 0.7728921293151E+00
 0.7543499495247E+00
 0.7323162489831E+00
 0.7062693831478E+00
 0.6756754515126E+00
 0.6400071041408E+00
 0.5987714723872E+00
 0.5515462344752E+00
 0.4980227913909E+00
 0.4380549358691E+00
 0.3717029958967E+00
 0.2992705555852E+00
 0.2213441983534E+00
 0.1388190291320E+00
 0.5288957035917E-01
-0.3499052113252E-01
-0.1231784993972E+00
-0.2099254903475E+00
 0.1023706805199E+01
 0.1012922271137E+01
 0.1001839712215E+01
 0.9906713259486E+00
 0.9796218212513E+00
 0.9688738607803E+00
 0.9585767420783E+00
 0.9488392358613E+00
 0.9397266721081E+00
 0.9312614198901E+00
 0.9234255269504E+00
 0.9161643475074E+00
 0.9093901517762E+00
 0.9029850400761E+00
 0.8968027755256E+00
 0.8906693571492E+00
 0.8843823316244E+00
 0.8777091787550E+00
 0.8703846492799E+00
 0.8621076689513E+00
 0.8525383207488E+00
 0.8412948601130E+00
 0.8279517821608E+00
 0.8120408315455E+00
 0.7930606587004E+00
 0.7704836898208E+00
 0.7437550089879E+00
 0.7122991801008E+00
 0.6755385410735E+00
 0.6329221489610E+00
 0.5839642785520E+00
 0.5282914664467E+00
 0.4656966005800E+00
 0.3961887692901E+00
 0.3200369384408E+00
 0.2378200979085E+00
 0.1504618849776E+00
 0.5922534335220E-01
-0.3432865192624E-01
-0.1284185029231E+00
-0.2211369105402E+00
 0.1075118602967E+01
 0.1063507159783E+01
 0.1051544614415E+01
 0.1039471243504E+01
 0.1027519136915E+01
 0.1015894896866E+01
 0.1004766561970E+01
 0.9942557815338E+00
 0.9844351695853E+00
 0.9753296638500E+00
 0.9669203189379E+00
 0.9591490961917E+00
 0.9519234668166E+00
 0.9451200628756E+00
 0.9385869650410E+00
 0.9321444599565E+00
 0.9255842951197E+00
 0.9186678081793E+00
 0.9111228265067E+00
 0.9026399911417E+00
 0.8928690447982E+00
 0.8814150453232E+00
 0.8678355644027E+00
 0.8516411444457E+00
 0.8323060018110E+00
 0.8092745636401E+00
 0.7819571987313E+00
 0.7497346203982E+00
 0.7119753920631E+00
 0.6680656405581E+00
 0.6174498395159E+00
 0.5596817601792E+00
 0.4944843145293E+00
 0.4218057441520E+00
 0.3418713097746E+00
 0.2552455327020E+00
 0.1628778042748E+00
 0.6610241991303E-01
-0.3340380161155E-01
-0.1337064600836E+00
-0.2327224235529E+00
 0.1126613359723E+01
 0.1114143120882E+01
 0.1101267222826E+01
 0.1088256574349E+01
 0.1075373058004E+01
 0.1062849076008E+01
 0.1050872524642E+01
 0.1039578321636E+01
 0.1029046186361E+01
 0.1019303094989E+01
 0.1010328438419E+01
 0.1002060142555E+01
 0.9944003783337E+00
 0.9872200114741E+00
 0.9803613667339E+00
 0.9736391628176E+00
 0.9668396855117E+00
 0.9597186229091E+00
 0.9519974807374E+00
 0.9433592709813E+00
 0.9334440397326E+00
 0.9218442035979E+00
 0.9081007900928E+00
 0.8917032434615E+00
 0.8721011093307E+00
 0.8487101499603E+00
 0.8209047203885E+00
 0.7880194638656E+00
 0.7493657000343E+00
 0.7042615884218E+00
 0.6520749646608E+00
 0.5922781575554E+00
 0.5245138732740E+00
 0.4486583734008E+00
 0.3648823545567E+00
 0.2737272687523E+00
 0.1761642276135E+00
 0.7360113429042E-01
-0.3215980760429E-01
-0.1390158087050E+00
-0.2446883809542E+00
 0.1178202932947E+01
 0.1164838150031E+01
 0.1151011250651E+01
 0.1137026852888E+01
 0.1123179487961E+01
 0.1109729498622E+01
 0.1096885851231E+01
 0.1084797064275E+01
 0.1073549628834E+01
 0.1063171834119E+01
 0.1053640545856E+01
 0.1044888853022E+01
 0.1036813010607E+01
 0.1029277751989E+01
 0.1022119547419E+01
 0.1015147703989E+01
 0.1008143426530E+01
 0.1000857316325E+01
 0.9930052528361E+00
 0.9842633893002E+00
 0.9742628523959E+00
 0.9625841244766E+00
 0.9487522339157E+00
 0.9322358093602E+00
 0.9124596779427E+00
 0.8888104663054E+00
 0.8606254042508E+00
 0.8271909915661E+00
 0.7877578831073E+00
 0.7415711021134E+00
 0.6879145951873E+00
 0.6261697705316E+00
 0.5558876362344E+00
 0.4768596079846E+00
 0.3891888738765E+00
 0.2933831117118E+00
 0.1904295217280E+00
 0.8181142437001E-01
-0.3053334706525E-01
-0.1443161115148E+00
-0.2570411568994E+00
 0.1229899872958E+01
 0.1215600558531E+01
 0.1200780282622E+01
 0.1185781068633E+01
 0.1170933468416E+01
 0.1156528218288E+01
 0.1142796657708E+01
 0.1129901150814E+01
 0.1117934432328E+01
 0.1106925146550E+01
 0.1096846552875E+01
 0.1087625924373E+01
 0.1079152860456E+01
 0.1071285525315E+01
 0.1063854412227E+01
 0.1056663588548E+01
 0.1049489607256E+01
 0.1042078621846E+01
 0.1034141681757E+01
 0.1025348975016E+01
 0.1015323629952E+01
 0.1003635064793E+01
 0.9897930351172E+00
 0.9732458349778E+00
 0.9533937402976E+00
 0.9295940013922E+00
 0.9011458450088E+00
 0.8672857595754E+00
 0.8272004311472E+00
 0.7800565129034E+00
 0.7250464420507E+00
 0.6614504186257E+00
 0.5887148990082E+00
 0.5065316294194E+00
 0.4149208932260E+00
 0.3143433175449E+00
 0.2057945184293E+00
 0.9083426613077E-01
-0.2845280146037E-01
-0.1495723013895E+00
-0.2697868379013E+00
 0.1281717582622E+01
 0.1266439052692E+01
 0.1250577764298E+01
 0.1234517579488E+01
 0.1218629045442E+01
 0.1203236093359E+01
 0.1188593818313E+01
 0.1174878547383E+01
 0.1162188486732E+01
 0.1150551400255E+01
 0.1139935606942E+01
 0.1130261387263E+01
 0.1121410811998E+01
 0.1113234966420E+01
 0.1105558222788E+01
 0.1098179600651E+01
 0.1090871484230E+01
 0.1083376300931E+01
 0.1075401174637E+01
 0.1066611353524E+01
 0.1056623042724E+01
 0.1044995641958E+01
 0.1031224557012E+01
 0.1014738446659E+01
 0.9949134446164E+00
 0.9710774511108E+00
 0.9424910971150E+00
 0.9083392659412E+00
 0.8677415715442E+00
 0.8197810867166E+00
 0.7635508196202E+00
 0.6982186804030E+00
 0.6231122714208E+00
 0.5378066483166E+00
 0.4422209173826E+00
 0.3367522294018E+00
 0.2223943204945E+00
 0.1007833463582E+00
-0.2583696186081E-01
-0.1547438118291E+00
-0.2829307799601E+00
 0.1333670504661E+01
 0.1317362821647E+01
 0.1300406979814E+01
 0.1283233997666E+01
 0.1266259100327E+01
 0.1249842602178E+01
 0.1234264796388E+01
 0.1219715909258E+01
 0.1206298539900E+01
 0.1194038004987E+01
 0.1182896058283E+01
 0.1172784591662E+01
 0.1163577131958E+01
 0.1155117102203E+01
 0.1147222591658E+01
 0.1139687789579E+01
 0.1132281454721E+01
 0.1124743099474E+01
 0.1116776942261E+01
 0.1108044457145E+01
 0.1098156165385E+01
 0.1086662681376E+01
 0.1073046195637E+01
 0.1056716668640E+01
 0.1037026769197E+01
 0.1013275378847E+01
 0.9846842809108E+00
 0.9503855119942E+00
 0.9094288116452E+00
 0.8608085984526E+00
 0.8035103343409E+00
 0.7365778115457E+00
 0.6592039616020E+00
 0.5708276834358E+00
 0.4712452735335E+00
 0.3607701206000E+00
 0.2403803882689E+00
 0.1117869913013E+00
-0.2259358264103E-01
-0.1597835935611E+00
-0.2964769184447E+00
 0.1385774344098E+01
 0.1368381643889E+01
 0.1350271028396E+01
 0.1331927060811E+01
 0.1313815161610E+01
 0.1296335644520E+01
 0.1279795471694E+01
 0.1264398453488E+01
 0.1250250119867E+01
 0.1237371378346E+01
 0.1225715459382E+01
 0.1215184228640E+01
 0.1205641503863E+01
 0.1196922390188E+01
 0.1188838519329E+01
 0.1181179500020E+01
 0.1173711075873E+01
 0.1166170751614E+01
 0.1158260983338E+01
 0.1149640785561E+01
 0.1139916409058E+01
 0.1128631115262E+01
 0.1115255239573E+01
 0.1099181237092E+01
 0.1079739282955E+01
 0.1056199915007E+01
 0.1027746216924E+01
 0.9934565761613E+00
 0.9523084743459E+00
 0.9032028798850E+00
 0.8450095340804E+00
 0.7766356280378E+00
 0.6971220595983E+00
 0.6057494152315E+00
 0.5021656467328E+00
 0.3865753696121E+00
 0.2599230479743E+00
 0.1239904537177E+00
-0.1861779236330E-01
-0.1646370969256E+00
-0.3104267924136E+00
 0.1438046334682E+01
 0.1419506008309E+01
 0.1400172785375E+01
 0.1380592465469E+01
 0.1361287170419E+01
 0.1342701298532E+01
 0.1325169931817E+01
 0.1308909805580E+01
 0.1294027439163E+01
 0.1280536898764E+01
 0.1268380553217E+01
 0.1257448340467E+01
 0.1247593048910E+01
 0.1238640741677E+01
 0.1230396413296E+01
 0.1222645382003E+01
 0.1215151061061E+01
 0.1207649958186E+01
 0.1199844040637E+01
 0.1191391335055E+01
 0.1181895418818E+01
 0.1170893843075E+01
 0.1157846686931E+01
 0.1142130365649E+01
 0.1123053849570E+01
 0.1099860388850E+01
 0.1071694976421E+01
 0.1037582082442E+01
 0.9964251019174E+00
 0.9470272081598E+00
 0.8881343773322E+00
 0.8185042087771E+00
 0.7370066777247E+00
 0.6427389871779E+00
 0.5351707162015E+00
 0.4143669403328E+00
 0.2812144783923E+00
 0.1375586341708E+00
-0.1379040628020E-01
-0.1692413595997E+00
-0.3247780917027E+00
 0.1490505556362E+01
 0.1470747253765E+01
 0.1450114845416E+01
 0.1429224658423E+01
 0.1408663196258E+01
 0.1388923534872E+01
 0.1370370234809E+01
 0.1353231832272E+01
 0.1337613296955E+01
 0.1323518863723E+01
 0.1310877270277E+01
 0.1299564340550E+01
 0.1289420356358E+01
 0.1280261553642E+01
 0.1271886115047E+01
 0.1264075408038E+01
 0.1256591282778E+01
 0.1249170370979E+01
 0.1241515562025E+01
 0.1233285531525E+01
 0.1224082973605E+01
 0.1213441592685E+01
 0.1200813060857E+01
 0.1185559506045E+01
 0.1166970321014E+01
 0.1144262939950E+01
 0.1116545395907E+01
 0.1082788609600E+01
 0.1041820769529E+01
 0.9923435681209E+00
 0.9329715439735E+00
 0.8622994266197E+00
 0.7790059477497E+00
 0.6819767570547E+00
 0.5704679113568E+00
 0.4443672342164E+00
 0.3044723428154E+00
 0.1526794388255E+00
-0.7976199860637E-02
-0.1735245912468E+00
-0.3395226375547E+00
 0.1543173321826E+01
 0.1522117736401E+01
 0.1500099449810E+01
 0.1477816584237E+01
 0.1455929103445E+01
 0.1434983893453E+01
 0.1415376154533E+01
 0.1397344476978E+01
 0.1380988999099E+01
 0.1366300475370E+01
 0.1353190757892E+01
 0.1341519067727E+01
 0.1331111549076E+01
 0.1321773776265E+01
 0.1313296963364E+01
 0.1305458927493E+01
 0.1298020813878E+01
 0.1290720616481E+01
 0.1283263702006E+01
 0.1275311204829E+01
 0.1266466928198E+01
 0.1256262824261E+01
 0.1244144268159E+01
 0.1229461151403E+01
 0.1211485271047E+01
 0.1189410162726E+01
 0.1162308611015E+01
 0.1129099096707E+01
 0.1088534361345E+01
 0.1039211834491E+01
 0.9796076224758E+00
 0.9081403297241E+00
 0.8232758864732E+00
 0.7236570135186E+00
 0.6082853251652E+00
 0.4768253901900E+00
 0.3299442939557E+00
 0.1695681807369E+00
-0.1022117693685E-02
-0.1774071101608E+00
-0.3546437974688E+00
 0.1596073644964E+01
 0.1573631017262E+01
 0.1550128371464E+01
 0.1526359350284E+01
 0.1503068124705E+01
 0.1480861079295E+01
 0.1460164866315E+01
 0.1441225555136E+01
 0.1424134250827E+01
 0.1408863804036E+01
 0.1395305387150E+01
 0.1383298814739E+01
 0.1372654318621E+01
 0.1363165945242E+01
 0.1354617817917E+01
 0.1346784677124E+01
 0.1339427920969E+01
 0.1332288267651E+01
 0.1325075266850E+01
 0.1317454501911E+01
 0.1309033088824E+01
 0.1299343562468E+01
 0.1287827380697E+01
 0.1273824555894E+01
 0.1256591636455E+01
 0.1235300645503E+01
 0.1208991464022E+01
 0.1176532090328E+01
 0.1136600642499E+01
 0.1087688691290E+01
 0.1028127970331E+01
 0.9561481485185E+00
 0.8699798897637E+00
 0.7679884192029E+00
 0.6488735980561E+00
 0.5120208876359E+00
 0.3579133588331E+00
 0.1884736484803E+00
 0.7244885811113E-02
-0.1808053441648E+00
-0.3701140884843E+00
 0.1649233816188E+01
 0.1625302088245E+01
 0.1600202766458E+01
 0.1574841818668E+01
 0.1550060360678E+01
 0.1526530511048E+01
 0.1504710621445E+01
 0.1484850570285E+01
 0.1467027092004E+01
 0.1451189806447E+01
 0.1437204820061E+01
 0.1424889419266E+01
 0.1414036024279E+01
 0.1404426279741E+01
 0.1395837150924E+01
 0.1388040862776E+01
 0.1380800132512E+01
 0.1373859894090E+01
 0.1366935741749E+01
 0.1359699885464E+01
 0.1351765177929E+01
 0.1342667321879E+01
 0.1331846514555E+01
 0.1318635556766E+01
 0.1302278463672E+01
 0.1281928613625E+01
 0.1256596005731E+01
 0.1225101063064E+01
 0.1186049361418E+01
 0.1137826519395E+01
 0.1078615467094E+01
 0.1006445119580E+01
 0.9192880283024E+00
 0.8151943172776E+00
 0.6925079362836E+00
 0.5502676945638E+00
 0.3887042035283E+00
 0.2096868591921E+00
 0.1702238351308E-01
-0.1836429424103E+00
-0.3858952166253E+00
 0.1702685117986E+01
 0.1677147630476E+01
 0.1650322958692E+01
 0.1623250074325E+01
 0.1596882150482E+01
 0.1571963771263E+01
 0.1548984363174E+01
 0.1528192503359E+01
 0.1509643823389E+01
 0.1493258340433E+01
 0.1478872071205E+01
 0.1466276344203E+01
 0.1455243775603E+01
 0.1445542758786E+01
 0.1436943113106E+01
 0.1429215211974E+01
 0.1422124274788E+01
 0.1415421076982E+01
 0.1408829279201E+01
 0.1402030089776E+01
 0.1394644751793E+01
 0.1386214981078E+01
 0.1376182654342E+01
 0.1363876338172E+01
 0.1348530592578E+01
 0.1329283500740E+01
 0.1305118907602E+01
 0.1274813609711E+01
 0.1236904175254E+01
 0.1189672027694E+01
 0.1131148902426E+01
 0.1059152850319E+01
 0.9713757845770E+00
 0.8655126621557E+00
 0.7394897426691E+00
 0.5919192259453E+00
 0.4226896330909E+00
 0.2335522047545E+00
 0.2854568091334E-01
-0.1858734566531E+00
-0.4019578989503E+00
 0.1756463719957E+01
 0.1729186303384E+01
 0.1700488137675E+01
 0.1671566736634E+01
 0.1643505289186E+01
 0.1617127953411E+01
 0.1592953294240E+01
 0.1571221595515E+01
 0.1551958948291E+01
 0.1535048201540E+01
 0.1520289589275E+01
 0.1507444772938E+01
 0.1496264525145E+01
 0.1486503204273E+01
 0.1477923604092E+01
 0.1470295029860E+01
 0.1463386510630E+01
 0.1456956426213E+01
 0.1450738688587E+01
 0.1444426076211E+01
 0.1437651116002E+01
 0.1429964653389E+01
 0.1420813474111E+01
 0.1409525192720E+01
 0.1395328338634E+01
 0.1377349515166E+01
 0.1354550856524E+01
 0.1325670596897E+01
 0.1289181474440E+01
 0.1243264690739E+01
 0.1185801049650E+01
 0.1114390189092E+01
 0.1026422280766E+01
 0.9191951250298E+00
 0.7901487824938E+00
 0.6373712842576E+00
 0.4603045746383E+00
 0.2604652872724E+00
 0.4213657248413E-01
-0.1875253106029E+00
-0.4183509202031E+00
 0.1810611850010E+01
 0.1781439035172E+01
 0.1750695988308E+01
 0.1719770065395E+01
 0.1689896086364E+01
 0.1661984913070E+01
 0.1636580427106E+01
 0.1613905165736E+01
 0.1593945175126E+01
 0.1576537227532E+01
 0.1561439404709E+01
 0.1548379766855E+01
 0.1537085220753E+01
 0.1527295422981E+01
 0.1518766403166E+01
 0.1511267318250E+01
 0.1504572444874E+01
 0.1498449667973E+01
 0.1492645499580E+01
 0.1486867065315E+01
 0.1480761320263E+01
 0.1473891640652E+01
 0.1465713247367E+01
 0.1455556380664E+01
 0.1442647282448E+01
 0.1426105320906E+01
 0.1404876062913E+01
 0.1377665407929E+01
 0.1342889254331E+01
 0.1298635145499E+01
 0.1242636538445E+01
 0.1172270750293E+01
 0.1084607790090E+01
 0.9765061355055E+00
 0.8448430809831E+00
 0.6870720165706E+00
 0.5020402822836E+00
 0.2909367871674E+00
 0.5807749311389E-01
-0.1882767737364E+00
-0.4361994076210E+00
 0.1865179291364E+01
 0.1833935399182E+01
 0.1800951227443E+01
 0.1767845643723E+01
 0.1736030234332E+01
 0.1706509535239E+01
 0.1679846221988E+01
 0.1656232515638E+01
 0.1635601471590E+01
 0.1617733427822E+01
 0.1602337313603E+01
 0.1589103526274E+01
 0.1577733195565E+01
 0.1567950798866E+01
 0.1559506056635E+01
 0.1552169073554E+01
 0.1545720977500E+01
 0.1539941235650E+01
 0.1534591521651E+01
 0.1529396355292E+01
 0.1524020596081E+01
 0.1518043926162E+01
 0.1510933904768E+01
 0.1502027322544E+01
 0.1490552207524E+01
 0.1475625353925E+01
 0.1456181586815E+01
 0.1430901869587E+01
 0.1398154135792E+01
 0.1355941610316E+01
 0.1301857691617E+01
 0.1233057693207E+01
 0.1146276614701E+01
 0.1037891107149E+01
 0.9041322317866E+00
 0.7416818495927E+00
 0.5486290710718E+00
 0.3256099961232E+00
 0.7705671168767E-01
-0.1884655415329E+00
-0.4553290902430E+00
 0.1920227465825E+01
 0.1886704046528E+01
 0.1851248066516E+01
 0.1815760513221E+01
 0.1781860018972E+01
 0.1750650710183E+01
 0.1722703701892E+01
 0.1698164242923E+01
 0.1676896498248E+01
 0.1658612419811E+01
 0.1642964202529E+01
 0.1629600493960E+01
 0.1618194932767E+01
 0.1608456579715E+01
 0.1600129511063E+01
 0.1592986040368E+01
 0.1586815884571E+01
 0.1581412301161E+01
 0.1576554849293E+01
 0.1571988714067E+01
 0.1567400432446E+01
 0.1562390117431E+01
 0.1556441922044E+01
 0.1548903420665E+01
 0.1539008767360E+01
 0.1525877169985E+01
 0.1508439160644E+01
 0.1485359389340E+01
 0.1454968854592E+01
 0.1415199225723E+01
 0.1363516086722E+01
 0.1296859520458E+01
 0.1211621476480E+01
 0.1103658876653E+01
 0.9684676827974E+00
 0.8018061029239E+00
 0.6007771097112E+00
 0.3652735235894E+00
 0.9946157952374E-01
-0.1867756606221E+00
-0.4804348030589E+00
 0.1975823879571E+01
 0.1939768764534E+01
 0.1901563959782E+01
 0.1863457142959E+01
 0.1827309512200E+01
 0.1794328319653E+01
 0.1765077111989E+01
 0.1739632164029E+01
 0.1717769353442E+01
 0.1699118661586E+01
 0.1683267557925E+01
 0.1669819022944E+01
 0.1658417831946E+01
 0.1648757716715E+01
 0.1640578020855E+01
 0.1633654693044E+01
 0.1627787883092E+01
 0.1622786930234E+01
 0.1618452106392E+01
 0.1614552696418E+01
 0.1610800931395E+01
 0.1606821781657E+01
 0.1602120544122E+01
 0.1596060021437E+01
 0.1587884943304E+01
 0.1576722056562E+01
 0.1561504488675E+01
 0.1540890306771E+01
 0.1513186797877E+01
 0.1476270599422E+01
 0.1427497607551E+01
 0.1363607825921E+01
 0.1280652627557E+01
 0.1173940681160E+01
 0.1038147060974E+01
 0.8679328632264E+00
 0.6591618637038E+00
 0.4106319491160E+00
 0.1261940634929E+00
-0.1839333962112E+00
-0.5043418255481E+00
 0.2032053559998E+01
 0.1993164899650E+01
 0.1951881289385E+01
 0.1910880518977E+01
 0.1872307705324E+01
 0.1837472579481E+01
 0.1806907303064E+01
 0.1780590470515E+01
 0.1758186344935E+01
 0.1739227838574E+01
 0.1723229578798E+01
 0.1709745377482E+01
 0.1698390277394E+01
 0.1688843187291E+01
 0.1680839926954E+01
 0.1674161698315E+01
 0.1668621049167E+01
 0.1664045788242E+01
 0.1660259852762E+01
 0.1657060269119E+01
 0.1654189297253E+01
 0.1651301593171E+01
 0.1647928537365E+01
 0.1643452859822E+01
 0.1637134382218E+01
 0.1628112515437E+01
 0.1615330118873E+01
 0.1597449318342E+01
 0.1572768946646E+01
 0.1539130840614E+01
 0.1493805434184E+01
 0.1433357118985E+01
 0.1353511739864E+01
 0.1249014912047E+01
 0.1113640355570E+01
 0.9407668179066E+00
 0.7246943208471E+00
 0.4627496020016E+00
 0.1579970775938E+00
-0.1786219834302E+00
-0.5287903098863E+00
 0.2089020486146E+01
 0.2046932781321E+01
 0.2002174044943E+01
 0.1957960380174E+01
 0.1916768395648E+01
 0.1880002396851E+01
 0.1848128425783E+01
 0.1820990265962E+01
 0.1798112930757E+01
 0.1778915944929E+01
 0.1762833264520E+01
 0.1749366752557E+01
 0.1738101531431E+01
 0.1728702701436E+01
 0.1720904102016E+01
 0.1714494003545E+01
 0.1709299422608E+01
 0.1705169093691E+01
 0.1701953668788E+01
 0.1699481753230E+01
 0.1697530311000E+01
 0.1695788971768E+01
 0.1693820591035E+01
 0.1691032786401E+01
 0.1686704952965E+01
 0.1679994083571E+01
 0.1669859898182E+01
 0.1654979899599E+01
 0.1633661602820E+01
 0.1603735983425E+01
 0.1562418719433E+01
 0.1506133648448E+01
 0.1430312094962E+01
 0.1329141534187E+01
 0.1195430011614E+01
 0.1021076976361E+01
 0.7984462235984E+00
 0.5228479285586E+00
 0.1960859939051E+00
-0.1701844668285E+00
-0.5540508496868E+00
 0.2146853213868E+01
 0.2101118375426E+01
 0.2052404162918E+01
 0.2004606445578E+01
 0.1960586658186E+01
 0.1921823752021E+01
 0.1888667717553E+01
 0.1860780001008E+01
 0.1837514294129E+01
 0.1818159788552E+01
 0.1802062807520E+01
 0.1788671570858E+01
 0.1777541963857E+01
 0.1768326889268E+01
 0.1760760116150E+01
 0.1754638994733E+01
 0.1749807164079E+01
 0.1746136771534E+01
 0.1743508289434E+01
 0.1741785912881E+01
 0.1740786348534E+01
 0.1740240024754E+01
 0.1739747210630E+01
 0.1738745662837E+01
 0.1736538683161E+01
 0.1732305297157E+01
 0.1725028873748E+01
 0.1713413969485E+01
 0.1695795539242E+01
 0.1670021185375E+01
 0.1633289110047E+01
 0.1581929197116E+01
 0.1511128295049E+01
 0.1414548205614E+01
 0.1283994769277E+01
 0.1109697314972E+01
 0.8816456989499E+00
 0.5924428970747E+00
 0.2419192707986E+00
-0.1577841322360E+00
-0.5804350521976E+00
 0.2205712671613E+01
 0.2155773757906E+01
 0.2102516148164E+01
 0.2050701944287E+01
 0.2003634538892E+01
 0.1962828098311E+01
 0.1928445625470E+01
 0.1899906218577E+01
 0.1876356107619E+01
 0.1856937592172E+01
 0.1840904031040E+01
 0.1827649799778E+01
 0.1816703289872E+01
 0.1807707492716E+01
 0.1800398406869E+01
 0.1794584662091E+01
 0.1790128726111E+01
 0.1786928628281E+01
 0.1784897766115E+01
 0.1783940070481E+01
 0.1783917412844E+01
 0.1784607483873E+01
 0.1785654594991E+01
 0.1786532253936E+01
 0.1786571732999E+01
 0.1784977750383E+01
 0.1780763348695E+01
 0.1772671763791E+01
 0.1759085409568E+01
 0.1737899216694E+01
 0.1706337523258E+01
 0.1660694726070E+01
 0.1595984861708E+01
 0.1505412005267E+01
 0.1379788744857E+01
 0.1207510098069E+01
 0.9757034885438E+00
 0.6733810180179E+00
 0.2973412212400E+00
-0.1403343818998E+00
-0.6082461202903E+00
 0.2265803123559E+01
 0.2210957182986E+01
 0.2152429027318E+01
 0.2096094815580E+01
 0.2045755898963E+01
 0.2002891011179E+01
 0.1967376475148E+01
 0.1938314702847E+01
 0.1914605509027E+01
 0.1895229692518E+01
 0.1879344872193E+01
 0.1866293290307E+01
 0.1855578820247E+01
 0.1846837566866E+01
 0.1839810460159E+01
 0.1834319781615E+01
 0.1830249048579E+01
 0.1827524563067E+01
 0.1826095674991E+01
 0.1825910269737E+01
 0.1826881199258E+01
 0.1828840648466E+01
 0.1831484500622E+01
 0.1834328119658E+01
 0.1836734420473E+01
 0.1837936280479E+01
 0.1836981141376E+01
 0.1832661984423E+01
 0.1823429510660E+01
 0.1807259395218E+01
 0.1781451426176E+01
 0.1742334389230E+01
 0.1684844039348E+01
 0.1601837765795E+01
 0.1483210235662E+01
 0.1315420304813E+01
 0.1082220252040E+01
 0.7679166147259E+00
 0.3647317531228E+00
-0.1163568359266E+00
-0.6378260026830E+00
 0.2327387909402E+01
 0.2266732244738E+01
 0.2202024125011E+01
 0.2140585690387E+01
 0.2086760457488E+01
 0.2041871491106E+01
 0.2005369957154E+01
 0.1975952107033E+01
 0.1952232282387E+01
 0.1933019318941E+01
 0.1917375893732E+01
 0.1904596123256E+01
 0.1894163710666E+01
 0.1885711678571E+01
 0.1878988990403E+01
 0.1873834100283E+01
 0.1870153766890E+01
 0.1867904805335E+01
 0.1867075366698E+01
 0.1867661484524E+01
 0.1869633187673E+01
 0.1872885315160E+01
 0.1877174057790E+01
 0.1882063466201E+01
 0.1886951267007E+01
 0.1891099265863E+01
 0.1893592049951E+01
 0.1893282236062E+01
 0.1888709927271E+01
 0.1877967042859E+01
 0.1858482829496E+01
 0.1826700346387E+01
 0.1777593796247E+01
 0.1703833148549E+01
 0.1594560086199E+01
 0.1434309682106E+01
 0.1202978991478E+01
 0.8788043869468E+00
 0.4472136863790E+00
-0.8378562647685E-01
-0.6695799695620E+00
 0.2390812595377E+01
 0.2323165123007E+01
 0.2251126175568E+01
 0.2183911463730E+01
 0.2126417372703E+01
 0.2079612615678E+01
 0.2042333762691E+01
 0.2012768097834E+01
 0.1989210213959E+01
 0.1970293428535E+01
 0.1954990808740E+01
 0.1942554950962E+01
 0.1932455201112E+01
 0.1924326094604E+01
 0.1917928111895E+01
 0.1913118517636E+01
 0.1909829426178E+01
 0.1908050175569E+01
 0.1907810260836E+01
 0.1909157883889E+01
 0.1912126769627E+01
 0.1916683684370E+01
 0.1922655505575E+01
 0.1929662914760E+01
 0.1937141036449E+01
 0.1944379035804E+01
 0.1950498539906E+01
 0.1954419774910E+01
 0.1954793091964E+01
 0.1949863543765E+01
 0.1937247193010E+01
 0.1913588907793E+01
 0.1874037190086E+01
 0.1811282398313E+01
 0.1713988543614E+01
 0.1564962731213E+01
 0.1339906559370E+01
 0.1009400132537E+01
 0.5489419539203E+00
-0.3965946508698E-01
-0.7039965927924E+00
 0.2456540017998E+01
 0.2380317876478E+01
 0.2299473568814E+01
 0.2225722971211E+01
 0.2164449359286E+01
 0.2115944664925E+01
 0.2078177697332E+01
 0.2048717973374E+01
 0.2025518573886E+01
 0.2007043579986E+01
 0.1992187010507E+01
 0.1980169333666E+01
 0.1970452849379E+01
 0.1962678966148E+01
 0.1956623510357E+01
 0.1952165273029E+01
 0.1949263711834E+01
 0.1947942383469E+01
 0.1948274210300E+01
 0.1950363192355E+01
 0.1954313452059E+01
 0.1960174263704E+01
 0.1967855832357E+01
 0.1977045161661E+01
 0.1987216764031E+01
 0.1997682427678E+01
 0.2007596719001E+01
 0.2015952640212E+01
 0.2021530828563E+01
 0.2022767108177E+01
 0.2017523478840E+01
 0.2002738532666E+01
 0.1973884580569E+01
 0.1923922089881E+01
 0.1841432850863E+01
 0.1707955479490E+01
 0.1494978067815E+01
 0.1163750586818E+01
 0.6755111336521E+00
 0.2038154610123E-01
-0.7416467480152E+00
 0.2525205189014E+01
 0.2438233543424E+01
 0.2346670413805E+01
 0.2265555214162E+01
 0.2200529707752E+01
 0.2150692353498E+01
 0.2112819394841E+01
 0.2083765560157E+01
 0.2061143650254E+01
 0.2043266812370E+01
 0.2028966080941E+01
 0.2017442053061E+01
 0.2008158745085E+01
 0.2000770497294E+01
 0.1995072602325E+01
 0.1990968125375E+01
 0.1988445681309E+01
 0.1987564349306E+01
 0.1988441932096E+01
 0.1991241163074E+01
 0.1996143163664E+01
 0.2003291762591E+01
 0.2012696259102E+01
 0.2024122439808E+01
 0.2037085713817E+01
 0.2050911482589E+01
 0.2064777622067E+01
 0.2077751186594E+01
 0.2088761865271E+01
 0.2096474222822E+01
 0.2099055462869E+01
 0.2093830020532E+01
 0.2076749802186E+01
 0.2041323361032E+01
 0.1976553132457E+01
 0.1863500548201E+01
 0.1670022491541E+01
 0.1346626639310E+01
 0.8345248281530E+00
 0.1029448240808E+00
-0.7831216110367E+00
 0.2597705064751E+01
 0.2496903873849E+01
 0.2392107311861E+01
 0.2302789574363E+01
 0.2234287350273E+01
 0.2183688138735E+01
 0.2146191176764E+01
 0.2117886074661E+01
 0.2096080298408E+01
 0.2078966494127E+01
 0.2065334257598E+01
 0.2054379397905E+01
 0.2045577702673E+01
 0.2038603098821E+01
 0.2033274684869E+01
 0.2029522527672E+01
 0.2027365997354E+01
 0.2026900547019E+01
 0.2028289515380E+01
 0.2031756209836E+01
 0.2037564736745E+01
 0.2045967013496E+01
 0.2057091511521E+01
 0.2070799682324E+01
 0.2086649212988E+01
 0.2103964310622E+01
 0.2121928884109E+01
 0.2139680089134E+01
 0.2156313840905E+01
 0.2170761743403E+01
 0.2181554382038E+01
 0.2186489306639E+01
 0.2182150776544E+01
 0.2162884891242E+01
 0.2118682308331E+01
 0.2031255033939E+01
 0.1866369814248E+01
 0.1563396386272E+01
 0.1036365383396E+01
 0.2183577317385E+00
-0.8287998209533E+00
 0.2675353531405E+01
 0.2556198622033E+01
 0.2434826665537E+01
 0.2336612091537E+01
 0.2265330282442E+01
 0.2214792681176E+01
 0.2178246476773E+01
 0.2151068742798E+01
 0.2130333506567E+01
 0.2114153067496E+01
 0.2101302840271E+01
 0.2090991410074E+01
 0.2082717424155E+01
 0.2076181521260E+01
 0.2071231069652E+01
 0.2067825789721E+01
 0.2066017152387E+01
 0.2065937350473E+01
 0.2067794993712E+01
 0.2071874236123E+01
 0.2078526664022E+01
 0.2088126976517E+01
 0.2100948787476E+01
 0.2116973210966E+01
 0.2135802261931E+01
 0.2156736149419E+01
 0.2178936886303E+01
 0.2201600885982E+01
 0.2224005798918E+01
 0.2245389486100E+01
 0.2264702699896E+01
 0.2280293389595E+01
 0.2289514673791E+01
 0.2287836752100E+01
 0.2266812431430E+01
 0.2210131701902E+01
 0.2084273189916E+01
 0.1819515965193E+01
 0.1295145058935E+01
 0.3832894904203E+00
-0.8781553458006E+00
 0.2760168833284E+01
 0.2615703935626E+01
 0.2473287236549E+01
 0.2365988251219E+01
 0.2293305479535E+01
 0.2243918572120E+01
 0.2208963213901E+01
 0.2183319682629E+01
 0.2163919823015E+01
 0.2148844591595E+01
 0.2136888537037E+01
 0.2127292063509E+01
 0.2119588618088E+01
 0.2113512953143E+01
 0.2108945186625E+01
 0.2105877213189E+01
 0.2104393664698E+01
 0.2104663347946E+01
 0.2106938932420E+01
 0.2111563677136E+01
 0.2118978278073E+01
 0.2129694944622E+01
 0.2144166276101E+01
 0.2162528647887E+01
 0.2184432757021E+01
 0.2209120648497E+01
 0.2235689473587E+01
 0.2263375136377E+01
 0.2291651118142E+01
 0.2320103154688E+01
 0.2348158356693E+01
 0.2374779426084E+01
 0.2398189846938E+01
 0.2415247877721E+01
 0.2419629963282E+01
 0.2398219574990E+01
 0.2322096739952E+01
 0.2119190385752E+01
 0.1629588121039E+01
 0.6255328274308E+00
-0.9278371411433E+00
 0.2855460503574E+01
 0.2674324156172E+01
 0.2504946129506E+01
 0.2389727897716E+01
 0.2318016446588E+01
 0.2271039093680E+01
 0.2238344450632E+01
 0.2214666304212E+01
 0.2196867833668E+01
 0.2183067249456E+01
 0.2172113715588E+01
 0.2163299366738E+01
 0.2156205086064E+01
 0.2150607087283E+01
 0.2146422666374E+01
 0.2143678205435E+01
 0.2142492255017E+01
 0.2143069619716E+01
 0.2145704972988E+01
 0.2150796750071E+01
 0.2158871622528E+01
 0.2170591265795E+01
 0.2186631074501E+01
 0.2207337592967E+01
 0.2232420149790E+01
 0.2261011545425E+01
 0.2292079428025E+01
 0.2324868405841E+01
 0.2359060937591E+01
 0.2394637371959E+01
 0.2431559324427E+01
 0.2469454535462E+01
 0.2507470623448E+01
 0.2544034527621E+01
 0.2575555902470E+01
 0.2592987347476E+01
 0.2575534768503E+01
 0.2462412022771E+01
 0.2062791010628E+01
 0.9929163043388E+00
-0.9664580963403E+00
 0.2967195867418E+01
 0.2729179419643E+01
 0.2525548654695E+01
 0.2406875464544E+01
 0.2339567836625E+01
 0.2296144241989E+01
 0.2266433225190E+01
 0.2245159268959E+01
 0.2229217515848E+01
 0.2216856290226E+01
 0.2207006251209E+01
 0.2199035499335E+01
 0.2192583725305E+01
 0.2187476162371E+01
 0.2183671390591E+01
 0.2181232364301E+01
 0.2180311992087E+01
 0.2181149978219E+01
 0.2184080227612E+01
 0.2189550730861E+01
 0.2198164354717E+01
 0.2210735254152E+01
 0.2228216254007E+01
 0.2251252166489E+01
 0.2279633286678E+01
 0.2312305018490E+01
 0.2348008952390E+01
 0.2385955036620E+01
 0.2426048759125E+01
 0.2468717464231E+01
 0.2514529365612E+01
 0.2563803485914E+01
 0.2616628243581E+01
 0.2673016361261E+01
 0.2732663175861E+01
 0.2791770982908E+01
 0.2837962349425E+01
 0.2839458142920E+01
 0.2617250909549E+01
 0.1569897343106E+01
-0.9597640376653E+00
 0.3107804701883E+01
 0.2771987061145E+01
 0.2528336679183E+01
 0.2418050893686E+01
 0.2358183014813E+01
 0.2319193835218E+01
 0.2293365138644E+01
 0.2274850748730E+01
 0.2261028497502E+01
 0.2250253553580E+01
 0.2241600266879E+01
 0.2234526583795E+01
 0.2228744578132E+01
 0.2224134958031E+01
 0.2220701533192E+01
 0.2218545550859E+01
 0.2217854404755E+01
 0.2218901216809E+01
 0.2222055530807E+01
 0.2227808734788E+01
 0.2236823955498E+01
 0.2250049968584E+01
 0.2268776778646E+01
 0.2294095580140E+01
 0.2325927294044E+01
 0.2362903448752E+01
 0.2403395360260E+01
 0.2446524068076E+01
 0.2492435559934E+01
 0.2542064307707E+01
 0.2596671062419E+01
 0.2657323573450E+01
 0.2724882201935E+01
 0.2801111617793E+01
 0.2888547320338E+01
 0.2991579359863E+01
 0.3104076176061E+01
 0.3225106552871E+01
 0.3292700816294E+01
 0.2508014403717E+01
-0.8084468903667E+00
 0.3309667575491E+01
 0.2774014038459E+01
 0.2507371344640E+01
 0.2427924470799E+01
 0.2372490098526E+01
 0.2340821874956E+01
 0.2319135682840E+01
 0.2303863921769E+01
 0.2292360347263E+01
 0.2283312560455E+01
 0.2275934595563E+01
 0.2269802939588E+01
 0.2264710670601E+01
 0.2260600779882E+01
 0.2257525550094E+01
 0.2255625921595E+01
 0.2255123553471E+01
 0.2256323205345E+01
 0.2259625942097E+01
 0.2265559035990E+01
 0.2274832031284E+01
 0.2288474346935E+01
 0.2308143955648E+01
 0.2335643919765E+01
 0.2371140501726E+01
 0.2412721523800E+01
 0.2458178334153E+01
 0.2506485421051E+01
 0.2558057589516E+01
 0.2614396524814E+01
 0.2677571452627E+01
 0.2749482128839E+01
 0.2831625413900E+01
 0.2926812674104E+01
 0.3042147998769E+01
 0.3184962491882E+01
 0.3376934563765E+01
 0.3587798203137E+01
 0.4003612042132E+01
 0.4042066296037E+01
-0.1670242318986E+00
 0.3690635153744E+01
 0.2601296478109E+01
 0.2511166455337E+01
 0.2424377526445E+01
 0.2386034345596E+01
 0.2360497345403E+01
 0.2344088023526E+01
 0.2332265719539E+01
 0.2323303973932E+01
 0.2316090039699E+01
 0.2310054500835E+01
 0.2304898386025E+01
 0.2300508002498E+01
 0.2296893352794E+01
 0.2294158111689E+01
 0.2292483961102E+01
 0.2292125979872E+01
 0.2293419021328E+01
 0.2296790713462E+01
 0.2302796336878E+01
 0.2312177535245E+01
 0.2325997271888E+01
 0.2346119928175E+01
 0.2375582449462E+01
 0.2415101418127E+01
 0.2461692932085E+01
 0.2512328988600E+01
 0.2565779152133E+01
 0.2622767818722E+01
 0.2685453614646E+01
 0.2756766016053E+01
 0.2839767974969E+01
 0.2936214359514E+01
 0.3049423841182E+01
 0.3189448629123E+01
 0.3375469145111E+01
 0.3620290866685E+01
 0.4016160018290E+01
 0.4392618248435E+01
 0.6454753759926E+01
 0.1836964810147E+01
 0.3358599923701E+00
 0.3387001685355E+00
 0.3382460254393E+00
 0.3379238917735E+00
 0.3372546188976E+00
 0.3363987642465E+00
 0.3351164435294E+00
 0.3335263401325E+00
 0.3316788573205E+00
 0.3296018911680E+00
 0.3273641652693E+00
 0.3249910607281E+00
 0.3224572339454E+00
 0.3196576960125E+00
 0.3164409632152E+00
 0.3126046111324E+00
 0.3083228785941E+00
 0.3039255953926E+00
 0.2976154641595E+00
 0.3048483820126E+00
 0.3856033035685E+00
 0.3826473997995E+00
 0.3805217825476E+00
 0.3778754301793E+00
 0.3752162929857E+00
 0.3724129945924E+00
 0.3694510003707E+00
 0.3662900906529E+00
 0.3629667487854E+00
 0.3595252217457E+00
 0.3560127622588E+00
 0.3524578263899E+00
 0.3488322353004E+00
 0.3450484710678E+00
 0.3409747640467E+00
 0.3365384622414E+00
 0.3318567877782E+00
 0.3267670147947E+00
 0.3240606787912E+00
 0.3184597449024E+00
 0.4328491515283E+00
 0.4273418975847E+00
 0.4223655833010E+00
 0.4176557659010E+00
 0.4129546415213E+00
 0.4082994675801E+00
 0.4036215840837E+00
 0.3988938545001E+00
 0.3941184864752E+00
 0.3893310227290E+00
 0.3845751276584E+00
 0.3798744509452E+00
 0.3752068044609E+00
 0.3704981627932E+00
 0.3656551593603E+00
 0.3606336410474E+00
 0.3554220613112E+00
 0.3504744301309E+00
 0.3449590352868E+00
 0.3374067772994E+00
 0.4795739982993E+00
 0.4714900735308E+00
 0.4641268437004E+00
 0.4571802465112E+00
 0.4505029807536E+00
 0.4440004872167E+00
 0.4376261830367E+00
 0.4313362852020E+00
 0.4251247922589E+00
 0.4190148477295E+00
 0.4130440269105E+00
 0.4072349362207E+00
 0.4015703223728E+00
 0.3959905510916E+00
 0.3904202105201E+00
 0.3847912953758E+00
 0.3791361955100E+00
 0.3732247283245E+00
 0.3665368941583E+00
 0.3579468777654E+00
 0.5257877391344E+00
 0.5152768480554E+00
 0.5055911797185E+00
 0.4964955830025E+00
 0.4878323163053E+00
 0.4795071102362E+00
 0.4714481646684E+00
 0.4636104864245E+00
 0.4559786676337E+00
 0.4485682563174E+00
 0.4414108295865E+00
 0.4345278232701E+00
 0.4279063177103E+00
 0.4214948668057E+00
 0.4152161463212E+00
 0.4089952683507E+00
 0.4027048034379E+00
 0.3960751447592E+00
 0.3886003702393E+00
 0.3794984520358E+00
 0.5715658643529E+00
 0.5586938346137E+00
 0.5467609990574E+00
 0.5355571595094E+00
 0.5249385769411E+00
 0.5148037712900E+00
 0.5050768583960E+00
 0.4957060624895E+00
 0.4866712016486E+00
 0.4779815295417E+00
 0.4696639140524E+00
 0.4617381926183E+00
 0.4541934942944E+00
 0.4469796013756E+00
 0.4400151002471E+00
 0.4331843014991E+00
 0.4263159000632E+00
 0.4191172153087E+00
 0.4111561344355E+00
 0.4018023655289E+00
 0.6169316425562E+00
 0.6017533148495E+00
 0.5876230532165E+00
 0.5743520107939E+00
 0.5618043679279E+00
 0.5498798725528E+00
 0.5385005308237E+00
 0.5276125019628E+00
 0.5171916921271E+00
 0.5072430513971E+00
 0.4977893998591E+00
 0.4888485252930E+00
 0.4804092030363E+00
 0.4724201709810E+00
 0.4647896804800E+00
 0.4573840448576E+00
 0.4500123619213E+00
 0.4423948085582E+00
 0.4341461162418E+00
 0.4247307955670E+00
 0.6618996818534E+00
 0.6444583508217E+00
 0.6281721785031E+00
 0.6128680165974E+00
 0.5984176195420E+00
 0.5847232383338E+00
 0.5717081695396E+00
 0.5593184773768E+00
 0.5475283227565E+00
 0.5363395571704E+00
 0.5257716600112E+00
 0.5158399698721E+00
 0.5065320170787E+00
 0.4977942434844E+00
 0.4895299732364E+00
 0.4815986520458E+00
 0.4738089230702E+00
 0.4658985342131E+00
 0.4575207678758E+00
 0.4482125657866E+00
 0.7064772090883E+00
 0.6868100659686E+00
 0.6684033556108E+00
 0.6510964206248E+00
 0.6347676133961E+00
 0.6193229238410E+00
 0.6046885463587E+00
 0.5908123523572E+00
 0.5776683674355E+00
 0.5652566343764E+00
 0.5535939337098E+00
 0.5426933152379E+00
 0.5325410651119E+00
 0.5230831264120E+00
 0.5142226908831E+00
 0.5058212728125E+00
 0.4976954424545E+00
 0.4896033301415E+00
 0.4812331013173E+00
 0.4721832735554E+00
 0.7506671563543E+00
 0.7288075417975E+00
 0.7083119520520E+00
 0.6890296531691E+00
 0.6708450667604E+00
 0.6536686135019E+00
 0.6374306047753E+00
 0.6220820944609E+00
 0.6075984175582E+00
 0.5939789812952E+00
 0.5812387019819E+00
 0.5693889405757E+00
 0.5584157851365E+00
 0.5482670006535E+00
 0.5388500041130E+00
 0.5300339612527E+00
 0.5216485575500E+00
 0.5134743843439E+00
 0.5052332611529E+00
 0.4965784280155E+00
 0.7944695254957E+00
 0.7704486521238E+00
 0.7478934292017E+00
 0.7266610494599E+00
 0.7066416522719E+00
 0.6877506821661E+00
 0.6699235058539E+00
 0.6531155120641E+00
 0.6373045980788E+00
 0.6224906953817E+00
 0.6086878468260E+00
 0.5959067379918E+00
 0.5841347100402E+00
 0.5733237315611E+00
 0.5633888111843E+00
 0.5542106476977E+00
 0.5456355842268E+00
 0.5374688348596E+00
 0.5294669055008E+00
 0.5213305465565E+00
 0.8378822184609E+00
 0.8117304237640E+00
 0.7871433316296E+00
 0.7639845401745E+00
 0.7421497604968E+00
 0.7215600363113E+00
 0.7021566392293E+00
 0.6839003177507E+00
 0.6667726888476E+00
 0.6507753630700E+00
 0.6359226369307E+00
 0.6222257466356E+00
 0.6096748677068E+00
 0.5982282983903E+00
 0.5878112597651E+00
 0.5783187877639E+00
 0.5696165417737E+00
 0.5615364702785E+00
 0.5538716913671E+00
 0.5463712068184E+00
 0.8809017474356E+00
 0.8526494201792E+00
 0.8260573910094E+00
 0.8009946019180E+00
 0.7773624060791E+00
 0.7550880852955E+00
 0.7341196622756E+00
 0.7144242317594E+00
 0.6959882424228E+00
 0.6788161466785E+00
 0.6629236930210E+00
 0.6483239757098E+00
 0.6350115406622E+00
 0.6229528447267E+00
 0.6120853676769E+00
 0.6023205842239E+00
 0.5935454841456E+00
 0.5856204787641E+00
 0.5783771849051E+00
 0.5716188037843E+00
 0.9235238586097E+00
 0.8932021197784E+00
 0.8646317071074E+00
 0.8376863066824E+00
 0.8122732313383E+00
 0.7883267543284E+00
 0.7658025514575E+00
 0.7446750629035E+00
 0.7249366706933E+00
 0.7065958342872E+00
 0.6896709724823E+00
 0.6741783359898E+00
 0.6601182601694E+00
 0.6474669033876E+00
 0.6361756111550E+00
 0.6261738789692E+00
 0.6173715033889E+00
 0.6096585122654E+00
 0.6029062553178E+00
 0.5969733620146E+00
 0.9657440205923E+00
 0.9333852195834E+00
 0.9028628949542E+00
 0.8740553690805E+00
 0.8468765069691E+00
 0.8212684815877E+00
 0.7971956166922E+00
 0.7746407417742E+00
 0.7536032810701E+00
 0.7340968600544E+00
 0.7161437680156E+00
 0.6997646514855E+00
 0.6849669088465E+00
 0.6717376852516E+00
 0.6600434427049E+00
 0.6498328573624E+00
 0.6410395056380E+00
 0.6335835645640E+00
 0.6273756474052E+00
 0.6223266475599E+00
 0.1007557993994E+01
 0.9731960122177E+00
 0.9407483286378E+00
 0.9100982947596E+00
 0.8811672274362E+00
 0.8539062923721E+00
 0.8282895737394E+00
 0.8043093969222E+00
 0.7819733525108E+00
 0.7613013756726E+00
 0.7423207839396E+00
 0.7250577734965E+00
 0.7095279262568E+00
 0.6957304263491E+00
 0.6836477970673E+00
 0.6732486776960E+00
 0.6644909183667E+00
 0.6573246381430E+00
 0.6516979366614E+00
 0.6475688064867E+00
 0.1048962314682E+01
 0.1012632724579E+01
 0.9782863559745E+00
 0.9458125123725E+00
 0.9151411926406E+00
 0.8862338567195E+00
 0.8590755950762E+00
 0.8336694079345E+00
 0.8100321941341E+00
 0.7881913194082E+00
 0.7681802299913E+00
 0.7500317270606E+00
 0.7337705437026E+00
 0.7194087405656E+00
 0.7069455704836E+00
 0.6963700710543E+00
 0.6876643955112E+00
 0.6808077818140E+00
 0.6757833762228E+00
 0.6725908835845E+00
 0.1089954824983E+01
 0.1051694886092E+01
 0.1015476551209E+01
 0.9811965423430E+00
 0.9487951229682E+00
 0.9182455737556E+00
 0.8895453806290E+00
 0.8627094741914E+00
 0.8377652206176E+00
 0.8147485082236E+00
 0.7936999462338E+00
 0.7746598917483E+00
 0.7576630467756E+00
 0.7427349849567E+00
 0.7298921014476E+00
 0.7191439498206E+00
 0.7104966222246E+00
 0.7039572297514E+00
 0.6995412923905E+00
 0.6972855123461E+00
 0.1130535207160E+01
 0.1090383716080E+01
 0.1052319986429E+01
 0.1016250185404E+01
 0.9821267920381E+00
 0.9499366706529E+00
 0.9196912401289E+00
 0.8914186942918E+00
 0.8651580404794E+00
 0.8409547476347E+00
 0.8188575505594E+00
 0.7989152064625E+00
 0.7811730582775E+00
 0.7656706395196E+00
 0.7524416653746E+00
 0.7415160419375E+00
 0.7329231421880E+00
 0.7266964596629E+00
 0.7228811642390E+00
 0.7215468030988E+00
 0.1170705500015E+01
 0.1128702495551E+01
 0.1088819490787E+01
 0.1050974700724E+01
 0.1015135150325E+01
 0.9813032929766E+00
 0.9495061676026E+00
 0.9197866394687E+00
 0.8921965417992E+00
 0.8667919434203E+00
 0.8436305917627E+00
 0.8227703811702E+00
 0.8042678267548E+00
 0.7881766914186E+00
 0.7745479735987E+00
 0.7634315316344E+00
 0.7548791268179E+00
 0.7489490744911E+00
 0.7457134867554E+00
 0.7452704588878E+00
 0.1210470649427E+01
 0.1166656967219E+01
 0.1124979935508E+01
 0.1085373006765E+01
 0.1047820468370E+01
 0.1012342611785E+01
 0.9789839304020E+00
 0.9478034404002E+00
 0.9188669913115E+00
 0.8922422271850E+00
 0.8679967163698E+00
 0.8461981207210E+00
 0.8269145241403E+00
 0.8102140239154E+00
 0.7961646748273E+00
 0.7848356799865E+00
 0.7763001290029E+00
 0.7706394602918E+00
 0.7679504717376E+00
 0.7683552679994E+00
 0.1249839059537E+01
 0.1204255736548E+01
 0.1160808517730E+01
 0.1119449879928E+01
 0.1080184477066E+01
 0.1043052927423E+01
 0.1008119155018E+01
 0.9754598715183E+00
 0.9451561322089E+00
 0.9172880818098E+00
 0.8919338356730E+00
 0.8691713477338E+00
 0.8490805392535E+00
 0.8317437970460E+00
 0.8172458366441E+00
 0.8056744292906E+00
 0.7971227655481E+00
 0.7916936986615E+00
 0.7895062935203E+00
 0.7907058225130E+00
 0.1288823149841E+01
 0.1241510674902E+01
 0.1196315043682E+01
 0.1153212150645E+01
 0.1112230504439E+01
 0.1073433769314E+01
 0.1036907408861E+01
 0.1002747431732E+01
 0.9710512790945E+00
 0.9419124645509E+00
 0.9154202899852E+00
 0.8916634205045E+00
 0.8707337620880E+00
 0.8527278105709E+00
 0.8377464027178E+00
 0.8258949544870E+00
 0.8172854231175E+00
 0.8120402473190E+00
 0.8102987539579E+00
 0.8122273539079E+00
 0.1327439929888E+01
 0.1278437332724E+01
 0.1231512216800E+01
 0.1186668901568E+01
 0.1143963612476E+01
 0.1103485994464E+01
 0.1065345279860E+01
 0.1029658422570E+01
 0.9965404102409E+00
 0.9660989271148E+00
 0.9384350085447E+00
 0.9136483434138E+00
 0.8918428542333E+00
 0.8731288443880E+00
 0.8576226100199E+00
 0.8454461766939E+00
 0.8367288267648E+00
 0.8316107272270E+00
 0.8302491538392E+00
 0.8328287328053E+00
 0.1365711590215E+01
 0.1315055358183E+01
 0.1266415927337E+01
 0.1219831663273E+01
 0.1175390729691E+01
 0.1133211880307E+01
 0.1093430449463E+01
 0.1056186019257E+01
 0.1021612252643E+01
 0.9898317282441E+00
 0.9609576607257E+00
 0.9351009653082E+00
 0.9123775008686E+00
 0.8929109684898E+00
 0.8768323641334E+00
 0.8642792011445E+00
 0.8553965730230E+00
 0.8503403739233E+00
 0.8492831717477E+00
 0.8524242940760E+00
 0.1403666063693E+01
 0.1351388892073E+01
 0.1301045510453E+01
 0.1252714578801E+01
 0.1206520753112E+01
 0.1162615188197E+01
 0.1121161737505E+01
 0.1082324315221E+01
 0.1046256342368E+01
 0.1013095923376E+01
 0.9829687851984E+00
 0.9559971546109E+00
 0.9323086342010E+00
 0.9120398145770E+00
 0.8953355565664E+00
 0.8823476905592E+00
 0.8732355540559E+00
 0.8681686312950E+00
 0.8673318100194E+00
 0.8709349363291E+00
 0.1441337670487E+01
 0.1387467006008E+01
 0.1335424042710E+01
 0.1285334597797E+01
 0.1237364674763E+01
 0.1191701246274E+01
 0.1148539161649E+01
 0.1108068377037E+01
 0.1070463092158E+01
 0.1035877459126E+01
 0.1004449921561E+01
 0.9763139731782E+00
 0.9516086486610E+00
 0.9304828260338E+00
 0.9130943420961E+00
 0.8996081664013E+00
 0.8901963318494E+00
 0.8850397100665E+00
 0.8843322298775E+00
 0.8882892225035E+00
 0.1478767687946E+01
 0.1423324086824E+01
 0.1369578573501E+01
 0.1317711607483E+01
 0.1267935647331E+01
 0.1220476974011E+01
 0.1175563940435E+01
 0.1133414245253E+01
 0.1094223807975E+01
 0.1058163220718E+01
 0.1025383699412E+01
 0.9960298111525E+00
 0.9702515770706E+00
 0.9482094624739E+00
 0.9300733540610E+00
 0.9160202240059E+00
 0.9062333770663E+00
 0.9009029909210E+00
 0.9002285089136E+00
 0.9044246485779E+00
 0.1516004972222E+01
 0.1459000232477E+01
 0.1403540364021E+01
 0.1349868567195E+01
 0.1298249052545E+01
 0.1248950907447E+01
 0.1202238493824E+01
 0.1158358929619E+01
 0.1117530698055E+01
 0.1079941071947E+01
 0.1045753922061E+01
 0.1015124519491E+01
 0.9882132652900E+00
 0.9651913970686E+00
 0.9462398953576E+00
 0.9315466928669E+00
 0.9213051789160E+00
 0.9157131373983E+00
 0.9149723075601E+00
 0.9192894607377E+00
 0.1553106596702E+01
 0.1494541651160E+01
 0.1437345117020E+01
 0.1381831629112E+01
 0.1328322554232E+01
 0.1277133205862E+01
 0.1228566420389E+01
 0.1182900376156E+01
 0.1140376850641E+01
 0.1101199863720E+01
 0.1065545622904E+01
 0.1033579522759E+01
 0.1005471534730E+01
 0.9814027018962E+00
 0.9615641047954E+00
 0.9461537320024E+00
 0.9353742541025E+00
 0.9294299311522E+00
 0.9285227572612E+00
 0.9328458124232E+00
 0.1590138404335E+01
 0.1530000977010E+01
 0.1471033113205E+01
 0.1413630172752E+01
 0.1358176072445E+01
 0.1305035584403E+01
 0.1254552401058E+01
 0.1207037360279E+01
 0.1162756137827E+01
 0.1121929372108E+01
 0.1084745060534E+01
 0.1051377886821E+01
 0.1022006319240E+01
 0.9968200216288E+00
 0.9760191021894E+00
 0.9598108758657E+00
 0.9484070128479E+00
 0.9420181093417E+00
 0.9408457834956E+00
 0.9450705745183E+00
 0.1627175692238E+01
 0.1565437644867E+01
 0.1504649402917E+01
 0.1445296884622E+01
 0.1387831801733E+01
 0.1332671282312E+01
 0.1280202126621E+01
 0.1230769388439E+01
 0.1184663114720E+01
 0.1142120222469E+01
 0.1103339700034E+01
 0.1068504386015E+01
 0.1037799826233E+01
 0.1011422795930E+01
 0.9895811866552E+00
 0.9724910696834E+00
 0.9603735495525E+00
 0.9534467108095E+00
 0.9519138809376E+00
 0.9559482109603E+00
 0.1664303701359E+01
 0.1600918129382E+01
 0.1538243839279E+01
 0.1476867703745E+01
 0.1417314108871E+01
 0.1360054928097E+01
 0.1305522121498E+01
 0.1254096496550E+01
 0.1206092810123E+01
 0.1161763705348E+01
 0.1121318094049E+01
 0.1084945494900E+01
 0.1052836671733E+01
 0.1025193513790E+01
 0.1002230104370E+01
 0.9841707515846E+00
 0.9712472274146E+00
 0.9636879689585E+00
 0.9617024749170E+00
 0.9654648123038E+00
 0.1701618239532E+01
 0.1636516186972E+01
 0.1571871143885E+01
 0.1508381768335E+01
 0.1446649470831E+01
 0.1387202422149E+01
 0.1330519587508E+01
 0.1277019031601E+01
 0.1227040483708E+01
 0.1180851534544E+01
 0.1138669694057E+01
 0.1100689321035E+01
 0.1067103998572E+01
 0.1038118052780E+01
 0.1013949475801E+01
 0.9948301031078E+00
 0.9810043255984E+00
 0.9727155694833E+00
 0.9701863168719E+00
 0.9736010026399E+00
 0.1739226107761E+01
 0.1672313077855E+01
 0.1605590762251E+01
 0.1539881320117E+01
 0.1475866267393E+01
 0.1414130810676E+01
 0.1355202148130E+01
 0.1299537365158E+01
 0.1247501260653E+01
 0.1199375484347E+01
 0.1155384526687E+01
 0.1115725386811E+01
 0.1080591514315E+01
 0.1050186037985E+01
 0.1024727516854E+01
 0.1004453606203E+01
 0.9896240005981E+00
 0.9805033364954E+00
 0.9773364405477E+00
 0.9803320331051E+00
 0.1777245831963E+01
 0.1708397316560E+01
 0.1639467008397E+01
 0.1571411088515E+01
 0.1504994851954E+01
 0.1440857938696E+01
 0.1379577723574E+01
 0.1321651462632E+01
 0.1267469704472E+01
 0.1217326896432E+01
 0.1171452739822E+01
 0.1130044272424E+01
 0.1093291266333E+01
 0.1061391268890E+01
 0.1034557941524E+01
 0.1013031597877E+01
 0.9970885705547E+00
 0.9870247590855E+00
 0.9831180251730E+00
 0.9856208089577E+00
 0.1815806780557E+01
 0.1744866722785E+01
 0.1673566678659E+01
 0.1603019562126E+01
 0.1534066078942E+01
 0.1467403258426E+01
 0.1403653896041E+01
 0.1343360621626E+01
 0.1286939201356E+01
 0.1234696109043E+01
 0.1186863996896E+01
 0.1143637090819E+01
 0.1105197302961E+01
 0.1071731252453E+01
 0.1043441891540E+01
 0.1020562072151E+01
 0.1003386976980E+01
 0.9922505664707E+00
 0.9874898674247E+00
 0.9894087985518E+00
 0.1855059760394E+01
 0.1781817582501E+01
 0.1707969206215E+01
 0.1634748859860E+01
 0.1563117334000E+01
 0.1493784913789E+01
 0.1427438968691E+01
 0.1364662564080E+01
 0.1305901110682E+01
 0.1251471811229E+01
 0.1201606870540E+01
 0.1156494449632E+01
 0.1116305202975E+01
 0.1081207151812E+01
 0.1051385127172E+01
 0.1027060179465E+01
 0.1008515682310E+01
 0.9961562807165E+00
 0.9903868075794E+00
 0.9916237571958E+00
 0.1895121658350E+01
 0.1819416873565E+01
 0.1742697037937E+01
 0.1666678239459E+01
 0.1592170221464E+01
 0.1520028324776E+01
 0.1450940921258E+01
 0.1385551841388E+01
 0.1324343482064E+01
 0.1267640320911E+01
 0.1215668503553E+01
 0.1168605534265E+01
 0.1126608958759E+01
 0.1089825705193E+01
 0.1058399275213E+01
 0.1032537771210E+01
 0.1012535009295E+01
 0.9986954791451E+00
 0.9917337267668E+00
 0.9921075758226E+00
 0.1936603901368E+01
 0.1857404039129E+01
 0.1778050488424E+01
 0.1698763185137E+01
 0.1621275867450E+01
 0.1546167430402E+01
 0.1474166064167E+01
 0.1406016344005E+01
 0.1342248708540E+01
 0.1283186556930E+01
 0.1229034044122E+01
 0.1179957884118E+01
 0.1136099626604E+01
 0.1097586158491E+01
 0.1064525192685E+01
 0.1037004895347E+01
 0.1015430185209E+01
 0.1000173791084E+01
 0.9911415745942E+00
 0.9905864647475E+00
-0.7651248733517E+00
-0.4459331773494E+00
-0.4974070280570E+00
-0.4997123064406E+00
-0.4651958648789E+00
-0.3911055241090E+00
-0.3212614346375E+00
-0.2750233967165E+00
-0.2426032232898E+00
-0.2148167829727E+00
-0.1883108763619E+00
-0.1629806791878E+00
-0.1384399657869E+00
-0.1141432591461E+00
-0.9069489386886E-01
-0.6906746900323E-01
-0.4686015326334E-01
-0.2598489931105E-01
-0.1316657278913E-01
-0.1095338549717E-01
-0.6331714259285E+00
-0.4908657236768E+00
-0.4428818125071E+00
-0.4468100079740E+00
-0.4216130799434E+00
-0.3746869070257E+00
-0.3185947342235E+00
-0.2692584417827E+00
-0.2330454575379E+00
-0.2047349884664E+00
-0.1795927882723E+00
-0.1558671360062E+00
-0.1331476985459E+00
-0.1113125702416E+00
-0.9041823341455E-01
-0.7045051693305E-01
-0.5168693725038E-01
-0.3475383719313E-01
-0.2288911442523E-01
-0.1930203842195E-01
-0.5713661294576E+00
-0.4599397871820E+00
-0.4176110021060E+00
-0.3992310299429E+00
-0.3816135124476E+00
-0.3491291741727E+00
-0.3059179606673E+00
-0.2611706930541E+00
-0.2237960997037E+00
-0.1944709303668E+00
-0.1698099942103E+00
-0.1474603849023E+00
-0.1265235989080E+00
-0.1067834539208E+00
-0.8812563854796E-01
-0.7061646770052E-01
-0.5452850522940E-01
-0.4052249881639E-01
-0.3031825115322E-01
-0.2659868011538E-01
-0.5154927579155E+00
-0.4231911668485E+00
-0.3834265381242E+00
-0.3613517831707E+00
-0.3431822468360E+00
-0.3198905055625E+00
-0.2865465426088E+00
-0.2483184346991E+00
-0.2129043748441E+00
-0.1835311110028E+00
-0.1591326939855E+00
-0.1378037893803E+00
-0.1184202292518E+00
-0.1005564281486E+00
-0.8402990699204E-01
-0.6884743058604E-01
-0.5526265291012E-01
-0.4383244535000E-01
-0.3548538067788E-01
-0.3234800390046E-01
-0.4613755653865E+00
-0.3831405916834E+00
-0.3466170913211E+00
-0.3243065843661E+00
-0.3071651792734E+00
-0.2887666438699E+00
-0.2628622278122E+00
-0.2309835764425E+00
-0.1990983767700E+00
-0.1710294250358E+00
-0.1472782553786E+00
-0.1268529351795E+00
-0.1087967147932E+00
-0.9260809450799E-01
-0.7802685708394E-01
-0.6500491390228E-01
-0.5372837008285E-01
-0.4471050560906E-01
-0.3832678303908E-01
-0.3621068980049E-01
-0.4077760636061E+00
-0.3413118678779E+00
-0.3081580133497E+00
-0.2871279245596E+00
-0.2716148961000E+00
-0.2567861748000E+00
-0.2362462561192E+00
-0.2099374750562E+00
-0.1820860328979E+00
-0.1562704515731E+00
-0.1337754583701E+00
-0.1143988088561E+00
-0.9757025752643E-01
-0.8287587126235E-01
-0.7004245194151E-01
-0.5897813731784E-01
-0.4981765115826E-01
-0.4305308490486E-01
-0.3866073215214E-01
-0.3777222484473E-01
-0.3545305336090E+00
-0.2982497533075E+00
-0.2685716208437E+00
-0.2494148909162E+00
-0.2358194037046E+00
-0.2238992984628E+00
-0.2075187283583E+00
-0.1858736217805E+00
-0.1620055457459E+00
-0.1389342442657E+00
-0.1182115143993E+00
-0.1001533299431E+00
-0.8458147965596E-01
-0.7126779764760E-01
-0.5999962958390E-01
-0.5068340842515E-01
-0.4342977913505E-01
-0.3872724159457E-01
-0.3624361880617E-01
-0.3660245004058E-01
-0.3016443069102E+00
-0.2542772722174E+00
-0.2280836816174E+00
-0.2110482930936E+00
-0.1994340096692E+00
-0.1900169576639E+00
-0.1770189293459E+00
-0.1593025589542E+00
-0.1391224124171E+00
-0.1189540995593E+00
-0.1003329853626E+00
-0.8385214574169E-01
-0.6963714651867E-01
-0.5765981555001E-01
-0.4781367044870E-01
-0.4004628479838E-01
-0.3448008879593E-01
-0.3159990745453E-01
-0.3083308368525E-01
-0.3230524084707E-01
-0.2491492382576E+00
-0.2096032813737E+00
-0.1868239838724E+00
-0.1719845071822E+00
-0.1623041793708E+00
-0.1550731117464E+00
-0.1449110820099E+00
-0.1305427978717E+00
-0.1136968081293E+00
-0.9639091942271E-01
-0.8002693055509E-01
-0.6530810212294E-01
-0.5255918565145E-01
-0.4191818681231E-01
-0.3339314595195E-01
-0.2699932065403E-01
-0.2290159320098E-01
-0.2156225797162E-01
-0.2222886435092E-01
-0.2457484222966E-01
-0.1970676587489E+00
-0.1643766383309E+00
-0.1448789069873E+00
-0.1322140094090E+00
-0.1243606412332E+00
-0.1190378594680E+00
-0.1112871207279E+00
-0.9979900928991E-01
-0.8593750846047E-01
-0.7135237197299E-01
-0.5727314103582E-01
-0.4441484443408E-01
-0.3321374290558E-01
-0.2392421938368E-01
-0.1665184625129E-01
-0.1148521108643E-01
-0.8648946356892E-02
-0.8544769701876E-02
-0.1030239144080E-01
-0.1323211685057E-01
-0.1454088159994E+00
-0.1187093502249E+00
-0.1023142703591E+00
-0.9174349297333E-01
-0.8557725817153E-01
-0.8190601844251E-01
-0.7621125794905E-01
-0.6721088556902E-01
-0.5600618955028E-01
-0.4395219839872E-01
-0.3210230415786E-01
-0.2112922587508E-01
-0.1151742748611E-01
-0.3589921074478E-02
 0.2478359452937E-02
 0.6535877173802E-02
 0.8296571732999E-02
 0.7472462351973E-02
 0.4987414625242E-02
 0.1763692264536E-02
-0.9417120159893E-01
-0.7268904102388E-01
-0.5918476549839E-01
-0.5058869428040E-01
-0.4595091389371E-01
-0.4368833020978E-01
-0.3973668475667E-01
-0.3288223162943E-01
-0.2402981688548E-01
-0.1429622223566E-01
-0.4568683051723E-02
 0.4549851104523E-02
 0.1256964295723E-01
 0.1913778663492E-01
 0.2403960697278E-01
 0.2707946030952E-01
 0.2792161085741E-01
 0.2645317811118E-01
 0.2359018833279E-01
 0.2032515500262E-01
-0.4334542340209E-01
-0.2638596566473E-01
-0.1553842489263E-01
-0.8770898006700E-02
-0.5491801908656E-02
-0.4405659572677E-02
-0.1912422371219E-02
 0.3103069495894E-02
 0.9887779657671E-02
 0.1752036850798E-01
 0.2526456927022E-01
 0.3259887403726E-01
 0.3905575112019E-01
 0.4428143123460E-01
 0.4804678916037E-01
 0.5013389485240E-01
 0.5017668074042E-01
 0.4830143484278E-01
 0.4536758532959E-01
 0.4226038381861E-01
 0.7083629744610E-02
 0.2014274997974E-01
 0.2858112600813E-01
 0.3368476575446E-01
 0.3578153132671E-01
 0.3591437910837E-01
 0.3721370500028E-01
 0.4067194804622E-01
 0.4565708602186E-01
 0.5141107072968E-01
 0.5733209562409E-01
 0.6298168403316E-01
 0.6793041320890E-01
 0.7184210738323E-01
 0.7449385056750E-01
 0.7566225842063E-01
 0.7497713259604E-01
 0.7285874423846E-01
 0.7009858456940E-01
 0.6729910027996E-01
 0.5713555610603E-01
 0.6685064346765E-01
 0.7313320482802E-01
 0.7675022649653E-01
 0.7784463597394E-01
 0.7723949861966E-01
 0.7759363757498E-01
 0.7975678999563E-01
 0.8319625009526E-01
 0.8729410651602E-01
 0.9156743399417E-01
 0.9565628229204E-01
 0.9917486230742E-01
 0.1018141424201E+00
 0.1033640294170E+00
 0.1036169561110E+00
 0.1022056077278E+00
 0.9990773493905E-01
 0.9747162037086E-01
 0.9511295485057E-01
 0.1068352121396E+00
 0.1136997178887E+00
 0.1180796870679E+00
 0.1203936955406E+00
 0.1206689550142E+00
 0.1195336564839E+00
 0.1191788299304E+00
 0.1202922879314E+00
 0.1224262798806E+00
 0.1250874064107E+00
 0.1278995988236E+00
 0.1305745797026E+00
 0.1327691722027E+00
 0.1341966163355E+00
 0.1346618003104E+00
 0.1339493282093E+00
 0.1317537151709E+00
 0.1291533931120E+00
 0.1270771416769E+00
 0.1252914447773E+00
 0.1562121700822E+00
 0.1606645339541E+00
 0.1633782387785E+00
 0.1645823350264E+00
 0.1642195479448E+00
 0.1627597923756E+00
 0.1619197811017E+00
 0.1622146015004E+00
 0.1632683595158E+00
 0.1647040966555E+00
 0.1662459762634E+00
 0.1676738765134E+00
 0.1686850274160E+00
 0.1690058233068E+00
 0.1684233869251E+00
 0.1667251010625E+00
 0.1634879247151E+00
 0.1603527422927E+00
 0.1582426295349E+00
 0.1573105340681E+00
 0.2053356589842E+00
 0.2077051680239E+00
 0.2090033450071E+00
 0.2092572055802E+00
 0.2084694160701E+00
 0.2068753994672E+00
 0.2057681481828E+00
 0.2054616463134E+00
 0.2056446223837E+00
 0.2060511637256E+00
 0.2065056819230E+00
 0.2068603105126E+00
 0.2068602777072E+00
 0.2062428442962E+00
 0.2047569829004E+00
 0.2020782272394E+00
 0.1978165438452E+00
 0.1929019887330E+00
 0.1904057556578E+00
 0.1898718697279E+00
 0.2542059927487E+00
 0.2549582385753E+00
 0.2547447904776E+00
 0.2544348063263E+00
 0.2533682408186E+00
 0.2518418570051E+00
 0.2506719019346E+00
 0.2499772347063E+00
 0.2494828457854E+00
 0.2490338408804E+00
 0.2485611247116E+00
 0.2479973330891E+00
 0.2471571653697E+00
 0.2458152008570E+00
 0.2437063630561E+00
 0.2403831092183E+00
 0.2351026394379E+00
 0.2291035734931E+00
 0.2199768891568E+00
 0.2214567741801E+00
 0.3045948503840E+00
 0.3012173921324E+00
 0.3008927461692E+00
 0.3000202203901E+00
 0.2989157567221E+00
 0.2975776677106E+00
 0.2965864710388E+00
 0.2957163317250E+00
 0.2947219409684E+00
 0.2935691985813E+00
 0.2922911481452E+00
 0.2909201852654E+00
 0.2893542897132E+00
 0.2874426064711E+00
 0.2849898727643E+00
 0.2816557512297E+00
 0.2764238205162E+00
 0.2694221378538E+00
 0.2608611103316E+00
 0.2298403536212E+00
 0.1963428903730E+01
 0.1887572200241E+01
 0.1804617576576E+01
 0.1721873226827E+01
 0.1640897402050E+01
 0.1562897932301E+01
 0.1487965603419E+01
 0.1416923000554E+01
 0.1350536705996E+01
 0.1289138507773E+01
 0.1232887759424E+01
 0.1181921673963E+01
 0.1136439836392E+01
 0.1096602650229E+01
 0.1062543884619E+01
 0.1034410391317E+01
 0.1012225640469E+01
 0.9960736609851E+00
 0.9864558342562E+00
 0.9810985512155E+00
 0.2011648768823E+01
 0.1924571487568E+01
 0.1836051612580E+01
 0.1747005384784E+01
 0.1660318134680E+01
 0.1576847277371E+01
 0.1496482980218E+01
 0.1420322166171E+01
 0.1349271856318E+01
 0.1283730135473E+01
 0.1223948551293E+01
 0.1170146643827E+01
 0.1122536570093E+01
 0.1081254185903E+01
 0.1046407948088E+01
 0.1018056693652E+01
 0.9960572970424E+00
 0.9812911063079E+00
 0.9742339106242E+00
 0.9742702102494E+00
 0.2058593570827E+01
 0.1964034577996E+01
 0.1867341170088E+01
 0.1771248700197E+01
 0.1677833741724E+01
 0.1588095201882E+01
 0.1501679758972E+01
 0.1419879726482E+01
 0.1343769308436E+01
 0.1273825655395E+01
 0.1210372516234E+01
 0.1153679262324E+01
 0.1103946968261E+01
 0.1061285777590E+01
 0.1025786505977E+01
 0.9974812664406E+00
 0.9761362083024E+00
 0.9635675828687E+00
 0.9608601066514E+00
 0.9667949762918E+00
 0.2107555132843E+01
 0.2004217408813E+01
 0.1898865375117E+01
 0.1794410974640E+01
 0.1693328801774E+01
 0.1596440552713E+01
 0.1503268886687E+01
 0.1415319512189E+01
 0.1333791064579E+01
 0.1259225074512E+01
 0.1192005855926E+01
 0.1132433501505E+01
 0.1080670689317E+01
 0.1036791125298E+01
 0.1000879680532E+01
 0.9729589124883E+00
 0.9527010213684E+00
 0.9430251152276E+00
 0.9451807996477E+00
 0.9571340378087E+00
 0.2158948336345E+01
 0.2045530772067E+01
 0.1930319657619E+01
 0.1816426241624E+01
 0.1706579855234E+01
 0.1601602370431E+01
 0.1500941927841E+01
 0.1406349365654E+01
 0.1319088851493E+01
 0.1239744015812E+01
 0.1168744394041E+01
 0.1106393331101E+01
 0.1052776762030E+01
 0.1007908168300E+01
 0.9718543536598E+00
 0.9446157575188E+00
 0.9257695661146E+00
 0.9192994369885E+00
 0.9265487350512E+00
 0.9447245574060E+00
 0.2213341577987E+01
 0.2088137756242E+01
 0.1961703509163E+01
 0.1837092722341E+01
 0.1717321490911E+01
 0.1603228235902E+01
 0.1494344363471E+01
 0.1392655222844E+01
 0.1299416245648E+01
 0.1215228957070E+01
 0.1140539953823E+01
 0.1075609382084E+01
 0.1020391311748E+01
 0.9747991170786E+00
 0.9388537719311E+00
 0.9125163334321E+00
 0.8952453966840E+00
 0.8920816752272E+00
 0.9045045268553E+00
 0.9292171774626E+00
 0.2271331378869E+01
 0.2132262064362E+01
 0.1992990464661E+01
 0.1856202462986E+01
 0.1725199515398E+01
 0.1600893046034E+01
 0.1483068802122E+01
 0.1373902068195E+01
 0.1274541134062E+01
 0.1185574414611E+01
 0.1107414311016E+01
 0.1040205793049E+01
 0.9836996522918E+00
 0.9376591300164E+00
 0.9020271202871E+00
 0.8767070112184E+00
 0.8610297417547E+00
 0.8610881296671E+00
 0.8786611095495E+00
 0.9102649281077E+00
 0.2333637160157E+01
 0.2178160938409E+01
 0.2024150451736E+01
 0.1873479779263E+01
 0.1729766078196E+01
 0.1594077435152E+01
 0.1466652987487E+01
 0.1349744232641E+01
 0.1244267571809E+01
 0.1150747983923E+01
 0.1069478782636E+01
 0.1000391487749E+01
 0.9429530675295E+00
 0.8967254216951E+00
 0.8615430635489E+00
 0.8372411917901E+00
 0.8230232753633E+00
 0.8260410772374E+00
 0.8486212582254E+00
 0.8874425610756E+00
 0.2401155432439E+01
 0.2226153090389E+01
 0.2055127866367E+01
 0.1888548420885E+01
 0.1730436329642E+01
 0.1582150090327E+01
 0.1444583422596E+01
 0.1319850571800E+01
 0.1208471641013E+01
 0.1110822868214E+01
 0.1026954182691E+01
 0.9564675426605E+00
 0.8984693016558E+00
 0.8522764477642E+00
 0.8175915672109E+00
 0.7941781945057E+00
 0.7811213383770E+00
 0.7866424673291E+00
 0.8139313818236E+00
 0.8602120888083E+00
 0.2475044901379E+01
 0.2276647780984E+01
 0.2085819190906E+01
 0.1900870438265E+01
 0.1726432629350E+01
 0.1564348713877E+01
 0.1416318251015E+01
 0.1283952502214E+01
 0.1167152563736E+01
 0.1066011642172E+01
 0.9801818733989E+00
 0.9088226189749E+00
 0.8506223108110E+00
 0.8046227198664E+00
 0.7703771045674E+00
 0.7475783782197E+00
 0.7352064944572E+00
 0.7425564334237E+00
 0.7740535732661E+00
 0.8279008645165E+00
 0.2556858874212E+01
 0.2330189526962E+01
 0.2116026579918E+01
 0.1909647445035E+01
 0.1716706946608E+01
 0.1539776665320E+01
 0.1381346124209E+01
 0.1241924180619E+01
 0.1120492838521E+01
 0.1016687296911E+01
 0.9296144888895E+00
 0.8579125841445E+00
 0.7998237870588E+00
 0.7540941488762E+00
 0.7201110902362E+00
 0.6974987538344E+00
 0.6851456460790E+00
 0.6934005306146E+00
 0.7283485484727E+00
 0.7896819194517E+00
 0.2648765628471E+01
 0.2387523966442E+01
 0.2145363106939E+01
 0.1913654264666E+01
 0.1699843748057E+01
 0.1507444499637E+01
 0.1339309600752E+01
 0.1193896219873E+01
 0.1068906132887E+01
 0.9633689834014E+00
 0.8757786276447E+00
 0.8042294050046E+00
 0.7465052837463E+00
 0.7010302770321E+00
 0.6670060568731E+00
 0.6439910849504E+00
 0.6307932726652E+00
 0.6387470944671E+00
 0.6760670001824E+00
 0.7445529160190E+00
 0.2753934218887E+01
 0.2449694030506E+01
 0.2173053215966E+01
 0.1910958063207E+01
 0.1673963122571E+01
 0.1466421146899E+01
 0.1290226159610E+01
 0.1140379252385E+01
 0.1013024660461E+01
 0.9066499749158E+00
 0.8192175035307E+00
 0.7482785425255E+00
 0.6911117702910E+00
 0.6457746694267E+00
 0.6112689683593E+00
 0.5871010364639E+00
 0.5720026185013E+00
 0.5781382206747E+00
 0.6163512950456E+00
 0.6913131209378E+00
 0.2877252862206E+01
 0.2518170975087E+01
 0.2197502086388E+01
 0.1898445061444E+01
 0.1636709565432E+01
 0.1416216477026E+01
 0.1234822233344E+01
 0.1082301027022E+01
 0.9535573944323E+00
 0.8470703135023E+00
 0.7604592062848E+00
 0.6905891816923E+00
 0.6341079140785E+00
 0.5886642042667E+00
 0.5530865146723E+00
 0.5268669923368E+00
 0.5086491561103E+00
 0.5111215650575E+00
 0.5482535934313E+00
 0.6285393023620E+00
 0.3026764566596E+01
 0.2595009127208E+01
 0.2215307916415E+01
 0.1871077961044E+01
 0.1585570938306E+01
 0.1357626643902E+01
 0.1174834680897E+01
 0.1020765500357E+01
 0.8909579737067E+00
 0.7850512664836E+00
 0.7000685812645E+00
 0.6317618432038E+00
 0.5759744451819E+00
 0.5299960254836E+00
 0.4925968150073E+00
 0.4633217065331E+00
 0.4406725389504E+00
 0.4373188407101E+00
 0.4707814125055E+00
 0.5545632029912E+00
 0.3216894380214E+01
 0.2682790095955E+01
 0.2218997696407E+01
 0.1820787703154E+01
 0.1519448854659E+01
 0.1294054585948E+01
 0.1112876263913E+01
 0.9560913841869E+00
 0.8252451912884E+00
 0.7210233412009E+00
 0.6388043926529E+00
 0.5725005251473E+00
 0.5171536018386E+00
 0.4699614312111E+00
 0.4298575896317E+00
 0.3964987212407E+00
 0.3681442173251E+00
 0.3565406006674E+00
 0.3829939643195E+00
 0.4674555116756E+00
 0.3476190974534E+01
 0.2784025983078E+01
 0.2190425390381E+01
 0.1736938701330E+01
 0.1442510450824E+01
 0.1233548624968E+01
 0.1049305106728E+01
 0.8873719018340E+00
 0.7562003381957E+00
 0.6558457400536E+00
 0.5777711807676E+00
 0.5135229218220E+00
 0.4579154758268E+00
 0.4085864791529E+00
 0.3648159103687E+00
 0.3264550987272E+00
 0.2913358985848E+00
 0.2689797001482E+00
 0.2841929381796E+00
 0.3650324172403E+00
 0.3874428488888E+01
 0.2889661171037E+01
 0.2089913199384E+01
 0.1607442141367E+01
 0.1382649965787E+01
 0.1176706849701E+01
 0.9818768477935E+00
 0.8124144296656E+00
 0.6843171306410E+00
 0.5913687165754E+00
 0.5182718243612E+00
 0.4552517293697E+00
 0.3982658828519E+00
 0.3456840662000E+00
 0.2973605924213E+00
 0.2531991257282E+00
 0.2108303555551E+00
 0.1754476768535E+00
 0.1743428776049E+00
 0.2449531815911E+00
 0.4586338527697E+01
 0.2974431814050E+01
 0.1754310189153E+01
 0.1541888158424E+01
 0.1337289478234E+01
 0.1121536896640E+01
 0.9039546956472E+00
 0.7291717829075E+00
 0.6127809293767E+00
 0.5303182786703E+00
 0.4610218250829E+00
 0.3975568492571E+00
 0.3379255041004E+00
 0.2811770087341E+00
 0.2268843336459E+00
 0.1770516580950E+00
 0.1272837991433E+00
 0.7765462228924E-01
 0.5493840870664E-01
 0.1052586307446E+00
 0.6989903138142E+01
 0.1814443400139E+01
 0.1676973079659E+01
 0.1497705830737E+01
 0.1315354909784E+01
 0.1057127023910E+01
 0.8022766381839E+00
 0.6426289591349E+00
 0.5480995982666E+00
 0.4741893439021E+00
 0.4055095025552E+00
 0.3396148884127E+00
 0.2769771364716E+00
 0.2148254892855E+00
 0.1535017868745E+00
 0.9474849136840E-01
 0.4618232759382E-01
-0.2293081901595E-01
-0.7408096508529E-01
-0.4793579527432E-01
 0.2888246163620E+00
 0.2257452599428E+00
 0.1895101114757E+00
 0.1553717430731E+00
 0.1236665852623E+00
 0.9391058501763E-01
 0.6640938370905E-01
 0.4147686042061E-01
 0.1945853020822E-01
 0.6714622995243E-03
-0.1462738537294E-01
-0.2628148439930E-01
-0.3427237926608E-01
-0.3874568400279E-01
-0.4001330478066E-01
-0.3852453803626E-01
-0.3481655758358E-01
-0.2945093772514E-01
-0.2305796252599E-01
-0.1570695163891E-01
 0.2974474261338E+00
 0.2551242323897E+00
 0.2115751397269E+00
 0.1751925714350E+00
 0.1411226135167E+00
 0.1091981745012E+00
 0.7936756046268E-01
 0.5193740769058E-01
 0.2727802798706E-01
 0.5785135639293E-02
-0.1217381881864E-01
-0.2630801025005E-01
-0.3645937646508E-01
-0.4265638985227E-01
-0.4514875190937E-01
-0.4440442376740E-01
-0.4105695528109E-01
-0.3583889369565E-01
-0.2945106148285E-01
-0.2300103989014E-01
 0.3154259710525E+00
 0.2753974010830E+00
 0.2353049315884E+00
 0.1967046682313E+00
 0.1607169519646E+00
 0.1265625806853E+00
 0.9430496586874E-01
 0.6417337780495E-01
 0.3656179416578E-01
 0.1192876696921E-01
-0.9246431182242E-02
-0.2651806102922E-01
-0.3954065627197E-01
-0.4814955195957E-01
-0.5243850351861E-01
-0.5280218885355E-01
-0.4991260488214E-01
-0.4460693004277E-01
-0.3779447522277E-01
-0.3037470184566E-01
 0.3353143635669E+00
 0.2972774720412E+00
 0.2582629522134E+00
 0.2198023838014E+00
 0.1823490706063E+00
 0.1462586488636E+00
 0.1116054380974E+00
 0.7868252142778E-01
 0.4790112114462E-01
 0.1977668704990E-01
-0.5112434924284E-02
-0.2616660598148E-01
-0.4282929015648E-01
-0.5468134008963E-01
-0.6155947888638E-01
-0.6366624557738E-01
-0.6160844815985E-01
-0.5631430621262E-01
-0.4880589812439E-01
-0.3984696455014E-01
 0.3566248871185E+00
 0.3202400391142E+00
 0.2824609005719E+00
 0.2442744710364E+00
 0.2062280043175E+00
 0.1686588839935E+00
 0.1318943217919E+00
 0.9627481321977E-01
 0.6225650798821E-01
 0.3040108300920E-01
 0.1368958169558E-02
-0.2410396112666E-01
-0.4525110736962E-01
-0.6136142697070E-01
-0.7191963544930E-01
-0.7678635094980E-01
-0.7635168277491E-01
-0.7154167927281E-01
-0.6359290659052E-01
-0.5362841801624E-01
 0.3789455924693E+00
 0.3443103382987E+00
 0.3079319978076E+00
 0.2705038264118E+00
 0.2324349799874E+00
 0.1940644570583E+00
 0.1557193928767E+00
 0.1177838426695E+00
 0.8072518248883E-01
 0.4512508872197E-01
 0.1168728127249E-01
-0.1875982832474E-01
-0.4527730848271E-01
-0.6686689506284E-01
-0.8259231572652E-01
-0.9179693019205E-01
-0.9438938566243E-01
-0.9106163463443E-01
-0.8321790228103E-01
-0.7258177881077E-01
 0.4022027992250E+00
 0.3694508170635E+00
 0.3347573209064E+00
 0.2985330492053E+00
 0.2610555512394E+00
 0.2225648334187E+00
 0.1833292746098E+00
 0.1436809158867E+00
 0.1040485013007E+00
 0.6497983706274E-01
 0.2716443829759E-01
-0.8546130494748E-02
-0.4112030822099E-01
-0.6934709612597E-01
-0.9189245990873E-01
-0.1074777283733E+00
-0.1152369271588E+00
-0.1151929438390E+00
-0.1085750795968E+00
-0.9753270185468E-01
 0.4262992355788E+00
 0.3956105246045E+00
 0.3628925180135E+00
 0.3283337156542E+00
 0.2920624891444E+00
 0.2541949685121E+00
 0.2148808417139E+00
 0.1743401199787E+00
 0.1328913762522E+00
 0.9097875656891E-01
 0.4919898747894E-01
 0.8334212716654E-02
-0.3060657789247E-01
-0.6633998011699E-01
-0.9727656391635E-01
-0.1215704479925E+00
-0.1373968489322E+00
-0.1435762789493E+00
-0.1403935587867E+00
-0.1300352432639E+00
 0.4511455966762E+00
 0.4226939510910E+00
 0.3922266940291E+00
 0.3597647535581E+00
 0.3253020809603E+00
 0.2888229640811E+00
 0.2503365205979E+00
 0.2099084175983E+00
 0.1676904619339E+00
 0.1239495261739E+00
 0.7909956569006E-01
 0.3374125126978E-01
-0.1128307133267E-01
-0.5481029056011E-01
-0.9524946216671E-01
-0.1304693280412E+00
-0.1577926529419E+00
-0.1744727159253E+00
-0.1788452701551E+00
-0.1717644670009E+00
 0.4766637585941E+00
 0.4505995183796E+00
 0.4226159037941E+00
 0.3926246127985E+00
 0.3605121836456E+00
 0.3261483901031E+00
 0.2894074967202E+00
 0.2501927706713E+00
 0.2084620404012E+00
 0.1642554595396E+00
 0.1177276327418E+00
 0.6918854148307E-01
 0.1916125126329E-01
-0.3152938731548E-01
-0.8161370158786E-01
-0.1291513371383E+00
-0.1712093519628E+00
-0.2036230199627E+00
-0.2220057815209E+00
-0.2239288646841E+00
 0.5027787863312E+00
 0.4792064143070E+00
 0.4538866359730E+00
 0.4266617739431E+00
 0.3973458449730E+00
 0.3657262382853E+00
 0.3315729012330E+00
 0.2946519646257E+00
 0.2547420542491E+00
 0.2116535460212E+00
 0.1652523683717E+00
 0.1154915278903E+00
 0.6245674058059E-01
 0.6439214049275E-02
-0.5193824530442E-01
-0.1114850984343E+00
-0.1699979408885E+00
-0.2233682471693E+00
-0.2644016979873E+00
-0.2857810566126E+00
 0.5294292188302E+00
 0.5084374342399E+00
 0.4859314001803E+00
 0.4617093720017E+00
 0.4355452435577E+00
 0.4071794393075E+00
 0.3763182176951E+00
 0.3426362528357E+00
 0.3057810838403E+00
 0.2653790998496E+00
 0.2210435947894E+00
 0.1723863612070E+00
 0.1190360041364E+00
 0.6066987000174E-01
-0.2923707730632E-02
-0.7171537121894E-01
-0.1451204080644E+00
-0.2212699589535E+00
-0.2944714426822E+00
-0.3500612899212E+00
 0.5565115598021E+00
 0.5381926760977E+00
 0.5186284294110E+00
 0.4976020046171E+00
 0.4748751818319E+00
 0.4501750863524E+00
 0.4231867331580E+00
 0.3935475097278E+00
 0.3608416402970E+00
 0.3245935528328E+00
 0.2842592775697E+00
 0.2392149657251E+00
 0.1887413654013E+00
 0.1320029382634E+00
 0.6802001939042E-01
-0.4362169675866E-02
-0.8650380843104E-01
-0.1798553531949E+00
-0.2857257145675E+00
-0.3977017191994E+00
 0.5838870399279E+00
 0.5683196997742E+00
 0.5517959678782E+00
 0.5341089698930E+00
 0.5150327174190E+00
 0.4943098998836E+00
 0.4716424220634E+00
 0.4466824896653E+00
 0.4190225410165E+00
 0.3881825298754E+00
 0.3535928607461E+00
 0.3145705680257E+00
 0.2702848925388E+00
 0.2197054316107E+00
 0.1615205388834E+00
 0.9399854179491E-01
 0.1474305348341E-01
-0.7985652752823E-01
-0.1956596638561E+00
-0.3476365868559E+00
 0.6114081189688E+00
 0.5986453437803E+00
 0.5852265492162E+00
 0.5709712236060E+00
 0.5556829760824E+00
 0.5391402230175E+00
 0.5210878934658E+00
 0.5012290216133E+00
 0.4792151123336E+00
 0.4546340609202E+00
 0.4269940894405E+00
 0.3957014633305E+00
 0.3600283497621E+00
 0.3190645127516E+00
 0.2716406076902E+00
 0.2161997650755E+00
 0.1505570462309E+00
 0.7143393297164E-01
-0.2679440218140E-01
-0.1555209246257E+00
 0.6389246957951E+00
 0.6289902031906E+00
 0.6187053582613E+00
 0.6079252154998E+00
 0.5964932321091E+00
 0.5842349268134E+00
 0.5709518198225E+00
 0.5564151793222E+00
 0.5403589793534E+00
 0.5224713750209E+00
 0.5023838276186E+00
 0.4796567026472E+00
 0.4537596421910E+00
 0.4240440830623E+00
 0.3897040545817E+00
 0.3497186524895E+00
 0.3027715788468E+00
 0.2471460978364E+00
 0.1807132415158E+00
 0.1035882056009E+00
 0.6662846599989E+00
 0.6591716910912E+00
 0.6520143756844E+00
 0.6447076929605E+00
 0.6371402974944E+00
 0.6291905787183E+00
 0.6207229840941E+00
 0.6115843946140E+00
 0.6016003522949E+00
 0.5905709501290E+00
 0.5782662463126E+00
 0.5644211927986E+00
 0.5487303909381E+00
 0.5308438394652E+00
 0.5103668961419E+00
 0.4868736814693E+00
 0.4599591136598E+00
 0.4293999063404E+00
 0.3957513275515E+00
 0.3608226470349E+00
 0.6933339472337E+00
 0.6890044424003E+00
 0.6849315923227E+00
 0.6810513874619E+00
 0.6772991255342E+00
 0.6736073445072E+00
 0.6699042518300E+00
 0.6661125529553E+00
 0.6621487213661E+00
 0.6579228907378E+00
 0.6533397184794E+00
 0.6483009277329E+00
 0.6427109176143E+00
 0.6364881551313E+00
 0.6295877371925E+00
 0.6220458858167E+00
 0.6140662757178E+00
 0.6061924207224E+00
 0.5994831456358E+00
 0.5954482302889E+00
 0.7199184215174E+00
 0.7183026186846E+00
 0.7172340822344E+00
 0.7166884559315E+00
 0.7166458963490E+00
 0.7170905544279E+00
 0.7180106456978E+00
 0.7193990998486E+00
 0.7212550912192E+00
 0.7235867350932E+00
 0.7264154584372E+00
 0.7297828672014E+00
 0.7337614361463E+00
 0.7384711075316E+00
 0.7441049156487E+00
 0.7509673070545E+00
 0.7595279383450E+00
 0.7704680489414E+00
 0.7846785376995E+00
 0.8034589687202E+00
 0.7458863206192E+00
 0.7468828560293E+00
 0.7487025052211E+00
 0.7513568157777E+00
 0.7548663885177E+00
 0.7592616764319E+00
 0.7645837478021E+00
 0.7708860475132E+00
 0.7782371648365E+00
 0.7867248912441E+00
 0.7964619453835E+00
 0.8075938856967E+00
 0.8203098324338E+00
 0.8348565574857E+00
 0.8515558255562E+00
 0.8708228431402E+00
 0.8931765363809E+00
 0.9192257979454E+00
 0.9496284308585E+00
 0.9848532313788E+00
 0.7710913934556E+00
 0.7745698853752E+00
 0.7791291405935E+00
 0.7848099546857E+00
 0.7916679370475E+00
 0.7997726003656E+00
 0.8092085780319E+00
 0.8200776980287E+00
 0.8325020467373E+00
 0.8466280964119E+00
 0.8626320452040E+00
 0.8807264702403E+00
 0.9011682024542E+00
 0.9242668182922E+00
 0.9503920838724E+00
 0.9799765294722E+00
 0.1013507444056E+01
 0.1051502536546E+01
 0.1094450854980E+01
 0.1142652937100E+01
 0.7953967957667E+00
 0.8012060662265E+00
 0.8083269361414E+00
 0.8168267602940E+00
 0.8267894479068E+00
 0.8383153669382E+00
 0.8515222761128E+00
 0.8665472132647E+00
 0.8835490904620E+00
 0.9027119641004E+00
 0.9242488998709E+00
 0.9484062376293E+00
 0.9754678010432E+00
 0.1005758164764E+01
 0.1039643467675E+01
 0.1077527942393E+01
 0.1119844925209E+01
 0.1167043442646E+01
 0.1219575801930E+01
 0.1278043194086E+01
 0.8186745665910E+00
 0.8266364427139E+00
 0.8361122125421E+00
 0.8471903230507E+00
 0.8599762213705E+00
 0.8745923428946E+00
 0.8911788307655E+00
 0.9098947861837E+00
 0.9309199111994E+00
 0.9544563753967E+00
 0.9807307117578E+00
 0.1009995438425E+01
 0.1042529960964E+01
 0.1078640180358E+01
 0.1118656318031E+01
 0.1162929008360E+01
 0.1211825325018E+01
 0.1265728767478E+01
 0.1325067503820E+01
 0.1390321656560E+01
 0.8408085832901E+00
 0.8507199413098E+00
 0.8623173961624E+00
 0.8757041844472E+00
 0.8909998780209E+00
 0.9083402073316E+00
 0.9278772758323E+00
 0.9497799547528E+00
 0.9742342888448E+00
 0.1001443732562E+01
 0.1031628986328E+01
 0.1065027162923E+01
 0.1101890019822E+01
 0.1142481146819E+01
 0.1187072402903E+01
 0.1235940712549E+01
 0.1289367038609E+01
 0.1347641620254E+01
 0.1411064167591E+01
 0.1479922856453E+01
 0.8616962188200E+00
 0.8733329147342E+00
 0.8867969057259E+00
 0.9021996122767E+00
 0.9196672130216E+00
 0.9393402727887E+00
 0.9613732810361E+00
 0.9859340099783E+00
 0.1013202576779E+01
 0.1043370038573E+01
 0.1076636311441E+01
 0.1113207206774E+01
 0.1153290471793E+01
 0.1197090953814E+01
 0.1244805447663E+01
 0.1296618282214E+01
 0.1352699424411E+01
 0.1413203431297E+01
 0.1478266812928E+01
 0.1548004644481E+01
 0.8812484321715E+00
 0.8943693587994E+00
 0.9094280575808E+00
 0.9265371373051E+00
 0.9458220624265E+00
 0.9674205036700E+00
 0.9914810001251E+00
 0.1018161161065E+01
 0.1047625386972E+01
 0.1080041973234E+01
 0.1115579399787E+01
 0.1154401618617E+01
 0.1196662221834E+01
 0.1242497512770E+01
 0.1292018661015E+01
 0.1345303415230E+01
 0.1402387781309E+01
 0.1463260919207E+01
 0.1527866006447E+01
 0.1596117384314E+01
 0.8993895170016E+00
 0.9137412385320E+00
 0.9301118896044E+00
 0.9486077324018E+00
 0.9693467076478E+00
 0.9924569585984E+00
 0.1018074281126E+01
 0.1046339047006E+01
 0.1077392693208E+01
 0.1111373625536E+01
 0.1148412317498E+01
 0.1188625369517E+01
 0.1232108271450E+01
 0.1278926516403E+01
 0.1329104505314E+01
 0.1382611140983E+01
 0.1439341202195E+01
 0.1499092679778E+01
 0.1561560546414E+01
 0.1626352742105E+01
 0.9160565471705E+00
 0.9313788651989E+00
 0.9487737817635E+00
 0.9683333565336E+00
 0.9901621315507E+00
 0.1014373564329E+01
 0.1041085604147E+01
 0.1070416273204E+01
 0.1102479160447E+01
 0.1137378571436E+01
 0.1175204076598E+01
 0.1216024157980E+01
 0.1259878533539E+01
 0.1306768446128E+01
 0.1356643511090E+01
 0.1409382593045E+01
 0.1464763206416E+01
 0.1522411065954E+01
 0.1581708070363E+01
 0.1641763704073E+01
 0.9311988584487E+00
 0.9472312400870E+00
 0.9653630395684E+00
 0.9856646719366E+00
 0.1008223287402E+01
 0.1033134150608E+01
 0.1060493819315E+01
 0.1090394519553E+01
 0.1122919014514E+01
 0.1158135628934E+01
 0.1196093137935E+01
 0.1236815228498E+01
 0.1280294117541E+01
 0.1326482571782E+01
 0.1375282932164E+01
 0.1426529952683E+01
 0.1479961307658E+01
 0.1535153980544E+01
 0.1591369606769E+01
 0.1647043291320E+01
 0.9447789379184E+00
 0.9612665093763E+00
 0.9798468952263E+00
 0.1000566366101E+01
 0.1023492892448E+01
 0.1048701149458E+01
 0.1076263730138E+01
 0.1106244562248E+01
 0.1138693725539E+01
 0.1173643177250E+01
 0.1211103168180E+01
 0.1251059226608E+01
 0.1293469613716E+01
 0.1338263170144E+01
 0.1385337390842E+01
 0.1434556977378E+01
 0.1485751130883E+01
 0.1538713125720E+01
 0.1593168430164E+01
 0.1648464527180E+01
 0.9567830648567E+00
 0.9734652707513E+00
 0.9921824642373E+00
 0.1012960584784E+01
 0.1035846338244E+01
 0.1060891198955E+01
 0.1088140775053E+01
 0.1117627932355E+01
 0.1149368333433E+01
 0.1183357999947E+01
 0.1219572876737E+01
 0.1257970659972E+01
 0.1298495524932E+01
 0.1341087012898E+01
 0.1385695842031E+01
 0.1432312159302E+01
 0.1481023269524E+01
 0.1532129742340E+01
 0.1586503299330E+01
 0.1646787079101E+01
 0.9672147130622E+00
 0.9837887596930E+00
 0.1002270661063E+01
 0.1022663295118E+01
 0.1044989746096E+01
 0.1069274871505E+01
 0.1095533866234E+01
 0.1123765652632E+01
 0.1153950027730E+01
 0.1186048327071E+01
 0.1220007830312E+01
 0.1255770652694E+01
 0.1293288579078E+01
 0.1332546620708E+01
 0.1373600355411E+01
 0.1416637976935E+01
 0.1462087032552E+01
 0.1510842447060E+01
 0.1564672952506E+01
 0.1627926302289E+01
 0.9760641203435E+00
 0.9921764014942E+00
 0.1009981080087E+01
 0.1029455209441E+01
 0.1050596925519E+01
 0.1073403385125E+01
 0.1097858251314E+01
 0.1123925459616E+01
 0.1151548418834E+01
 0.1180654285909E+01
 0.1211163567100E+01
 0.1243005729044E+01
 0.1276142482288E+01
 0.1310601612237E+01
 0.1346526042145E+01
 0.1384243922048E+01
 0.1424369379702E+01
 0.1467910566251E+01
 0.1516459629381E+01
 0.1570293284074E+01
 0.9833302091812E+00
 0.9985750735095E+00
 0.1015187369413E+01
 0.1033119365853E+01
 0.1052347299798E+01
 0.1072843911702E+01
 0.1094563069694E+01
 0.1117433339296E+01
 0.1141358602578E+01
 0.1166225274711E+01
 0.1191915072097E+01
 0.1218323354237E+01
 0.1245383747213E+01
 0.1273100552024E+01
 0.1301589823454E+01
 0.1331125774118E+01
 0.1362167642541E+01
 0.1395283042755E+01
 0.1430532214600E+01
 0.1466782870361E+01
 0.9890161205650E+00
 0.1002940867298E+01
 0.1017779871897E+01
 0.1033469990051E+01
 0.1049977365284E+01
 0.1067258967795E+01
 0.1085242889092E+01
 0.1103819269967E+01
 0.1122842359158E+01
 0.1142138986363E+01
 0.1161521270526E+01
 0.1180801403001E+01
 0.1199808222261E+01
 0.1218404873405E+01
 0.1236504547282E+01
 0.1254074687518E+01
 0.1271100119073E+01
 0.1287432908839E+01
 0.1302247382221E+01
 0.1313539963194E+01
 0.9931380638365E+00
 0.1005242366066E+01
 0.1017661219030E+01
 0.1030343222357E+01
 0.1043265195409E+01
 0.1056384784990E+01
 0.1069606458992E+01
 0.1082773175300E+01
 0.1095669840128E+01
 0.1108034119252E+01
 0.1119564919921E+01
 0.1129927613511E+01
 0.1138754450449E+01
 0.1145637536312E+01
 0.1150109529186E+01
 0.1151604371765E+01
 0.1149403552939E+01
 0.1142602428741E+01
 0.1130649357094E+01
 0.1112148111735E+01
 0.9957306956562E+00
 0.1005447247432E+01
 0.1014736650482E+01
 0.1023587702918E+01
 0.1032034634829E+01
 0.1040052550617E+01
 0.1047521514833E+01
 0.1054216739471E+01
 0.1059830030098E+01
 0.1063979430140E+01
 0.1066210389321E+01
 0.1065987170482E+01
 0.1062673000077E+01
 0.1055494551773E+01
 0.1043484304686E+01
 0.1025399550176E+01
 0.9996333108363E+00
 0.9642842833146E+00
 0.9177208495229E+00
 0.8641717620290E+00
 0.9968433067392E+00
 0.1003674558861E+01
 0.1009176599092E+01
 0.1013480021483E+01
 0.1016729817840E+01
 0.1018950190945E+01
 0.1019955815206E+01
 0.1019431318680E+01
 0.1016955420716E+01
 0.1012007585758E+01
 0.1003957877382E+01
 0.9920436129596E+00
 0.9753298052462E+00
 0.9526472360761E+00
 0.9225000756232E+00
 0.8829333247871E+00
 0.8313659513655E+00
 0.7643545555208E+00
 0.6773206462789E+00
 0.5658844753605E+00
 0.9967030791262E+00
 0.1000166696360E+01
 0.1001241875951E+01
 0.1000322281424E+01
 0.9978964181297E+00
 0.9938829320407E+00
 0.9879999941832E+00
 0.9798262387541E+00
 0.9688267452964E+00
 0.9543460600974E+00
 0.9355873807137E+00
 0.9115777402709E+00
 0.8811157107030E+00
 0.8426946719133E+00
 0.7943909116940E+00
 0.7336999054544E+00
 0.6572686209203E+00
 0.5603902008401E+00
 0.4355146633721E+00
 0.2633027995212E+00
 0.9958460543895E+00
 0.9952244764701E+00
 0.9906414863975E+00
 0.9841391653908E+00
 0.9757732650972E+00
 0.9653178283171E+00
 0.9523785380208E+00
 0.9364507772141E+00
 0.9169153091099E+00
 0.8930225308750E+00
 0.8638671166872E+00
 0.8283530672798E+00
 0.7851458938162E+00
 0.7326072935689E+00
 0.6687049697554E+00
 0.5908807932606E+00
 0.4958359275784E+00
 0.3790877438648E+00
 0.2340420173170E+00
 0.4852568360661E-01
</DataArray>
<DataArray type="Float64" Name="S_Oct" NumberOfComponents="1" ComponentName0="S_Oct" format="ascii">
 0.1317299893586E+01
 0.1252072555168E+01
 0.1191385271206E+01
 0.1181657687372E+01
 0.1172456326446E+01
 0.1165153633951E+01
 0.1156724552092E+01
 0.1146823796715E+01
 0.1135196945228E+01
 0.1121841267171E+01
 0.1106804188192E+01
 0.1090156105270E+01
 0.1071961912591E+01
 0.1052271572878E+01
 0.1031115806668E+01
 0.1008506087650E+01
 0.9844372158000E+00
 0.9588938892161E+00
 0.9318563200789E+00
 0.9033148566611E+00
 0.8732877065844E+00
 0.8418599172265E+00
 0.8092709768912E+00
 0.7759062125149E+00
 0.7414585400044E+00
 0.7048054516064E+00
 0.6651088486306E+00
 0.6223419024294E+00
 0.5772457835600E+00
 0.5310847842172E+00
 0.4854100219069E+00
 0.4419166051874E+00
 0.4023719532521E+00
 0.3689749408959E+00
 0.3447773445528E+00
 0.3329736143511E+00
 0.3383776286508E+00
 0.3615874918398E+00
 0.4362333504918E+00
 0.4498147566778E+00
 0.1003561792167E+01
 0.1137004431105E+01
 0.1212815619359E+01
 0.1164986489940E+01
 0.1141538626632E+01
 0.1129657916036E+01
 0.1119335666459E+01
 0.1109370658056E+01
 0.1098520778911E+01
 0.1086426784575E+01
 0.1072919344349E+01
 0.1057961387213E+01
 0.1041562279022E+01
 0.1023748004477E+01
 0.1004543122877E+01
 0.9839629831403E+00
 0.9620110772685E+00
 0.9386799853643E+00
 0.9139555965595E+00
 0.8878234442947E+00
 0.8602789340313E+00
 0.8313437380594E+00
 0.8010882104628E+00
 0.7696041055629E+00
 0.7368820345611E+00
 0.7026858216672E+00
 0.6666081738955E+00
 0.6283503440490E+00
 0.5880004521835E+00
 0.5461089423521E+00
 0.5036086950103E+00
 0.4616917827485E+00
 0.4217259203579E+00
 0.3852542259506E+00
 0.3540546817878E+00
 0.3300666693557E+00
 0.3155186279978E+00
 0.3113787613975E+00
 0.3218899476454E+00
 0.3321414587046E+00
 0.2958352576583E+00
 0.7199977822684E+00
 0.1024189748468E+01
 0.1129252333201E+01
 0.1123925361970E+01
 0.1099762634896E+01
 0.1085399881478E+01
 0.1073561685596E+01
 0.1062330892586E+01
 0.1050736594292E+01
 0.1038237524766E+01
 0.1024601691315E+01
 0.1009723894073E+01
 0.9935689161529E+00
 0.9761302738196E+00
 0.9574106543936E+00
 0.9374112276974E+00
 0.9161272477096E+00
 0.8935473672708E+00
 0.8696565211838E+00
 0.8444406176881E+00
 0.8178938170541E+00
 0.7900285351103E+00
 0.7608685869124E+00
 0.7303818459002E+00
 0.6984373796559E+00
 0.6649116369675E+00
 0.6297584185008E+00
 0.5930025832596E+00
 0.5548248975825E+00
 0.5156532905777E+00
 0.4761734808348E+00
 0.4372858925951E+00
 0.4000682700999E+00
 0.3657512623510E+00
 0.3356031922577E+00
 0.3108282555636E+00
 0.2922266270685E+00
 0.2799739822945E+00
 0.2722127331821E+00
 0.2461373530120E+00
 0.2438062871229E+00
 0.5868826915327E+00
 0.9404966759166E+00
 0.1045777844406E+01
 0.1068202521015E+01
 0.1054227185916E+01
 0.1039741806081E+01
 0.1027330682391E+01
 0.1015406145582E+01
 0.1003293161199E+01
 0.9905103049157E+00
 0.9767981435969E+00
 0.9620236629801E+00
 0.9461222033040E+00
 0.9290643824615E+00
 0.9108355967214E+00
 0.8914249452811E+00
 0.8708197355904E+00
 0.8490037110262E+00
 0.8259586368930E+00
 0.8016670403588E+00
 0.7761162345176E+00
 0.7492990729445E+00
 0.7211890537079E+00
 0.6916867005688E+00
 0.6606458609067E+00
 0.6280412873927E+00
 0.5940180200493E+00
 0.5587781417782E+00
 0.5225590098722E+00
 0.4857019812362E+00
 0.4487044802906E+00
 0.4122277115946E+00
 0.3770812207669E+00
 0.3441631209804E+00
 0.3143023066119E+00
 0.2880528778793E+00
 0.2654306332061E+00
 0.2456414495825E+00
 0.2233848066994E+00
 0.1926898628201E+00
 0.2270084206314E+00
 0.4914059667178E+00
 0.8718518133619E+00
 0.9691983129874E+00
 0.1006502994266E+01
 0.1004146001192E+01
 0.9925333064843E+00
 0.9804627245180E+00
 0.9684036017093E+00
 0.9560581704287E+00
 0.9431383486648E+00
 0.9294276510880E+00
 0.9147963893440E+00
 0.8991700430794E+00
 0.8825063586478E+00
 0.8647791127579E+00
 0.8459680428860E+00
 0.8260533567873E+00
 0.8050133497096E+00
 0.7828248647607E+00
 0.7594641516300E+00
 0.7349073354911E+00
 0.7091236343688E+00
 0.6820477201138E+00
 0.6535534528697E+00
 0.6235173119503E+00
 0.5919861580571E+00
 0.5592028837519E+00
 0.5254557262855E+00
 0.4910042529343E+00
 0.4561207334906E+00
 0.4211551489658E+00
 0.3865698168842E+00
 0.3529319298341E+00
 0.3208423933544E+00
 0.2907669134808E+00
 0.2628236423240E+00
 0.2366450161200E+00
 0.2108341221567E+00
 0.1823099698900E+00
 0.1598380210136E+00
 0.2143654685125E+00
 0.4122305834082E+00
 0.8119284511450E+00
 0.8995116068866E+00
 0.9436768940541E+00
 0.9509140433559E+00
 0.9436716046225E+00
 0.9329089072845E+00
 0.9212067870213E+00
 0.9089272693317E+00
 0.8960347058309E+00
 0.8824183650562E+00
 0.8679830791632E+00
 0.8526628638397E+00
 0.8364133352953E+00
 0.8192026739346E+00
 0.8010044293659E+00
 0.7817929600627E+00
 0.7615409865579E+00
 0.7402192171344E+00
 0.7177955544179E+00
 0.6942325025669E+00
 0.6694768752499E+00
 0.6434382813788E+00
 0.6159868917825E+00
 0.5870304452825E+00
 0.5566622004331E+00
 0.5251674915563E+00
 0.4928646324397E+00
 0.4600087387352E+00
 0.4268110984546E+00
 0.3935030218771E+00
 0.3603815142485E+00
 0.3278075635900E+00
 0.2961403564111E+00
 0.2655870113150E+00
 0.2360515690485E+00
 0.2070761735415E+00
 0.1777778967179E+00
 0.1490772812286E+00
 0.1365656402719E+00
 0.1965300932009E+00
 0.3428833148222E+00
 0.7574928871571E+00
 0.8355367418343E+00
 0.8819214974220E+00
 0.8960908441143E+00
 0.8934475104189E+00
 0.8846789600325E+00
 0.8737692033939E+00
 0.8618285304726E+00
 0.8491309702786E+00
 0.8357091929161E+00
 0.8215306372994E+00
 0.8065543493242E+00
 0.7907440966323E+00
 0.7740685387136E+00
 0.7564984048019E+00
 0.7380037412886E+00
 0.7185519301722E+00
 0.6981068534985E+00
 0.6766268558731E+00
 0.6540602743009E+00
 0.6303352413225E+00
 0.6053472403401E+00
 0.5789732555998E+00
 0.5511486941873E+00
 0.5219914224398E+00
 0.4917948768079E+00
 0.4608729962237E+00
 0.4294578842634E+00
 0.3977040777564E+00
 0.3657456787171E+00
 0.3337452907400E+00
 0.3018998898073E+00
 0.2703932477920E+00
 0.2392905143009E+00
 0.2084677989328E+00
 0.1777201277687E+00
 0.1473972494498E+00
 0.1214746076132E+00
 0.1162785034310E+00
 0.1724902932163E+00
 0.2803955681275E+00
 0.7067376859080E+00
 0.7760928517820E+00
 0.8220946197343E+00
 0.8408379664535E+00
 0.8423292303745E+00
 0.8358739050189E+00
 0.8260900528475E+00
 0.8147225901222E+00
 0.8023765843067E+00
 0.7892499205524E+00
 0.7753923321574E+00
 0.7608018586569E+00
 0.7454594977655E+00
 0.7293401153014E+00
 0.7124149676552E+00
 0.6946514836161E+00
 0.6760122381961E+00
 0.6564540658125E+00
 0.6359253488985E+00
 0.6143610051857E+00
 0.5916746112084E+00
 0.5677546002546E+00
 0.5424876436049E+00
 0.5158287066614E+00
 0.4879029269385E+00
 0.4589901144819E+00
 0.4293789163418E+00
 0.3992666245057E+00
 0.3687543146938E+00
 0.3378965160029E+00
 0.3067510610096E+00
 0.2753957969637E+00
 0.2439098769002E+00
 0.2123270868396E+00
 0.1806644520475E+00
 0.1492520611354E+00
 0.1197606316644E+00
 0.9741819676680E-01
 0.9582017452556E-01
 0.1435201966265E+00
 0.2229473223138E+00
 0.6585816572014E+00
 0.7202209013843E+00
 0.7644258120741E+00
 0.7859010266906E+00
 0.7907826841955E+00
 0.7866597772215E+00
 0.7782064570775E+00
 0.7675962634634E+00
 0.7557379132035E+00
 0.7430007280192E+00
 0.7295278969943E+00
 0.7153666745948E+00
 0.7005227592551E+00
 0.6849822528099E+00
 0.6687200724734E+00
 0.6517027599475E+00
 0.6338888284234E+00
 0.6152282382588E+00
 0.5956596341876E+00
 0.5751058862230E+00
 0.5534694694420E+00
 0.5306354750673E+00
 0.5064988889802E+00
 0.4810251215423E+00
 0.4543332885682E+00
 0.4266758115175E+00
 0.3983037639170E+00
 0.3693730192170E+00
 0.3399349531521E+00
 0.3099803706426E+00
 0.2794910124725E+00
 0.2484710408252E+00
 0.2169647000333E+00
 0.1850770304105E+00
 0.1531173615100E+00
 0.1221194459736E+00
 0.9479823254147E-01
 0.7588447979272E-01
 0.7431110938068E-01
 0.1111894821145E+00
 0.1692676475905E+00
 0.6123416811053E+00
 0.6671840057101E+00
 0.7088649249095E+00
 0.7317140987195E+00
 0.7391930390595E+00
 0.7372255038309E+00
 0.7301833173188E+00
 0.7204567981023E+00
 0.7091958845666E+00
 0.6969314199916E+00
 0.6839032998798E+00
 0.6702140708528E+00
 0.6558996394083E+00
 0.6409614474854E+00
 0.6253808258850E+00
 0.6091250861552E+00
 0.5921495520977E+00
 0.5743977767368E+00
 0.5557992870379E+00
 0.5362663932617E+00
 0.5156928825696E+00
 0.4939617295465E+00
 0.4709727617132E+00
 0.4466932664482E+00
 0.4212264287205E+00
 0.3947887473083E+00
 0.3675870481753E+00
 0.3397330201211E+00
 0.3112331065143E+00
 0.2820294923984E+00
 0.2520556829807E+00
 0.2212868996297E+00
 0.1898002172462E+00
 0.1578723265580E+00
 0.1262519478010E+00
 0.9681534831778E-01
 0.7304626680946E-01
 0.5763179328565E-01
 0.5285129293958E-01
 0.7696050400075E-01
 0.1184385863039E+00
 0.5675658888441E+00
 0.6164235614916E+00
 0.6552485413918E+00
 0.6785030656925E+00
 0.6878471936501E+00
 0.6877513902060E+00
 0.6821004406127E+00
 0.6733263509008E+00
 0.6627431857839E+00
 0.6510202692344E+00
 0.6384903084621E+00
 0.6253132214980E+00
 0.6115585079314E+00
 0.5972459810682E+00
 0.5823656362601E+00
 0.5668870432386E+00
 0.5507632506410E+00
 0.5339320484439E+00
 0.5163146430943E+00
 0.4978140857796E+00
 0.4783168561396E+00
 0.4577033932744E+00
 0.4358740782564E+00
 0.4127906571235E+00
 0.3885331946133E+00
 0.3632772502661E+00
 0.3371824143612E+00
 0.3103162003081E+00
 0.2826459739192E+00
 0.2540802055943E+00
 0.2245315063070E+00
 0.1939908259176E+00
 0.1626387725836E+00
 0.1310414300504E+00
 0.1006008460154E+00
 0.7439404864651E-01
 0.5675623118367E-01
 0.4668390825368E-01
 0.3681308262968E-01
 0.4291928297690E-01
 0.6985354343958E-01
 0.5239433385387E+00
 0.5675151219645E+00
 0.6033779787248E+00
 0.6263625547513E+00
 0.6369428700117E+00
 0.6383921706967E+00
 0.6340408467214E+00
 0.6262364421419E+00
 0.6163814135169E+00
 0.6052526295393E+00
 0.5932658881455E+00
 0.5806369880061E+00
 0.5674703305817E+00
 0.5538059967090E+00
 0.5396443192716E+00
 0.5249583710731E+00
 0.5096998020254E+00
 0.4938013495674E+00
 0.4771767061294E+00
 0.4597206364583E+00
 0.4413128313571E+00
 0.4218297926134E+00
 0.4011680806234E+00
 0.3792777809875E+00
 0.3562107796117E+00
 0.3320990756230E+00
 0.3070544660857E+00
 0.2811022640267E+00
 0.2541776122265E+00
 0.2261704093873E+00
 0.1970002501246E+00
 0.1667222565171E+00
 0.1357093987859E+00
 0.1050095486156E+00
 0.7717208123108E-01
 0.5753358024852E-01
 0.5091101937800E-01
 0.4950040411152E-01
 0.3950485859326E-01
 0.2150560446104E-01
 0.2388612165598E-01
 0.4812525234091E+00
 0.5201331999550E+00
 0.5530545801089E+00
 0.5753078443955E+00
 0.5866060274456E+00
 0.5892709185747E+00
 0.5860823358264E+00
 0.5792229019583E+00
 0.5701183402832E+00
 0.5596194945181E+00
 0.5482115105101E+00
 0.5361616366203E+00
 0.5236086045787E+00
 0.5106135455377E+00
 0.4971881914165E+00
 0.4833100670310E+00
 0.4689301943053E+00
 0.4539769411341E+00
 0.4383571905422E+00
 0.4219580312355E+00
 0.4046522374258E+00
 0.3863104621611E+00
 0.3668213662090E+00
 0.3461184908292E+00
 0.3242221166704E+00
 0.3012196876672E+00
 0.2771762367572E+00
 0.2520782256760E+00
 0.2258363710069E+00
 0.1983380974816E+00
 0.1695410942062E+00
 0.1396270924955E+00
 0.1093087941679E+00
 0.8054937324778E-01
 0.5837068275924E-01
 0.5152690874756E-01
 0.5892168125286E-01
 0.6555656479352E-01
 0.6090286390097E-01
 0.4455307336212E-01
 0.2605530888801E-01
 0.4393307148203E+00
 0.4740251168728E+00
 0.5040944509802E+00
 0.5253083074855E+00
 0.5369085549163E+00
 0.5404793835292E+00
 0.5382925146050E+00
 0.5323218132762E+00
 0.5239654615455E+00
 0.5141161247868E+00
 0.5033124509609E+00
 0.4918665344527E+00
 0.4799492817723E+00
 0.4676426348667E+00
 0.4549701809268E+00
 0.4419145200395E+00
 0.4284266592986E+00
 0.4144311826755E+00
 0.3998287044027E+00
 0.3844989102708E+00
 0.3683070843297E+00
 0.3511159240966E+00
 0.3328025757184E+00
 0.3132802283714E+00
 0.2925353465438E+00
 0.2706109003654E+00
 0.2475271921201E+00
 0.2232361578647E+00
 0.1976329750333E+00
 0.1706211831688E+00
 0.1422372069515E+00
 0.1128917438517E+00
 0.8395889694471E-01
 0.5949174474588E-01
 0.4944632600513E-01
 0.5966099717616E-01
 0.7698242901254E-01
 0.8882845327113E-01
 0.8965232946753E-01
 0.8079083738743E-01
 0.7020395333406E-01
 0.3980550142801E+00
 0.4289920474091E+00
 0.4563334307785E+00
 0.4763083963257E+00
 0.4878833562651E+00
 0.4920815081844E+00
 0.4907266149179E+00
 0.4855666608649E+00
 0.4779359753943E+00
 0.4687408396061E+00
 0.4585571480815E+00
 0.4477338753057E+00
 0.4364707198135E+00
 0.4248693139142E+00
 0.4129649912968E+00
 0.4007457172069E+00
 0.3881629057055E+00
 0.3751377996560E+00
 0.3615650951610E+00
 0.3473170617406E+00
 0.3322506359056E+00
 0.3162184484707E+00
 0.2990830195803E+00
 0.2807342574362E+00
 0.2611234627193E+00
 0.2402498742857E+00
 0.2180916893705E+00
 0.1945714135442E+00
 0.1695792479835E+00
 0.1430593509215E+00
 0.1151923536590E+00
 0.8683329866026E-01
 0.6089017442821E-01
 0.4645669320279E-01
 0.5522217603288E-01
 0.7770745776632E-01
 0.1001943929915E+00
 0.1156851324602E+00
 0.1213457033832E+00
 0.1189951225413E+00
 0.1146467956615E+00
 0.3573302542936E+00
 0.3848753719931E+00
 0.4096275913466E+00
 0.4282405805885E+00
 0.4395362523136E+00
 0.4441181613659E+00
 0.4434272810200E+00
 0.4389866662391E+00
 0.4320433151544E+00
 0.4234940780912E+00
 0.4139367176082E+00
 0.4037485180909E+00
 0.3931537388921E+00
 0.3822718745887E+00
 0.3711493986008E+00
 0.3597796103061E+00
 0.3481145454029E+00
 0.3360723816648E+00
 0.3235420551372E+00
 0.3103881746937E+00
 0.2964583048258E+00
 0.2815929927881E+00
 0.2656374849338E+00
 0.2484561458343E+00
 0.2299643168529E+00
 0.2101185678213E+00
 0.1888579004417E+00
 0.1660812611431E+00
 0.1416875865151E+00
 0.1157001731960E+00
 0.8857641323155E-01
 0.6219072759097E-01
 0.4363140176946E-01
 0.4819300791117E-01
 0.7219207554649E-01
 0.1006075610878E+00
 0.1260794122052E+00
 0.1445917846235E+00
 0.1546007983796E+00
 0.1578820574954E+00
 0.1588019517361E+00
 0.3170810488601E+00
 0.3415468410565E+00
 0.3638518606212E+00
 0.3810332301045E+00
 0.3918550313584E+00
 0.3966120585124E+00
 0.3964256384489E+00
 0.3926061754936E+00
 0.3863003096756E+00
 0.3783778360680E+00
 0.3694447280294E+00
 0.3598980438114E+00
 0.3499818912696E+00
 0.3398312802646E+00
 0.3295028055995E+00
 0.3189947787928E+00
 0.3082598653696E+00
 0.2972132801053E+00
 0.2857381742400E+00
 0.2736910678857E+00
 0.2609090337149E+00
 0.2472186413923E+00
 0.2324455851618E+00
 0.2164268631117E+00
 0.1990413111879E+00
 0.1802038796468E+00
 0.1598172897897E+00
 0.1377638558035E+00
 0.1139715914235E+00
 0.8861728261259E-01
 0.6277868584972E-01
 0.4129472764936E-01
 0.4015641244352E-01
 0.6333700590899E-01
 0.9449970204844E-01
 0.1258811763832E+00
 0.1535531286588E+00
 0.1748419428323E+00
 0.1888352053489E+00
 0.1971069450202E+00
 0.2027112484573E+00
 0.2772464408907E+00
 0.2989014699287E+00
 0.3188980626782E+00
 0.3346154389304E+00
 0.3448162974968E+00
 0.3495724739161E+00
 0.3497432297713E+00
 0.3464450131271E+00
 0.3407190860790E+00
 0.3333956603758E+00
 0.3250774418209E+00
 0.3161732500246E+00
 0.3069421793340E+00
 0.2975320804902E+00
 0.2880083395747E+00
 0.2783737122234E+00
 0.2685813104344E+00
 0.2585433190258E+00
 0.2481369103005E+00
 0.2372099347357E+00
 0.2255877864590E+00
 0.2130812569370E+00
 0.1994944384173E+00
 0.1846353216440E+00
 0.1683455907624E+00
 0.1504991814870E+00
 0.1309650513874E+00
 0.1096175139373E+00
 0.8644954893054E-01
 0.6197504441186E-01
 0.3911648263021E-01
 0.3202375171157E-01
 0.5298415637730E-01
 0.8489278631806E-01
 0.1191979851592E+00
 0.1524730770136E+00
 0.1820921609976E+00
 0.2060598352550E+00
 0.2237400611963E+00
 0.2364923955014E+00
 0.2464481570246E+00
 0.2377762298546E+00
 0.2568524248375E+00
 0.2746730615111E+00
 0.2889201786106E+00
 0.2983908854991E+00
 0.3029998084463E+00
 0.3033947411140E+00
 0.3005199054737E+00
 0.2953119928068E+00
 0.2885535722769E+00
 0.2808349469729E+00
 0.2725695525784E+00
 0.2640267424830E+00
 0.2553643937491E+00
 0.2466551525621E+00
 0.2379054640206E+00
 0.2290685398337E+00
 0.2200533118839E+00
 0.2107306203742E+00
 0.2009389213421E+00
 0.1904906616913E+00
 0.1791790634346E+00
 0.1667845994871E+00
 0.1530844647000E+00
 0.1378819395222E+00
 0.1210093230748E+00
 0.1023029069909E+00
 0.8164033169874E-01
 0.5915889961619E-01
 0.3636600107405E-01
 0.2415605336679E-01
 0.4240735057808E-01
 0.7389573143941E-01
 0.1090478288895E+00
 0.1450871600724E+00
 0.1798937312861E+00
 0.2114057883493E+00
 0.2380150867347E+00
 0.2591655718097E+00
 0.2758590317554E+00
 0.2900418342842E+00
 0.1986284425057E+00
 0.2153274319321E+00
 0.2310975331211E+00
 0.2438869286915E+00
 0.2525488118542E+00
 0.2568905796420E+00
 0.2573919667347E+00
 0.2548475446095E+00
 0.2500942868929E+00
 0.2438628051105E+00
 0.2367241830683E+00
 0.2290904218036E+00
 0.2212367838948E+00
 0.2133284052475E+00
 0.2054435873438E+00
 0.1975916034377E+00
 0.1897253001241E+00
 0.1817499988687E+00
 0.1735297003106E+00
 0.1648925824939E+00
 0.1556367398442E+00
 0.1455359111594E+00
 0.1343447106792E+00
 0.1218071500012E+00
 0.1076853833823E+00
 0.9176641525450E-01
 0.7385000204607E-01
 0.5383050849804E-01
 0.3224415950207E-01
 0.1636988264985E-01
 0.3271057030356E-01
 0.6318346040107E-01
 0.9769691394296E-01
 0.1343480630294E+00
 0.1716406400875E+00
 0.2078820117463E+00
 0.2413165277329E+00
 0.2705392994346E+00
 0.2950632560866E+00
 0.3151683328279E+00
 0.3331747646719E+00
 0.1597684657375E+00
 0.1742716348036E+00
 0.1881144644111E+00
 0.1994773698364E+00
 0.2072813389232E+00
 0.2112640974803E+00
 0.2117739729920E+00
 0.2094779819333E+00
 0.2051209348720E+00
 0.1993802377779E+00
 0.1928031474918E+00
 0.1857954325141E+00
 0.1786345141963E+00
 0.1714902667452E+00
 0.1644451241581E+00
 0.1575103309627E+00
 0.1506378570543E+00
 0.1437289601164E+00
 0.1366401541667E+00
 0.1291882959388E+00
 0.1211555721998E+00
 0.1122941720936E+00
 0.1023303177240E+00
 0.9097160054802E-01
 0.7793380660296E-01
 0.6294796176933E-01
 0.4575445114507E-01
 0.2625122630899E-01
 0.8049612049866E-02
 0.2537404917518E-01
 0.5431875991719E-01
 0.8696955403322E-01
 0.1225399089490E+00
 0.1601320339116E+00
 0.1985212134288E+00
 0.2362034209873E+00
 0.2716025730777E+00
 0.3034629187558E+00
 0.3311262951371E+00
 0.3550106566104E+00
 0.3737987141364E+00
 0.1211659832594E+00
 0.1336382319831E+00
 0.1456761439010E+00
 0.1556592747429E+00
 0.1625807750499E+00
 0.1661368715674E+00
 0.1665753936292E+00
 0.1644568975081E+00
 0.1604434367007E+00
 0.1551605431722E+00
 0.1491292060920E+00
 0.1427456567927E+00
 0.1362866854881E+00
 0.1299250176527E+00
 0.1237461436520E+00
 0.1177627445952E+00
 0.1119256168716E+00
 0.1061316216036E+00
 0.1002292196331E+00
 0.9402306877071E-01
 0.8727835205829E-01
 0.7972469284615E-01
 0.7105944715848E-01
 0.6095422542290E-01
 0.4907906107234E-01
 0.3510633746556E-01
 0.1869720031528E-01
 0.1694174146311E-02
 0.2316257750419E-01
 0.4908096009271E-01
 0.7862581213182E-01
 0.1116696156077E+00
 0.1477698051275E+00
 0.1861201919008E+00
 0.2255779182898E+00
 0.2647468809600E+00
 0.3021769471398E+00
 0.3366558583600E+00
 0.3675374688888E+00
 0.3944716408593E+00
 0.4176135666868E+00
 0.8279558504732E-01
 0.9339598928011E-01
 0.1037615231734E+00
 0.1124334298780E+00
 0.1184753007190E+00
 0.1215636590231E+00
 0.1218728183260E+00
 0.1198774526406E+00
 0.1161680849284E+00
 0.1113223979423E+00
 0.1058353215141E+00
 0.1000925585135E+00
 0.9436949477626E-01
 0.8884164505964E-01
 0.8359816354950E-01
 0.7865417126823E-01
 0.7396041211573E-01
 0.6941051415366E-01
 0.6484646823252E-01
 0.6006389425780E-01
 0.5481825363398E-01
 0.4883348665089E-01
 0.4181789490110E-01
 0.3350983060449E-01
 0.2386198144518E-01
 0.1413425009181E-01
 0.1382331521660E-01
 0.2841941896048E-01
 0.4922515879378E-01
 0.7437471156180E-01
 0.1036066724332E+00
 0.1366961816955E+00
 0.1731704543213E+00
 0.2122332155760E+00
 0.2527871694441E+00
 0.2935135785301E+00
 0.3330392544793E+00
 0.3701929784507E+00
 0.4041863707159E+00
 0.4345686843603E+00
 0.4616829771490E+00
 0.4464584103797E-01
 0.5358632289076E-01
 0.6248278958875E-01
 0.6998034907111E-01
 0.7520861443832E-01
 0.7784726087813E-01
 0.7802609391899E-01
 0.7615799755168E-01
 0.7277830116305E-01
 0.6842719508834E-01
 0.6358106457496E-01
 0.5862237494587E-01
 0.5383360278106E-01
 0.4940296675135E-01
 0.4543391222914E-01
 0.4195435544247E-01
 0.3892501926343E-01
 0.3624871127750E-01
 0.3378360875907E-01
 0.3136561330381E-01
 0.2884889935152E-01
 0.2618797395167E-01
 0.2361985938704E-01
 0.2203309355341E-01
 0.2326097288872E-01
 0.2911555140081E-01
 0.3998083332227E-01
 0.5550304473832E-01
 0.7548457856678E-01
 0.9990748647306E-01
 0.1287427803167E+00
 0.1617959522564E+00
 0.1986012428618E+00
 0.2383816666904E+00
 0.2800808037737E+00
 0.3224377716951E+00
 0.3641327774095E+00
 0.4039932892110E+00
 0.4411348849402E+00
 0.4750698129207E+00
 0.5057711669492E+00
 0.6996068593996E-02
 0.1514429883342E-01
 0.2313456361425E-01
 0.2980151815470E-01
 0.3445475121414E-01
 0.3686463952015E-01
 0.3718800572920E-01
 0.3584251704507E-01
 0.3338030084977E-01
 0.3039133990507E-01
 0.2743975846210E-01
 0.2501359750995E-01
 0.2346105053429E-01
 0.2291734092284E-01
 0.2328712732826E-01
 0.2433039274259E-01
 0.2578934972205E-01
 0.2746846992795E-01
 0.2925661472169E-01
 0.3112558101218E-01
 0.3313353676304E-01
 0.3544545061349E-01
 0.3836843799908E-01
 0.4238065194542E-01
 0.4810681053506E-01
 0.5624596721455E-01
 0.6749318399853E-01
 0.8246802801942E-01
 0.1016649380387E+00
 0.1254166301535E+00
 0.1538529358312E+00
 0.1868502639198E+00
 0.2239816969087E+00
 0.2645048419905E+00
 0.3074044876105E+00
 0.3514654210358E+00
 0.3953987932797E+00
 0.4380120840477E+00
 0.4783487893042E+00
 0.5157967152630E+00
 0.5499208252361E+00
 0.3134121771159E-01
 0.2706717888878E-01
 0.2401025154485E-01
 0.2282909407312E-01
 0.2320516583095E-01
 0.2440902078304E-01
 0.2600419345287E-01
 0.2794336562640E-01
 0.3032663070131E-01
 0.3318551495428E-01
 0.3641641873261E-01
 0.3982771329748E-01
 0.4321491809792E-01
 0.4641264034605E-01
 0.4931630545219E-01
 0.5188436603335E-01
 0.5413153767099E-01
 0.5611945766070E-01
 0.5794864674099E-01
 0.5975441821171E-01
 0.6170964802226E-01
 0.6403720028016E-01
 0.6703287848606E-01
 0.7109139327124E-01
 0.7671147171118E-01
 0.8449330402215E-01
 0.9512479034654E-01
 0.1093198219526E+00
 0.1277240579148E+00
 0.1508212831612E+00
 0.1788592737282E+00
 0.2117956563724E+00
 0.2492603903788E+00
 0.2905571099647E+00
 0.3347126060010E+00
 0.3805473822859E+00
 0.4267860082156E+00
 0.4722051173872E+00
 0.5157647510301E+00
 0.5566768706343E+00
 0.5941690188850E+00
 0.6898753564528E-01
 0.6578851410727E-01
 0.6291783450194E-01
 0.6098180783612E-01
 0.6028378587566E-01
 0.6085905609115E-01
 0.6257311520740E-01
 0.6520428643830E-01
 0.6848827647201E-01
 0.7214469967498E-01
 0.7590248325895E-01
 0.7952446169540E-01
 0.8282556810668E-01
 0.8568198951192E-01
 0.8803250977743E-01
 0.8987484405268E-01
 0.9125956598813E-01
 0.9228346082544E-01
 0.9308377361237E-01
 0.9383459070813E-01
 0.9474717668125E-01
 0.9607644592480E-01
 0.9813536448251E-01
 0.1013133321197E+00
 0.1060820042213E+00
 0.1130069837537E+00
 0.1227581821570E+00
 0.1360706594121E+00
 0.1536558615555E+00
 0.1760917712162E+00
 0.2037239247693E+00
 0.2365944423946E+00
 0.2744010170550E+00
 0.3165013516791E+00
 0.3619645626134E+00
 0.4096384568628E+00
 0.4582475486941E+00
 0.5065250917512E+00
 0.5533292184216E+00
 0.5976798122304E+00
 0.6385381990213E+00
 0.1065427394630E+00
 0.1047467581833E+00
 0.1030764953427E+00
 0.1020642959519E+00
 0.1020345583133E+00
 0.1030909134062E+00
 0.1051535755198E+00
 0.1080164564809E+00
 0.1114040236044E+00
 0.1150199823533E+00
 0.1185851872071E+00
 0.1218637818383E+00
 0.1246780819394E+00
 0.1269142850288E+00
 0.1285219071371E+00
 0.1295097182934E+00
 0.1299402613211E+00
 0.1299243106115E+00
 0.1296162142422E+00
 0.1292108907681E+00
 0.1289436726466E+00
 0.1290944933806E+00
 0.1299981040784E+00
 0.1320575343862E+00
 0.1357478881929E+00
 0.1416312241949E+00
 0.1503765041829E+00
 0.1627354253504E+00
 0.1794652743588E+00
 0.2012179429894E+00
 0.2284273359904E+00
 0.2612222668544E+00
 0.2993757161250E+00
 0.3423054517806E+00
 0.3891229624364E+00
 0.4386964206172E+00
 0.4897388483097E+00
 0.5409267693614E+00
 0.5910013199634E+00
 0.6387914221173E+00
 0.6830428583577E+00
 0.1439955433637E+00
 0.1436251128953E+00
 0.1432792177970E+00
 0.1434044366041E+00
 0.1442864907777E+00
 0.1460252622330E+00
 0.1485534790910E+00
 0.1516810791503E+00
 0.1551477632027E+00
 0.1586716794759E+00
 0.1619877537290E+00
 0.1648735324609E+00
 0.1671634848306E+00
 0.1687543984025E+00
 0.1696049696893E+00
 0.1697323138316E+00
 0.1692073520830E+00
 0.1681503370877E+00
 0.1667272421451E+00
 0.1651476054662E+00
 0.1636646624221E+00
 0.1625787593529E+00
 0.1622454933081E+00
 0.1630862563026E+00
 0.1655904585975E+00
 0.1703307583782E+00
 0.1779868872548E+00
 0.1893311712779E+00
 0.2051623952456E+00
 0.2261989984792E+00
 0.2529596234704E+00
 0.2856623844554E+00
 0.3241617166313E+00
 0.3679404564032E+00
 0.4161526605536E+00
 0.4676812085001E+00
 0.5212175569102E+00
 0.5753691228082E+00
 0.6287496666901E+00
 0.6800037328455E+00
 0.7276923214888E+00
 0.1813560204660E+00
 0.1823970368684E+00
 0.1833991018186E+00
 0.1847214355416E+00
 0.1865952508874E+00
 0.1890964288663E+00
 0.1921556804649E+00
 0.1955939809780E+00
 0.1991685028863E+00
 0.2026170503692E+00
 0.2056937707107E+00
 0.2081934805416E+00
 0.2099652828923E+00
 0.2109179159317E+00
 0.2110197503244E+00
 0.2102960035009E+00
 0.2088250177295E+00
 0.2067348179020E+00
 0.2042005295535E+00
 0.2014431653915E+00
 0.1987303788996E+00
 0.1963797976401E+00
 0.1947661610434E+00
 0.1943301798426E+00
 0.1955799425760E+00
 0.1991058019512E+00
 0.2056056485098E+00
 0.2158770461587E+00
 0.2307606650430E+00
 0.2510395547845E+00
 0.2773166854786E+00
 0.3099027943270E+00
 0.3487395191336E+00
 0.3933795118676E+00
 0.4430200964361E+00
 0.4965543976931E+00
 0.5526435809127E+00
 0.6098153321860E+00
 0.6665489350899E+00
 0.7213106738188E+00
 0.7724925937569E+00
 0.2186365877687E+00
 0.2210697143727E+00
 0.2234206406370E+00
 0.2259630571709E+00
 0.2288682570364E+00
 0.2321793183935E+00
 0.2358169471292E+00
 0.2396082052165E+00
 0.2433258683958E+00
 0.2467275935126E+00
 0.2495879501166E+00
 0.2517205169718E+00
 0.2529904244868E+00
 0.2533194560207E+00
 0.2526863406949E+00
 0.2511245992540E+00
 0.2487196575493E+00
 0.2456063960417E+00
 0.2419675842267E+00
 0.2380336617725E+00
 0.2340842922699E+00
 0.2304519978264E+00
 0.2275289213523E+00
 0.2257747969526E+00
 0.2257181968818E+00
 0.2279710284684E+00
 0.2332541645436E+00
 0.2423944166494E+00
 0.2562763004529E+00
 0.2757480498294E+00
 0.3014984330387E+00
 0.3339348507335E+00
 0.3730919974451E+00
 0.4185973397856E+00
 0.4696929512305E+00
 0.5252789788151E+00
 0.5839790028377E+00
 0.6442320906730E+00
 0.7043775140289E+00
 0.7627065218564E+00
 0.8174476654854E+00
 0.2558498045072E+00
 0.2596578582383E+00
 0.2633534866572E+00
 0.2671276676077E+00
 0.2710898912278E+00
 0.2752456520635E+00
 0.2795002808131E+00
 0.2836825924940E+00
 0.2875782782569E+00
 0.2909636938878E+00
 0.2936337935751E+00
 0.2954215382162E+00
 0.2962089741597E+00
 0.2959317933017E+00
 0.2945797163492E+00
 0.2921948369996E+00
 0.2888694903712E+00
 0.2847447516012E+00
 0.2800098785319E+00
 0.2749031264170E+00
 0.2697142209523E+00
 0.2647885428189E+00
 0.2605339296998E+00
 0.2574283158902E+00
 0.2560213561364E+00
 0.2569486949520E+00
 0.2609574573198E+00
 0.2689070088050E+00
 0.2817281439972E+00
 0.3003360689751E+00
 0.3255079584059E+00
 0.3577525740111E+00
 0.3972039371298E+00
 0.4435699416490E+00
 0.4961399145627E+00
 0.5538191345508E+00
 0.6151877489776E+00
 0.6785886883334E+00
 0.7422159445652E+00
 0.8041853720756E+00
 0.8625603590242E+00
 0.2930079355972E+00
 0.2981781398146E+00
 0.3032149045672E+00
 0.3082293882093E+00
 0.3132687702351E+00
 0.3182979990829E+00
 0.3232030880780E+00
 0.3278109526002E+00
 0.3319175513683E+00
 0.3353164802374E+00
 0.3378226468205E+00
 0.3392886717718E+00
 0.3396141588270E+00
 0.3387494148843E+00
 0.3366956994464E+00
 0.3335039178470E+00
 0.3292731570384E+00
 0.3241500912737E+00
 0.3183294279238E+00
 0.3120557902087E+00
 0.3056272025003E+00
 0.2994000099275E+00
 0.2937960267308E+00
 0.2893102687814E+00
 0.2865133991601E+00
 0.2860659965549E+00
 0.2887436932520E+00
 0.2954410872301E+00
 0.3071377202908E+00
 0.3248181311093E+00
 0.3493512120127E+00
 0.3813523765756E+00
 0.4210618566926E+00
 0.4682744719632E+00
 0.5223305411267E+00
 0.5821400199569E+00
 0.6462351633863E+00
 0.7128561837293E+00
 0.7800459667624E+00
 0.8457410655420E+00
 0.9078329802603E+00
 0.3301228704864E+00
 0.3366475899997E+00
 0.3430246987843E+00
 0.3492881318785E+00
 0.3554227729465E+00
 0.3613510092048E+00
 0.3669365221770E+00
 0.3720013223241E+00
 0.3763493127026E+00
 0.3797899544953E+00
 0.3821576279113E+00
 0.3833247878674E+00
 0.3832091255842E+00
 0.3817761698765E+00
 0.3790391851482E+00
 0.3750580660890E+00
 0.3699384545418E+00
 0.3638320126513E+00
 0.3569378691560E+00
 0.3495056029639E+00
 0.3418398207290E+00
 0.3343059630149E+00
 0.3273380448566E+00
 0.3214468244858E+00
 0.3172234519118E+00
 0.3153539785862E+00
 0.3166440720267E+00
 0.3220256915782E+00
 0.3325294319381E+00
 0.3492117490958E+00
 0.3730369966824E+00
 0.4047330680283E+00
 0.4446540374916E+00
 0.4926892525081E+00
 0.5482351929649E+00
 0.6102075747046E+00
 0.6770876088471E+00
 0.7470067774131E+00
 0.8178500065907E+00
 0.8873673660080E+00
 0.9532679091092E+00
 0.3672061373732E+00
 0.3750830806618E+00
 0.3828034453229E+00
 0.3903260787124E+00
 0.3975737095544E+00
 0.4044246769720E+00
 0.4107179809306E+00
 0.4162683168725E+00
 0.4208856393149E+00
 0.4243941578642E+00
 0.4266473649664E+00
 0.4275377518370E+00
 0.4270015995723E+00
 0.4250202096705E+00
 0.4216192500919E+00
 0.4168677141793E+00
 0.4108775386060E+00
 0.4038047084001E+00
 0.3958517034560E+00
 0.3872716150051E+00
 0.3783738878249E+00
 0.3695311444751E+00
 0.3611877268626E+00
 0.3538685936060E+00
 0.3481845096043E+00
 0.3448470380623E+00
 0.3446928355181E+00
 0.3486928546085E+00
 0.3579307830254E+00
 0.3735375949283E+00
 0.3965770984319E+00
 0.4278959798679E+00
 0.4679706303069E+00
 0.5167938142456E+00
 0.5738249623461E+00
 0.6379882790926E+00
 0.7077120279366E+00
 0.7810132565391E+00
 0.8556108119778E+00
 0.9290581092359E+00
 0.9988680165510E+00
 0.4042689481392E+00
 0.4135011734651E+00
 0.4225718306914E+00
 0.4313662789381E+00
 0.4397451507518E+00
 0.4475415462739E+00
 0.4545679391126E+00
 0.4606298449440E+00
 0.4655418486574E+00
 0.4691421386385E+00
 0.4713031774020E+00
 0.4719378040968E+00
 0.4710014220114E+00
 0.4684916339003E+00
 0.4644468574681E+00
 0.4589452265647E+00
 0.4521046399342E+00
 0.4440846680620E+00
 0.4350900022025E+00
 0.4253757351209E+00
 0.4152543346395E+00
 0.4051036036985E+00
 0.3953762066815E+00
 0.3866095535077E+00
 0.3794328387509E+00
 0.3745827515934E+00
 0.3729273954837E+00
 0.3754778779920E+00
 0.3833726892408E+00
 0.3978197993284E+00
 0.4199865765014E+00
 0.4508452449113E+00
 0.4910038935279E+00
 0.5405690410071E+00
 0.5990716687752E+00
 0.6654489735008E+00
 0.7380756018528E+00
 0.8148486168673E+00
 0.8933112941390E+00
 0.9708074469473E+00
 0.1044637132715E+01
 0.4413222532361E+00
 0.4519181080105E+00
 0.4623504157122E+00
 0.4724320712360E+00
 0.4819614658261E+00
 0.4907254233433E+00
 0.4985084463227E+00
 0.5051055107501E+00
 0.5103349004842E+00
 0.5140484132757E+00
 0.5161376211797E+00
 0.5165361894343E+00
 0.5152192482851E+00
 0.5122012351573E+00
 0.5075336251932E+00
 0.5013036713846E+00
 0.4936348261938E+00
 0.4846894270663E+00
 0.4746731530214E+00
 0.4638415000813E+00
 0.4525080475834E+00
 0.4410536606232E+00
 0.4299371658320E+00
 0.4197064552103E+00
 0.4110076631415E+00
 0.4046018243768E+00
 0.4013884856686E+00
 0.4024196069878E+00
 0.4088898084048E+00
 0.4220863048085E+00
 0.4432841268971E+00
 0.4735881506683E+00
 0.5137484898574E+00
 0.5639973468877E+00
 0.6239478640917E+00
 0.6925566740769E+00
 0.7681454232075E+00
 0.8484857328792E+00
 0.9309344039559E+00
 0.1012610045593E+01
 0.1090580442339E+01
 0.4783768009982E+00
 0.4903498510202E+00
 0.5021595859352E+00
 0.5135468585599E+00
 0.5242473904444E+00
 0.5340007516957E+00
 0.5425623584752E+00
 0.5497157632729E+00
 0.5552825184591E+00
 0.5591280987611E+00
 0.5611636525688E+00
 0.5613443580582E+00
 0.5596657820377E+00
 0.5561597562321E+00
 0.5508910944203E+00
 0.5439560893249E+00
 0.5354832636887E+00
 0.5256368193507E+00
 0.5146221093359E+00
 0.5026933369010E+00
 0.4901631703000E+00
 0.4774132835638E+00
 0.4649063299745E+00
 0.4531984785080E+00
 0.4429510027693E+00
 0.4349481131149E+00
 0.4301203418496E+00
 0.4295607245924E+00
 0.4345209084906E+00
 0.4463692818346E+00
 0.4664925274497E+00
 0.4961355796208E+00
 0.5362018623776E+00
 0.5870629157539E+00
 0.6484268802688E+00
 0.7192784220959E+00
 0.7978882127759E+00
 0.8818970870070E+00
 0.9684630509168E+00
 0.1054461279998E+01
 0.1136704883843E+01
 0.5154431995401E+00
 0.5288121759370E+00
 0.5420195935193E+00
 0.5547340583813E+00
 0.5666278524665E+00
 0.5773923097473E+00
 0.5867529278198E+00
 0.5944814121732E+00
 0.6004026667476E+00
 0.6043963781965E+00
 0.6063941012650E+00
 0.6063734550986E+00
 0.6043512821820E+00
 0.6003774106493E+00
 0.5945302570963E+00
 0.5869150214572E+00
 0.5776647404815E+00
 0.5669444942821E+00
 0.5549579047512E+00
 0.5419560849550E+00
 0.5282486513377E+00
 0.5142156876627E+00
 0.5003211485753E+00
 0.4871270235512E+00
 0.4753076008818E+00
 0.4656686975791E+00
 0.4591709094064E+00
 0.4569480736667E+00
 0.4603092801903E+00
 0.4707056116285E+00
 0.4896391678443E+00
 0.5185025439296E+00
 0.5583647033359E+00
 0.6097520211035E+00
 0.6724829403447E+00
 0.7455811850005E+00
 0.8272700886644E+00
 0.9150545542087E+00
 0.1005880062549E+01
 0.1096357446539E+01
 0.1183019579316E+01
 0.5525319811819E+00
 0.5673207576968E+00
 0.5819506446609E+00
 0.5960171398958E+00
 0.6091279260982E+00
 0.6209250680633E+00
 0.6311035688492E+00
 0.6394233215142E+00
 0.6457131962652E+00
 0.6498681229221E+00
 0.6518412861453E+00
 0.6516339406721E+00
 0.6492851913874E+00
 0.6448635187522E+00
 0.6384611958984E+00
 0.6301921483503E+00
 0.6201933008453E+00
 0.6086295450061E+00
 0.5957012776323E+00
 0.5816546240942E+00
 0.5667938889953E+00
 0.5514950157609E+00
 0.5362205361451E+00
 0.5215355388688E+00
 0.5081248623492E+00
 0.4968139444740E+00
 0.4885920359216E+00
 0.4846329706904E+00
 0.4863031585696E+00
 0.4951373999951E+00
 0.5127566308413E+00
 0.5407087848667E+00
 0.5802414901283E+00
 0.6320534019777E+00
 0.6960913040447E+00
 0.7714317698396E+00
 0.8562563317636E+00
 0.9479291688235E+00
 0.1043168105805E+01
 0.1138295921565E+01
 0.1229536225325E+01
 0.5896536706307E+00
 0.6058912803848E+00
 0.6219730184550E+00
 0.6374197168678E+00
 0.6517728652429E+00
 0.6646241433224E+00
 0.6756377300123E+00
 0.6845622106571E+00
 0.6912315942861E+00
 0.6955576118825E+00
 0.6975167220719E+00
 0.6971352959905E+00
 0.6944758472346E+00
 0.6896262246189E+00
 0.6826928043558E+00
 0.6737980094391E+00
 0.6630819602314E+00
 0.6507082171444E+00
 0.6368723747003E+00
 0.6218135784589E+00
 0.6058284457235E+00
 0.5892860792994E+00
 0.5726446607275E+00
 0.5564693819459E+00
 0.5414528108043E+00
 0.5284375811311E+00
 0.5184396731730E+00
 0.5126715384940E+00
 0.5125561816013E+00
 0.5197125503287E+00
 0.5358833552510E+00
 0.5627794725553E+00
 0.6018411302656E+00
 0.6539587413654E+00
 0.7192284952988E+00
 0.7967967929129E+00
 0.8848111864407E+00
 0.9804909125349E+00
 0.1080309619661E+01
 0.1180275332752E+01
 0.1276269523410E+01
 0.6268188580193E+00
 0.6445395555199E+00
 0.6621072073930E+00
 0.6789656754098E+00
 0.6945881835755E+00
 0.7085148065255E+00
 0.7203788221687E+00
 0.7299185103529E+00
 0.7369747854448E+00
 0.7414782980055E+00
 0.7434308698474E+00
 0.7428857697267E+00
 0.7399302316903E+00
 0.7346722500586E+00
 0.7272325431751E+00
 0.7177417577602E+00
 0.7063424544906E+00
 0.6931956500271E+00
 0.6784904844767E+00
 0.6624570460734E+00
 0.6453817824911E+00
 0.6276241114662E+00
 0.6096347353577E+00
 0.5919756730969E+00
 0.5753440311546E+00
 0.5605967512644E+00
 0.5487740651554E+00
 0.5411250374220E+00
 0.5391278668783E+00
 0.5444853792738E+00
 0.5590643678230E+00
 0.5847459985633E+00
 0.6231777132822E+00
 0.6754632470618E+00
 0.7418726071720E+00
 0.8216426903369E+00
 0.9128976682437E+00
 0.1012708486516E+01
 0.1117286721206E+01
 0.1222295708649E+01
 0.1323237613869E+01
 0.6640382783917E+00
 0.6832816518948E+00
 0.7023740771281E+00
 0.7206793287282E+00
 0.7375997668320E+00
 0.7526225251410E+00
 0.7653501796353E+00
 0.7755122483815E+00
 0.7829589589599E+00
 0.7876425981365E+00
 0.7895929080369E+00
 0.7888921453947E+00
 0.7856537412063E+00
 0.7800066689157E+00
 0.7720862163058E+00
 0.7620309333733E+00
 0.7499850060670E+00
 0.7361056323721E+00
 0.7205737816625E+00
 0.7036083346994E+00
 0.6854829934459E+00
 0.6665445134503E+00
 0.6472327946862E+00
 0.6281031269304E+00
 0.6098535843667E+00
 0.5933520423527E+00
 0.5796599140205E+00
 0.5700601887469E+00
 0.5660841023004E+00
 0.5695172736353E+00
 0.5823520871306E+00
 0.6066468709142E+00
 0.6442713861797E+00
 0.6965663553942E+00
 0.7640037015413E+00
 0.8459357771780E+00
 0.9404773753905E+00
 0.1044549059423E+01
 0.1154081079497E+01
 0.1264358605271E+01
 0.1370462515342E+01
 0.7013228995428E+00
 0.7221340394290E+00
 0.7427950466833E+00
 0.7625855968601E+00
 0.7808340111324E+00
 0.7969730290012E+00
 0.8105750409142E+00
 0.8213629508462E+00
 0.8291994087924E+00
 0.8340616948734E+00
 0.8360105170310E+00
 0.8351595220371E+00
 0.8316499712604E+00
 0.8256326965032E+00
 0.8172577620668E+00
 0.8066712508605E+00
 0.7940181023037E+00
 0.7794503670831E+00
 0.7631390765636E+00
 0.7452896975217E+00
 0.7261605340358E+00
 0.7060825867885E+00
 0.6854814498792E+00
 0.6649018549480E+00
 0.6450388887306E+00
 0.6267674796673E+00
 0.6111665198993E+00
 0.5995494875582E+00
 0.5934976499138E+00
 0.5948773908961E+00
 0.6058072068392E+00
 0.6285287262415E+00
 0.6651493755742E+00
 0.7172725863415E+00
 0.7856043295638E+00
 0.8696423708519E+00
 0.9675103081988E+00
 0.1075977991043E+01
 0.1190673761029E+01
 0.1306467218603E+01
 0.1417970582555E+01
 0.7386840203288E+00
 0.7611137500047E+00
 0.7833922914769E+00
 0.8047102114161E+00
 0.8243179837549E+00
 0.8415923926781E+00
 0.8560765391418E+00
 0.8674895480141E+00
 0.8757103759292E+00
 0.8807453407550E+00
 0.8826896674362E+00
 0.8816911018420E+00
 0.8779205101206E+00
 0.8715514896518E+00
 0.8627490550872E+00
 0.8516663965710E+00
 0.8384482811800E+00
 0.8232402399644E+00
 0.8062015637329E+00
 0.7875220621554E+00
 0.7674419353838E+00
 0.7462732439193E+00
 0.7244236132417E+00
 0.7024231300927E+00
 0.6809595578584E+00
 0.6609104768141E+00
 0.6433678845070E+00
 0.6296714958678E+00
 0.6214486557355E+00
 0.6206433998696E+00
 0.6294996606588E+00
 0.6504474698178E+00
 0.6858471774598E+00
 0.7375925781859E+00
 0.8066601989266E+00
 0.8927289921388E+00
 0.9939546947001E+00
 0.1106958523333E+01
 0.1227045042478E+01
 0.1348626482098E+01
 0.1465792980757E+01
 0.7761333816912E+00
 0.8002385577637E+00
 0.8241889707097E+00
 0.8470799439732E+00
 0.8680796006193E+00
 0.8865071239490E+00
 0.9018776881618E+00
 0.9139102684736E+00
 0.9225048759234E+00
 0.9277016482636E+00
 0.9296343969365E+00
 0.9284879694027E+00
 0.9244647267520E+00
 0.9177619420642E+00
 0.9085597031411E+00
 0.8970178187876E+00
 0.8832799065588E+00
 0.8674835732137E+00
 0.8497745494108E+00
 0.8303247312406E+00
 0.8093534818383E+00
 0.7871506724591E+00
 0.7641021666126E+00
 0.7407190857594E+00
 0.7176771664298E+00
 0.6958517125699E+00
 0.6763427477965E+00
 0.6605110860085E+00
 0.6500251383440E+00
 0.6469022391952E+00
 0.6535096541242E+00
 0.6724695392001E+00
 0.7064099235156E+00
 0.7575443210366E+00
 0.8271610059123E+00
 0.9151626453884E+00
 0.1019766801527E+01
 0.1137451405230E+01
 0.1263174157595E+01
 0.1390843115116E+01
 0.1513966132775E+01
 0.8136832940194E+00
 0.8395271861325E+00
 0.8652094885431E+00
 0.8897228676692E+00
 0.9121478285869E+00
 0.9317442647865E+00
 0.9480013701200E+00
 0.9606425287144E+00
 0.9695945215688E+00
 0.9749368791971E+00
 0.9768465930574E+00
 0.9755488836147E+00
 0.9712795768837E+00
 0.9642605014484E+00
 0.9546868673126E+00
 0.9427245408280E+00
 0.9285149642317E+00
 0.9121863960125E+00
 0.8938691908789E+00
 0.8737150882681E+00
 0.8519198855111E+00
 0.8287479867201E+00
 0.8045596061427E+00
 0.7798423802932E+00
 0.7552549724611E+00
 0.7316649601471E+00
 0.7101745813123E+00
 0.6921596565026E+00
 0.6793234788028E+00
 0.6737509190312E+00
 0.6779287942376E+00
 0.6946733323828E+00
 0.7268939796691E+00
 0.7771546600110E+00
 0.8471015073742E+00
 0.9369112401059E+00
 0.1044900772407E+01
 0.1167414489092E+01
 0.1299039035671E+01
 0.1433125695518E+01
 0.1562532218805E+01
 0.8513467835312E+00
 0.8789995443045E+00
 0.9064797902496E+00
 0.9326686489807E+00
 0.9565529032443E+00
 0.9773314889382E+00
 0.9944703034302E+00
 0.1007702793891E+01
 0.1016989315214E+01
 0.1022455207685E+01
 0.1024325756087E+01
 0.1022870056147E+01
 0.1018359400347E+01
 0.1011040980224E+01
 0.1001125075600E+01
 0.9887829652731E+00
 0.9741528449245E+00
 0.9573521963042E+00
 0.9384942097468E+00
 0.9177082685798E+00
 0.8951639156269E+00
 0.8710968220213E+00
 0.8458376164923E+00
 0.8198457771582E+00
 0.7937575431654E+00
 0.7684268128782E+00
 0.7449514798971E+00
 0.7247152615032E+00
 0.7094488553733E+00
 0.7012973152916E+00
 0.7028612759176E+00
 0.7171507736249E+00
 0.7473687699422E+00
 0.7964610813366E+00
 0.8664828511339E+00
 0.9579441495766E+00
 0.1069308447940E+01
 0.1196802223961E+01
 0.1334615960702E+01
 0.1475484688272E+01
 0.1611539620924E+01
 0.8891377628145E+00
 0.9186770014042E+00
 0.9480277030650E+00
 0.9759488776259E+00
 0.1001326566038E+01
 0.1023297195809E+01
 0.1041306988589E+01
 0.1055106407592E+01
 0.1064697410909E+01
 0.1070258460343E+01
 0.1072068748930E+01
 0.1070444925955E+01
 0.1065695721112E+01
 0.1058094372558E+01
 0.1047866043585E+01
 0.1035186683519E+01
 0.1020190128845E+01
 0.1002981668609E+01
 0.9836555941763E+00
 0.9623168105480E+00
 0.9391059974089E+00
 0.9142268857860E+00
 0.8879765870118E+00
 0.8607816510184E+00
 0.8332502913369E+00
 0.8062163091886E+00
 0.7807659504928E+00
 0.7582826496289E+00
 0.7405156186580E+00
 0.7296609557498E+00
 0.7284251326326E+00
 0.7400090381972E+00
 0.7679188693820E+00
 0.8155138532530E+00
 0.8853142524342E+00
 0.9782329765131E+00
 0.1092939190616E+01
 0.1225565040176E+01
 0.1369879172874E+01
 0.1517932481435E+01
 0.1661043340098E+01
 0.9270712307128E+00
 0.9585827083929E+00
 0.9898833336185E+00
 0.1019597444475E+01
 0.1046502325921E+01
 0.1069670601360E+01
 0.1088533630766E+01
 0.1102867391004E+01
 0.1112724850548E+01
 0.1118345842373E+01
 0.1120069547027E+01
 0.1118263946442E+01
 0.1113277069183E+01
 0.1105408698685E+01
 0.1094898524401E+01
 0.1081926313853E+01
 0.1066620395743E+01
 0.1049072482468E+01
 0.1029356315104E+01
 0.1007550312247E+01
 0.9837638057159E+00
 0.9581654899435E+00
 0.9310150928229E+00
 0.9027014398064E+00
 0.8737989380492E+00
 0.8451144669929E+00
 0.8177146018162E+00
 0.7929732103395E+00
 0.7726476024205E+00
 0.7589737948243E+00
 0.7547535548890E+00
 0.7633724534058E+00
 0.7886464082977E+00
 0.8343785996575E+00
 0.9036151211580E+00
 0.9977526157699E+00
 0.1115739743141E+01
 0.1253648602514E+01
 0.1404800428319E+01
 0.1560483508590E+01
 0.1711105411550E+01
 0.9651635077871E+00
 0.9987419739398E+00
 0.1032079525580E+01
 0.1063650962931E+01
 0.1092115729332E+01
 0.1116481798794E+01
 0.1136172004534E+01
 0.1150998173550E+01
 0.1161075235512E+01
 0.1166713611361E+01
 0.1168318949867E+01
 0.1166314345556E+01
 0.1161088782408E+01
 0.1152968831670E+01
 0.1142208139911E+01
 0.1128989316580E+01
 0.1113434005629E+01
 0.1095619013375E+01
 0.1075595995194E+01
 0.1053415029382E+01
 0.1029151786306E+01
 0.1002936994557E+01
 0.9749892674340E+00
 0.9456549654902E+00
 0.9154688195628E+00
 0.8852036397564E+00
 0.8558976412877E+00
 0.8289047297504E+00
 0.8059782713708E+00
 0.7893808840327E+00
 0.7819961966196E+00
 0.7873845172539E+00
 0.8096737632481E+00
 0.8531393308352E+00
 0.9214177064065E+00
 0.1016482668437E+01
 0.1137654078101E+01
 0.1280992774710E+01
 0.1439348372772E+01
 0.1603154400318E+01
 0.1761795134154E+01
 0.1003432517295E+01
 0.1039182714223E+01
 0.1074652402708E+01
 0.1108149257804E+01
 0.1138204657822E+01
 0.1163761805345E+01
 0.1184243279140E+01
 0.1199509280558E+01
 0.1209749369305E+01
 0.1215354744502E+01
 0.1216804308833E+01
 0.1214579920885E+01
 0.1209112856210E+01
 0.1200756379636E+01
 0.1189777270608E+01
 0.1176359867938E+01
 0.1160617935990E+01
 0.1142612126034E+01
 0.1122370624185E+01
 0.1099913511686E+01
 0.1075280705041E+01
 0.1048562265233E+01
 0.1019932170304E+01
 0.9896897257385E+00
 0.9583241366952E+00
 0.9265667853338E+00
 0.8954182601897E+00
 0.8662010251037E+00
 0.8406507646278E+00
 0.8210409911511E+00
 0.8103205241124E+00
 0.8122101002001E+00
 0.8311466274024E+00
 0.8719020770469E+00
 0.9387704694728E+00
 0.1034409439412E+01
 0.1158623383336E+01
 0.1307530290821E+01
 0.1473487765703E+01
 0.1645964440004E+01
 0.1813189279708E+01
 0.1041898120654E+01
 0.1079935987156E+01
 0.1117642003252E+01
 0.1153135914111E+01
 0.1184809627560E+01
 0.1211542553929E+01
 0.1232767754654E+01
 0.1248408926332E+01
 0.1258744820850E+01
 0.1264258550295E+01
 0.1265509222139E+01
 0.1263040818366E+01
 0.1257327786252E+01
 0.1248749564062E+01
 0.1237584940102E+01
 0.1224018723900E+01
 0.1208155601881E+01
 0.1190038931707E+01
 0.1169672237979E+01
 0.1147044190986E+01
 0.1122157134241E+01
 0.1095058049610E+01
 0.1065873050423E+01
 0.1034850052532E+01
 0.1002427036285E+01
 0.9692865289575E+00
 0.9363817784321E+00
 0.9049913189780E+00
 0.8768176887212E+00
 0.8541270225639E+00
 0.8399130739718E+00
 0.8380377210463E+00
 0.8532373937543E+00
 0.8907991300610E+00
 0.9557422811836E+00
 0.1051528661832E+01
 0.1178586213872E+01
 0.1333184861566E+01
 0.1507178175371E+01
 0.1688936286706E+01
 0.1865371991080E+01
 0.1080582523135E+01
 0.1121036635653E+01
 0.1161093031753E+01
 0.1198658901575E+01
 0.1231974091449E+01
 0.1259856820206E+01
 0.1281764498997E+01
 0.1297702509919E+01
 0.1308055416028E+01
 0.1313410241626E+01
 0.1314413220482E+01
 0.1311673322277E+01
 0.1305708434034E+01
 0.1296923125612E+01
 0.1285606726888E+01
 0.1271943107761E+01
 0.1256026694127E+01
 0.1237882556362E+01
 0.1217488599772E+01
 0.1194800960875E+01
 0.1169782917826E+01
 0.1142436315916E+01
 0.1112836549437E+01
 0.1081176180094E+01
 0.1047836563276E+01
 0.1013444051319E+01
 0.9788945679432E+00
 0.9454093567217E+00
 0.9146406477818E+00
 0.8888262263449E+00
 0.8709805992295E+00
 0.8650818920143E+00
 0.8761488832317E+00
 0.9099940007300E+00
 0.9724276679137E+00
 0.1067849284053E+01
 0.1197479107891E+01
 0.1357868605978E+01
 0.1540371716079E+01
 0.1732097166301E+01
 0.1918434342925E+01
 0.1119510767276E+01
 0.1162524069960E+01
 0.1205055758166E+01
 0.1244771290069E+01
 0.1279744739267E+01
 0.1308738068697E+01
 0.1331250870903E+01
 0.1347392009582E+01
 0.1357670667172E+01
 0.1362790491447E+01
 0.1363491472179E+01
 0.1360449689593E+01
 0.1354225950829E+01
 0.1345248294422E+01
 0.1333814741644E+01
 0.1320106661239E+01
 0.1304207076950E+01
 0.1286121962597E+01
 0.1265802927921E+01
 0.1243172794514E+01
 0.1218154663525E+01
 0.1190703603416E+01
 0.1160841894758E+01
 0.1128703271384E+01
 0.1094607528333E+01
 0.1059117837666E+01
 0.1023062775650E+01
 0.9875922670754E+00
 0.9542894868357E+00
 0.9253401320279E+00
 0.9037510527095E+00
 0.8935854931790E+00
 0.9001184124638E+00
 0.9296871703654E+00
 0.9889533196400E+00
 0.1083398694012E+01
 0.1215238152604E+01
 0.1381478822151E+01
 0.1573008937030E+01
 0.1775480533176E+01
 0.1972473376418E+01
 0.1158711337381E+01
 0.1204443217489E+01
 0.1249587083166E+01
 0.1291532044656E+01
 0.1328171748697E+01
 0.1358220147481E+01
 0.1381241853083E+01
 0.1397475206355E+01
 0.1407575079028E+01
 0.1412374913884E+01
 0.1412714449911E+01
 0.1409337966284E+01
 0.1402847691059E+01
 0.1393692748892E+01
 0.1382177587176E+01
 0.1368479369523E+01
 0.1352668649032E+01
 0.1334731723118E+01
 0.1314593562337E+01
 0.1292143286730E+01
 0.1267263143353E+01
 0.1239860261515E+01
 0.1209901955309E+01
 0.1177460271212E+01
 0.1142789152840E+01
 0.1106382140400E+01
 0.1068990684256E+01
 0.1031678984236E+01
 0.9959410432191E+00
 0.9638840038296E+00
 0.9384741833330E+00
 0.9238219774673E+00
 0.9254220555916E+00
 0.9501225998586E+00
 0.1005486005287E+01
 0.1098229688314E+01
 0.1231802126413E+01
 0.1403894523656E+01
 0.1605011187890E+01
 0.1819127151867E+01
 0.2027589773133E+01
 0.1198216909495E+01
 0.1246845698038E+01
 0.1294751828529E+01
 0.1339006934692E+01
 0.1377308993049E+01
 0.1408336828576E+01
 0.1431749207985E+01
 0.1447944776940E+01
 0.1457747398979E+01
 0.1462133559245E+01
 0.1462047660880E+01
 0.1458301896036E+01
 0.1451537232278E+01
 0.1442220686566E+01
 0.1430660431525E+01
 0.1417027598368E+01
 0.1401379314184E+01
 0.1383681900298E+01
 0.1363833732465E+01
 0.1341690292279E+01
 0.1317092783221E+01
 0.1289899767461E+01
 0.1260022358182E+01
 0.1227468790585E+01
 0.1192423698267E+01
 0.1155305357822E+01
 0.1116778899032E+01
 0.1077808391816E+01
 0.1039777525349E+01
 0.1004685879102E+01
 0.9754217796078E+00
 0.9560974270156E+00
 0.9523791453733E+00
 0.9715951089256E+00
 0.1022242241023E+01
 0.1112429666322E+01
 0.1247118007842E+01
 0.1424974778520E+01
 0.1636268104137E+01
 0.1863082643197E+01
 0.2083882341245E+01
 0.1238065287250E+01
 0.1289791274520E+01
 0.1340624283547E+01
 0.1387269533230E+01
 0.1427214123310E+01
 0.1459121084650E+01
 0.1482780351907E+01
 0.1498787170741E+01
 0.1508159742504E+01
 0.1512030359958E+01
 0.1511451374551E+01
 0.1507300847608E+01
 0.1500254418316E+01
 0.1490792914113E+01
 0.1479225092343E+01
 0.1465714133031E+01
 0.1450302943346E+01
 0.1432937905479E+01
 0.1413491292462E+01
 0.1391785518050E+01
 0.1367621092363E+01
 0.1340807967215E+01
 0.1311200505592E+01
 0.1278741856672E+01
 0.1243544908068E+01
 0.1205948147442E+01
 0.1166522162261E+01
 0.1126116962547E+01
 0.1085984252254E+01
 0.1047984878376E+01
 0.1014887214104E+01
 0.9907521188685E+00
 0.9813567239217E+00
 0.9944584751195E+00
 0.1039499735629E+01
 0.1126132699277E+01
 0.1261148485058E+01
 0.1444562107891E+01
 0.1666622441701E+01
 0.1907381182821E+01
 0.2141431766804E+01
 0.1278300588620E+01
 0.1333349658108E+01
 0.1387290077371E+01
 0.1436402310253E+01
 0.1477948463873E+01
 0.1510604028118E+01
 0.1534336899576E+01
 0.1549981263093E+01
 0.1558776616966E+01
 0.1562022566395E+01
 0.1560880391302E+01
 0.1556289803174E+01
 0.1548955465912E+01
 0.1539366995641E+01
 0.1527830172094E+01
 0.1514498260023E+01
 0.1499399370991E+01
 0.1482460383404E+01
 0.1463528471341E+01
 0.1442394119722E+01
 0.1418818086679E+01
 0.1392562298359E+01
 0.1363424556749E+01
 0.1331282598724E+01
 0.1296176336344E+01
 0.1258361347128E+01
 0.1218306857842E+01
 0.1176735928925E+01
 0.1134746738718E+01
 0.1094028702114E+01
 0.1057184129563E+01
 0.1028161415411E+01
 0.1012773755730E+01
 0.1019134233793E+01
 0.1057610770412E+01
 0.1139535045298E+01
 0.1273883052671E+01
 0.1462486524687E+01
 0.1695876259091E+01
 0.1951996066166E+01
 0.2200222363302E+01
 0.1318974781370E+01
 0.1377602738207E+01
 0.1434848490914E+01
 0.1486497800705E+01
 0.1529576638187E+01
 0.1562813420919E+01
 0.1586412833970E+01
 0.1601496796458E+01
 0.1609553894904E+01
 0.1612060241578E+01
 0.1610283924982E+01
 0.1605219479560E+01
 0.1597593205604E+01
 0.1587897530810E+01
 0.1576431318213E+01
 0.1563335969974E+01
 0.1548624509114E+01
 0.1532205210038E+01
 0.1513901731315E+01
 0.1493474401241E+01
 0.1470645810253E+01
 0.1445131106650E+01
 0.1416672494969E+01
 0.1385082999333E+01
 0.1350329700246E+01
 0.1312583843657E+01
 0.1272208337409E+01
 0.1229788087733E+01
 0.1186247170187E+01
 0.1143070260719E+01
 0.1102644107307E+01
 0.1068735706585E+01
 0.1047104920785E+01
 0.1046120754331E+01
 0.1077018414171E+01
 0.1152912771508E+01
 0.1285357912154E+01
 0.1478564057740E+01
 0.1723806144789E+01
 0.1996930786700E+01
 0.2259549482536E+01
 0.1360150865941E+01
 0.1422653067878E+01
 0.1483425004366E+01
 0.1537674107829E+01
 0.1582184646336E+01
 0.1615794758477E+01
 0.1639019306437E+01
 0.1653323303439E+01
 0.1660471883516E+01
 0.1662123294299E+01
 0.1659646406786E+01
 0.1654080802782E+01
 0.1646165240734E+01
 0.1636388108286E+01
 0.1625037151717E+01
 0.1612240092042E+01
 0.1597994954154E+01
 0.1582192865401E+01
 0.1564636218146E+01
 0.1545057659122E+01
 0.1523143870615E+01
 0.1498565113576E+01
 0.1471009670103E+01
 0.1440227515040E+01
 0.1406114406387E+01
 0.1368757616213E+01
 0.1328410815083E+01
 0.1285511526106E+01
 0.1240790519062E+01
 0.1195494289414E+01
 0.1151741414869E+01
 0.1113040423786E+01
 0.1084992311368E+01
 0.1076093458832E+01
 0.1098340968439E+01
 0.1166695254468E+01
 0.1295693981924E+01
 0.1492691711305E+01
 0.1750165332329E+01
 0.2042330686190E+01
 0.2321327512885E+01
 0.1401901762963E+01
 0.1468616488259E+01
 0.1533154842158E+01
 0.1590047356321E+01
 0.1635840720891E+01
 0.1669562132937E+01
 0.1692127511316E+01
 0.1705406391011E+01
 0.1711465588647E+01
 0.1712145728275E+01
 0.1708905455095E+01
 0.1702816233975E+01
 0.1694618224761E+01
 0.1684788097163E+01
 0.1673598095186E+01
 0.1661160633941E+01
 0.1647459267818E+01
 0.1632370049519E+01
 0.1615677097780E+01
 0.1597088653537E+01
 0.1576258529642E+01
 0.1552814724851E+01
 0.1526394077148E+01
 0.1496686284837E+01
 0.1463518929349E+01
 0.1426897917445E+01
 0.1386967549897E+01
 0.1344011841981E+01
 0.1298552071829E+01
 0.1251565195384E+01
 0.1204848487712E+01
 0.1161569007435E+01
 0.1127047962628E+01
 0.1109748623550E+01
 0.1122267529218E+01
 0.1181396193537E+01
 0.1305070856420E+01
 0.1504639458037E+01
 0.1774888224896E+01
 0.2087136834380E+01
 0.2392362424978E+01
 0.1444316197185E+01
 0.1515628237600E+01
 0.1584188744028E+01
 0.1643733865033E+01
 0.1690593904554E+01
 0.1724095053582E+01
 0.1745665703239E+01
 0.1757645902573E+01
 0.1762424060380E+01
 0.1762015801852E+01
 0.1757952447119E+01
 0.1751320458800E+01
 0.1742848485684E+01
 0.1732993095979E+01
 0.1722006569677E+01
 0.1709984655741E+01
 0.1696897445897E+01
 0.1682608646562E+01
 0.1666887901543E+01
 0.1649423215755E+01
 0.1629839454894E+01
 0.1607725801097E+01
 0.1582670994746E+01
 0.1554308439310E+01
 0.1522402541539E+01
 0.1486883127451E+01
 0.1447788517915E+01
 0.1405247401295E+01
 0.1359560288658E+01
 0.1311408130955E+01
 0.1262216947157E+01
 0.1214727375046E+01
 0.1173847216426E+01
 0.1147813794915E+01
 0.1149592327130E+01
 0.1197688160043E+01
 0.1313776679323E+01
 0.1514281369561E+01
 0.1797355248222E+01
 0.2132739754331E+01
 0.2466390783578E+01
 0.1487503377207E+01
 0.1563858656622E+01
 0.1636715115317E+01
 0.1698876661223E+01
 0.1746505568349E+01
 0.1779377492565E+01
 0.1799567591422E+01
 0.1809953917796E+01
 0.1813257287517E+01
 0.1811650965922E+01
 0.1806714938693E+01
 0.1799530086510E+01
 0.1790799082217E+01
 0.1780949611340E+01
 0.1770209680759E+01
 0.1758657423726E+01
 0.1746251045617E+01
 0.1732845354318E+01
 0.1718200189782E+01
 0.1701988457614E+01
 0.1683810926780E+01
 0.1663222185919E+01
 0.1639766933394E+01
 0.1613027238916E+01
 0.1582710983864E+01
 0.1548679746156E+01
 0.1510872769684E+01
 0.1469266110937E+01
 0.1423933813870E+01
 0.1375240735020E+01
 0.1324197467572E+01
 0.1273034829765E+01
 0.1226104228513E+01
 0.1191192817359E+01
 0.1181332178629E+01
 0.1216491996040E+01
 0.1322325828316E+01
 0.1521513712697E+01
 0.1817316847910E+01
 0.2178893033121E+01
 0.2543965272884E+01
 0.1531598527393E+01
 0.1613516806813E+01
 0.1690957149432E+01
 0.1755631549337E+01
 0.1803625725444E+01
 0.1835368769789E+01
 0.1853740977608E+01
 0.1862222030780E+01
 0.1863861653211E+01
 0.1860960755460E+01
 0.1855116431256E+01
 0.1847379945155E+01
 0.1838412401070E+01
 0.1828603772726E+01
 0.1818153862065E+01
 0.1807122766958E+01
 0.1795459004208E+01
 0.1783012683554E+01
 0.1769539442939E+01
 0.1754703296323E+01
 0.1738086812135E+01
 0.1719215038959E+01
 0.1697593331313E+01
 0.1672758221216E+01
 0.1644369245346E+01
 0.1612230112600E+01
 0.1576191575991E+01
 0.1536084745057E+01
 0.1491758168830E+01
 0.1443249136442E+01
 0.1391118397072E+01
 0.1337010963012E+01
 0.1284575918603E+01
 0.1240898748582E+01
 0.1218698753214E+01
 0.1239002606327E+01
 0.1331484060042E+01
 0.1526356389759E+01
 0.1834347857593E+01
 0.2225150499656E+01
 0.2625741065421E+01
 0.1576771190087E+01
 0.1664861918785E+01
 0.1747179742745E+01
 0.1814164478506E+01
 0.1861984080521E+01
 0.1891994479829E+01
 0.1908062004584E+01
 0.1914319028132E+01
 0.1914119766519E+01
 0.1909847591292E+01
 0.1903077459279E+01
 0.1894804154368E+01
 0.1885631117854E+01
 0.1875902171103E+01
 0.1865785607747E+01
 0.1855323715023E+01
 0.1844458171260E+01
 0.1833039345304E+01
 0.1820825243789E+01
 0.1807478378979E+01
 0.1792570217070E+01
 0.1775602245193E+01
 0.1756045749468E+01
 0.1733398153395E+01
 0.1707280144905E+01
 0.1677450353604E+01
 0.1643685302013E+01
 0.1605684074280E+01
 0.1563078224303E+01
 0.1515576738218E+01
 0.1463270192567E+01
 0.1407156620976E+01
 0.1350043932853E+01
 0.1298045997421E+01
 0.1263115920102E+01
 0.1266745142031E+01
 0.1342374736718E+01
 0.1529003154435E+01
 0.1847838241093E+01
 0.2271035322679E+01
 0.2712473096175E+01
 0.1623236953058E+01
 0.1718218864456E+01
 0.1805697286856E+01
 0.1874645651685E+01
 0.1921576883707E+01
 0.1949134996988E+01
 0.1962368968795E+01
 0.1966089111048E+01
 0.1963900994223E+01
 0.1958208122971E+01
 0.1950517031529E+01
 0.1941737416984E+01
 0.1932399295350E+01
 0.1922792793321E+01
 0.1913052286880E+01
 0.1903203222467E+01
 0.1893183942084E+01
 0.1882850750765E+01
 0.1871971567020E+01
 0.1860216085306E+01
 0.1847153177068E+01
 0.1832267837473E+01
 0.1815003098770E+01
 0.1794824085375E+01
 0.1771323118147E+01
 0.1744228648741E+01
 0.1713260667506E+01
 0.1678004332947E+01
 0.1637890712565E+01
 0.1592312251198E+01
 0.1540887418331E+01
 0.1483929488627E+01
 0.1423287285157E+01
 0.1363831021535E+01
 0.1316227554506E+01
 0.1301636922583E+01
 0.1356609244792E+01
 0.1529928352393E+01
 0.1857065258107E+01
 0.2315956507177E+01
 0.2805064614416E+01
 0.1671274332303E+01
 0.1773999345615E+01
 0.1866881778824E+01
 0.1937238142359E+01
 0.1982347980464E+01
 0.2006611373553E+01
 0.2016456220473E+01
 0.2017351158530E+01
 0.2013062958119E+01
 0.2005935217219E+01
 0.1997354458852E+01
 0.1988116535912E+01
 0.1978663618117E+01
 0.1969226051543E+01
 0.1959903043005E+01
 0.1950704990082E+01
 0.1941571012569E+01
 0.1932369656681E+01
 0.1922887217472E+01
 0.1912810646324E+01
 0.1901716404544E+01
 0.1889081432080E+01
 0.1874326892769E+01
 0.1856892515610E+01
 0.1836353267691E+01
 0.1812423938991E+01
 0.1784788605119E+01
 0.1752941339419E+01
 0.1716137226749E+01
 0.1673477567797E+01
 0.1624128936751E+01
 0.1567714388210E+01
 0.1505044026973E+01
 0.1439496282828E+01
 0.1379889232755E+01
 0.1346046688019E+01
 0.1376448404077E+01
 0.1530087453335E+01
 0.1861254543070E+01
 0.2359120280310E+01
 0.2904623915212E+01
 0.1721249635386E+01
 0.1832731201309E+01
 0.1931169825272E+01
 0.2002077386642E+01
 0.2044162044456E+01
 0.2064168839077E+01
 0.2070069077061E+01
 0.2067899667120E+01
 0.2061454251905E+01
 0.2052920655654E+01
 0.2043511565200E+01
 0.2033882132543E+01
 0.2024374735544E+01
 0.2015155881217E+01
 0.2006289755831E+01
 0.1997774365961E+01
 0.1989554248752E+01
 0.1981516964011E+01
 0.1973476436838E+01
 0.1965148394786E+01
 0.1956129082726E+01
 0.1945897628600E+01
 0.1933860454660E+01
 0.1919438610600E+01
 0.1902200669422E+01
 0.1881865151598E+01
 0.1858102884004E+01
 0.1830343550099E+01
 0.1797698152279E+01
 0.1759016162385E+01
 0.1713057223957E+01
 0.1658789099866E+01
 0.1595960977628E+01
 0.1526271686717E+01
 0.1456132544666E+01
 0.1402838509459E+01
 0.1404999076028E+01
 0.1531224004900E+01
 0.1859692205971E+01
 0.2399417970854E+01
 0.3012533905985E+01
 0.1773654534941E+01
 0.1895099262232E+01
 0.1999065302290E+01
 0.2069235740726E+01
 0.2106767761541E+01
 0.2121458956530E+01
 0.2122901247922E+01
 0.2117508114829E+01
 0.2108918588924E+01
 0.2099058565764E+01
 0.2088915257576E+01
 0.2078980532750E+01
 0.2069488681768E+01
 0.2060540880995E+01
 0.2052168043514E+01
 0.2044359311293E+01
 0.2037069667993E+01
 0.2030212686954E+01
 0.2023639717665E+01
 0.2017108189215E+01
 0.2010248714414E+01
 0.2002555325327E+01
 0.1993427987209E+01
 0.1982275393204E+01
 0.1968669914014E+01
 0.1952351023266E+01
 0.1932999691768E+01
 0.1910010359243E+01
 0.1882388028868E+01
 0.1848782850490E+01
 0.1807618138566E+01
 0.1757287461401E+01
 0.1696532268249E+01
 0.1625288404632E+01
 0.1547085659519E+01
 0.1475380267707E+01
 0.1446432756513E+01
 0.1536323099912E+01
 0.1851960673260E+01
 0.2435283223562E+01
 0.3130551032975E+01
 0.1829164523087E+01
 0.1962002525658E+01
 0.2071130696915E+01
 0.2138662971162E+01
 0.2169749147179E+01
 0.2178023079095E+01
 0.2174596946367E+01
 0.2165935485634E+01
 0.2155300491218E+01
 0.2144249564199E+01
 0.2133500414769E+01
 0.2123365785267E+01
 0.2113968348795E+01
 0.2105345480662E+01
 0.2097498298903E+01
 0.2090411431780E+01
 0.2084055546175E+01
 0.2078377133948E+01
 0.2073274903739E+01
 0.2068562109584E+01
 0.2063921088040E+01
 0.2058876928719E+01
 0.2052833410295E+01
 0.2045192801406E+01
 0.2035539871583E+01
 0.2023650649737E+01
 0.2009238437786E+01
 0.1991692022936E+01
 0.1969952904375E+01
 0.1942535877677E+01
 0.1907622851166E+01
 0.1863162528949E+01
 0.1807030071199E+01
 0.1737463223256E+01
 0.1654830219224E+01
 0.1567480187596E+01
 0.1506195987248E+01
 0.1550254696463E+01
 0.1838425239027E+01
 0.2464521171360E+01
 0.3260950638279E+01
 0.1888732889011E+01
 0.2034633865460E+01
 0.2147952459355E+01
 0.2210088767954E+01
 0.2232465244590E+01
 0.2233282404408E+01
 0.2224760386874E+01
 0.2212936397776E+01
 0.2200452446004E+01
 0.2188405512753E+01
 0.2177213002590E+01
 0.2167001740896E+01
 0.2157784960054E+01
 0.2149541095393E+01
 0.2142246724137E+01
 0.2135887042840E+01
 0.2130453627852E+01
 0.2125932305441E+01
 0.2122278634603E+01
 0.2119376524559E+01
 0.2116980424124E+01
 0.2114667390605E+01
 0.2111858764130E+01
 0.2107956383613E+01
 0.2102563555771E+01
 0.2095504827109E+01
 0.2086544002151E+01
 0.2075091518539E+01
 0.2060070116066E+01
 0.2039932202793E+01
 0.2012733756670E+01
 0.1976153239894E+01
 0.1927433636824E+01
 0.1863358556443E+01
 0.1781176181183E+01
 0.1683190703850E+01
 0.1591150129230E+01
 0.1580629641258E+01
 0.1821197830864E+01
 0.2484148910639E+01
 0.3406750184825E+01
 0.1953747582068E+01
 0.2114588949635E+01
 0.2230049792563E+01
 0.2282867507167E+01
 0.2293984418621E+01
 0.2286543824997E+01
 0.2272975180733E+01
 0.2258274657444E+01
 0.2244243301760E+01
 0.2231454735155E+01
 0.2220013296184E+01
 0.2209864119727E+01
 0.2200919499248E+01
 0.2193107236310E+01
 0.2186386341292E+01
 0.2180748249021E+01
 0.2176210424271E+01
 0.2172803520784E+01
 0.2170548222566E+01
 0.2169413709483E+01
 0.2169249866997E+01
 0.2169713053787E+01
 0.2170261927327E+01
 0.2170305304228E+01
 0.2169467922211E+01
 0.2167628302057E+01
 0.2164610756193E+01
 0.2159868719666E+01
 0.2152350898105E+01
 0.2140526729840E+01
 0.2122456314427E+01
 0.2095758550055E+01
 0.2057364825001E+01
 0.2003033726123E+01
 0.1927351847144E+01
 0.1826392018840E+01
 0.1709511026989E+01
 0.1638827677418E+01
 0.1805962733374E+01
 0.2490396651723E+01
 0.3572077113146E+01
 0.2026304646287E+01
 0.2204006440999E+01
 0.2317663146852E+01
 0.2355741552252E+01
 0.2353033633628E+01
 0.2337034896055E+01
 0.2318834112049E+01
 0.2301739241958E+01
 0.2286567610447E+01
 0.2273347444690E+01
 0.2261879046349E+01
 0.2251942476944E+01
 0.2243364035044E+01
 0.2236032535767E+01
 0.2229897944298E+01
 0.2224964002044E+01
 0.2221278558425E+01
 0.2218921247223E+01
 0.2217984027089E+01
 0.2218534246298E+01
 0.2220542599974E+01
 0.2223780325192E+01
 0.2227773262248E+01
 0.2231949104785E+01
 0.2235953289242E+01
 0.2239713047457E+01
 0.2243108747917E+01
 0.2245647274739E+01
 0.2246346056273E+01
 0.2243775832282E+01
 0.2236138452502E+01
 0.2221223422273E+01
 0.2196038327038E+01
 0.2155911945893E+01
 0.2093644947198E+01
 0.2000065505637E+01
 0.1870319272804E+01
 0.1741023968408E+01
 0.1805235019235E+01
 0.2479328474908E+01
 0.3762844041101E+01
 0.2109709905438E+01
 0.2305717587007E+01
 0.2410289309242E+01
 0.2426509888309E+01
 0.2408012411861E+01
 0.2383980821028E+01
 0.2361974823251E+01
 0.2343161580501E+01
 0.2327355594290E+01
 0.2314060967861E+01
 0.2302808418847E+01
 0.2293241959725E+01
 0.2285122869951E+01
 0.2278315635948E+01
 0.2272770945079E+01
 0.2268511086949E+01
 0.2265618090998E+01
 0.2264223049527E+01
 0.2264492329874E+01
 0.2266600486903E+01
 0.2270664066927E+01
 0.2276614323263E+01
 0.2284090610733E+01
 0.2292562297046E+01
 0.2301691857384E+01
 0.2311432716305E+01
 0.2321692577997E+01
 0.2332024630505E+01
 0.2341554774757E+01
 0.2349044969336E+01
 0.2352978134871E+01
 0.2351541554719E+01
 0.2342234475768E+01
 0.2320684032685E+01
 0.2279087751862E+01
 0.2205261207110E+01
 0.2081936370723E+01
 0.1908749799829E+01
 0.1843649898832E+01
 0.2449386614861E+01
 0.3988181032165E+01
 0.2209458708482E+01
 0.2423288154397E+01
 0.2505687343591E+01
 0.2491657489117E+01
 0.2457169455665E+01
 0.2426717470403E+01
 0.2402111521292E+01
 0.2382434886813E+01
 0.2366582753132E+01
 0.2353604327664E+01
 0.2342822584561E+01
 0.2333784742289E+01
 0.2326213471177E+01
 0.2319965911440E+01
 0.2315004092397E+01
 0.2311375010644E+01
 0.2309197784030E+01
 0.2308655563962E+01
 0.2309988634513E+01
 0.2313481414781E+01
 0.2319416192678E+01
 0.2327938045250E+01
 0.2338871871384E+01
 0.2351775313219E+01
 0.2366324596432E+01
 0.2382448667218E+01
 0.2400013819289E+01
 0.2418585939144E+01
 0.2437436576655E+01
 0.2455619801859E+01
 0.2472038230902E+01
 0.2485478350434E+01
 0.2494308648755E+01
 0.2495249431563E+01
 0.2481299325930E+01
 0.2440064717735E+01
 0.2348896779377E+01
 0.2167656905881E+01
 0.1965312128775E+01
 0.2409398079662E+01
 0.4264039846629E+01
 0.2335307633772E+01
 0.2560466328358E+01
 0.2597815862078E+01
 0.2546266862096E+01
 0.2499067317756E+01
 0.2464773927879E+01
 0.2439063107780E+01
 0.2419536889917E+01
 0.2404276448421E+01
 0.2392022413175E+01
 0.2381967614773E+01
 0.2373611068783E+01
 0.2366667121336E+01
 0.2361003984733E+01
 0.2356606027613E+01
 0.2353550746564E+01
 0.2351996240005E+01
 0.2352176356752E+01
 0.2354401089828E+01
 0.2359059038047E+01
 0.2366605028360E+01
 0.2377453410093E+01
 0.2391724001736E+01
 0.2409159146275E+01
 0.2429455350649E+01
 0.2452418320675E+01
 0.2477738121186E+01
 0.2504922762450E+01
 0.2533426675418E+01
 0.2562718804737E+01
 0.2592267616581E+01
 0.2621609995737E+01
 0.2650260607652E+01
 0.2676701243594E+01
 0.2696445867039E+01
 0.2699341926334E+01
 0.2667161703073E+01
 0.2540647939051E+01
 0.2241714362830E+01
 0.2400943299769E+01
 0.4623895481324E+01
 0.2506152220971E+01
 0.2718000188518E+01
 0.2672938416421E+01
 0.2585365841592E+01
 0.2533196303321E+01
 0.2497805757634E+01
 0.2472827491773E+01
 0.2454537306566E+01
 0.2440522330867E+01
 0.2429398841486E+01
 0.2420315515405E+01
 0.2412779874436E+01
 0.2406529234570E+01
 0.2401462026886E+01
 0.2397595664636E+01
 0.2395043316621E+01
 0.2394002868876E+01
 0.2394755599585E+01
 0.2397673565090E+01
 0.2403235779497E+01
 0.2412053924428E+01
 0.2424847649366E+01
 0.2442186825099E+01
 0.2464198633528E+01
 0.2490640694696E+01
 0.2521007606962E+01
 0.2554568679936E+01
 0.2590657549202E+01
 0.2628956039131E+01
 0.2669504724051E+01
 0.2712522757464E+01
 0.2758381841094E+01
 0.2807840471144E+01
 0.2861507309641E+01
 0.2918971342588E+01
 0.2975806977789E+01
 0.3021302266870E+01
 0.3027649595275E+01
 0.2773713493606E+01
 0.2552574472332E+01
 0.5157483403815E+01
 0.2763442584269E+01
 0.2878177760289E+01
 0.2705630559746E+01
 0.2609304346242E+01
 0.2559159544051E+01
 0.2525797873912E+01
 0.2503616108650E+01
 0.2487594172369E+01
 0.2475472867290E+01
 0.2465855244681E+01
 0.2457965012141E+01
 0.2451368639210E+01
 0.2445859358331E+01
 0.2441383770300E+01
 0.2438002350216E+01
 0.2435868154887E+01
 0.2435218571067E+01
 0.2436377448653E+01
 0.2439768102931E+01
 0.2445940613450E+01
 0.2455623804917E+01
 0.2469814042752E+01
 0.2489709347675E+01
 0.2516243322067E+01
 0.2549374534844E+01
 0.2587911038676E+01
 0.2630277949265E+01
 0.2675474707322E+01
 0.2723477019378E+01
 0.2775097900318E+01
 0.2831566727311E+01
 0.2894202084355E+01
 0.2964665279440E+01
 0.3045859464519E+01
 0.3141771100509E+01
 0.3259116056978E+01
 0.3393967682083E+01
 0.3570267324466E+01
 0.3652561761326E+01
 0.3168835793907E+01
 0.6180739937978E+01
 0.3217937358820E+01
 0.2920343220166E+01
 0.2690873642696E+01
 0.2622082531835E+01
 0.2575990132819E+01
 0.2549603497006E+01
 0.2531688195999E+01
 0.2519008697546E+01
 0.2509332737501E+01
 0.2501554333457E+01
 0.2495039822872E+01
 0.2489473025367E+01
 0.2484730678561E+01
 0.2480824262993E+01
 0.2477865762032E+01
 0.2476051259952E+01
 0.2475656070887E+01
 0.2477040925458E+01
 0.2480667002876E+01
 0.2487131905640E+01
 0.2497232756628E+01
 0.2512113205332E+01
 0.2533617017149E+01
 0.2564406299244E+01
 0.2605074923847E+01
 0.2652883879231E+01
 0.2704750308537E+01
 0.2759158860753E+01
 0.2816495083517E+01
 0.2878596644922E+01
 0.2948045796941E+01
 0.3027453492009E+01
 0.3118668411416E+01
 0.3225390907803E+01
 0.3358476893999E+01
 0.3531777787056E+01
 0.3775065943769E+01
 0.4080094375079E+01
 0.4737360217148E+01
 0.4740942457699E+01
 0.9265779836217E+01
 0.5759262093915E-01
 0.6112099012997E-01
 0.6686504890160E-01
 0.7438960738122E-01
 0.8326527391996E-01
 0.9288779455907E-01
 0.1028057672660E+00
 0.1127363160368E+00
 0.1224264479903E+00
 0.1316437550331E+00
 0.1402148433294E+00
 0.1480172339607E+00
 0.1549348491451E+00
 0.1608297977915E+00
 0.1655543257791E+00
 0.1689724127446E+00
 0.1709204117181E+00
 0.1713994628414E+00
 0.1708645819016E+00
 0.1693905992988E+00
 0.6079486356817E-01
 0.6788759425804E-01
 0.7657733367117E-01
 0.8663217633919E-01
 0.9762359886180E-01
 0.1090815539031E+00
 0.1206341618848E+00
 0.1319963593734E+00
 0.1429150208723E+00
 0.1531780661032E+00
 0.1626298253340E+00
 0.1711631290912E+00
 0.1786805388002E+00
 0.1850700391205E+00
 0.1902121040868E+00
 0.1939797959193E+00
 0.1961756164094E+00
 0.1967294099065E+00
 0.1951332385702E+00
 0.1908430821240E+00
 0.6362194539937E-01
 0.7448078947781E-01
 0.8618509530964E-01
 0.9879675648406E-01
 0.1119878275501E+00
 0.1253673274610E+00
 0.1386145689333E+00
 0.1514647064755E+00
 0.1636783593077E+00
 0.1750596736783E+00
 0.1854701304409E+00
 0.1948170477176E+00
 0.2030188802219E+00
 0.2099803473220E+00
 0.2155880505734E+00
 0.2196912734629E+00
 0.2220573544983E+00
 0.2223792055701E+00
 0.2201300323878E+00
 0.2156911873049E+00
 0.6629541221317E-01
 0.8083923388498E-01
 0.9566023278922E-01
 0.1109009238906E+00
 0.1263622568718E+00
 0.1417339327701E+00
 0.1567391849721E+00
 0.1711376746269E+00
 0.1847102411014E+00
 0.1972791628560E+00
 0.2087217178597E+00
 0.2189583583919E+00
 0.2279193474013E+00
 0.2355172404301E+00
 0.2416323134327E+00
 0.2460898353292E+00
 0.2486109948561E+00
 0.2488685974272E+00
 0.2466237689453E+00
 0.2424001745072E+00
 0.6887984695890E-01
 0.8704341919187E-01
 0.1050103116619E+00
 0.1229500009791E+00
 0.1407490065926E+00
 0.1581763331595E+00
 0.1749999261716E+00
 0.1910066326312E+00
 0.2060001748227E+00
 0.2198222216169E+00
 0.2323654456084E+00
 0.2435617826307E+00
 0.2533499245527E+00
 0.2616454252481E+00
 0.2683221125548E+00
 0.2731903974256E+00
 0.2759809098861E+00
 0.2764467295779E+00
 0.2745073904041E+00
 0.2706610789043E+00
 0.7141989886466E-01
 0.9314310445316E-01
 0.1142669037558E+00
 0.1349530678040E+00
 0.1551491429255E+00
 0.1746899637781E+00
 0.1933882575724E+00
 0.2110601882853E+00
 0.2275337076801E+00
 0.2426704342022E+00
 0.2563781446618E+00
 0.2685992610321E+00
 0.2792793726663E+00
 0.2883371696000E+00
 0.2956460568002E+00
 0.3010232528772E+00
 0.3042418647946E+00
 0.3051313097768E+00
 0.3036980263570E+00
 0.3003566243545E+00
 0.7394796328587E-01
 0.9917858460549E-01
 0.1234583726089E+00
 0.1469236189217E+00
 0.1695643751715E+00
 0.1912698588016E+00
 0.2118944832610E+00
 0.2312846423897E+00
 0.2492931623306E+00
 0.2658018124767E+00
 0.2807333705556E+00
 0.2940406200526E+00
 0.3056766185564E+00
 0.3155663929508E+00
 0.3235924182847E+00
 0.3295945990052E+00
 0.3333954570541E+00
 0.3348869022384E+00
 0.3341190410253E+00
 0.3314242029579E+00
 0.7649000249964E-01
 0.1051813978787E+00
 0.1326093188851E+00
 0.1588744736278E+00
 0.1839969501576E+00
 0.2079105593506E+00
 0.2305076097202E+00
 0.2516642177961E+00
 0.2712581412319E+00
 0.2891913470086E+00
 0.3054017974412E+00
 0.3198533641797E+00
 0.3325085486617E+00
 0.3433033489981E+00
 0.3521374281026E+00
 0.3588812112476E+00
 0.3634055418102E+00
 0.3656516403962E+00
 0.3656939973272E+00
 0.3638009316988E+00
 0.7906771876942E-01
 0.1111769124803E+00
 0.1417399786156E+00
 0.1708166651717E+00
 0.1984484775841E+00
 0.2246059841878E+00
 0.2492154108985E+00
 0.2721813100123E+00
 0.2934059233063E+00
 0.3128113879667E+00
 0.3303513134674E+00
 0.3460019585373E+00
 0.3597378922194E+00
 0.3715105064372E+00
 0.3812421614818E+00
 0.3888372043552E+00
 0.3942113241244E+00
 0.3973464767105E+00
 0.3983345689994E+00
 0.3974020050404E+00
 0.8169984867791E-01
 0.1171857166732E+00
 0.1508666555038E+00
 0.1827588948774E+00
 0.2129193748560E+00
 0.2413491164936E+00
 0.2680044558516E+00
 0.2928166593443E+00
 0.3157116968460E+00
 0.3366317952003E+00
 0.3555468464069E+00
 0.3724470438431E+00
 0.3873216412612E+00
 0.4001409681178E+00
 0.4108535419927E+00
 0.4193987598419E+00
 0.4257338729452E+00
 0.4298765720215E+00
 0.4319351389312E+00
 0.4321142749911E+00
 0.8440295952679E-01
 0.1232246845754E+00
 0.1600022474442E+00
 0.1947075358158E+00
 0.2274086442999E+00
 0.2581318934416E+00
 0.2868601744861E+00
 0.3135495493371E+00
 0.3381487807935E+00
 0.3606200597889E+00
 0.3809502404641E+00
 0.3991449730268E+00
 0.4152104615524E+00
 0.4291385891116E+00
 0.4409060833246E+00
 0.4504875237049E+00
 0.4578791993454E+00
 0.4631319499215E+00
 0.4663717142975E+00
 0.4677968455925E+00
 0.8719199206362E-01
 0.1293077592066E+00
 0.1691567884859E+00
 0.2066668231668E+00
 0.2419138707342E+00
 0.2749451979364E+00
 0.3057669411702E+00
 0.3343579639464E+00
 0.3606887898235E+00
 0.3847413939708E+00
 0.4065202131484E+00
 0.4260476865634E+00
 0.4433487729054E+00
 0.4584387315699E+00
 0.4713236414220E+00
 0.4820129602269E+00
 0.4905402053740E+00
 0.4969882501799E+00
 0.5015029450295E+00
 0.5042859006458E+00
 0.9008064811376E-01
 0.1354465729726E+00
 0.1783379684734E+00
 0.2186391612460E+00
 0.2564313732884E+00
 0.2917789733858E+00
 0.3247082243584E+00
 0.3552187784875E+00
 0.3833018329278E+00
 0.4089589020489E+00
 0.4322125047428E+00
 0.4531029435547E+00
 0.4716752807278E+00
 0.4879693463432E+00
 0.5020210995681E+00
 0.5138743376588E+00
 0.5235984383688E+00
 0.5313079113317E+00
 0.5371710417625E+00
 0.5413989733185E+00
 0.9308169261695E-01
 0.1416509688926E+00
 0.1875516386864E+00
 0.2306255034347E+00
 0.2709564711664E+00
 0.3086224412988E+00
 0.3436668082644E+00
 0.3761079999488E+00
 0.4059567656295E+00
 0.4332338443577E+00
 0.4579801933561E+00
 0.4802547888779E+00
 0.5001237454009E+00
 0.5176521684084E+00
 0.5329059832318E+00
 0.5459625869596E+00
 0.5569259761523E+00
 0.5659419531254E+00
 0.5732032090002E+00
 0.5789357023712E+00
 0.9620718352431E-01
 0.1479294361722E+00
 0.1968022763151E+00
 0.2426257441666E+00
 0.2854837907411E+00
 0.3254643595298E+00
 0.3626250395125E+00
 0.3970010221906E+00
 0.4286214654832E+00
 0.4575259553235E+00
 0.4837741066853E+00
 0.5074441444409E+00
 0.5286238536878E+00
 0.5474039386445E+00
 0.5638800293625E+00
 0.5781621608711E+00
 0.5903875842284E+00
 0.6007326503985E+00
 0.6094154585128E+00
 0.6166812191492E+00
 0.9946866701256E-01
 0.1542895093587E+00
 0.2060934476175E+00
 0.2546391530197E+00
 0.3000076440804E+00
 0.3422933610668E+00
 0.3815651519272E+00
 0.4178729581863E+00
 0.4512631933527E+00
 0.4817938660781E+00
 0.5095433575365E+00
 0.5346095267386E+00
 0.5571021894558E+00
 0.5771376772747E+00
 0.5948407807959E+00
 0.6103529741713E+00
 0.6238431442603E+00
 0.6355168980952E+00
 0.6456177064990E+00
 0.6544129301814E+00
 0.1028773404577E+00
 0.1607381305137E+00
 0.2154282530278E+00
 0.2666648161188E+00
 0.3145224333512E+00
 0.3590983253292E+00
 0.4004696231601E+00
 0.4386990038041E+00
 0.4738489908518E+00
 0.5059955716124E+00
 0.5352359289399E+00
 0.5616878065830E+00
 0.5854832229747E+00
 0.6067639460657E+00
 0.6256831578144E+00
 0.6424123513672E+00
 0.6571501565000E+00
 0.6701296280306E+00
 0.6816185950196E+00
 0.6919074782798E+00
 0.1064441944574E+00
 0.1672819921011E+00
 0.2248097667581E+00
 0.2787020910727E+00
 0.3290230832442E+00
 0.3758687837990E+00
 0.4193215662102E+00
 0.4594548357044E+00
 0.4963461120770E+00
 0.5300889319969E+00
 0.5607992883176E+00
 0.5886149836102E+00
 0.6136902911703E+00
 0.6361920747523E+00
 0.6563009743077E+00
 0.6742169060997E+00
 0.6901661200362E+00
 0.7044068816646E+00
 0.7172294998374E+00
 0.7289463652123E+00
 0.1101801477135E+00
 0.1739278757198E+00
 0.2342414840893E+00
 0.2907510844530E+00
 0.3435055076821E+00
 0.3925953658393E+00
 0.4381051624453E+00
 0.4801170498507E+00
 0.5187224938680E+00
 0.5540322077209E+00
 0.5861810264426E+00
 0.6153269692141E+00
 0.6416465631956E+00
 0.6653313455850E+00
 0.6865883811425E+00
 0.7056442997704E+00
 0.7227506895511E+00
 0.7381884576310E+00
 0.7522677834274E+00
 0.7653202965436E+00
 0.1140961704727E+00
 0.1806829822868E+00
 0.2437277654023E+00
 0.3028131332108E+00
 0.3579670858222E+00
 0.4092702555168E+00
 0.4568061041892E+00
 0.5006636061431E+00
 0.5409472270136E+00
 0.5777845881410E+00
 0.6113294774127E+00
 0.6417603329482E+00
 0.6692759463270E+00
 0.6940920892392E+00
 0.7164411819464E+00
 0.7365748094870E+00
 0.7547675366547E+00
 0.7713201344406E+00
 0.7865594990059E+00
 0.8008327150371E+00
 0.1182034102380E+00
 0.1875552709229E+00
 0.2532742952963E+00
 0.3148913077281E+00
 0.3724071637992E+00
 0.4258876748583E+00
 0.4754120613130E+00
 0.5210742920308E+00
 0.5629910388073E+00
 0.6013067203569E+00
 0.6361943238076E+00
 0.6678530137223E+00
 0.6965039305840E+00
 0.7223866864518E+00
 0.7457580101140E+00
 0.7668926927395E+00
 0.7860859085946E+00
 0.8036554629312E+00
 0.8199415933899E+00
 0.8353024581969E+00
 0.1225133211142E+00
 0.1945538074406E+00
 0.2628885547452E+00
 0.3269909300491E+00
 0.3868275715367E+00
 0.4424443795657E+00
 0.4939131553819E+00
 0.5413311866079E+00
 0.5848267666161E+00
 0.6245612166092E+00
 0.6607271639979E+00
 0.6935449721307E+00
 0.7232583481458E+00
 0.7501304516049E+00
 0.7744413462198E+00
 0.7964873357072E+00
 0.8165818890579E+00
 0.8350570732361E+00
 0.8522631958802E+00
 0.8685645688541E+00
 0.1270378014495E+00
 0.2016891280793E+00
 0.2725803108032E+00
 0.3391201092001E+00
 0.4012331535647E+00
 0.4589401635944E+00
 0.5123024357508E+00
 0.5614191178874E+00
 0.6064298136771E+00
 0.6475131301685E+00
 0.6848820306056E+00
 0.7187787722058E+00
 0.7494700354916E+00
 0.7772423870362E+00
 0.8023983679317E+00
 0.8252541894062E+00
 0.8461393800724E+00
 0.8653976089476E+00
 0.8833861160619E+00
 0.9004706755772E+00
 0.1317893459494E+00
 0.2089736260386E+00
 0.2823621307497E+00
 0.3512902983523E+00
 0.4156323158796E+00
 0.4753783721835E+00
 0.5305763552337E+00
 0.5813261092829E+00
 0.6277785818832E+00
 0.6701303935462E+00
 0.7086158532968E+00
 0.7435000853251E+00
 0.7750733909045E+00
 0.8036458015244E+00
 0.8295416299673E+00
 0.8530954987019E+00
 0.8746508494544E+00
 0.8945604173752E+00
 0.9131855194063E+00
 0.9308896071329E+00
 0.1367812180400E+00
 0.2164219671737E+00
 0.2922499264340E+00
 0.3635168771267E+00
 0.4300375890939E+00
 0.4917664209471E+00
 0.5487352409567E+00
 0.6010438094933E+00
 0.6488548749340E+00
 0.6923842121714E+00
 0.7318888592721E+00
 0.7676581101000E+00
 0.8000068217658E+00
 0.8292687887342E+00
 0.8557895726463E+00
 0.8799208326918E+00
 0.9020178601083E+00
 0.9224400687777E+00
 0.9415504841064E+00
 0.9597077989122E+00
 0.1420276433400E+00
 0.2240515360302E+00
 0.3022635281815E+00
 0.3758197546660E+00
 0.4444661994599E+00
 0.5081163092869E+00
 0.5667837463869E+00
 0.6205678904901E+00
 0.6696442562769E+00
 0.7142493987106E+00
 0.7546648981790E+00
 0.7912058968615E+00
 0.8242130720844E+00
 0.8540445576110E+00
 0.8810668537706E+00
 0.9056474145213E+00
 0.9281513870414E+00
 0.9489426296909E+00
 0.9683841044574E+00
 0.9868290254791E+00
 0.1475440386235E+00
 0.2318829313167E+00
 0.3124273091195E+00
 0.3882240141679E+00
 0.4589406666885E+00
 0.5244451452233E+00
 0.5847313000960E+00
 0.6398984279541E+00
 0.6901363755530E+00
 0.7357046619011E+00
 0.7769117061033E+00
 0.8141005922464E+00
 0.8476394458338E+00
 0.8779116289539E+00
 0.9053045145229E+00
 0.9302002572936E+00
 0.9529719171495E+00
 0.9739856647993E+00
 0.9936032123214E+00
 0.1012173603832E+01
 0.1533472754010E+00
 0.2399405076300E+00
 0.3227708547930E+00
 0.4007605880486E+00
 0.4734894117004E+00
 0.5407756598936E+00
 0.6025925261799E+00
 0.6590402372232E+00
 0.7103252365112E+00
 0.7567328247885E+00
 0.7986010872190E+00
 0.8363035869898E+00
 0.8702379131646E+00
 0.9008138869116E+00
 0.9284399659609E+00
 0.9535120840099E+00
 0.9764093007381E+00
 0.9974979693642E+00
 0.1017137784791E+01
 0.1035677094928E+01
 0.1594559849635E+00
 0.2482529771886E+00
 0.3333296924804E+00
 0.4134669766169E+00
 0.4881473839577E+00
 0.5571367187405E+00
 0.6203876416566E+00
 0.6780031692108E+00
 0.7302094114122E+00
 0.7773209800380E+00
 0.8197090254930E+00
 0.8577805851166E+00
 0.8919651226461E+00
 0.9227005103686E+00
 0.9504168174817E+00
 0.9755230417087E+00
 0.9984023459136E+00
 0.1019419025890E+01
 0.1038930082473E+01
 0.1057288398595E+01
 0.1658909230391E+00
 0.2568540930895E+00
 0.3441461050882E+00
 0.4263880328238E+00
 0.5029567262669E+00
 0.5735638427724E+00
 0.6381428402629E+00
 0.6968023721748E+00
 0.7497922056684E+00
 0.7974605866041E+00
 0.8402157343888E+00
 0.8785016082979E+00
 0.9127823388512E+00
 0.9435258055740E+00
 0.9711845645794E+00
 0.9961802174556E+00
 0.1018898139987E+01
 0.1039698084962E+01
 0.1058933346194E+01
 0.1076966775313E+01
 0.1726753802482E+00
 0.2657834029192E+00
 0.3552700157715E+00
 0.4395767912817E+00
 0.5179674457120E+00
 0.5900997009469E+00
 0.6558906181045E+00
 0.7154584706656E+00
 0.7690817225459E+00
 0.8171474605218E+00
 0.8601056056707E+00
 0.8984409094524E+00
 0.9326552939924E+00
 0.9632489400615E+00
 0.9906981405147E+00
 0.1015436958969E+01
 0.1037851101216E+01
 0.1058292816035E+01
 0.1077109556913E+01
 0.1094676688197E+01
 0.1798356738532E+00
 0.2750871225124E+00
 0.3667600027312E+00
 0.4530954032224E+00
 0.5332381496613E+00
 0.6067946293578E+00
 0.6736700929882E+00
 0.7339977080934E+00
 0.7880908695791E+00
 0.8363817003395E+00
 0.8793671029219E+00
 0.9175768531151E+00
 0.9515540271704E+00
 0.9818336652888E+00
 0.1008917422687E+01
 0.1033252086267E+01
 0.1055221854725E+01
 0.1075167788183E+01
 0.1093426940969E+01
 0.1110383197011E+01
 0.1874017049052E+00
 0.2848191178414E+00
 0.3786844344119E+00
 0.4670161594702E+00
 0.5488368177510E+00
 0.6237071404518E+00
 0.6915272740448E+00
 0.7524520029924E+00
 0.8068372518073E+00
 0.8551674931817E+00
 0.8979925557522E+00
 0.9358917400305E+00
 0.9694527206148E+00
 0.9992480709692E+00
 0.1025806759392E+01
 0.1049589060031E+01
 0.1070976018358E+01
 0.1090293057951E+01
 0.1107859123106E+01
 0.1124054106651E+01
 0.1954075861867E+00
 0.2950420218741E+00
 0.3911227598218E+00
 0.4814226289982E+00
 0.5648416281773E+00
 0.6409044293668E+00
 0.7095152784424E+00
 0.7708588994571E+00
 0.8253429171244E+00
 0.8735127560381E+00
 0.9159778086264E+00
 0.9533715446076E+00
 0.9863295354709E+00
 0.1015464421535E+01
 0.1041334603349E+01
 0.1064415199047E+01
 0.1085082934604E+01
 0.1103642837335E+01
 0.1120385261222E+01
 0.1135665109064E+01
 0.2038923736434E+00
 0.3058285456656E+00
 0.4041670181256E+00
 0.4964109863010E+00
 0.5813418979361E+00
 0.6584629431274E+00
 0.7276945484637E+00
 0.7892614524947E+00
 0.8436339761262E+00
 0.8914286245889E+00
 0.9333217334021E+00
 0.9700055856549E+00
 0.1002166510689E+01
 0.1030459214245E+01
 0.1055473476579E+01
 0.1077701185200E+01
 0.1097514514739E+01
 0.1115194031982E+01
 0.1130989763485E+01
 0.1145202120970E+01
 0.2129008642307E+00
 0.3172629337904E+00
 0.4179235697366E+00
 0.5120914510681E+00
 0.5984391038624E+00
 0.6764689412567E+00
 0.7461330038080E+00
 0.8077079426604E+00
 0.8617399715369E+00
 0.9089286506775E+00
 0.9500254627849E+00
 0.9857859862406E+00
 0.1016949409747E+01
 0.1044213464240E+01
 0.1068200430405E+01
 0.1089421134133E+01
 0.1108244288680E+01
 0.1124924465999E+01
 0.1139660932695E+01
 0.1152663441557E+01
 0.2224845149735E+00
 0.3294429073769E+00
 0.4325149944646E+00
 0.5285901045187E+00
 0.6162480330964E+00
 0.6950192894832E+00
 0.7649062510946E+00
 0.8262515175692E+00
 0.8796930534663E+00
 0.9260277405353E+00
 0.9660913554112E+00
 0.1000706915176E+01
 0.1030667453873E+01
 0.1056713200364E+01
 0.1079498357645E+01
 0.1099553798879E+01
 0.1117247177121E+01
 0.1132810433994E+01
 0.1146388678074E+01
 0.1158063060226E+01
 0.2327030031872E+00
 0.3424810308015E+00
 0.4480830250716E+00
 0.5460501251107E+00
 0.6348985305930E+00
 0.7142223320052E+00
 0.7840978356503E+00
 0.8449496283126E+00
 0.8975267451169E+00
 0.9427406839181E+00
 0.9815215214754E+00
 0.1014763363685E+01
 0.1043312757316E+01
 0.1067949721827E+01
 0.1089357880977E+01
 0.1108086294957E+01
 0.1124500877053E+01
 0.1138823660086E+01
 0.1151158992808E+01
 0.1161436397762E+01
 0.2436246071858E+00
 0.3565135656715E+00
 0.4647858330513E+00
 0.5646360745604E+00
 0.6545367258185E+00
 0.7341992574367E+00
 0.8037999498625E+00
 0.8638629464075E+00
 0.9152741407172E+00
 0.9590802659531E+00
 0.9963159587137E+00
 0.1027949206912E+01
 0.1054879023805E+01
 0.1077919945341E+01
 0.1097778097573E+01
 0.1115019546280E+01
 0.1129996783936E+01
 0.1142925931457E+01
 0.1153940259745E+01
 0.1162842704596E+01
 0.2553579156081E+00
 0.3716591324271E+00
 0.4828175280779E+00
 0.5845320575673E+00
 0.6753250166787E+00
 0.7550895694737E+00
 0.8241140875777E+00
 0.8830531988201E+00
 0.9329653587020E+00
 0.9750553916583E+00
 0.1010470588570E+01
 0.1040254783622E+01
 0.1065358526204E+01
 0.1086625943113E+01
 0.1104770690748E+01
 0.1120364552686E+01
 0.1133758068040E+01
 0.1145109662093E+01
 0.1154621787325E+01
 0.1162364874061E+01
 0.2165592903931E+00
 0.3346135113710E+00
 0.3506511668581E+00
 0.3337554897522E+00
 0.2884777730880E+00
 0.2345200556094E+00
 0.1962843761699E+00
 0.1780193662937E+00
 0.1662988704265E+00
 0.1542342635373E+00
 0.1406718982464E+00
 0.1257276682908E+00
 0.1094020747550E+00
 0.9181730042565E-01
 0.7360921157255E-01
 0.5528672622982E-01
 0.3696967028747E-01
 0.2134627489681E-01
 0.9572009147928E-02
 0.4387492520610E-03
 0.1853073565921E+00
 0.3093798499753E+00
 0.3194587361701E+00
 0.3058785576214E+00
 0.2764163226219E+00
 0.2395658925019E+00
 0.2080967690807E+00
 0.1873577525057E+00
 0.1725668724811E+00
 0.1590832970524E+00
 0.1451726406193E+00
 0.1303089698331E+00
 0.1142979338679E+00
 0.9715521088710E-01
 0.7917847992287E-01
 0.6075117464998E-01
 0.4241313863497E-01
 0.2593661717492E-01
 0.1197534455925E-01
 0.1001211284766E-02
 0.1552986695771E+00
 0.2757412689095E+00
 0.2923034659919E+00
 0.2819742582279E+00
 0.2619046267788E+00
 0.2369381818729E+00
 0.2130360761499E+00
 0.1937619304832E+00
 0.1779046132482E+00
 0.1633907996051E+00
 0.1490479570292E+00
 0.1342242950532E+00
 0.1185342418998E+00
 0.1018229109114E+00
 0.8418952289465E-01
 0.6590104324506E-01
 0.4743132456356E-01
 0.2990228474196E-01
 0.1380838800720E-01
 0.1887032672138E-02
 0.1282328641861E+00
 0.2423059442589E+00
 0.2649097765878E+00
 0.2599889143990E+00
 0.2462727631219E+00
 0.2294703442313E+00
 0.2122081036638E+00
 0.1960374840203E+00
 0.1809464908017E+00
 0.1663678861576E+00
 0.1519235074988E+00
 0.1372286773349E+00
 0.1219049284927E+00
 0.1056940556321E+00
 0.8853346073131E-01
 0.7053532197044E-01
 0.5203995329755E-01
 0.3362682967663E-01
 0.1563501659930E-01
 0.2530799063930E-02
 0.1040212265974E+00
 0.2104481976009E+00
 0.2377472790462E+00
 0.2381957651231E+00
 0.2297815630161E+00
 0.2187943316923E+00
 0.2068679306465E+00
 0.1941774756986E+00
 0.1809156140644E+00
 0.1672175748391E+00
 0.1532404214449E+00
 0.1389526867598E+00
 0.1241397624198E+00
 0.1085501808624E+00
 0.9201610358386E-01
 0.7450599943480E-01
 0.5620887114196E-01
 0.3724519812638E-01
 0.1776155441386E-01
 0.2477180876573E-02
 0.8247504982832E-01
 0.1805921994353E+00
 0.2110908941278E+00
 0.2162054392278E+00
 0.2122816491257E+00
 0.2057575857965E+00
 0.1980172335291E+00
 0.1885906631773E+00
 0.1775916714977E+00
 0.1654088855314E+00
 0.1524546154770E+00
 0.1389523142983E+00
 0.1248880741193E+00
 0.1100982129124E+00
 0.9438033396408E-01
 0.7759819562033E-01
 0.5980749350463E-01
 0.4073169884479E-01
 0.2029137961330E-01
 0.1596773757638E-02
 0.6336439464992E-01
 0.1528456265784E+00
 0.1851426117897E+00
 0.1939820846872E+00
 0.1937764080516E+00
 0.1907805694625E+00
 0.1863478732226E+00
 0.1797603420671E+00
 0.1710608848170E+00
 0.1607012603122E+00
 0.1491664142675E+00
 0.1368058560940E+00
 0.1237629557517E+00
 0.1099892820140E+00
 0.9530360452672E-01
 0.7951510716001E-01
 0.6258389656793E-01
 0.4389500596794E-01
 0.2311603753131E-01
 0.1363516830684E-02
 0.4645912311687E-01
 0.1271980109036E+00
 0.1600493106754E+00
 0.1716228167677E+00
 0.1743673786508E+00
 0.1741489358796E+00
 0.1723224013577E+00
 0.1681131321303E+00
 0.1615385504564E+00
 0.1530593661815E+00
 0.1431476013896E+00
 0.1321829466924E+00
 0.1204003283651E+00
 0.1078548539359E+00
 0.9441681989398E-01
 0.7988572827722E-01
 0.6417105825843E-01
 0.4638167847631E-01
 0.2591277662950E-01
 0.3664211826229E-02
 0.3154667773756E-01
 0.1035838963646E+00
 0.1359216384680E+00
 0.1492703085167E+00
 0.1542109486241E+00
 0.1561040537112E+00
 0.1562833179801E+00
 0.1539993398500E+00
 0.1492739798330E+00
 0.1425673070306E+00
 0.1343125990036E+00
 0.1248675331596E+00
 0.1145025259845E+00
 0.1033485105584E+00
 0.9133708275862E-01
 0.7829118521655E-01
 0.6411210183053E-01
 0.4770094332620E-01
 0.2816807455369E-01
 0.6374686227886E-02
 0.1846099345577E-01
 0.8191013700601E-01
 0.1128420861264E+00
 0.1270783550573E+00
 0.1334888879805E+00
 0.1368738071478E+00
 0.1385136104785E+00
 0.1377148583581E+00
 0.1345143808590E+00
 0.1293707162033E+00
 0.1226778240940E+00
 0.1147509267154E+00
 0.1058588002106E+00
 0.9617962745029E-01
 0.8570449091501E-01
 0.7430175372712E-01
 0.6190023624166E-01
 0.4726841610558E-01
 0.2922831322675E-01
 0.8521161907921E-02
 0.7308372968023E-02
 0.6206957629035E-01
 0.9086994443543E-01
 0.1051964610643E+00
 0.1123915300737E+00
 0.1166814521038E+00
 0.1192681052822E+00
 0.1195233781590E+00
 0.1174980927733E+00
 0.1136461562898E+00
 0.1083283882693E+00
 0.1018139402559E+00
 0.9434884986483E-01
 0.8613473434095E-01
 0.7721496261916E-01
 0.6751696024665E-01
 0.5702614395642E-01
 0.4446140220363E-01
 0.2836726073137E-01
 0.9255933877481E-02
 0.5002092468548E-02
 0.4394928669061E-01
 0.7004537915354E-01
 0.8376317649272E-01
 0.9110835987110E-01
 0.9574745757402E-01
 0.9878887262735E-01
 0.9967234098978E-01
 0.9845759889878E-01
 0.9558786592622E-01
 0.9139626843274E-01
 0.8610892941459E-01
 0.7993786788109E-01
 0.7308866231237E-01
 0.6564623271419E-01
 0.5760363638498E-01
 0.4902641851667E-01
 0.3867705809122E-01
 0.2485804827035E-01
 0.7757506451908E-02
 0.1320436934909E-01
 0.2743837519563E-01
 0.5039451067011E-01
 0.6290465424555E-01
 0.6982374165190E-01
 0.7428988745663E-01
 0.7731328900452E-01
 0.7840362829772E-01
 0.7762519033272E-01
 0.7540372384669E-01
 0.7204799761049E-01
 0.6774591575347E-01
 0.6266915922846E-01
 0.5700968596477E-01
 0.5087839450984E-01
 0.4433148665110E-01
 0.3753144239188E-01
 0.2938970056952E-01
 0.1804552128105E-01
 0.3413821507406E-02
 0.2100010704234E-01
 0.1245673983019E-01
 0.3194143932514E-01
 0.4274008260495E-01
 0.4871898463146E-01
 0.5252764904869E-01
 0.5508124171891E-01
 0.5596333628364E-01
 0.5524141098871E-01
 0.5331855632664E-01
 0.5048173072330E-01
 0.4688639174561E-01
 0.4266088098181E-01
 0.3796666254224E-01
 0.3291827234636E-01
 0.2761893272660E-01
 0.2233129790368E-01
 0.1623629902636E-01
 0.7522475156040E-02
 0.5386125283948E-02
 0.2794212319513E-01
 0.2256974639115E-02
 0.1478280947516E-01
 0.2341884274648E-01
 0.2799903114491E-01
 0.3070379033185E-01
 0.3235913988637E-01
 0.3262851150341E-01
 0.3158452813065E-01
 0.2960534287371E-01
 0.2696029841657E-01
 0.2378226784845E-01
 0.2016159975187E-01
 0.1622284883957E-01
 0.1207480119342E-01
 0.7894510713520E-02
 0.4283973444789E-02
 0.3191061347251E-02
 0.8331183956063E-02
 0.1759980950487E-01
 0.3408769682648E-01
 0.1392154579731E-01
 0.3733463220281E-02
 0.5871277477675E-02
 0.8332170515106E-02
 0.9450387599515E-02
 0.9793520429343E-02
 0.9118712272937E-02
 0.7547601992687E-02
 0.5566428473384E-02
 0.3944470607286E-02
 0.4156213800676E-02
 0.6408823890819E-02
 0.9519750260837E-02
 0.1299161941162E-01
 0.1663512639321E-01
 0.2008535366971E-01
 0.2339070288129E-01
 0.2777953858131E-01
 0.3440653951329E-01
 0.3953148087304E-01
 0.2517591579426E-01
 0.1722219878308E-01
 0.1379642823576E-01
 0.1306808922943E-01
 0.1360936921886E-01
 0.1480157432555E-01
 0.1681627045035E-01
 0.1956824621124E-01
 0.2273721874791E-01
 0.2607578749741E-01
 0.2946014047677E-01
 0.3284208633386E-01
 0.3618550420155E-01
 0.3951497938545E-01
 0.4287441497262E-01
 0.4610631578880E-01
 0.4902729162266E-01
 0.5209511288872E-01
 0.5590140902870E-01
 0.4437500262825E-01
 0.3544247198197E-01
 0.3110985123560E-01
 0.3029561892350E-01
 0.3178844597132E-01
 0.3443861310238E-01
 0.3761636213595E-01
 0.4138323756352E-01
 0.4561453382985E-01
 0.4999961577485E-01
 0.5429673835246E-01
 0.5837210449706E-01
 0.6216534390681E-01
 0.6563701463774E-01
 0.6882994046941E-01
 0.7189026032638E-01
 0.7491563763102E-01
 0.7791785080037E-01
 0.8078469172518E-01
 0.8218306562981E-01
 0.4872525565621E-01
 0.4482917760705E-01
 0.4402085511439E-01
 0.4600802671899E-01
 0.4996643701652E-01
 0.5495332306877E-01
 0.6035606992044E-01
 0.6613006415671E-01
 0.7211648473801E-01
 0.7802462119401E-01
 0.8362555931208E-01
 0.8877387553261E-01
 0.9337969104471E-01
 0.9735976044079E-01
 0.1006928762110E+00
 0.1035007176952E+00
 0.1060740373182E+00
 0.1086558656865E+00
 0.1122020204734E+00
 0.1133794879043E+00
 0.5282484706516E-01
 0.5332615008120E-01
 0.5585996181767E-01
 0.6072895422706E-01
 0.6728022732986E-01
 0.7476965123945E-01
 0.8261625495041E-01
 0.9065213794370E-01
 0.9866606225963E-01
 0.1063913559213E+00
 0.1136265413670E+00
 0.1202327611175E+00
 0.1260981177103E+00
 0.1310917464905E+00
 0.1350929691164E+00
 0.1380485592106E+00
 0.1400849315037E+00
 0.1413996516394E+00
 0.1431764207253E+00
 0.1470216968843E+00
 0.2715974067151E+00
 0.3940229625574E+00
 0.5107500382517E+00
 0.6163286841202E+00
 0.7093314536186E+00
 0.7897566153648E+00
 0.8581058402255E+00
 0.9153121800724E+00
 0.9627548137314E+00
 0.1001928497780E+01
 0.1034193121533E+01
 0.1060738320382E+01
 0.1082614264245E+01
 0.1100728564088E+01
 0.1115825314069E+01
 0.1128499246455E+01
 0.1139230045499E+01
 0.1148117905049E+01
 0.1155441059023E+01
 0.1162105108141E+01
 0.2902315704666E+00
 0.4232738394372E+00
 0.5479396125506E+00
 0.6590704809650E+00
 0.7550826758755E+00
 0.8362137909409E+00
 0.9033115518956E+00
 0.9577031196356E+00
 0.1001266713193E+01
 0.1035955024406E+01
 0.1063461861889E+01
 0.1085203164265E+01
 0.1102379345287E+01
 0.1115995055725E+01
 0.1126856862164E+01
 0.1135628478842E+01
 0.1142936226557E+01
 0.1148790795618E+01
 0.1153548753451E+01
 0.1158029078158E+01
 0.3101822510684E+00
 0.4553346308871E+00
 0.5883046323669E+00
 0.7043764552207E+00
 0.8023030495204E+00
 0.8827769873063E+00
 0.9471380269746E+00
 0.9971969801010E+00
 0.1035460453319E+01
 0.1064423608393E+01
 0.1086134024595E+01
 0.1102228939013E+01
 0.1114059661698E+01
 0.1122727197369E+01
 0.1129100427433E+01
 0.1133906270050E+01
 0.1137834962513E+01
 0.1140622705629E+01
 0.1142678841365E+01
 0.1145074803530E+01
 0.3320432185762E+00
 0.4904851301447E+00
 0.6319837125036E+00
 0.7522537841191E+00
 0.8507354905820E+00
 0.9288894930150E+00
 0.9887511854247E+00
 0.1032793288065E+01
 0.1064290341496E+01
 0.1086331820252E+01
 0.1101313084461E+01
 0.1111069949590E+01
 0.1117079921896E+01
 0.1120506863790E+01
 0.1122241426680E+01
 0.1123014153976E+01
 0.1123467959145E+01
 0.1122980246403E+01
 0.1122326380551E+01
 0.1123444490145E+01
 0.3562152618617E+00
 0.5292772764504E+00
 0.6792278786625E+00
 0.8026378983359E+00
 0.8999728578523E+00
 0.9738108053290E+00
 0.1027162588030E+01
 0.1063390762649E+01
 0.1086675273123E+01
 0.1100710630594E+01
 0.1108193724832E+01
 0.1111104594801E+01
 0.1110992586143E+01
 0.1109022643531E+01
 0.1106044664092E+01
 0.1102728522964E+01
 0.1099590766650E+01
 0.1095710558193E+01
 0.1092611512755E+01
 0.1093409002539E+01
 0.3831423994867E+00
 0.5722861014612E+00
 0.7303246487573E+00
 0.8553858672866E+00
 0.9494436529746E+00
 0.1016613272112E+01
 0.1061226965049E+01
 0.1087802859326E+01
 0.1101532063699E+01
 0.1106662693767E+01
 0.1106096142007E+01
 0.1101866974562E+01
 0.1095515530556E+01
 0.1088129353433E+01
 0.1080452895543E+01
 0.1073046987309E+01
 0.1066266586037E+01
 0.1059017009275E+01
 0.1053871754353E+01
 0.1055260474966E+01
 0.4133358066552E+00
 0.6201465704546E+00
 0.7855353379627E+00
 0.9102371327761E+00
 0.9983856385514E+00
 0.1056167096880E+01
 0.1089650589507E+01
 0.1104788857189E+01
 0.1107821420886E+01
 0.1103412430983E+01
 0.1094513323303E+01
 0.1083090535401E+01
 0.1070575898201E+01
 0.1057895997406E+01
 0.1045633611930E+01
 0.1034211943285E+01
 0.1023815575350E+01
 0.1013314499037E+01
 0.1006547240630E+01
 0.1009322757486E+01
 0.4473993296484E+00
 0.6735602541804E+00
 0.8450694061949E+00
 0.9667637192636E+00
 0.1045806044125E+01
 0.1091125751953E+01
 0.1111010778546E+01
 0.1113102483350E+01
 0.1104609761883E+01
 0.1090367025919E+01
 0.1073163349904E+01
 0.1054749587686E+01
 0.1036341679609E+01
 0.1018626746357E+01
 0.1001983435564E+01
 0.9866850128866E+00
 0.9727500721656E+00
 0.9591530763796E+00
 0.9511464726768E+00
 0.9559619292528E+00
 0.4860542562510E+00
 0.7333044276583E+00
 0.9090502272005E+00
 0.1024313365689E+01
 0.1090433846446E+01
 0.1119916929827E+01
 0.1123794277883E+01
 0.1111562480952E+01
 0.1091147070719E+01
 0.1067183470230E+01
 0.1042037630257E+01
 0.1017088022854E+01
 0.9932333311619E+00
 0.9708571449576E+00
 0.9501078913438E+00
 0.9311090387549E+00
 0.9137246399452E+00
 0.8971773251283E+00
 0.8882351567975E+00
 0.8955870904391E+00
 0.5301704128768E+00
 0.8002389363656E+00
 0.9774668495472E+00
 0.1081934588154E+01
 0.1130666680941E+01
 0.1140748299113E+01
 0.1126464638174E+01
 0.1099149979219E+01
 0.1066957785068E+01
 0.1033832874702E+01
 0.1001434492204E+01
 0.9706272278727E+00
 0.9419135380289E+00
 0.9153314755714E+00
 0.8907898019130E+00
 0.8682710917004E+00
 0.8475005138237E+00
 0.8281048187214E+00
 0.8184328206373E+00
 0.8286492118633E+00
 0.5808077470017E+00
 0.8753100515124E+00
 0.1050100084598E+01
 0.1138275109498E+01
 0.1164515513501E+01
 0.1151642687128E+01
 0.1117572016090E+01
 0.1075134713765E+01
 0.1031935351888E+01
 0.9906477742038E+00
 0.9519662574905E+00
 0.9161480578838E+00
 0.8832571564708E+00
 0.8529683981652E+00
 0.8249547923319E+00
 0.7990715300937E+00
 0.7749228348294E+00
 0.7527177935604E+00
 0.7424175986735E+00
 0.7556456462004E+00
 0.6392746219121E+00
 0.9595467663660E+00
 0.1126404799218E+01
 0.1191441948352E+01
 0.1189557544355E+01
 0.1150526927450E+01
 0.1095920422450E+01
 0.1039223413837E+01
 0.9864197202627E+00
 0.9383321540613E+00
 0.8945296506007E+00
 0.8546476847427E+00
 0.8183084624022E+00
 0.7848230774700E+00
 0.7536398970667E+00
 0.7245016499846E+00
 0.6969104088261E+00
 0.6718686382411E+00
 0.6609441383670E+00
 0.6771378865506E+00
 0.7072128102760E+00
 0.1054038762634E+01
 0.1205315360290E+01
 0.1238809253579E+01
 0.1202923782092E+01
 0.1135413730537E+01
 0.1060801822067E+01
 0.9917031689321E+00
 0.9312208004081E+00
 0.8779128074171E+00
 0.8302392602873E+00
 0.7872829326917E+00
 0.7482378046537E+00
 0.7120531136933E+00
 0.6779679337891E+00
 0.6456302626940E+00
 0.6144588373894E+00
 0.5865029751949E+00
 0.5748816156880E+00
 0.5937913673168E+00
 0.7867263132118E+00
 0.1159869632316E+01
 0.1284911472318E+01
 0.1276762282939E+01
 0.1201383282096E+01
 0.1104733410196E+01
 0.1012279574128E+01
 0.9335128604004E+00
 0.8675385117987E+00
 0.8106263001445E+00
 0.7603466082672E+00
 0.7153230368866E+00
 0.6743088696122E+00
 0.6358895001538E+00
 0.5991249428382E+00
 0.5635974586075E+00
 0.5286591052795E+00
 0.4977067920508E+00
 0.4852810497711E+00
 0.5064488188779E+00
 0.8805850613383E+00
 0.1277938489196E+01
 0.1361819338742E+01
 0.1300390912656E+01
 0.1181661098186E+01
 0.1057876128216E+01
 0.9514215561898E+00
 0.8661234303764E+00
 0.7967479709451E+00
 0.7377873532280E+00
 0.6861934173226E+00
 0.6401324420163E+00
 0.5978547795566E+00
 0.5576031383543E+00
 0.5183333707743E+00
 0.4796138096366E+00
 0.4407360123338E+00
 0.4067873306910E+00
 0.3934843720112E+00
 0.4162530761091E+00
 0.9925610155357E+00
 0.1408482862917E+01
 0.1430095971656E+01
 0.1303246530738E+01
 0.1141286519549E+01
 0.9959099543134E+00
 0.8802136075713E+00
 0.7910844224340E+00
 0.7201468403402E+00
 0.6607479097234E+00
 0.6092413293703E+00
 0.5631750144557E+00
 0.5202391949404E+00
 0.4784503823222E+00
 0.4368155934986E+00
 0.3949656347176E+00
 0.3521129045072E+00
 0.3154000879125E+00
 0.3012926458839E+00
 0.3248432649607E+00
 0.1128023549100E+01
 0.1549755463761E+01
 0.1479030579145E+01
 0.1277736011296E+01
 0.1080444946537E+01
 0.9220771060024E+00
 0.8005482738728E+00
 0.7094636390170E+00
 0.6389198942713E+00
 0.5810389668889E+00
 0.5311560049643E+00
 0.4859819302765E+00
 0.4427673505037E+00
 0.3995924717741E+00
 0.3557506868549E+00
 0.3110285961140E+00
 0.2645032599904E+00
 0.2257347611222E+00
 0.2112203497516E+00
 0.2346663932231E+00
 0.1294899969113E+01
 0.1693623077387E+01
 0.1489165739431E+01
 0.1217868266519E+01
 0.1005655428751E+01
 0.8397057746237E+00
 0.7128575771932E+00
 0.6217795421544E+00
 0.5545159397391E+00
 0.5006633122378E+00
 0.4538062416998E+00
 0.4100010894405E+00
 0.3665478266091E+00
 0.3220087913291E+00
 0.2762400521358E+00
 0.2292727784153E+00
 0.1800158995547E+00
 0.1407578693618E+00
 0.1268750398369E+00
 0.1494992681859E+00
 0.1506246639456E+01
 0.1810918732013E+01
 0.1423133411278E+01
 0.1136778544203E+01
 0.9258230459728E+00
 0.7487588420943E+00
 0.6158247126666E+00
 0.5287240837562E+00
 0.4695038663622E+00
 0.4222144268824E+00
 0.3789620824651E+00
 0.3363348250512E+00
 0.2923821076294E+00
 0.2464659650905E+00
 0.1992253949922E+00
 0.1512714296020E+00
 0.1012001296373E+00
 0.6442932589055E-01
 0.5349145616399E-01
 0.7539625512522E-01
 0.1761167874601E+01
 0.1726799853893E+01
 0.1298626989521E+01
 0.1060634397223E+01
 0.8430883837938E+00
 0.6454133630572E+00
 0.5066192407115E+00
 0.4336101127342E+00
 0.3881661979489E+00
 0.3482032509338E+00
 0.3077206528913E+00
 0.2655424098248E+00
 0.2208256574672E+00
 0.1735718124057E+00
 0.1253738110385E+00
 0.7821357351800E-01
 0.3168147597258E-01
 0.1990798362928E-02
 0.3582743576494E-02
 0.2199029611334E-01
 0.1548229027805E+00
 0.1207493935261E+00
 0.9237604573882E-01
 0.6810165956273E-01
 0.4782264862152E-01
 0.3184436252845E-01
 0.2021413928571E-01
 0.1272575834209E-01
 0.8932706227303E-02
 0.8189811515737E-02
 0.9662556318276E-02
 0.1238900162632E-01
 0.1541197391831E-01
 0.1788727137369E-01
 0.1918654894665E-01
 0.1898514514730E-01
 0.1730511770006E-01
 0.1449891316268E-01
 0.1119522387289E-01
 0.8187681565254E-02
 0.1773931687636E+00
 0.1461373610347E+00
 0.1150249661753E+00
 0.8811256354531E-01
 0.6567154710284E-01
 0.4779208684703E-01
 0.3452815822106E-01
 0.2574914829643E-01
 0.2108978311430E-01
 0.1993453689139E-01
 0.2142900348143E-01
 0.2453858830755E-01
 0.2815513543222E-01
 0.3122667488450E-01
 0.3290064859970E-01
 0.3265953915175E-01
 0.3040878429957E-01
 0.2648119396077E-01
 0.2154748749549E-01
 0.1657140969423E-01
 0.2007816289569E+00
 0.1702884356229E+00
 0.1392126966112E+00
 0.1105038204162E+00
 0.8584161999856E-01
 0.6574507443434E-01
 0.5042867888148E-01
 0.3989565686626E-01
 0.3390225318542E-01
 0.3192243542418E-01
 0.3313766088583E-01
 0.3647328354792E-01
 0.4068946962782E-01
 0.4451840264816E-01
 0.4683932053804E-01
 0.4686830266901E-01
 0.4431158979937E-01
 0.3941533261936E-01
 0.3287865552385E-01
 0.2565868186146E-01
 0.2260945907004E+00
 0.1955628386416E+00
 0.1644684710414E+00
 0.1348161395600E+00
 0.1082928018892E+00
 0.8592357928021E-01
 0.6824785000750E-01
 0.5550538013999E-01
 0.4765262897734E-01
 0.4432956044982E-01
 0.4482981005011E-01
 0.4810675843327E-01
 0.5283702273716E-01
 0.5754824384334E-01
 0.6081252691457E-01
 0.6149059838167E-01
 0.5897190310333E-01
 0.5331591036526E-01
 0.4519976362052E-01
 0.3562632864394E-01
 0.2533344878902E+00
 0.2226394775718E+00
 0.1914740354296E+00
 0.1611498464785E+00
 0.1331463873987E+00
 0.1086328552165E+00
 0.8843911628021E-01
 0.7308770175602E-01
 0.6280440474746E-01
 0.5748127666385E-01
 0.5662615373133E-01
 0.5933136181732E-01
 0.6429247170739E-01
 0.6989990674522E-01
 0.7442125520916E-01
 0.7628015631043E-01
 0.7439331625572E-01
 0.6845419802849E-01
 0.5900241970399E-01
 0.4716846768419E-01
 0.2824827605212E+00
 0.2517645272914E+00
 0.2206062570395E+00
 0.1898428366965E+00
 0.1606749930694E+00
 0.1342548672710E+00
 0.1115592151478E+00
 0.9334951063579E-01
 0.8013483975405E-01
 0.7211592983144E-01
 0.6911080324171E-01
 0.7048237749183E-01
 0.7509808593510E-01
 0.8135496007842E-01
 0.8730558382504E-01
 0.9092129042890E-01
 0.9049793734778E-01
 0.8511713647899E-01
 0.7495299356884E-01
 0.6119582998573E-01
 0.3135019676766E+00
 0.2830571671594E+00
 0.2521236310805E+00
 0.2212076331864E+00
 0.1912338094572E+00
 0.1632371322758E+00
 0.1382244575157E+00
 0.1171025389085E+00
 0.1006181635945E+00
 0.8928455421438E-01
 0.8328777770910E-01
 0.8237885389290E-01
 0.8577162166057E-01
 0.9207954073589E-01
 0.9933663121271E-01
 0.1051661165058E+00
 0.1071669698171E+00
 0.1035185737060E+00
 0.9361989787813E-01
 0.7838228293310E-01
 0.3463205549964E+00
 0.3165421812669E+00
 0.2861731787145E+00
 0.2554898427449E+00
 0.2251627385716E+00
 0.1960544088006E+00
 0.1691043736044E+00
 0.1452594389949E+00
 0.1254134937659E+00
 0.1103353271194E+00
 0.1005727420669E+00
 0.9632904098268E-01
 0.9731732505062E-01
 0.1026125936863E+00
 0.1105401401583E+00
 0.1186682698724E+00
 0.1240250269759E+00
 0.1236816336525E+00
 0.1156862465019E+00
 0.9996992874334E-01
 0.3808303401949E+00
 0.3521676749924E+00
 0.3227959169004E+00
 0.2928266042771E+00
 0.2627082408729E+00
 0.2331055044616E+00
 0.2048193373549E+00
 0.1787357068952E+00
 0.1557819172663E+00
 0.1368731431431E+00
 0.1228360479412E+00
 0.1142988973395E+00
 0.1115405497808E+00
 0.1142977805342E+00
 0.1215446608700E+00
 0.1312838479472E+00
 0.1404505701157E+00
 0.1451662386351E+00
 0.1416525731031E+00
 0.1277274880521E+00
 0.4168876656025E+00
 0.3898206142297E+00
 0.3619390897189E+00
 0.3332383475369E+00
 0.3039835257832E+00
 0.2746420975870E+00
 0.2458358485236E+00
 0.2183114731961E+00
 0.1929186669601E+00
 0.1705836942602E+00
 0.1522667643509E+00
 0.1388909239306E+00
 0.1312281520298E+00
 0.1297262306466E+00
 0.1342606860357E+00
 0.1438033155821E+00
 0.1560249164822E+00
 0.1669573232503E+00
 0.1712202409424E+00
 0.1635358669293E+00
 0.4543162142507E+00
 0.4293345715134E+00
 0.4034626210579E+00
 0.3766233077084E+00
 0.3489424625317E+00
 0.3207134865533E+00
 0.2923722992798E+00
 0.2644848747888E+00
 0.2377430317651E+00
 0.2129618130691E+00
 0.1910707283155E+00
 0.1730894031424E+00
 0.1600746630213E+00
 0.1530197478757E+00
 0.1526765862686E+00
 0.1592578822828E+00
 0.1719561336914E+00
 0.1881938568741E+00
 0.2026464863472E+00
 0.2072631488114E+00
 0.4929040464429E+00
 0.4704817431424E+00
 0.4471336963713E+00
 0.4227515749533E+00
 0.3973677518492E+00
 0.3711407822972E+00
 0.3443442046865E+00
 0.3173635750542E+00
 0.2907015183176E+00
 0.2649884874247E+00
 0.2409959092554E+00
 0.2196472520628E+00
 0.2020202874178E+00
 0.1893291642109E+00
 0.1828655480465E+00
 0.1838599020462E+00
 0.1931848594499E+00
 0.2107389693994E+00
 0.2340703924355E+00
 0.2555945482919E+00
 0.5324002119760E+00
 0.5129546269001E+00
 0.4925976244308E+00
 0.4712221866584E+00
 0.4488113992981E+00
 0.4254368440034E+00
 0.4012551313299E+00
 0.3765088473200E+00
 0.3515338074469E+00
 0.3267728571476E+00
 0.3027959135808E+00
 0.2803257461571E+00
 0.2602686657882E+00
 0.2437482849722E+00
 0.2321378420803E+00
 0.2270796048456E+00
 0.2304633688931E+00
 0.2442809990856E+00
 0.2701381775522E+00
 0.3068457527364E+00
 0.5725282330761E+00
 0.5563894150271E+00
 0.5394037537265E+00
 0.5214867281234E+00
 0.5026089976379E+00
 0.4828016051905E+00
 0.4621572724830E+00
 0.4408334412764E+00
 0.4190596388818E+00
 0.3971505391259E+00
 0.3755258963667E+00
 0.3547389505944E+00
 0.3355158566376E+00
 0.3188103695332E+00
 0.3058809255184E+00
 0.2984028636410E+00
 0.2986392689161E+00
 0.3097248165800E+00
 0.3361749035464E+00
 0.3853339132732E+00
 0.6129986403276E+00
 0.6003968250579E+00
 0.5870521913889E+00
 0.5729127830037E+00
 0.5579605126197E+00
 0.5422192289803E+00
 0.5257590825271E+00
 0.5087013912090E+00
 0.4912264366272E+00
 0.4735858779182E+00
 0.4561214574367E+00
 0.4392922560152E+00
 0.4237140232850E+00
 0.4102164461364E+00
 0.3999286071577E+00
 0.3944114857858E+00
 0.3958754645605E+00
 0.4075650624594E+00
 0.4345319709115E+00
 0.4855826849243E+00
 0.6535185992981E+00
 0.6445839137917E+00
 0.6350326167174E+00
 0.6248464794017E+00
 0.6140282697884E+00
 0.6026102305617E+00
 0.5906597185227E+00
 0.5782847581474E+00
 0.5656413689248E+00
 0.5529440842422E+00
 0.5404810499090E+00
 0.5286354321407E+00
 0.5179156146621E+00
 0.5089979852204E+00
 0.5027883386855E+00
 0.5005117581792E+00
 0.5038471517855E+00
 0.5151318965618E+00
 0.5376680565930E+00
 0.5757964450034E+00
 0.6938000676629E+00
 0.6885689564700E+00
 0.6828517591590E+00
 0.6766596782836E+00
 0.6700161116015E+00
 0.6629642306806E+00
 0.6555723544740E+00
 0.6479387693084E+00
 0.6401971761532E+00
 0.6325236229367E+00
 0.6251456141825E+00
 0.6183540304031E+00
 0.6125184565389E+00
 0.6081063639996E+00
 0.6057059714720E+00
 0.6060505763686E+00
 0.6100358569971E+00
 0.6187031725744E+00
 0.6330869487543E+00
 0.6537416013925E+00
 0.7335657934976E+00
 0.7319895263969E+00
 0.7300459083347E+00
 0.7277682931119E+00
 0.7251947407982E+00
 0.7223741174296E+00
 0.7193702107967E+00
 0.7162647681178E+00
 0.7131600469670E+00
 0.7101811766374E+00
 0.7074783305632E+00
 0.7052283516139E+00
 0.7036349232886E+00
 0.7029253968947E+00
 0.7033404885073E+00
 0.7051092595583E+00
 0.7083943130172E+00
 0.7131767126058E+00
 0.7190404060209E+00
 0.7248850463759E+00
 0.7725542655341E+00
 0.7745083147382E+00
 0.7761884646644E+00
 0.7776416288788E+00
 0.7789117639258E+00
 0.7800444062529E+00
 0.7810891572073E+00
 0.7821005189418E+00
 0.7831373011995E+00
 0.7842605303635E+00
 0.7855294478696E+00
 0.7869947577837E+00
 0.7886876864605E+00
 0.7906025286991E+00
 0.7926690218150E+00
 0.7947090681750E+00
 0.7963704212671E+00
 0.7970321837524E+00
 0.7956931089470E+00
 0.7908382912714E+00
 0.8105237638128E+00
 0.8158174890574E+00
 0.8208949993930E+00
 0.8258080359292E+00
 0.8305967852142E+00
 0.8352933729176E+00
 0.8399228586893E+00
 0.8445020576925E+00
 0.8490363195464E+00
 0.8535140812395E+00
 0.8578987217540E+00
 0.8621169441941E+00
 0.8660425936168E+00
 0.8694745281390E+00
 0.8721070764797E+00
 0.8734922250597E+00
 0.8729953425905E+00
 0.8697530161257E+00
 0.8626491993226E+00
 0.8503495297558E+00
 0.8472541401281E+00
 0.8556397296126E+00
 0.8638241104232E+00
 0.8718550693835E+00
 0.8797595570957E+00
 0.8875468366676E+00
 0.8952083758595E+00
 0.9027153015288E+00
 0.9100136036789E+00
 0.9170170088938E+00
 0.9235972589006E+00
 0.9295714263796E+00
 0.9346859117621E+00
 0.9385970024152E+00
 0.9408485552840E+00
 0.9408488583703E+00
 0.9378513573923E+00
 0.9309470609614E+00
 0.9190806114440E+00
 0.9011168710934E+00
 0.8825456547894E+00
 0.8937263288727E+00
 0.9046744285079E+00
 0.9154246456692E+00
 0.9259822694535E+00
 0.9363257927483E+00
 0.9464062940674E+00
 0.9561444190654E+00
 0.9654253039602E+00
 0.9740915688198E+00
 0.9819344438436E+00
 0.9886831386627E+00
 0.9939927553751E+00
 0.9974314398781E+00
 0.9984681255066E+00
 0.9964630992755E+00
 0.9906643006706E+00
 0.9802119185917E+00
 0.9641513386731E+00
 0.9414280570272E+00
 0.9162240859975E+00
 0.9298646296890E+00
 0.9431921245268E+00
 0.9562203209865E+00
 0.9689258571148E+00
 0.9812504561117E+00
 0.9931004525450E+00
 0.1004344282791E+01
 0.1014808380925E+01
 0.1024271839889E+01
 0.1032460213966E+01
 0.1039038939578E+01
 0.1043607030765E+01
 0.1045691939834E+01
 0.1044746670706E+01
 0.1040150165856E+01
 0.1031211260409E+01
 0.1017174616982E+01
 0.9972214283882E+00
 0.9704562976657E+00
 0.9481394780458E+00
 0.9638759851328E+00
 0.9791683549878E+00
 0.9940036254995E+00
 0.1008324469610E+01
 0.1022031681709E+01
 0.1034984659580E+01
 0.1047000329689E+01
 0.1057851029326E+01
 0.1067261904422E+01
 0.1074908434936E+01
 0.1080414768820E+01
 0.1083353605106E+01
 0.1083248347145E+01
 0.1079578023564E+01
 0.1071784881697E+01
 0.1059283519727E+01
 0.1041468973114E+01
 0.1017721827631E+01
 0.9874167476867E+00
 0.9781650066905E+00
 0.9956128253215E+00
 0.1012435158687E+01
 0.1028588467463E+01
 0.1043977655811E+01
 0.1058459948543E+01
 0.1071847281764E+01
 0.1083907452976E+01
 0.1094364644217E+01
 0.1102900053956E+01
 0.1109153407232E+01
 0.1112726105357E+01
 0.1113186711965E+01
 0.1110079297560E+01
 0.1102934810169E+01
 0.1091285071560E+01
 0.1074678270104E+01
 0.1052694595543E+01
 0.1024962108918E+01
 0.9911735440338E+00
 0.1006195613339E+01
 0.1024955730617E+01
 0.1042861180401E+01
 0.1059835364036E+01
 0.1075742544150E+01
 0.1090394760329E+01
 0.1103557140611E+01
 0.1114951835952E+01
 0.1124261410223E+01
 0.1131132618874E+01
 0.1135181453428E+01
 0.1136000223890E+01
 0.1133167314895E+01
 0.1126260079625E+01
 0.1114871145139E+01
 0.1098628240566E+01
 0.1077217602566E+01
 0.1050410711144E+01
 0.1018092305576E+01
 0.9802840022078E+00
 0.1032145902407E+01
 0.1051810145744E+01
 0.1070347479572E+01
 0.1087646031405E+01
 0.1103526631436E+01
 0.1117755037616E+01
 0.1130051086119E+01
 0.1140095607064E+01
 0.1147536428722E+01
 0.1151994661066E+01
 0.1153072207013E+01
 0.1150361227437E+01
 0.1143456115504E+01
 0.1131968458056E+01
 0.1115545561741E+01
 0.1093893541158E+01
 0.1066806771560E+01
 0.1034206346901E+01
 0.9961881844078E+00
 0.9530728740110E+00
 0.1055947315577E+01
 0.1076102998220E+01
 0.1094823845756E+01
 0.1111958751825E+01
 0.1127281463024E+01
 0.1140510601354E+01
 0.1151323110612E+01
 0.1159363824433E+01
 0.1164253335329E+01
 0.1165595659325E+01
 0.1162986659073E+01
 0.1156023806934E+01
 0.1144317638237E+01
 0.1127505204964E+01
 0.1105266098336E+01
 0.1077342350547E+01
 0.1043565160281E+01
 0.1003894843753E+01
 0.9584887355166E+00
 0.9078144546599E+00
 0.1077544856377E+01
 0.1097780029529E+01
 0.1116246362967E+01
 0.1132744921214E+01
 0.1146997307281E+01
 0.1158674628585E+01
 0.1167414692653E+01
 0.1172833262132E+01
 0.1174532578322E+01
 0.1172108935757E+01
 0.1165160183811E+01
 0.1153293427562E+01
 0.1136132814175E+01
 0.1113327095850E+01
 0.1084556662975E+01
 0.1049540034610E+01
 0.1008040673841E+01
 0.9598781576509E+00
 0.9049600443088E+00
 0.8434111966121E+00
 0.1096894350803E+01
 0.1116805636674E+01
 0.1134596986022E+01
 0.1150006489240E+01
 0.1162697769096E+01
 0.1172295444479E+01
 0.1178404314364E+01
 0.1180620680197E+01
 0.1178539959473E+01
 0.1171762573198E+01
 0.1159898751730E+01
 0.1142572019664E+01
 0.1119420474407E+01
 0.1090094401283E+01
 0.1054248070790E+01
 0.1011522356996E+01
 0.9615125413951E+00
 0.9037103757718E+00
 0.8373972666361E+00
 0.7614574636774E+00
 0.1113962678724E+01
 0.1133166437486E+01
 0.1149883472315E+01
 0.1163770680089E+01
 0.1174429186050E+01
 0.1181441427588E+01
 0.1184389483544E+01
 0.1182864251249E+01
 0.1176470435488E+01
 0.1164829378319E+01
 0.1147579985303E+01
 0.1124376831542E+01
 0.1094883618099E+01
 0.1058759180845E+01
 0.1015631793466E+01
 0.9650548068214E+00
 0.9064305651060E+00
 0.8388756224524E+00
 0.7609561095083E+00
 0.6700229237607E+00
 0.1128727244437E+01
 0.1146866472114E+01
 0.1162128042724E+01
 0.1174073131031E+01
 0.1182240651457E+01
 0.1186181519351E+01
 0.1185472139590E+01
 0.1179718704431E+01
 0.1168557873693E+01
 0.1151655678845E+01
 0.1128704285216E+01
 0.1099414898743E+01
 0.1063504103310E+01
 0.1020669857802E+01
 0.9705518614184E+00
 0.9126683804314E+00
 0.8463173085258E+00
 0.7704185899232E+00
 0.6832656575751E+00
 0.5821227713458E+00
 0.1141173566545E+01
 0.1157915581187E+01
 0.1171353763740E+01
 0.1180945075170E+01
 0.1186175160759E+01
 0.1186583303847E+01
 0.1181765704179E+01
 0.1171371608686E+01
 0.1155098143911E+01
 0.1132684885522E+01
 0.1103906717629E+01
 0.1068562266177E+01
 0.1026454473670E+01
 0.9773592732917E+00
 0.9209777148058E+00
 0.8568669632833E+00
 0.7843484825441E+00
 0.7024100671429E+00
 0.6096649560026E+00
 0.5048888427069E+00
 0.1151306018369E+01
 0.1166339703904E+01
 0.1177592850544E+01
 0.1184418935744E+01
 0.1186271143490E+01
 0.1182707296731E+01
 0.1173375808473E+01
 0.1158000229524E+01
 0.1136367226999E+01
 0.1108317064074E+01
 0.1073733290745E+01
 0.1032527856712E+01
 0.9846180571360E+00
 0.9298922544527E+00
 0.8681625142229E+00
 0.7991058776692E+00
 0.7222077852857E+00
 0.6367561062983E+00
 0.5420629703332E+00
 0.4381026762659E+00
 0.1159150230990E+01
 0.1172179102731E+01
 0.1180881523836E+01
 0.1184522769657E+01
 0.1182559377335E+01
 0.1174607261043E+01
 0.1160402283259E+01
 0.1139770858835E+01
 0.1112611830094E+01
 0.1078884451390E+01
 0.1038596634056E+01
 0.9917889347085E+00
 0.9385117426556E+00
 0.8787950935925E+00
 0.8126132810703E+00
 0.7398515625680E+00
 0.6602929066237E+00
 0.5736625707623E+00
 0.4798102877892E+00
 0.3790556346323E+00
 0.1164757858668E+01
 0.1175489062802E+01
 0.1181255825792E+01
 0.1181275416555E+01
 0.1175060517129E+01
 0.1162330316598E+01
 0.1142938768216E+01
 0.1116833210222E+01
 0.1084034341312E+01
 0.1044625396017E+01
 0.9987415211118E+00
 0.9465557769488E+00
 0.8882617979072E+00
 0.8240559939386E+00
 0.7541252764485E+00
 0.6786497882392E+00
 0.5978292538787E+00
 0.5119202246988E+00
 0.4211053571597E+00
 0.3251326083156E+00
 0.1168205711477E+01
 0.1176327096846E+01
 0.1178735786197E+01
 0.1174677239554E+01
 0.1163790574183E+01
 0.1145940105690E+01
 0.1121113425218E+01
 0.1089378693785E+01
 0.1050872477954E+01
 0.1005793607999E+01
 0.9543954674685E+00
 0.8969767035168E+00
 0.8338738732722E+00
 0.7654622237918E+00
 0.6921734636744E+00
 0.6145400475985E+00
 0.5332665775288E+00
 0.4492726819185E+00
 0.3634605822253E+00
 0.2749291390666E+00
 0.1169609629443E+01
 0.1174781585157E+01
 0.1173383093686E+01
 0.1164812974665E+01
 0.1148915003915E+01
 0.1125716973315E+01
 0.1095322744596E+01
 0.1057899759616E+01
 0.1013679711786E+01
 0.9629554892447E+00
 0.9060751108511E+00
 0.8434370154694E+00
 0.7754928942587E+00
 0.7027663900645E+00
 0.6258984623377E+00
 0.5457312625148E+00
 0.4634351783373E+00
 0.3806576457658E+00
 0.2996039373191E+00
 0.2220792098392E+00
 0.1169150149086E+01
 0.1170973281152E+01
 0.1165265259405E+01
 0.1151799917327E+01
 0.1130678574099E+01
 0.1102031686793E+01
 0.1066031629170E+01
 0.1022913632551E+01
 0.9729768776756E+00
 0.9165775294583E+00
 0.8541206739818E+00
 0.7860571828756E+00
 0.7128921310413E+00
 0.6352136212742E+00
 0.5537541307381E+00
 0.4695007576400E+00
 0.3838792897491E+00
 0.2990703929408E+00
 0.2186934267618E+00
 0.1504467129886E+00
 0.1167050957537E+01
 0.1164866317881E+01
 0.1154264919780E+01
 0.1135722915695E+01
 0.1109372268638E+01
 0.1075340089010E+01
 0.1033835090136E+01
 0.9851433700767E+00
 0.9296147861376E+00
 0.8676491534903E+00
 0.7996871796713E+00
 0.7262102987203E+00
 0.6477555454972E+00
 0.5649545599708E+00
 0.4786103488071E+00
 0.3898339227121E+00
 0.3002862735574E+00
 0.2126499149698E+00
 0.1317400962680E+00
 0.6898078415819E-01
</DataArray>
<DataArray type="Float64" Name="OI" NumberOfComponents="1" ComponentName0="OI" format="ascii">
 0.1317299893586E+01
 0.1252072555168E+01
 0.1191385271206E+01
 0.1181657687372E+01
 0.1172456326446E+01
 0.1165153633951E+01
 0.1156724552092E+01
 0.1146823796715E+01
 0.1135196945228E+01
 0.1121841267171E+01
 0.1106804188192E+01
 0.1090156105270E+01
 0.1071961912591E+01
 0.1052271572878E+01
 0.1031115806668E+01
 0.1008506087650E+01
 0.9844372158000E+00
 0.9588938892161E+00
 0.9318563200789E+00
 0.9033148566611E+00
 0.8732877065844E+00
 0.8418599172265E+00
 0.8092709768912E+00
 0.7759062125149E+00
 0.7414585400044E+00
 0.7048054516064E+00
 0.6651088486306E+00
 0.6223419024294E+00
 0.5772457835600E+00
 0.5310847842172E+00
 0.4854100219069E+00
 0.4419166051874E+00
 0.4023719532521E+00
 0.3689749408959E+00
 0.3447773445528E+00
 0.3329736143511E+00
 0.3383776286508E+00
 0.3615874918398E+00
 0.4362333504918E+00
 0.4498147566778E+00
 0.1003561792167E+01
 0.1137004431105E+01
 0.1212815619359E+01
 0.1164986489940E+01
 0.1141538626632E+01
 0.1129657916036E+01
 0.1119335666459E+01
 0.1109370658056E+01
 0.1098520778911E+01
 0.1086426784575E+01
 0.1072919344349E+01
 0.1057961387213E+01
 0.1041562279022E+01
 0.1023748004477E+01
 0.1004543122877E+01
 0.9839629831403E+00
 0.9620110772685E+00
 0.9386799853643E+00
 0.9139555965595E+00
 0.8878234442947E+00
 0.8602789340313E+00
 0.8313437380594E+00
 0.8010882104628E+00
 0.7696041055629E+00
 0.7368820345611E+00
 0.7026858216672E+00
 0.6666081738955E+00
 0.6283503440490E+00
 0.5880004521835E+00
 0.5461089423521E+00
 0.5036086950103E+00
 0.4616917827485E+00
 0.4217259203579E+00
 0.3852542259506E+00
 0.3540546817878E+00
 0.3300666693557E+00
 0.3155186279978E+00
 0.3113787613975E+00
 0.3218899476454E+00
 0.3321414587046E+00
 0.2958352576583E+00
 0.7199977822684E+00
 0.1024189748468E+01
 0.1129252333201E+01
 0.1123925361970E+01
 0.1099762634896E+01
 0.1085399881478E+01
 0.1073561685596E+01
 0.1062330892586E+01
 0.1050736594292E+01
 0.1038237524766E+01
 0.1024601691315E+01
 0.1009723894073E+01
 0.9935689161529E+00
 0.9761302738196E+00
 0.9574106543936E+00
 0.9374112276974E+00
 0.9161272477096E+00
 0.8935473672708E+00
 0.8696565211838E+00
 0.8444406176881E+00
 0.8178938170541E+00
 0.7900285351103E+00
 0.7608685869124E+00
 0.7303818459002E+00
 0.6984373796559E+00
 0.6649116369675E+00
 0.6297584185008E+00
 0.5930025832596E+00
 0.5548248975825E+00
 0.5156532905777E+00
 0.4761734808348E+00
 0.4372858925951E+00
 0.4000682700999E+00
 0.3657512623510E+00
 0.3356031922577E+00
 0.3108282555636E+00
 0.2922266270685E+00
 0.2799739822945E+00
 0.2722127331821E+00
 0.2461373530120E+00
 0.2438062871229E+00
 0.5868826915327E+00
 0.9404966759166E+00
 0.1045777844406E+01
 0.1068202521015E+01
 0.1054227185916E+01
 0.1039741806081E+01
 0.1027330682391E+01
 0.1015406145582E+01
 0.1003293161199E+01
 0.9905103049157E+00
 0.9767981435969E+00
 0.9620236629801E+00
 0.9461222033040E+00
 0.9290643824615E+00
 0.9108355967214E+00
 0.8914249452811E+00
 0.8708197355904E+00
 0.8490037110262E+00
 0.8259586368930E+00
 0.8016670403588E+00
 0.7761162345176E+00
 0.7492990729445E+00
 0.7211890537079E+00
 0.6916867005688E+00
 0.6606458609067E+00
 0.6280412873927E+00
 0.5940180200493E+00
 0.5587781417782E+00
 0.5225590098722E+00
 0.4857019812362E+00
 0.4487044802906E+00
 0.4122277115946E+00
 0.3770812207669E+00
 0.3441631209804E+00
 0.3143023066119E+00
 0.2880528778793E+00
 0.2654306332061E+00
 0.2456414495825E+00
 0.2233848066994E+00
 0.1926898628201E+00
 0.2270084206314E+00
 0.4914059667178E+00
 0.8718518133619E+00
 0.9691983129874E+00
 0.1006502994266E+01
 0.1004146001192E+01
 0.9925333064843E+00
 0.9804627245180E+00
 0.9684036017093E+00
 0.9560581704287E+00
 0.9431383486648E+00
 0.9294276510880E+00
 0.9147963893440E+00
 0.8991700430794E+00
 0.8825063586478E+00
 0.8647791127579E+00
 0.8459680428860E+00
 0.8260533567873E+00
 0.8050133497096E+00
 0.7828248647607E+00
 0.7594641516300E+00
 0.7349073354911E+00
 0.7091236343688E+00
 0.6820477201138E+00
 0.6535534528697E+00
 0.6235173119503E+00
 0.5919861580571E+00
 0.5592028837519E+00
 0.5254557262855E+00
 0.4910042529343E+00
 0.4561207334906E+00
 0.4211551489658E+00
 0.3865698168842E+00
 0.3529319298341E+00
 0.3208423933544E+00
 0.2907669134808E+00
 0.2628236423240E+00
 0.2366450161200E+00
 0.2108341221567E+00
 0.1823099698900E+00
 0.1598380210136E+00
 0.2143654685125E+00
 0.4122305834082E+00
 0.8119284511450E+00
 0.8995116068866E+00
 0.9436768940541E+00
 0.9509140433559E+00
 0.9436716046225E+00
 0.9329089072845E+00
 0.9212067870213E+00
 0.9089272693317E+00
 0.8960347058309E+00
 0.8824183650562E+00
 0.8679830791632E+00
 0.8526628638397E+00
 0.8364133352953E+00
 0.8192026739346E+00
 0.8010044293659E+00
 0.7817929600627E+00
 0.7615409865579E+00
 0.7402192171344E+00
 0.7177955544179E+00
 0.6942325025669E+00
 0.6694768752499E+00
 0.6434382813788E+00
 0.6159868917825E+00
 0.5870304452825E+00
 0.5566622004331E+00
 0.5251674915563E+00
 0.4928646324397E+00
 0.4600087387352E+00
 0.4268110984546E+00
 0.3935030218771E+00
 0.3603815142485E+00
 0.3278075635900E+00
 0.2961403564111E+00
 0.2655870113150E+00
 0.2360515690485E+00
 0.2070761735415E+00
 0.1777778967179E+00
 0.1490772812286E+00
 0.1365656402719E+00
 0.1965300932009E+00
 0.3428833148222E+00
 0.7574928871571E+00
 0.8355367418343E+00
 0.8819214974220E+00
 0.8960908441143E+00
 0.8934475104189E+00
 0.8846789600325E+00
 0.8737692033939E+00
 0.8618285304726E+00
 0.8491309702786E+00
 0.8357091929161E+00
 0.8215306372994E+00
 0.8065543493242E+00
 0.7907440966323E+00
 0.7740685387136E+00
 0.7564984048019E+00
 0.7380037412886E+00
 0.7185519301722E+00
 0.6981068534985E+00
 0.6766268558731E+00
 0.6540602743009E+00
 0.6303352413225E+00
 0.6053472403401E+00
 0.5789732555998E+00
 0.5511486941873E+00
 0.5219914224398E+00
 0.4917948768079E+00
 0.4608729962237E+00
 0.4294578842634E+00
 0.3977040777564E+00
 0.3657456787171E+00
 0.3337452907400E+00
 0.3018998898073E+00
 0.2703932477920E+00
 0.2392905143009E+00
 0.2084677989328E+00
 0.1777201277687E+00
 0.1473972494498E+00
 0.1214746076132E+00
 0.1162785034310E+00
 0.1724902932163E+00
 0.2803955681275E+00
 0.7067376859080E+00
 0.7760928517820E+00
 0.8220946197343E+00
 0.8408379664535E+00
 0.8423292303745E+00
 0.8358739050189E+00
 0.8260900528475E+00
 0.8147225901222E+00
 0.8023765843067E+00
 0.7892499205524E+00
 0.7753923321574E+00
 0.7608018586569E+00
 0.7454594977655E+00
 0.7293401153014E+00
 0.7124149676552E+00
 0.6946514836161E+00
 0.6760122381961E+00
 0.6564540658125E+00
 0.6359253488985E+00
 0.6143610051857E+00
 0.5916746112084E+00
 0.5677546002546E+00
 0.5424876436049E+00
 0.5158287066614E+00
 0.4879029269385E+00
 0.4589901144819E+00
 0.4293789163418E+00
 0.3992666245057E+00
 0.3687543146938E+00
 0.3378965160029E+00
 0.3067510610096E+00
 0.2753957969637E+00
 0.2439098769002E+00
 0.2123270868396E+00
 0.1806644520475E+00
 0.1492520611354E+00
 0.1197606316644E+00
 0.9741819676680E-01
 0.9582017452556E-01
 0.1435201966265E+00
 0.2229473223138E+00
 0.6585816572014E+00
 0.7202209013843E+00
 0.7644258120741E+00
 0.7859010266906E+00
 0.7907826841955E+00
 0.7866597772215E+00
 0.7782064570775E+00
 0.7675962634634E+00
 0.7557379132035E+00
 0.7430007280192E+00
 0.7295278969943E+00
 0.7153666745948E+00
 0.7005227592551E+00
 0.6849822528099E+00
 0.6687200724734E+00
 0.6517027599475E+00
 0.6338888284234E+00
 0.6152282382588E+00
 0.5956596341876E+00
 0.5751058862230E+00
 0.5534694694420E+00
 0.5306354750673E+00
 0.5064988889802E+00
 0.4810251215423E+00
 0.4543332885682E+00
 0.4266758115175E+00
 0.3983037639170E+00
 0.3693730192170E+00
 0.3399349531521E+00
 0.3099803706426E+00
 0.2794910124725E+00
 0.2484710408252E+00
 0.2169647000333E+00
 0.1850770304105E+00
 0.1531173615100E+00
 0.1221194459736E+00
 0.9479823254147E-01
 0.7588447979272E-01
 0.7431110938068E-01
 0.1111894821145E+00
 0.1692676475905E+00
 0.6123416811053E+00
 0.6671840057101E+00
 0.7088649249095E+00
 0.7317140987195E+00
 0.7391930390595E+00
 0.7372255038309E+00
 0.7301833173188E+00
 0.7204567981023E+00
 0.7091958845666E+00
 0.6969314199916E+00
 0.6839032998798E+00
 0.6702140708528E+00
 0.6558996394083E+00
 0.6409614474854E+00
 0.6253808258850E+00
 0.6091250861552E+00
 0.5921495520977E+00
 0.5743977767368E+00
 0.5557992870379E+00
 0.5362663932617E+00
 0.5156928825696E+00
 0.4939617295465E+00
 0.4709727617132E+00
 0.4466932664482E+00
 0.4212264287205E+00
 0.3947887473083E+00
 0.3675870481753E+00
 0.3397330201211E+00
 0.3112331065143E+00
 0.2820294923984E+00
 0.2520556829807E+00
 0.2212868996297E+00
 0.1898002172462E+00
 0.1578723265580E+00
 0.1262519478010E+00
 0.9681534831778E-01
 0.7304626680946E-01
 0.5763179328565E-01
 0.5285129293958E-01
 0.7696050400075E-01
 0.1184385863039E+00
 0.5675658888441E+00
 0.6164235614916E+00
 0.6552485413918E+00
 0.6785030656925E+00
 0.6878471936501E+00
 0.6877513902060E+00
 0.6821004406127E+00
 0.6733263509008E+00
 0.6627431857839E+00
 0.6510202692344E+00
 0.6384903084621E+00
 0.6253132214980E+00
 0.6115585079314E+00
 0.5972459810682E+00
 0.5823656362601E+00
 0.5668870432386E+00
 0.5507632506410E+00
 0.5339320484439E+00
 0.5163146430943E+00
 0.4978140857796E+00
 0.4783168561396E+00
 0.4577033932744E+00
 0.4358740782564E+00
 0.4127906571235E+00
 0.3885331946133E+00
 0.3632772502661E+00
 0.3371824143612E+00
 0.3103162003081E+00
 0.2826459739192E+00
 0.2540802055943E+00
 0.2245315063070E+00
 0.1939908259176E+00
 0.1626387725836E+00
 0.1310414300504E+00
 0.1006008460154E+00
 0.7439404864651E-01
 0.5675623118367E-01
 0.4668390825368E-01
 0.3681308262968E-01
 0.4291928297690E-01
 0.6985354343958E-01
 0.5239433385387E+00
 0.5675151219645E+00
 0.6033779787248E+00
 0.6263625547513E+00
 0.6369428700117E+00
 0.6383921706967E+00
 0.6340408467214E+00
 0.6262364421419E+00
 0.6163814135169E+00
 0.6052526295393E+00
 0.5932658881455E+00
 0.5806369880061E+00
 0.5674703305817E+00
 0.5538059967090E+00
 0.5396443192716E+00
 0.5249583710731E+00
 0.5096998020254E+00
 0.4938013495674E+00
 0.4771767061294E+00
 0.4597206364583E+00
 0.4413128313571E+00
 0.4218297926134E+00
 0.4011680806234E+00
 0.3792777809875E+00
 0.3562107796117E+00
 0.3320990756230E+00
 0.3070544660857E+00
 0.2811022640267E+00
 0.2541776122265E+00
 0.2261704093873E+00
 0.1970002501246E+00
 0.1667222565171E+00
 0.1357093987859E+00
 0.1050095486156E+00
 0.7717208123108E-01
 0.5753358024852E-01
 0.5091101937800E-01
 0.4950040411152E-01
 0.3950485859326E-01
 0.2150560446104E-01
 0.2388612165598E-01
 0.4812525234091E+00
 0.5201331999550E+00
 0.5530545801089E+00
 0.5753078443955E+00
 0.5866060274456E+00
 0.5892709185747E+00
 0.5860823358264E+00
 0.5792229019583E+00
 0.5701183402832E+00
 0.5596194945181E+00
 0.5482115105101E+00
 0.5361616366203E+00
 0.5236086045787E+00
 0.5106135455377E+00
 0.4971881914165E+00
 0.4833100670310E+00
 0.4689301943053E+00
 0.4539769411341E+00
 0.4383571905422E+00
 0.4219580312355E+00
 0.4046522374258E+00
 0.3863104621611E+00
 0.3668213662090E+00
 0.3461184908292E+00
 0.3242221166704E+00
 0.3012196876672E+00
 0.2771762367572E+00
 0.2520782256760E+00
 0.2258363710069E+00
 0.1983380974816E+00
 0.1695410942062E+00
 0.1396270924955E+00
 0.1093087941679E+00
 0.8054937324778E-01
 0.5837068275924E-01
 0.5152690874756E-01
 0.5892168125286E-01
 0.6555656479352E-01
 0.6090286390097E-01
 0.4455307336212E-01
 0.2605530888801E-01
 0.4393307148203E+00
 0.4740251168728E+00
 0.5040944509802E+00
 0.5253083074855E+00
 0.5369085549163E+00
 0.5404793835292E+00
 0.5382925146050E+00
 0.5323218132762E+00
 0.5239654615455E+00
 0.5141161247868E+00
 0.5033124509609E+00
 0.4918665344527E+00
 0.4799492817723E+00
 0.4676426348667E+00
 0.4549701809268E+00
 0.4419145200395E+00
 0.4284266592986E+00
 0.4144311826755E+00
 0.3998287044027E+00
 0.3844989102708E+00
 0.3683070843297E+00
 0.3511159240966E+00
 0.3328025757184E+00
 0.3132802283714E+00
 0.2925353465438E+00
 0.2706109003654E+00
 0.2475271921201E+00
 0.2232361578647E+00
 0.1976329750333E+00
 0.1706211831688E+00
 0.1422372069515E+00
 0.1128917438517E+00
 0.8395889694471E-01
 0.5949174474588E-01
 0.4944632600513E-01
 0.5966099717616E-01
 0.7698242901254E-01
 0.8882845327113E-01
 0.8965232946753E-01
 0.8079083738743E-01
 0.7020395333406E-01
 0.3980550142801E+00
 0.4289920474091E+00
 0.4563334307785E+00
 0.4763083963257E+00
 0.4878833562651E+00
 0.4920815081844E+00
 0.4907266149179E+00
 0.4855666608649E+00
 0.4779359753943E+00
 0.4687408396061E+00
 0.4585571480815E+00
 0.4477338753057E+00
 0.4364707198135E+00
 0.4248693139142E+00
 0.4129649912968E+00
 0.4007457172069E+00
 0.3881629057055E+00
 0.3751377996560E+00
 0.3615650951610E+00
 0.3473170617406E+00
 0.3322506359056E+00
 0.3162184484707E+00
 0.2990830195803E+00
 0.2807342574362E+00
 0.2611234627193E+00
 0.2402498742857E+00
 0.2180916893705E+00
 0.1945714135442E+00
 0.1695792479835E+00
 0.1430593509215E+00
 0.1151923536590E+00
 0.8683329866026E-01
 0.6089017442821E-01
 0.4645669320279E-01
 0.5522217603288E-01
 0.7770745776632E-01
 0.1001943929915E+00
 0.1156851324602E+00
 0.1213457033832E+00
 0.1189951225413E+00
 0.1146467956615E+00
 0.3573302542936E+00
 0.3848753719931E+00
 0.4096275913466E+00
 0.4282405805885E+00
 0.4395362523136E+00
 0.4441181613659E+00
 0.4434272810200E+00
 0.4389866662391E+00
 0.4320433151544E+00
 0.4234940780912E+00
 0.4139367176082E+00
 0.4037485180909E+00
 0.3931537388921E+00
 0.3822718745887E+00
 0.3711493986008E+00
 0.3597796103061E+00
 0.3481145454029E+00
 0.3360723816648E+00
 0.3235420551372E+00
 0.3103881746937E+00
 0.2964583048258E+00
 0.2815929927881E+00
 0.2656374849338E+00
 0.2484561458343E+00
 0.2299643168529E+00
 0.2101185678213E+00
 0.1888579004417E+00
 0.1660812611431E+00
 0.1416875865151E+00
 0.1157001731960E+00
 0.8857641323155E-01
 0.6219072759097E-01
 0.4363140176946E-01
 0.4819300791117E-01
 0.7219207554649E-01
 0.1006075610878E+00
 0.1260794122052E+00
 0.1445917846235E+00
 0.1546007983796E+00
 0.1578820574954E+00
 0.1588019517361E+00
 0.3170810488601E+00
 0.3415468410565E+00
 0.3638518606212E+00
 0.3810332301045E+00
 0.3918550313584E+00
 0.3966120585124E+00
 0.3964256384489E+00
 0.3926061754936E+00
 0.3863003096756E+00
 0.3783778360680E+00
 0.3694447280294E+00
 0.3598980438114E+00
 0.3499818912696E+00
 0.3398312802646E+00
 0.3295028055995E+00
 0.3189947787928E+00
 0.3082598653696E+00
 0.2972132801053E+00
 0.2857381742400E+00
 0.2736910678857E+00
 0.2609090337149E+00
 0.2472186413923E+00
 0.2324455851618E+00
 0.2164268631117E+00
 0.1990413111879E+00
 0.1802038796468E+00
 0.1598172897897E+00
 0.1377638558035E+00
 0.1139715914235E+00
 0.8861728261259E-01
 0.6277868584972E-01
 0.4129472764936E-01
 0.4015641244352E-01
 0.6333700590899E-01
 0.9449970204844E-01
 0.1258811763832E+00
 0.1535531286588E+00
 0.1748419428323E+00
 0.1888352053489E+00
 0.1971069450202E+00
 0.2027112484573E+00
 0.2772464408907E+00
 0.2989014699287E+00
 0.3188980626782E+00
 0.3346154389304E+00
 0.3448162974968E+00
 0.3495724739161E+00
 0.3497432297713E+00
 0.3464450131271E+00
 0.3407190860790E+00
 0.3333956603758E+00
 0.3250774418209E+00
 0.3161732500246E+00
 0.3069421793340E+00
 0.2975320804902E+00
 0.2880083395747E+00
 0.2783737122234E+00
 0.2685813104344E+00
 0.2585433190258E+00
 0.2481369103005E+00
 0.2372099347357E+00
 0.2255877864590E+00
 0.2130812569370E+00
 0.1994944384173E+00
 0.1846353216440E+00
 0.1683455907624E+00
 0.1504991814870E+00
 0.1309650513874E+00
 0.1096175139373E+00
 0.8644954893054E-01
 0.6197504441186E-01
 0.3911648263021E-01
 0.3202375171157E-01
 0.5298415637730E-01
 0.8489278631806E-01
 0.1191979851592E+00
 0.1524730770136E+00
 0.1820921609976E+00
 0.2060598352550E+00
 0.2237400611963E+00
 0.2364923955014E+00
 0.2464481570246E+00
 0.2377762298546E+00
 0.2568524248375E+00
 0.2746730615111E+00
 0.2889201786106E+00
 0.2983908854991E+00
 0.3029998084463E+00
 0.3033947411140E+00
 0.3005199054737E+00
 0.2953119928068E+00
 0.2885535722769E+00
 0.2808349469729E+00
 0.2725695525784E+00
 0.2640267424830E+00
 0.2553643937491E+00
 0.2466551525621E+00
 0.2379054640206E+00
 0.2290685398337E+00
 0.2200533118839E+00
 0.2107306203742E+00
 0.2009389213421E+00
 0.1904906616913E+00
 0.1791790634346E+00
 0.1667845994871E+00
 0.1530844647000E+00
 0.1378819395222E+00
 0.1210093230748E+00
 0.1023029069909E+00
 0.8164033169874E-01
 0.5915889961619E-01
 0.3636600107405E-01
 0.2415605336679E-01
 0.4240735057808E-01
 0.7389573143941E-01
 0.1090478288895E+00
 0.1450871600724E+00
 0.1798937312861E+00
 0.2114057883493E+00
 0.2380150867347E+00
 0.2591655718097E+00
 0.2758590317554E+00
 0.2900418342842E+00
 0.1986284425057E+00
 0.2153274319321E+00
 0.2310975331211E+00
 0.2438869286915E+00
 0.2525488118542E+00
 0.2568905796420E+00
 0.2573919667347E+00
 0.2548475446095E+00
 0.2500942868929E+00
 0.2438628051105E+00
 0.2367241830683E+00
 0.2290904218036E+00
 0.2212367838948E+00
 0.2133284052475E+00
 0.2054435873438E+00
 0.1975916034377E+00
 0.1897253001241E+00
 0.1817499988687E+00
 0.1735297003106E+00
 0.1648925824939E+00
 0.1556367398442E+00
 0.1455359111594E+00
 0.1343447106792E+00
 0.1218071500012E+00
 0.1076853833823E+00
 0.9176641525450E-01
 0.7385000204607E-01
 0.5383050849804E-01
 0.3224415950207E-01
 0.1636988264985E-01
 0.3271057030356E-01
 0.6318346040107E-01
 0.9769691394296E-01
 0.1343480630294E+00
 0.1716406400875E+00
 0.2078820117463E+00
 0.2413165277329E+00
 0.2705392994346E+00
 0.2950632560866E+00
 0.3151683328279E+00
 0.3331747646719E+00
 0.1597684657375E+00
 0.1742716348036E+00
 0.1881144644111E+00
 0.1994773698364E+00
 0.2072813389232E+00
 0.2112640974803E+00
 0.2117739729920E+00
 0.2094779819333E+00
 0.2051209348720E+00
 0.1993802377779E+00
 0.1928031474918E+00
 0.1857954325141E+00
 0.1786345141963E+00
 0.1714902667452E+00
 0.1644451241581E+00
 0.1575103309627E+00
 0.1506378570543E+00
 0.1437289601164E+00
 0.1366401541667E+00
 0.1291882959388E+00
 0.1211555721998E+00
 0.1122941720936E+00
 0.1023303177240E+00
 0.9097160054802E-01
 0.7793380660296E-01
 0.6294796176933E-01
 0.4575445114507E-01
 0.2625122630899E-01
 0.8049612049866E-02
 0.2537404917518E-01
 0.5431875991719E-01
 0.8696955403322E-01
 0.1225399089490E+00
 0.1601320339116E+00
 0.1985212134288E+00
 0.2362034209873E+00
 0.2716025730777E+00
 0.3034629187558E+00
 0.3311262951371E+00
 0.3550106566104E+00
 0.3737987141364E+00
 0.1211659832594E+00
 0.1336382319831E+00
 0.1456761439010E+00
 0.1556592747429E+00
 0.1625807750499E+00
 0.1661368715674E+00
 0.1665753936292E+00
 0.1644568975081E+00
 0.1604434367007E+00
 0.1551605431722E+00
 0.1491292060920E+00
 0.1427456567927E+00
 0.1362866854881E+00
 0.1299250176527E+00
 0.1237461436520E+00
 0.1177627445952E+00
 0.1119256168716E+00
 0.1061316216036E+00
 0.1002292196331E+00
 0.9402306877071E-01
 0.8727835205829E-01
 0.7972469284615E-01
 0.7105944715848E-01
 0.6095422542290E-01
 0.4907906107234E-01
 0.3510633746556E-01
 0.1869720031528E-01
 0.1694174146311E-02
 0.2316257750419E-01
 0.4908096009271E-01
 0.7862581213182E-01
 0.1116696156077E+00
 0.1477698051275E+00
 0.1861201919008E+00
 0.2255779182898E+00
 0.2647468809600E+00
 0.3021769471398E+00
 0.3366558583600E+00
 0.3675374688888E+00
 0.3944716408593E+00
 0.4176135666868E+00
 0.8279558504732E-01
 0.9339598928011E-01
 0.1037615231734E+00
 0.1124334298780E+00
 0.1184753007190E+00
 0.1215636590231E+00
 0.1218728183260E+00
 0.1198774526406E+00
 0.1161680849284E+00
 0.1113223979423E+00
 0.1058353215141E+00
 0.1000925585135E+00
 0.9436949477626E-01
 0.8884164505964E-01
 0.8359816354950E-01
 0.7865417126823E-01
 0.7396041211573E-01
 0.6941051415366E-01
 0.6484646823252E-01
 0.6006389425780E-01
 0.5481825363398E-01
 0.4883348665089E-01
 0.4181789490110E-01
 0.3350983060449E-01
 0.2386198144518E-01
 0.1413425009181E-01
 0.1382331521660E-01
 0.2841941896048E-01
 0.4922515879378E-01
 0.7437471156180E-01
 0.1036066724332E+00
 0.1366961816955E+00
 0.1731704543213E+00
 0.2122332155760E+00
 0.2527871694441E+00
 0.2935135785301E+00
 0.3330392544793E+00
 0.3701929784507E+00
 0.4041863707159E+00
 0.4345686843603E+00
 0.4616829771490E+00
 0.4464584103797E-01
 0.5358632289076E-01
 0.6248278958875E-01
 0.6998034907111E-01
 0.7520861443832E-01
 0.7784726087813E-01
 0.7802609391899E-01
 0.7615799755168E-01
 0.7277830116305E-01
 0.6842719508834E-01
 0.6358106457496E-01
 0.5862237494587E-01
 0.5383360278106E-01
 0.4940296675135E-01
 0.4543391222914E-01
 0.4195435544247E-01
 0.3892501926343E-01
 0.3624871127750E-01
 0.3378360875907E-01
 0.3136561330381E-01
 0.2884889935152E-01
 0.2618797395167E-01
 0.2361985938704E-01
 0.2203309355341E-01
 0.2326097288872E-01
 0.2911555140081E-01
 0.3998083332227E-01
 0.5550304473832E-01
 0.7548457856678E-01
 0.9990748647306E-01
 0.1287427803167E+00
 0.1617959522564E+00
 0.1986012428618E+00
 0.2383816666904E+00
 0.2800808037737E+00
 0.3224377716951E+00
 0.3641327774095E+00
 0.4039932892110E+00
 0.4411348849402E+00
 0.4750698129207E+00
 0.5057711669492E+00
 0.6996068593996E-02
 0.1514429883342E-01
 0.2313456361425E-01
 0.2980151815470E-01
 0.3445475121414E-01
 0.3686463952015E-01
 0.3718800572920E-01
 0.3584251704507E-01
 0.3338030084977E-01
 0.3039133990507E-01
 0.2743975846210E-01
 0.2501359750995E-01
 0.2346105053429E-01
 0.2291734092284E-01
 0.2328712732826E-01
 0.2433039274259E-01
 0.2578934972205E-01
 0.2746846992795E-01
 0.2925661472169E-01
 0.3112558101218E-01
 0.3313353676304E-01
 0.3544545061349E-01
 0.3836843799908E-01
 0.4238065194542E-01
 0.4810681053506E-01
 0.5624596721455E-01
 0.6749318399853E-01
 0.8246802801942E-01
 0.1016649380387E+00
 0.1254166301535E+00
 0.1538529358312E+00
 0.1868502639198E+00
 0.2239816969087E+00
 0.2645048419905E+00
 0.3074044876105E+00
 0.3514654210358E+00
 0.3953987932797E+00
 0.4380120840477E+00
 0.4783487893042E+00
 0.5157967152630E+00
 0.5499208252361E+00
 0.3134121771159E-01
 0.2706717888878E-01
 0.2401025154485E-01
 0.2282909407312E-01
 0.2320516583095E-01
 0.2440902078304E-01
 0.2600419345287E-01
 0.2794336562640E-01
 0.3032663070131E-01
 0.3318551495428E-01
 0.3641641873261E-01
 0.3982771329748E-01
 0.4321491809792E-01
 0.4641264034605E-01
 0.4931630545219E-01
 0.5188436603335E-01
 0.5413153767099E-01
 0.5611945766070E-01
 0.5794864674099E-01
 0.5975441821171E-01
 0.6170964802226E-01
 0.6403720028016E-01
 0.6703287848606E-01
 0.7109139327124E-01
 0.7671147171118E-01
 0.8449330402215E-01
 0.9512479034654E-01
 0.1093198219526E+00
 0.1277240579148E+00
 0.1508212831612E+00
 0.1788592737282E+00
 0.2117956563724E+00
 0.2492603903788E+00
 0.2905571099647E+00
 0.3347126060010E+00
 0.3805473822859E+00
 0.4267860082156E+00
 0.4722051173872E+00
 0.5157647510301E+00
 0.5566768706343E+00
 0.5941690188850E+00
 0.6898753564528E-01
 0.6578851410727E-01
 0.6291783450194E-01
 0.6098180783612E-01
 0.6028378587566E-01
 0.6085905609115E-01
 0.6257311520740E-01
 0.6520428643830E-01
 0.6848827647201E-01
 0.7214469967498E-01
 0.7590248325895E-01
 0.7952446169540E-01
 0.8282556810668E-01
 0.8568198951192E-01
 0.8803250977743E-01
 0.8987484405268E-01
 0.9125956598813E-01
 0.9228346082544E-01
 0.9308377361237E-01
 0.9383459070813E-01
 0.9474717668125E-01
 0.9607644592480E-01
 0.9813536448251E-01
 0.1013133321197E+00
 0.1060820042213E+00
 0.1130069837537E+00
 0.1227581821570E+00
 0.1360706594121E+00
 0.1536558615555E+00
 0.1760917712162E+00
 0.2037239247693E+00
 0.2365944423946E+00
 0.2744010170550E+00
 0.3165013516791E+00
 0.3619645626134E+00
 0.4096384568628E+00
 0.4582475486941E+00
 0.5065250917512E+00
 0.5533292184216E+00
 0.5976798122304E+00
 0.6385381990213E+00
 0.1065427394630E+00
 0.1047467581833E+00
 0.1030764953427E+00
 0.1020642959519E+00
 0.1020345583133E+00
 0.1030909134062E+00
 0.1051535755198E+00
 0.1080164564809E+00
 0.1114040236044E+00
 0.1150199823533E+00
 0.1185851872071E+00
 0.1218637818383E+00
 0.1246780819394E+00
 0.1269142850288E+00
 0.1285219071371E+00
 0.1295097182934E+00
 0.1299402613211E+00
 0.1299243106115E+00
 0.1296162142422E+00
 0.1292108907681E+00
 0.1289436726466E+00
 0.1290944933806E+00
 0.1299981040784E+00
 0.1320575343862E+00
 0.1357478881929E+00
 0.1416312241949E+00
 0.1503765041829E+00
 0.1627354253504E+00
 0.1794652743588E+00
 0.2012179429894E+00
 0.2284273359904E+00
 0.2612222668544E+00
 0.2993757161250E+00
 0.3423054517806E+00
 0.3891229624364E+00
 0.4386964206172E+00
 0.4897388483097E+00
 0.5409267693614E+00
 0.5910013199634E+00
 0.6387914221173E+00
 0.6830428583577E+00
 0.1439955433637E+00
 0.1436251128953E+00
 0.1432792177970E+00
 0.1434044366041E+00
 0.1442864907777E+00
 0.1460252622330E+00
 0.1485534790910E+00
 0.1516810791503E+00
 0.1551477632027E+00
 0.1586716794759E+00
 0.1619877537290E+00
 0.1648735324609E+00
 0.1671634848306E+00
 0.1687543984025E+00
 0.1696049696893E+00
 0.1697323138316E+00
 0.1692073520830E+00
 0.1681503370877E+00
 0.1667272421451E+00
 0.1651476054662E+00
 0.1636646624221E+00
 0.1625787593529E+00
 0.1622454933081E+00
 0.1630862563026E+00
 0.1655904585975E+00
 0.1703307583782E+00
 0.1779868872548E+00
 0.1893311712779E+00
 0.2051623952456E+00
 0.2261989984792E+00
 0.2529596234704E+00
 0.2856623844554E+00
 0.3241617166313E+00
 0.3679404564032E+00
 0.4161526605536E+00
 0.4676812085001E+00
 0.5212175569102E+00
 0.5753691228082E+00
 0.6287496666901E+00
 0.6800037328455E+00
 0.7276923214888E+00
 0.1813560204660E+00
 0.1823970368684E+00
 0.1833991018186E+00
 0.1847214355416E+00
 0.1865952508874E+00
 0.1890964288663E+00
 0.1921556804649E+00
 0.1955939809780E+00
 0.1991685028863E+00
 0.2026170503692E+00
 0.2056937707107E+00
 0.2081934805416E+00
 0.2099652828923E+00
 0.2109179159317E+00
 0.2110197503244E+00
 0.2102960035009E+00
 0.2088250177295E+00
 0.2067348179020E+00
 0.2042005295535E+00
 0.2014431653915E+00
 0.1987303788996E+00
 0.1963797976401E+00
 0.1947661610434E+00
 0.1943301798426E+00
 0.1955799425760E+00
 0.1991058019512E+00
 0.2056056485098E+00
 0.2158770461587E+00
 0.2307606650430E+00
 0.2510395547845E+00
 0.2773166854786E+00
 0.3099027943270E+00
 0.3487395191336E+00
 0.3933795118676E+00
 0.4430200964361E+00
 0.4965543976931E+00
 0.5526435809127E+00
 0.6098153321860E+00
 0.6665489350899E+00
 0.7213106738188E+00
 0.7724925937569E+00
 0.2186365877687E+00
 0.2210697143727E+00
 0.2234206406370E+00
 0.2259630571709E+00
 0.2288682570364E+00
 0.2321793183935E+00
 0.2358169471292E+00
 0.2396082052165E+00
 0.2433258683958E+00
 0.2467275935126E+00
 0.2495879501166E+00
 0.2517205169718E+00
 0.2529904244868E+00
 0.2533194560207E+00
 0.2526863406949E+00
 0.2511245992540E+00
 0.2487196575493E+00
 0.2456063960417E+00
 0.2419675842267E+00
 0.2380336617725E+00
 0.2340842922699E+00
 0.2304519978264E+00
 0.2275289213523E+00
 0.2257747969526E+00
 0.2257181968818E+00
 0.2279710284684E+00
 0.2332541645436E+00
 0.2423944166494E+00
 0.2562763004529E+00
 0.2757480498294E+00
 0.3014984330387E+00
 0.3339348507335E+00
 0.3730919974451E+00
 0.4185973397856E+00
 0.4696929512305E+00
 0.5252789788151E+00
 0.5839790028377E+00
 0.6442320906730E+00
 0.7043775140289E+00
 0.7627065218564E+00
 0.8174476654854E+00
 0.2558498045072E+00
 0.2596578582383E+00
 0.2633534866572E+00
 0.2671276676077E+00
 0.2710898912278E+00
 0.2752456520635E+00
 0.2795002808131E+00
 0.2836825924940E+00
 0.2875782782569E+00
 0.2909636938878E+00
 0.2936337935751E+00
 0.2954215382162E+00
 0.2962089741597E+00
 0.2959317933017E+00
 0.2945797163492E+00
 0.2921948369996E+00
 0.2888694903712E+00
 0.2847447516012E+00
 0.2800098785319E+00
 0.2749031264170E+00
 0.2697142209523E+00
 0.2647885428189E+00
 0.2605339296998E+00
 0.2574283158902E+00
 0.2560213561364E+00
 0.2569486949520E+00
 0.2609574573198E+00
 0.2689070088050E+00
 0.2817281439972E+00
 0.3003360689751E+00
 0.3255079584059E+00
 0.3577525740111E+00
 0.3972039371298E+00
 0.4435699416490E+00
 0.4961399145627E+00
 0.5538191345508E+00
 0.6151877489776E+00
 0.6785886883334E+00
 0.7422159445652E+00
 0.8041853720756E+00
 0.8625603590242E+00
 0.2930079355972E+00
 0.2981781398146E+00
 0.3032149045672E+00
 0.3082293882093E+00
 0.3132687702351E+00
 0.3182979990829E+00
 0.3232030880780E+00
 0.3278109526002E+00
 0.3319175513683E+00
 0.3353164802374E+00
 0.3378226468205E+00
 0.3392886717718E+00
 0.3396141588270E+00
 0.3387494148843E+00
 0.3366956994464E+00
 0.3335039178470E+00
 0.3292731570384E+00
 0.3241500912737E+00
 0.3183294279238E+00
 0.3120557902087E+00
 0.3056272025003E+00
 0.2994000099275E+00
 0.2937960267308E+00
 0.2893102687814E+00
 0.2865133991601E+00
 0.2860659965549E+00
 0.2887436932520E+00
 0.2954410872301E+00
 0.3071377202908E+00
 0.3248181311093E+00
 0.3493512120127E+00
 0.3813523765756E+00
 0.4210618566926E+00
 0.4682744719632E+00
 0.5223305411267E+00
 0.5821400199569E+00
 0.6462351633863E+00
 0.7128561837293E+00
 0.7800459667624E+00
 0.8457410655420E+00
 0.9078329802603E+00
 0.3301228704864E+00
 0.3366475899997E+00
 0.3430246987843E+00
 0.3492881318785E+00
 0.3554227729465E+00
 0.3613510092048E+00
 0.3669365221770E+00
 0.3720013223241E+00
 0.3763493127026E+00
 0.3797899544953E+00
 0.3821576279113E+00
 0.3833247878674E+00
 0.3832091255842E+00
 0.3817761698765E+00
 0.3790391851482E+00
 0.3750580660890E+00
 0.3699384545418E+00
 0.3638320126513E+00
 0.3569378691560E+00
 0.3495056029639E+00
 0.3418398207290E+00
 0.3343059630149E+00
 0.3273380448566E+00
 0.3214468244858E+00
 0.3172234519118E+00
 0.3153539785862E+00
 0.3166440720267E+00
 0.3220256915782E+00
 0.3325294319381E+00
 0.3492117490958E+00
 0.3730369966824E+00
 0.4047330680283E+00
 0.4446540374916E+00
 0.4926892525081E+00
 0.5482351929649E+00
 0.6102075747046E+00
 0.6770876088471E+00
 0.7470067774131E+00
 0.8178500065907E+00
 0.8873673660080E+00
 0.9532679091092E+00
 0.3672061373732E+00
 0.3750830806618E+00
 0.3828034453229E+00
 0.3903260787124E+00
 0.3975737095544E+00
 0.4044246769720E+00
 0.4107179809306E+00
 0.4162683168725E+00
 0.4208856393149E+00
 0.4243941578642E+00
 0.4266473649664E+00
 0.4275377518370E+00
 0.4270015995723E+00
 0.4250202096705E+00
 0.4216192500919E+00
 0.4168677141793E+00
 0.4108775386060E+00
 0.4038047084001E+00
 0.3958517034560E+00
 0.3872716150051E+00
 0.3783738878249E+00
 0.3695311444751E+00
 0.3611877268626E+00
 0.3538685936060E+00
 0.3481845096043E+00
 0.3448470380623E+00
 0.3446928355181E+00
 0.3486928546085E+00
 0.3579307830254E+00
 0.3735375949283E+00
 0.3965770984319E+00
 0.4278959798679E+00
 0.4679706303069E+00
 0.5167938142456E+00
 0.5738249623461E+00
 0.6379882790926E+00
 0.7077120279366E+00
 0.7810132565391E+00
 0.8556108119778E+00
 0.9290581092359E+00
 0.9988680165510E+00
 0.4042689481392E+00
 0.4135011734651E+00
 0.4225718306914E+00
 0.4313662789381E+00
 0.4397451507518E+00
 0.4475415462739E+00
 0.4545679391126E+00
 0.4606298449440E+00
 0.4655418486574E+00
 0.4691421386385E+00
 0.4713031774020E+00
 0.4719378040968E+00
 0.4710014220114E+00
 0.4684916339003E+00
 0.4644468574681E+00
 0.4589452265647E+00
 0.4521046399342E+00
 0.4440846680620E+00
 0.4350900022025E+00
 0.4253757351209E+00
 0.4152543346395E+00
 0.4051036036985E+00
 0.3953762066815E+00
 0.3866095535077E+00
 0.3794328387509E+00
 0.3745827515934E+00
 0.3729273954837E+00
 0.3754778779920E+00
 0.3833726892408E+00
 0.3978197993284E+00
 0.4199865765014E+00
 0.4508452449113E+00
 0.4910038935279E+00
 0.5405690410071E+00
 0.5990716687752E+00
 0.6654489735008E+00
 0.7380756018528E+00
 0.8148486168673E+00
 0.8933112941390E+00
 0.9708074469473E+00
 0.1044637132715E+01
 0.4413222532361E+00
 0.4519181080105E+00
 0.4623504157122E+00
 0.4724320712360E+00
 0.4819614658261E+00
 0.4907254233433E+00
 0.4985084463227E+00
 0.5051055107501E+00
 0.5103349004842E+00
 0.5140484132757E+00
 0.5161376211797E+00
 0.5165361894343E+00
 0.5152192482851E+00
 0.5122012351573E+00
 0.5075336251932E+00
 0.5013036713846E+00
 0.4936348261938E+00
 0.4846894270663E+00
 0.4746731530214E+00
 0.4638415000813E+00
 0.4525080475834E+00
 0.4410536606232E+00
 0.4299371658320E+00
 0.4197064552103E+00
 0.4110076631415E+00
 0.4046018243768E+00
 0.4013884856686E+00
 0.4024196069878E+00
 0.4088898084048E+00
 0.4220863048085E+00
 0.4432841268971E+00
 0.4735881506683E+00
 0.5137484898574E+00
 0.5639973468877E+00
 0.6239478640917E+00
 0.6925566740769E+00
 0.7681454232075E+00
 0.8484857328792E+00
 0.9309344039559E+00
 0.1012610045593E+01
 0.1090580442339E+01
 0.4783768009982E+00
 0.4903498510202E+00
 0.5021595859352E+00
 0.5135468585599E+00
 0.5242473904444E+00
 0.5340007516957E+00
 0.5425623584752E+00
 0.5497157632729E+00
 0.5552825184591E+00
 0.5591280987611E+00
 0.5611636525688E+00
 0.5613443580582E+00
 0.5596657820377E+00
 0.5561597562321E+00
 0.5508910944203E+00
 0.5439560893249E+00
 0.5354832636887E+00
 0.5256368193507E+00
 0.5146221093359E+00
 0.5026933369010E+00
 0.4901631703000E+00
 0.4774132835638E+00
 0.4649063299745E+00
 0.4531984785080E+00
 0.4429510027693E+00
 0.4349481131149E+00
 0.4301203418496E+00
 0.4295607245924E+00
 0.4345209084906E+00
 0.4463692818346E+00
 0.4664925274497E+00
 0.4961355796208E+00
 0.5362018623776E+00
 0.5870629157539E+00
 0.6484268802688E+00
 0.7192784220959E+00
 0.7978882127759E+00
 0.8818970870070E+00
 0.9684630509168E+00
 0.1054461279998E+01
 0.1136704883843E+01
 0.5154431995401E+00
 0.5288121759370E+00
 0.5420195935193E+00
 0.5547340583813E+00
 0.5666278524665E+00
 0.5773923097473E+00
 0.5867529278198E+00
 0.5944814121732E+00
 0.6004026667476E+00
 0.6043963781965E+00
 0.6063941012650E+00
 0.6063734550986E+00
 0.6043512821820E+00
 0.6003774106493E+00
 0.5945302570963E+00
 0.5869150214572E+00
 0.5776647404815E+00
 0.5669444942821E+00
 0.5549579047512E+00
 0.5419560849550E+00
 0.5282486513377E+00
 0.5142156876627E+00
 0.5003211485753E+00
 0.4871270235512E+00
 0.4753076008818E+00
 0.4656686975791E+00
 0.4591709094064E+00
 0.4569480736667E+00
 0.4603092801903E+00
 0.4707056116285E+00
 0.4896391678443E+00
 0.5185025439296E+00
 0.5583647033359E+00
 0.6097520211035E+00
 0.6724829403447E+00
 0.7455811850005E+00
 0.8272700886644E+00
 0.9150545542087E+00
 0.1005880062549E+01
 0.1096357446539E+01
 0.1183019579316E+01
 0.5525319811819E+00
 0.5673207576968E+00
 0.5819506446609E+00
 0.5960171398958E+00
 0.6091279260982E+00
 0.6209250680633E+00
 0.6311035688492E+00
 0.6394233215142E+00
 0.6457131962652E+00
 0.6498681229221E+00
 0.6518412861453E+00
 0.6516339406721E+00
 0.6492851913874E+00
 0.6448635187522E+00
 0.6384611958984E+00
 0.6301921483503E+00
 0.6201933008453E+00
 0.6086295450061E+00
 0.5957012776323E+00
 0.5816546240942E+00
 0.5667938889953E+00
 0.5514950157609E+00
 0.5362205361451E+00
 0.5215355388688E+00
 0.5081248623492E+00
 0.4968139444740E+00
 0.4885920359216E+00
 0.4846329706904E+00
 0.4863031585696E+00
 0.4951373999951E+00
 0.5127566308413E+00
 0.5407087848667E+00
 0.5802414901283E+00
 0.6320534019777E+00
 0.6960913040447E+00
 0.7714317698396E+00
 0.8562563317636E+00
 0.9479291688235E+00
 0.1043168105805E+01
 0.1138295921565E+01
 0.1229536225325E+01
 0.5896536706307E+00
 0.6058912803848E+00
 0.6219730184550E+00
 0.6374197168678E+00
 0.6517728652429E+00
 0.6646241433224E+00
 0.6756377300123E+00
 0.6845622106571E+00
 0.6912315942861E+00
 0.6955576118825E+00
 0.6975167220719E+00
 0.6971352959905E+00
 0.6944758472346E+00
 0.6896262246189E+00
 0.6826928043558E+00
 0.6737980094391E+00
 0.6630819602314E+00
 0.6507082171444E+00
 0.6368723747003E+00
 0.6218135784589E+00
 0.6058284457235E+00
 0.5892860792994E+00
 0.5726446607275E+00
 0.5564693819459E+00
 0.5414528108043E+00
 0.5284375811311E+00
 0.5184396731730E+00
 0.5126715384940E+00
 0.5125561816013E+00
 0.5197125503287E+00
 0.5358833552510E+00
 0.5627794725553E+00
 0.6018411302656E+00
 0.6539587413654E+00
 0.7192284952988E+00
 0.7967967929129E+00
 0.8848111864407E+00
 0.9804909125349E+00
 0.1080309619661E+01
 0.1180275332752E+01
 0.1276269523410E+01
 0.6268188580193E+00
 0.6445395555199E+00
 0.6621072073930E+00
 0.6789656754098E+00
 0.6945881835755E+00
 0.7085148065255E+00
 0.7203788221687E+00
 0.7299185103529E+00
 0.7369747854448E+00
 0.7414782980055E+00
 0.7434308698474E+00
 0.7428857697267E+00
 0.7399302316903E+00
 0.7346722500586E+00
 0.7272325431751E+00
 0.7177417577602E+00
 0.7063424544906E+00
 0.6931956500271E+00
 0.6784904844767E+00
 0.6624570460734E+00
 0.6453817824911E+00
 0.6276241114662E+00
 0.6096347353577E+00
 0.5919756730969E+00
 0.5753440311546E+00
 0.5605967512644E+00
 0.5487740651554E+00
 0.5411250374220E+00
 0.5391278668783E+00
 0.5444853792738E+00
 0.5590643678230E+00
 0.5847459985633E+00
 0.6231777132822E+00
 0.6754632470618E+00
 0.7418726071720E+00
 0.8216426903369E+00
 0.9128976682437E+00
 0.1012708486516E+01
 0.1117286721206E+01
 0.1222295708649E+01
 0.1323237613869E+01
 0.6640382783917E+00
 0.6832816518948E+00
 0.7023740771281E+00
 0.7206793287282E+00
 0.7375997668320E+00
 0.7526225251410E+00
 0.7653501796353E+00
 0.7755122483815E+00
 0.7829589589599E+00
 0.7876425981365E+00
 0.7895929080369E+00
 0.7888921453947E+00
 0.7856537412063E+00
 0.7800066689157E+00
 0.7720862163058E+00
 0.7620309333733E+00
 0.7499850060670E+00
 0.7361056323721E+00
 0.7205737816625E+00
 0.7036083346994E+00
 0.6854829934459E+00
 0.6665445134503E+00
 0.6472327946862E+00
 0.6281031269304E+00
 0.6098535843667E+00
 0.5933520423527E+00
 0.5796599140205E+00
 0.5700601887469E+00
 0.5660841023004E+00
 0.5695172736353E+00
 0.5823520871306E+00
 0.6066468709142E+00
 0.6442713861797E+00
 0.6965663553942E+00
 0.7640037015413E+00
 0.8459357771780E+00
 0.9404773753905E+00
 0.1044549059423E+01
 0.1154081079497E+01
 0.1264358605271E+01
 0.1370462515342E+01
 0.7013228995428E+00
 0.7221340394290E+00
 0.7427950466833E+00
 0.7625855968601E+00
 0.7808340111324E+00
 0.7969730290012E+00
 0.8105750409142E+00
 0.8213629508462E+00
 0.8291994087924E+00
 0.8340616948734E+00
 0.8360105170310E+00
 0.8351595220371E+00
 0.8316499712604E+00
 0.8256326965032E+00
 0.8172577620668E+00
 0.8066712508605E+00
 0.7940181023037E+00
 0.7794503670831E+00
 0.7631390765636E+00
 0.7452896975217E+00
 0.7261605340358E+00
 0.7060825867885E+00
 0.6854814498792E+00
 0.6649018549480E+00
 0.6450388887306E+00
 0.6267674796673E+00
 0.6111665198993E+00
 0.5995494875582E+00
 0.5934976499138E+00
 0.5948773908961E+00
 0.6058072068392E+00
 0.6285287262415E+00
 0.6651493755742E+00
 0.7172725863415E+00
 0.7856043295638E+00
 0.8696423708519E+00
 0.9675103081988E+00
 0.1075977991043E+01
 0.1190673761029E+01
 0.1306467218603E+01
 0.1417970582555E+01
 0.7386840203288E+00
 0.7611137500047E+00
 0.7833922914769E+00
 0.8047102114161E+00
 0.8243179837549E+00
 0.8415923926781E+00
 0.8560765391418E+00
 0.8674895480141E+00
 0.8757103759292E+00
 0.8807453407550E+00
 0.8826896674362E+00
 0.8816911018420E+00
 0.8779205101206E+00
 0.8715514896518E+00
 0.8627490550872E+00
 0.8516663965710E+00
 0.8384482811800E+00
 0.8232402399644E+00
 0.8062015637329E+00
 0.7875220621554E+00
 0.7674419353838E+00
 0.7462732439193E+00
 0.7244236132417E+00
 0.7024231300927E+00
 0.6809595578584E+00
 0.6609104768141E+00
 0.6433678845070E+00
 0.6296714958678E+00
 0.6214486557355E+00
 0.6206433998696E+00
 0.6294996606588E+00
 0.6504474698178E+00
 0.6858471774598E+00
 0.7375925781859E+00
 0.8066601989266E+00
 0.8927289921388E+00
 0.9939546947001E+00
 0.1106958523333E+01
 0.1227045042478E+01
 0.1348626482098E+01
 0.1465792980757E+01
 0.7761333816912E+00
 0.8002385577637E+00
 0.8241889707097E+00
 0.8470799439732E+00
 0.8680796006193E+00
 0.8865071239490E+00
 0.9018776881618E+00
 0.9139102684736E+00
 0.9225048759234E+00
 0.9277016482636E+00
 0.9296343969365E+00
 0.9284879694027E+00
 0.9244647267520E+00
 0.9177619420642E+00
 0.9085597031411E+00
 0.8970178187876E+00
 0.8832799065588E+00
 0.8674835732137E+00
 0.8497745494108E+00
 0.8303247312406E+00
 0.8093534818383E+00
 0.7871506724591E+00
 0.7641021666126E+00
 0.7407190857594E+00
 0.7176771664298E+00
 0.6958517125699E+00
 0.6763427477965E+00
 0.6605110860085E+00
 0.6500251383440E+00
 0.6469022391952E+00
 0.6535096541242E+00
 0.6724695392001E+00
 0.7064099235156E+00
 0.7575443210366E+00
 0.8271610059123E+00
 0.9151626453884E+00
 0.1019766801527E+01
 0.1137451405230E+01
 0.1263174157595E+01
 0.1390843115116E+01
 0.1513966132775E+01
 0.8136832940194E+00
 0.8395271861325E+00
 0.8652094885431E+00
 0.8897228676692E+00
 0.9121478285869E+00
 0.9317442647865E+00
 0.9480013701200E+00
 0.9606425287144E+00
 0.9695945215688E+00
 0.9749368791971E+00
 0.9768465930574E+00
 0.9755488836147E+00
 0.9712795768837E+00
 0.9642605014484E+00
 0.9546868673126E+00
 0.9427245408280E+00
 0.9285149642317E+00
 0.9121863960125E+00
 0.8938691908789E+00
 0.8737150882681E+00
 0.8519198855111E+00
 0.8287479867201E+00
 0.8045596061427E+00
 0.7798423802932E+00
 0.7552549724611E+00
 0.7316649601471E+00
 0.7101745813123E+00
 0.6921596565026E+00
 0.6793234788028E+00
 0.6737509190312E+00
 0.6779287942376E+00
 0.6946733323828E+00
 0.7268939796691E+00
 0.7771546600110E+00
 0.8471015073742E+00
 0.9369112401059E+00
 0.1044900772407E+01
 0.1167414489092E+01
 0.1299039035671E+01
 0.1433125695518E+01
 0.1562532218805E+01
 0.8513467835312E+00
 0.8789995443045E+00
 0.9064797902496E+00
 0.9326686489807E+00
 0.9565529032443E+00
 0.9773314889382E+00
 0.9944703034302E+00
 0.1007702793891E+01
 0.1016989315214E+01
 0.1022455207685E+01
 0.1024325756087E+01
 0.1022870056147E+01
 0.1018359400347E+01
 0.1011040980224E+01
 0.1001125075600E+01
 0.9887829652731E+00
 0.9741528449245E+00
 0.9573521963042E+00
 0.9384942097468E+00
 0.9177082685798E+00
 0.8951639156269E+00
 0.8710968220213E+00
 0.8458376164923E+00
 0.8198457771582E+00
 0.7937575431654E+00
 0.7684268128782E+00
 0.7449514798971E+00
 0.7247152615032E+00
 0.7094488553733E+00
 0.7012973152916E+00
 0.7028612759176E+00
 0.7171507736249E+00
 0.7473687699422E+00
 0.7964610813366E+00
 0.8664828511339E+00
 0.9579441495766E+00
 0.1069308447940E+01
 0.1196802223961E+01
 0.1334615960702E+01
 0.1475484688272E+01
 0.1611539620924E+01
 0.8891377628145E+00
 0.9186770014042E+00
 0.9480277030650E+00
 0.9759488776259E+00
 0.1001326566038E+01
 0.1023297195809E+01
 0.1041306988589E+01
 0.1055106407592E+01
 0.1064697410909E+01
 0.1070258460343E+01
 0.1072068748930E+01
 0.1070444925955E+01
 0.1065695721112E+01
 0.1058094372558E+01
 0.1047866043585E+01
 0.1035186683519E+01
 0.1020190128845E+01
 0.1002981668609E+01
 0.9836555941763E+00
 0.9623168105480E+00
 0.9391059974089E+00
 0.9142268857860E+00
 0.8879765870118E+00
 0.8607816510184E+00
 0.8332502913369E+00
 0.8062163091886E+00
 0.7807659504928E+00
 0.7582826496289E+00
 0.7405156186580E+00
 0.7296609557498E+00
 0.7284251326326E+00
 0.7400090381972E+00
 0.7679188693820E+00
 0.8155138532530E+00
 0.8853142524342E+00
 0.9782329765131E+00
 0.1092939190616E+01
 0.1225565040176E+01
 0.1369879172874E+01
 0.1517932481435E+01
 0.1661043340098E+01
 0.9270712307128E+00
 0.9585827083929E+00
 0.9898833336185E+00
 0.1019597444475E+01
 0.1046502325921E+01
 0.1069670601360E+01
 0.1088533630766E+01
 0.1102867391004E+01
 0.1112724850548E+01
 0.1118345842373E+01
 0.1120069547027E+01
 0.1118263946442E+01
 0.1113277069183E+01
 0.1105408698685E+01
 0.1094898524401E+01
 0.1081926313853E+01
 0.1066620395743E+01
 0.1049072482468E+01
 0.1029356315104E+01
 0.1007550312247E+01
 0.9837638057159E+00
 0.9581654899435E+00
 0.9310150928229E+00
 0.9027014398064E+00
 0.8737989380492E+00
 0.8451144669929E+00
 0.8177146018162E+00
 0.7929732103395E+00
 0.7726476024205E+00
 0.7589737948243E+00
 0.7547535548890E+00
 0.7633724534058E+00
 0.7886464082977E+00
 0.8343785996575E+00
 0.9036151211580E+00
 0.9977526157699E+00
 0.1115739743141E+01
 0.1253648602514E+01
 0.1404800428319E+01
 0.1560483508590E+01
 0.1711105411550E+01
 0.9651635077871E+00
 0.9987419739398E+00
 0.1032079525580E+01
 0.1063650962931E+01
 0.1092115729332E+01
 0.1116481798794E+01
 0.1136172004534E+01
 0.1150998173550E+01
 0.1161075235512E+01
 0.1166713611361E+01
 0.1168318949867E+01
 0.1166314345556E+01
 0.1161088782408E+01
 0.1152968831670E+01
 0.1142208139911E+01
 0.1128989316580E+01
 0.1113434005629E+01
 0.1095619013375E+01
 0.1075595995194E+01
 0.1053415029382E+01
 0.1029151786306E+01
 0.1002936994557E+01
 0.9749892674340E+00
 0.9456549654902E+00
 0.9154688195628E+00
 0.8852036397564E+00
 0.8558976412877E+00
 0.8289047297504E+00
 0.8059782713708E+00
 0.7893808840327E+00
 0.7819961966196E+00
 0.7873845172539E+00
 0.8096737632481E+00
 0.8531393308352E+00
 0.9214177064065E+00
 0.1016482668437E+01
 0.1137654078101E+01
 0.1280992774710E+01
 0.1439348372772E+01
 0.1603154400318E+01
 0.1761795134154E+01
 0.1003432517295E+01
 0.1039182714223E+01
 0.1074652402708E+01
 0.1108149257804E+01
 0.1138204657822E+01
 0.1163761805345E+01
 0.1184243279140E+01
 0.1199509280558E+01
 0.1209749369305E+01
 0.1215354744502E+01
 0.1216804308833E+01
 0.1214579920885E+01
 0.1209112856210E+01
 0.1200756379636E+01
 0.1189777270608E+01
 0.1176359867938E+01
 0.1160617935990E+01
 0.1142612126034E+01
 0.1122370624185E+01
 0.1099913511686E+01
 0.1075280705041E+01
 0.1048562265233E+01
 0.1019932170304E+01
 0.9896897257385E+00
 0.9583241366952E+00
 0.9265667853338E+00
 0.8954182601897E+00
 0.8662010251037E+00
 0.8406507646278E+00
 0.8210409911511E+00
 0.8103205241124E+00
 0.8122101002001E+00
 0.8311466274024E+00
 0.8719020770469E+00
 0.9387704694728E+00
 0.1034409439412E+01
 0.1158623383336E+01
 0.1307530290821E+01
 0.1473487765703E+01
 0.1645964440004E+01
 0.1813189279708E+01
 0.1041898120654E+01
 0.1079935987156E+01
 0.1117642003252E+01
 0.1153135914111E+01
 0.1184809627560E+01
 0.1211542553929E+01
 0.1232767754654E+01
 0.1248408926332E+01
 0.1258744820850E+01
 0.1264258550295E+01
 0.1265509222139E+01
 0.1263040818366E+01
 0.1257327786252E+01
 0.1248749564062E+01
 0.1237584940102E+01
 0.1224018723900E+01
 0.1208155601881E+01
 0.1190038931707E+01
 0.1169672237979E+01
 0.1147044190986E+01
 0.1122157134241E+01
 0.1095058049610E+01
 0.1065873050423E+01
 0.1034850052532E+01
 0.1002427036285E+01
 0.9692865289575E+00
 0.9363817784321E+00
 0.9049913189780E+00
 0.8768176887212E+00
 0.8541270225639E+00
 0.8399130739718E+00
 0.8380377210463E+00
 0.8532373937543E+00
 0.8907991300610E+00
 0.9557422811836E+00
 0.1051528661832E+01
 0.1178586213872E+01
 0.1333184861566E+01
 0.1507178175371E+01
 0.1688936286706E+01
 0.1865371991080E+01
 0.1080582523135E+01
 0.1121036635653E+01
 0.1161093031753E+01
 0.1198658901575E+01
 0.1231974091449E+01
 0.1259856820206E+01
 0.1281764498997E+01
 0.1297702509919E+01
 0.1308055416028E+01
 0.1313410241626E+01
 0.1314413220482E+01
 0.1311673322277E+01
 0.1305708434034E+01
 0.1296923125612E+01
 0.1285606726888E+01
 0.1271943107761E+01
 0.1256026694127E+01
 0.1237882556362E+01
 0.1217488599772E+01
 0.1194800960875E+01
 0.1169782917826E+01
 0.1142436315916E+01
 0.1112836549437E+01
 0.1081176180094E+01
 0.1047836563276E+01
 0.1013444051319E+01
 0.9788945679432E+00
 0.9454093567217E+00
 0.9146406477818E+00
 0.8888262263449E+00
 0.8709805992295E+00
 0.8650818920143E+00
 0.8761488832317E+00
 0.9099940007300E+00
 0.9724276679137E+00
 0.1067849284053E+01
 0.1197479107891E+01
 0.1357868605978E+01
 0.1540371716079E+01
 0.1732097166301E+01
 0.1918434342925E+01
 0.1119510767276E+01
 0.1162524069960E+01
 0.1205055758166E+01
 0.1244771290069E+01
 0.1279744739267E+01
 0.1308738068697E+01
 0.1331250870903E+01
 0.1347392009582E+01
 0.1357670667172E+01
 0.1362790491447E+01
 0.1363491472179E+01
 0.1360449689593E+01
 0.1354225950829E+01
 0.1345248294422E+01
 0.1333814741644E+01
 0.1320106661239E+01
 0.1304207076950E+01
 0.1286121962597E+01
 0.1265802927921E+01
 0.1243172794514E+01
 0.1218154663525E+01
 0.1190703603416E+01
 0.1160841894758E+01
 0.1128703271384E+01
 0.1094607528333E+01
 0.1059117837666E+01
 0.1023062775650E+01
 0.9875922670754E+00
 0.9542894868357E+00
 0.9253401320279E+00
 0.9037510527095E+00
 0.8935854931790E+00
 0.9001184124638E+00
 0.9296871703654E+00
 0.9889533196400E+00
 0.1083398694012E+01
 0.1215238152604E+01
 0.1381478822151E+01
 0.1573008937030E+01
 0.1775480533176E+01
 0.1972473376418E+01
 0.1158711337381E+01
 0.1204443217489E+01
 0.1249587083166E+01
 0.1291532044656E+01
 0.1328171748697E+01
 0.1358220147481E+01
 0.1381241853083E+01
 0.1397475206355E+01
 0.1407575079028E+01
 0.1412374913884E+01
 0.1412714449911E+01
 0.1409337966284E+01
 0.1402847691059E+01
 0.1393692748892E+01
 0.1382177587176E+01
 0.1368479369523E+01
 0.1352668649032E+01
 0.1334731723118E+01
 0.1314593562337E+01
 0.1292143286730E+01
 0.1267263143353E+01
 0.1239860261515E+01
 0.1209901955309E+01
 0.1177460271212E+01
 0.1142789152840E+01
 0.1106382140400E+01
 0.1068990684256E+01
 0.1031678984236E+01
 0.9959410432191E+00
 0.9638840038296E+00
 0.9384741833330E+00
 0.9238219774673E+00
 0.9254220555916E+00
 0.9501225998586E+00
 0.1005486005287E+01
 0.1098229688314E+01
 0.1231802126413E+01
 0.1403894523656E+01
 0.1605011187890E+01
 0.1819127151867E+01
 0.2027589773133E+01
 0.1198216909495E+01
 0.1246845698038E+01
 0.1294751828529E+01
 0.1339006934692E+01
 0.1377308993049E+01
 0.1408336828576E+01
 0.1431749207985E+01
 0.1447944776940E+01
 0.1457747398979E+01
 0.1462133559245E+01
 0.1462047660880E+01
 0.1458301896036E+01
 0.1451537232278E+01
 0.1442220686566E+01
 0.1430660431525E+01
 0.1417027598368E+01
 0.1401379314184E+01
 0.1383681900298E+01
 0.1363833732465E+01
 0.1341690292279E+01
 0.1317092783221E+01
 0.1289899767461E+01
 0.1260022358182E+01
 0.1227468790585E+01
 0.1192423698267E+01
 0.1155305357822E+01
 0.1116778899032E+01
 0.1077808391816E+01
 0.1039777525349E+01
 0.1004685879102E+01
 0.9754217796078E+00
 0.9560974270156E+00
 0.9523791453733E+00
 0.9715951089256E+00
 0.1022242241023E+01
 0.1112429666322E+01
 0.1247118007842E+01
 0.1424974778520E+01
 0.1636268104137E+01
 0.1863082643197E+01
 0.2083882341245E+01
 0.1238065287250E+01
 0.1289791274520E+01
 0.1340624283547E+01
 0.1387269533230E+01
 0.1427214123310E+01
 0.1459121084650E+01
 0.1482780351907E+01
 0.1498787170741E+01
 0.1508159742504E+01
 0.1512030359958E+01
 0.1511451374551E+01
 0.1507300847608E+01
 0.1500254418316E+01
 0.1490792914113E+01
 0.1479225092343E+01
 0.1465714133031E+01
 0.1450302943346E+01
 0.1432937905479E+01
 0.1413491292462E+01
 0.1391785518050E+01
 0.1367621092363E+01
 0.1340807967215E+01
 0.1311200505592E+01
 0.1278741856672E+01
 0.1243544908068E+01
 0.1205948147442E+01
 0.1166522162261E+01
 0.1126116962547E+01
 0.1085984252254E+01
 0.1047984878376E+01
 0.1014887214104E+01
 0.9907521188685E+00
 0.9813567239217E+00
 0.9944584751195E+00
 0.1039499735629E+01
 0.1126132699277E+01
 0.1261148485058E+01
 0.1444562107891E+01
 0.1666622441701E+01
 0.1907381182821E+01
 0.2141431766804E+01
 0.1278300588620E+01
 0.1333349658108E+01
 0.1387290077371E+01
 0.1436402310253E+01
 0.1477948463873E+01
 0.1510604028118E+01
 0.1534336899576E+01
 0.1549981263093E+01
 0.1558776616966E+01
 0.1562022566395E+01
 0.1560880391302E+01
 0.1556289803174E+01
 0.1548955465912E+01
 0.1539366995641E+01
 0.1527830172094E+01
 0.1514498260023E+01
 0.1499399370991E+01
 0.1482460383404E+01
 0.1463528471341E+01
 0.1442394119722E+01
 0.1418818086679E+01
 0.1392562298359E+01
 0.1363424556749E+01
 0.1331282598724E+01
 0.1296176336344E+01
 0.1258361347128E+01
 0.1218306857842E+01
 0.1176735928925E+01
 0.1134746738718E+01
 0.1094028702114E+01
 0.1057184129563E+01
 0.1028161415411E+01
 0.1012773755730E+01
 0.1019134233793E+01
 0.1057610770412E+01
 0.1139535045298E+01
 0.1273883052671E+01
 0.1462486524687E+01
 0.1695876259091E+01
 0.1951996066166E+01
 0.2200222363302E+01
 0.1318974781370E+01
 0.1377602738207E+01
 0.1434848490914E+01
 0.1486497800705E+01
 0.1529576638187E+01
 0.1562813420919E+01
 0.1586412833970E+01
 0.1601496796458E+01
 0.1609553894904E+01
 0.1612060241578E+01
 0.1610283924982E+01
 0.1605219479560E+01
 0.1597593205604E+01
 0.1587897530810E+01
 0.1576431318213E+01
 0.1563335969974E+01
 0.1548624509114E+01
 0.1532205210038E+01
 0.1513901731315E+01
 0.1493474401241E+01
 0.1470645810253E+01
 0.1445131106650E+01
 0.1416672494969E+01
 0.1385082999333E+01
 0.1350329700246E+01
 0.1312583843657E+01
 0.1272208337409E+01
 0.1229788087733E+01
 0.1186247170187E+01
 0.1143070260719E+01
 0.1102644107307E+01
 0.1068735706585E+01
 0.1047104920785E+01
 0.1046120754331E+01
 0.1077018414171E+01
 0.1152912771508E+01
 0.1285357912154E+01
 0.1478564057740E+01
 0.1723806144789E+01
 0.1996930786700E+01
 0.2259549482536E+01
 0.1360150865941E+01
 0.1422653067878E+01
 0.1483425004366E+01
 0.1537674107829E+01
 0.1582184646336E+01
 0.1615794758477E+01
 0.1639019306437E+01
 0.1653323303439E+01
 0.1660471883516E+01
 0.1662123294299E+01
 0.1659646406786E+01
 0.1654080802782E+01
 0.1646165240734E+01
 0.1636388108286E+01
 0.1625037151717E+01
 0.1612240092042E+01
 0.1597994954154E+01
 0.1582192865401E+01
 0.1564636218146E+01
 0.1545057659122E+01
 0.1523143870615E+01
 0.1498565113576E+01
 0.1471009670103E+01
 0.1440227515040E+01
 0.1406114406387E+01
 0.1368757616213E+01
 0.1328410815083E+01
 0.1285511526106E+01
 0.1240790519062E+01
 0.1195494289414E+01
 0.1151741414869E+01
 0.1113040423786E+01
 0.1084992311368E+01
 0.1076093458832E+01
 0.1098340968439E+01
 0.1166695254468E+01
 0.1295693981924E+01
 0.1492691711305E+01
 0.1750165332329E+01
 0.2042330686190E+01
 0.2321327512885E+01
 0.1401901762963E+01
 0.1468616488259E+01
 0.1533154842158E+01
 0.1590047356321E+01
 0.1635840720891E+01
 0.1669562132937E+01
 0.1692127511316E+01
 0.1705406391011E+01
 0.1711465588647E+01
 0.1712145728275E+01
 0.1708905455095E+01
 0.1702816233975E+01
 0.1694618224761E+01
 0.1684788097163E+01
 0.1673598095186E+01
 0.1661160633941E+01
 0.1647459267818E+01
 0.1632370049519E+01
 0.1615677097780E+01
 0.1597088653537E+01
 0.1576258529642E+01
 0.1552814724851E+01
 0.1526394077148E+01
 0.1496686284837E+01
 0.1463518929349E+01
 0.1426897917445E+01
 0.1386967549897E+01
 0.1344011841981E+01
 0.1298552071829E+01
 0.1251565195384E+01
 0.1204848487712E+01
 0.1161569007435E+01
 0.1127047962628E+01
 0.1109748623550E+01
 0.1122267529218E+01
 0.1181396193537E+01
 0.1305070856420E+01
 0.1504639458037E+01
 0.1774888224896E+01
 0.2087136834380E+01
 0.2392362424978E+01
 0.1444316197185E+01
 0.1515628237600E+01
 0.1584188744028E+01
 0.1643733865033E+01
 0.1690593904554E+01
 0.1724095053582E+01
 0.1745665703239E+01
 0.1757645902573E+01
 0.1762424060380E+01
 0.1762015801852E+01
 0.1757952447119E+01
 0.1751320458800E+01
 0.1742848485684E+01
 0.1732993095979E+01
 0.1722006569677E+01
 0.1709984655741E+01
 0.1696897445897E+01
 0.1682608646562E+01
 0.1666887901543E+01
 0.1649423215755E+01
 0.1629839454894E+01
 0.1607725801097E+01
 0.1582670994746E+01
 0.1554308439310E+01
 0.1522402541539E+01
 0.1486883127451E+01
 0.1447788517915E+01
 0.1405247401295E+01
 0.1359560288658E+01
 0.1311408130955E+01
 0.1262216947157E+01
 0.1214727375046E+01
 0.1173847216426E+01
 0.1147813794915E+01
 0.1149592327130E+01
 0.1197688160043E+01
 0.1313776679323E+01
 0.1514281369561E+01
 0.1797355248222E+01
 0.2132739754331E+01
 0.2466390783578E+01
 0.1487503377207E+01
 0.1563858656622E+01
 0.1636715115317E+01
 0.1698876661223E+01
 0.1746505568349E+01
 0.1779377492565E+01
 0.1799567591422E+01
 0.1809953917796E+01
 0.1813257287517E+01
 0.1811650965922E+01
 0.1806714938693E+01
 0.1799530086510E+01
 0.1790799082217E+01
 0.1780949611340E+01
 0.1770209680759E+01
 0.1758657423726E+01
 0.1746251045617E+01
 0.1732845354318E+01
 0.1718200189782E+01
 0.1701988457614E+01
 0.1683810926780E+01
 0.1663222185919E+01
 0.1639766933394E+01
 0.1613027238916E+01
 0.1582710983864E+01
 0.1548679746156E+01
 0.1510872769684E+01
 0.1469266110937E+01
 0.1423933813870E+01
 0.1375240735020E+01
 0.1324197467572E+01
 0.1273034829765E+01
 0.1226104228513E+01
 0.1191192817359E+01
 0.1181332178629E+01
 0.1216491996040E+01
 0.1322325828316E+01
 0.1521513712697E+01
 0.1817316847910E+01
 0.2178893033121E+01
 0.2543965272884E+01
 0.1531598527393E+01
 0.1613516806813E+01
 0.1690957149432E+01
 0.1755631549337E+01
 0.1803625725444E+01
 0.1835368769789E+01
 0.1853740977608E+01
 0.1862222030780E+01
 0.1863861653211E+01
 0.1860960755460E+01
 0.1855116431256E+01
 0.1847379945155E+01
 0.1838412401070E+01
 0.1828603772726E+01
 0.1818153862065E+01
 0.1807122766958E+01
 0.1795459004208E+01
 0.1783012683554E+01
 0.1769539442939E+01
 0.1754703296323E+01
 0.1738086812135E+01
 0.1719215038959E+01
 0.1697593331313E+01
 0.1672758221216E+01
 0.1644369245346E+01
 0.1612230112600E+01
 0.1576191575991E+01
 0.1536084745057E+01
 0.1491758168830E+01
 0.1443249136442E+01
 0.1391118397072E+01
 0.1337010963012E+01
 0.1284575918603E+01
 0.1240898748582E+01
 0.1218698753214E+01
 0.1239002606327E+01
 0.1331484060042E+01
 0.1526356389759E+01
 0.1834347857593E+01
 0.2225150499656E+01
 0.2625741065421E+01
 0.1576771190087E+01
 0.1664861918785E+01
 0.1747179742745E+01
 0.1814164478506E+01
 0.1861984080521E+01
 0.1891994479829E+01
 0.1908062004584E+01
 0.1914319028132E+01
 0.1914119766519E+01
 0.1909847591292E+01
 0.1903077459279E+01
 0.1894804154368E+01
 0.1885631117854E+01
 0.1875902171103E+01
 0.1865785607747E+01
 0.1855323715023E+01
 0.1844458171260E+01
 0.1833039345304E+01
 0.1820825243789E+01
 0.1807478378979E+01
 0.1792570217070E+01
 0.1775602245193E+01
 0.1756045749468E+01
 0.1733398153395E+01
 0.1707280144905E+01
 0.1677450353604E+01
 0.1643685302013E+01
 0.1605684074280E+01
 0.1563078224303E+01
 0.1515576738218E+01
 0.1463270192567E+01
 0.1407156620976E+01
 0.1350043932853E+01
 0.1298045997421E+01
 0.1263115920102E+01
 0.1266745142031E+01
 0.1342374736718E+01
 0.1529003154435E+01
 0.1847838241093E+01
 0.2271035322679E+01
 0.2712473096175E+01
 0.1623236953058E+01
 0.1718218864456E+01
 0.1805697286856E+01
 0.1874645651685E+01
 0.1921576883707E+01
 0.1949134996988E+01
 0.1962368968795E+01
 0.1966089111048E+01
 0.1963900994223E+01
 0.1958208122971E+01
 0.1950517031529E+01
 0.1941737416984E+01
 0.1932399295350E+01
 0.1922792793321E+01
 0.1913052286880E+01
 0.1903203222467E+01
 0.1893183942084E+01
 0.1882850750765E+01
 0.1871971567020E+01
 0.1860216085306E+01
 0.1847153177068E+01
 0.1832267837473E+01
 0.1815003098770E+01
 0.1794824085375E+01
 0.1771323118147E+01
 0.1744228648741E+01
 0.1713260667506E+01
 0.1678004332947E+01
 0.1637890712565E+01
 0.1592312251198E+01
 0.1540887418331E+01
 0.1483929488627E+01
 0.1423287285157E+01
 0.1363831021535E+01
 0.1316227554506E+01
 0.1301636922583E+01
 0.1356609244792E+01
 0.1529928352393E+01
 0.1857065258107E+01
 0.2315956507177E+01
 0.2805064614416E+01
 0.1671274332303E+01
 0.1773999345615E+01
 0.1866881778824E+01
 0.1937238142359E+01
 0.1982347980464E+01
 0.2006611373553E+01
 0.2016456220473E+01
 0.2017351158530E+01
 0.2013062958119E+01
 0.2005935217219E+01
 0.1997354458852E+01
 0.1988116535912E+01
 0.1978663618117E+01
 0.1969226051543E+01
 0.1959903043005E+01
 0.1950704990082E+01
 0.1941571012569E+01
 0.1932369656681E+01
 0.1922887217472E+01
 0.1912810646324E+01
 0.1901716404544E+01
 0.1889081432080E+01
 0.1874326892769E+01
 0.1856892515610E+01
 0.1836353267691E+01
 0.1812423938991E+01
 0.1784788605119E+01
 0.1752941339419E+01
 0.1716137226749E+01
 0.1673477567797E+01
 0.1624128936751E+01
 0.1567714388210E+01
 0.1505044026973E+01
 0.1439496282828E+01
 0.1379889232755E+01
 0.1346046688019E+01
 0.1376448404077E+01
 0.1530087453335E+01
 0.1861254543070E+01
 0.2359120280310E+01
 0.2904623915212E+01
 0.1721249635386E+01
 0.1832731201309E+01
 0.1931169825272E+01
 0.2002077386642E+01
 0.2044162044456E+01
 0.2064168839077E+01
 0.2070069077061E+01
 0.2067899667120E+01
 0.2061454251905E+01
 0.2052920655654E+01
 0.2043511565200E+01
 0.2033882132543E+01
 0.2024374735544E+01
 0.2015155881217E+01
 0.2006289755831E+01
 0.1997774365961E+01
 0.1989554248752E+01
 0.1981516964011E+01
 0.1973476436838E+01
 0.1965148394786E+01
 0.1956129082726E+01
 0.1945897628600E+01
 0.1933860454660E+01
 0.1919438610600E+01
 0.1902200669422E+01
 0.1881865151598E+01
 0.1858102884004E+01
 0.1830343550099E+01
 0.1797698152279E+01
 0.1759016162385E+01
 0.1713057223957E+01
 0.1658789099866E+01
 0.1595960977628E+01
 0.1526271686717E+01
 0.1456132544666E+01
 0.1402838509459E+01
 0.1404999076028E+01
 0.1531224004900E+01
 0.1859692205971E+01
 0.2399417970854E+01
 0.3012533905985E+01
 0.1773654534941E+01
 0.1895099262232E+01
 0.1999065302290E+01
 0.2069235740726E+01
 0.2106767761541E+01
 0.2121458956530E+01
 0.2122901247922E+01
 0.2117508114829E+01
 0.2108918588924E+01
 0.2099058565764E+01
 0.2088915257576E+01
 0.2078980532750E+01
 0.2069488681768E+01
 0.2060540880995E+01
 0.2052168043514E+01
 0.2044359311293E+01
 0.2037069667993E+01
 0.2030212686954E+01
 0.2023639717665E+01
 0.2017108189215E+01
 0.2010248714414E+01
 0.2002555325327E+01
 0.1993427987209E+01
 0.1982275393204E+01
 0.1968669914014E+01
 0.1952351023266E+01
 0.1932999691768E+01
 0.1910010359243E+01
 0.1882388028868E+01
 0.1848782850490E+01
 0.1807618138566E+01
 0.1757287461401E+01
 0.1696532268249E+01
 0.1625288404632E+01
 0.1547085659519E+01
 0.1475380267707E+01
 0.1446432756513E+01
 0.1536323099912E+01
 0.1851960673260E+01
 0.2435283223562E+01
 0.3130551032975E+01
 0.1829164523087E+01
 0.1962002525658E+01
 0.2071130696915E+01
 0.2138662971162E+01
 0.2169749147179E+01
 0.2178023079095E+01
 0.2174596946367E+01
 0.2165935485634E+01
 0.2155300491218E+01
 0.2144249564199E+01
 0.2133500414769E+01
 0.2123365785267E+01
 0.2113968348795E+01
 0.2105345480662E+01
 0.2097498298903E+01
 0.2090411431780E+01
 0.2084055546175E+01
 0.2078377133948E+01
 0.2073274903739E+01
 0.2068562109584E+01
 0.2063921088040E+01
 0.2058876928719E+01
 0.2052833410295E+01
 0.2045192801406E+01
 0.2035539871583E+01
 0.2023650649737E+01
 0.2009238437786E+01
 0.1991692022936E+01
 0.1969952904375E+01
 0.1942535877677E+01
 0.1907622851166E+01
 0.1863162528949E+01
 0.1807030071199E+01
 0.1737463223256E+01
 0.1654830219224E+01
 0.1567480187596E+01
 0.1506195987248E+01
 0.1550254696463E+01
 0.1838425239027E+01
 0.2464521171360E+01
 0.3260950638279E+01
 0.1888732889011E+01
 0.2034633865460E+01
 0.2147952459355E+01
 0.2210088767954E+01
 0.2232465244590E+01
 0.2233282404408E+01
 0.2224760386874E+01
 0.2212936397776E+01
 0.2200452446004E+01
 0.2188405512753E+01
 0.2177213002590E+01
 0.2167001740896E+01
 0.2157784960054E+01
 0.2149541095393E+01
 0.2142246724137E+01
 0.2135887042840E+01
 0.2130453627852E+01
 0.2125932305441E+01
 0.2122278634603E+01
 0.2119376524559E+01
 0.2116980424124E+01
 0.2114667390605E+01
 0.2111858764130E+01
 0.2107956383613E+01
 0.2102563555771E+01
 0.2095504827109E+01
 0.2086544002151E+01
 0.2075091518539E+01
 0.2060070116066E+01
 0.2039932202793E+01
 0.2012733756670E+01
 0.1976153239894E+01
 0.1927433636824E+01
 0.1863358556443E+01
 0.1781176181183E+01
 0.1683190703850E+01
 0.1591150129230E+01
 0.1580629641258E+01
 0.1821197830864E+01
 0.2484148910639E+01
 0.3406750184825E+01
 0.1953747582068E+01
 0.2114588949635E+01
 0.2230049792563E+01
 0.2282867507167E+01
 0.2293984418621E+01
 0.2286543824997E+01
 0.2272975180733E+01
 0.2258274657444E+01
 0.2244243301760E+01
 0.2231454735155E+01
 0.2220013296184E+01
 0.2209864119727E+01
 0.2200919499248E+01
 0.2193107236310E+01
 0.2186386341292E+01
 0.2180748249021E+01
 0.2176210424271E+01
 0.2172803520784E+01
 0.2170548222566E+01
 0.2169413709483E+01
 0.2169249866997E+01
 0.2169713053787E+01
 0.2170261927327E+01
 0.2170305304228E+01
 0.2169467922211E+01
 0.2167628302057E+01
 0.2164610756193E+01
 0.2159868719666E+01
 0.2152350898105E+01
 0.2140526729840E+01
 0.2122456314427E+01
 0.2095758550055E+01
 0.2057364825001E+01
 0.2003033726123E+01
 0.1927351847144E+01
 0.1826392018840E+01
 0.1709511026989E+01
 0.1638827677418E+01
 0.1805962733374E+01
 0.2490396651723E+01
 0.3572077113146E+01
 0.2026304646287E+01
 0.2204006440999E+01
 0.2317663146852E+01
 0.2355741552252E+01
 0.2353033633628E+01
 0.2337034896055E+01
 0.2318834112049E+01
 0.2301739241958E+01
 0.2286567610447E+01
 0.2273347444690E+01
 0.2261879046349E+01
 0.2251942476944E+01
 0.2243364035044E+01
 0.2236032535767E+01
 0.2229897944298E+01
 0.2224964002044E+01
 0.2221278558425E+01
 0.2218921247223E+01
 0.2217984027089E+01
 0.2218534246298E+01
 0.2220542599974E+01
 0.2223780325192E+01
 0.2227773262248E+01
 0.2231949104785E+01
 0.2235953289242E+01
 0.2239713047457E+01
 0.2243108747917E+01
 0.2245647274739E+01
 0.2246346056273E+01
 0.2243775832282E+01
 0.2236138452502E+01
 0.2221223422273E+01
 0.2196038327038E+01
 0.2155911945893E+01
 0.2093644947198E+01
 0.2000065505637E+01
 0.1870319272804E+01
 0.1741023968408E+01
 0.1805235019235E+01
 0.2479328474908E+01
 0.3762844041101E+01
 0.2109709905438E+01
 0.2305717587007E+01
 0.2410289309242E+01
 0.2426509888309E+01
 0.2408012411861E+01
 0.2383980821028E+01
 0.2361974823251E+01
 0.2343161580501E+01
 0.2327355594290E+01
 0.2314060967861E+01
 0.2302808418847E+01
 0.2293241959725E+01
 0.2285122869951E+01
 0.2278315635948E+01
 0.2272770945079E+01
 0.2268511086949E+01
 0.2265618090998E+01
 0.2264223049527E+01
 0.2264492329874E+01
 0.2266600486903E+01
 0.2270664066927E+01
 0.2276614323263E+01
 0.2284090610733E+01
 0.2292562297046E+01
 0.2301691857384E+01
 0.2311432716305E+01
 0.2321692577997E+01
 0.2332024630505E+01
 0.2341554774757E+01
 0.2349044969336E+01
 0.2352978134871E+01
 0.2351541554719E+01
 0.2342234475768E+01
 0.2320684032685E+01
 0.2279087751862E+01
 0.2205261207110E+01
 0.2081936370723E+01
 0.1908749799829E+01
 0.1843649898832E+01
 0.2449386614861E+01
 0.3988181032165E+01
 0.2209458708482E+01
 0.2423288154397E+01
 0.2505687343591E+01
 0.2491657489117E+01
 0.2457169455665E+01
 0.2426717470403E+01
 0.2402111521292E+01
 0.2382434886813E+01
 0.2366582753132E+01
 0.2353604327664E+01
 0.2342822584561E+01
 0.2333784742289E+01
 0.2326213471177E+01
 0.2319965911440E+01
 0.2315004092397E+01
 0.2311375010644E+01
 0.2309197784030E+01
 0.2308655563962E+01
 0.2309988634513E+01
 0.2313481414781E+01
 0.2319416192678E+01
 0.2327938045250E+01
 0.2338871871384E+01
 0.2351775313219E+01
 0.2366324596432E+01
 0.2382448667218E+01
 0.2400013819289E+01
 0.2418585939144E+01
 0.2437436576655E+01
 0.2455619801859E+01
 0.2472038230902E+01
 0.2485478350434E+01
 0.2494308648755E+01
 0.2495249431563E+01
 0.2481299325930E+01
 0.2440064717735E+01
 0.2348896779377E+01
 0.2167656905881E+01
 0.1965312128775E+01
 0.2409398079662E+01
 0.4264039846629E+01
 0.2335307633772E+01
 0.2560466328358E+01
 0.2597815862078E+01
 0.2546266862096E+01
 0.2499067317756E+01
 0.2464773927879E+01
 0.2439063107780E+01
 0.2419536889917E+01
 0.2404276448421E+01
 0.2392022413175E+01
 0.2381967614773E+01
 0.2373611068783E+01
 0.2366667121336E+01
 0.2361003984733E+01
 0.2356606027613E+01
 0.2353550746564E+01
 0.2351996240005E+01
 0.2352176356752E+01
 0.2354401089828E+01
 0.2359059038047E+01
 0.2366605028360E+01
 0.2377453410093E+01
 0.2391724001736E+01
 0.2409159146275E+01
 0.2429455350649E+01
 0.2452418320675E+01
 0.2477738121186E+01
 0.2504922762450E+01
 0.2533426675418E+01
 0.2562718804737E+01
 0.2592267616581E+01
 0.2621609995737E+01
 0.2650260607652E+01
 0.2676701243594E+01
 0.2696445867039E+01
 0.2699341926334E+01
 0.2667161703073E+01
 0.2540647939051E+01
 0.2241714362830E+01
 0.2400943299769E+01
 0.4623895481324E+01
 0.2506152220971E+01
 0.2718000188518E+01
 0.2672938416421E+01
 0.2585365841592E+01
 0.2533196303321E+01
 0.2497805757634E+01
 0.2472827491773E+01
 0.2454537306566E+01
 0.2440522330867E+01
 0.2429398841486E+01
 0.2420315515405E+01
 0.2412779874436E+01
 0.2406529234570E+01
 0.2401462026886E+01
 0.2397595664636E+01
 0.2395043316621E+01
 0.2394002868876E+01
 0.2394755599585E+01
 0.2397673565090E+01
 0.2403235779497E+01
 0.2412053924428E+01
 0.2424847649366E+01
 0.2442186825099E+01
 0.2464198633528E+01
 0.2490640694696E+01
 0.2521007606962E+01
 0.2554568679936E+01
 0.2590657549202E+01
 0.2628956039131E+01
 0.2669504724051E+01
 0.2712522757464E+01
 0.2758381841094E+01
 0.2807840471144E+01
 0.2861507309641E+01
 0.2918971342588E+01
 0.2975806977789E+01
 0.3021302266870E+01
 0.3027649595275E+01
 0.2773713493606E+01
 0.2552574472332E+01
 0.5157483403815E+01
 0.2763442584269E+01
 0.2878177760289E+01
 0.2705630559746E+01
 0.2609304346242E+01
 0.2559159544051E+01
 0.2525797873912E+01
 0.2503616108650E+01
 0.2487594172369E+01
 0.2475472867290E+01
 0.2465855244681E+01
 0.2457965012141E+01
 0.2451368639210E+01
 0.2445859358331E+01
 0.2441383770300E+01
 0.2438002350216E+01
 0.2435868154887E+01
 0.2435218571067E+01
 0.2436377448653E+01
 0.2439768102931E+01
 0.2445940613450E+01
 0.2455623804917E+01
 0.2469814042752E+01
 0.2489709347675E+01
 0.2516243322067E+01
 0.2549374534844E+01
 0.2587911038676E+01
 0.2630277949265E+01
 0.2675474707322E+01
 0.2723477019378E+01
 0.2775097900318E+01
 0.2831566727311E+01
 0.2894202084355E+01
 0.2964665279440E+01
 0.3045859464519E+01
 0.3141771100509E+01
 0.3259116056978E+01
 0.3393967682083E+01
 0.3570267324466E+01
 0.3652561761326E+01
 0.3168835793907E+01
 0.6180739937978E+01
 0.3217937358820E+01
 0.2920343220166E+01
 0.2690873642696E+01
 0.2622082531835E+01
 0.2575990132819E+01
 0.2549603497006E+01
 0.2531688195999E+01
 0.2519008697546E+01
 0.2509332737501E+01
 0.2501554333457E+01
 0.2495039822872E+01
 0.2489473025367E+01
 0.2484730678561E+01
 0.2480824262993E+01
 0.2477865762032E+01
 0.2476051259952E+01
 0.2475656070887E+01
 0.2477040925458E+01
 0.2480667002876E+01
 0.2487131905640E+01
 0.2497232756628E+01
 0.2512113205332E+01
 0.2533617017149E+01
 0.2564406299244E+01
 0.2605074923847E+01
 0.2652883879231E+01
 0.2704750308537E+01
 0.2759158860753E+01
 0.2816495083517E+01
 0.2878596644922E+01
 0.2948045796941E+01
 0.3027453492009E+01
 0.3118668411416E+01
 0.3225390907803E+01
 0.3358476893999E+01
 0.3531777787056E+01
 0.3775065943769E+01
 0.4080094375079E+01
 0.4737360217148E+01
 0.4740942457699E+01
 0.9265779836217E+01
 0.5759262093915E-01
 0.6112099012997E-01
 0.6686504890160E-01
 0.7438960738122E-01
 0.8326527391996E-01
 0.9288779455907E-01
 0.1028057672660E+00
 0.1127363160368E+00
 0.1224264479903E+00
 0.1316437550331E+00
 0.1402148433294E+00
 0.1480172339607E+00
 0.1549348491451E+00
 0.1608297977915E+00
 0.1655543257791E+00
 0.1689724127446E+00
 0.1709204117181E+00
 0.1713994628414E+00
 0.1708645819016E+00
 0.1693905992988E+00
 0.6079486356817E-01
 0.6788759425804E-01
 0.7657733367117E-01
 0.8663217633919E-01
 0.9762359886180E-01
 0.1090815539031E+00
 0.1206341618848E+00
 0.1319963593734E+00
 0.1429150208723E+00
 0.1531780661032E+00
 0.1626298253340E+00
 0.1711631290912E+00
 0.1786805388002E+00
 0.1850700391205E+00
 0.1902121040868E+00
 0.1939797959193E+00
 0.1961756164094E+00
 0.1967294099065E+00
 0.1951332385702E+00
 0.1908430821240E+00
 0.6362194539937E-01
 0.7448078947781E-01
 0.8618509530964E-01
 0.9879675648406E-01
 0.1119878275501E+00
 0.1253673274610E+00
 0.1386145689333E+00
 0.1514647064755E+00
 0.1636783593077E+00
 0.1750596736783E+00
 0.1854701304409E+00
 0.1948170477176E+00
 0.2030188802219E+00
 0.2099803473220E+00
 0.2155880505734E+00
 0.2196912734629E+00
 0.2220573544983E+00
 0.2223792055701E+00
 0.2201300323878E+00
 0.2156911873049E+00
 0.6629541221317E-01
 0.8083923388498E-01
 0.9566023278922E-01
 0.1109009238906E+00
 0.1263622568718E+00
 0.1417339327701E+00
 0.1567391849721E+00
 0.1711376746269E+00
 0.1847102411014E+00
 0.1972791628560E+00
 0.2087217178597E+00
 0.2189583583919E+00
 0.2279193474013E+00
 0.2355172404301E+00
 0.2416323134327E+00
 0.2460898353292E+00
 0.2486109948561E+00
 0.2488685974272E+00
 0.2466237689453E+00
 0.2424001745072E+00
 0.6887984695890E-01
 0.8704341919187E-01
 0.1050103116619E+00
 0.1229500009791E+00
 0.1407490065926E+00
 0.1581763331595E+00
 0.1749999261716E+00
 0.1910066326312E+00
 0.2060001748227E+00
 0.2198222216169E+00
 0.2323654456084E+00
 0.2435617826307E+00
 0.2533499245527E+00
 0.2616454252481E+00
 0.2683221125548E+00
 0.2731903974256E+00
 0.2759809098861E+00
 0.2764467295779E+00
 0.2745073904041E+00
 0.2706610789043E+00
 0.7141989886466E-01
 0.9314310445316E-01
 0.1142669037558E+00
 0.1349530678040E+00
 0.1551491429255E+00
 0.1746899637781E+00
 0.1933882575724E+00
 0.2110601882853E+00
 0.2275337076801E+00
 0.2426704342022E+00
 0.2563781446618E+00
 0.2685992610321E+00
 0.2792793726663E+00
 0.2883371696000E+00
 0.2956460568002E+00
 0.3010232528772E+00
 0.3042418647946E+00
 0.3051313097768E+00
 0.3036980263570E+00
 0.3003566243545E+00
 0.7394796328587E-01
 0.9917858460549E-01
 0.1234583726089E+00
 0.1469236189217E+00
 0.1695643751715E+00
 0.1912698588016E+00
 0.2118944832610E+00
 0.2312846423897E+00
 0.2492931623306E+00
 0.2658018124767E+00
 0.2807333705556E+00
 0.2940406200526E+00
 0.3056766185564E+00
 0.3155663929508E+00
 0.3235924182847E+00
 0.3295945990052E+00
 0.3333954570541E+00
 0.3348869022384E+00
 0.3341190410253E+00
 0.3314242029579E+00
 0.7649000249964E-01
 0.1051813978787E+00
 0.1326093188851E+00
 0.1588744736278E+00
 0.1839969501576E+00
 0.2079105593506E+00
 0.2305076097202E+00
 0.2516642177961E+00
 0.2712581412319E+00
 0.2891913470086E+00
 0.3054017974412E+00
 0.3198533641797E+00
 0.3325085486617E+00
 0.3433033489981E+00
 0.3521374281026E+00
 0.3588812112476E+00
 0.3634055418102E+00
 0.3656516403962E+00
 0.3656939973272E+00
 0.3638009316988E+00
 0.7906771876942E-01
 0.1111769124803E+00
 0.1417399786156E+00
 0.1708166651717E+00
 0.1984484775841E+00
 0.2246059841878E+00
 0.2492154108985E+00
 0.2721813100123E+00
 0.2934059233063E+00
 0.3128113879667E+00
 0.3303513134674E+00
 0.3460019585373E+00
 0.3597378922194E+00
 0.3715105064372E+00
 0.3812421614818E+00
 0.3888372043552E+00
 0.3942113241244E+00
 0.3973464767105E+00
 0.3983345689994E+00
 0.3974020050404E+00
 0.8169984867791E-01
 0.1171857166732E+00
 0.1508666555038E+00
 0.1827588948774E+00
 0.2129193748560E+00
 0.2413491164936E+00
 0.2680044558516E+00
 0.2928166593443E+00
 0.3157116968460E+00
 0.3366317952003E+00
 0.3555468464069E+00
 0.3724470438431E+00
 0.3873216412612E+00
 0.4001409681178E+00
 0.4108535419927E+00
 0.4193987598419E+00
 0.4257338729452E+00
 0.4298765720215E+00
 0.4319351389312E+00
 0.4321142749911E+00
 0.8440295952679E-01
 0.1232246845754E+00
 0.1600022474442E+00
 0.1947075358158E+00
 0.2274086442999E+00
 0.2581318934416E+00
 0.2868601744861E+00
 0.3135495493371E+00
 0.3381487807935E+00
 0.3606200597889E+00
 0.3809502404641E+00
 0.3991449730268E+00
 0.4152104615524E+00
 0.4291385891116E+00
 0.4409060833246E+00
 0.4504875237049E+00
 0.4578791993454E+00
 0.4631319499215E+00
 0.4663717142975E+00
 0.4677968455925E+00
 0.8719199206362E-01
 0.1293077592066E+00
 0.1691567884859E+00
 0.2066668231668E+00
 0.2419138707342E+00
 0.2749451979364E+00
 0.3057669411702E+00
 0.3343579639464E+00
 0.3606887898235E+00
 0.3847413939708E+00
 0.4065202131484E+00
 0.4260476865634E+00
 0.4433487729054E+00
 0.4584387315699E+00
 0.4713236414220E+00
 0.4820129602269E+00
 0.4905402053740E+00
 0.4969882501799E+00
 0.5015029450295E+00
 0.5042859006458E+00
 0.9008064811376E-01
 0.1354465729726E+00
 0.1783379684734E+00
 0.2186391612460E+00
 0.2564313732884E+00
 0.2917789733858E+00
 0.3247082243584E+00
 0.3552187784875E+00
 0.3833018329278E+00
 0.4089589020489E+00
 0.4322125047428E+00
 0.4531029435547E+00
 0.4716752807278E+00
 0.4879693463432E+00
 0.5020210995681E+00
 0.5138743376588E+00
 0.5235984383688E+00
 0.5313079113317E+00
 0.5371710417625E+00
 0.5413989733185E+00
 0.9308169261695E-01
 0.1416509688926E+00
 0.1875516386864E+00
 0.2306255034347E+00
 0.2709564711664E+00
 0.3086224412988E+00
 0.3436668082644E+00
 0.3761079999488E+00
 0.4059567656295E+00
 0.4332338443577E+00
 0.4579801933561E+00
 0.4802547888779E+00
 0.5001237454009E+00
 0.5176521684084E+00
 0.5329059832318E+00
 0.5459625869596E+00
 0.5569259761523E+00
 0.5659419531254E+00
 0.5732032090002E+00
 0.5789357023712E+00
 0.9620718352431E-01
 0.1479294361722E+00
 0.1968022763151E+00
 0.2426257441666E+00
 0.2854837907411E+00
 0.3254643595298E+00
 0.3626250395125E+00
 0.3970010221906E+00
 0.4286214654832E+00
 0.4575259553235E+00
 0.4837741066853E+00
 0.5074441444409E+00
 0.5286238536878E+00
 0.5474039386445E+00
 0.5638800293625E+00
 0.5781621608711E+00
 0.5903875842284E+00
 0.6007326503985E+00
 0.6094154585128E+00
 0.6166812191492E+00
 0.9946866701256E-01
 0.1542895093587E+00
 0.2060934476175E+00
 0.2546391530197E+00
 0.3000076440804E+00
 0.3422933610668E+00
 0.3815651519272E+00
 0.4178729581863E+00
 0.4512631933527E+00
 0.4817938660781E+00
 0.5095433575365E+00
 0.5346095267386E+00
 0.5571021894558E+00
 0.5771376772747E+00
 0.5948407807959E+00
 0.6103529741713E+00
 0.6238431442603E+00
 0.6355168980952E+00
 0.6456177064990E+00
 0.6544129301814E+00
 0.1028773404577E+00
 0.1607381305137E+00
 0.2154282530278E+00
 0.2666648161188E+00
 0.3145224333512E+00
 0.3590983253292E+00
 0.4004696231601E+00
 0.4386990038041E+00
 0.4738489908518E+00
 0.5059955716124E+00
 0.5352359289399E+00
 0.5616878065830E+00
 0.5854832229747E+00
 0.6067639460657E+00
 0.6256831578144E+00
 0.6424123513672E+00
 0.6571501565000E+00
 0.6701296280306E+00
 0.6816185950196E+00
 0.6919074782798E+00
 0.1064441944574E+00
 0.1672819921011E+00
 0.2248097667581E+00
 0.2787020910727E+00
 0.3290230832442E+00
 0.3758687837990E+00
 0.4193215662102E+00
 0.4594548357044E+00
 0.4963461120770E+00
 0.5300889319969E+00
 0.5607992883176E+00
 0.5886149836102E+00
 0.6136902911703E+00
 0.6361920747523E+00
 0.6563009743077E+00
 0.6742169060997E+00
 0.6901661200362E+00
 0.7044068816646E+00
 0.7172294998374E+00
 0.7289463652123E+00
 0.1101801477135E+00
 0.1739278757198E+00
 0.2342414840893E+00
 0.2907510844530E+00
 0.3435055076821E+00
 0.3925953658393E+00
 0.4381051624453E+00
 0.4801170498507E+00
 0.5187224938680E+00
 0.5540322077209E+00
 0.5861810264426E+00
 0.6153269692141E+00
 0.6416465631956E+00
 0.6653313455850E+00
 0.6865883811425E+00
 0.7056442997704E+00
 0.7227506895511E+00
 0.7381884576310E+00
 0.7522677834274E+00
 0.7653202965436E+00
 0.1140961704727E+00
 0.1806829822868E+00
 0.2437277654023E+00
 0.3028131332108E+00
 0.3579670858222E+00
 0.4092702555168E+00
 0.4568061041892E+00
 0.5006636061431E+00
 0.5409472270136E+00
 0.5777845881410E+00
 0.6113294774127E+00
 0.6417603329482E+00
 0.6692759463270E+00
 0.6940920892392E+00
 0.7164411819464E+00
 0.7365748094870E+00
 0.7547675366547E+00
 0.7713201344406E+00
 0.7865594990059E+00
 0.8008327150371E+00
 0.1182034102380E+00
 0.1875552709229E+00
 0.2532742952963E+00
 0.3148913077281E+00
 0.3724071637992E+00
 0.4258876748583E+00
 0.4754120613130E+00
 0.5210742920308E+00
 0.5629910388073E+00
 0.6013067203569E+00
 0.6361943238076E+00
 0.6678530137223E+00
 0.6965039305840E+00
 0.7223866864518E+00
 0.7457580101140E+00
 0.7668926927395E+00
 0.7860859085946E+00
 0.8036554629312E+00
 0.8199415933899E+00
 0.8353024581969E+00
 0.1225133211142E+00
 0.1945538074406E+00
 0.2628885547452E+00
 0.3269909300491E+00
 0.3868275715367E+00
 0.4424443795657E+00
 0.4939131553819E+00
 0.5413311866079E+00
 0.5848267666161E+00
 0.6245612166092E+00
 0.6607271639979E+00
 0.6935449721307E+00
 0.7232583481458E+00
 0.7501304516049E+00
 0.7744413462198E+00
 0.7964873357072E+00
 0.8165818890579E+00
 0.8350570732361E+00
 0.8522631958802E+00
 0.8685645688541E+00
 0.1270378014495E+00
 0.2016891280793E+00
 0.2725803108032E+00
 0.3391201092001E+00
 0.4012331535647E+00
 0.4589401635944E+00
 0.5123024357508E+00
 0.5614191178874E+00
 0.6064298136771E+00
 0.6475131301685E+00
 0.6848820306056E+00
 0.7187787722058E+00
 0.7494700354916E+00
 0.7772423870362E+00
 0.8023983679317E+00
 0.8252541894062E+00
 0.8461393800724E+00
 0.8653976089476E+00
 0.8833861160619E+00
 0.9004706755772E+00
 0.1317893459494E+00
 0.2089736260386E+00
 0.2823621307497E+00
 0.3512902983523E+00
 0.4156323158796E+00
 0.4753783721835E+00
 0.5305763552337E+00
 0.5813261092829E+00
 0.6277785818832E+00
 0.6701303935462E+00
 0.7086158532968E+00
 0.7435000853251E+00
 0.7750733909045E+00
 0.8036458015244E+00
 0.8295416299673E+00
 0.8530954987019E+00
 0.8746508494544E+00
 0.8945604173752E+00
 0.9131855194063E+00
 0.9308896071329E+00
 0.1367812180400E+00
 0.2164219671737E+00
 0.2922499264340E+00
 0.3635168771267E+00
 0.4300375890939E+00
 0.4917664209471E+00
 0.5487352409567E+00
 0.6010438094933E+00
 0.6488548749340E+00
 0.6923842121714E+00
 0.7318888592721E+00
 0.7676581101000E+00
 0.8000068217658E+00
 0.8292687887342E+00
 0.8557895726463E+00
 0.8799208326918E+00
 0.9020178601083E+00
 0.9224400687777E+00
 0.9415504841064E+00
 0.9597077989122E+00
 0.1420276433400E+00
 0.2240515360302E+00
 0.3022635281815E+00
 0.3758197546660E+00
 0.4444661994599E+00
 0.5081163092869E+00
 0.5667837463869E+00
 0.6205678904901E+00
 0.6696442562769E+00
 0.7142493987106E+00
 0.7546648981790E+00
 0.7912058968615E+00
 0.8242130720844E+00
 0.8540445576110E+00
 0.8810668537706E+00
 0.9056474145213E+00
 0.9281513870414E+00
 0.9489426296909E+00
 0.9683841044574E+00
 0.9868290254791E+00
 0.1475440386235E+00
 0.2318829313167E+00
 0.3124273091195E+00
 0.3882240141679E+00
 0.4589406666885E+00
 0.5244451452233E+00
 0.5847313000960E+00
 0.6398984279541E+00
 0.6901363755530E+00
 0.7357046619011E+00
 0.7769117061033E+00
 0.8141005922464E+00
 0.8476394458338E+00
 0.8779116289539E+00
 0.9053045145229E+00
 0.9302002572936E+00
 0.9529719171495E+00
 0.9739856647993E+00
 0.9936032123214E+00
 0.1012173603832E+01
 0.1533472754010E+00
 0.2399405076300E+00
 0.3227708547930E+00
 0.4007605880486E+00
 0.4734894117004E+00
 0.5407756598936E+00
 0.6025925261799E+00
 0.6590402372232E+00
 0.7103252365112E+00
 0.7567328247885E+00
 0.7986010872190E+00
 0.8363035869898E+00
 0.8702379131646E+00
 0.9008138869116E+00
 0.9284399659609E+00
 0.9535120840099E+00
 0.9764093007381E+00
 0.9974979693642E+00
 0.1017137784791E+01
 0.1035677094928E+01
 0.1594559849635E+00
 0.2482529771886E+00
 0.3333296924804E+00
 0.4134669766169E+00
 0.4881473839577E+00
 0.5571367187405E+00
 0.6203876416566E+00
 0.6780031692108E+00
 0.7302094114122E+00
 0.7773209800380E+00
 0.8197090254930E+00
 0.8577805851166E+00
 0.8919651226461E+00
 0.9227005103686E+00
 0.9504168174817E+00
 0.9755230417087E+00
 0.9984023459136E+00
 0.1019419025890E+01
 0.1038930082473E+01
 0.1057288398595E+01
 0.1658909230391E+00
 0.2568540930895E+00
 0.3441461050882E+00
 0.4263880328238E+00
 0.5029567262669E+00
 0.5735638427724E+00
 0.6381428402629E+00
 0.6968023721748E+00
 0.7497922056684E+00
 0.7974605866041E+00
 0.8402157343888E+00
 0.8785016082979E+00
 0.9127823388512E+00
 0.9435258055740E+00
 0.9711845645794E+00
 0.9961802174556E+00
 0.1018898139987E+01
 0.1039698084962E+01
 0.1058933346194E+01
 0.1076966775313E+01
 0.1726753802482E+00
 0.2657834029192E+00
 0.3552700157715E+00
 0.4395767912817E+00
 0.5179674457120E+00
 0.5900997009469E+00
 0.6558906181045E+00
 0.7154584706656E+00
 0.7690817225459E+00
 0.8171474605218E+00
 0.8601056056707E+00
 0.8984409094524E+00
 0.9326552939924E+00
 0.9632489400615E+00
 0.9906981405147E+00
 0.1015436958969E+01
 0.1037851101216E+01
 0.1058292816035E+01
 0.1077109556913E+01
 0.1094676688197E+01
 0.1798356738532E+00
 0.2750871225124E+00
 0.3667600027312E+00
 0.4530954032224E+00
 0.5332381496613E+00
 0.6067946293578E+00
 0.6736700929882E+00
 0.7339977080934E+00
 0.7880908695791E+00
 0.8363817003395E+00
 0.8793671029219E+00
 0.9175768531151E+00
 0.9515540271704E+00
 0.9818336652888E+00
 0.1008917422687E+01
 0.1033252086267E+01
 0.1055221854725E+01
 0.1075167788183E+01
 0.1093426940969E+01
 0.1110383197011E+01
 0.1874017049052E+00
 0.2848191178414E+00
 0.3786844344119E+00
 0.4670161594702E+00
 0.5488368177510E+00
 0.6237071404518E+00
 0.6915272740448E+00
 0.7524520029924E+00
 0.8068372518073E+00
 0.8551674931817E+00
 0.8979925557522E+00
 0.9358917400305E+00
 0.9694527206148E+00
 0.9992480709692E+00
 0.1025806759392E+01
 0.1049589060031E+01
 0.1070976018358E+01
 0.1090293057951E+01
 0.1107859123106E+01
 0.1124054106651E+01
 0.1954075861867E+00
 0.2950420218741E+00
 0.3911227598218E+00
 0.4814226289982E+00
 0.5648416281773E+00
 0.6409044293668E+00
 0.7095152784424E+00
 0.7708588994571E+00
 0.8253429171244E+00
 0.8735127560381E+00
 0.9159778086264E+00
 0.9533715446076E+00
 0.9863295354709E+00
 0.1015464421535E+01
 0.1041334603349E+01
 0.1064415199047E+01
 0.1085082934604E+01
 0.1103642837335E+01
 0.1120385261222E+01
 0.1135665109064E+01
 0.2038923736434E+00
 0.3058285456656E+00
 0.4041670181256E+00
 0.4964109863010E+00
 0.5813418979361E+00
 0.6584629431274E+00
 0.7276945484637E+00
 0.7892614524947E+00
 0.8436339761262E+00
 0.8914286245889E+00
 0.9333217334021E+00
 0.9700055856549E+00
 0.1002166510689E+01
 0.1030459214245E+01
 0.1055473476579E+01
 0.1077701185200E+01
 0.1097514514739E+01
 0.1115194031982E+01
 0.1130989763485E+01
 0.1145202120970E+01
 0.2129008642307E+00
 0.3172629337904E+00
 0.4179235697366E+00
 0.5120914510681E+00
 0.5984391038624E+00
 0.6764689412567E+00
 0.7461330038080E+00
 0.8077079426604E+00
 0.8617399715369E+00
 0.9089286506775E+00
 0.9500254627849E+00
 0.9857859862406E+00
 0.1016949409747E+01
 0.1044213464240E+01
 0.1068200430405E+01
 0.1089421134133E+01
 0.1108244288680E+01
 0.1124924465999E+01
 0.1139660932695E+01
 0.1152663441557E+01
 0.2224845149735E+00
 0.3294429073769E+00
 0.4325149944646E+00
 0.5285901045187E+00
 0.6162480330964E+00
 0.6950192894832E+00
 0.7649062510946E+00
 0.8262515175692E+00
 0.8796930534663E+00
 0.9260277405353E+00
 0.9660913554112E+00
 0.1000706915176E+01
 0.1030667453873E+01
 0.1056713200364E+01
 0.1079498357645E+01
 0.1099553798879E+01
 0.1117247177121E+01
 0.1132810433994E+01
 0.1146388678074E+01
 0.1158063060226E+01
 0.2327030031872E+00
 0.3424810308015E+00
 0.4480830250716E+00
 0.5460501251107E+00
 0.6348985305930E+00
 0.7142223320052E+00
 0.7840978356503E+00
 0.8449496283126E+00
 0.8975267451169E+00
 0.9427406839181E+00
 0.9815215214754E+00
 0.1014763363685E+01
 0.1043312757316E+01
 0.1067949721827E+01
 0.1089357880977E+01
 0.1108086294957E+01
 0.1124500877053E+01
 0.1138823660086E+01
 0.1151158992808E+01
 0.1161436397762E+01
 0.2436246071858E+00
 0.3565135656715E+00
 0.4647858330513E+00
 0.5646360745604E+00
 0.6545367258185E+00
 0.7341992574367E+00
 0.8037999498625E+00
 0.8638629464075E+00
 0.9152741407172E+00
 0.9590802659531E+00
 0.9963159587137E+00
 0.1027949206912E+01
 0.1054879023805E+01
 0.1077919945341E+01
 0.1097778097573E+01
 0.1115019546280E+01
 0.1129996783936E+01
 0.1142925931457E+01
 0.1153940259745E+01
 0.1162842704596E+01
 0.2553579156081E+00
 0.3716591324271E+00
 0.4828175280779E+00
 0.5845320575673E+00
 0.6753250166787E+00
 0.7550895694737E+00
 0.8241140875777E+00
 0.8830531988201E+00
 0.9329653587020E+00
 0.9750553916583E+00
 0.1010470588570E+01
 0.1040254783622E+01
 0.1065358526204E+01
 0.1086625943113E+01
 0.1104770690748E+01
 0.1120364552686E+01
 0.1133758068040E+01
 0.1145109662093E+01
 0.1154621787325E+01
 0.1162364874061E+01
 0.2165592903931E+00
 0.3346135113710E+00
 0.3506511668581E+00
 0.3337554897522E+00
 0.2884777730880E+00
 0.2345200556094E+00
 0.1962843761699E+00
 0.1780193662937E+00
 0.1662988704265E+00
 0.1542342635373E+00
 0.1406718982464E+00
 0.1257276682908E+00
 0.1094020747550E+00
 0.9181730042565E-01
 0.7360921157255E-01
 0.5528672622982E-01
 0.3696967028747E-01
 0.2134627489681E-01
 0.9572009147928E-02
 0.4387492520610E-03
 0.1853073565921E+00
 0.3093798499753E+00
 0.3194587361701E+00
 0.3058785576214E+00
 0.2764163226219E+00
 0.2395658925019E+00
 0.2080967690807E+00
 0.1873577525057E+00
 0.1725668724811E+00
 0.1590832970524E+00
 0.1451726406193E+00
 0.1303089698331E+00
 0.1142979338679E+00
 0.9715521088710E-01
 0.7917847992287E-01
 0.6075117464998E-01
 0.4241313863497E-01
 0.2593661717492E-01
 0.1197534455925E-01
 0.1001211284766E-02
 0.1552986695771E+00
 0.2757412689095E+00
 0.2923034659919E+00
 0.2819742582279E+00
 0.2619046267788E+00
 0.2369381818729E+00
 0.2130360761499E+00
 0.1937619304832E+00
 0.1779046132482E+00
 0.1633907996051E+00
 0.1490479570292E+00
 0.1342242950532E+00
 0.1185342418998E+00
 0.1018229109114E+00
 0.8418952289465E-01
 0.6590104324506E-01
 0.4743132456356E-01
 0.2990228474196E-01
 0.1380838800720E-01
 0.1887032672138E-02
 0.1282328641861E+00
 0.2423059442589E+00
 0.2649097765878E+00
 0.2599889143990E+00
 0.2462727631219E+00
 0.2294703442313E+00
 0.2122081036638E+00
 0.1960374840203E+00
 0.1809464908017E+00
 0.1663678861576E+00
 0.1519235074988E+00
 0.1372286773349E+00
 0.1219049284927E+00
 0.1056940556321E+00
 0.8853346073131E-01
 0.7053532197044E-01
 0.5203995329755E-01
 0.3362682967663E-01
 0.1563501659930E-01
 0.2530799063930E-02
 0.1040212265974E+00
 0.2104481976009E+00
 0.2377472790462E+00
 0.2381957651231E+00
 0.2297815630161E+00
 0.2187943316923E+00
 0.2068679306465E+00
 0.1941774756986E+00
 0.1809156140644E+00
 0.1672175748391E+00
 0.1532404214449E+00
 0.1389526867598E+00
 0.1241397624198E+00
 0.1085501808624E+00
 0.9201610358386E-01
 0.7450599943480E-01
 0.5620887114196E-01
 0.3724519812638E-01
 0.1776155441386E-01
 0.2477180876573E-02
 0.8247504982832E-01
 0.1805921994353E+00
 0.2110908941278E+00
 0.2162054392278E+00
 0.2122816491257E+00
 0.2057575857965E+00
 0.1980172335291E+00
 0.1885906631773E+00
 0.1775916714977E+00
 0.1654088855314E+00
 0.1524546154770E+00
 0.1389523142983E+00
 0.1248880741193E+00
 0.1100982129124E+00
 0.9438033396408E-01
 0.7759819562033E-01
 0.5980749350463E-01
 0.4073169884479E-01
 0.2029137961330E-01
 0.1596773757638E-02
 0.6336439464992E-01
 0.1528456265784E+00
 0.1851426117897E+00
 0.1939820846872E+00
 0.1937764080516E+00
 0.1907805694625E+00
 0.1863478732226E+00
 0.1797603420671E+00
 0.1710608848170E+00
 0.1607012603122E+00
 0.1491664142675E+00
 0.1368058560940E+00
 0.1237629557517E+00
 0.1099892820140E+00
 0.9530360452672E-01
 0.7951510716001E-01
 0.6258389656793E-01
 0.4389500596794E-01
 0.2311603753131E-01
 0.1363516830684E-02
 0.4645912311687E-01
 0.1271980109036E+00
 0.1600493106754E+00
 0.1716228167677E+00
 0.1743673786508E+00
 0.1741489358796E+00
 0.1723224013577E+00
 0.1681131321303E+00
 0.1615385504564E+00
 0.1530593661815E+00
 0.1431476013896E+00
 0.1321829466924E+00
 0.1204003283651E+00
 0.1078548539359E+00
 0.9441681989398E-01
 0.7988572827722E-01
 0.6417105825843E-01
 0.4638167847631E-01
 0.2591277662950E-01
 0.3664211826229E-02
 0.3154667773756E-01
 0.1035838963646E+00
 0.1359216384680E+00
 0.1492703085167E+00
 0.1542109486241E+00
 0.1561040537112E+00
 0.1562833179801E+00
 0.1539993398500E+00
 0.1492739798330E+00
 0.1425673070306E+00
 0.1343125990036E+00
 0.1248675331596E+00
 0.1145025259845E+00
 0.1033485105584E+00
 0.9133708275862E-01
 0.7829118521655E-01
 0.6411210183053E-01
 0.4770094332620E-01
 0.2816807455369E-01
 0.6374686227886E-02
 0.1846099345577E-01
 0.8191013700601E-01
 0.1128420861264E+00
 0.1270783550573E+00
 0.1334888879805E+00
 0.1368738071478E+00
 0.1385136104785E+00
 0.1377148583581E+00
 0.1345143808590E+00
 0.1293707162033E+00
 0.1226778240940E+00
 0.1147509267154E+00
 0.1058588002106E+00
 0.9617962745029E-01
 0.8570449091501E-01
 0.7430175372712E-01
 0.6190023624166E-01
 0.4726841610558E-01
 0.2922831322675E-01
 0.8521161907921E-02
 0.7308372968023E-02
 0.6206957629035E-01
 0.9086994443543E-01
 0.1051964610643E+00
 0.1123915300737E+00
 0.1166814521038E+00
 0.1192681052822E+00
 0.1195233781590E+00
 0.1174980927733E+00
 0.1136461562898E+00
 0.1083283882693E+00
 0.1018139402559E+00
 0.9434884986483E-01
 0.8613473434095E-01
 0.7721496261916E-01
 0.6751696024665E-01
 0.5702614395642E-01
 0.4446140220363E-01
 0.2836726073137E-01
 0.9255933877481E-02
 0.5002092468548E-02
 0.4394928669061E-01
 0.7004537915354E-01
 0.8376317649272E-01
 0.9110835987110E-01
 0.9574745757402E-01
 0.9878887262735E-01
 0.9967234098978E-01
 0.9845759889878E-01
 0.9558786592622E-01
 0.9139626843274E-01
 0.8610892941459E-01
 0.7993786788109E-01
 0.7308866231237E-01
 0.6564623271419E-01
 0.5760363638498E-01
 0.4902641851667E-01
 0.3867705809122E-01
 0.2485804827035E-01
 0.7757506451908E-02
 0.1320436934909E-01
 0.2743837519563E-01
 0.5039451067011E-01
 0.6290465424555E-01
 0.6982374165190E-01
 0.7428988745663E-01
 0.7731328900452E-01
 0.7840362829772E-01
 0.7762519033272E-01
 0.7540372384669E-01
 0.7204799761049E-01
 0.6774591575347E-01
 0.6266915922846E-01
 0.5700968596477E-01
 0.5087839450984E-01
 0.4433148665110E-01
 0.3753144239188E-01
 0.2938970056952E-01
 0.1804552128105E-01
 0.3413821507406E-02
 0.2100010704234E-01
 0.1245673983019E-01
 0.3194143932514E-01
 0.4274008260495E-01
 0.4871898463146E-01
 0.5252764904869E-01
 0.5508124171891E-01
 0.5596333628364E-01
 0.5524141098871E-01
 0.5331855632664E-01
 0.5048173072330E-01
 0.4688639174561E-01
 0.4266088098181E-01
 0.3796666254224E-01
 0.3291827234636E-01
 0.2761893272660E-01
 0.2233129790368E-01
 0.1623629902636E-01
 0.7522475156040E-02
 0.5386125283948E-02
 0.2794212319513E-01
 0.2256974639115E-02
 0.1478280947516E-01
 0.2341884274648E-01
 0.2799903114491E-01
 0.3070379033185E-01
 0.3235913988637E-01
 0.3262851150341E-01
 0.3158452813065E-01
 0.2960534287371E-01
 0.2696029841657E-01
 0.2378226784845E-01
 0.2016159975187E-01
 0.1622284883957E-01
 0.1207480119342E-01
 0.7894510713520E-02
 0.4283973444789E-02
 0.3191061347251E-02
 0.8331183956063E-02
 0.1759980950487E-01
 0.3408769682648E-01
 0.1392154579731E-01
 0.3733463220281E-02
 0.5871277477675E-02
 0.8332170515106E-02
 0.9450387599515E-02
 0.9793520429343E-02
 0.9118712272937E-02
 0.7547601992687E-02
 0.5566428473384E-02
 0.3944470607286E-02
 0.4156213800676E-02
 0.6408823890819E-02
 0.9519750260837E-02
 0.1299161941162E-01
 0.1663512639321E-01
 0.2008535366971E-01
 0.2339070288129E-01
 0.2777953858131E-01
 0.3440653951329E-01
 0.3953148087304E-01
 0.2517591579426E-01
 0.1722219878308E-01
 0.1379642823576E-01
 0.1306808922943E-01
 0.1360936921886E-01
 0.1480157432555E-01
 0.1681627045035E-01
 0.1956824621124E-01
 0.2273721874791E-01
 0.2607578749741E-01
 0.2946014047677E-01
 0.3284208633386E-01
 0.3618550420155E-01
 0.3951497938545E-01
 0.4287441497262E-01
 0.4610631578880E-01
 0.4902729162266E-01
 0.5209511288872E-01
 0.5590140902870E-01
 0.4437500262825E-01
 0.3544247198197E-01
 0.3110985123560E-01
 0.3029561892350E-01
 0.3178844597132E-01
 0.3443861310238E-01
 0.3761636213595E-01
 0.4138323756352E-01
 0.4561453382985E-01
 0.4999961577485E-01
 0.5429673835246E-01
 0.5837210449706E-01
 0.6216534390681E-01
 0.6563701463774E-01
 0.6882994046941E-01
 0.7189026032638E-01
 0.7491563763102E-01
 0.7791785080037E-01
 0.8078469172518E-01
 0.8218306562981E-01
 0.4872525565621E-01
 0.4482917760705E-01
 0.4402085511439E-01
 0.4600802671899E-01
 0.4996643701652E-01
 0.5495332306877E-01
 0.6035606992044E-01
 0.6613006415671E-01
 0.7211648473801E-01
 0.7802462119401E-01
 0.8362555931208E-01
 0.8877387553261E-01
 0.9337969104471E-01
 0.9735976044079E-01
 0.1006928762110E+00
 0.1035007176952E+00
 0.1060740373182E+00
 0.1086558656865E+00
 0.1122020204734E+00
 0.1133794879043E+00
 0.5282484706516E-01
 0.5332615008120E-01
 0.5585996181767E-01
 0.6072895422706E-01
 0.6728022732986E-01
 0.7476965123945E-01
 0.8261625495041E-01
 0.9065213794370E-01
 0.9866606225963E-01
 0.1063913559213E+00
 0.1136265413670E+00
 0.1202327611175E+00
 0.1260981177103E+00
 0.1310917464905E+00
 0.1350929691164E+00
 0.1380485592106E+00
 0.1400849315037E+00
 0.1413996516394E+00
 0.1431764207253E+00
 0.1470216968843E+00
 0.2715974067151E+00
 0.3940229625574E+00
 0.5107500382517E+00
 0.6163286841202E+00
 0.7093314536186E+00
 0.7897566153648E+00
 0.8581058402255E+00
 0.9153121800724E+00
 0.9627548137314E+00
 0.1001928497780E+01
 0.1034193121533E+01
 0.1060738320382E+01
 0.1082614264245E+01
 0.1100728564088E+01
 0.1115825314069E+01
 0.1128499246455E+01
 0.1139230045499E+01
 0.1148117905049E+01
 0.1155441059023E+01
 0.1162105108141E+01
 0.2902315704666E+00
 0.4232738394372E+00
 0.5479396125506E+00
 0.6590704809650E+00
 0.7550826758755E+00
 0.8362137909409E+00
 0.9033115518956E+00
 0.9577031196356E+00
 0.1001266713193E+01
 0.1035955024406E+01
 0.1063461861889E+01
 0.1085203164265E+01
 0.1102379345287E+01
 0.1115995055725E+01
 0.1126856862164E+01
 0.1135628478842E+01
 0.1142936226557E+01
 0.1148790795618E+01
 0.1153548753451E+01
 0.1158029078158E+01
 0.3101822510684E+00
 0.4553346308871E+00
 0.5883046323669E+00
 0.7043764552207E+00
 0.8023030495204E+00
 0.8827769873063E+00
 0.9471380269746E+00
 0.9971969801010E+00
 0.1035460453319E+01
 0.1064423608393E+01
 0.1086134024595E+01
 0.1102228939013E+01
 0.1114059661698E+01
 0.1122727197369E+01
 0.1129100427433E+01
 0.1133906270050E+01
 0.1137834962513E+01
 0.1140622705629E+01
 0.1142678841365E+01
 0.1145074803530E+01
 0.3320432185762E+00
 0.4904851301447E+00
 0.6319837125036E+00
 0.7522537841191E+00
 0.8507354905820E+00
 0.9288894930150E+00
 0.9887511854247E+00
 0.1032793288065E+01
 0.1064290341496E+01
 0.1086331820252E+01
 0.1101313084461E+01
 0.1111069949590E+01
 0.1117079921896E+01
 0.1120506863790E+01
 0.1122241426680E+01
 0.1123014153976E+01
 0.1123467959145E+01
 0.1122980246403E+01
 0.1122326380551E+01
 0.1123444490145E+01
 0.3562152618617E+00
 0.5292772764504E+00
 0.6792278786625E+00
 0.8026378983359E+00
 0.8999728578523E+00
 0.9738108053290E+00
 0.1027162588030E+01
 0.1063390762649E+01
 0.1086675273123E+01
 0.1100710630594E+01
 0.1108193724832E+01
 0.1111104594801E+01
 0.1110992586143E+01
 0.1109022643531E+01
 0.1106044664092E+01
 0.1102728522964E+01
 0.1099590766650E+01
 0.1095710558193E+01
 0.1092611512755E+01
 0.1093409002539E+01
 0.3831423994867E+00
 0.5722861014612E+00
 0.7303246487573E+00
 0.8553858672866E+00
 0.9494436529746E+00
 0.1016613272112E+01
 0.1061226965049E+01
 0.1087802859326E+01
 0.1101532063699E+01
 0.1106662693767E+01
 0.1106096142007E+01
 0.1101866974562E+01
 0.1095515530556E+01
 0.1088129353433E+01
 0.1080452895543E+01
 0.1073046987309E+01
 0.1066266586037E+01
 0.1059017009275E+01
 0.1053871754353E+01
 0.1055260474966E+01
 0.4133358066552E+00
 0.6201465704546E+00
 0.7855353379627E+00
 0.9102371327761E+00
 0.9983856385514E+00
 0.1056167096880E+01
 0.1089650589507E+01
 0.1104788857189E+01
 0.1107821420886E+01
 0.1103412430983E+01
 0.1094513323303E+01
 0.1083090535401E+01
 0.1070575898201E+01
 0.1057895997406E+01
 0.1045633611930E+01
 0.1034211943285E+01
 0.1023815575350E+01
 0.1013314499037E+01
 0.1006547240630E+01
 0.1009322757486E+01
 0.4473993296484E+00
 0.6735602541804E+00
 0.8450694061949E+00
 0.9667637192636E+00
 0.1045806044125E+01
 0.1091125751953E+01
 0.1111010778546E+01
 0.1113102483350E+01
 0.1104609761883E+01
 0.1090367025919E+01
 0.1073163349904E+01
 0.1054749587686E+01
 0.1036341679609E+01
 0.1018626746357E+01
 0.1001983435564E+01
 0.9866850128866E+00
 0.9727500721656E+00
 0.9591530763796E+00
 0.9511464726768E+00
 0.9559619292528E+00
 0.4860542562510E+00
 0.7333044276583E+00
 0.9090502272005E+00
 0.1024313365689E+01
 0.1090433846446E+01
 0.1119916929827E+01
 0.1123794277883E+01
 0.1111562480952E+01
 0.1091147070719E+01
 0.1067183470230E+01
 0.1042037630257E+01
 0.1017088022854E+01
 0.9932333311619E+00
 0.9708571449576E+00
 0.9501078913438E+00
 0.9311090387549E+00
 0.9137246399452E+00
 0.8971773251283E+00
 0.8882351567975E+00
 0.8955870904391E+00
 0.5301704128768E+00
 0.8002389363656E+00
 0.9774668495472E+00
 0.1081934588154E+01
 0.1130666680941E+01
 0.1140748299113E+01
 0.1126464638174E+01
 0.1099149979219E+01
 0.1066957785068E+01
 0.1033832874702E+01
 0.1001434492204E+01
 0.9706272278727E+00
 0.9419135380289E+00
 0.9153314755714E+00
 0.8907898019130E+00
 0.8682710917004E+00
 0.8475005138237E+00
 0.8281048187214E+00
 0.8184328206373E+00
 0.8286492118633E+00
 0.5808077470017E+00
 0.8753100515124E+00
 0.1050100084598E+01
 0.1138275109498E+01
 0.1164515513501E+01
 0.1151642687128E+01
 0.1117572016090E+01
 0.1075134713765E+01
 0.1031935351888E+01
 0.9906477742038E+00
 0.9519662574905E+00
 0.9161480578838E+00
 0.8832571564708E+00
 0.8529683981652E+00
 0.8249547923319E+00
 0.7990715300937E+00
 0.7749228348294E+00
 0.7527177935604E+00
 0.7424175986735E+00
 0.7556456462004E+00
 0.6392746219121E+00
 0.9595467663660E+00
 0.1126404799218E+01
 0.1191441948352E+01
 0.1189557544355E+01
 0.1150526927450E+01
 0.1095920422450E+01
 0.1039223413837E+01
 0.9864197202627E+00
 0.9383321540613E+00
 0.8945296506007E+00
 0.8546476847427E+00
 0.8183084624022E+00
 0.7848230774700E+00
 0.7536398970667E+00
 0.7245016499846E+00
 0.6969104088261E+00
 0.6718686382411E+00
 0.6609441383670E+00
 0.6771378865506E+00
 0.7072128102760E+00
 0.1054038762634E+01
 0.1205315360290E+01
 0.1238809253579E+01
 0.1202923782092E+01
 0.1135413730537E+01
 0.1060801822067E+01
 0.9917031689321E+00
 0.9312208004081E+00
 0.8779128074171E+00
 0.8302392602873E+00
 0.7872829326917E+00
 0.7482378046537E+00
 0.7120531136933E+00
 0.6779679337891E+00
 0.6456302626940E+00
 0.6144588373894E+00
 0.5865029751949E+00
 0.5748816156880E+00
 0.5937913673168E+00
 0.7867263132118E+00
 0.1159869632316E+01
 0.1284911472318E+01
 0.1276762282939E+01
 0.1201383282096E+01
 0.1104733410196E+01
 0.1012279574128E+01
 0.9335128604004E+00
 0.8675385117987E+00
 0.8106263001445E+00
 0.7603466082672E+00
 0.7153230368866E+00
 0.6743088696122E+00
 0.6358895001538E+00
 0.5991249428382E+00
 0.5635974586075E+00
 0.5286591052795E+00
 0.4977067920508E+00
 0.4852810497711E+00
 0.5064488188779E+00
 0.8805850613383E+00
 0.1277938489196E+01
 0.1361819338742E+01
 0.1300390912656E+01
 0.1181661098186E+01
 0.1057876128216E+01
 0.9514215561898E+00
 0.8661234303764E+00
 0.7967479709451E+00
 0.7377873532280E+00
 0.6861934173226E+00
 0.6401324420163E+00
 0.5978547795566E+00
 0.5576031383543E+00
 0.5183333707743E+00
 0.4796138096366E+00
 0.4407360123338E+00
 0.4067873306910E+00
 0.3934843720112E+00
 0.4162530761091E+00
 0.9925610155357E+00
 0.1408482862917E+01
 0.1430095971656E+01
 0.1303246530738E+01
 0.1141286519549E+01
 0.9959099543134E+00
 0.8802136075713E+00
 0.7910844224340E+00
 0.7201468403402E+00
 0.6607479097234E+00
 0.6092413293703E+00
 0.5631750144557E+00
 0.5202391949404E+00
 0.4784503823222E+00
 0.4368155934986E+00
 0.3949656347176E+00
 0.3521129045072E+00
 0.3154000879125E+00
 0.3012926458839E+00
 0.3248432649607E+00
 0.1128023549100E+01
 0.1549755463761E+01
 0.1479030579145E+01
 0.1277736011296E+01
 0.1080444946537E+01
 0.9220771060024E+00
 0.8005482738728E+00
 0.7094636390170E+00
 0.6389198942713E+00
 0.5810389668889E+00
 0.5311560049643E+00
 0.4859819302765E+00
 0.4427673505037E+00
 0.3995924717741E+00
 0.3557506868549E+00
 0.3110285961140E+00
 0.2645032599904E+00
 0.2257347611222E+00
 0.2112203497516E+00
 0.2346663932231E+00
 0.1294899969113E+01
 0.1693623077387E+01
 0.1489165739431E+01
 0.1217868266519E+01
 0.1005655428751E+01
 0.8397057746237E+00
 0.7128575771932E+00
 0.6217795421544E+00
 0.5545159397391E+00
 0.5006633122378E+00
 0.4538062416998E+00
 0.4100010894405E+00
 0.3665478266091E+00
 0.3220087913291E+00
 0.2762400521358E+00
 0.2292727784153E+00
 0.1800158995547E+00
 0.1407578693618E+00
 0.1268750398369E+00
 0.1494992681859E+00
 0.1506246639456E+01
 0.1810918732013E+01
 0.1423133411278E+01
 0.1136778544203E+01
 0.9258230459728E+00
 0.7487588420943E+00
 0.6158247126666E+00
 0.5287240837562E+00
 0.4695038663622E+00
 0.4222144268824E+00
 0.3789620824651E+00
 0.3363348250512E+00
 0.2923821076294E+00
 0.2464659650905E+00
 0.1992253949922E+00
 0.1512714296020E+00
 0.1012001296373E+00
 0.6442932589055E-01
 0.5349145616399E-01
 0.7539625512522E-01
 0.1761167874601E+01
 0.1726799853893E+01
 0.1298626989521E+01
 0.1060634397223E+01
 0.8430883837938E+00
 0.6454133630572E+00
 0.5066192407115E+00
 0.4336101127342E+00
 0.3881661979489E+00
 0.3482032509338E+00
 0.3077206528913E+00
 0.2655424098248E+00
 0.2208256574672E+00
 0.1735718124057E+00
 0.1253738110385E+00
 0.7821357351800E-01
 0.3168147597258E-01
 0.1990798362928E-02
 0.3582743576494E-02
 0.2199029611334E-01
 0.1548229027805E+00
 0.1207493935261E+00
 0.9237604573882E-01
 0.6810165956273E-01
 0.4782264862152E-01
 0.3184436252845E-01
 0.2021413928571E-01
 0.1272575834209E-01
 0.8932706227303E-02
 0.8189811515737E-02
 0.9662556318276E-02
 0.1238900162632E-01
 0.1541197391831E-01
 0.1788727137369E-01
 0.1918654894665E-01
 0.1898514514730E-01
 0.1730511770006E-01
 0.1449891316268E-01
 0.1119522387289E-01
 0.8187681565254E-02
 0.1773931687636E+00
 0.1461373610347E+00
 0.1150249661753E+00
 0.8811256354531E-01
 0.6567154710284E-01
 0.4779208684703E-01
 0.3452815822106E-01
 0.2574914829643E-01
 0.2108978311430E-01
 0.1993453689139E-01
 0.2142900348143E-01
 0.2453858830755E-01
 0.2815513543222E-01
 0.3122667488450E-01
 0.3290064859970E-01
 0.3265953915175E-01
 0.3040878429957E-01
 0.2648119396077E-01
 0.2154748749549E-01
 0.1657140969423E-01
 0.2007816289569E+00
 0.1702884356229E+00
 0.1392126966112E+00
 0.1105038204162E+00
 0.8584161999856E-01
 0.6574507443434E-01
 0.5042867888148E-01
 0.3989565686626E-01
 0.3390225318542E-01
 0.3192243542418E-01
 0.3313766088583E-01
 0.3647328354792E-01
 0.4068946962782E-01
 0.4451840264816E-01
 0.4683932053804E-01
 0.4686830266901E-01
 0.4431158979937E-01
 0.3941533261936E-01
 0.3287865552385E-01
 0.2565868186146E-01
 0.2260945907004E+00
 0.1955628386416E+00
 0.1644684710414E+00
 0.1348161395600E+00
 0.1082928018892E+00
 0.8592357928021E-01
 0.6824785000750E-01
 0.5550538013999E-01
 0.4765262897734E-01
 0.4432956044982E-01
 0.4482981005011E-01
 0.4810675843327E-01
 0.5283702273716E-01
 0.5754824384334E-01
 0.6081252691457E-01
 0.6149059838167E-01
 0.5897190310333E-01
 0.5331591036526E-01
 0.4519976362052E-01
 0.3562632864394E-01
 0.2533344878902E+00
 0.2226394775718E+00
 0.1914740354296E+00
 0.1611498464785E+00
 0.1331463873987E+00
 0.1086328552165E+00
 0.8843911628021E-01
 0.7308770175602E-01
 0.6280440474746E-01
 0.5748127666385E-01
 0.5662615373133E-01
 0.5933136181732E-01
 0.6429247170739E-01
 0.6989990674522E-01
 0.7442125520916E-01
 0.7628015631043E-01
 0.7439331625572E-01
 0.6845419802849E-01
 0.5900241970399E-01
 0.4716846768419E-01
 0.2824827605212E+00
 0.2517645272914E+00
 0.2206062570395E+00
 0.1898428366965E+00
 0.1606749930694E+00
 0.1342548672710E+00
 0.1115592151478E+00
 0.9334951063579E-01
 0.8013483975405E-01
 0.7211592983144E-01
 0.6911080324171E-01
 0.7048237749183E-01
 0.7509808593510E-01
 0.8135496007842E-01
 0.8730558382504E-01
 0.9092129042890E-01
 0.9049793734778E-01
 0.8511713647899E-01
 0.7495299356884E-01
 0.6119582998573E-01
 0.3135019676766E+00
 0.2830571671594E+00
 0.2521236310805E+00
 0.2212076331864E+00
 0.1912338094572E+00
 0.1632371322758E+00
 0.1382244575157E+00
 0.1171025389085E+00
 0.1006181635945E+00
 0.8928455421438E-01
 0.8328777770910E-01
 0.8237885389290E-01
 0.8577162166057E-01
 0.9207954073589E-01
 0.9933663121271E-01
 0.1051661165058E+00
 0.1071669698171E+00
 0.1035185737060E+00
 0.9361989787813E-01
 0.7838228293310E-01
 0.3463205549964E+00
 0.3165421812669E+00
 0.2861731787145E+00
 0.2554898427449E+00
 0.2251627385716E+00
 0.1960544088006E+00
 0.1691043736044E+00
 0.1452594389949E+00
 0.1254134937659E+00
 0.1103353271194E+00
 0.1005727420669E+00
 0.9632904098268E-01
 0.9731732505062E-01
 0.1026125936863E+00
 0.1105401401583E+00
 0.1186682698724E+00
 0.1240250269759E+00
 0.1236816336525E+00
 0.1156862465019E+00
 0.9996992874334E-01
 0.3808303401949E+00
 0.3521676749924E+00
 0.3227959169004E+00
 0.2928266042771E+00
 0.2627082408729E+00
 0.2331055044616E+00
 0.2048193373549E+00
 0.1787357068952E+00
 0.1557819172663E+00
 0.1368731431431E+00
 0.1228360479412E+00
 0.1142988973395E+00
 0.1115405497808E+00
 0.1142977805342E+00
 0.1215446608700E+00
 0.1312838479472E+00
 0.1404505701157E+00
 0.1451662386351E+00
 0.1416525731031E+00
 0.1277274880521E+00
 0.4168876656025E+00
 0.3898206142297E+00
 0.3619390897189E+00
 0.3332383475369E+00
 0.3039835257832E+00
 0.2746420975870E+00
 0.2458358485236E+00
 0.2183114731961E+00
 0.1929186669601E+00
 0.1705836942602E+00
 0.1522667643509E+00
 0.1388909239306E+00
 0.1312281520298E+00
 0.1297262306466E+00
 0.1342606860357E+00
 0.1438033155821E+00
 0.1560249164822E+00
 0.1669573232503E+00
 0.1712202409424E+00
 0.1635358669293E+00
 0.4543162142507E+00
 0.4293345715134E+00
 0.4034626210579E+00
 0.3766233077084E+00
 0.3489424625317E+00
 0.3207134865533E+00
 0.2923722992798E+00
 0.2644848747888E+00
 0.2377430317651E+00
 0.2129618130691E+00
 0.1910707283155E+00
 0.1730894031424E+00
 0.1600746630213E+00
 0.1530197478757E+00
 0.1526765862686E+00
 0.1592578822828E+00
 0.1719561336914E+00
 0.1881938568741E+00
 0.2026464863472E+00
 0.2072631488114E+00
 0.4929040464429E+00
 0.4704817431424E+00
 0.4471336963713E+00
 0.4227515749533E+00
 0.3973677518492E+00
 0.3711407822972E+00
 0.3443442046865E+00
 0.3173635750542E+00
 0.2907015183176E+00
 0.2649884874247E+00
 0.2409959092554E+00
 0.2196472520628E+00
 0.2020202874178E+00
 0.1893291642109E+00
 0.1828655480465E+00
 0.1838599020462E+00
 0.1931848594499E+00
 0.2107389693994E+00
 0.2340703924355E+00
 0.2555945482919E+00
 0.5324002119760E+00
 0.5129546269001E+00
 0.4925976244308E+00
 0.4712221866584E+00
 0.4488113992981E+00
 0.4254368440034E+00
 0.4012551313299E+00
 0.3765088473200E+00
 0.3515338074469E+00
 0.3267728571476E+00
 0.3027959135808E+00
 0.2803257461571E+00
 0.2602686657882E+00
 0.2437482849722E+00
 0.2321378420803E+00
 0.2270796048456E+00
 0.2304633688931E+00
 0.2442809990856E+00
 0.2701381775522E+00
 0.3068457527364E+00
 0.5725282330761E+00
 0.5563894150271E+00
 0.5394037537265E+00
 0.5214867281234E+00
 0.5026089976379E+00
 0.4828016051905E+00
 0.4621572724830E+00
 0.4408334412764E+00
 0.4190596388818E+00
 0.3971505391259E+00
 0.3755258963667E+00
 0.3547389505944E+00
 0.3355158566376E+00
 0.3188103695332E+00
 0.3058809255184E+00
 0.2984028636410E+00
 0.2986392689161E+00
 0.3097248165800E+00
 0.3361749035464E+00
 0.3853339132732E+00
 0.6129986403276E+00
 0.6003968250579E+00
 0.5870521913889E+00
 0.5729127830037E+00
 0.5579605126197E+00
 0.5422192289803E+00
 0.5257590825271E+00
 0.5087013912090E+00
 0.4912264366272E+00
 0.4735858779182E+00
 0.4561214574367E+00
 0.4392922560152E+00
 0.4237140232850E+00
 0.4102164461364E+00
 0.3999286071577E+00
 0.3944114857858E+00
 0.3958754645605E+00
 0.4075650624594E+00
 0.4345319709115E+00
 0.4855826849243E+00
 0.6535185992981E+00
 0.6445839137917E+00
 0.6350326167174E+00
 0.6248464794017E+00
 0.6140282697884E+00
 0.6026102305617E+00
 0.5906597185227E+00
 0.5782847581474E+00
 0.5656413689248E+00
 0.5529440842422E+00
 0.5404810499090E+00
 0.5286354321407E+00
 0.5179156146621E+00
 0.5089979852204E+00
 0.5027883386855E+00
 0.5005117581792E+00
 0.5038471517855E+00
 0.5151318965618E+00
 0.5376680565930E+00
 0.5757964450034E+00
 0.6938000676629E+00
 0.6885689564700E+00
 0.6828517591590E+00
 0.6766596782836E+00
 0.6700161116015E+00
 0.6629642306806E+00
 0.6555723544740E+00
 0.6479387693084E+00
 0.6401971761532E+00
 0.6325236229367E+00
 0.6251456141825E+00
 0.6183540304031E+00
 0.6125184565389E+00
 0.6081063639996E+00
 0.6057059714720E+00
 0.6060505763686E+00
 0.6100358569971E+00
 0.6187031725744E+00
 0.6330869487543E+00
 0.6537416013925E+00
 0.7335657934976E+00
 0.7319895263969E+00
 0.7300459083347E+00
 0.7277682931119E+00
 0.7251947407982E+00
 0.7223741174296E+00
 0.7193702107967E+00
 0.7162647681178E+00
 0.7131600469670E+00
 0.7101811766374E+00
 0.7074783305632E+00
 0.7052283516139E+00
 0.7036349232886E+00
 0.7029253968947E+00
 0.7033404885073E+00
 0.7051092595583E+00
 0.7083943130172E+00
 0.7131767126058E+00
 0.7190404060209E+00
 0.7248850463759E+00
 0.7725542655341E+00
 0.7745083147382E+00
 0.7761884646644E+00
 0.7776416288788E+00
 0.7789117639258E+00
 0.7800444062529E+00
 0.7810891572073E+00
 0.7821005189418E+00
 0.7831373011995E+00
 0.7842605303635E+00
 0.7855294478696E+00
 0.7869947577837E+00
 0.7886876864605E+00
 0.7906025286991E+00
 0.7926690218150E+00
 0.7947090681750E+00
 0.7963704212671E+00
 0.7970321837524E+00
 0.7956931089470E+00
 0.7908382912714E+00
 0.8105237638128E+00
 0.8158174890574E+00
 0.8208949993930E+00
 0.8258080359292E+00
 0.8305967852142E+00
 0.8352933729176E+00
 0.8399228586893E+00
 0.8445020576925E+00
 0.8490363195464E+00
 0.8535140812395E+00
 0.8578987217540E+00
 0.8621169441941E+00
 0.8660425936168E+00
 0.8694745281390E+00
 0.8721070764797E+00
 0.8734922250597E+00
 0.8729953425905E+00
 0.8697530161257E+00
 0.8626491993226E+00
 0.8503495297558E+00
 0.8472541401281E+00
 0.8556397296126E+00
 0.8638241104232E+00
 0.8718550693835E+00
 0.8797595570957E+00
 0.8875468366676E+00
 0.8952083758595E+00
 0.9027153015288E+00
 0.9100136036789E+00
 0.9170170088938E+00
 0.9235972589006E+00
 0.9295714263796E+00
 0.9346859117621E+00
 0.9385970024152E+00
 0.9408485552840E+00
 0.9408488583703E+00
 0.9378513573923E+00
 0.9309470609614E+00
 0.9190806114440E+00
 0.9011168710934E+00
 0.8825456547894E+00
 0.8937263288727E+00
 0.9046744285079E+00
 0.9154246456692E+00
 0.9259822694535E+00
 0.9363257927483E+00
 0.9464062940674E+00
 0.9561444190654E+00
 0.9654253039602E+00
 0.9740915688198E+00
 0.9819344438436E+00
 0.9886831386627E+00
 0.9939927553751E+00
 0.9974314398781E+00
 0.9984681255066E+00
 0.9964630992755E+00
 0.9906643006706E+00
 0.9802119185917E+00
 0.9641513386731E+00
 0.9414280570272E+00
 0.9162240859975E+00
 0.9298646296890E+00
 0.9431921245268E+00
 0.9562203209865E+00
 0.9689258571148E+00
 0.9812504561117E+00
 0.9931004525450E+00
 0.1004344282791E+01
 0.1014808380925E+01
 0.1024271839889E+01
 0.1032460213966E+01
 0.1039038939578E+01
 0.1043607030765E+01
 0.1045691939834E+01
 0.1044746670706E+01
 0.1040150165856E+01
 0.1031211260409E+01
 0.1017174616982E+01
 0.9972214283882E+00
 0.9704562976657E+00
 0.9481394780458E+00
 0.9638759851328E+00
 0.9791683549878E+00
 0.9940036254995E+00
 0.1008324469610E+01
 0.1022031681709E+01
 0.1034984659580E+01
 0.1047000329689E+01
 0.1057851029326E+01
 0.1067261904422E+01
 0.1074908434936E+01
 0.1080414768820E+01
 0.1083353605106E+01
 0.1083248347145E+01
 0.1079578023564E+01
 0.1071784881697E+01
 0.1059283519727E+01
 0.1041468973114E+01
 0.1017721827631E+01
 0.9874167476867E+00
 0.9781650066905E+00
 0.9956128253215E+00
 0.1012435158687E+01
 0.1028588467463E+01
 0.1043977655811E+01
 0.1058459948543E+01
 0.1071847281764E+01
 0.1083907452976E+01
 0.1094364644217E+01
 0.1102900053956E+01
 0.1109153407232E+01
 0.1112726105357E+01
 0.1113186711965E+01
 0.1110079297560E+01
 0.1102934810169E+01
 0.1091285071560E+01
 0.1074678270104E+01
 0.1052694595543E+01
 0.1024962108918E+01
 0.9911735440338E+00
 0.1006195613339E+01
 0.1024955730617E+01
 0.1042861180401E+01
 0.1059835364036E+01
 0.1075742544150E+01
 0.1090394760329E+01
 0.1103557140611E+01
 0.1114951835952E+01
 0.1124261410223E+01
 0.1131132618874E+01
 0.1135181453428E+01
 0.1136000223890E+01
 0.1133167314895E+01
 0.1126260079625E+01
 0.1114871145139E+01
 0.1098628240566E+01
 0.1077217602566E+01
 0.1050410711144E+01
 0.1018092305576E+01
 0.9802840022078E+00
 0.1032145902407E+01
 0.1051810145744E+01
 0.1070347479572E+01
 0.1087646031405E+01
 0.1103526631436E+01
 0.1117755037616E+01
 0.1130051086119E+01
 0.1140095607064E+01
 0.1147536428722E+01
 0.1151994661066E+01
 0.1153072207013E+01
 0.1150361227437E+01
 0.1143456115504E+01
 0.1131968458056E+01
 0.1115545561741E+01
 0.1093893541158E+01
 0.1066806771560E+01
 0.1034206346901E+01
 0.9961881844078E+00
 0.9530728740110E+00
 0.1055947315577E+01
 0.1076102998220E+01
 0.1094823845756E+01
 0.1111958751825E+01
 0.1127281463024E+01
 0.1140510601354E+01
 0.1151323110612E+01
 0.1159363824433E+01
 0.1164253335329E+01
 0.1165595659325E+01
 0.1162986659073E+01
 0.1156023806934E+01
 0.1144317638237E+01
 0.1127505204964E+01
 0.1105266098336E+01
 0.1077342350547E+01
 0.1043565160281E+01
 0.1003894843753E+01
 0.9584887355166E+00
 0.9078144546599E+00
 0.1077544856377E+01
 0.1097780029529E+01
 0.1116246362967E+01
 0.1132744921214E+01
 0.1146997307281E+01
 0.1158674628585E+01
 0.1167414692653E+01
 0.1172833262132E+01
 0.1174532578322E+01
 0.1172108935757E+01
 0.1165160183811E+01
 0.1153293427562E+01
 0.1136132814175E+01
 0.1113327095850E+01
 0.1084556662975E+01
 0.1049540034610E+01
 0.1008040673841E+01
 0.9598781576509E+00
 0.9049600443088E+00
 0.8434111966121E+00
 0.1096894350803E+01
 0.1116805636674E+01
 0.1134596986022E+01
 0.1150006489240E+01
 0.1162697769096E+01
 0.1172295444479E+01
 0.1178404314364E+01
 0.1180620680197E+01
 0.1178539959473E+01
 0.1171762573198E+01
 0.1159898751730E+01
 0.1142572019664E+01
 0.1119420474407E+01
 0.1090094401283E+01
 0.1054248070790E+01
 0.1011522356996E+01
 0.9615125413951E+00
 0.9037103757718E+00
 0.8373972666361E+00
 0.7614574636774E+00
 0.1113962678724E+01
 0.1133166437486E+01
 0.1149883472315E+01
 0.1163770680089E+01
 0.1174429186050E+01
 0.1181441427588E+01
 0.1184389483544E+01
 0.1182864251249E+01
 0.1176470435488E+01
 0.1164829378319E+01
 0.1147579985303E+01
 0.1124376831542E+01
 0.1094883618099E+01
 0.1058759180845E+01
 0.1015631793466E+01
 0.9650548068214E+00
 0.9064305651060E+00
 0.8388756224524E+00
 0.7609561095083E+00
 0.6700229237607E+00
 0.1128727244437E+01
 0.1146866472114E+01
 0.1162128042724E+01
 0.1174073131031E+01
 0.1182240651457E+01
 0.1186181519351E+01
 0.1185472139590E+01
 0.1179718704431E+01
 0.1168557873693E+01
 0.1151655678845E+01
 0.1128704285216E+01
 0.1099414898743E+01
 0.1063504103310E+01
 0.1020669857802E+01
 0.9705518614184E+00
 0.9126683804314E+00
 0.8463173085258E+00
 0.7704185899232E+00
 0.6832656575751E+00
 0.5821227713458E+00
 0.1141173566545E+01
 0.1157915581187E+01
 0.1171353763740E+01
 0.1180945075170E+01
 0.1186175160759E+01
 0.1186583303847E+01
 0.1181765704179E+01
 0.1171371608686E+01
 0.1155098143911E+01
 0.1132684885522E+01
 0.1103906717629E+01
 0.1068562266177E+01
 0.1026454473670E+01
 0.9773592732917E+00
 0.9209777148058E+00
 0.8568669632833E+00
 0.7843484825441E+00
 0.7024100671429E+00
 0.6096649560026E+00
 0.5048888427069E+00
 0.1151306018369E+01
 0.1166339703904E+01
 0.1177592850544E+01
 0.1184418935744E+01
 0.1186271143490E+01
 0.1182707296731E+01
 0.1173375808473E+01
 0.1158000229524E+01
 0.1136367226999E+01
 0.1108317064074E+01
 0.1073733290745E+01
 0.1032527856712E+01
 0.9846180571360E+00
 0.9298922544527E+00
 0.8681625142229E+00
 0.7991058776692E+00
 0.7222077852857E+00
 0.6367561062983E+00
 0.5420629703332E+00
 0.4381026762659E+00
 0.1159150230990E+01
 0.1172179102731E+01
 0.1180881523836E+01
 0.1184522769657E+01
 0.1182559377335E+01
 0.1174607261043E+01
 0.1160402283259E+01
 0.1139770858835E+01
 0.1112611830094E+01
 0.1078884451390E+01
 0.1038596634056E+01
 0.9917889347085E+00
 0.9385117426556E+00
 0.8787950935925E+00
 0.8126132810703E+00
 0.7398515625680E+00
 0.6602929066237E+00
 0.5736625707623E+00
 0.4798102877892E+00
 0.3790556346323E+00
 0.1164757858668E+01
 0.1175489062802E+01
 0.1181255825792E+01
 0.1181275416555E+01
 0.1175060517129E+01
 0.1162330316598E+01
 0.1142938768216E+01
 0.1116833210222E+01
 0.1084034341312E+01
 0.1044625396017E+01
 0.9987415211118E+00
 0.9465557769488E+00
 0.8882617979072E+00
 0.8240559939386E+00
 0.7541252764485E+00
 0.6786497882392E+00
 0.5978292538787E+00
 0.5119202246988E+00
 0.4211053571597E+00
 0.3251326083156E+00
 0.1168205711477E+01
 0.1176327096846E+01
 0.1178735786197E+01
 0.1174677239554E+01
 0.1163790574183E+01
 0.1145940105690E+01
 0.1121113425218E+01
 0.1089378693785E+01
 0.1050872477954E+01
 0.1005793607999E+01
 0.9543954674685E+00
 0.8969767035168E+00
 0.8338738732722E+00
 0.7654622237918E+00
 0.6921734636744E+00
 0.6145400475985E+00
 0.5332665775288E+00
 0.4492726819185E+00
 0.3634605822253E+00
 0.2749291390666E+00
 0.1169609629443E+01
 0.1174781585157E+01
 0.1173383093686E+01
 0.1164812974665E+01
 0.1148915003915E+01
 0.1125716973315E+01
 0.1095322744596E+01
 0.1057899759616E+01
 0.1013679711786E+01
 0.9629554892447E+00
 0.9060751108511E+00
 0.8434370154694E+00
 0.7754928942587E+00
 0.7027663900645E+00
 0.6258984623377E+00
 0.5457312625148E+00
 0.4634351783373E+00
 0.3806576457658E+00
 0.2996039373191E+00
 0.2220792098392E+00
 0.1169150149086E+01
 0.1170973281152E+01
 0.1165265259405E+01
 0.1151799917327E+01
 0.1130678574099E+01
 0.1102031686793E+01
 0.1066031629170E+01
 0.1022913632551E+01
 0.9729768776756E+00
 0.9165775294583E+00
 0.8541206739818E+00
 0.7860571828756E+00
 0.7128921310413E+00
 0.6352136212742E+00
 0.5537541307381E+00
 0.4695007576400E+00
 0.3838792897491E+00
 0.2990703929408E+00
 0.2186934267618E+00
 0.1504467129886E+00
 0.1167050957537E+01
 0.1164866317881E+01
 0.1154264919780E+01
 0.1135722915695E+01
 0.1109372268638E+01
 0.1075340089010E+01
 0.1033835090136E+01
 0.9851433700767E+00
 0.9296147861376E+00
 0.8676491534903E+00
 0.7996871796713E+00
 0.7262102987203E+00
 0.6477555454972E+00
 0.5649545599708E+00
 0.4786103488071E+00
 0.3898339227121E+00
 0.3002862735574E+00
 0.2126499149698E+00
 0.1317400962680E+00
 0.6898078415819E-01
</DataArray>
<DataArray type="Float64" Name="CK" NumberOfComponents="1" ComponentName0="CK" format="ascii">
 0.0000000000000E+00
 0.0000000000000E+00
 0.0000000000000E+00
 0.0000000000000E+00
 0.0000000000000E+00
 0.0000000000000E+00
 0.0000000000000E+00
 0.0000000000000E+00
 0.0000000000000E+00
 0.0000000000000E+00
 0.0000000000000E+00
 0.0000000000000E+00
 0.0000000000000E+00
 0.0000000000000E+00
 0.0000000000000E+00
 0.0000000000000E+00
 0.0000000000000E+00
 0.0000000000000E+00
 0.0000000000000E+00
 0.0000000000000E+00
 0.0000000000000E+00
 0.0000000000000E+00
 0.0000000000000E+00
 0.0000000000000E+00
 0.0000000000000E+00
 0.0000000000000E+00
 0.0000000000000E+00
 0.0000000000000E+00
 0.0000000000000E+00
 0.0000000000000E+00
 0.0000000000000E+00
 0.0000000000000E+00
 0.0000000000000E+00
 0.0000000000000E+00
 0.0000000000000E+00
 0.0000000000000E+00
 0.0000000000000E+00
 0.0000000000000E+00
 0.0000000000000E+00
 0.0000000000000E+00
 0.0000000000000E+00
 0.0000000000000E+00
 0.0000000000000E+00
 0.0000000000000E+00
 0.0000000000000E+00
 0.0000000000000E+00
 0.0000000000000E+00
 0.0000000000000E+00
 0.0000000000000E+00
 0.0000000000000E+00
 0.0000000000000E+00
 0.0000000000000E+00
 0.0000000000000E+00
 0.0000000000000E+00
 0.0000000000000E+00
 0.0000000000000E+00
 0.0000000000000E+00
 0.0000000000000E+00
 0.0000000000000E+00
 0.0000000000000E+00
 0.0000000000000E+00
 0.0000000000000E+00
 0.0000000000000E+00
 0.0000000000000E+00
 0.0000000000000E+00
 0.0000000000000E+00
 0.0000000000000E+00
 0.0000000000000E+00
 0.0000000000000E+00
 0.0000000000000E+00
 0.0000000000000E+00
 0.0000000000000E+00
 0.0000000000000E+00
 0.0000000000000E+00
 0.0000000000000E+00
 0.0000000000000E+00
 0.0000000000000E+00
 0.0000000000000E+00
 0.0000000000000E+00
 0.0000000000000E+00
 0.0000000000000E+00
 0.0000000000000E+00
 0.0000000000000E+00
 0.0000000000000E+00
 0.0000000000000E+00
 0.0000000000000E+00
 0.0000000000000E+00
 0.0000000000000E+00
 0.0000000000000E+00
 0.0000000000000E+00
 0.0000000000000E+00
 0.0000000000000E+00
 0.0000000000000E+00
 0.0000000000000E+00
 0.0000000000000E+00
 0.0000000000000E+00
 0.0000000000000E+00
 0.0000000000000E+00
 0.0000000000000E+00
 0.0000000000000E+00
 0.0000000000000E+00
 0.0000000000000E+00
 0.0000000000000E+00
 0.0000000000000E+00
 0.0000000000000E+00
 0.0000000000000E+00
 0.0000000000000E+00
 0.0000000000000E+00
 0.0000000000000E+00
 0.0000000000000E+00
 0.0000000000000E+00
 0.0000000000000E+00
 0.0000000000000E+00
 0.0000000000000E+00
 0.0000000000000E+00
 0.0000000000000E+00
 0.0000000000000E+00
 0.0000000000000E+00
 0.0000000000000E+00
 0.0000000000000E+00
 0.0000000000000E+00
 0.0000000000000E+00
 0.0000000000000E+00
 0.0000000000000E+00
 0.0000000000000E+00
 0.0000000000000E+00
 0.0000000000000E+00
 0.0000000000000E+00
 0.0000000000000E+00
 0.0000000000000E+00
 0.0000000000000E+00
 0.0000000000000E+00
 0.0000000000000E+00
 0.0000000000000E+00
 0.0000000000000E+00
 0.0000000000000E+00
 0.0000000000000E+00
 0.0000000000000E+00
 0.0000000000000E+00
 0.0000000000000E+00
 0.0000000000000E+00
 0.0000000000000E+00
 0.0000000000000E+00
 0.0000000000000E+00
 0.0000000000000E+00
 0.0000000000000E+00
 0.0000000000000E+00
 0.0000000000000E+00
 0.0000000000000E+00
 0.0000000000000E+00
 0.0000000000000E+00
 0.0000000000000E+00
 0.0000000000000E+00
 0.0000000000000E+00
 0.0000000000000E+00
 0.0000000000000E+00
 0.0000000000000E+00
 0.0000000000000E+00
 0.0000000000000E+00
 0.0000000000000E+00
 0.0000000000000E+00
 0.0000000000000E+00
 0.0000000000000E+00
 0.0000000000000E+00
 0.0000000000000E+00
 0.0000000000000E+00
 0.0000000000000E+00
 0.0000000000000E+00
 0.0000000000000E+00
 0.0000000000000E+00
 0.0000000000000E+00
 0.0000000000000E+00
 0.0000000000000E+00
 0.0000000000000E+00
 0.0000000000000E+00
 0.0000000000000E+00
 0.0000000000000E+00
 0.0000000000000E+00
 0.0000000000000E+00
 0.0000000000000E+00
 0.0000000000000E+00
 0.0000000000000E+00
 0.0000000000000E+00
 0.0000000000000E+00
 0.0000000000000E+00
 0.0000000000000E+00
 0.0000000000000E+00
 0.0000000000000E+00
 0.0000000000000E+00
 0.0000000000000E+00
 0.0000000000000E+00
 0.0000000000000E+00
 0.0000000000000E+00
 0.0000000000000E+00
 0.0000000000000E+00
 0.0000000000000E+00
 0.0000000000000E+00
 0.0000000000000E+00
 0.0000000000000E+00
 0.0000000000000E+00
 0.0000000000000E+00
 0.0000000000000E+00
 0.0000000000000E+00
 0.0000000000000E+00
 0.0000000000000E+00
 0.0000000000000E+00
 0.0000000000000E+00
 0.0000000000000E+00
 0.0000000000000E+00
 0.0000000000000E+00
 0.0000000000000E+00
 0.0000000000000E+00
 0.0000000000000E+00
 0.0000000000000E+00
 0.0000000000000E+00
 0.0000000000000E+00
 0.0000000000000E+00
 0.0000000000000E+00
 0.0000000000000E+00
 0.0000000000000E+00
 0.0000000000000E+00
 0.0000000000000E+00
 0.0000000000000E+00
 0.0000000000000E+00
 0.0000000000000E+00
 0.0000000000000E+00
 0.0000000000000E+00
 0.0000000000000E+00
 0.0000000000000E+00
 0.0000000000000E+00
 0.0000000000000E+00
 0.0000000000000E+00
 0.0000000000000E+00
 0.0000000000000E+00
 0.0000000000000E+00
 0.0000000000000E+00
 0.0000000000000E+00
 0.0000000000000E+00
 0.0000000000000E+00
 0.0000000000000E+00
 0.0000000000000E+00
 0.0000000000000E+00
 0.0000000000000E+00
 0.0000000000000E+00
 0.0000000000000E+00
 0.0000000000000E+00
 0.0000000000000E+00
 0.0000000000000E+00
 0.0000000000000E+00
 0.0000000000000E+00
 0.0000000000000E+00
 0.0000000000000E+00
 0.0000000000000E+00
 0.0000000000000E+00
 0.0000000000000E+00
 0.0000000000000E+00
 0.0000000000000E+00
 0.0000000000000E+00
 0.0000000000000E+00
 0.0000000000000E+00
 0.0000000000000E+00
 0.0000000000000E+00
 0.0000000000000E+00
 0.0000000000000E+00
 0.0000000000000E+00
 0.0000000000000E+00
 0.0000000000000E+00
 0.0000000000000E+00
 0.0000000000000E+00
 0.0000000000000E+00
 0.0000000000000E+00
 0.0000000000000E+00
 0.0000000000000E+00
 0.0000000000000E+00
 0.0000000000000E+00
 0.0000000000000E+00
 0.0000000000000E+00
 0.0000000000000E+00
 0.0000000000000E+00
 0.0000000000000E+00
 0.0000000000000E+00
 0.0000000000000E+00
 0.0000000000000E+00
 0.0000000000000E+00
 0.0000000000000E+00
 0.0000000000000E+00
 0.0000000000000E+00
 0.0000000000000E+00
 0.0000000000000E+00
 0.0000000000000E+00
 0.0000000000000E+00
 0.0000000000000E+00
 0.0000000000000E+00
 0.0000000000000E+00
 0.0000000000000E+00
 0.0000000000000E+00
 0.0000000000000E+00
 0.0000000000000E+00
 0.0000000000000E+00
 0.0000000000000E+00
 0.0000000000000E+00
 0.0000000000000E+00
 0.0000000000000E+00
 0.0000000000000E+00
 0.0000000000000E+00
 0.0000000000000E+00
 0.0000000000000E+00
 0.0000000000000E+00
 0.0000000000000E+00
 0.0000000000000E+00
 0.0000000000000E+00
 0.0000000000000E+00
 0.0000000000000E+00
 0.0000000000000E+00
 0.0000000000000E+00
 0.0000000000000E+00
 0.0000000000000E+00
 0.0000000000000E+00
 0.0000000000000E+00
 0.0000000000000E+00
 0.0000000000000E+00
 0.0000000000000E+00
 0.0000000000000E+00
 0.0000000000000E+00
 0.0000000000000E+00
 0.0000000000000E+00
 0.0000000000000E+00
 0.0000000000000E+00
 0.0000000000000E+00
 0.0000000000000E+00
 0.0000000000000E+00
 0.0000000000000E+00
 0.0000000000000E+00
 0.0000000000000E+00
 0.0000000000000E+00
 0.0000000000000E+00
 0.0000000000000E+00
 0.0000000000000E+00
 0.0000000000000E+00
 0.0000000000000E+00
 0.0000000000000E+00
 0.0000000000000E+00
 0.0000000000000E+00
 0.0000000000000E+00
 0.0000000000000E+00
 0.0000000000000E+00
 0.0000000000000E+00
 0.0000000000000E+00
 0.0000000000000E+00
 0.0000000000000E+00
 0.0000000000000E+00
 0.0000000000000E+00
 0.0000000000000E+00
 0.0000000000000E+00
 0.0000000000000E+00
 0.0000000000000E+00
 0.0000000000000E+00
 0.0000000000000E+00
 0.0000000000000E+00
 0.0000000000000E+00
 0.0000000000000E+00
 0.0000000000000E+00
 0.0000000000000E+00
 0.0000000000000E+00
 0.0000000000000E+00
 0.0000000000000E+00
 0.0000000000000E+00
 0.0000000000000E+00
 0.0000000000000E+00
 0.0000000000000E+00
 0.0000000000000E+00
 0.0000000000000E+00
 0.0000000000000E+00
 0.0000000000000E+00
 0.0000000000000E+00
 0.0000000000000E+00
 0.0000000000000E+00
 0.0000000000000E+00
 0.0000000000000E+00
 0.0000000000000E+00
 0.0000000000000E+00
 0.0000000000000E+00
 0.0000000000000E+00
 0.0000000000000E+00
 0.0000000000000E+00
 0.0000000000000E+00
 0.0000000000000E+00
 0.0000000000000E+00
 0.0000000000000E+00
 0.0000000000000E+00
 0.0000000000000E+00
 0.0000000000000E+00
 0.0000000000000E+00
 0.0000000000000E+00
 0.0000000000000E+00
 0.0000000000000E+00
 0.0000000000000E+00
 0.0000000000000E+00
 0.0000000000000E+00
 0.0000000000000E+00
 0.0000000000000E+00
 0.0000000000000E+00
 0.0000000000000E+00
 0.0000000000000E+00
 0.0000000000000E+00
 0.0000000000000E+00
 0.0000000000000E+00
 0.0000000000000E+00
 0.0000000000000E+00
 0.0000000000000E+00
 0.0000000000000E+00
 0.0000000000000E+00
 0.0000000000000E+00
 0.0000000000000E+00
 0.0000000000000E+00
 0.0000000000000E+00
 0.0000000000000E+00
 0.0000000000000E+00
 0.0000000000000E+00
 0.0000000000000E+00
 0.0000000000000E+00
 0.0000000000000E+00
 0.0000000000000E+00
 0.0000000000000E+00
 0.0000000000000E+00
 0.0000000000000E+00
 0.0000000000000E+00
 0.0000000000000E+00
 0.0000000000000E+00
 0.0000000000000E+00
 0.0000000000000E+00
 0.0000000000000E+00
 0.0000000000000E+00
 0.0000000000000E+00
 0.0000000000000E+00
 0.0000000000000E+00
 0.0000000000000E+00
 0.0000000000000E+00
 0.0000000000000E+00
 0.0000000000000E+00
 0.0000000000000E+00
 0.0000000000000E+00
 0.0000000000000E+00
 0.0000000000000E+00
 0.0000000000000E+00
 0.0000000000000E+00
 0.0000000000000E+00
 0.0000000000000E+00
 0.0000000000000E+00
 0.0000000000000E+00
 0.0000000000000E+00
 0.0000000000000E+00
 0.0000000000000E+00
 0.0000000000000E+00
 0.0000000000000E+00
 0.0000000000000E+00
 0.0000000000000E+00
 0.0000000000000E+00
 0.0000000000000E+00
 0.0000000000000E+00
 0.0000000000000E+00
 0.0000000000000E+00
 0.0000000000000E+00
 0.0000000000000E+00
 0.0000000000000E+00
 0.0000000000000E+00
 0.0000000000000E+00
 0.0000000000000E+00
 0.0000000000000E+00
 0.0000000000000E+00
 0.0000000000000E+00
 0.0000000000000E+00
 0.0000000000000E+00
 0.0000000000000E+00
 0.0000000000000E+00
 0.0000000000000E+00
 0.0000000000000E+00
 0.0000000000000E+00
 0.0000000000000E+00
 0.0000000000000E+00
 0.0000000000000E+00
 0.0000000000000E+00
 0.0000000000000E+00
 0.0000000000000E+00
 0.0000000000000E+00
 0.0000000000000E+00
 0.0000000000000E+00
 0.0000000000000E+00
 0.0000000000000E+00
 0.0000000000000E+00
 0.0000000000000E+00
 0.0000000000000E+00
 0.0000000000000E+00
 0.0000000000000E+00
 0.0000000000000E+00
 0.0000000000000E+00
 0.0000000000000E+00
 0.0000000000000E+00
 0.0000000000000E+00
 0.0000000000000E+00
 0.0000000000000E+00
 0.0000000000000E+00
 0.0000000000000E+00
 0.0000000000000E+00
 0.0000000000000E+00
 0.0000000000000E+00
 0.0000000000000E+00
 0.0000000000000E+00
 0.0000000000000E+00
 0.0000000000000E+00
 0.0000000000000E+00
 0.0000000000000E+00
 0.0000000000000E+00
 0.0000000000000E+00
 0.0000000000000E+00
 0.0000000000000E+00
 0.0000000000000E+00
 0.0000000000000E+00
 0.0000000000000E+00
 0.0000000000000E+00
 0.0000000000000E+00
 0.0000000000000E+00
 0.0000000000000E+00
 0.0000000000000E+00
 0.0000000000000E+00
 0.0000000000000E+00
 0.0000000000000E+00
 0.0000000000000E+00
 0.0000000000000E+00
 0.0000000000000E+00
 0.0000000000000E+00
 0.0000000000000E+00
 0.0000000000000E+00
 0.0000000000000E+00
 0.0000000000000E+00
 0.0000000000000E+00
 0.0000000000000E+00
 0.0000000000000E+00
 0.0000000000000E+00
 0.0000000000000E+00
 0.0000000000000E+00
 0.0000000000000E+00
 0.0000000000000E+00
 0.0000000000000E+00
 0.0000000000000E+00
 0.0000000000000E+00
 0.0000000000000E+00
 0.0000000000000E+00
 0.0000000000000E+00
 0.0000000000000E+00
 0.0000000000000E+00
 0.0000000000000E+00
 0.0000000000000E+00
 0.0000000000000E+00
 0.0000000000000E+00
 0.0000000000000E+00
 0.0000000000000E+00
 0.0000000000000E+00
 0.0000000000000E+00
 0.0000000000000E+00
 0.0000000000000E+00
 0.0000000000000E+00
 0.0000000000000E+00
 0.0000000000000E+00
 0.0000000000000E+00
 0.0000000000000E+00
 0.0000000000000E+00
 0.0000000000000E+00
 0.0000000000000E+00
 0.0000000000000E+00
 0.0000000000000E+00
 0.0000000000000E+00
 0.0000000000000E+00
 0.0000000000000E+00
 0.0000000000000E+00
 0.0000000000000E+00
 0.0000000000000E+00
 0.0000000000000E+00
 0.0000000000000E+00
 0.0000000000000E+00
 0.0000000000000E+00
 0.0000000000000E+00
 0.0000000000000E+00
 0.0000000000000E+00
 0.0000000000000E+00
 0.0000000000000E+00
 0.0000000000000E+00
 0.0000000000000E+00
 0.0000000000000E+00
 0.0000000000000E+00
 0.0000000000000E+00
 0.0000000000000E+00
 0.0000000000000E+00
 0.0000000000000E+00
 0.0000000000000E+00
 0.0000000000000E+00
 0.0000000000000E+00
 0.0000000000000E+00
 0.0000000000000E+00
 0.0000000000000E+00
 0.0000000000000E+00
 0.0000000000000E+00
 0.0000000000000E+00
 0.0000000000000E+00
 0.0000000000000E+00
 0.0000000000000E+00
 0.0000000000000E+00
 0.0000000000000E+00
 0.0000000000000E+00
 0.0000000000000E+00
 0.0000000000000E+00
 0.0000000000000E+00
 0.0000000000000E+00
 0.0000000000000E+00
 0.0000000000000E+00
 0.0000000000000E+00
 0.0000000000000E+00
 0.0000000000000E+00
 0.0000000000000E+00
 0.0000000000000E+00
 0.0000000000000E+00
 0.0000000000000E+00
 0.0000000000000E+00
 0.0000000000000E+00
 0.0000000000000E+00
 0.0000000000000E+00
 0.0000000000000E+00
 0.0000000000000E+00
 0.0000000000000E+00
 0.0000000000000E+00
 0.0000000000000E+00
 0.0000000000000E+00
 0.0000000000000E+00
 0.0000000000000E+00
 0.0000000000000E+00
 0.0000000000000E+00
 0.0000000000000E+00
 0.0000000000000E+00
 0.0000000000000E+00
 0.0000000000000E+00
 0.0000000000000E+00
 0.0000000000000E+00
 0.0000000000000E+00
 0.0000000000000E+00
 0.0000000000000E+00
 0.0000000000000E+00
 0.0000000000000E+00
 0.0000000000000E+00
 0.0000000000000E+00
 0.0000000000000E+00
 0.0000000000000E+00
 0.0000000000000E+00
 0.0000000000000E+00
 0.0000000000000E+00
 0.0000000000000E+00
 0.0000000000000E+00
 0.0000000000000E+00
 0.0000000000000E+00
 0.0000000000000E+00
 0.0000000000000E+00
 0.0000000000000E+00
 0.0000000000000E+00
 0.0000000000000E+00
 0.0000000000000E+00
 0.0000000000000E+00
 0.0000000000000E+00
 0.0000000000000E+00
 0.0000000000000E+00
 0.0000000000000E+00
 0.0000000000000E+00
 0.0000000000000E+00
 0.0000000000000E+00
 0.0000000000000E+00
 0.0000000000000E+00
 0.0000000000000E+00
 0.0000000000000E+00
 0.0000000000000E+00
 0.0000000000000E+00
 0.0000000000000E+00
 0.0000000000000E+00
 0.0000000000000E+00
 0.0000000000000E+00
 0.0000000000000E+00
 0.0000000000000E+00
 0.0000000000000E+00
 0.0000000000000E+00
 0.0000000000000E+00
 0.0000000000000E+00
 0.0000000000000E+00
 0.0000000000000E+00
 0.0000000000000E+00
 0.0000000000000E+00
 0.0000000000000E+00
 0.0000000000000E+00
 0.0000000000000E+00
 0.0000000000000E+00
 0.0000000000000E+00
 0.0000000000000E+00
 0.0000000000000E+00
 0.0000000000000E+00
 0.0000000000000E+00
 0.0000000000000E+00
 0.0000000000000E+00
 0.0000000000000E+00
 0.0000000000000E+00
 0.0000000000000E+00
 0.0000000000000E+00
 0.0000000000000E+00
 0.0000000000000E+00
 0.0000000000000E+00
 0.0000000000000E+00
 0.0000000000000E+00
 0.0000000000000E+00
 0.0000000000000E+00
 0.0000000000000E+00
 0.0000000000000E+00
 0.0000000000000E+00
 0.0000000000000E+00
 0.0000000000000E+00
 0.0000000000000E+00
 0.0000000000000E+00
 0.0000000000000E+00
 0.0000000000000E+00
 0.0000000000000E+00
 0.0000000000000E+00
 0.0000000000000E+00
 0.0000000000000E+00
 0.0000000000000E+00
 0.0000000000000E+00
 0.0000000000000E+00
 0.0000000000000E+00
 0.0000000000000E+00
 0.0000000000000E+00
 0.0000000000000E+00
 0.0000000000000E+00
 0.0000000000000E+00
 0.0000000000000E+00
 0.0000000000000E+00
 0.0000000000000E+00
 0.0000000000000E+00
 0.0000000000000E+00
 0.0000000000000E+00
 0.0000000000000E+00
 0.0000000000000E+00
 0.0000000000000E+00
 0.0000000000000E+00
 0.0000000000000E+00
 0.0000000000000E+00
 0.0000000000000E+00
 0.0000000000000E+00
 0.0000000000000E+00
 0.0000000000000E+00
 0.0000000000000E+00
 0.0000000000000E+00
 0.0000000000000E+00
 0.0000000000000E+00
 0.0000000000000E+00
 0.0000000000000E+00
 0.0000000000000E+00
 0.0000000000000E+00
 0.0000000000000E+00
 0.0000000000000E+00
 0.0000000000000E+00
 0.0000000000000E+00
 0.0000000000000E+00
 0.0000000000000E+00
 0.0000000000000E+00
 0.0000000000000E+00
 0.0000000000000E+00
 0.0000000000000E+00
 0.0000000000000E+00
 0.0000000000000E+00
 0.0000000000000E+00
 0.0000000000000E+00
 0.0000000000000E+00
 0.0000000000000E+00
 0.0000000000000E+00
 0.0000000000000E+00
 0.0000000000000E+00
 0.0000000000000E+00
 0.0000000000000E+00
 0.0000000000000E+00
 0.0000000000000E+00
 0.0000000000000E+00
 0.0000000000000E+00
 0.0000000000000E+00
 0.0000000000000E+00
 0.0000000000000E+00
 0.0000000000000E+00
 0.0000000000000E+00
 0.0000000000000E+00
 0.0000000000000E+00
 0.0000000000000E+00
 0.0000000000000E+00
 0.0000000000000E+00
 0.0000000000000E+00
 0.0000000000000E+00
 0.0000000000000E+00
 0.0000000000000E+00
 0.0000000000000E+00
 0.0000000000000E+00
 0.0000000000000E+00
 0.0000000000000E+00
 0.0000000000000E+00
 0.0000000000000E+00
 0.0000000000000E+00
 0.0000000000000E+00
 0.0000000000000E+00
 0.0000000000000E+00
 0.0000000000000E+00
 0.0000000000000E+00
 0.0000000000000E+00
 0.0000000000000E+00
 0.0000000000000E+00
 0.0000000000000E+00
 0.0000000000000E+00
 0.0000000000000E+00
 0.0000000000000E+00
 0.0000000000000E+00
 0.0000000000000E+00
 0.0000000000000E+00
 0.0000000000000E+00
 0.0000000000000E+00
 0.0000000000000E+00
 0.0000000000000E+00
 0.0000000000000E+00
 0.0000000000000E+00
 0.0000000000000E+00
 0.0000000000000E+00
 0.0000000000000E+00
 0.0000000000000E+00
 0.0000000000000E+00
 0.0000000000000E+00
 0.0000000000000E+00
 0.0000000000000E+00
 0.0000000000000E+00
 0.0000000000000E+00
 0.0000000000000E+00
 0.0000000000000E+00
 0.0000000000000E+00
 0.0000000000000E+00
 0.0000000000000E+00
 0.0000000000000E+00
 0.0000000000000E+00
 0.0000000000000E+00
 0.0000000000000E+00
 0.0000000000000E+00
 0.0000000000000E+00
 0.0000000000000E+00
 0.0000000000000E+00
 0.0000000000000E+00
 0.0000000000000E+00
 0.0000000000000E+00
 0.0000000000000E+00
 0.0000000000000E+00
 0.0000000000000E+00
 0.0000000000000E+00
 0.0000000000000E+00
 0.0000000000000E+00
 0.0000000000000E+00
 0.0000000000000E+00
 0.0000000000000E+00
 0.0000000000000E+00
 0.0000000000000E+00
 0.0000000000000E+00
 0.0000000000000E+00
 0.0000000000000E+00
 0.0000000000000E+00
 0.0000000000000E+00
 0.0000000000000E+00
 0.0000000000000E+00
 0.0000000000000E+00
 0.0000000000000E+00
 0.0000000000000E+00
 0.0000000000000E+00
 0.0000000000000E+00
 0.0000000000000E+00
 0.0000000000000E+00
 0.0000000000000E+00
 0.0000000000000E+00
 0.0000000000000E+00
 0.0000000000000E+00
 0.0000000000000E+00
 0.0000000000000E+00
 0.0000000000000E+00
 0.0000000000000E+00
 0.0000000000000E+00
 0.0000000000000E+00
 0.0000000000000E+00
 0.0000000000000E+00
 0.0000000000000E+00
 0.0000000000000E+00
 0.0000000000000E+00
 0.0000000000000E+00
 0.0000000000000E+00
 0.0000000000000E+00
 0.0000000000000E+00
 0.0000000000000E+00
 0.0000000000000E+00
 0.0000000000000E+00
 0.0000000000000E+00
 0.0000000000000E+00
 0.0000000000000E+00
 0.0000000000000E+00
 0.0000000000000E+00
 0.0000000000000E+00
 0.0000000000000E+00
 0.0000000000000E+00
 0.0000000000000E+00
 0.0000000000000E+00
 0.0000000000000E+00
 0.0000000000000E+00
 0.0000000000000E+00
 0.0000000000000E+00
 0.0000000000000E+00
 0.0000000000000E+00
 0.0000000000000E+00
 0.0000000000000E+00
 0.0000000000000E+00
 0.0000000000000E+00
 0.0000000000000E+00
 0.0000000000000E+00
 0.0000000000000E+00
 0.0000000000000E+00
 0.0000000000000E+00
 0.0000000000000E+00
 0.0000000000000E+00
 0.0000000000000E+00
 0.0000000000000E+00
 0.0000000000000E+00
 0.0000000000000E+00
 0.0000000000000E+00
 0.0000000000000E+00
 0.0000000000000E+00
 0.0000000000000E+00
 0.0000000000000E+00
 0.0000000000000E+00
 0.0000000000000E+00
 0.0000000000000E+00
 0.0000000000000E+00
 0.0000000000000E+00
 0.0000000000000E+00
 0.0000000000000E+00
 0.0000000000000E+00
 0.0000000000000E+00
 0.0000000000000E+00
 0.0000000000000E+00
 0.0000000000000E+00
 0.0000000000000E+00
 0.0000000000000E+00
 0.0000000000000E+00
 0.0000000000000E+00
 0.0000000000000E+00
 0.0000000000000E+00
 0.0000000000000E+00
 0.0000000000000E+00
 0.0000000000000E+00
 0.0000000000000E+00
 0.0000000000000E+00
 0.0000000000000E+00
 0.0000000000000E+00
 0.0000000000000E+00
 0.0000000000000E+00
 0.0000000000000E+00
 0.0000000000000E+00
 0.0000000000000E+00
 0.0000000000000E+00
 0.0000000000000E+00
 0.0000000000000E+00
 0.0000000000000E+00
 0.0000000000000E+00
 0.0000000000000E+00
 0.0000000000000E+00
 0.0000000000000E+00
 0.0000000000000E+00
 0.0000000000000E+00
 0.0000000000000E+00
 0.0000000000000E+00
 0.0000000000000E+00
 0.0000000000000E+00
 0.0000000000000E+00
 0.0000000000000E+00
 0.0000000000000E+00
 0.0000000000000E+00
 0.0000000000000E+00
 0.0000000000000E+00
 0.0000000000000E+00
 0.0000000000000E+00
 0.0000000000000E+00
 0.0000000000000E+00
 0.0000000000000E+00
 0.0000000000000E+00
 0.0000000000000E+00
 0.0000000000000E+00
 0.0000000000000E+00
 0.0000000000000E+00
 0.0000000000000E+00
 0.0000000000000E+00
 0.0000000000000E+00
 0.0000000000000E+00
 0.0000000000000E+00
 0.0000000000000E+00
 0.0000000000000E+00
 0.0000000000000E+00
 0.0000000000000E+00
 0.0000000000000E+00
 0.0000000000000E+00
 0.0000000000000E+00
 0.0000000000000E+00
 0.0000000000000E+00
 0.0000000000000E+00
 0.0000000000000E+00
 0.0000000000000E+00
 0.0000000000000E+00
 0.0000000000000E+00
 0.0000000000000E+00
 0.0000000000000E+00
 0.0000000000000E+00
 0.0000000000000E+00
 0.0000000000000E+00
 0.0000000000000E+00
 0.0000000000000E+00
 0.0000000000000E+00
 0.0000000000000E+00
 0.0000000000000E+00
 0.0000000000000E+00
 0.0000000000000E+00
 0.0000000000000E+00
 0.0000000000000E+00
 0.0000000000000E+00
 0.0000000000000E+00
 0.0000000000000E+00
 0.0000000000000E+00
 0.0000000000000E+00
 0.0000000000000E+00
 0.0000000000000E+00
 0.0000000000000E+00
 0.0000000000000E+00
 0.0000000000000E+00
 0.0000000000000E+00
 0.0000000000000E+00
 0.0000000000000E+00
 0.0000000000000E+00
 0.0000000000000E+00
 0.0000000000000E+00
 0.0000000000000E+00
 0.0000000000000E+00
 0.0000000000000E+00
 0.0000000000000E+00
 0.0000000000000E+00
 0.0000000000000E+00
 0.0000000000000E+00
 0.0000000000000E+00
 0.0000000000000E+00
 0.0000000000000E+00
 0.0000000000000E+00
 0.0000000000000E+00
 0.0000000000000E+00
 0.0000000000000E+00
 0.0000000000000E+00
 0.0000000000000E+00
 0.0000000000000E+00
 0.0000000000000E+00
 0.0000000000000E+00
 0.0000000000000E+00
 0.0000000000000E+00
 0.0000000000000E+00
 0.0000000000000E+00
 0.0000000000000E+00
 0.0000000000000E+00
 0.0000000000000E+00
 0.0000000000000E+00
 0.0000000000000E+00
 0.0000000000000E+00
 0.0000000000000E+00
 0.0000000000000E+00
 0.0000000000000E+00
 0.0000000000000E+00
 0.0000000000000E+00
 0.0000000000000E+00
 0.0000000000000E+00
 0.0000000000000E+00
 0.0000000000000E+00
 0.0000000000000E+00
 0.0000000000000E+00
 0.0000000000000E+00
 0.0000000000000E+00
 0.0000000000000E+00
 0.0000000000000E+00
 0.0000000000000E+00
 0.0000000000000E+00
 0.0000000000000E+00
 0.0000000000000E+00
 0.0000000000000E+00
 0.0000000000000E+00
 0.0000000000000E+00
 0.0000000000000E+00
 0.0000000000000E+00
 0.0000000000000E+00
 0.0000000000000E+00
 0.0000000000000E+00
 0.0000000000000E+00
 0.0000000000000E+00
 0.0000000000000E+00
 0.0000000000000E+00
 0.0000000000000E+00
 0.0000000000000E+00
 0.0000000000000E+00
 0.0000000000000E+00
 0.0000000000000E+00
 0.0000000000000E+00
 0.0000000000000E+00
 0.0000000000000E+00
 0.0000000000000E+00
 0.0000000000000E+00
 0.0000000000000E+00
 0.0000000000000E+00
 0.0000000000000E+00
 0.0000000000000E+00
 0.0000000000000E+00
 0.0000000000000E+00
 0.0000000000000E+00
 0.0000000000000E+00
 0.0000000000000E+00
 0.0000000000000E+00
 0.0000000000000E+00
 0.0000000000000E+00
 0.0000000000000E+00
 0.0000000000000E+00
 0.0000000000000E+00
 0.0000000000000E+00
 0.0000000000000E+00
 0.0000000000000E+00
 0.0000000000000E+00
 0.0000000000000E+00
 0.0000000000000E+00
 0.0000000000000E+00
 0.0000000000000E+00
 0.0000000000000E+00
 0.0000000000000E+00
 0.0000000000000E+00
 0.0000000000000E+00
 0.0000000000000E+00
 0.0000000000000E+00
 0.0000000000000E+00
 0.0000000000000E+00
 0.0000000000000E+00
 0.0000000000000E+00
 0.0000000000000E+00
 0.0000000000000E+00
 0.0000000000000E+00
 0.0000000000000E+00
 0.0000000000000E+00
 0.0000000000000E+00
 0.0000000000000E+00
 0.0000000000000E+00
 0.0000000000000E+00
 0.0000000000000E+00
 0.0000000000000E+00
 0.0000000000000E+00
 0.0000000000000E+00
 0.0000000000000E+00
 0.0000000000000E+00
 0.0000000000000E+00
 0.0000000000000E+00
 0.0000000000000E+00
 0.0000000000000E+00
 0.0000000000000E+00
 0.0000000000000E+00
 0.0000000000000E+00
 0.0000000000000E+00
 0.0000000000000E+00
 0.0000000000000E+00
 0.0000000000000E+00
 0.0000000000000E+00
 0.0000000000000E+00
 0.0000000000000E+00
 0.0000000000000E+00
 0.0000000000000E+00
 0.0000000000000E+00
 0.0000000000000E+00
 0.0000000000000E+00
 0.0000000000000E+00
 0.0000000000000E+00
 0.0000000000000E+00
 0.0000000000000E+00
 0.0000000000000E+00
 0.0000000000000E+00
 0.0000000000000E+00
 0.0000000000000E+00
 0.0000000000000E+00
 0.0000000000000E+00
 0.0000000000000E+00
 0.0000000000000E+00
 0.0000000000000E+00
 0.0000000000000E+00
 0.0000000000000E+00
 0.0000000000000E+00
 0.0000000000000E+00
 0.0000000000000E+00
 0.0000000000000E+00
 0.0000000000000E+00
 0.0000000000000E+00
 0.0000000000000E+00
 0.0000000000000E+00
 0.0000000000000E+00
 0.0000000000000E+00
 0.0000000000000E+00
 0.0000000000000E+00
 0.0000000000000E+00
 0.0000000000000E+00
 0.0000000000000E+00
 0.0000000000000E+00
 0.0000000000000E+00
 0.0000000000000E+00
 0.0000000000000E+00
 0.0000000000000E+00
 0.0000000000000E+00
 0.0000000000000E+00
 0.0000000000000E+00
 0.0000000000000E+00
 0.0000000000000E+00
 0.0000000000000E+00
 0.0000000000000E+00
 0.0000000000000E+00
 0.0000000000000E+00
 0.0000000000000E+00
 0.0000000000000E+00
 0.0000000000000E+00
 0.0000000000000E+00
 0.0000000000000E+00
 0.0000000000000E+00
 0.0000000000000E+00
 0.0000000000000E+00
 0.0000000000000E+00
 0.0000000000000E+00
 0.0000000000000E+00
 0.0000000000000E+00
 0.0000000000000E+00
 0.0000000000000E+00
 0.0000000000000E+00
 0.0000000000000E+00
 0.0000000000000E+00
 0.0000000000000E+00
 0.0000000000000E+00
 0.0000000000000E+00
 0.0000000000000E+00
 0.0000000000000E+00
 0.0000000000000E+00
 0.0000000000000E+00
 0.0000000000000E+00
 0.0000000000000E+00
 0.0000000000000E+00
 0.0000000000000E+00
 0.0000000000000E+00
 0.0000000000000E+00
 0.0000000000000E+00
 0.0000000000000E+00
 0.0000000000000E+00
 0.0000000000000E+00
 0.0000000000000E+00
 0.0000000000000E+00
 0.0000000000000E+00
 0.0000000000000E+00
 0.0000000000000E+00
 0.0000000000000E+00
 0.0000000000000E+00
 0.0000000000000E+00
 0.0000000000000E+00
 0.0000000000000E+00
 0.0000000000000E+00
 0.0000000000000E+00
 0.0000000000000E+00
 0.0000000000000E+00
 0.0000000000000E+00
 0.0000000000000E+00
 0.0000000000000E+00
 0.0000000000000E+00
 0.0000000000000E+00
 0.0000000000000E+00
 0.0000000000000E+00
 0.0000000000000E+00
 0.0000000000000E+00
 0.0000000000000E+00
 0.0000000000000E+00
 0.0000000000000E+00
 0.0000000000000E+00
 0.0000000000000E+00
 0.0000000000000E+00
 0.0000000000000E+00
 0.0000000000000E+00
 0.0000000000000E+00
 0.0000000000000E+00
 0.0000000000000E+00
 0.0000000000000E+00
 0.0000000000000E+00
 0.0000000000000E+00
 0.0000000000000E+00
 0.0000000000000E+00
 0.0000000000000E+00
 0.0000000000000E+00
 0.0000000000000E+00
 0.0000000000000E+00
 0.0000000000000E+00
 0.0000000000000E+00
 0.0000000000000E+00
 0.0000000000000E+00
 0.0000000000000E+00
 0.0000000000000E+00
 0.0000000000000E+00
 0.0000000000000E+00
 0.0000000000000E+00
 0.0000000000000E+00
 0.0000000000000E+00
 0.0000000000000E+00
 0.0000000000000E+00
 0.0000000000000E+00
 0.0000000000000E+00
 0.0000000000000E+00
 0.0000000000000E+00
 0.0000000000000E+00
 0.0000000000000E+00
 0.0000000000000E+00
 0.0000000000000E+00
 0.0000000000000E+00
 0.0000000000000E+00
 0.0000000000000E+00
 0.0000000000000E+00
 0.0000000000000E+00
 0.0000000000000E+00
 0.0000000000000E+00
 0.0000000000000E+00
 0.0000000000000E+00
 0.0000000000000E+00
 0.0000000000000E+00
 0.0000000000000E+00
 0.0000000000000E+00
 0.0000000000000E+00
 0.0000000000000E+00
 0.0000000000000E+00
 0.0000000000000E+00
 0.0000000000000E+00
 0.0000000000000E+00
 0.0000000000000E+00
 0.0000000000000E+00
 0.0000000000000E+00
 0.0000000000000E+00
 0.0000000000000E+00
 0.0000000000000E+00
 0.0000000000000E+00
 0.0000000000000E+00
 0.0000000000000E+00
 0.0000000000000E+00
 0.0000000000000E+00
 0.0000000000000E+00
 0.0000000000000E+00
 0.0000000000000E+00
 0.0000000000000E+00
 0.0000000000000E+00
 0.0000000000000E+00
 0.0000000000000E+00
 0.0000000000000E+00
 0.0000000000000E+00
 0.0000000000000E+00
 0.0000000000000E+00
 0.0000000000000E+00
 0.0000000000000E+00
 0.0000000000000E+00
 0.0000000000000E+00
 0.0000000000000E+00
 0.0000000000000E+00
 0.0000000000000E+00
 0.0000000000000E+00
 0.0000000000000E+00
 0.0000000000000E+00
 0.0000000000000E+00
 0.0000000000000E+00
 0.0000000000000E+00
 0.0000000000000E+00
 0.0000000000000E+00
 0.0000000000000E+00
 0.0000000000000E+00
 0.0000000000000E+00
 0.0000000000000E+00
 0.0000000000000E+00
 0.0000000000000E+00
 0.0000000000000E+00
 0.0000000000000E+00
 0.0000000000000E+00
 0.0000000000000E+00
 0.0000000000000E+00
 0.0000000000000E+00
 0.0000000000000E+00
 0.0000000000000E+00
 0.0000000000000E+00
 0.0000000000000E+00
 0.0000000000000E+00
 0.0000000000000E+00
 0.0000000000000E+00
 0.0000000000000E+00
 0.0000000000000E+00
 0.0000000000000E+00
 0.0000000000000E+00
 0.0000000000000E+00
 0.0000000000000E+00
 0.0000000000000E+00
 0.0000000000000E+00
 0.0000000000000E+00
 0.0000000000000E+00
 0.0000000000000E+00
 0.0000000000000E+00
 0.0000000000000E+00
 0.0000000000000E+00
 0.0000000000000E+00
 0.0000000000000E+00
 0.0000000000000E+00
 0.0000000000000E+00
 0.0000000000000E+00
 0.0000000000000E+00
 0.0000000000000E+00
 0.0000000000000E+00
 0.0000000000000E+00
 0.0000000000000E+00
 0.0000000000000E+00
 0.0000000000000E+00
 0.0000000000000E+00
 0.0000000000000E+00
 0.0000000000000E+00
 0.0000000000000E+00
 0.0000000000000E+00
 0.0000000000000E+00
 0.0000000000000E+00
 0.0000000000000E+00
 0.0000000000000E+00
 0.0000000000000E+00
 0.0000000000000E+00
 0.0000000000000E+00
 0.0000000000000E+00
 0.0000000000000E+00
 0.0000000000000E+00
 0.0000000000000E+00
 0.0000000000000E+00
 0.0000000000000E+00
 0.0000000000000E+00
 0.0000000000000E+00
 0.0000000000000E+00
 0.0000000000000E+00
 0.0000000000000E+00
 0.0000000000000E+00
 0.0000000000000E+00
 0.0000000000000E+00
 0.0000000000000E+00
 0.0000000000000E+00
 0.0000000000000E+00
 0.0000000000000E+00
 0.0000000000000E+00
 0.0000000000000E+00
 0.0000000000000E+00
 0.0000000000000E+00
 0.0000000000000E+00
 0.0000000000000E+00
 0.0000000000000E+00
 0.0000000000000E+00
 0.0000000000000E+00
 0.0000000000000E+00
 0.0000000000000E+00
 0.0000000000000E+00
 0.0000000000000E+00
 0.0000000000000E+00
 0.0000000000000E+00
 0.0000000000000E+00
 0.0000000000000E+00
 0.0000000000000E+00
 0.0000000000000E+00
 0.0000000000000E+00
 0.0000000000000E+00
 0.0000000000000E+00
 0.0000000000000E+00
 0.0000000000000E+00
 0.0000000000000E+00
 0.0000000000000E+00
 0.0000000000000E+00
 0.0000000000000E+00
 0.0000000000000E+00
 0.0000000000000E+00
 0.0000000000000E+00
 0.0000000000000E+00
 0.0000000000000E+00
 0.0000000000000E+00
 0.0000000000000E+00
 0.0000000000000E+00
 0.0000000000000E+00
 0.0000000000000E+00
 0.0000000000000E+00
 0.0000000000000E+00
 0.0000000000000E+00
 0.0000000000000E+00
 0.0000000000000E+00
 0.0000000000000E+00
 0.0000000000000E+00
 0.0000000000000E+00
 0.0000000000000E+00
 0.0000000000000E+00
 0.0000000000000E+00
 0.0000000000000E+00
 0.0000000000000E+00
 0.0000000000000E+00
 0.0000000000000E+00
 0.0000000000000E+00
 0.0000000000000E+00
 0.0000000000000E+00
 0.0000000000000E+00
 0.0000000000000E+00
 0.0000000000000E+00
 0.0000000000000E+00
 0.0000000000000E+00
 0.0000000000000E+00
 0.0000000000000E+00
 0.0000000000000E+00
 0.0000000000000E+00
 0.0000000000000E+00
 0.0000000000000E+00
 0.0000000000000E+00
 0.0000000000000E+00
 0.0000000000000E+00
 0.0000000000000E+00
 0.0000000000000E+00
 0.0000000000000E+00
 0.0000000000000E+00
 0.0000000000000E+00
 0.0000000000000E+00
 0.0000000000000E+00
 0.0000000000000E+00
 0.0000000000000E+00
 0.0000000000000E+00
 0.0000000000000E+00
 0.0000000000000E+00
 0.0000000000000E+00
 0.0000000000000E+00
 0.0000000000000E+00
 0.0000000000000E+00
 0.0000000000000E+00
 0.0000000000000E+00
 0.0000000000000E+00
 0.0000000000000E+00
 0.0000000000000E+00
 0.0000000000000E+00
 0.0000000000000E+00
 0.0000000000000E+00
 0.0000000000000E+00
 0.0000000000000E+00
 0.0000000000000E+00
 0.0000000000000E+00
 0.0000000000000E+00
 0.0000000000000E+00
 0.0000000000000E+00
 0.0000000000000E+00
 0.0000000000000E+00
 0.0000000000000E+00
 0.0000000000000E+00
 0.0000000000000E+00
 0.0000000000000E+00
 0.0000000000000E+00
 0.0000000000000E+00
 0.0000000000000E+00
 0.0000000000000E+00
 0.0000000000000E+00
 0.0000000000000E+00
 0.0000000000000E+00
 0.0000000000000E+00
 0.0000000000000E+00
 0.0000000000000E+00
 0.0000000000000E+00
 0.0000000000000E+00
 0.0000000000000E+00
 0.0000000000000E+00
 0.0000000000000E+00
 0.0000000000000E+00
 0.0000000000000E+00
 0.0000000000000E+00
 0.0000000000000E+00
 0.0000000000000E+00
 0.0000000000000E+00
 0.0000000000000E+00
 0.0000000000000E+00
 0.0000000000000E+00
 0.0000000000000E+00
 0.0000000000000E+00
 0.0000000000000E+00
 0.0000000000000E+00
 0.0000000000000E+00
 0.0000000000000E+00
 0.0000000000000E+00
 0.0000000000000E+00
 0.0000000000000E+00
 0.0000000000000E+00
 0.0000000000000E+00
 0.0000000000000E+00
 0.0000000000000E+00
 0.0000000000000E+00
 0.0000000000000E+00
 0.0000000000000E+00
 0.0000000000000E+00
 0.0000000000000E+00
 0.0000000000000E+00
 0.0000000000000E+00
 0.0000000000000E+00
 0.0000000000000E+00
 0.0000000000000E+00
 0.0000000000000E+00
 0.0000000000000E+00
 0.0000000000000E+00
 0.0000000000000E+00
 0.0000000000000E+00
 0.0000000000000E+00
 0.0000000000000E+00
 0.0000000000000E+00
 0.0000000000000E+00
 0.0000000000000E+00
 0.0000000000000E+00
 0.0000000000000E+00
 0.0000000000000E+00
 0.0000000000000E+00
 0.0000000000000E+00
 0.0000000000000E+00
 0.0000000000000E+00
 0.0000000000000E+00
 0.0000000000000E+00
 0.0000000000000E+00
 0.0000000000000E+00
 0.0000000000000E+00
 0.0000000000000E+00
 0.0000000000000E+00
 0.0000000000000E+00
 0.0000000000000E+00
 0.0000000000000E+00
 0.0000000000000E+00
 0.0000000000000E+00
 0.0000000000000E+00
 0.0000000000000E+00
 0.0000000000000E+00
 0.0000000000000E+00
 0.0000000000000E+00
 0.0000000000000E+00
 0.0000000000000E+00
 0.0000000000000E+00
 0.0000000000000E+00
 0.0000000000000E+00
 0.0000000000000E+00
 0.0000000000000E+00
 0.0000000000000E+00
 0.0000000000000E+00
 0.0000000000000E+00
 0.0000000000000E+00
 0.0000000000000E+00
 0.0000000000000E+00
 0.0000000000000E+00
 0.0000000000000E+00
 0.0000000000000E+00
 0.0000000000000E+00
 0.0000000000000E+00
 0.0000000000000E+00
 0.0000000000000E+00
 0.0000000000000E+00
 0.0000000000000E+00
 0.0000000000000E+00
 0.0000000000000E+00
 0.0000000000000E+00
 0.0000000000000E+00
 0.0000000000000E+00
 0.0000000000000E+00
 0.0000000000000E+00
 0.0000000000000E+00
 0.0000000000000E+00
 0.0000000000000E+00
 0.0000000000000E+00
 0.0000000000000E+00
 0.0000000000000E+00
 0.0000000000000E+00
 0.0000000000000E+00
 0.0000000000000E+00
 0.0000000000000E+00
 0.0000000000000E+00
 0.0000000000000E+00
 0.0000000000000E+00
 0.0000000000000E+00
 0.0000000000000E+00
 0.0000000000000E+00
 0.0000000000000E+00
 0.0000000000000E+00
 0.0000000000000E+00
 0.0000000000000E+00
 0.0000000000000E+00
 0.0000000000000E+00
 0.0000000000000E+00
 0.0000000000000E+00
 0.0000000000000E+00
 0.0000000000000E+00
 0.0000000000000E+00
 0.0000000000000E+00
 0.0000000000000E+00
 0.0000000000000E+00
 0.0000000000000E+00
 0.0000000000000E+00
 0.0000000000000E+00
 0.0000000000000E+00
 0.0000000000000E+00
 0.0000000000000E+00
 0.0000000000000E+00
 0.0000000000000E+00
 0.0000000000000E+00
 0.0000000000000E+00
 0.0000000000000E+00
 0.0000000000000E+00
 0.0000000000000E+00
 0.0000000000000E+00
 0.0000000000000E+00
 0.0000000000000E+00
 0.0000000000000E+00
 0.0000000000000E+00
 0.0000000000000E+00
 0.0000000000000E+00
 0.0000000000000E+00
 0.0000000000000E+00
 0.0000000000000E+00
 0.0000000000000E+00
 0.0000000000000E+00
 0.0000000000000E+00
 0.0000000000000E+00
 0.0000000000000E+00
 0.0000000000000E+00
 0.0000000000000E+00
 0.0000000000000E+00
 0.0000000000000E+00
 0.0000000000000E+00
 0.0000000000000E+00
 0.0000000000000E+00
 0.0000000000000E+00
 0.0000000000000E+00
 0.0000000000000E+00
 0.0000000000000E+00
 0.0000000000000E+00
 0.0000000000000E+00
 0.0000000000000E+00
 0.0000000000000E+00
 0.0000000000000E+00
 0.0000000000000E+00
 0.0000000000000E+00
 0.0000000000000E+00
 0.0000000000000E+00
 0.0000000000000E+00
 0.0000000000000E+00
 0.0000000000000E+00
 0.0000000000000E+00
 0.0000000000000E+00
 0.0000000000000E+00
 0.0000000000000E+00
 0.0000000000000E+00
 0.0000000000000E+00
 0.0000000000000E+00
 0.0000000000000E+00
 0.0000000000000E+00
 0.0000000000000E+00
 0.0000000000000E+00
 0.0000000000000E+00
 0.0000000000000E+00
 0.0000000000000E+00
 0.0000000000000E+00
 0.0000000000000E+00
 0.0000000000000E+00
 0.0000000000000E+00
 0.0000000000000E+00
 0.0000000000000E+00
 0.0000000000000E+00
 0.0000000000000E+00
 0.0000000000000E+00
 0.0000000000000E+00
 0.0000000000000E+00
 0.0000000000000E+00
 0.0000000000000E+00
 0.0000000000000E+00
 0.0000000000000E+00
 0.0000000000000E+00
 0.0000000000000E+00
 0.0000000000000E+00
 0.0000000000000E+00
 0.0000000000000E+00
 0.0000000000000E+00
 0.0000000000000E+00
 0.0000000000000E+00
 0.0000000000000E+00
 0.0000000000000E+00
 0.0000000000000E+00
 0.0000000000000E+00
 0.0000000000000E+00
 0.0000000000000E+00
 0.0000000000000E+00
 0.0000000000000E+00
 0.0000000000000E+00
 0.0000000000000E+00
 0.0000000000000E+00
 0.0000000000000E+00
 0.0000000000000E+00
 0.0000000000000E+00
 0.0000000000000E+00
 0.0000000000000E+00
 0.0000000000000E+00
 0.0000000000000E+00
 0.0000000000000E+00
 0.0000000000000E+00
 0.0000000000000E+00
 0.0000000000000E+00
 0.0000000000000E+00
 0.0000000000000E+00
 0.0000000000000E+00
 0.0000000000000E+00
 0.0000000000000E+00
 0.0000000000000E+00
 0.0000000000000E+00
 0.0000000000000E+00
 0.0000000000000E+00
 0.0000000000000E+00
 0.0000000000000E+00
 0.0000000000000E+00
 0.0000000000000E+00
 0.0000000000000E+00
 0.0000000000000E+00
 0.0000000000000E+00
 0.0000000000000E+00
 0.0000000000000E+00
 0.0000000000000E+00
 0.0000000000000E+00
 0.0000000000000E+00
 0.0000000000000E+00
 0.0000000000000E+00
 0.0000000000000E+00
 0.0000000000000E+00
 0.0000000000000E+00
 0.0000000000000E+00
 0.0000000000000E+00
 0.0000000000000E+00
 0.0000000000000E+00
 0.0000000000000E+00
 0.0000000000000E+00
 0.0000000000000E+00
 0.0000000000000E+00
 0.0000000000000E+00
 0.0000000000000E+00
 0.0000000000000E+00
 0.0000000000000E+00
 0.0000000000000E+00
 0.0000000000000E+00
 0.0000000000000E+00
 0.0000000000000E+00
 0.0000000000000E+00
 0.0000000000000E+00
 0.0000000000000E+00
 0.0000000000000E+00
 0.0000000000000E+00
 0.0000000000000E+00
 0.0000000000000E+00
 0.0000000000000E+00
 0.0000000000000E+00
 0.0000000000000E+00
 0.0000000000000E+00
 0.0000000000000E+00
 0.0000000000000E+00
 0.0000000000000E+00
 0.0000000000000E+00
 0.0000000000000E+00
 0.0000000000000E+00
 0.0000000000000E+00
 0.0000000000000E+00
 0.0000000000000E+00
 0.0000000000000E+00
 0.0000000000000E+00
 0.0000000000000E+00
 0.0000000000000E+00
 0.0000000000000E+00
 0.0000000000000E+00
 0.0000000000000E+00
 0.0000000000000E+00
 0.0000000000000E+00
 0.0000000000000E+00
 0.0000000000000E+00
 0.0000000000000E+00
 0.0000000000000E+00
 0.0000000000000E+00
 0.0000000000000E+00
 0.0000000000000E+00
 0.0000000000000E+00
 0.0000000000000E+00
 0.0000000000000E+00
 0.0000000000000E+00
 0.0000000000000E+00
 0.0000000000000E+00
 0.0000000000000E+00
 0.0000000000000E+00
 0.0000000000000E+00
 0.0000000000000E+00
 0.0000000000000E+00
 0.0000000000000E+00
 0.0000000000000E+00
 0.0000000000000E+00
 0.0000000000000E+00
 0.0000000000000E+00
 0.0000000000000E+00
 0.0000000000000E+00
 0.0000000000000E+00
 0.0000000000000E+00
 0.0000000000000E+00
 0.0000000000000E+00
 0.0000000000000E+00
 0.0000000000000E+00
 0.0000000000000E+00
 0.0000000000000E+00
 0.0000000000000E+00
 0.0000000000000E+00
 0.0000000000000E+00
 0.0000000000000E+00
 0.0000000000000E+00
 0.0000000000000E+00
 0.0000000000000E+00
 0.0000000000000E+00
 0.0000000000000E+00
 0.0000000000000E+00
 0.0000000000000E+00
 0.0000000000000E+00
 0.0000000000000E+00
 0.0000000000000E+00
 0.0000000000000E+00
 0.0000000000000E+00
 0.0000000000000E+00
 0.0000000000000E+00
 0.0000000000000E+00
 0.0000000000000E+00
 0.0000000000000E+00
 0.0000000000000E+00
 0.0000000000000E+00
 0.0000000000000E+00
 0.0000000000000E+00
 0.0000000000000E+00
 0.0000000000000E+00
 0.0000000000000E+00
 0.0000000000000E+00
 0.0000000000000E+00
 0.0000000000000E+00
 0.0000000000000E+00
 0.0000000000000E+00
 0.0000000000000E+00
 0.0000000000000E+00
 0.0000000000000E+00
 0.0000000000000E+00
 0.0000000000000E+00
 0.0000000000000E+00
 0.0000000000000E+00
 0.0000000000000E+00
 0.0000000000000E+00
 0.0000000000000E+00
 0.0000000000000E+00
 0.0000000000000E+00
 0.0000000000000E+00
 0.0000000000000E+00
 0.0000000000000E+00
 0.0000000000000E+00
 0.0000000000000E+00
 0.0000000000000E+00
 0.0000000000000E+00
 0.0000000000000E+00
 0.0000000000000E+00
 0.0000000000000E+00
 0.0000000000000E+00
 0.0000000000000E+00
 0.0000000000000E+00
 0.0000000000000E+00
 0.0000000000000E+00
 0.0000000000000E+00
 0.0000000000000E+00
 0.0000000000000E+00
 0.0000000000000E+00
 0.0000000000000E+00
 0.0000000000000E+00
 0.0000000000000E+00
 0.0000000000000E+00
 0.0000000000000E+00
 0.0000000000000E+00
 0.0000000000000E+00
 0.0000000000000E+00
 0.0000000000000E+00
 0.0000000000000E+00
 0.0000000000000E+00
 0.0000000000000E+00
 0.0000000000000E+00
 0.0000000000000E+00
 0.0000000000000E+00
 0.0000000000000E+00
 0.0000000000000E+00
 0.0000000000000E+00
 0.0000000000000E+00
 0.0000000000000E+00
 0.0000000000000E+00
 0.0000000000000E+00
 0.0000000000000E+00
 0.0000000000000E+00
 0.0000000000000E+00
 0.0000000000000E+00
 0.0000000000000E+00
 0.0000000000000E+00
 0.0000000000000E+00
 0.0000000000000E+00
 0.0000000000000E+00
 0.0000000000000E+00
 0.0000000000000E+00
 0.0000000000000E+00
 0.0000000000000E+00
 0.0000000000000E+00
 0.0000000000000E+00
 0.0000000000000E+00
 0.0000000000000E+00
 0.0000000000000E+00
 0.0000000000000E+00
 0.0000000000000E+00
 0.0000000000000E+00
 0.0000000000000E+00
 0.0000000000000E+00
 0.0000000000000E+00
 0.0000000000000E+00
 0.0000000000000E+00
 0.0000000000000E+00
 0.0000000000000E+00
 0.0000000000000E+00
 0.0000000000000E+00
 0.0000000000000E+00
 0.0000000000000E+00
 0.0000000000000E+00
 0.0000000000000E+00
 0.0000000000000E+00
 0.0000000000000E+00
 0.0000000000000E+00
 0.0000000000000E+00
 0.0000000000000E+00
 0.0000000000000E+00
 0.0000000000000E+00
 0.0000000000000E+00
 0.0000000000000E+00
 0.0000000000000E+00
 0.0000000000000E+00
 0.0000000000000E+00
 0.0000000000000E+00
 0.0000000000000E+00
 0.0000000000000E+00
 0.0000000000000E+00
 0.0000000000000E+00
 0.0000000000000E+00
 0.0000000000000E+00
 0.0000000000000E+00
 0.0000000000000E+00
 0.0000000000000E+00
 0.0000000000000E+00
 0.0000000000000E+00
 0.0000000000000E+00
 0.0000000000000E+00
 0.0000000000000E+00
 0.0000000000000E+00
 0.0000000000000E+00
 0.0000000000000E+00
 0.0000000000000E+00
 0.0000000000000E+00
 0.0000000000000E+00
 0.0000000000000E+00
 0.0000000000000E+00
 0.0000000000000E+00
 0.0000000000000E+00
 0.0000000000000E+00
 0.0000000000000E+00
 0.0000000000000E+00
 0.0000000000000E+00
 0.0000000000000E+00
 0.0000000000000E+00
 0.0000000000000E+00
 0.0000000000000E+00
 0.0000000000000E+00
 0.0000000000000E+00
 0.0000000000000E+00
 0.0000000000000E+00
 0.0000000000000E+00
 0.0000000000000E+00
 0.0000000000000E+00
 0.0000000000000E+00
 0.0000000000000E+00
 0.0000000000000E+00
 0.0000000000000E+00
 0.0000000000000E+00
 0.0000000000000E+00
 0.0000000000000E+00
 0.0000000000000E+00
 0.0000000000000E+00
 0.0000000000000E+00
 0.0000000000000E+00
 0.0000000000000E+00
 0.0000000000000E+00
 0.0000000000000E+00
 0.0000000000000E+00
 0.0000000000000E+00
 0.0000000000000E+00
 0.0000000000000E+00
 0.0000000000000E+00
 0.0000000000000E+00
 0.0000000000000E+00
 0.0000000000000E+00
 0.0000000000000E+00
 0.0000000000000E+00
 0.0000000000000E+00
 0.0000000000000E+00
 0.0000000000000E+00
 0.0000000000000E+00
 0.0000000000000E+00
 0.0000000000000E+00
 0.0000000000000E+00
 0.0000000000000E+00
 0.0000000000000E+00
 0.0000000000000E+00
 0.0000000000000E+00
 0.0000000000000E+00
 0.0000000000000E+00
 0.0000000000000E+00
 0.0000000000000E+00
 0.0000000000000E+00
 0.0000000000000E+00
 0.0000000000000E+00
 0.0000000000000E+00
 0.0000000000000E+00
 0.0000000000000E+00
 0.0000000000000E+00
 0.0000000000000E+00
 0.0000000000000E+00
 0.0000000000000E+00
 0.0000000000000E+00
 0.0000000000000E+00
 0.0000000000000E+00
 0.0000000000000E+00
 0.0000000000000E+00
 0.0000000000000E+00
 0.0000000000000E+00
 0.0000000000000E+00
 0.0000000000000E+00
 0.0000000000000E+00
 0.0000000000000E+00
 0.0000000000000E+00
 0.0000000000000E+00
 0.0000000000000E+00
 0.0000000000000E+00
 0.0000000000000E+00
 0.0000000000000E+00
 0.0000000000000E+00
 0.0000000000000E+00
 0.0000000000000E+00
 0.0000000000000E+00
 0.0000000000000E+00
 0.0000000000000E+00
 0.0000000000000E+00
 0.0000000000000E+00
 0.0000000000000E+00
 0.0000000000000E+00
 0.0000000000000E+00
 0.0000000000000E+00
 0.0000000000000E+00
 0.0000000000000E+00
 0.0000000000000E+00
 0.0000000000000E+00
 0.0000000000000E+00
 0.0000000000000E+00
 0.0000000000000E+00
 0.0000000000000E+00
 0.0000000000000E+00
 0.0000000000000E+00
 0.0000000000000E+00
 0.0000000000000E+00
 0.0000000000000E+00
 0.0000000000000E+00
 0.0000000000000E+00
 0.0000000000000E+00
 0.0000000000000E+00
 0.0000000000000E+00
 0.0000000000000E+00
 0.0000000000000E+00
 0.0000000000000E+00
 0.0000000000000E+00
 0.0000000000000E+00
 0.0000000000000E+00
 0.0000000000000E+00
 0.0000000000000E+00
 0.0000000000000E+00
 0.0000000000000E+00
 0.0000000000000E+00
 0.0000000000000E+00
 0.0000000000000E+00
 0.0000000000000E+00
 0.0000000000000E+00
 0.0000000000000E+00
 0.0000000000000E+00
 0.0000000000000E+00
 0.0000000000000E+00
 0.0000000000000E+00
 0.0000000000000E+00
 0.0000000000000E+00
 0.0000000000000E+00
 0.0000000000000E+00
 0.0000000000000E+00
 0.0000000000000E+00
 0.0000000000000E+00
 0.0000000000000E+00
 0.0000000000000E+00
 0.0000000000000E+00
 0.0000000000000E+00
 0.0000000000000E+00
 0.0000000000000E+00
 0.0000000000000E+00
 0.0000000000000E+00
 0.0000000000000E+00
 0.0000000000000E+00
 0.0000000000000E+00
 0.0000000000000E+00
 0.0000000000000E+00
 0.0000000000000E+00
 0.0000000000000E+00
 0.0000000000000E+00
 0.0000000000000E+00
 0.0000000000000E+00
 0.0000000000000E+00
 0.0000000000000E+00
 0.0000000000000E+00
 0.0000000000000E+00
 0.0000000000000E+00
 0.0000000000000E+00
 0.0000000000000E+00
 0.0000000000000E+00
 0.0000000000000E+00
 0.0000000000000E+00
 0.0000000000000E+00
 0.0000000000000E+00
 0.0000000000000E+00
 0.0000000000000E+00
 0.0000000000000E+00
 0.0000000000000E+00
 0.0000000000000E+00
 0.0000000000000E+00
 0.0000000000000E+00
 0.0000000000000E+00
 0.0000000000000E+00
 0.0000000000000E+00
 0.0000000000000E+00
 0.0000000000000E+00
 0.0000000000000E+00
 0.0000000000000E+00
 0.0000000000000E+00
 0.0000000000000E+00
 0.0000000000000E+00
 0.0000000000000E+00
 0.0000000000000E+00
 0.0000000000000E+00
 0.0000000000000E+00
 0.0000000000000E+00
 0.0000000000000E+00
 0.0000000000000E+00
 0.0000000000000E+00
 0.0000000000000E+00
 0.0000000000000E+00
 0.0000000000000E+00
 0.0000000000000E+00
 0.0000000000000E+00
 0.0000000000000E+00
 0.0000000000000E+00
 0.0000000000000E+00
 0.0000000000000E+00
 0.0000000000000E+00
 0.0000000000000E+00
 0.0000000000000E+00
 0.0000000000000E+00
 0.0000000000000E+00
 0.0000000000000E+00
 0.0000000000000E+00
 0.0000000000000E+00
 0.0000000000000E+00
 0.0000000000000E+00
 0.0000000000000E+00
 0.0000000000000E+00
 0.0000000000000E+00
 0.0000000000000E+00
 0.0000000000000E+00
 0.0000000000000E+00
 0.0000000000000E+00
 0.0000000000000E+00
 0.0000000000000E+00
 0.0000000000000E+00
 0.0000000000000E+00
 0.0000000000000E+00
 0.0000000000000E+00
 0.0000000000000E+00
 0.0000000000000E+00
 0.0000000000000E+00
 0.0000000000000E+00
 0.0000000000000E+00
 0.0000000000000E+00
 0.0000000000000E+00
 0.0000000000000E+00
 0.0000000000000E+00
 0.0000000000000E+00
 0.0000000000000E+00
 0.0000000000000E+00
 0.0000000000000E+00
 0.0000000000000E+00
 0.0000000000000E+00
 0.0000000000000E+00
 0.0000000000000E+00
 0.0000000000000E+00
 0.0000000000000E+00
 0.0000000000000E+00
 0.0000000000000E+00
 0.0000000000000E+00
 0.0000000000000E+00
 0.0000000000000E+00
 0.0000000000000E+00
 0.0000000000000E+00
 0.0000000000000E+00
 0.0000000000000E+00
 0.0000000000000E+00
 0.0000000000000E+00
 0.0000000000000E+00
 0.0000000000000E+00
 0.0000000000000E+00
 0.0000000000000E+00
 0.0000000000000E+00
 0.0000000000000E+00
 0.0000000000000E+00
 0.0000000000000E+00
 0.0000000000000E+00
 0.0000000000000E+00
 0.0000000000000E+00
 0.0000000000000E+00
 0.0000000000000E+00
 0.0000000000000E+00
 0.0000000000000E+00
 0.0000000000000E+00
 0.0000000000000E+00
 0.0000000000000E+00
 0.0000000000000E+00
 0.0000000000000E+00
 0.0000000000000E+00
 0.0000000000000E+00
 0.0000000000000E+00
 0.0000000000000E+00
 0.0000000000000E+00
 0.0000000000000E+00
 0.0000000000000E+00
 0.0000000000000E+00
 0.0000000000000E+00
 0.0000000000000E+00
 0.0000000000000E+00
 0.0000000000000E+00
 0.0000000000000E+00
 0.0000000000000E+00
 0.0000000000000E+00
 0.0000000000000E+00
 0.0000000000000E+00
 0.0000000000000E+00
 0.0000000000000E+00
 0.0000000000000E+00
 0.0000000000000E+00
 0.0000000000000E+00
 0.0000000000000E+00
 0.0000000000000E+00
 0.0000000000000E+00
 0.0000000000000E+00
 0.0000000000000E+00
 0.0000000000000E+00
 0.0000000000000E+00
 0.0000000000000E+00
 0.0000000000000E+00
 0.0000000000000E+00
 0.0000000000000E+00
 0.0000000000000E+00
 0.0000000000000E+00
 0.0000000000000E+00
 0.0000000000000E+00
 0.0000000000000E+00
 0.0000000000000E+00
 0.0000000000000E+00
 0.0000000000000E+00
 0.0000000000000E+00
 0.0000000000000E+00
 0.0000000000000E+00
 0.0000000000000E+00
 0.0000000000000E+00
 0.0000000000000E+00
 0.0000000000000E+00
 0.0000000000000E+00
 0.0000000000000E+00
 0.0000000000000E+00
 0.0000000000000E+00
 0.0000000000000E+00
 0.0000000000000E+00
 0.0000000000000E+00
 0.0000000000000E+00
 0.0000000000000E+00
 0.0000000000000E+00
 0.0000000000000E+00
 0.0000000000000E+00
 0.0000000000000E+00
 0.0000000000000E+00
 0.0000000000000E+00
 0.0000000000000E+00
 0.0000000000000E+00
 0.0000000000000E+00
 0.0000000000000E+00
 0.0000000000000E+00
 0.0000000000000E+00
 0.0000000000000E+00
 0.0000000000000E+00
 0.0000000000000E+00
 0.0000000000000E+00
 0.0000000000000E+00
 0.0000000000000E+00
 0.0000000000000E+00
 0.0000000000000E+00
 0.0000000000000E+00
 0.0000000000000E+00
 0.0000000000000E+00
 0.0000000000000E+00
 0.0000000000000E+00
 0.0000000000000E+00
 0.0000000000000E+00
 0.0000000000000E+00
 0.0000000000000E+00
 0.0000000000000E+00
 0.0000000000000E+00
 0.0000000000000E+00
 0.0000000000000E+00
 0.0000000000000E+00
 0.0000000000000E+00
 0.0000000000000E+00
 0.0000000000000E+00
 0.0000000000000E+00
 0.0000000000000E+00
 0.0000000000000E+00
 0.0000000000000E+00
 0.0000000000000E+00
 0.0000000000000E+00
 0.0000000000000E+00
 0.0000000000000E+00
 0.0000000000000E+00
 0.0000000000000E+00
 0.0000000000000E+00
 0.0000000000000E+00
 0.0000000000000E+00
 0.0000000000000E+00
 0.0000000000000E+00
 0.0000000000000E+00
 0.0000000000000E+00
 0.0000000000000E+00
 0.0000000000000E+00
 0.0000000000000E+00
 0.0000000000000E+00
 0.0000000000000E+00
 0.0000000000000E+00
 0.0000000000000E+00
 0.0000000000000E+00
 0.0000000000000E+00
 0.0000000000000E+00
 0.0000000000000E+00
 0.0000000000000E+00
 0.0000000000000E+00
 0.0000000000000E+00
 0.0000000000000E+00
 0.0000000000000E+00
 0.0000000000000E+00
 0.0000000000000E+00
 0.0000000000000E+00
 0.0000000000000E+00
 0.0000000000000E+00
 0.0000000000000E+00
 0.0000000000000E+00
 0.0000000000000E+00
 0.0000000000000E+00
 0.0000000000000E+00
 0.0000000000000E+00
 0.0000000000000E+00
 0.0000000000000E+00
 0.0000000000000E+00
 0.0000000000000E+00
 0.0000000000000E+00
 0.0000000000000E+00
 0.0000000000000E+00
 0.0000000000000E+00
 0.0000000000000E+00
 0.0000000000000E+00
 0.0000000000000E+00
 0.0000000000000E+00
 0.0000000000000E+00
 0.0000000000000E+00
 0.0000000000000E+00
 0.0000000000000E+00
 0.0000000000000E+00
 0.0000000000000E+00
 0.0000000000000E+00
 0.0000000000000E+00
 0.0000000000000E+00
 0.0000000000000E+00
 0.0000000000000E+00
 0.0000000000000E+00
 0.0000000000000E+00
 0.0000000000000E+00
 0.0000000000000E+00
 0.0000000000000E+00
 0.0000000000000E+00
 0.0000000000000E+00
 0.0000000000000E+00
 0.0000000000000E+00
 0.0000000000000E+00
 0.0000000000000E+00
 0.0000000000000E+00
 0.0000000000000E+00
 0.0000000000000E+00
 0.0000000000000E+00
 0.0000000000000E+00
 0.0000000000000E+00
 0.0000000000000E+00
 0.0000000000000E+00
 0.0000000000000E+00
 0.0000000000000E+00
 0.0000000000000E+00
 0.0000000000000E+00
 0.0000000000000E+00
 0.0000000000000E+00
 0.0000000000000E+00
 0.0000000000000E+00
 0.0000000000000E+00
 0.0000000000000E+00
 0.0000000000000E+00
 0.0000000000000E+00
 0.0000000000000E+00
 0.0000000000000E+00
 0.0000000000000E+00
 0.0000000000000E+00
 0.0000000000000E+00
 0.0000000000000E+00
 0.0000000000000E+00
 0.0000000000000E+00
 0.0000000000000E+00
 0.0000000000000E+00
 0.0000000000000E+00
 0.0000000000000E+00
 0.0000000000000E+00
 0.0000000000000E+00
 0.0000000000000E+00
 0.0000000000000E+00
 0.0000000000000E+00
 0.0000000000000E+00
 0.0000000000000E+00
 0.0000000000000E+00
 0.0000000000000E+00
 0.0000000000000E+00
 0.0000000000000E+00
 0.0000000000000E+00
 0.0000000000000E+00
 0.0000000000000E+00
 0.0000000000000E+00
 0.0000000000000E+00
 0.0000000000000E+00
 0.0000000000000E+00
 0.0000000000000E+00
 0.0000000000000E+00
 0.0000000000000E+00
 0.0000000000000E+00
 0.0000000000000E+00
 0.0000000000000E+00
 0.0000000000000E+00
 0.0000000000000E+00
 0.0000000000000E+00
 0.0000000000000E+00
 0.0000000000000E+00
 0.0000000000000E+00
 0.0000000000000E+00
 0.0000000000000E+00
 0.0000000000000E+00
 0.0000000000000E+00
 0.0000000000000E+00
 0.0000000000000E+00
 0.0000000000000E+00
 0.0000000000000E+00
 0.0000000000000E+00
 0.0000000000000E+00
 0.0000000000000E+00
 0.0000000000000E+00
 0.0000000000000E+00
 0.0000000000000E+00
 0.0000000000000E+00
 0.0000000000000E+00
 0.0000000000000E+00
 0.0000000000000E+00
 0.0000000000000E+00
 0.0000000000000E+00
 0.0000000000000E+00
 0.0000000000000E+00
 0.0000000000000E+00
 0.0000000000000E+00
 0.0000000000000E+00
 0.0000000000000E+00
 0.0000000000000E+00
 0.0000000000000E+00
 0.0000000000000E+00
 0.0000000000000E+00
 0.0000000000000E+00
 0.0000000000000E+00
 0.0000000000000E+00
 0.0000000000000E+00
 0.0000000000000E+00
 0.0000000000000E+00
 0.0000000000000E+00
 0.0000000000000E+00
 0.0000000000000E+00
 0.0000000000000E+00
 0.0000000000000E+00
 0.0000000000000E+00
 0.0000000000000E+00
 0.0000000000000E+00
 0.0000000000000E+00
 0.0000000000000E+00
 0.0000000000000E+00
 0.0000000000000E+00
 0.0000000000000E+00
 0.0000000000000E+00
 0.0000000000000E+00
 0.0000000000000E+00
 0.0000000000000E+00
 0.0000000000000E+00
 0.0000000000000E+00
 0.0000000000000E+00
 0.0000000000000E+00
 0.0000000000000E+00
 0.0000000000000E+00
 0.0000000000000E+00
 0.0000000000000E+00
 0.0000000000000E+00
 0.0000000000000E+00
 0.0000000000000E+00
 0.0000000000000E+00
 0.0000000000000E+00
 0.0000000000000E+00
 0.0000000000000E+00
 0.0000000000000E+00
 0.0000000000000E+00
 0.0000000000000E+00
 0.0000000000000E+00
 0.0000000000000E+00
 0.0000000000000E+00
 0.0000000000000E+00
 0.0000000000000E+00
 0.0000000000000E+00
 0.0000000000000E+00
 0.0000000000000E+00
 0.0000000000000E+00
 0.0000000000000E+00
 0.0000000000000E+00
 0.0000000000000E+00
 0.0000000000000E+00
 0.0000000000000E+00
 0.0000000000000E+00
 0.0000000000000E+00
 0.0000000000000E+00
 0.0000000000000E+00
 0.0000000000000E+00
 0.0000000000000E+00
 0.0000000000000E+00
 0.0000000000000E+00
 0.0000000000000E+00
 0.0000000000000E+00
 0.0000000000000E+00
 0.0000000000000E+00
 0.0000000000000E+00
 0.0000000000000E+00
 0.0000000000000E+00
 0.0000000000000E+00
 0.0000000000000E+00
 0.0000000000000E+00
 0.0000000000000E+00
 0.0000000000000E+00
 0.0000000000000E+00
 0.0000000000000E+00
 0.0000000000000E+00
 0.0000000000000E+00
 0.0000000000000E+00
 0.0000000000000E+00
 0.0000000000000E+00
 0.0000000000000E+00
 0.0000000000000E+00
 0.0000000000000E+00
 0.0000000000000E+00
 0.0000000000000E+00
 0.0000000000000E+00
 0.0000000000000E+00
 0.0000000000000E+00
 0.0000000000000E+00
 0.0000000000000E+00
 0.0000000000000E+00
 0.0000000000000E+00
 0.0000000000000E+00
 0.0000000000000E+00
 0.0000000000000E+00
 0.0000000000000E+00
 0.0000000000000E+00
 0.0000000000000E+00
 0.0000000000000E+00
 0.0000000000000E+00
 0.0000000000000E+00
 0.0000000000000E+00
 0.0000000000000E+00
 0.0000000000000E+00
 0.0000000000000E+00
 0.0000000000000E+00
 0.0000000000000E+00
 0.0000000000000E+00
 0.0000000000000E+00
 0.0000000000000E+00
 0.0000000000000E+00
 0.0000000000000E+00
 0.0000000000000E+00
 0.0000000000000E+00
 0.0000000000000E+00
 0.0000000000000E+00
 0.0000000000000E+00
 0.0000000000000E+00
 0.0000000000000E+00
 0.0000000000000E+00
 0.0000000000000E+00
 0.0000000000000E+00
 0.0000000000000E+00
 0.0000000000000E+00
 0.0000000000000E+00
 0.0000000000000E+00
 0.0000000000000E+00
 0.0000000000000E+00
 0.0000000000000E+00
 0.0000000000000E+00
 0.0000000000000E+00
 0.0000000000000E+00
 0.0000000000000E+00
 0.0000000000000E+00
 0.0000000000000E+00
 0.0000000000000E+00
 0.0000000000000E+00
 0.0000000000000E+00
 0.0000000000000E+00
 0.0000000000000E+00
 0.0000000000000E+00
 0.0000000000000E+00
 0.0000000000000E+00
 0.0000000000000E+00
 0.0000000000000E+00
 0.0000000000000E+00
 0.0000000000000E+00
 0.0000000000000E+00
 0.0000000000000E+00
 0.0000000000000E+00
 0.0000000000000E+00
 0.0000000000000E+00
 0.0000000000000E+00
 0.0000000000000E+00
 0.0000000000000E+00
 0.0000000000000E+00
 0.0000000000000E+00
 0.0000000000000E+00
 0.0000000000000E+00
 0.0000000000000E+00
 0.0000000000000E+00
 0.0000000000000E+00
 0.0000000000000E+00
 0.0000000000000E+00
 0.0000000000000E+00
 0.0000000000000E+00
 0.0000000000000E+00
 0.0000000000000E+00
 0.0000000000000E+00
 0.0000000000000E+00
 0.0000000000000E+00
 0.0000000000000E+00
 0.0000000000000E+00
 0.0000000000000E+00
 0.0000000000000E+00
 0.0000000000000E+00
 0.0000000000000E+00
 0.0000000000000E+00
 0.0000000000000E+00
 0.0000000000000E+00
 0.0000000000000E+00
 0.0000000000000E+00
 0.0000000000000E+00
 0.0000000000000E+00
 0.0000000000000E+00
 0.0000000000000E+00
 0.0000000000000E+00
 0.0000000000000E+00
 0.0000000000000E+00
 0.0000000000000E+00
 0.0000000000000E+00
 0.0000000000000E+00
 0.0000000000000E+00
 0.0000000000000E+00
 0.0000000000000E+00
 0.0000000000000E+00
 0.0000000000000E+00
 0.0000000000000E+00
 0.0000000000000E+00
 0.0000000000000E+00
 0.0000000000000E+00
 0.0000000000000E+00
 0.0000000000000E+00
 0.0000000000000E+00
 0.0000000000000E+00
 0.0000000000000E+00
 0.0000000000000E+00
 0.0000000000000E+00
 0.0000000000000E+00
 0.0000000000000E+00
 0.0000000000000E+00
 0.0000000000000E+00
 0.0000000000000E+00
 0.0000000000000E+00
 0.0000000000000E+00
 0.0000000000000E+00
 0.0000000000000E+00
 0.0000000000000E+00
 0.0000000000000E+00
 0.0000000000000E+00
 0.0000000000000E+00
 0.0000000000000E+00
 0.0000000000000E+00
 0.0000000000000E+00
 0.0000000000000E+00
 0.0000000000000E+00
 0.0000000000000E+00
 0.0000000000000E+00
 0.0000000000000E+00
 0.0000000000000E+00
 0.0000000000000E+00
 0.0000000000000E+00
 0.0000000000000E+00
 0.0000000000000E+00
 0.0000000000000E+00
 0.0000000000000E+00
 0.0000000000000E+00
 0.0000000000000E+00
 0.0000000000000E+00
 0.0000000000000E+00
 0.0000000000000E+00
 0.0000000000000E+00
 0.0000000000000E+00
 0.0000000000000E+00
 0.0000000000000E+00
 0.0000000000000E+00
 0.0000000000000E+00
 0.0000000000000E+00
 0.0000000000000E+00
 0.0000000000000E+00
 0.0000000000000E+00
 0.0000000000000E+00
 0.0000000000000E+00
 0.0000000000000E+00
 0.0000000000000E+00
 0.0000000000000E+00
 0.0000000000000E+00
 0.0000000000000E+00
 0.0000000000000E+00
 0.0000000000000E+00
 0.0000000000000E+00
 0.0000000000000E+00
 0.0000000000000E+00
 0.0000000000000E+00
 0.0000000000000E+00
 0.0000000000000E+00
 0.0000000000000E+00
 0.0000000000000E+00
 0.0000000000000E+00
 0.0000000000000E+00
 0.0000000000000E+00
 0.0000000000000E+00
 0.0000000000000E+00
 0.0000000000000E+00
 0.0000000000000E+00
 0.0000000000000E+00
 0.0000000000000E+00
 0.0000000000000E+00
 0.0000000000000E+00
 0.0000000000000E+00
 0.0000000000000E+00
 0.0000000000000E+00
 0.0000000000000E+00
 0.0000000000000E+00
 0.0000000000000E+00
 0.0000000000000E+00
 0.0000000000000E+00
 0.0000000000000E+00
 0.0000000000000E+00
 0.0000000000000E+00
 0.0000000000000E+00
 0.0000000000000E+00
 0.0000000000000E+00
 0.0000000000000E+00
 0.0000000000000E+00
 0.0000000000000E+00
 0.0000000000000E+00
 0.0000000000000E+00
 0.0000000000000E+00
 0.0000000000000E+00
 0.0000000000000E+00
 0.0000000000000E+00
 0.0000000000000E+00
 0.0000000000000E+00
 0.0000000000000E+00
 0.0000000000000E+00
 0.0000000000000E+00
 0.0000000000000E+00
 0.0000000000000E+00
 0.0000000000000E+00
 0.0000000000000E+00
 0.0000000000000E+00
 0.0000000000000E+00
 0.0000000000000E+00
 0.0000000000000E+00
 0.0000000000000E+00
 0.0000000000000E+00
 0.0000000000000E+00
 0.0000000000000E+00
 0.0000000000000E+00
 0.0000000000000E+00
 0.0000000000000E+00
 0.0000000000000E+00
 0.0000000000000E+00
 0.0000000000000E+00
 0.0000000000000E+00
 0.0000000000000E+00
 0.0000000000000E+00
 0.0000000000000E+00
 0.0000000000000E+00
 0.0000000000000E+00
 0.0000000000000E+00
 0.0000000000000E+00
 0.0000000000000E+00
 0.0000000000000E+00
 0.0000000000000E+00
 0.0000000000000E+00
 0.0000000000000E+00
 0.0000000000000E+00
 0.0000000000000E+00
 0.0000000000000E+00
 0.0000000000000E+00
 0.0000000000000E+00
 0.0000000000000E+00
 0.0000000000000E+00
 0.0000000000000E+00
 0.0000000000000E+00
 0.0000000000000E+00
 0.0000000000000E+00
 0.0000000000000E+00
 0.0000000000000E+00
 0.0000000000000E+00
 0.0000000000000E+00
 0.0000000000000E+00
 0.0000000000000E+00
 0.0000000000000E+00
 0.0000000000000E+00
 0.0000000000000E+00
 0.0000000000000E+00
 0.0000000000000E+00
 0.0000000000000E+00
 0.0000000000000E+00
 0.0000000000000E+00
 0.0000000000000E+00
 0.0000000000000E+00
 0.0000000000000E+00
 0.0000000000000E+00
 0.0000000000000E+00
 0.0000000000000E+00
 0.0000000000000E+00
 0.0000000000000E+00
 0.0000000000000E+00
 0.0000000000000E+00
 0.0000000000000E+00
 0.0000000000000E+00
 0.0000000000000E+00
 0.0000000000000E+00
 0.0000000000000E+00
 0.0000000000000E+00
 0.0000000000000E+00
 0.0000000000000E+00
 0.0000000000000E+00
 0.0000000000000E+00
 0.0000000000000E+00
 0.0000000000000E+00
 0.0000000000000E+00
 0.0000000000000E+00
 0.0000000000000E+00
 0.0000000000000E+00
 0.0000000000000E+00
 0.0000000000000E+00
 0.0000000000000E+00
 0.0000000000000E+00
 0.0000000000000E+00
 0.0000000000000E+00
 0.0000000000000E+00
 0.0000000000000E+00
 0.0000000000000E+00
 0.0000000000000E+00
 0.0000000000000E+00
 0.0000000000000E+00
 0.0000000000000E+00
 0.0000000000000E+00
 0.0000000000000E+00
 0.0000000000000E+00
 0.0000000000000E+00
 0.0000000000000E+00
 0.0000000000000E+00
 0.0000000000000E+00
 0.0000000000000E+00
 0.0000000000000E+00
 0.0000000000000E+00
 0.0000000000000E+00
 0.0000000000000E+00
 0.0000000000000E+00
 0.0000000000000E+00
 0.0000000000000E+00
 0.0000000000000E+00
 0.0000000000000E+00
 0.0000000000000E+00
 0.0000000000000E+00
 0.0000000000000E+00
 0.0000000000000E+00
 0.0000000000000E+00
 0.0000000000000E+00
 0.0000000000000E+00
 0.0000000000000E+00
 0.0000000000000E+00
 0.0000000000000E+00
 0.0000000000000E+00
 0.0000000000000E+00
 0.0000000000000E+00
 0.0000000000000E+00
 0.0000000000000E+00
 0.0000000000000E+00
 0.0000000000000E+00
 0.0000000000000E+00
 0.0000000000000E+00
 0.0000000000000E+00
 0.0000000000000E+00
 0.0000000000000E+00
 0.0000000000000E+00
 0.0000000000000E+00
 0.0000000000000E+00
 0.0000000000000E+00
 0.0000000000000E+00
 0.0000000000000E+00
 0.0000000000000E+00
 0.0000000000000E+00
 0.0000000000000E+00
 0.0000000000000E+00
 0.0000000000000E+00
 0.0000000000000E+00
 0.0000000000000E+00
 0.0000000000000E+00
 0.0000000000000E+00
 0.0000000000000E+00
 0.0000000000000E+00
 0.0000000000000E+00
 0.0000000000000E+00
 0.0000000000000E+00
 0.0000000000000E+00
 0.0000000000000E+00
 0.0000000000000E+00
 0.0000000000000E+00
 0.0000000000000E+00
 0.0000000000000E+00
 0.0000000000000E+00
 0.0000000000000E+00
 0.0000000000000E+00
 0.0000000000000E+00
 0.0000000000000E+00
 0.0000000000000E+00
 0.0000000000000E+00
 0.0000000000000E+00
 0.0000000000000E+00
 0.0000000000000E+00
 0.0000000000000E+00
 0.0000000000000E+00
 0.0000000000000E+00
 0.0000000000000E+00
 0.0000000000000E+00
 0.0000000000000E+00
 0.0000000000000E+00
 0.0000000000000E+00
 0.0000000000000E+00
 0.0000000000000E+00
 0.0000000000000E+00
 0.0000000000000E+00
 0.0000000000000E+00
 0.0000000000000E+00
 0.0000000000000E+00
 0.0000000000000E+00
 0.0000000000000E+00
 0.0000000000000E+00
 0.0000000000000E+00
 0.0000000000000E+00
 0.0000000000000E+00
 0.0000000000000E+00
 0.0000000000000E+00
 0.0000000000000E+00
 0.0000000000000E+00
 0.0000000000000E+00
 0.0000000000000E+00
 0.0000000000000E+00
 0.0000000000000E+00
 0.0000000000000E+00
 0.0000000000000E+00
 0.0000000000000E+00
 0.0000000000000E+00
 0.0000000000000E+00
 0.0000000000000E+00
 0.0000000000000E+00
 0.0000000000000E+00
 0.0000000000000E+00
 0.0000000000000E+00
 0.0000000000000E+00
 0.0000000000000E+00
 0.0000000000000E+00
 0.0000000000000E+00
 0.0000000000000E+00
 0.0000000000000E+00
 0.0000000000000E+00
 0.0000000000000E+00
 0.0000000000000E+00
 0.0000000000000E+00
 0.0000000000000E+00
 0.0000000000000E+00
 0.0000000000000E+00
 0.0000000000000E+00
 0.0000000000000E+00
 0.0000000000000E+00
 0.0000000000000E+00
 0.0000000000000E+00
 0.0000000000000E+00
 0.0000000000000E+00
 0.0000000000000E+00
 0.0000000000000E+00
 0.0000000000000E+00
 0.0000000000000E+00
 0.0000000000000E+00
 0.0000000000000E+00
 0.0000000000000E+00
 0.0000000000000E+00
 0.0000000000000E+00
 0.0000000000000E+00
 0.0000000000000E+00
 0.0000000000000E+00
 0.0000000000000E+00
 0.0000000000000E+00
 0.0000000000000E+00
 0.0000000000000E+00
 0.0000000000000E+00
 0.0000000000000E+00
 0.0000000000000E+00
 0.0000000000000E+00
 0.0000000000000E+00
 0.0000000000000E+00
 0.0000000000000E+00
 0.0000000000000E+00
 0.0000000000000E+00
 0.0000000000000E+00
 0.0000000000000E+00
 0.0000000000000E+00
 0.0000000000000E+00
 0.0000000000000E+00
 0.0000000000000E+00
 0.0000000000000E+00
 0.0000000000000E+00
 0.0000000000000E+00
 0.0000000000000E+00
 0.0000000000000E+00
 0.0000000000000E+00
 0.0000000000000E+00
 0.0000000000000E+00
 0.0000000000000E+00
 0.0000000000000E+00
 0.0000000000000E+00
 0.0000000000000E+00
 0.0000000000000E+00
 0.0000000000000E+00
 0.0000000000000E+00
 0.0000000000000E+00
 0.0000000000000E+00
 0.0000000000000E+00
 0.0000000000000E+00
 0.0000000000000E+00
 0.0000000000000E+00
 0.0000000000000E+00
 0.0000000000000E+00
 0.0000000000000E+00
 0.0000000000000E+00
 0.0000000000000E+00
 0.0000000000000E+00
 0.0000000000000E+00
 0.0000000000000E+00
 0.0000000000000E+00
 0.0000000000000E+00
 0.0000000000000E+00
 0.0000000000000E+00
 0.0000000000000E+00
 0.0000000000000E+00
 0.0000000000000E+00
 0.0000000000000E+00
 0.0000000000000E+00
 0.0000000000000E+00
 0.0000000000000E+00
 0.0000000000000E+00
 0.0000000000000E+00
 0.0000000000000E+00
 0.0000000000000E+00
 0.0000000000000E+00
 0.0000000000000E+00
 0.0000000000000E+00
 0.0000000000000E+00
 0.0000000000000E+00
 0.0000000000000E+00
 0.0000000000000E+00
 0.0000000000000E+00
 0.0000000000000E+00
 0.0000000000000E+00
 0.0000000000000E+00
 0.0000000000000E+00
 0.0000000000000E+00
 0.0000000000000E+00
 0.0000000000000E+00
 0.0000000000000E+00
 0.0000000000000E+00
 0.0000000000000E+00
 0.0000000000000E+00
 0.0000000000000E+00
 0.0000000000000E+00
 0.0000000000000E+00
 0.0000000000000E+00
 0.0000000000000E+00
 0.0000000000000E+00
 0.0000000000000E+00
 0.0000000000000E+00
 0.0000000000000E+00
 0.0000000000000E+00
 0.0000000000000E+00
 0.0000000000000E+00
 0.0000000000000E+00
 0.0000000000000E+00
 0.0000000000000E+00
 0.0000000000000E+00
 0.0000000000000E+00
 0.0000000000000E+00
 0.0000000000000E+00
 0.0000000000000E+00
 0.0000000000000E+00
 0.0000000000000E+00
 0.0000000000000E+00
 0.0000000000000E+00
 0.0000000000000E+00
 0.0000000000000E+00
 0.0000000000000E+00
 0.0000000000000E+00
 0.0000000000000E+00
 0.0000000000000E+00
 0.0000000000000E+00
 0.0000000000000E+00
 0.0000000000000E+00
 0.0000000000000E+00
 0.0000000000000E+00
 0.0000000000000E+00
 0.0000000000000E+00
 0.0000000000000E+00
 0.0000000000000E+00
 0.0000000000000E+00
 0.0000000000000E+00
 0.0000000000000E+00
 0.0000000000000E+00
 0.0000000000000E+00
 0.0000000000000E+00
 0.0000000000000E+00
 0.0000000000000E+00
 0.0000000000000E+00
 0.0000000000000E+00
 0.0000000000000E+00
 0.0000000000000E+00
 0.0000000000000E+00
 0.0000000000000E+00
 0.0000000000000E+00
 0.0000000000000E+00
 0.0000000000000E+00
 0.0000000000000E+00
 0.0000000000000E+00
 0.0000000000000E+00
 0.0000000000000E+00
 0.0000000000000E+00
 0.0000000000000E+00
 0.0000000000000E+00
 0.0000000000000E+00
 0.0000000000000E+00
 0.0000000000000E+00
 0.0000000000000E+00
 0.0000000000000E+00
 0.0000000000000E+00
 0.0000000000000E+00
 0.0000000000000E+00
 0.0000000000000E+00
 0.0000000000000E+00
 0.0000000000000E+00
 0.0000000000000E+00
 0.0000000000000E+00
 0.0000000000000E+00
 0.0000000000000E+00
 0.0000000000000E+00
 0.0000000000000E+00
 0.0000000000000E+00
 0.0000000000000E+00
 0.0000000000000E+00
 0.0000000000000E+00
 0.0000000000000E+00
 0.0000000000000E+00
 0.0000000000000E+00
 0.0000000000000E+00
 0.0000000000000E+00
 0.0000000000000E+00
 0.0000000000000E+00
 0.0000000000000E+00
 0.0000000000000E+00
 0.0000000000000E+00
 0.0000000000000E+00
 0.0000000000000E+00
 0.0000000000000E+00
 0.0000000000000E+00
 0.0000000000000E+00
 0.0000000000000E+00
 0.0000000000000E+00
 0.0000000000000E+00
 0.0000000000000E+00
 0.0000000000000E+00
 0.0000000000000E+00
 0.0000000000000E+00
 0.0000000000000E+00
 0.0000000000000E+00
 0.0000000000000E+00
 0.0000000000000E+00
 0.0000000000000E+00
 0.0000000000000E+00
 0.0000000000000E+00
 0.0000000000000E+00
 0.0000000000000E+00
 0.0000000000000E+00
 0.0000000000000E+00
 0.0000000000000E+00
 0.0000000000000E+00
 0.0000000000000E+00
 0.0000000000000E+00
 0.0000000000000E+00
 0.0000000000000E+00
 0.0000000000000E+00
 0.0000000000000E+00
 0.0000000000000E+00
 0.0000000000000E+00
 0.0000000000000E+00
 0.0000000000000E+00
 0.0000000000000E+00
 0.0000000000000E+00
 0.0000000000000E+00
 0.0000000000000E+00
 0.0000000000000E+00
 0.0000000000000E+00
 0.0000000000000E+00
 0.0000000000000E+00
 0.0000000000000E+00
 0.0000000000000E+00
 0.0000000000000E+00
 0.0000000000000E+00
 0.0000000000000E+00
 0.0000000000000E+00
 0.0000000000000E+00
 0.0000000000000E+00
 0.0000000000000E+00
 0.0000000000000E+00
 0.0000000000000E+00
 0.0000000000000E+00
 0.0000000000000E+00
 0.0000000000000E+00
 0.0000000000000E+00
 0.0000000000000E+00
 0.0000000000000E+00
 0.0000000000000E+00
 0.0000000000000E+00
 0.0000000000000E+00
 0.0000000000000E+00
 0.0000000000000E+00
 0.0000000000000E+00
 0.0000000000000E+00
 0.0000000000000E+00
 0.0000000000000E+00
 0.0000000000000E+00
 0.0000000000000E+00
 0.0000000000000E+00
 0.0000000000000E+00
 0.0000000000000E+00
 0.0000000000000E+00
 0.0000000000000E+00
 0.0000000000000E+00
 0.0000000000000E+00
 0.0000000000000E+00
 0.0000000000000E+00
 0.0000000000000E+00
 0.0000000000000E+00
 0.0000000000000E+00
 0.0000000000000E+00
 0.0000000000000E+00
 0.0000000000000E+00
 0.0000000000000E+00
 0.0000000000000E+00
 0.0000000000000E+00
 0.0000000000000E+00
 0.0000000000000E+00
 0.0000000000000E+00
 0.0000000000000E+00
 0.0000000000000E+00
 0.0000000000000E+00
 0.0000000000000E+00
 0.0000000000000E+00
 0.0000000000000E+00
 0.0000000000000E+00
 0.0000000000000E+00
 0.0000000000000E+00
 0.0000000000000E+00
 0.0000000000000E+00
 0.0000000000000E+00
 0.0000000000000E+00
 0.0000000000000E+00
 0.0000000000000E+00
 0.0000000000000E+00
 0.0000000000000E+00
 0.0000000000000E+00
 0.0000000000000E+00
 0.0000000000000E+00
 0.0000000000000E+00
 0.0000000000000E+00
 0.0000000000000E+00
 0.0000000000000E+00
 0.0000000000000E+00
 0.0000000000000E+00
 0.0000000000000E+00
 0.0000000000000E+00
 0.0000000000000E+00
 0.0000000000000E+00
 0.0000000000000E+00
 0.0000000000000E+00
 0.0000000000000E+00
 0.0000000000000E+00
 0.0000000000000E+00
 0.0000000000000E+00
 0.0000000000000E+00
 0.0000000000000E+00
 0.0000000000000E+00
 0.0000000000000E+00
 0.0000000000000E+00
 0.0000000000000E+00
 0.0000000000000E+00
 0.0000000000000E+00
 0.0000000000000E+00
 0.0000000000000E+00
 0.0000000000000E+00
 0.0000000000000E+00
 0.0000000000000E+00
 0.0000000000000E+00
 0.0000000000000E+00
 0.0000000000000E+00
 0.0000000000000E+00
 0.0000000000000E+00
 0.0000000000000E+00
 0.0000000000000E+00
 0.0000000000000E+00
 0.0000000000000E+00
 0.0000000000000E+00
 0.0000000000000E+00
 0.0000000000000E+00
 0.0000000000000E+00
 0.0000000000000E+00
 0.0000000000000E+00
 0.0000000000000E+00
 0.0000000000000E+00
 0.0000000000000E+00
 0.0000000000000E+00
 0.0000000000000E+00
 0.0000000000000E+00
 0.0000000000000E+00
 0.0000000000000E+00
 0.0000000000000E+00
 0.0000000000000E+00
 0.0000000000000E+00
 0.0000000000000E+00
 0.0000000000000E+00
 0.0000000000000E+00
 0.0000000000000E+00
 0.0000000000000E+00
 0.0000000000000E+00
 0.0000000000000E+00
 0.0000000000000E+00
 0.0000000000000E+00
 0.0000000000000E+00
 0.0000000000000E+00
 0.0000000000000E+00
 0.0000000000000E+00
 0.0000000000000E+00
 0.0000000000000E+00
 0.0000000000000E+00
 0.0000000000000E+00
 0.0000000000000E+00
 0.0000000000000E+00
 0.0000000000000E+00
 0.0000000000000E+00
 0.0000000000000E+00
 0.0000000000000E+00
 0.0000000000000E+00
 0.0000000000000E+00
 0.0000000000000E+00
 0.0000000000000E+00
 0.0000000000000E+00
 0.0000000000000E+00
 0.0000000000000E+00
 0.0000000000000E+00
 0.0000000000000E+00
 0.0000000000000E+00
 0.0000000000000E+00
 0.0000000000000E+00
 0.0000000000000E+00
 0.0000000000000E+00
 0.0000000000000E+00
 0.0000000000000E+00
 0.0000000000000E+00
 0.0000000000000E+00
 0.0000000000000E+00
 0.0000000000000E+00
 0.0000000000000E+00
 0.0000000000000E+00
 0.0000000000000E+00
 0.0000000000000E+00
 0.0000000000000E+00
 0.0000000000000E+00
 0.0000000000000E+00
 0.0000000000000E+00
 0.0000000000000E+00
 0.0000000000000E+00
 0.0000000000000E+00
 0.0000000000000E+00
 0.0000000000000E+00
 0.0000000000000E+00
 0.0000000000000E+00
 0.0000000000000E+00
 0.0000000000000E+00
 0.0000000000000E+00
 0.0000000000000E+00
 0.0000000000000E+00
 0.0000000000000E+00
 0.0000000000000E+00
 0.0000000000000E+00
 0.0000000000000E+00
 0.0000000000000E+00
 0.0000000000000E+00
 0.0000000000000E+00
 0.0000000000000E+00
 0.0000000000000E+00
 0.0000000000000E+00
 0.0000000000000E+00
 0.0000000000000E+00
 0.0000000000000E+00
 0.0000000000000E+00
 0.0000000000000E+00
 0.0000000000000E+00
 0.0000000000000E+00
 0.0000000000000E+00
 0.0000000000000E+00
 0.0000000000000E+00
 0.0000000000000E+00
 0.0000000000000E+00
 0.0000000000000E+00
 0.0000000000000E+00
 0.0000000000000E+00
 0.0000000000000E+00
 0.0000000000000E+00
 0.0000000000000E+00
 0.0000000000000E+00
 0.0000000000000E+00
 0.0000000000000E+00
 0.0000000000000E+00
 0.0000000000000E+00
 0.0000000000000E+00
 0.0000000000000E+00
 0.0000000000000E+00
 0.0000000000000E+00
 0.0000000000000E+00
 0.0000000000000E+00
 0.0000000000000E+00
 0.0000000000000E+00
 0.0000000000000E+00
 0.0000000000000E+00
 0.0000000000000E+00
 0.0000000000000E+00
 0.0000000000000E+00
 0.0000000000000E+00
 0.0000000000000E+00
 0.0000000000000E+00
 0.0000000000000E+00
 0.0000000000000E+00
 0.0000000000000E+00
 0.0000000000000E+00
 0.0000000000000E+00
 0.0000000000000E+00
 0.0000000000000E+00
 0.0000000000000E+00
 0.0000000000000E+00
 0.0000000000000E+00
 0.0000000000000E+00
 0.0000000000000E+00
 0.0000000000000E+00
 0.0000000000000E+00
 0.0000000000000E+00
 0.0000000000000E+00
 0.0000000000000E+00
 0.0000000000000E+00
 0.0000000000000E+00
 0.0000000000000E+00
 0.0000000000000E+00
 0.0000000000000E+00
 0.0000000000000E+00
 0.0000000000000E+00
 0.0000000000000E+00
 0.0000000000000E+00
 0.0000000000000E+00
 0.0000000000000E+00
 0.0000000000000E+00
 0.0000000000000E+00
 0.0000000000000E+00
 0.0000000000000E+00
 0.0000000000000E+00
 0.0000000000000E+00
 0.0000000000000E+00
 0.0000000000000E+00
 0.0000000000000E+00
 0.0000000000000E+00
 0.0000000000000E+00
 0.0000000000000E+00
 0.0000000000000E+00
 0.0000000000000E+00
 0.0000000000000E+00
 0.0000000000000E+00
 0.0000000000000E+00
 0.0000000000000E+00
 0.0000000000000E+00
 0.0000000000000E+00
 0.0000000000000E+00
 0.0000000000000E+00
 0.0000000000000E+00
 0.0000000000000E+00
 0.0000000000000E+00
 0.0000000000000E+00
 0.0000000000000E+00
 0.0000000000000E+00
 0.0000000000000E+00
 0.0000000000000E+00
 0.0000000000000E+00
 0.0000000000000E+00
 0.0000000000000E+00
 0.0000000000000E+00
 0.0000000000000E+00
 0.0000000000000E+00
 0.0000000000000E+00
 0.0000000000000E+00
 0.0000000000000E+00
 0.0000000000000E+00
 0.0000000000000E+00
 0.0000000000000E+00
 0.0000000000000E+00
 0.0000000000000E+00
 0.0000000000000E+00
 0.0000000000000E+00
 0.0000000000000E+00
 0.0000000000000E+00
 0.0000000000000E+00
 0.0000000000000E+00
 0.0000000000000E+00
 0.0000000000000E+00
 0.0000000000000E+00
 0.0000000000000E+00
 0.0000000000000E+00
 0.0000000000000E+00
 0.0000000000000E+00
 0.0000000000000E+00
 0.0000000000000E+00
 0.0000000000000E+00
 0.0000000000000E+00
 0.0000000000000E+00
 0.0000000000000E+00
 0.0000000000000E+00
 0.0000000000000E+00
 0.0000000000000E+00
 0.0000000000000E+00
 0.0000000000000E+00
 0.0000000000000E+00
 0.0000000000000E+00
 0.0000000000000E+00
 0.0000000000000E+00
 0.0000000000000E+00
 0.0000000000000E+00
 0.0000000000000E+00
 0.0000000000000E+00
 0.0000000000000E+00
 0.0000000000000E+00
 0.0000000000000E+00
 0.0000000000000E+00
 0.0000000000000E+00
 0.0000000000000E+00
 0.0000000000000E+00
 0.0000000000000E+00
 0.0000000000000E+00
 0.0000000000000E+00
 0.0000000000000E+00
 0.0000000000000E+00
 0.0000000000000E+00
 0.0000000000000E+00
 0.0000000000000E+00
 0.0000000000000E+00
 0.0000000000000E+00
 0.0000000000000E+00
 0.0000000000000E+00
 0.0000000000000E+00
 0.0000000000000E+00
 0.0000000000000E+00
 0.0000000000000E+00
 0.0000000000000E+00
 0.0000000000000E+00
 0.0000000000000E+00
 0.0000000000000E+00
 0.0000000000000E+00
 0.0000000000000E+00
 0.0000000000000E+00
 0.0000000000000E+00
 0.0000000000000E+00
 0.0000000000000E+00
 0.0000000000000E+00
 0.0000000000000E+00
 0.0000000000000E+00
 0.0000000000000E+00
 0.0000000000000E+00
 0.0000000000000E+00
 0.0000000000000E+00
 0.0000000000000E+00
 0.0000000000000E+00
 0.0000000000000E+00
 0.0000000000000E+00
 0.0000000000000E+00
 0.0000000000000E+00
 0.0000000000000E+00
 0.0000000000000E+00
 0.0000000000000E+00
 0.0000000000000E+00
 0.0000000000000E+00
 0.0000000000000E+00
 0.0000000000000E+00
 0.0000000000000E+00
 0.0000000000000E+00
 0.0000000000000E+00
 0.0000000000000E+00
 0.0000000000000E+00
 0.0000000000000E+00
 0.0000000000000E+00
 0.0000000000000E+00
 0.0000000000000E+00
 0.0000000000000E+00
 0.0000000000000E+00
 0.0000000000000E+00
 0.0000000000000E+00
 0.0000000000000E+00
 0.0000000000000E+00
 0.0000000000000E+00
 0.0000000000000E+00
 0.0000000000000E+00
 0.0000000000000E+00
 0.0000000000000E+00
 0.0000000000000E+00
 0.0000000000000E+00
 0.0000000000000E+00
 0.0000000000000E+00
 0.0000000000000E+00
 0.0000000000000E+00
 0.0000000000000E+00
 0.0000000000000E+00
 0.0000000000000E+00
 0.0000000000000E+00
 0.0000000000000E+00
 0.0000000000000E+00
 0.0000000000000E+00
 0.0000000000000E+00
 0.0000000000000E+00
 0.0000000000000E+00
 0.0000000000000E+00
 0.0000000000000E+00
 0.0000000000000E+00
 0.0000000000000E+00
 0.0000000000000E+00
 0.0000000000000E+00
 0.0000000000000E+00
 0.0000000000000E+00
 0.0000000000000E+00
 0.0000000000000E+00
 0.0000000000000E+00
 0.0000000000000E+00
 0.0000000000000E+00
 0.0000000000000E+00
 0.0000000000000E+00
 0.0000000000000E+00
 0.0000000000000E+00
 0.0000000000000E+00
 0.0000000000000E+00
 0.0000000000000E+00
 0.0000000000000E+00
 0.0000000000000E+00
 0.0000000000000E+00
 0.0000000000000E+00
 0.0000000000000E+00
 0.0000000000000E+00
 0.0000000000000E+00
 0.0000000000000E+00
 0.0000000000000E+00
 0.0000000000000E+00
 0.0000000000000E+00
 0.0000000000000E+00
 0.0000000000000E+00
 0.0000000000000E+00
 0.0000000000000E+00
 0.0000000000000E+00
 0.0000000000000E+00
 0.0000000000000E+00
 0.0000000000000E+00
 0.0000000000000E+00
 0.0000000000000E+00
 0.0000000000000E+00
 0.0000000000000E+00
 0.0000000000000E+00
 0.0000000000000E+00
 0.0000000000000E+00
 0.0000000000000E+00
 0.0000000000000E+00
 0.0000000000000E+00
 0.0000000000000E+00
 0.0000000000000E+00
 0.0000000000000E+00
 0.0000000000000E+00
 0.0000000000000E+00
 0.0000000000000E+00
 0.0000000000000E+00
 0.0000000000000E+00
 0.0000000000000E+00
 0.0000000000000E+00
 0.0000000000000E+00
 0.0000000000000E+00
 0.0000000000000E+00
 0.0000000000000E+00
 0.0000000000000E+00
 0.0000000000000E+00
 0.0000000000000E+00
 0.0000000000000E+00
 0.0000000000000E+00
 0.0000000000000E+00
 0.0000000000000E+00
 0.0000000000000E+00
 0.0000000000000E+00
 0.0000000000000E+00
 0.0000000000000E+00
 0.0000000000000E+00
 0.0000000000000E+00
 0.0000000000000E+00
 0.0000000000000E+00
 0.0000000000000E+00
 0.0000000000000E+00
 0.0000000000000E+00
 0.0000000000000E+00
 0.0000000000000E+00
 0.0000000000000E+00
 0.0000000000000E+00
 0.0000000000000E+00
 0.0000000000000E+00
 0.0000000000000E+00
 0.0000000000000E+00
 0.0000000000000E+00
 0.0000000000000E+00
 0.0000000000000E+00
 0.0000000000000E+00
 0.0000000000000E+00
 0.0000000000000E+00
 0.0000000000000E+00
 0.0000000000000E+00
 0.0000000000000E+00
 0.0000000000000E+00
 0.0000000000000E+00
 0.0000000000000E+00
 0.0000000000000E+00
 0.0000000000000E+00
 0.0000000000000E+00
 0.0000000000000E+00
 0.0000000000000E+00
 0.0000000000000E+00
 0.0000000000000E+00
 0.0000000000000E+00
 0.0000000000000E+00
 0.0000000000000E+00
 0.0000000000000E+00
 0.0000000000000E+00
 0.0000000000000E+00
 0.0000000000000E+00
 0.0000000000000E+00
 0.0000000000000E+00
 0.0000000000000E+00
 0.0000000000000E+00
 0.0000000000000E+00
 0.0000000000000E+00
 0.0000000000000E+00
 0.0000000000000E+00
 0.0000000000000E+00
 0.0000000000000E+00
 0.0000000000000E+00
 0.0000000000000E+00
 0.0000000000000E+00
 0.0000000000000E+00
 0.0000000000000E+00
 0.0000000000000E+00
 0.0000000000000E+00
 0.0000000000000E+00
 0.0000000000000E+00
 0.0000000000000E+00
 0.0000000000000E+00
 0.0000000000000E+00
 0.0000000000000E+00
 0.0000000000000E+00
 0.0000000000000E+00
 0.0000000000000E+00
 0.0000000000000E+00
 0.0000000000000E+00
 0.0000000000000E+00
 0.0000000000000E+00
 0.0000000000000E+00
 0.0000000000000E+00
 0.0000000000000E+00
 0.0000000000000E+00
 0.0000000000000E+00
 0.0000000000000E+00
 0.0000000000000E+00
 0.0000000000000E+00
 0.0000000000000E+00
 0.0000000000000E+00
 0.0000000000000E+00
 0.0000000000000E+00
 0.0000000000000E+00
 0.0000000000000E+00
 0.0000000000000E+00
 0.0000000000000E+00
 0.0000000000000E+00
 0.0000000000000E+00
 0.0000000000000E+00
 0.0000000000000E+00
 0.0000000000000E+00
 0.0000000000000E+00
 0.0000000000000E+00
 0.0000000000000E+00
 0.0000000000000E+00
 0.0000000000000E+00
 0.0000000000000E+00
 0.0000000000000E+00
 0.0000000000000E+00
 0.0000000000000E+00
 0.0000000000000E+00
 0.0000000000000E+00
 0.0000000000000E+00
 0.0000000000000E+00
 0.0000000000000E+00
 0.0000000000000E+00
 0.0000000000000E+00
 0.0000000000000E+00
 0.0000000000000E+00
 0.0000000000000E+00
 0.0000000000000E+00
 0.0000000000000E+00
 0.0000000000000E+00
 0.0000000000000E+00
 0.0000000000000E+00
 0.0000000000000E+00
 0.0000000000000E+00
 0.0000000000000E+00
 0.0000000000000E+00
 0.0000000000000E+00
 0.0000000000000E+00
 0.0000000000000E+00
 0.0000000000000E+00
 0.0000000000000E+00
 0.0000000000000E+00
 0.0000000000000E+00
 0.0000000000000E+00
 0.0000000000000E+00
 0.0000000000000E+00
 0.0000000000000E+00
 0.0000000000000E+00
 0.0000000000000E+00
 0.0000000000000E+00
 0.0000000000000E+00
 0.0000000000000E+00
 0.0000000000000E+00
 0.0000000000000E+00
 0.0000000000000E+00
 0.0000000000000E+00
 0.0000000000000E+00
 0.0000000000000E+00
 0.0000000000000E+00
 0.0000000000000E+00
 0.0000000000000E+00
 0.0000000000000E+00
 0.0000000000000E+00
 0.0000000000000E+00
 0.0000000000000E+00
 0.0000000000000E+00
 0.0000000000000E+00
 0.0000000000000E+00
 0.0000000000000E+00
 0.0000000000000E+00
 0.0000000000000E+00
 0.0000000000000E+00
 0.0000000000000E+00
 0.0000000000000E+00
 0.0000000000000E+00
 0.0000000000000E+00
 0.0000000000000E+00
 0.0000000000000E+00
 0.0000000000000E+00
 0.0000000000000E+00
 0.0000000000000E+00
 0.0000000000000E+00
 0.0000000000000E+00
 0.0000000000000E+00
 0.0000000000000E+00
 0.0000000000000E+00
 0.0000000000000E+00
 0.0000000000000E+00
 0.0000000000000E+00
 0.0000000000000E+00
 0.0000000000000E+00
 0.0000000000000E+00
 0.0000000000000E+00
 0.0000000000000E+00
 0.0000000000000E+00
 0.0000000000000E+00
 0.0000000000000E+00
 0.0000000000000E+00
 0.0000000000000E+00
 0.0000000000000E+00
 0.0000000000000E+00
 0.0000000000000E+00
 0.0000000000000E+00
 0.0000000000000E+00
 0.0000000000000E+00
 0.0000000000000E+00
 0.0000000000000E+00
 0.0000000000000E+00
 0.0000000000000E+00
 0.0000000000000E+00
 0.0000000000000E+00
 0.0000000000000E+00
 0.0000000000000E+00
 0.0000000000000E+00
 0.0000000000000E+00
 0.0000000000000E+00
 0.0000000000000E+00
 0.0000000000000E+00
 0.0000000000000E+00
 0.0000000000000E+00
 0.0000000000000E+00
 0.0000000000000E+00
 0.0000000000000E+00
 0.0000000000000E+00
 0.0000000000000E+00
 0.0000000000000E+00
 0.0000000000000E+00
 0.0000000000000E+00
 0.0000000000000E+00
 0.0000000000000E+00
 0.0000000000000E+00
 0.0000000000000E+00
 0.0000000000000E+00
 0.0000000000000E+00
 0.0000000000000E+00
 0.0000000000000E+00
 0.0000000000000E+00
 0.0000000000000E+00
 0.0000000000000E+00
 0.0000000000000E+00
 0.0000000000000E+00
 0.0000000000000E+00
 0.0000000000000E+00
 0.0000000000000E+00
 0.0000000000000E+00
 0.0000000000000E+00
 0.0000000000000E+00
 0.0000000000000E+00
 0.0000000000000E+00
 0.0000000000000E+00
 0.0000000000000E+00
 0.0000000000000E+00
 0.0000000000000E+00
 0.0000000000000E+00
 0.0000000000000E+00
 0.0000000000000E+00
 0.0000000000000E+00
 0.0000000000000E+00
 0.0000000000000E+00
 0.0000000000000E+00
 0.0000000000000E+00
 0.0000000000000E+00
 0.0000000000000E+00
 0.0000000000000E+00
 0.0000000000000E+00
 0.0000000000000E+00
 0.0000000000000E+00
 0.0000000000000E+00
 0.0000000000000E+00
 0.0000000000000E+00
 0.0000000000000E+00
 0.0000000000000E+00
 0.0000000000000E+00
 0.0000000000000E+00
 0.0000000000000E+00
 0.0000000000000E+00
 0.0000000000000E+00
 0.0000000000000E+00
 0.0000000000000E+00
 0.0000000000000E+00
 0.0000000000000E+00
 0.0000000000000E+00
 0.0000000000000E+00
 0.0000000000000E+00
 0.0000000000000E+00
 0.0000000000000E+00
 0.0000000000000E+00
 0.0000000000000E+00
 0.0000000000000E+00
 0.0000000000000E+00
 0.0000000000000E+00
 0.0000000000000E+00
 0.0000000000000E+00
 0.0000000000000E+00
 0.0000000000000E+00
 0.0000000000000E+00
 0.0000000000000E+00
 0.0000000000000E+00
 0.0000000000000E+00
 0.0000000000000E+00
 0.0000000000000E+00
 0.0000000000000E+00
 0.0000000000000E+00
 0.0000000000000E+00
 0.0000000000000E+00
 0.0000000000000E+00
 0.0000000000000E+00
 0.0000000000000E+00
 0.0000000000000E+00
 0.0000000000000E+00
 0.0000000000000E+00
 0.0000000000000E+00
 0.0000000000000E+00
 0.0000000000000E+00
 0.0000000000000E+00
 0.0000000000000E+00
 0.0000000000000E+00
 0.0000000000000E+00
 0.0000000000000E+00
 0.0000000000000E+00
 0.0000000000000E+00
 0.0000000000000E+00
 0.0000000000000E+00
 0.0000000000000E+00
 0.0000000000000E+00
 0.0000000000000E+00
 0.0000000000000E+00
 0.0000000000000E+00
 0.0000000000000E+00
 0.0000000000000E+00
 0.0000000000000E+00
 0.0000000000000E+00
 0.0000000000000E+00
 0.0000000000000E+00
 0.0000000000000E+00
 0.0000000000000E+00
 0.0000000000000E+00
 0.0000000000000E+00
 0.0000000000000E+00
 0.0000000000000E+00
 0.0000000000000E+00
 0.0000000000000E+00
 0.0000000000000E+00
 0.0000000000000E+00
 0.0000000000000E+00
 0.0000000000000E+00
 0.0000000000000E+00
 0.0000000000000E+00
 0.0000000000000E+00
 0.0000000000000E+00
 0.0000000000000E+00
 0.0000000000000E+00
 0.0000000000000E+00
 0.0000000000000E+00
 0.0000000000000E+00
 0.0000000000000E+00
 0.0000000000000E+00
 0.0000000000000E+00
 0.0000000000000E+00
 0.0000000000000E+00
 0.0000000000000E+00
 0.0000000000000E+00
 0.0000000000000E+00
 0.0000000000000E+00
 0.0000000000000E+00
 0.0000000000000E+00
 0.0000000000000E+00
 0.0000000000000E+00
 0.0000000000000E+00
 0.0000000000000E+00
 0.0000000000000E+00
 0.0000000000000E+00
 0.0000000000000E+00
 0.0000000000000E+00
 0.0000000000000E+00
 0.0000000000000E+00
 0.0000000000000E+00
 0.0000000000000E+00
 0.0000000000000E+00
 0.0000000000000E+00
 0.0000000000000E+00
 0.0000000000000E+00
 0.0000000000000E+00
 0.0000000000000E+00
 0.0000000000000E+00
 0.0000000000000E+00
 0.0000000000000E+00
 0.0000000000000E+00
 0.0000000000000E+00
 0.0000000000000E+00
 0.0000000000000E+00
 0.0000000000000E+00
 0.0000000000000E+00
 0.0000000000000E+00
 0.0000000000000E+00
 0.0000000000000E+00
 0.0000000000000E+00
 0.0000000000000E+00
 0.0000000000000E+00
 0.0000000000000E+00
 0.0000000000000E+00
 0.0000000000000E+00
 0.0000000000000E+00
 0.0000000000000E+00
 0.0000000000000E+00
 0.0000000000000E+00
 0.0000000000000E+00
 0.0000000000000E+00
 0.0000000000000E+00
 0.0000000000000E+00
 0.0000000000000E+00
 0.0000000000000E+00
 0.0000000000000E+00
 0.0000000000000E+00
 0.0000000000000E+00
 0.0000000000000E+00
 0.0000000000000E+00
 0.0000000000000E+00
 0.0000000000000E+00
 0.0000000000000E+00
 0.0000000000000E+00
 0.0000000000000E+00
 0.0000000000000E+00
 0.0000000000000E+00
 0.0000000000000E+00
 0.0000000000000E+00
 0.0000000000000E+00
 0.0000000000000E+00
 0.0000000000000E+00
 0.0000000000000E+00
 0.0000000000000E+00
 0.0000000000000E+00
 0.0000000000000E+00
 0.0000000000000E+00
 0.0000000000000E+00
 0.0000000000000E+00
 0.0000000000000E+00
 0.0000000000000E+00
 0.0000000000000E+00
 0.0000000000000E+00
 0.0000000000000E+00
 0.0000000000000E+00
 0.0000000000000E+00
 0.0000000000000E+00
 0.0000000000000E+00
 0.0000000000000E+00
 0.0000000000000E+00
 0.0000000000000E+00
 0.0000000000000E+00
 0.0000000000000E+00
 0.0000000000000E+00
 0.0000000000000E+00
 0.0000000000000E+00
 0.0000000000000E+00
 0.0000000000000E+00
 0.0000000000000E+00
 0.0000000000000E+00
 0.0000000000000E+00
 0.0000000000000E+00
 0.0000000000000E+00
 0.0000000000000E+00
 0.0000000000000E+00
 0.0000000000000E+00
 0.0000000000000E+00
 0.0000000000000E+00
 0.0000000000000E+00
 0.0000000000000E+00
 0.0000000000000E+00
 0.0000000000000E+00
 0.0000000000000E+00
 0.0000000000000E+00
 0.0000000000000E+00
 0.0000000000000E+00
 0.0000000000000E+00
 0.0000000000000E+00
 0.0000000000000E+00
 0.0000000000000E+00
 0.0000000000000E+00
 0.0000000000000E+00
 0.0000000000000E+00
 0.0000000000000E+00
 0.0000000000000E+00
 0.0000000000000E+00
 0.0000000000000E+00
 0.0000000000000E+00
 0.0000000000000E+00
 0.0000000000000E+00
 0.0000000000000E+00
 0.0000000000000E+00
 0.0000000000000E+00
 0.0000000000000E+00
 0.0000000000000E+00
 0.0000000000000E+00
 0.0000000000000E+00
 0.0000000000000E+00
 0.0000000000000E+00
 0.0000000000000E+00
 0.0000000000000E+00
 0.0000000000000E+00
 0.0000000000000E+00
 0.0000000000000E+00
 0.0000000000000E+00
 0.0000000000000E+00
 0.0000000000000E+00
 0.0000000000000E+00
 0.0000000000000E+00
 0.0000000000000E+00
 0.0000000000000E+00
 0.0000000000000E+00
 0.0000000000000E+00
 0.0000000000000E+00
 0.0000000000000E+00
 0.0000000000000E+00
 0.0000000000000E+00
 0.0000000000000E+00
 0.0000000000000E+00
 0.0000000000000E+00
 0.0000000000000E+00
 0.0000000000000E+00
 0.0000000000000E+00
 0.0000000000000E+00
 0.0000000000000E+00
 0.0000000000000E+00
 0.0000000000000E+00
 0.0000000000000E+00
 0.0000000000000E+00
 0.0000000000000E+00
 0.0000000000000E+00
 0.0000000000000E+00
 0.0000000000000E+00
 0.0000000000000E+00
 0.0000000000000E+00
 0.0000000000000E+00
 0.0000000000000E+00
 0.0000000000000E+00
 0.0000000000000E+00
 0.0000000000000E+00
 0.0000000000000E+00
 0.0000000000000E+00
 0.0000000000000E+00
 0.0000000000000E+00
 0.0000000000000E+00
 0.0000000000000E+00
 0.0000000000000E+00
 0.0000000000000E+00
 0.0000000000000E+00
 0.0000000000000E+00
 0.0000000000000E+00
 0.0000000000000E+00
 0.0000000000000E+00
 0.0000000000000E+00
 0.0000000000000E+00
 0.0000000000000E+00
 0.0000000000000E+00
 0.0000000000000E+00
 0.0000000000000E+00
 0.0000000000000E+00
 0.0000000000000E+00
 0.0000000000000E+00
 0.0000000000000E+00
 0.0000000000000E+00
 0.0000000000000E+00
 0.0000000000000E+00
 0.0000000000000E+00
 0.0000000000000E+00
 0.0000000000000E+00
 0.0000000000000E+00
 0.0000000000000E+00
 0.0000000000000E+00
 0.0000000000000E+00
 0.0000000000000E+00
 0.0000000000000E+00
 0.0000000000000E+00
 0.0000000000000E+00
 0.0000000000000E+00
 0.0000000000000E+00
 0.0000000000000E+00
 0.0000000000000E+00
 0.0000000000000E+00
 0.0000000000000E+00
 0.0000000000000E+00
 0.0000000000000E+00
 0.0000000000000E+00
 0.0000000000000E+00
 0.0000000000000E+00
 0.0000000000000E+00
 0.0000000000000E+00
 0.0000000000000E+00
 0.0000000000000E+00
 0.0000000000000E+00
 0.0000000000000E+00
 0.0000000000000E+00
 0.0000000000000E+00
 0.0000000000000E+00
 0.0000000000000E+00
 0.0000000000000E+00
 0.0000000000000E+00
 0.0000000000000E+00
 0.0000000000000E+00
 0.0000000000000E+00
 0.0000000000000E+00
 0.0000000000000E+00
 0.0000000000000E+00
 0.0000000000000E+00
 0.0000000000000E+00
 0.0000000000000E+00
 0.0000000000000E+00
 0.0000000000000E+00
 0.0000000000000E+00
 0.0000000000000E+00
 0.0000000000000E+00
 0.0000000000000E+00
 0.0000000000000E+00
 0.0000000000000E+00
 0.0000000000000E+00
 0.0000000000000E+00
 0.0000000000000E+00
 0.0000000000000E+00
 0.0000000000000E+00
 0.0000000000000E+00
 0.0000000000000E+00
 0.0000000000000E+00
 0.0000000000000E+00
 0.0000000000000E+00
 0.0000000000000E+00
 0.0000000000000E+00
 0.0000000000000E+00
 0.0000000000000E+00
 0.0000000000000E+00
 0.0000000000000E+00
 0.0000000000000E+00
 0.0000000000000E+00
 0.0000000000000E+00
 0.0000000000000E+00
 0.0000000000000E+00
 0.0000000000000E+00
 0.0000000000000E+00
 0.0000000000000E+00
 0.0000000000000E+00
 0.0000000000000E+00
 0.0000000000000E+00
 0.0000000000000E+00
 0.0000000000000E+00
 0.0000000000000E+00
 0.0000000000000E+00
 0.0000000000000E+00
 0.0000000000000E+00
 0.0000000000000E+00
 0.0000000000000E+00
 0.0000000000000E+00
 0.0000000000000E+00
 0.0000000000000E+00
 0.0000000000000E+00
 0.0000000000000E+00
 0.0000000000000E+00
 0.0000000000000E+00
 0.0000000000000E+00
 0.0000000000000E+00
 0.0000000000000E+00
 0.0000000000000E+00
 0.0000000000000E+00
 0.0000000000000E+00
 0.0000000000000E+00
 0.0000000000000E+00
 0.0000000000000E+00
 0.0000000000000E+00
 0.0000000000000E+00
 0.0000000000000E+00
 0.0000000000000E+00
 0.0000000000000E+00
 0.0000000000000E+00
 0.0000000000000E+00
 0.0000000000000E+00
 0.0000000000000E+00
 0.0000000000000E+00
 0.0000000000000E+00
 0.0000000000000E+00
 0.0000000000000E+00
 0.0000000000000E+00
 0.0000000000000E+00
 0.0000000000000E+00
 0.0000000000000E+00
 0.0000000000000E+00
 0.0000000000000E+00
 0.0000000000000E+00
 0.0000000000000E+00
 0.0000000000000E+00
 0.0000000000000E+00
 0.0000000000000E+00
 0.0000000000000E+00
 0.0000000000000E+00
 0.0000000000000E+00
 0.0000000000000E+00
 0.0000000000000E+00
 0.0000000000000E+00
 0.0000000000000E+00
 0.0000000000000E+00
 0.0000000000000E+00
 0.0000000000000E+00
 0.0000000000000E+00
 0.0000000000000E+00
 0.0000000000000E+00
 0.0000000000000E+00
 0.0000000000000E+00
 0.0000000000000E+00
 0.0000000000000E+00
 0.0000000000000E+00
 0.0000000000000E+00
 0.0000000000000E+00
 0.0000000000000E+00
 0.0000000000000E+00
 0.0000000000000E+00
 0.0000000000000E+00
 0.0000000000000E+00
 0.0000000000000E+00
 0.0000000000000E+00
 0.0000000000000E+00
 0.0000000000000E+00
 0.0000000000000E+00
 0.0000000000000E+00
 0.0000000000000E+00
 0.0000000000000E+00
 0.0000000000000E+00
 0.0000000000000E+00
 0.0000000000000E+00
 0.0000000000000E+00
 0.0000000000000E+00
 0.0000000000000E+00
 0.0000000000000E+00
 0.0000000000000E+00
 0.0000000000000E+00
 0.0000000000000E+00
 0.0000000000000E+00
 0.0000000000000E+00
 0.0000000000000E+00
 0.0000000000000E+00
 0.0000000000000E+00
 0.0000000000000E+00
 0.0000000000000E+00
 0.0000000000000E+00
 0.0000000000000E+00
 0.0000000000000E+00
 0.0000000000000E+00
 0.0000000000000E+00
 0.0000000000000E+00
 0.0000000000000E+00
 0.0000000000000E+00
 0.0000000000000E+00
 0.0000000000000E+00
 0.0000000000000E+00
 0.0000000000000E+00
 0.0000000000000E+00
 0.0000000000000E+00
 0.0000000000000E+00
 0.0000000000000E+00
 0.0000000000000E+00
 0.0000000000000E+00
 0.0000000000000E+00
 0.0000000000000E+00
 0.0000000000000E+00
 0.0000000000000E+00
 0.0000000000000E+00
 0.0000000000000E+00
 0.0000000000000E+00
 0.0000000000000E+00
 0.0000000000000E+00
 0.0000000000000E+00
 0.0000000000000E+00
 0.0000000000000E+00
 0.0000000000000E+00
 0.0000000000000E+00
 0.0000000000000E+00
 0.0000000000000E+00
 0.0000000000000E+00
 0.0000000000000E+00
 0.0000000000000E+00
 0.0000000000000E+00
 0.0000000000000E+00
 0.0000000000000E+00
 0.0000000000000E+00
 0.0000000000000E+00
 0.0000000000000E+00
 0.0000000000000E+00
 0.0000000000000E+00
 0.0000000000000E+00
 0.0000000000000E+00
 0.0000000000000E+00
 0.0000000000000E+00
 0.0000000000000E+00
 0.0000000000000E+00
 0.0000000000000E+00
 0.0000000000000E+00
 0.0000000000000E+00
 0.0000000000000E+00
 0.0000000000000E+00
 0.0000000000000E+00
 0.0000000000000E+00
 0.0000000000000E+00
 0.0000000000000E+00
 0.0000000000000E+00
 0.0000000000000E+00
 0.0000000000000E+00
 0.0000000000000E+00
 0.0000000000000E+00
 0.0000000000000E+00
 0.0000000000000E+00
 0.0000000000000E+00
 0.0000000000000E+00
 0.0000000000000E+00
 0.0000000000000E+00
 0.0000000000000E+00
 0.0000000000000E+00
 0.0000000000000E+00
 0.0000000000000E+00
 0.0000000000000E+00
 0.0000000000000E+00
 0.0000000000000E+00
 0.0000000000000E+00
 0.0000000000000E+00
 0.0000000000000E+00
 0.0000000000000E+00
 0.0000000000000E+00
 0.0000000000000E+00
 0.0000000000000E+00
 0.0000000000000E+00
 0.0000000000000E+00
 0.0000000000000E+00
 0.0000000000000E+00
 0.0000000000000E+00
 0.0000000000000E+00
 0.0000000000000E+00
 0.0000000000000E+00
 0.0000000000000E+00
 0.0000000000000E+00
 0.0000000000000E+00
 0.0000000000000E+00
 0.0000000000000E+00
 0.0000000000000E+00
 0.0000000000000E+00
 0.0000000000000E+00
 0.0000000000000E+00
 0.0000000000000E+00
 0.0000000000000E+00
 0.0000000000000E+00
 0.0000000000000E+00
 0.0000000000000E+00
 0.0000000000000E+00
 0.0000000000000E+00
 0.0000000000000E+00
 0.0000000000000E+00
 0.0000000000000E+00
 0.0000000000000E+00
 0.0000000000000E+00
 0.0000000000000E+00
 0.0000000000000E+00
 0.0000000000000E+00
 0.0000000000000E+00
 0.0000000000000E+00
 0.0000000000000E+00
 0.0000000000000E+00
 0.0000000000000E+00
 0.0000000000000E+00
 0.0000000000000E+00
 0.0000000000000E+00
 0.0000000000000E+00
 0.0000000000000E+00
 0.0000000000000E+00
 0.0000000000000E+00
 0.0000000000000E+00
 0.0000000000000E+00
 0.0000000000000E+00
 0.0000000000000E+00
 0.0000000000000E+00
 0.0000000000000E+00
 0.0000000000000E+00
 0.0000000000000E+00
 0.0000000000000E+00
 0.0000000000000E+00
 0.0000000000000E+00
 0.0000000000000E+00
 0.0000000000000E+00
 0.0000000000000E+00
 0.0000000000000E+00
 0.0000000000000E+00
 0.0000000000000E+00
 0.0000000000000E+00
 0.0000000000000E+00
 0.0000000000000E+00
 0.0000000000000E+00
 0.0000000000000E+00
 0.0000000000000E+00
 0.0000000000000E+00
 0.0000000000000E+00
 0.0000000000000E+00
 0.0000000000000E+00
 0.0000000000000E+00
 0.0000000000000E+00
 0.0000000000000E+00
 0.0000000000000E+00
 0.0000000000000E+00
 0.0000000000000E+00
 0.0000000000000E+00
 0.0000000000000E+00
 0.0000000000000E+00
 0.0000000000000E+00
 0.0000000000000E+00
 0.0000000000000E+00
 0.0000000000000E+00
 0.0000000000000E+00
 0.0000000000000E+00
 0.0000000000000E+00
 0.0000000000000E+00
 0.0000000000000E+00
 0.0000000000000E+00
 0.0000000000000E+00
 0.0000000000000E+00
 0.0000000000000E+00
 0.0000000000000E+00
 0.0000000000000E+00
 0.0000000000000E+00
 0.0000000000000E+00
 0.0000000000000E+00
 0.0000000000000E+00
 0.0000000000000E+00
 0.0000000000000E+00
 0.0000000000000E+00
 0.0000000000000E+00
 0.0000000000000E+00
 0.0000000000000E+00
 0.0000000000000E+00
 0.0000000000000E+00
 0.0000000000000E+00
 0.0000000000000E+00
 0.0000000000000E+00
 0.0000000000000E+00
 0.0000000000000E+00
 0.0000000000000E+00
 0.0000000000000E+00
 0.0000000000000E+00
 0.0000000000000E+00
 0.0000000000000E+00
 0.0000000000000E+00
 0.0000000000000E+00
 0.0000000000000E+00
 0.0000000000000E+00
 0.0000000000000E+00
 0.0000000000000E+00
 0.0000000000000E+00
 0.0000000000000E+00
 0.0000000000000E+00
 0.0000000000000E+00
 0.0000000000000E+00
 0.0000000000000E+00
 0.0000000000000E+00
 0.0000000000000E+00
 0.0000000000000E+00
 0.0000000000000E+00
 0.0000000000000E+00
 0.0000000000000E+00
 0.0000000000000E+00
 0.0000000000000E+00
 0.0000000000000E+00
 0.0000000000000E+00
 0.0000000000000E+00
 0.0000000000000E+00
 0.0000000000000E+00
 0.0000000000000E+00
 0.0000000000000E+00
 0.0000000000000E+00
 0.0000000000000E+00
 0.0000000000000E+00
 0.0000000000000E+00
 0.0000000000000E+00
 0.0000000000000E+00
 0.0000000000000E+00
 0.0000000000000E+00
 0.0000000000000E+00
 0.0000000000000E+00
 0.0000000000000E+00
 0.0000000000000E+00
 0.0000000000000E+00
 0.0000000000000E+00
 0.0000000000000E+00
 0.0000000000000E+00
 0.0000000000000E+00
 0.0000000000000E+00
 0.0000000000000E+00
 0.0000000000000E+00
 0.0000000000000E+00
 0.0000000000000E+00
 0.0000000000000E+00
 0.0000000000000E+00
 0.0000000000000E+00
 0.0000000000000E+00
 0.0000000000000E+00
 0.0000000000000E+00
 0.0000000000000E+00
 0.0000000000000E+00
 0.0000000000000E+00
 0.0000000000000E+00
 0.0000000000000E+00
 0.0000000000000E+00
 0.0000000000000E+00
 0.0000000000000E+00
 0.0000000000000E+00
 0.0000000000000E+00
 0.0000000000000E+00
 0.0000000000000E+00
 0.0000000000000E+00
 0.0000000000000E+00
 0.0000000000000E+00
 0.0000000000000E+00
 0.0000000000000E+00
 0.0000000000000E+00
 0.0000000000000E+00
 0.0000000000000E+00
 0.0000000000000E+00
 0.0000000000000E+00
 0.0000000000000E+00
 0.0000000000000E+00
 0.0000000000000E+00
 0.0000000000000E+00
 0.0000000000000E+00
 0.0000000000000E+00
 0.0000000000000E+00
 0.0000000000000E+00
 0.0000000000000E+00
 0.0000000000000E+00
 0.0000000000000E+00
 0.0000000000000E+00
 0.0000000000000E+00
 0.0000000000000E+00
 0.0000000000000E+00
 0.0000000000000E+00
 0.0000000000000E+00
 0.0000000000000E+00
 0.0000000000000E+00
 0.0000000000000E+00
 0.0000000000000E+00
 0.0000000000000E+00
 0.0000000000000E+00
 0.0000000000000E+00
 0.0000000000000E+00
 0.0000000000000E+00
 0.0000000000000E+00
 0.0000000000000E+00
 0.0000000000000E+00
 0.0000000000000E+00
 0.0000000000000E+00
 0.0000000000000E+00
 0.0000000000000E+00
 0.0000000000000E+00
 0.0000000000000E+00
 0.0000000000000E+00
 0.0000000000000E+00
 0.0000000000000E+00
 0.0000000000000E+00
 0.0000000000000E+00
 0.0000000000000E+00
 0.0000000000000E+00
 0.0000000000000E+00
 0.0000000000000E+00
 0.0000000000000E+00
 0.0000000000000E+00
 0.0000000000000E+00
 0.0000000000000E+00
 0.0000000000000E+00
 0.0000000000000E+00
 0.0000000000000E+00
 0.0000000000000E+00
 0.0000000000000E+00
 0.0000000000000E+00
 0.0000000000000E+00
 0.0000000000000E+00
 0.0000000000000E+00
 0.0000000000000E+00
 0.0000000000000E+00
 0.0000000000000E+00
 0.0000000000000E+00
 0.0000000000000E+00
 0.0000000000000E+00
 0.0000000000000E+00
 0.0000000000000E+00
 0.0000000000000E+00
 0.0000000000000E+00
 0.0000000000000E+00
 0.0000000000000E+00
 0.0000000000000E+00
 0.0000000000000E+00
 0.0000000000000E+00
 0.0000000000000E+00
 0.0000000000000E+00
 0.0000000000000E+00
 0.0000000000000E+00
 0.0000000000000E+00
 0.0000000000000E+00
 0.0000000000000E+00
 0.0000000000000E+00
 0.0000000000000E+00
 0.0000000000000E+00
 0.0000000000000E+00
 0.0000000000000E+00
 0.0000000000000E+00
 0.0000000000000E+00
 0.0000000000000E+00
 0.0000000000000E+00
 0.0000000000000E+00
 0.0000000000000E+00
 0.0000000000000E+00
 0.0000000000000E+00
 0.0000000000000E+00
 0.0000000000000E+00
 0.0000000000000E+00
 0.0000000000000E+00
 0.0000000000000E+00
 0.0000000000000E+00
 0.0000000000000E+00
 0.0000000000000E+00
 0.0000000000000E+00
 0.0000000000000E+00
 0.0000000000000E+00
 0.0000000000000E+00
 0.0000000000000E+00
 0.0000000000000E+00
 0.0000000000000E+00
 0.0000000000000E+00
 0.0000000000000E+00
 0.0000000000000E+00
 0.0000000000000E+00
 0.0000000000000E+00
 0.0000000000000E+00
 0.0000000000000E+00
 0.0000000000000E+00
 0.0000000000000E+00
 0.0000000000000E+00
 0.0000000000000E+00
 0.0000000000000E+00
 0.0000000000000E+00
 0.0000000000000E+00
 0.0000000000000E+00
 0.0000000000000E+00
 0.0000000000000E+00
 0.0000000000000E+00
 0.0000000000000E+00
 0.0000000000000E+00
 0.0000000000000E+00
 0.0000000000000E+00
 0.0000000000000E+00
 0.0000000000000E+00
 0.0000000000000E+00
 0.0000000000000E+00
 0.0000000000000E+00
 0.0000000000000E+00
 0.0000000000000E+00
 0.0000000000000E+00
 0.0000000000000E+00
 0.0000000000000E+00
 0.0000000000000E+00
 0.0000000000000E+00
 0.0000000000000E+00
 0.0000000000000E+00
 0.0000000000000E+00
 0.0000000000000E+00
 0.0000000000000E+00
 0.0000000000000E+00
 0.0000000000000E+00
 0.0000000000000E+00
 0.0000000000000E+00
 0.0000000000000E+00
 0.0000000000000E+00
 0.0000000000000E+00
 0.0000000000000E+00
 0.0000000000000E+00
 0.0000000000000E+00
 0.0000000000000E+00
 0.0000000000000E+00
 0.0000000000000E+00
 0.0000000000000E+00
 0.0000000000000E+00
 0.0000000000000E+00
 0.0000000000000E+00
 0.0000000000000E+00
 0.0000000000000E+00
 0.0000000000000E+00
 0.0000000000000E+00
 0.0000000000000E+00
 0.0000000000000E+00
 0.0000000000000E+00
 0.0000000000000E+00
 0.0000000000000E+00
 0.0000000000000E+00
 0.0000000000000E+00
 0.0000000000000E+00
 0.0000000000000E+00
 0.0000000000000E+00
 0.0000000000000E+00
 0.0000000000000E+00
 0.0000000000000E+00
 0.0000000000000E+00
 0.0000000000000E+00
 0.0000000000000E+00
 0.0000000000000E+00
 0.0000000000000E+00
 0.0000000000000E+00
 0.0000000000000E+00
 0.0000000000000E+00
 0.0000000000000E+00
 0.0000000000000E+00
 0.0000000000000E+00
 0.0000000000000E+00
 0.0000000000000E+00
 0.0000000000000E+00
 0.0000000000000E+00
 0.0000000000000E+00
 0.0000000000000E+00
 0.0000000000000E+00
 0.0000000000000E+00
 0.0000000000000E+00
 0.0000000000000E+00
 0.0000000000000E+00
 0.0000000000000E+00
 0.0000000000000E+00
 0.0000000000000E+00
 0.0000000000000E+00
 0.0000000000000E+00
 0.0000000000000E+00
 0.0000000000000E+00
 0.0000000000000E+00
 0.0000000000000E+00
 0.0000000000000E+00
 0.0000000000000E+00
 0.0000000000000E+00
 0.0000000000000E+00
 0.0000000000000E+00
 0.0000000000000E+00
 0.0000000000000E+00
 0.0000000000000E+00
 0.0000000000000E+00
 0.0000000000000E+00
 0.0000000000000E+00
 0.0000000000000E+00
 0.0000000000000E+00
 0.0000000000000E+00
 0.0000000000000E+00
 0.0000000000000E+00
 0.0000000000000E+00
 0.0000000000000E+00
 0.0000000000000E+00
 0.0000000000000E+00
 0.0000000000000E+00
 0.0000000000000E+00
 0.0000000000000E+00
 0.0000000000000E+00
 0.0000000000000E+00
 0.0000000000000E+00
 0.0000000000000E+00
 0.0000000000000E+00
 0.0000000000000E+00
 0.0000000000000E+00
 0.0000000000000E+00
 0.0000000000000E+00
 0.0000000000000E+00
 0.0000000000000E+00
 0.0000000000000E+00
 0.0000000000000E+00
 0.0000000000000E+00
 0.0000000000000E+00
 0.0000000000000E+00
 0.0000000000000E+00
 0.0000000000000E+00
 0.0000000000000E+00
 0.0000000000000E+00
 0.0000000000000E+00
 0.0000000000000E+00
 0.0000000000000E+00
 0.0000000000000E+00
 0.0000000000000E+00
 0.0000000000000E+00
 0.0000000000000E+00
 0.0000000000000E+00
 0.0000000000000E+00
 0.0000000000000E+00
 0.0000000000000E+00
 0.0000000000000E+00
 0.0000000000000E+00
 0.0000000000000E+00
 0.0000000000000E+00
 0.0000000000000E+00
 0.0000000000000E+00
 0.0000000000000E+00
 0.0000000000000E+00
 0.0000000000000E+00
 0.0000000000000E+00
 0.0000000000000E+00
 0.0000000000000E+00
 0.0000000000000E+00
 0.0000000000000E+00
 0.0000000000000E+00
 0.0000000000000E+00
 0.0000000000000E+00
 0.0000000000000E+00
 0.0000000000000E+00
 0.0000000000000E+00
 0.0000000000000E+00
 0.0000000000000E+00
 0.0000000000000E+00
 0.0000000000000E+00
 0.0000000000000E+00
 0.0000000000000E+00
 0.0000000000000E+00
 0.0000000000000E+00
 0.0000000000000E+00
 0.0000000000000E+00
 0.0000000000000E+00
 0.0000000000000E+00
 0.0000000000000E+00
 0.0000000000000E+00
 0.0000000000000E+00
 0.0000000000000E+00
 0.0000000000000E+00
 0.0000000000000E+00
 0.0000000000000E+00
 0.0000000000000E+00
 0.0000000000000E+00
 0.0000000000000E+00
 0.0000000000000E+00
 0.0000000000000E+00
 0.0000000000000E+00
 0.0000000000000E+00
 0.0000000000000E+00
 0.0000000000000E+00
 0.0000000000000E+00
 0.0000000000000E+00
 0.0000000000000E+00
 0.0000000000000E+00
 0.0000000000000E+00
 0.0000000000000E+00
 0.0000000000000E+00
 0.0000000000000E+00
 0.0000000000000E+00
 0.0000000000000E+00
 0.0000000000000E+00
 0.0000000000000E+00
 0.0000000000000E+00
 0.0000000000000E+00
 0.0000000000000E+00
 0.0000000000000E+00
 0.0000000000000E+00
 0.0000000000000E+00
 0.0000000000000E+00
 0.0000000000000E+00
 0.0000000000000E+00
 0.0000000000000E+00
 0.0000000000000E+00
 0.0000000000000E+00
 0.0000000000000E+00
 0.0000000000000E+00
 0.0000000000000E+00
 0.0000000000000E+00
 0.0000000000000E+00
 0.0000000000000E+00
 0.0000000000000E+00
 0.0000000000000E+00
 0.0000000000000E+00
 0.0000000000000E+00
 0.0000000000000E+00
 0.0000000000000E+00
 0.0000000000000E+00
 0.0000000000000E+00
 0.0000000000000E+00
 0.0000000000000E+00
 0.0000000000000E+00
 0.0000000000000E+00
 0.0000000000000E+00
 0.0000000000000E+00
 0.0000000000000E+00
 0.0000000000000E+00
 0.0000000000000E+00
 0.0000000000000E+00
 0.0000000000000E+00
 0.0000000000000E+00
 0.0000000000000E+00
 0.0000000000000E+00
 0.0000000000000E+00
 0.0000000000000E+00
 0.0000000000000E+00
 0.0000000000000E+00
 0.0000000000000E+00
 0.0000000000000E+00
 0.0000000000000E+00
 0.0000000000000E+00
 0.0000000000000E+00
 0.0000000000000E+00
 0.0000000000000E+00
 0.0000000000000E+00
 0.0000000000000E+00
 0.0000000000000E+00
 0.0000000000000E+00
 0.0000000000000E+00
 0.0000000000000E+00
 0.0000000000000E+00
 0.0000000000000E+00
 0.0000000000000E+00
 0.0000000000000E+00
 0.0000000000000E+00
 0.0000000000000E+00
 0.0000000000000E+00
 0.0000000000000E+00
 0.0000000000000E+00
 0.0000000000000E+00
 0.0000000000000E+00
 0.0000000000000E+00
 0.0000000000000E+00
 0.0000000000000E+00
 0.0000000000000E+00
 0.0000000000000E+00
 0.0000000000000E+00
 0.0000000000000E+00
 0.0000000000000E+00
 0.0000000000000E+00
 0.0000000000000E+00
 0.0000000000000E+00
 0.0000000000000E+00
 0.0000000000000E+00
 0.0000000000000E+00
 0.0000000000000E+00
 0.0000000000000E+00
 0.0000000000000E+00
 0.0000000000000E+00
 0.0000000000000E+00
 0.0000000000000E+00
 0.0000000000000E+00
 0.0000000000000E+00
 0.0000000000000E+00
 0.0000000000000E+00
 0.0000000000000E+00
 0.0000000000000E+00
 0.0000000000000E+00
 0.0000000000000E+00
 0.0000000000000E+00
 0.0000000000000E+00
 0.0000000000000E+00
 0.0000000000000E+00
 0.0000000000000E+00
 0.0000000000000E+00
 0.0000000000000E+00
 0.0000000000000E+00
 0.0000000000000E+00
 0.0000000000000E+00
 0.0000000000000E+00
 0.0000000000000E+00
 0.0000000000000E+00
 0.0000000000000E+00
 0.0000000000000E+00
 0.0000000000000E+00
 0.0000000000000E+00
 0.0000000000000E+00
 0.0000000000000E+00
 0.0000000000000E+00
 0.0000000000000E+00
 0.0000000000000E+00
 0.0000000000000E+00
 0.0000000000000E+00
 0.0000000000000E+00
 0.0000000000000E+00
 0.0000000000000E+00
 0.0000000000000E+00
 0.0000000000000E+00
 0.0000000000000E+00
 0.0000000000000E+00
 0.0000000000000E+00
 0.0000000000000E+00
 0.0000000000000E+00
 0.0000000000000E+00
 0.0000000000000E+00
 0.0000000000000E+00
 0.0000000000000E+00
 0.0000000000000E+00
 0.0000000000000E+00
 0.0000000000000E+00
 0.0000000000000E+00
 0.0000000000000E+00
 0.0000000000000E+00
 0.0000000000000E+00
 0.0000000000000E+00
 0.0000000000000E+00
 0.0000000000000E+00
 0.0000000000000E+00
 0.0000000000000E+00
 0.0000000000000E+00
 0.0000000000000E+00
 0.0000000000000E+00
 0.0000000000000E+00
 0.0000000000000E+00
 0.0000000000000E+00
 0.0000000000000E+00
 0.0000000000000E+00
 0.0000000000000E+00
 0.0000000000000E+00
 0.0000000000000E+00
 0.0000000000000E+00
 0.0000000000000E+00
 0.0000000000000E+00
 0.0000000000000E+00
 0.0000000000000E+00
 0.0000000000000E+00
 0.0000000000000E+00
 0.0000000000000E+00
 0.0000000000000E+00
 0.0000000000000E+00
 0.0000000000000E+00
 0.0000000000000E+00
 0.0000000000000E+00
 0.0000000000000E+00
 0.0000000000000E+00
 0.0000000000000E+00
 0.0000000000000E+00
 0.0000000000000E+00
 0.0000000000000E+00
 0.0000000000000E+00
 0.0000000000000E+00
 0.0000000000000E+00
 0.0000000000000E+00
 0.0000000000000E+00
 0.0000000000000E+00
 0.0000000000000E+00
 0.0000000000000E+00
 0.0000000000000E+00
 0.0000000000000E+00
 0.0000000000000E+00
 0.0000000000000E+00
 0.0000000000000E+00
 0.0000000000000E+00
 0.0000000000000E+00
 0.0000000000000E+00
 0.0000000000000E+00
 0.0000000000000E+00
 0.0000000000000E+00
 0.0000000000000E+00
 0.0000000000000E+00
 0.0000000000000E+00
 0.0000000000000E+00
 0.0000000000000E+00
 0.0000000000000E+00
 0.0000000000000E+00
 0.0000000000000E+00
 0.0000000000000E+00
 0.0000000000000E+00
 0.0000000000000E+00
 0.0000000000000E+00
 0.0000000000000E+00
 0.0000000000000E+00
 0.0000000000000E+00
 0.0000000000000E+00
 0.0000000000000E+00
 0.0000000000000E+00
 0.0000000000000E+00
 0.0000000000000E+00
 0.0000000000000E+00
 0.0000000000000E+00
 0.0000000000000E+00
 0.0000000000000E+00
 0.0000000000000E+00
 0.0000000000000E+00
 0.0000000000000E+00
 0.0000000000000E+00
 0.0000000000000E+00
 0.0000000000000E+00
 0.0000000000000E+00
 0.0000000000000E+00
 0.0000000000000E+00
 0.0000000000000E+00
 0.0000000000000E+00
 0.0000000000000E+00
 0.0000000000000E+00
 0.0000000000000E+00
 0.0000000000000E+00
 0.0000000000000E+00
 0.0000000000000E+00
 0.0000000000000E+00
 0.0000000000000E+00
 0.0000000000000E+00
 0.0000000000000E+00
 0.0000000000000E+00
 0.0000000000000E+00
 0.0000000000000E+00
 0.0000000000000E+00
 0.0000000000000E+00
 0.0000000000000E+00
 0.0000000000000E+00
 0.0000000000000E+00
 0.0000000000000E+00
 0.0000000000000E+00
 0.0000000000000E+00
 0.0000000000000E+00
 0.0000000000000E+00
 0.0000000000000E+00
 0.0000000000000E+00
 0.0000000000000E+00
 0.0000000000000E+00
 0.0000000000000E+00
 0.0000000000000E+00
 0.0000000000000E+00
 0.0000000000000E+00
 0.0000000000000E+00
 0.0000000000000E+00
 0.0000000000000E+00
 0.0000000000000E+00
 0.0000000000000E+00
 0.0000000000000E+00
 0.0000000000000E+00
 0.0000000000000E+00
 0.0000000000000E+00
 0.0000000000000E+00
 0.0000000000000E+00
 0.0000000000000E+00
 0.0000000000000E+00
 0.0000000000000E+00
 0.0000000000000E+00
 0.0000000000000E+00
 0.0000000000000E+00
 0.0000000000000E+00
 0.0000000000000E+00
 0.0000000000000E+00
 0.0000000000000E+00
 0.0000000000000E+00
 0.0000000000000E+00
 0.0000000000000E+00
 0.0000000000000E+00
 0.0000000000000E+00
 0.0000000000000E+00
 0.0000000000000E+00
 0.0000000000000E+00
 0.0000000000000E+00
 0.0000000000000E+00
 0.0000000000000E+00
 0.0000000000000E+00
 0.0000000000000E+00
 0.0000000000000E+00
 0.0000000000000E+00
 0.0000000000000E+00
 0.0000000000000E+00
 0.0000000000000E+00
 0.0000000000000E+00
 0.0000000000000E+00
 0.0000000000000E+00
 0.0000000000000E+00
 0.0000000000000E+00
 0.0000000000000E+00
 0.0000000000000E+00
 0.0000000000000E+00
 0.0000000000000E+00
 0.0000000000000E+00
 0.0000000000000E+00
 0.0000000000000E+00
 0.0000000000000E+00
 0.0000000000000E+00
 0.0000000000000E+00
 0.0000000000000E+00
 0.0000000000000E+00
 0.0000000000000E+00
 0.0000000000000E+00
 0.0000000000000E+00
 0.0000000000000E+00
 0.0000000000000E+00
 0.0000000000000E+00
 0.0000000000000E+00
 0.0000000000000E+00
 0.0000000000000E+00
 0.0000000000000E+00
 0.0000000000000E+00
 0.0000000000000E+00
 0.0000000000000E+00
 0.0000000000000E+00
 0.0000000000000E+00
 0.0000000000000E+00
 0.0000000000000E+00
 0.0000000000000E+00
 0.0000000000000E+00
 0.0000000000000E+00
 0.0000000000000E+00
 0.0000000000000E+00
 0.0000000000000E+00
 0.0000000000000E+00
 0.0000000000000E+00
 0.0000000000000E+00
 0.0000000000000E+00
 0.0000000000000E+00
 0.0000000000000E+00
 0.0000000000000E+00
 0.0000000000000E+00
 0.0000000000000E+00
 0.0000000000000E+00
 0.0000000000000E+00
 0.0000000000000E+00
 0.0000000000000E+00
 0.0000000000000E+00
 0.0000000000000E+00
 0.0000000000000E+00
 0.0000000000000E+00
 0.0000000000000E+00
 0.0000000000000E+00
 0.0000000000000E+00
 0.0000000000000E+00
 0.0000000000000E+00
 0.0000000000000E+00
 0.0000000000000E+00
 0.0000000000000E+00
 0.0000000000000E+00
 0.0000000000000E+00
 0.0000000000000E+00
 0.0000000000000E+00
 0.0000000000000E+00
 0.0000000000000E+00
 0.0000000000000E+00
 0.0000000000000E+00
 0.0000000000000E+00
 0.0000000000000E+00
 0.0000000000000E+00
 0.0000000000000E+00
 0.0000000000000E+00
 0.0000000000000E+00
 0.0000000000000E+00
 0.0000000000000E+00
 0.0000000000000E+00
 0.0000000000000E+00
 0.0000000000000E+00
 0.0000000000000E+00
 0.0000000000000E+00
 0.0000000000000E+00
 0.0000000000000E+00
 0.0000000000000E+00
 0.0000000000000E+00
 0.0000000000000E+00
 0.0000000000000E+00
 0.0000000000000E+00
 0.0000000000000E+00
 0.0000000000000E+00
 0.0000000000000E+00
 0.0000000000000E+00
 0.0000000000000E+00
 0.0000000000000E+00
 0.0000000000000E+00
 0.0000000000000E+00
 0.0000000000000E+00
 0.0000000000000E+00
 0.0000000000000E+00
 0.0000000000000E+00
 0.0000000000000E+00
 0.0000000000000E+00
 0.0000000000000E+00
 0.0000000000000E+00
 0.0000000000000E+00
 0.0000000000000E+00
 0.0000000000000E+00
 0.0000000000000E+00
 0.0000000000000E+00
 0.0000000000000E+00
 0.0000000000000E+00
 0.0000000000000E+00
 0.0000000000000E+00
 0.0000000000000E+00
 0.0000000000000E+00
 0.0000000000000E+00
 0.0000000000000E+00
 0.0000000000000E+00
 0.0000000000000E+00
 0.0000000000000E+00
 0.0000000000000E+00
 0.0000000000000E+00
 0.0000000000000E+00
 0.0000000000000E+00
 0.0000000000000E+00
 0.0000000000000E+00
 0.0000000000000E+00
 0.0000000000000E+00
 0.0000000000000E+00
 0.0000000000000E+00
 0.0000000000000E+00
 0.0000000000000E+00
 0.0000000000000E+00
 0.0000000000000E+00
 0.0000000000000E+00
 0.0000000000000E+00
 0.0000000000000E+00
 0.0000000000000E+00
 0.0000000000000E+00
 0.0000000000000E+00
 0.0000000000000E+00
 0.0000000000000E+00
 0.0000000000000E+00
 0.0000000000000E+00
 0.0000000000000E+00
 0.0000000000000E+00
 0.0000000000000E+00
 0.0000000000000E+00
 0.0000000000000E+00
 0.0000000000000E+00
 0.0000000000000E+00
 0.0000000000000E+00
 0.0000000000000E+00
 0.0000000000000E+00
 0.0000000000000E+00
 0.0000000000000E+00
 0.0000000000000E+00
 0.0000000000000E+00
 0.0000000000000E+00
 0.0000000000000E+00
 0.0000000000000E+00
 0.0000000000000E+00
 0.0000000000000E+00
 0.0000000000000E+00
</DataArray>
<DataArray type="Int32" Name="Region" format="ascii">
           1
           1
           1
           1
           1
           1
           1
           1
           1
           1
           1
           1
           1
           1
           1
           1
           1
           1
           1
           1
           1
           1
           1
           1
           1
           1
           1
           1
           1
           1
           1
           1
           1
           1
           1
           1
           1
           1
           1
           1
           1
           1
           1
           1
           1
           1
           1
           1
           1
           1
           1
           1
           1
           1
           1
           1
           1
           1
           1
           1
           1
           1
           1
           1
           1
           1
           1
           1
           1
           1
           1
           1
           1
           1
           1
           1
           1
           1
           1
           1
           1
           1
           1
           1
           1
           1
           1
           1
           1
           1
           1
           1
           1
           1
           1
           1
           1
           1
           1
           1
           1
           1
           1
           1
           1
           1
           1
           1
           1
           1
           1
           1
           1
           1
           1
           1
           1
           1
           1
           1
           1
           1
           1
           1
           1
           1
           1
           1
           1
           1
           1
           1
           1
           1
           1
           1
           1
           1
           1
           1
           1
           1
           1
           1
           1
           1
           1
           1
           1
           1
           1
           1
           1
           1
           1
           1
           1
           1
           1
           1
           1
           1
           1
           1
           1
           1
           1
           1
           1
           1
           1
           1
           1
           1
           1
           1
           1
           1
           1
           1
           1
           1
           1
           1
           1
           1
           1
           1
           1
           1
           1
           1
           1
           1
           1
           1
           1
           1
           1
           1
           1
           1
           1
           1
           1
           1
           1
           1
           1
           1
           1
           1
           1
           1
           1
           1
           1
           1
           1
           1
           1
           1
           1
           1
           1
           1
           1
           1
           1
           1
           1
           1
           1
           1
           1
           1
           1
           1
           1
           1
           1
           1
           1
           1
           1
           1
           1
           1
           1
           1
           1
           1
           1
           1
           1
           1
           1
           1
           1
           1
           1
           1
           1
           1
           1
           1
           1
           1
           1
           1
           1
           1
           1
           1
           1
           1
           1
           1
           1
           1
           1
           1
           1
           1
           1
           1
           1
           1
           1
           1
           1
           1
           1
           1
           1
           1
           1
           1
           1
           1
           1
           1
           1
           1
           1
           1
           1
           1
           1
           1
           1
           1
           1
           1
           1
           1
           1
           1
           1
           1
           1
           1
           1
           1
           1
           1
           1
           1
           1
           1
           1
           1
           1
           1
           1
           1
           1
           1
           1
           1
           1
           1
           1
           1
           1
           1
           1
           1
           1
           1
           1
           1
           1
           1
           1
           1
           1
           1
           1
           1
           1
           1
           1
           1
           1
           1
           1
           1
           1
           1
           1
           1
           1
           1
           1
           1
           1
           1
           1
           1
           1
           1
           1
           1
           1
           1
           1
           1
           1
           1
           1
           1
           1
           1
           1
           1
           1
           1
           1
           1
           1
           1
           1
           1
           1
           1
           1
           1
           1
           1
           1
           1
           1
           1
           1
           1
           1
           1
           1
           1
           1
           1
           1
           1
           1
           1
           1
           1
           1
           1
           1
           1
           1
           1
           1
           1
           1
           1
           1
           1
           1
           1
           1
           1
           1
           1
           1
           1
           1
           1
           1
           1
           1
           1
           1
           1
           1
           1
           1
           1
           1
           1
           1
           1
           1
           1
           1
           1
           1
           1
           1
           1
           1
           1
           1
           1
           1
           1
           1
           1
           1
           1
           1
           1
           1
           1
           1
           1
           1
           1
           1
           1
           1
           1
           1
           1
           1
           1
           1
           1
           1
           1
           1
           1
           1
           1
           1
           1
           1
           1
           1
           1
           1
           1
           1
           1
           1
           1
           1
           1
           1
           1
           1
           1
           1
           1
           1
           1
           1
           1
           1
           1
           1
           1
           1
           1
           1
           1
           1
           1
           1
           1
           1
           1
           1
           1
           1
           1
           1
           1
           1
           1
           1
           1
           1
           1
           1
           1
           1
           1
           1
           1
           1
           1
           1
           1
           1
           1
           1
           1
           1
           1
           1
           1
           1
           1
           1
           1
           1
           1
           1
           1
           1
           1
           1
           1
           1
           1
           1
           1
           1
           1
           1
           1
           1
           1
           1
           1
           1
           1
           1
           1
           1
           1
           1
           1
           1
           1
           1
           1
           1
           1
           1
           1
           1
           1
           1
           1
           1
           1
           1
           1
           1
           1
           1
           1
           1
           1
           1
           1
           1
           1
           1
           1
           1
           1
           1
           1
           1
           1
           1
           1
           1
           1
           1
           1
           1
           1
           1
           1
           1
           1
           1
           1
           1
           1
           1
           1
           1
           1
           1
           1
           1
           1
           1
           1
           1
           1
           1
           1
           1
           1
           1
           1
           1
           1
           1
           1
           1
           1
           1
           1
           1
           1
           1
           1
           1
           1
           1
           1
           1
           1
           1
           1
           1
           1
           1
           1
           1
           1
           1
           1
           1
           1
           1
           1
           1
           1
           1
           1
           1
           1
           1
           1
           1
           1
           1
           1
           1
           1
           1
           1
           1
           1
           1
           1
           1
           1
           1
           1
           1
           1
           1
           1
           1
           1
           1
           1
           1
           1
           1
           1
           1
           1
           1
           1
           1
           1
           1
           1
           1
           1
           1
           1
           1
           1
           1
           1
           1
           1
           1
           1
           1
           1
           1
           1
           1
           1
           1
           1
           1
           1
           1
           1
           1
           1
           1
           1
           1
           1
           1
           1
           1
           1
           1
           1
           1
           1
           1
           1
           1
           1
           1
           1
           1
           1
           1
           1
           1
           1
           1
           1
           1
           1
           1
           1
           1
           1
           1
           1
           1
           1
           1
           1
           1
           1
           1
           1
           1
           1
           1
           1
           1
           1
           1
           1
           1
           1
           1
           1
           1
           1
           1
           1
           1
           1
           1
           1
           1
           1
           1
           1
           1
           1
           1
           1
           1
           1
           1
           1
           1
           1
           1
           1
           1
           1
           1
           1
           1
           1
           1
           1
           1
           1
           1
           1
           1
           1
           1
           1
           1
           1
           1
           1
           1
           1
           1
           1
           1
           1
           1
           1
           1
           1
           1
           1
           1
           1
           1
           1
           1
           1
           1
           1
           1
           1
           1
           1
           1
           1
           1
           1
           1
           1
           1
           1
           1
           1
           1
           1
           1
           1
           1
           1
           1
           1
           1
           1
           1
           1
           1
           1
           1
           1
           1
           1
           1
           1
           1
           1
           1
           1
           1
           1
           1
           1
           1
           1
           1
           1
           1
           1
           1
           1
           1
           1
           1
           1
           1
           1
           1
           1
           1
           1
           1
           1
           1
           1
           1
           1
           1
           1
           1
           1
           1
           1
           1
           1
           1
           1
           1
           1
           1
           1
           1
           1
           1
           1
           1
           1
           1
           1
           1
           1
           1
           1
           1
           1
           1
           1
           1
           1
           1
           1
           1
           1
           1
           1
           1
           1
           1
           1
           1
           1
           1
           1
           1
           1
           1
           1
           1
           1
           1
           1
           1
           1
           1
           1
           1
           1
           1
           1
           1
           1
           1
           1
           1
           1
           1
           1
           1
           1
           1
           1
           1
           1
           1
           1
           1
           1
           1
           1
           1
           1
           1
           1
           1
           1
           1
           1
           1
           1
           1
           1
           1
           1
           1
           1
           1
           1
           1
           1
           1
           1
           1
           1
           1
           1
           1
           1
           1
           1
           1
           1
           1
           1
           1
           1
           1
           1
           1
           1
           1
           1
           1
           1
           1
           1
           1
           1
           1
           1
           1
           1
           1
           1
           1
           1
           1
           1
           1
           1
           1
           1
           1
           1
           1
           1
           1
           1
           1
           1
           1
           1
           1
           1
           1
           1
           1
           1
           1
           1
           1
           1
           1
           1
           1
           1
           1
           1
           1
           1
           1
           1
           1
           1
           1
           1
           1
           1
           1
           1
           1
           1
           1
           1
           1
           1
           1
           1
           1
           1
           1
           1
           1
           1
           1
           1
           1
           1
           1
           1
           1
           1
           1
           1
           1
           1
           1
           1
           1
           1
           1
           1
           1
           1
           1
           1
           1
           1
           1
           1
           1
           1
           1
           1
           1
           1
           1
           1
           1
           1
           1
           1
           1
           1
           1
           1
           1
           1
           1
           1
           1
           1
           1
           1
           1
           1
           1
           1
           1
           1
           1
           1
           1
           1
           1
           1
           1
           1
           1
           1
           1
           1
           1
           1
           1
           1
           1
           1
           1
           1
           1
           1
           1
           1
           1
           1
           1
           1
           1
           1
           1
           1
           1
           1
           1
           1
           1
           1
           1
           1
           1
           1
           1
           1
           1
           1
           1
           1
           1
           1
           1
           1
           1
           1
           1
           1
           1
           1
           1
           1
           1
           1
           1
           1
           1
           1
           1
           1
           1
           1
           1
           1
           1
           1
           1
           1
           1
           1
           1
           1
           1
           1
           1
           1
           1
           1
           1
           1
           1
           1
           1
           1
           1
           1
           1
           1
           1
           1
           1
           1
           1
           1
           1
           1
           1
           1
           1
           1
           1
           1
           1
           1
           1
           1
           1
           1
           1
           1
           1
           1
           1
           1
           1
           1
           1
           1
           1
           1
           1
           1
           1
           1
           1
           1
           1
           1
           1
           1
           1
           1
           1
           1
           1
           1
           1
           1
           1
           1
           1
           1
           1
           1
           1
           1
           1
           1
           1
           1
           1
           1
           1
           1
           1
           1
           1
           1
           1
           1
           1
           1
           1
           1
           1
           1
           1
           1
           1
           1
           1
           1
           1
           1
           1
           1
           1
           1
           1
           1
           1
           1
           1
           1
           1
           1
           1
           1
           1
           1
           1
           1
           1
           1
           1
           1
           1
           1
           1
           1
           1
           1
           1
           1
           1
           1
           1
           1
           1
           1
           1
           1
           1
           1
           1
           1
           1
           1
           1
           1
           1
           1
           1
           1
           1
           1
           1
           1
           1
           1
           1
           1
           1
           1
           1
           1
           1
           1
           1
           1
           1
           1
           1
           1
           1
           1
           1
           1
           1
           1
           1
           1
           1
           1
           1
           1
           1
           1
           1
           1
           1
           1
           1
           1
           1
           1
           1
           1
           1
           1
           1
           1
           1
           1
           1
           1
           1
           1
           1
           1
           1
           1
           1
           1
           1
           1
           1
           1
           1
           1
           1
           1
           1
           1
           1
           1
           1
           1
           1
           1
           1
           1
           1
           1
           1
           1
           1
           1
           1
           1
           1
           1
           1
           1
           1
           1
           1
           1
           1
           1
           1
           1
           1
           1
           1
           1
           1
           1
           1
           1
           1
           1
           1
           1
           1
           1
           1
           1
           1
           1
           1
           1
           1
           1
           1
           1
           1
           1
           1
           1
           1
           1
           1
           1
           1
           1
           1
           1
           1
           1
           1
           1
           1
           1
           1
           1
           1
           1
           1
           1
           1
           1
           1
           1
           1
           1
           1
           1
           1
           1
           1
           1
           1
           1
           1
           1
           1
           1
           1
           1
           1
           1
           1
           1
           1
           1
           1
           1
           1
           1
           1
           1
           1
           1
           1
           1
           1
           1
           1
           1
           1
           1
           1
           1
           1
           1
           1
           1
           1
           1
           1
           1
           1
           1
           1
           1
           1
           1
           1
           1
           1
           1
           1
           1
           1
           1
           1
           1
           1
           1
           1
           1
           1
           1
           1
           1
           1
           1
           1
           1
           1
           1
           1
           1
           1
           1
           1
           1
           1
           1
           1
           1
           1
           1
           1
           1
           1
           1
           1
           1
           1
           1
           1
           1
           1
           1
           1
           1
           1
           1
           1
           1
           1
           1
           1
           1
           1
           1
           1
           1
           1
           1
           1
           1
           1
           1
           1
           1
           1
           1
           1
           1
           1
           1
           1
           1
           1
           1
           1
           1
           1
           1
           1
           1
           1
           1
           1
           1
           1
           1
           1
           1
           1
           1
           1
           1
           1
           1
           1
           1
           1
           1
           1
           1
           1
           1
           1
           1
           1
           1
           1
           1
           1
           1
           1
           1
           1
           1
           1
           1
           1
           1
           1
           1
           1
           1
           1
           1
           1
           1
           1
           1
           1
           1
           1
           1
           1
           1
           1
           1
           1
           1
           1
           1
           1
           1
           1
           1
           1
           1
           1
           1
           1
           1
           1
           1
           1
           1
           1
           1
           1
           1
           1
           1
           1
           1
           1
           1
           1
           1
           1
           1
           1
           1
           1
           1
           1
           1
           1
           1
           1
           1
           1
           1
           1
           1
           1
           1
           1
           1
           1
           1
           1
           1
           1
           1
           1
           1
           1
           1
           1
           1
           1
           1
           1
           1
           1
           1
           1
           1
           1
           1
           1
           1
           1
           1
           1
           1
           1
           1
           1
           1
           1
           1
           1
           1
           1
           1
           1
           1
           1
           1
           1
           1
           1
           1
           1
           1
           1
           1
           1
           1
           1
           1
           1
           1
           1
           1
           1
           1
           1
           1
           1
           1
           1
           1
           1
           1
           1
           1
           1
           1
           1
           1
           1
           1
           1
           1
           1
           1
           1
           1
           1
           1
           1
           1
           1
           1
           1
           1
           1
           1
           1
           1
           1
           1
           1
           1
           1
           1
           1
           1
           1
           1
           1
           1
           1
           1
           1
           1
           1
           1
           1
           1
           1
           1
           1
           1
           1
           1
           1
           1
           1
           1
           1
           1
           1
           1
           1
           1
           1
           1
           1
           1
           1
           1
           1
           1
           1
           1
           1
           1
           1
           1
           1
           1
           1
           1
           1
           1
           1
           1
           1
           1
           1
           1
           1
           1
           1
           1
           1
           1
           1
           1
           1
           1
           1
           1
           1
           1
           1
           1
           1
           1
           1
           1
           1
           1
           1
           1
           1
           1
           1
           1
           1
           1
           1
           1
           1
           1
           1
           1
           1
           1
           1
           1
           1
           1
           1
           1
           1
           1
           1
           1
           1
           1
           1
           1
           1
           1
           1
           1
           1
           1
           1
           1
           1
           1
           1
           1
           1
           1
           1
           1
           1
           1
           1
           1
           1
           1
           1
           1
           1
           1
           1
           1
           1
           1
           1
           1
           1
           1
           1
           1
           1
           1
           1
           1
           1
           1
           1
           1
           1
           1
           1
           1
           1
           1
           1
           1
           1
           1
           1
           1
           1
           1
           1
           1
           1
           1
           1
           1
           1
           1
           1
           1
           1
           1
           1
           1
           1
           1
           1
           1
           1
           1
           1
           1
           1
           1
           1
           1
           1
           1
           1
           1
           1
           1
           1
           1
           1
           1
           1
           1
           1
           1
           1
           1
           1
           1
           1
           1
           1
           1
           1
           1
           1
           1
           1
           1
           1
           1
           1
           1
           1
           1
           1
           1
           1
           1
           1
           1
           1
           1
           1
           1
           1
           1
           1
           1
           1
           1
           1
           1
           1
           1
           1
           1
           1
           1
           1
           1
           1
           1
           1
           1
           1
           1
           1
           1
           1
           1
           1
           1
           1
           1
           1
           1
           1
           1
           1
           1
           1
           1
           1
           1
           1
           1
           1
           1
           1
           1
           1
           1
           1
           1
           1
           1
           1
           1
           1
           1
           1
           1
           1
           1
           1
           1
           1
           1
           1
           1
           1
           1
           1
           1
           1
           1
           1
           1
           1
           1
           1
           1
           1
           1
           1
           1
           1
           1
           1
           1
           1
           1
           1
           1
           1
           1
           1
           1
           1
           1
           1
           1
           1
           1
           1
           1
           1
           1
           1
           1
           1
           1
           1
           1
           1
           1
           1
           1
           1
           1
           1
           1
           1
           1
           1
           1
           1
           1
           1
           1
           1
           1
           1
           1
           1
           1
           1
           1
           1
           1
           1
           1
           1
           1
           1
           1
           1
           1
           1
           1
           1
           1
           1
           1
           1
           1
           1
           1
           1
           1
           1
           1
           1
           1
           1
           1
           1
           1
           1
           1
           1
           1
           1
           1
           1
           1
           1
           1
           1
           1
           1
           1
           1
           1
           1
           1
           1
           1
           1
           1
           1
           1
           1
           1
           1
           1
           1
           1
           1
           1
           1
           1
           1
           1
           1
           1
           1
           1
           1
           1
           1
           1
           1
           1
           1
           1
           1
           1
           1
           1
           1
           1
           1
           1
           1
           1
           1
           1
           1
           1
           1
           1
           1
           1
           1
           1
           1
           1
           1
           1
           1
           1
           1
           1
           1
           1
           1
           1
           1
           1
           1
           1
           1
           1
           1
           1
           1
           1
           1
           1
           1
           1
           1
           1
           1
           1
           1
           1
           1
           1
           1
           1
           1
           1
           1
           1
           1
           1
           1
           1
           1
           1
           1
           1
           1
           1
           1
           1
           1
           1
           1
           1
           1
           1
           1
           1
           1
           1
           1
           1
           1
           1
           1
           1
           1
           1
           1
           1
           1
           1
           1
           1
           1
           1
           1
           1
           1
           1
           1
           1
           1
           1
           1
           1
           1
           1
           1
           1
           1
           1
           1
           1
           1
           1
           1
           1
           1
           1
           1
           1
           1
           1
           1
           1
           1
           1
           1
           1
           1
           1
           1
           1
           1
           1
           1
           1
           1
           1
           1
           1
           1
           1
           1
           1
           1
           1
           1
           1
           1
           1
           1
           1
           1
           1
           1
           1
           1
           1
           1
           1
           1
           1
           1
           1
           1
           1
           1
           1
           1
           1
           1
           1
           1
           1
           1
           1
           1
           1
           1
           1
           1
           1
           1
           1
           1
           1
           1
           1
           1
           1
           1
           1
           1
           1
           1
           1
           1
           1
           1
           1
           1
           1
           1
           1
           1
           1
           1
           1
           1
           1
           1
           1
           1
           1
           1
           1
           1
           1
           1
           1
           1
           1
           1
           1
           1
           1
           1
           1
           1
           1
           1
           1
           1
           1
           1
           1
           1
           1
           1
           1
           1
           1
           1
           1
           1
           1
           1
           1
           1
           1
           1
           1
           1
           1
           1
           1
           1
           1
           1
           1
           1
           1
           1
           1
           1
           1
           1
           1
           1
           1
           1
           1
           1
           1
           1
           1
           1
           1
           1
           1
           1
           1
           1
           1
           1
           1
           1
           1
           1
           1
           1
           1
           1
           1
           1
           1
           1
           1
           1
           1
           1
           1
           1
           1
           1
           1
           1
           1
           1
           1
           1
           1
           1
           1
           1
           1
           1
           1
           1
           1
           1
           1
           1
           1
           1
           1
           1
           1
           1
           1
           1
           1
           1
           1
           1
           1
           1
           1
           1
           1
           1
           1
           1
           1
           1
           1
           1
           1
           1
           1
           1
           1
           1
           1
           1
           1
           1
           1
           1
           1
           1
           1
           1
           1
           1
           1
           1
           1
           1
           1
           1
           1
           1
           1
           1
           1
           1
           1
           1
           1
           1
           1
           1
           1
           1
           1
           1
           1
           1
           1
           1
           1
           1
           1
           1
           1
           1
           1
           1
           1
           1
           1
           1
           1
           1
           1
           1
           1
           1
           1
           1
           1
           1
           1
           1
           1
           1
           1
           1
           1
           1
           1
           1
           1
           1
           1
           1
           1
           1
           1
           1
           1
           1
           1
           1
           1
           1
           1
           1
           1
           1
           1
           1
           1
           1
           1
           1
           1
           1
           1
           1
           1
           1
           1
           1
           1
           1
           1
           1
           1
           1
           1
           1
           1
           1
           1
           1
           1
           1
           1
           1
           1
           1
           1
           1
           1
           1
           1
           1
           1
           1
           1
           1
           1
           1
           1
           1
           1
           1
           1
           1
           1
           1
           1
           1
           1
           1
           1
           1
           1
           1
           1
           1
           1
           1
           1
           1
           1
           1
           1
           1
           1
           1
           1
           1
           1
           1
           1
           1
           1
           1
           1
           1
           1
           1
           1
           1
           1
           1
           1
           1
           1
           1
           1
           1
           1
           1
           1
           1
           1
           1
           1
           1
           1
           1
           1
           1
           1
           1
           1
           1
           1
           1
           1
           1
           1
           1
           1
           1
           1
           1
           1
           1
           1
           1
           1
           1
           1
           1
           1
           1
           1
           1
           1
           1
           1
           1
           1
           1
           1
           1
           1
           1
           1
           1
           1
           1
           1
           1
           1
           1
           1
           1
           1
           1
           1
           1
           1
           1
           1
           1
           1
           1
           1
           1
           1
           1
           1
           1
           1
           1
           1
           1
           1
           1
           1
           1
           1
           1
           1
           1
           1
           1
           1
           1
           1
           1
           1
           1
           1
           1
           1
           1
           1
           1
           1
           1
           1
           1
           1
           1
           1
           1
           1
           1
           1
           1
           1
           1
           1
           1
           1
           1
           1
           1
           1
           1
           1
           1
           1
           1
           1
           1
           1
           1
           1
           1
           1
           1
           1
           1
           1
           1
           1
           1
           1
           1
           1
           1
           1
           1
           1
           1
           1
           1
           1
           1
           1
           1
           1
           1
           1
           1
           1
           1
           1
           1
           1
           1
           1
           1
           1
           1
           1
           1
           1
           1
           1
           1
           1
           1
           1
           1
           1
           1
           1
           1
           1
           1
           1
           1
           1
           1
           1
           1
           1
           1
           1
           1
           1
           1
           1
           1
           1
           1
           1
           1
           1
           1
           1
           1
           1
           1
           1
           1
           1
           1
           1
           1
           1
           1
           1
           1
           1
           1
           1
           1
           1
           1
           1
           1
           1
           1
           1
           1
           1
           1
           1
           1
           1
           1
           1
           1
           1
           1
           1
           1
           1
           1
           1
           1
           1
           1
           1
           1
           1
           1
           1
           1
           1
           1
           1
           1
           1
           1
           1
           1
           1
           1
           1
           1
           1
           1
           1
           1
           1
           1
           1
           1
           1
           1
           1
           1
           1
           1
           1
           1
           1
           1
           1
           1
           1
           1
           1
           1
           1
           1
           1
           1
           1
           1
           1
           1
           1
           1
           1
           1
           1
           1
           1
           1
           1
           1
           1
           1
           1
           1
           1
           1
           1
           1
           1
           1
           1
           1
           1
           1
           1
           1
           1
           1
           1
           1
           1
           1
           1
           1
           1
           1
           1
           1
           1
           1
           1
           1
           1
           1
           1
           1
           1
           1
           1
           1
           1
           1
           1
           1
           1
           2
           2
           2
           2
           2
           2
           2
           2
           2
           2
           2
           2
           2
           2
           2
           2
           2
           2
           2
           2
           2
           2
           2
           2
           2
           2
           2
           2
           2
           2
           2
           2
           2
           2
           2
           2
           2
           2
           2
           2
           2
           2
           2
           2
           2
           2
           2
           2
           2
           2
           2
           2
           2
           2
           2
           2
           2
           2
           2
           2
           2
           2
           2
           2
           2
           2
           2
           2
           2
           2
           2
           2
           2
           2
           2
           2
           2
           2
           2
           2
           2
           2
           2
           2
           2
           2
           2
           2
           2
           2
           2
           2
           2
           2
           2
           2
           2
           2
           2
           2
           2
           2
           2
           2
           2
           2
           2
           2
           2
           2
           2
           2
           2
           2
           2
           2
           2
           2
           2
           2
           2
           2
           2
           2
           2
           2
           2
           2
           2
           2
           2
           2
           2
           2
           2
           2
           2
           2
           2
           2
           2
           2
           2
           2
           2
           2
           2
           2
           2
           2
           2
           2
           2
           2
           2
           2
           2
           2
           2
           2
           2
           2
           2
           2
           2
           2
           2
           2
           2
           2
           2
           2
           2
           2
           2
           2
           2
           2
           2
           2
           2
           2
           2
           2
           2
           2
           2
           2
           2
           2
           2
           2
           2
           2
           2
           2
           2
           2
           2
           2
           2
           2
           2
           2
           2
           2
           2
           2
           2
           2
           2
           2
           2
           2
           2
           2
           2
           2
           2
           2
           2
           2
           2
           2
           2
           2
           2
           2
           2
           2
           2
           2
           2
           2
           2
           2
           2
           2
           2
           2
           2
           2
           2
           2
           2
           2
           2
           2
           2
           2
           2
           2
           2
           2
           2
           2
           2
           2
           2
           2
           2
           2
           2
           2
           2
           2
           2
           2
           2
           2
           2
           2
           2
           2
           2
           2
           2
           2
           2
           2
           2
           2
           2
           2
           2
           2
           2
           2
           2
           2
           2
           2
           2
           2
           2
           2
           2
           2
           2
           2
           2
           2
           2
           2
           2
           2
           2
           2
           2
           2
           2
           2
           2
           2
           2
           2
           2
           2
           2
           2
           2
           2
           2
           2
           2
           2
           2
           2
           2
           2
           2
           2
           2
           2
           2
           2
           2
           2
           2
           2
           2
           2
           2
           2
           2
           2
           2
           2
           2
           2
           2
           2
           2
           2
           2
           2
           2
           2
           2
           2
           2
           2
           2
           2
           2
           2
           2
           2
           2
           2
           2
           2
           2
           2
           2
           2
           2
           2
           2
           2
           2
           2
           2
           2
           2
           2
           2
           2
           2
           2
           2
           2
           2
           2
           2
           2
           2
           2
           2
           2
           2
           2
           2
           2
           2
           2
           2
           2
           2
           2
           2
           2
           2
           2
           2
           2
           2
           2
           2
           2
           2
           2
           2
           2
           2
           2
           2
           2
           2
           2
           2
           2
           2
           2
           2
           2
           2
           2
           2
           2
           2
           2
           2
           2
           2
           2
           2
           2
           2
           2
           2
           2
           2
           2
           2
           2
           2
           2
           2
           2
           2
           2
           2
           2
           2
           2
           2
           2
           2
           2
           2
           2
           2
           2
           2
           2
           2
           2
           2
           2
           2
           2
           2
           2
           2
           2
           2
           2
           2
           2
           2
           2
           2
           2
           2
           2
           2
           2
           2
           2
           2
           2
           2
           2
           2
           2
           2
           2
           2
           2
           2
           2
           2
           2
           2
           2
           2
           2
           2
           2
           2
           2
           2
           2
           2
           2
           2
           2
           2
           2
           2
           2
           2
           2
           2
           2
           2
           2
           2
           2
           2
           2
           2
           2
           2
           2
           2
           2
           2
           2
           2
           2
           2
           2
           2
           2
           2
           2
           2
           2
           2
           2
           2
           2
           2
           2
           2
           2
           2
           2
           2
           2
           2
           2
           2
           2
           2
           2
           2
           2
           2
           2
           2
           2
           2
           2
           2
           2
           2
           2
           2
           2
           2
           2
           2
           2
           2
           2
           2
           2
           2
           2
           2
           2
           2
           2
           2
           2
           2
           2
           2
           2
           2
           2
           2
           2
           2
           2
           2
           2
           2
           2
           2
           2
           2
           2
           2
           2
           2
           2
           2
           2
           2
           2
           2
           2
           2
           2
           2
           2
           2
           2
           2
           2
           2
           2
           2
           2
           2
           2
           2
           2
           2
           2
           2
           2
           2
           2
           2
           2
           2
           2
           2
           2
           2
           2
           2
           2
           2
           2
           2
           2
           2
           2
           2
           2
           2
           2
           2
           2
           2
           2
           2
           2
           2
           2
           2
           2
           2
           2
           2
           2
           2
           2
           2
           2
           2
           2
           2
           2
           2
           2
           2
           2
           2
           2
           2
           2
           2
           2
           2
           2
           2
           2
           2
           2
           2
           2
           2
           2
           2
           2
           2
           2
           2
           2
           2
           2
           2
           2
           2
           2
           2
           2
           2
           2
           2
           2
           2
           2
           2
           2
           2
           2
           2
           2
           2
           2
           2
           2
           2
           2
           2
           2
           2
           2
           2
           2
           2
           2
           2
           2
           2
           2
           2
           2
           2
           2
           2
           2
           2
           2
           2
           2
           2
           2
           2
           2
           2
           2
           2
           2
           2
           2
           2
           2
           2
           2
           2
           2
           2
           2
           2
           2
           2
           2
           2
           2
           2
           2
           2
           2
           2
           2
           2
           2
           2
           2
           2
           2
           2
           2
           2
           2
           2
           2
           2
           2
           2
           2
           2
           2
           2
           2
           2
           2
           2
           2
           2
           2
           2
           2
           2
           2
           2
           2
           2
           2
           2
           2
           2
           2
           2
           2
           2
           2
           2
           2
           2
           2
           2
           2
           2
           2
           2
           2
           2
           2
           2
           2
           2
           2
           2
           2
           2
           2
           2
           2
           2
           2
           2
           2
           2
           2
           2
           2
           2
           2
           2
           2
           2
           2
           2
           2
           2
           2
           2
           2
           2
           2
           2
           2
           2
           2
           2
           2
           2
           2
           2
           2
           2
           2
           2
           2
           2
           2
           2
           2
           2
           2
           2
           2
           2
           2
           2
           2
           2
           2
           2
           2
           2
           2
           2
           2
           2
           2
           2
           2
           2
           2
           2
           2
           2
           2
           2
           2
           2
           2
           2
           2
           2
           2
           2
           2
           2
           2
           2
           2
           2
           2
           2
           2
           2
           2
           2
           2
           2
           2
           2
           2
           2
           2
           2
           2
           2
           2
           2
           2
           2
           2
           2
           2
           2
           2
           2
           2
           2
           2
           2
           2
           2
           2
           2
           2
           2
           2
           2
           2
           2
           2
           2
           2
           2
           2
           2
           2
           2
           2
           2
           2
           2
           2
           2
           2
           2
           2
           2
           2
           2
           2
           2
           2
           2
           2
           2
           2
           2
           2
           2
           2
           2
           2
           2
           2
           2
           2
           2
           2
           2
           2
           2
           2
           2
           2
           2
           2
           2
           2
           2
           2
           2
           2
           2
           2
           2
           2
           2
           2
           2
           2
           2
           2
           2
           2
           2
           2
           2
           2
           2
           2
           2
           2
           2
           2
           2
           2
           2
           2
           2
           2
           2
           2
           2
           2
           2
           2
           2
           2
           2
           2
           2
           2
           2
           2
           2
           2
           2
           2
           2
           2
           2
           2
           2
           2
           2
           2
           2
           2
           2
           2
           2
           2
           2
           2
           2
           2
           2
           2
           2
           2
           2
           2
           2
           2
           2
           2
           2
           2
           2
           2
           2
           2
           2
           2
           2
           2
           2
           2
           2
           2
           2
           2
           2
           2
           2
           2
           2
           2
           2
           2
           2
           2
           2
           2
           2
           2
           2
           2
           2
           2
           2
           2
           2
           2
           2
           2
           2
           2
           2
           2
           2
           2
           2
           2
           2
           2
           2
           2
           2
           2
           2
           2
           2
           2
           2
           2
           2
           2
           2
           2
           2
           2
           2
           2
           2
           2
           2
           2
           2
           2
           2
           2
           2
           2
           2
           2
           2
           2
           2
           2
           2
           2
           2
           2
           2
           2
           2
           2
           2
           2
           2
           2
           2
           2
           2
           2
           2
           2
           2
           2
           2
           2
           2
           2
           2
           2
           2
           2
           2
           2
           2
           2
           2
           2
           2
           2
           2
           2
           2
           2
           2
           2
           2
           2
           2
           2
           2
           2
           2
           2
           2
           2
           2
           2
           2
           2
           2
           2
           2
           2
           2
           2
           2
           2
           2
           2
           2
           2
           2
           2
           2
           2
           2
           2
           2
           2
           2
           2
           2
           2
           2
           2
           2
           2
           2
           2
           2
           2
           2
           2
           2
           2
           2
           2
           2
           2
           2
           2
           2
           2
           2
           2
           2
           2
           2
           2
           2
           2
           2
           2
           2
           2
           2
           2
           2
           2
           2
           2
           2
           2
           2
           2
           2
           2
           2
           2
           2
           2
           2
           2
           2
           2
           2
           2
           2
           2
           2
           2
           2
           2
           2
           2
           2
           2
           2
           2
           2
           2
           2
           2
           2
           2
           2
           2
           2
           2
           2
           2
           2
           2
           2
           2
           2
           2
           2
           2
           2
           2
           2
           2
           2
           2
           2
           2
           2
           2
           2
           2
           2
           2
           2
           2
           2
           2
           2
           2
           2
           2
           2
           2
           2
           2
           2
           2
           2
           2
           2
           2
           2
           2
           2
           2
           2
           2
           2
           2
           2
           2
           2
           2
           2
           2
           2
           2
           2
           2
           2
           2
           2
           2
           2
           2
           2
           2
           2
           2
           2
           2
           2
           2
           2
           2
           2
           2
           2
           2
           2
           2
           2
           2
           2
           2
           2
           2
           2
           2
           2
           2
           2
           2
           2
           2
           2
           2
           2
           2
           2
           2
           2
           2
           2
           2
           2
           2
           2
           2
           2
           2
           2
           2
           2
           2
           2
           2
           2
           2
           2
           2
           2
           2
           2
           2
           2
           2
           2
           2
           2
           2
           2
           2
           2
           2
           2
           2
           2
           2
           2
           2
           2
           2
           2
           2
           2
           2
           2
           2
           2
           2
           2
           2
           2
           2
           2
           2
           2
           2
           2
           2
           2
           2
           2
           2
           2
           2
           2
           2
           2
           2
           2
           2
           2
           2
           2
           2
           2
           2
           2
           2
           2
           2
           2
           2
           2
           2
           2
           2
           2
           2
           2
           2
           2
           2
           2
           2
           2
           2
           2
           2
           2
           2
           2
           2
           2
           2
           2
           2
           2
           2
           2
           2
           2
           2
           2
           2
           2
           2
           2
           2
           2
           2
           2
           2
           2
           2
           2
           2
           2
           2
           2
           2
           2
           2
           2
           2
           2
           2
           2
           2
           2
           2
           2
           2
           2
           2
           2
           2
           2
           2
           2
           2
           2
           2
           2
           2
           2
           2
           2
           2
           2
           2
           2
           2
           2
           2
           2
           2
           2
           2
           2
           2
           2
           2
           2
           2
           2
           2
           2
           2
           2
           2
           2
           2
           2
           2
           2
           2
           2
           2
           2
           2
           2
           2
           2
           2
           2
           2
           2
           2
           2
           2
           2
           2
           2
           2
           2
           2
           2
           2
           2
           2
           2
           2
           2
           2
           2
           2
           2
           2
           2
           2
           2
           2
           2
           2
           2
           2
           2
           2
           2
           2
           2
           2
           2
           2
           2
           2
           2
           2
           2
           2
           2
           2
           2
           2
           2
           2
           2
           2
           2
           2
           2
           2
           2
           2
           2
           2
           2
           2
           2
           2
           2
           2
           2
           2
           2
           2
           2
           2
           2
           2
           2
           2
           2
           2
           2
           2
           2
           2
           2
           2
           2
           2
           2
           2
           2
           2
           2
           2
           2
           2
           2
           2
           2
           2
           2
           2
           2
           2
           2
           2
           2
           2
           2
           2
           2
           2
           2
           2
           2
           2
           2
           2
           2
           2
           2
           2
           2
           2
           2
           2
           2
           2
           2
           2
           2
           2
           2
           2
           2
           2
           2
           2
           2
           2
           2
           2
           2
           2
           2
           2
           2
           2
           2
           2
           2
           2
           2
           2
           2
           2
           2
           2
           2
           2
           2
           2
           2
           2
           2
           2
           2
           2
           2
           2
           2
           2
           2
           2
           2
           2
           2
           2
           2
           2
           2
           2
           2
           2
           2
           2
           2
           2
           2
           2
           2
           2
           2
           2
           2
           2
           2
           2
           2
           2
           2
           2
           2
           2
           2
           2
           2
           2
           2
           2
           2
           2
           2
           2
           2
           2
           2
           2
           2
           2
           2
           2
           2
           2
           2
           2
           2
           2
           2
           2
           2
           2
           2
           2
           2
           2
           2
           2
           2
           2
           2
           2
           2
           2
           2
           2
           2
           2
           2
           2
           2
           2
           2
           2
           2
           2
           2
           2
           2
           2
           2
           2
           2
           2
           2
           2
           2
           2
           2
           2
           2
           2
           2
           2
           2
           2
           2
           2
           2
           2
           2
           2
           2
           2
           2
           2
           2
           2
           2
           2
           2
           2
           2
           2
           2
           2
           2
           2
           2
           2
           2
           2
           2
           2
           2
           2
           2
           2
           2
           2
           2
           2
           2
           2
           2
           2
           2
           2
           2
           2
           2
           2
           2
           2
           2
           2
           2
           2
           2
           2
           2
           2
           2
           2
           2
           2
           2
           2
           2
           2
           2
           2
           2
           2
           2
           2
           2
           2
           2
           2
           2
           2
           2
           2
           2
           2
           2
           2
           2
           2
           2
           2
           2
           2
           2
           2
           2
           2
           2
           2
           2
           2
           2
           2
           2
           2
           2
           2
           2
           2
           2
           2
           2
           2
           2
           2
           2
           2
           2
           2
           2
           2
           2
           2
           2
           2
           2
           2
           2
           2
           2
           2
           2
           2
           2
           2
           2
           2
           2
           2
           2
           2
           2
           2
           2
           2
           2
           2
           2
           2
           2
           2
           2
           2
           2
           2
           2
           2
           2
           2
           2
           2
           2
           2
           2
           2
           2
           2
           2
           2
           2
           2
           2
           2
           2
           2
           2
           2
           2
           2
           2
           2
           2
           2
           2
           2
           2
           2
           2
           2
           2
           2
           2
           2
           2
           2
           2
           2
           2
           2
           2
           2
           2
           2
           2
           2
           2
           2
           2
           2
           2
           2
           2
           2
           2
           2
           2
           2
           2
           2
           2
           2
           2
           2
           2
           2
           2
           2
           2
           2
           2
           2
           2
           2
           2
           2
           2
           2
           2
           2
           2
           2
           2
           2
           2
           2
           2
           2
           2
           2
           2
           2
           2
           2
           2
           2
           2
           2
           2
           2
           2
           2
           2
           2
           2
           2
           2
           2
           2
           2
           2
           2
           2
           2
           2
           2
           2
           2
           2
           2
           2
           2
           2
           2
           2
           2
           2
           2
           2
           2
           2
           2
           2
           2
           2
           2
           2
           2
           2
           2
           2
           2
           2
           2
           2
           2
           2
           2
           2
           2
           2
           2
           2
           2
           2
           2
           2
           2
           2
           2
           2
           2
           2
           2
           2
           2
           2
           2
           2
           2
           2
           2
           2
           2
           2
           2
           2
           2
           2
           2
           2
           2
           2
           2
           2
           2
           2
           2
           2
           2
           2
           2
           2
           2
           2
           2
           2
           2
           2
           2
           2
           2
           2
           2
           2
           2
           2
           2
           2
           2
           2
           2
           2
           2
           2
           2
           2
           2
           2
           2
           2
           2
           2
           2
           2
           2
           2
           2
           2
           2
           2
           2
           2
           2
           2
           2
           2
           2
           2
           2
           2
           2
           2
           2
           2
           2
           2
           2
           2
           2
           2
           2
           2
           2
           2
           2
           2
           2
           2
           2
           2
           2
           2
           2
           2
           2
           2
           2
           2
           2
           2
           2
           2
           2
           2
           2
           2
           2
           2
           2
           2
           2
           2
           2
           2
           2
           2
           2
           2
           2
           2
           2
           2
           2
           2
           2
           2
           2
           2
           2
           2
           2
           2
           2
           2
           2
           2
           2
           2
           2
           2
           2
           2
           2
           2
           2
</DataArray>
</CellData>
</Piece>
</UnstructuredGrid>
</VTKFile>
