<VTKFile type="UnstructuredGrid" version="1,0" byte_order="LittleEndian">
<UnstructuredGrid>
<Piece NumberOfPoints="5802" NumberOfCells="5680">
<Points>
<DataArray type="Float64" NumberOfComponents="3" format="ascii">
-0.1100000000000E+01 -0.4731587125634E+01  0.0000000000000E+00
 0.0000000000000E+00 -0.4731587125634E+01  0.0000000000000E+00
 0.1100000000000E+01 -0.4731587125634E+01  0.0000000000000E+00
-0.1191315091097E+01 -0.1825930012610E+01  0.0000000000000E+00
-0.5956575398395E+00 -0.1755172846926E+01  0.0000000000000E+00
 0.5956575512579E+00 -0.1755172847830E+01  0.0000000000000E+00
 0.1191315091097E+01 -0.1825930012610E+01  0.0000000000000E+00
-0.1487255332335E+01  0.3711246317436E+00  0.0000000000000E+00
 0.1487255329206E+01  0.3711246337271E+00  0.0000000000000E+00
-0.6187500000000E+00 -0.4973806884503E+00  0.0000000000000E+00
 0.6187500000000E+00 -0.4973806884503E+00  0.0000000000000E+00
-0.1072500000000E+01 -0.4731587125634E+01  0.0000000000000E+00
-0.1045000000000E+01 -0.4731587125634E+01  0.0000000000000E+00
-0.1017500000000E+01 -0.4731587125634E+01  0.0000000000000E+00
-0.9900000000000E+00 -0.4731587125634E+01  0.0000000000000E+00
-0.9625000000000E+00 -0.4731587125634E+01  0.0000000000000E+00
-0.9350000000000E+00 -0.4731587125634E+01  0.0000000000000E+00
-0.9075000000000E+00 -0.4731587125634E+01  0.0000000000000E+00
-0.8800000000000E+00 -0.4731587125634E+01  0.0000000000000E+00
-0.8525000000000E+00 -0.4731587125634E+01  0.0000000000000E+00
-0.8250000000000E+00 -0.4731587125634E+01  0.0000000000000E+00
-0.7975000000000E+00 -0.4731587125634E+01  0.0000000000000E+00
-0.7700000000000E+00 -0.4731587125634E+01  0.0000000000000E+00
-0.7425000000000E+00 -0.4731587125634E+01  0.0000000000000E+00
-0.7150000000000E+00 -0.4731587125634E+01  0.0000000000000E+00
-0.6875000000000E+00 -0.4731587125634E+01  0.0000000000000E+00
-0.6600000000000E+00 -0.4731587125634E+01  0.0000000000000E+00
-0.6325000000000E+00 -0.4731587125634E+01  0.0000000000000E+00
-0.6050000000000E+00 -0.4731587125634E+01  0.0000000000000E+00
-0.5775000000000E+00 -0.4731587125634E+01  0.0000000000000E+00
-0.5500000000000E+00 -0.4731587125634E+01  0.0000000000000E+00
-0.5225000000000E+00 -0.4731587125634E+01  0.0000000000000E+00
-0.4950000000000E+00 -0.4731587125634E+01  0.0000000000000E+00
-0.4675000000000E+00 -0.4731587125634E+01  0.0000000000000E+00
-0.4400000000000E+00 -0.4731587125634E+01  0.0000000000000E+00
-0.4125000000000E+00 -0.4731587125634E+01  0.0000000000000E+00
-0.3850000000000E+00 -0.4731587125634E+01  0.0000000000000E+00
-0.3575000000000E+00 -0.4731587125634E+01  0.0000000000000E+00
-0.3300000000000E+00 -0.4731587125634E+01  0.0000000000000E+00
-0.3025000000000E+00 -0.4731587125634E+01  0.0000000000000E+00
-0.2750000000000E+00 -0.4731587125634E+01  0.0000000000000E+00
-0.2475000000000E+00 -0.4731587125634E+01  0.0000000000000E+00
-0.2200000000000E+00 -0.4731587125634E+01  0.0000000000000E+00
-0.1925000000000E+00 -0.4731587125634E+01  0.0000000000000E+00
-0.1650000000000E+00 -0.4731587125634E+01  0.0000000000000E+00
-0.1375000000000E+00 -0.4731587125634E+01  0.0000000000000E+00
-0.1100000000000E+00 -0.4731587125634E+01  0.0000000000000E+00
-0.8250000000000E-01 -0.4731587125634E+01  0.0000000000000E+00
-0.5500000000000E-01 -0.4731587125634E+01  0.0000000000000E+00
-0.2750000000000E-01 -0.4731587125634E+01  0.0000000000000E+00
 0.2750000000000E-01 -0.4731587125634E+01  0.0000000000000E+00
 0.5500000000000E-01 -0.4731587125634E+01  0.0000000000000E+00
 0.8250000000000E-01 -0.4731587125634E+01  0.0000000000000E+00
 0.1100000000000E+00 -0.4731587125634E+01  0.0000000000000E+00
 0.1375000000000E+00 -0.4731587125634E+01  0.0000000000000E+00
 0.1650000000000E+00 -0.4731587125634E+01  0.0000000000000E+00
 0.1925000000000E+00 -0.4731587125634E+01  0.0000000000000E+00
 0.2200000000000E+00 -0.4731587125634E+01  0.0000000000000E+00
 0.2475000000000E+00 -0.4731587125634E+01  0.0000000000000E+00
 0.2750000000000E+00 -0.4731587125634E+01  0.0000000000000E+00
 0.3025000000000E+00 -0.4731587125634E+01  0.0000000000000E+00
 0.3300000000000E+00 -0.4731587125634E+01  0.0000000000000E+00
 0.3575000000000E+00 -0.4731587125634E+01  0.0000000000000E+00
 0.3850000000000E+00 -0.4731587125634E+01  0.0000000000000E+00
 0.4125000000000E+00 -0.4731587125634E+01  0.0000000000000E+00
 0.4400000000000E+00 -0.4731587125634E+01  0.0000000000000E+00
 0.4675000000000E+00 -0.4731587125634E+01  0.0000000000000E+00
 0.4950000000000E+00 -0.4731587125634E+01  0.0000000000000E+00
 0.5225000000000E+00 -0.4731587125634E+01  0.0000000000000E+00
 0.5500000000000E+00 -0.4731587125634E+01  0.0000000000000E+00
 0.5775000000000E+00 -0.4731587125634E+01  0.0000000000000E+00
 0.6050000000000E+00 -0.4731587125634E+01  0.0000000000000E+00
 0.6325000000000E+00 -0.4731587125634E+01  0.0000000000000E+00
 0.6600000000000E+00 -0.4731587125634E+01  0.0000000000000E+00
 0.6875000000000E+00 -0.4731587125634E+01  0.0000000000000E+00
 0.7150000000000E+00 -0.4731587125634E+01  0.0000000000000E+00
 0.7425000000000E+00 -0.4731587125634E+01  0.0000000000000E+00
 0.7700000000000E+00 -0.4731587125634E+01  0.0000000000000E+00
 0.7975000000000E+00 -0.4731587125634E+01  0.0000000000000E+00
 0.8250000000000E+00 -0.4731587125634E+01  0.0000000000000E+00
 0.8525000000000E+00 -0.4731587125634E+01  0.0000000000000E+00
 0.8800000000000E+00 -0.4731587125634E+01  0.0000000000000E+00
 0.9075000000000E+00 -0.4731587125634E+01  0.0000000000000E+00
 0.9350000000000E+00 -0.4731587125634E+01  0.0000000000000E+00
 0.9625000000000E+00 -0.4731587125634E+01  0.0000000000000E+00
 0.9900000000000E+00 -0.4731587125634E+01  0.0000000000000E+00
 0.1017500000000E+01 -0.4731587125634E+01  0.0000000000000E+00
 0.1045000000000E+01 -0.4731587125634E+01  0.0000000000000E+00
 0.1072500000000E+01 -0.4731587125634E+01  0.0000000000000E+00
-0.1161675590434E+01 -0.1821293974842E+01  0.0000000000000E+00
-0.1132018469080E+01 -0.1816772081031E+01  0.0000000000000E+00
-0.1102344135527E+01 -0.1812364599475E+01  0.0000000000000E+00
-0.1072653001422E+01 -0.1808071792594E+01  0.0000000000000E+00
-0.1042945459471E+01 -0.1803893913795E+01  0.0000000000000E+00
-0.1013221952450E+01 -0.1799831217138E+01  0.0000000000000E+00
-0.9834829017084E+00 -0.1795883946982E+01  0.0000000000000E+00
-0.9537287316532E+00 -0.1792052341512E+01  0.0000000000000E+00
-0.9239598612408E+00 -0.1788336631619E+01  0.0000000000000E+00
-0.8941767210493E+00 -0.1784737043031E+01  0.0000000000000E+00
-0.8643797539566E+00 -0.1781253796152E+01  0.0000000000000E+00
-0.8345693957871E+00 -0.1777887103664E+01  0.0000000000000E+00
-0.8047460850418E+00 -0.1774637171701E+01  0.0000000000000E+00
-0.7749102599775E+00 -0.1771504199483E+01  0.0000000000000E+00
-0.7450623578572E+00 -0.1768488379244E+01  0.0000000000000E+00
-0.7152028352234E+00 -0.1765589898169E+01  0.0000000000000E+00
-0.6853321404180E+00 -0.1762808935500E+01  0.0000000000000E+00
-0.6554507240472E+00 -0.1760145663610E+01  0.0000000000000E+00
-0.6255590388957E+00 -0.1757600247935E+01  0.0000000000000E+00
-0.5659320403842E+00 -0.1752877555980E+01  0.0000000000000E+00
-0.5361977827764E+00 -0.1750699115345E+01  0.0000000000000E+00
-0.5064551822954E+00 -0.1748637656849E+01  0.0000000000000E+00
-0.4767046834532E+00 -0.1746693307634E+01  0.0000000000000E+00
-0.4469467825907E+00 -0.1744866190914E+01  0.0000000000000E+00
-0.4171818756954E+00 -0.1743156416506E+01  0.0000000000000E+00
-0.3874104734057E+00 -0.1741564093885E+01  0.0000000000000E+00
-0.3576330176963E+00 -0.1740089321191E+01  0.0000000000000E+00
-0.3278499563594E+00 -0.1738732189839E+01  0.0000000000000E+00
-0.2980617833702E+00 -0.1737492785992E+01  0.0000000000000E+00
-0.2682689204519E+00 -0.1736371185422E+01  0.0000000000000E+00
-0.2384718656336E+00 -0.1735367459648E+01  0.0000000000000E+00
-0.2086710716336E+00 -0.1734481671049E+01  0.0000000000000E+00
-0.1788669979735E+00 -0.1733713874997E+01  0.0000000000000E+00
-0.1490601279746E+00 -0.1733064120054E+01  0.0000000000000E+00
-0.1192509059245E+00 -0.1732532446511E+01  0.0000000000000E+00
-0.8943981808141E-01 -0.1732118888112E+01  0.0000000000000E+00
-0.5962732433722E-01 -0.1731823470688E+01  0.0000000000000E+00
-0.2981389296327E-01 -0.1731646212812E+01  0.0000000000000E+00
 0.5727055635285E-08 -0.1731587125634E+01  0.0000000000000E+00
 0.2981390441730E-01 -0.1731646212857E+01  0.0000000000000E+00
 0.5962733579097E-01 -0.1731823470779E+01  0.0000000000000E+00
 0.8943982953471E-01 -0.1732118888248E+01  0.0000000000000E+00
 0.1192509173772E+00 -0.1732532446692E+01  0.0000000000000E+00
 0.1490601394265E+00 -0.1733064120281E+01  0.0000000000000E+00
 0.1788670094244E+00 -0.1733713875269E+01  0.0000000000000E+00
 0.2086710830833E+00 -0.1734481671367E+01  0.0000000000000E+00
 0.2384718770819E+00 -0.1735367460011E+01  0.0000000000000E+00
 0.2682689318987E+00 -0.1736371185830E+01  0.0000000000000E+00
 0.2980617948153E+00 -0.1737492786445E+01  0.0000000000000E+00
 0.3278499678026E+00 -0.1738732190338E+01  0.0000000000000E+00
 0.3576330291375E+00 -0.1740089321735E+01  0.0000000000000E+00
 0.3874104848446E+00 -0.1741564094474E+01  0.0000000000000E+00
 0.4171818871319E+00 -0.1743156417141E+01  0.0000000000000E+00
 0.4469467940246E+00 -0.1744866191594E+01  0.0000000000000E+00
 0.4767046948843E+00 -0.1746693308359E+01  0.0000000000000E+00
 0.5064551937236E+00 -0.1748637657619E+01  0.0000000000000E+00
 0.5361977942015E+00 -0.1750699116160E+01  0.0000000000000E+00
 0.5659320518060E+00 -0.1752877556840E+01  0.0000000000000E+00
 0.6255590497397E+00 -0.1757600248837E+01  0.0000000000000E+00
 0.6554507343169E+00 -0.1760145664505E+01  0.0000000000000E+00
 0.6853321501138E+00 -0.1762808936384E+01  0.0000000000000E+00
 0.7152028443456E+00 -0.1765589899036E+01  0.0000000000000E+00
 0.7450623664059E+00 -0.1768488380091E+01  0.0000000000000E+00
 0.7749102679531E+00 -0.1771504200305E+01  0.0000000000000E+00
 0.8047460924447E+00 -0.1774637172493E+01  0.0000000000000E+00
 0.8345694026177E+00 -0.1777887104422E+01  0.0000000000000E+00
 0.8643797602152E+00 -0.1781253796871E+01  0.0000000000000E+00
 0.8941767267363E+00 -0.1784737043707E+01  0.0000000000000E+00
 0.9239598663567E+00 -0.1788336632248E+01  0.0000000000000E+00
 0.9537287361985E+00 -0.1792052342089E+01  0.0000000000000E+00
 0.9834829056835E+00 -0.1795883947502E+01  0.0000000000000E+00
 0.1013221955855E+01 -0.1799831217596E+01  0.0000000000000E+00
 0.1042945462307E+01 -0.1803893914188E+01  0.0000000000000E+00
 0.1072653003690E+01 -0.1808071792917E+01  0.0000000000000E+00
 0.1102344137227E+01 -0.1812364599724E+01  0.0000000000000E+00
 0.1132018470213E+01 -0.1816772081202E+01  0.0000000000000E+00
 0.1161675591000E+01 -0.1821293974929E+01  0.0000000000000E+00
-0.1213355268613E+01 -0.1711966308233E+01  0.0000000000000E+00
-0.1238854526170E+01 -0.1598727811073E+01  0.0000000000000E+00
-0.1268466688037E+01 -0.1486497481512E+01  0.0000000000000E+00
-0.1303342965295E+01 -0.1375796643044E+01  0.0000000000000E+00
-0.1345040310075E+01 -0.1267489592785E+01  0.0000000000000E+00
-0.1392581470401E+01 -0.1161597043208E+01  0.0000000000000E+00
-0.1439083524730E+01 -0.1055246799568E+01  0.0000000000000E+00
-0.1480944100518E+01 -0.9469891138312E+00  0.0000000000000E+00
-0.1518131836329E+01 -0.8370360644333E+00  0.0000000000000E+00
-0.1551041415331E+01 -0.7257267337723E+00  0.0000000000000E+00
-0.1579720048034E+01 -0.6132533876738E+00  0.0000000000000E+00
-0.1603836412081E+01 -0.4997150980206E+00  0.0000000000000E+00
-0.1623384157755E+01 -0.3853015140723E+00  0.0000000000000E+00
-0.1638101487121E+01 -0.2701686503839E+00  0.0000000000000E+00
-0.1647164985397E+01 -0.1544579176162E+00  0.0000000000000E+00
-0.1649971232607E+01 -0.3842453929912E-01  0.0000000000000E+00
-0.1647980696334E+01  0.7761284988695E-01  0.0000000000000E+00
-0.1626874369891E+01  0.1914362508587E+00  0.0000000000000E+00
-0.1572796829836E+01  0.2935193328390E+00  0.0000000000000E+00
-0.1418305908641E+01  0.4022416062919E+00  0.0000000000000E+00
-0.1345676864211E+01  0.4236315892164E+00  0.0000000000000E+00
-0.1271121572232E+01  0.4368480112286E+00  0.0000000000000E+00
-0.1195563418735E+01  0.4416990799735E+00  0.0000000000000E+00
-0.1119906317278E+01  0.4384406277265E+00  0.0000000000000E+00
-0.1044756289719E+01  0.4290110284082E+00  0.0000000000000E+00
-0.9703274447726E+00  0.4149459401020E+00  0.0000000000000E+00
-0.8965853652262E+00  0.3976148229097E+00  0.0000000000000E+00
-0.8232882160705E+00  0.3784769972153E+00  0.0000000000000E+00
-0.7500778072402E+00  0.3590082550316E+00  0.0000000000000E+00
-0.6765282087393E+00  0.3408715871599E+00  0.0000000000000E+00
-0.6024721689929E+00  0.3249314759684E+00  0.0000000000000E+00
-0.5279626734789E+00  0.3112660660816E+00  0.0000000000000E+00
-0.4530942500529E+00  0.2997252351383E+00  0.0000000000000E+00
-0.3779502175627E+00  0.2901382908398E+00  0.0000000000000E+00
-0.3025960047097E+00  0.2823699994777E+00  0.0000000000000E+00
-0.2270833670538E+00  0.2763314545000E+00  0.0000000000000E+00
-0.1514548639988E+00  0.2719804032214E+00  0.0000000000000E+00
-0.7574795049362E-01  0.2693218404769E+00  0.0000000000000E+00
-0.1822076423075E-08  0.2684128743665E+00  0.0000000000000E+00
 0.7574794685078E-01  0.2693218403904E+00  0.0000000000000E+00
 0.1514548603582E+00  0.2719804030525E+00  0.0000000000000E+00
 0.2270833634172E+00  0.2763314542500E+00  0.0000000000000E+00
 0.3025960010827E+00  0.2823699991460E+00  0.0000000000000E+00
 0.3779502139414E+00  0.2901382904224E+00  0.0000000000000E+00
 0.4530942464462E+00  0.2997252346305E+00  0.0000000000000E+00
 0.5279626698826E+00  0.3112660654745E+00  0.0000000000000E+00
 0.6024721654224E+00  0.3249314752557E+00  0.0000000000000E+00
 0.6765282051910E+00  0.3408715863362E+00  0.0000000000000E+00
 0.7500778037128E+00  0.3590082541141E+00  0.0000000000000E+00
 0.8232882125500E+00  0.3784769962749E+00  0.0000000000000E+00
 0.8965853616918E+00  0.3976148220208E+00  0.0000000000000E+00
 0.9703274412081E+00  0.4149459393403E+00  0.0000000000000E+00
 0.1044756286115E+01  0.4290110278460E+00  0.0000000000000E+00
 0.1119906313643E+01  0.4384406274322E+00  0.0000000000000E+00
 0.1195563415086E+01  0.4416990800252E+00  0.0000000000000E+00
 0.1271121568610E+01  0.4368480116963E+00  0.0000000000000E+00
 0.1345676860666E+01  0.4236315901228E+00  0.0000000000000E+00
 0.1418305905243E+01  0.4022416076848E+00  0.0000000000000E+00
 0.1572796827692E+01  0.2935193356292E+00  0.0000000000000E+00
 0.1626874368892E+01  0.1914362540528E+00  0.0000000000000E+00
 0.1647980696148E+01  0.7761285305478E-01  0.0000000000000E+00
 0.1649971232614E+01 -0.3842453631130E-01  0.0000000000000E+00
 0.1647164985510E+01 -0.1544579148168E+00  0.0000000000000E+00
 0.1638101487343E+01 -0.2701686477783E+00  0.0000000000000E+00
 0.1623384158054E+01 -0.3853015116666E+00  0.0000000000000E+00
 0.1603836412438E+01 -0.4997150958130E+00  0.0000000000000E+00
 0.1579720048441E+01 -0.6132533856674E+00  0.0000000000000E+00
 0.1551041415774E+01 -0.7257267319674E+00  0.0000000000000E+00
 0.1518131836796E+01 -0.8370360628288E+00  0.0000000000000E+00
 0.1480944100999E+01 -0.9469891124298E+00  0.0000000000000E+00
 0.1439083525216E+01 -0.1055246798366E+01  0.0000000000000E+00
 0.1392581470861E+01 -0.1161597042198E+01  0.0000000000000E+00
 0.1345040310428E+01 -0.1267489591933E+01  0.0000000000000E+00
 0.1303342965506E+01 -0.1375796642335E+01  0.0000000000000E+00
 0.1268466688140E+01 -0.1486497480965E+01  0.0000000000000E+00
 0.1238854526204E+01 -0.1598727810699E+01  0.0000000000000E+00
 0.1213355268613E+01 -0.1711966308043E+01  0.0000000000000E+00
-0.1100000000000E+01 -0.4660595750534E+01  0.0000000000000E+00
-0.1100000000000E+01 -0.4589604523337E+01  0.0000000000000E+00
-0.1100000000000E+01 -0.4518612860194E+01  0.0000000000000E+00
-0.1100000000000E+01 -0.4447621396074E+01  0.0000000000000E+00
-0.1100000000000E+01 -0.4376629946073E+01  0.0000000000000E+00
-0.1100000000000E+01 -0.4305638469395E+01  0.0000000000000E+00
-0.1100000000000E+01 -0.4234647034675E+01  0.0000000000000E+00
-0.1100000000000E+01 -0.4163655573930E+01  0.0000000000000E+00
-0.1100000000000E+01 -0.4092664118400E+01  0.0000000000000E+00
-0.1100000000000E+01 -0.4021672670707E+01  0.0000000000000E+00
-0.1100000000000E+01 -0.3950681208157E+01  0.0000000000000E+00
-0.1100000000000E+01 -0.3879689768887E+01  0.0000000000000E+00
-0.1100000000000E+01 -0.3808698298634E+01  0.0000000000000E+00
-0.1100000000000E+01 -0.3737706770464E+01  0.0000000000000E+00
-0.1100000000000E+01 -0.3666715262498E+01  0.0000000000000E+00
-0.1100000000000E+01 -0.3595723839456E+01  0.0000000000000E+00
-0.1100000000000E+01 -0.3524731789668E+01  0.0000000000000E+00
-0.1100000000000E+01 -0.3453740926047E+01  0.0000000000000E+00
-0.1100000000000E+01 -0.3382749460249E+01  0.0000000000000E+00
-0.1100000000000E+01 -0.3311758072240E+01  0.0000000000000E+00
-0.1100000000000E+01 -0.3240766774652E+01  0.0000000000000E+00
-0.1100000000000E+01 -0.3169775441240E+01  0.0000000000000E+00
-0.1100000000000E+01 -0.3098784076079E+01  0.0000000000000E+00
-0.1100019380481E+01 -0.3027792649889E+01  0.0000000000000E+00
-0.1100182969515E+01 -0.2956801452749E+01  0.0000000000000E+00
-0.1100664097718E+01 -0.2885811820573E+01  0.0000000000000E+00
-0.1101620767933E+01 -0.2814827030427E+01  0.0000000000000E+00
-0.1103169283693E+01 -0.2743852764288E+01  0.0000000000000E+00
-0.1105384238767E+01 -0.2672896168192E+01  0.0000000000000E+00
-0.1108313328915E+01 -0.2601965572023E+01  0.0000000000000E+00
-0.1111994457710E+01 -0.2531069964563E+01  0.0000000000000E+00
-0.1116470504631E+01 -0.2460220060781E+01  0.0000000000000E+00
-0.1121800458045E+01 -0.2389429442476E+01  0.0000000000000E+00
-0.1127980999498E+01 -0.2318707927775E+01  0.0000000000000E+00
-0.1134925652832E+01 -0.2248057274554E+01  0.0000000000000E+00
-0.1142572685777E+01 -0.2177479159635E+01  0.0000000000000E+00
-0.1150886195216E+01 -0.2106976362838E+01  0.0000000000000E+00
-0.1159854464778E+01 -0.2036553785977E+01  0.0000000000000E+00
-0.1169495475345E+01 -0.1966220321347E+01  0.0000000000000E+00
-0.1179881536539E+01 -0.1895993177716E+01  0.0000000000000E+00
 0.1179881536541E+01 -0.1895993177715E+01  0.0000000000000E+00
 0.1169495475345E+01 -0.1966220321347E+01  0.0000000000000E+00
 0.1159854464777E+01 -0.2036553785977E+01  0.0000000000000E+00
 0.1150886195214E+01 -0.2106976362838E+01  0.0000000000000E+00
 0.1142572685775E+01 -0.2177479159635E+01  0.0000000000000E+00
 0.1134925652830E+01 -0.2248057274554E+01  0.0000000000000E+00
 0.1127980999496E+01 -0.2318707927775E+01  0.0000000000000E+00
 0.1121800458043E+01 -0.2389429442476E+01  0.0000000000000E+00
 0.1116470504629E+01 -0.2460220060781E+01  0.0000000000000E+00
 0.1111994457707E+01 -0.2531069964563E+01  0.0000000000000E+00
 0.1108313328912E+01 -0.2601965572023E+01  0.0000000000000E+00
 0.1105384238765E+01 -0.2672896168191E+01  0.0000000000000E+00
 0.1103169283691E+01 -0.2743852764287E+01  0.0000000000000E+00
 0.1101620767933E+01 -0.2814827030427E+01  0.0000000000000E+00
 0.1100664097717E+01 -0.2885811820573E+01  0.0000000000000E+00
 0.1100182969515E+01 -0.2956801452748E+01  0.0000000000000E+00
 0.1100019380481E+01 -0.3027792649889E+01  0.0000000000000E+00
 0.1100000000000E+01 -0.3098784076079E+01  0.0000000000000E+00
 0.1100000000000E+01 -0.3169775441240E+01  0.0000000000000E+00
 0.1100000000000E+01 -0.3240766774652E+01  0.0000000000000E+00
 0.1100000000000E+01 -0.3311758072240E+01  0.0000000000000E+00
 0.1100000000000E+01 -0.3382749460249E+01  0.0000000000000E+00
 0.1100000000000E+01 -0.3453740926047E+01  0.0000000000000E+00
 0.1100000000000E+01 -0.3524731789668E+01  0.0000000000000E+00
 0.1100000000000E+01 -0.3595723839456E+01  0.0000000000000E+00
 0.1100000000000E+01 -0.3666715262498E+01  0.0000000000000E+00
 0.1100000000000E+01 -0.3737706770464E+01  0.0000000000000E+00
 0.1100000000000E+01 -0.3808698298633E+01  0.0000000000000E+00
 0.1100000000000E+01 -0.3879689768887E+01  0.0000000000000E+00
 0.1100000000000E+01 -0.3950681208157E+01  0.0000000000000E+00
 0.1100000000000E+01 -0.4021672670707E+01  0.0000000000000E+00
 0.1100000000000E+01 -0.4092664118399E+01  0.0000000000000E+00
 0.1100000000000E+01 -0.4163655573930E+01  0.0000000000000E+00
 0.1100000000000E+01 -0.4234647034675E+01  0.0000000000000E+00
 0.1100000000000E+01 -0.4305638469395E+01  0.0000000000000E+00
 0.1100000000000E+01 -0.4376629946073E+01  0.0000000000000E+00
 0.1100000000000E+01 -0.4447621396074E+01  0.0000000000000E+00
 0.1100000000000E+01 -0.4518612860194E+01  0.0000000000000E+00
 0.1100000000000E+01 -0.4589604523337E+01  0.0000000000000E+00
 0.1100000000000E+01 -0.4660595750534E+01  0.0000000000000E+00
-0.5884638695905E+00 -0.4894641513885E+00  0.0000000000000E+00
-0.5580825246164E+00 -0.4819218154218E+00  0.0000000000000E+00
-0.5276095633171E+00 -0.4747582607812E+00  0.0000000000000E+00
-0.4970490688930E+00 -0.4679779933456E+00  0.0000000000000E+00
-0.4664052113280E+00 -0.4615853306416E+00  0.0000000000000E+00
-0.4356821841498E+00 -0.4555843826271E+00  0.0000000000000E+00
-0.4048845338533E+00 -0.4499791064130E+00  0.0000000000000E+00
-0.3740168397343E+00 -0.4447732294152E+00  0.0000000000000E+00
-0.3430839130773E+00 -0.4399702753278E+00  0.0000000000000E+00
-0.3120906320172E+00 -0.4355735248917E+00  0.0000000000000E+00
-0.2810420500145E+00 -0.4315860232937E+00  0.0000000000000E+00
-0.2499433335888E+00 -0.4280105603977E+00  0.0000000000000E+00
-0.2187997508610E+00 -0.4248496608797E+00  0.0000000000000E+00
-0.1876166729319E+00 -0.4221055764161E+00  0.0000000000000E+00
-0.1563995773423E+00 -0.4197802779940E+00  0.0000000000000E+00
-0.1251540094126E+00 -0.4178754457584E+00  0.0000000000000E+00
-0.9388558172344E-01 -0.4163924636598E+00  0.0000000000000E+00
-0.6259996113275E-01 -0.4153324139295E+00  0.0000000000000E+00
-0.3130285547239E-01 -0.4146960727333E+00  0.0000000000000E+00
-0.2220446049250E-15 -0.4144839070419E+00  0.0000000000000E+00
 0.3130285547239E-01 -0.4146960727333E+00  0.0000000000000E+00
 0.6259996113275E-01 -0.4153324139295E+00  0.0000000000000E+00
 0.9388558172344E-01 -0.4163924636598E+00  0.0000000000000E+00
 0.1251540094126E+00 -0.4178754457584E+00  0.0000000000000E+00
 0.1563995773423E+00 -0.4197802779940E+00  0.0000000000000E+00
 0.1876166729319E+00 -0.4221055764161E+00  0.0000000000000E+00
 0.2187997508610E+00 -0.4248496608797E+00  0.0000000000000E+00
 0.2499433335888E+00 -0.4280105603977E+00  0.0000000000000E+00
 0.2810420500145E+00 -0.4315860232937E+00  0.0000000000000E+00
 0.3120906320172E+00 -0.4355735248917E+00  0.0000000000000E+00
 0.3430839130773E+00 -0.4399702753278E+00  0.0000000000000E+00
 0.3740168397343E+00 -0.4447732294152E+00  0.0000000000000E+00
 0.4048845338533E+00 -0.4499791064130E+00  0.0000000000000E+00
 0.4356821841498E+00 -0.4555843826271E+00  0.0000000000000E+00
 0.4664052113280E+00 -0.4615853306416E+00  0.0000000000000E+00
 0.4970490688930E+00 -0.4679779933456E+00  0.0000000000000E+00
 0.5276095633171E+00 -0.4747582607812E+00  0.0000000000000E+00
 0.5580825246164E+00 -0.4819218154218E+00  0.0000000000000E+00
 0.5884638695905E+00 -0.4894641513885E+00  0.0000000000000E+00
-0.6186694182519E+00 -0.5602854202626E+00  0.0000000000000E+00
-0.6184121778050E+00 -0.6231895804302E+00  0.0000000000000E+00
-0.6179522181120E+00 -0.6860925653381E+00  0.0000000000000E+00
-0.6172599449830E+00 -0.7489933811583E+00  0.0000000000000E+00
-0.6163035973388E+00 -0.8118907743073E+00  0.0000000000000E+00
-0.6150531470475E+00 -0.8747829429232E+00  0.0000000000000E+00
-0.6134887983150E+00 -0.9376681601377E+00  0.0000000000000E+00
-0.6116160329111E+00 -0.1000544889820E+01  0.0000000000000E+00
-0.6094851916442E+00 -0.1063413466424E+01  0.0000000000000E+00
-0.6072037720657E+00 -0.1126276767718E+01  0.0000000000000E+00
-0.6049223524117E+00 -0.1189140069010E+01  0.0000000000000E+00
-0.6027915109277E+00 -0.1252008645607E+01  0.0000000000000E+00
-0.6009187451903E+00 -0.1314885375279E+01  0.0000000000000E+00
-0.5993543960372E+00 -0.1377770592483E+01  0.0000000000000E+00
-0.5981039452651E+00 -0.1440662761090E+01  0.0000000000000E+00
-0.5971475971003E+00 -0.1503560154231E+01  0.0000000000000E+00
-0.5964553234260E+00 -0.1566460970045E+01  0.0000000000000E+00
-0.5959953631729E+00 -0.1629363954949E+01  0.0000000000000E+00
-0.5957381221583E+00 -0.1692268115114E+01  0.0000000000000E+00
 0.6186694182523E+00 -0.5602854202973E+00  0.0000000000000E+00
 0.6184121778088E+00 -0.6231895804997E+00  0.0000000000000E+00
 0.6179522181269E+00 -0.6860925654424E+00  0.0000000000000E+00
 0.6172599450237E+00 -0.7489933812976E+00  0.0000000000000E+00
 0.6163035974300E+00 -0.8118907744820E+00  0.0000000000000E+00
 0.6150531472289E+00 -0.8747829431345E+00  0.0000000000000E+00
 0.6134887986468E+00 -0.9376681603875E+00  0.0000000000000E+00
 0.6116160334801E+00 -0.1000544890112E+01  0.0000000000000E+00
 0.6094851925666E+00 -0.1063413466762E+01  0.0000000000000E+00
 0.6072037734828E+00 -0.1126276768110E+01  0.0000000000000E+00
 0.6049223544747E+00 -0.1189140069460E+01  0.0000000000000E+00
 0.6027915137782E+00 -0.1252008646118E+01  0.0000000000000E+00
 0.6009187489451E+00 -0.1314885375852E+01  0.0000000000000E+00
 0.5993544007835E+00 -0.1377770593115E+01  0.0000000000000E+00
 0.5981039510633E+00 -0.1440662761777E+01  0.0000000000000E+00
 0.5971476039902E+00 -0.1503560154969E+01  0.0000000000000E+00
 0.5964553314325E+00 -0.1566460970831E+01  0.0000000000000E+00
 0.5959953723106E+00 -0.1629363955777E+01  0.0000000000000E+00
 0.5957381324349E+00 -0.1692268115982E+01  0.0000000000000E+00
-0.6621752666167E+00 -0.4539554224406E+00  0.0000000000000E+00
-0.7056005332335E+00 -0.4105301564309E+00  0.0000000000000E+00
-0.7490257998502E+00 -0.3671048904212E+00  0.0000000000000E+00
-0.7924510664670E+00 -0.3236796244115E+00  0.0000000000000E+00
-0.8358763330837E+00 -0.2802543584018E+00  0.0000000000000E+00
-0.8793015997004E+00 -0.2368290923921E+00  0.0000000000000E+00
-0.9227268663172E+00 -0.1934038263824E+00  0.0000000000000E+00
-0.9661521329339E+00 -0.1499785603727E+00  0.0000000000000E+00
-0.1009577399551E+01 -0.1065532943630E+00  0.0000000000000E+00
-0.1053002666167E+01 -0.6312802835334E-01  0.0000000000000E+00
-0.1096427932784E+01 -0.1970276234365E-01  0.0000000000000E+00
-0.1139853199401E+01  0.2372250366604E-01  0.0000000000000E+00
-0.1183278466018E+01  0.6714776967573E-01  0.0000000000000E+00
-0.1226703732634E+01  0.1105730356854E+00  0.0000000000000E+00
-0.1270128999251E+01  0.1539983016951E+00  0.0000000000000E+00
-0.1313554265868E+01  0.1974235677048E+00  0.0000000000000E+00
-0.1356979532485E+01  0.2408488337145E+00  0.0000000000000E+00
-0.1400404799101E+01  0.2842740997242E+00  0.0000000000000E+00
-0.1443830065718E+01  0.3276993657339E+00  0.0000000000000E+00
 0.6621752664603E+00 -0.4539554223414E+00  0.0000000000000E+00
 0.7056005329206E+00 -0.4105301562325E+00  0.0000000000000E+00
 0.7490257993809E+00 -0.3671048901237E+00  0.0000000000000E+00
 0.7924510658412E+00 -0.3236796240148E+00  0.0000000000000E+00
 0.8358763323015E+00 -0.2802543579059E+00  0.0000000000000E+00
 0.8793015987618E+00 -0.2368290917971E+00  0.0000000000000E+00
 0.9227268652221E+00 -0.1934038256882E+00  0.0000000000000E+00
 0.9661521316824E+00 -0.1499785595793E+00  0.0000000000000E+00
 0.1009577398143E+01 -0.1065532934705E+00  0.0000000000000E+00
 0.1053002664603E+01 -0.6312802736160E-01  0.0000000000000E+00
 0.1096427931063E+01 -0.1970276125273E-01  0.0000000000000E+00
 0.1139853197524E+01  0.2372250485614E-01  0.0000000000000E+00
 0.1183278463984E+01  0.6714777096501E-01  0.0000000000000E+00
 0.1226703730444E+01  0.1105730370739E+00  0.0000000000000E+00
 0.1270128996905E+01  0.1539983031827E+00  0.0000000000000E+00
 0.1313554263365E+01  0.1974235692916E+00  0.0000000000000E+00
 0.1356979529825E+01  0.2408488354005E+00  0.0000000000000E+00
 0.1400404796285E+01  0.2842741015093E+00  0.0000000000000E+00
 0.1443830062746E+01  0.3276993676182E+00  0.0000000000000E+00
-0.1072503587165E+01 -0.4660482676314E+01  0.0000000000000E+00
-0.1072507174322E+01 -0.4589378375132E+01  0.0000000000000E+00
-0.1072510761501E+01 -0.4518273637310E+01  0.0000000000000E+00
-0.1072514348670E+01 -0.4447169098828E+01  0.0000000000000E+00
-0.1072517935839E+01 -0.4376064574487E+01  0.0000000000000E+00
-0.1072521523008E+01 -0.4304960023427E+01  0.0000000000000E+00
-0.1072525110176E+01 -0.4233855514392E+01  0.0000000000000E+00
-0.1072528697345E+01 -0.4162750979291E+01  0.0000000000000E+00
-0.1072532284514E+01 -0.4091646449412E+01  0.0000000000000E+00
-0.1072535871682E+01 -0.4020541927384E+01  0.0000000000000E+00
-0.1072539458851E+01 -0.3949437390474E+01  0.0000000000000E+00
-0.1072543046019E+01 -0.3878332876881E+01  0.0000000000000E+00
-0.1072546633189E+01 -0.3807228332256E+01  0.0000000000000E+00
-0.1072550220361E+01 -0.3736123729622E+01  0.0000000000000E+00
-0.1072553807532E+01 -0.3665019147225E+01  0.0000000000000E+00
-0.1072557394699E+01 -0.3593914649887E+01  0.0000000000000E+00
-0.1072560981898E+01 -0.3522809524803E+01  0.0000000000000E+00
-0.1072564569037E+01 -0.3451705587777E+01  0.0000000000000E+00
-0.1072568156206E+01 -0.3380601047615E+01  0.0000000000000E+00
-0.1072571743371E+01 -0.3309496585365E+01  0.0000000000000E+00
-0.1072575330532E+01 -0.3238392213680E+01  0.0000000000000E+00
-0.1072578917695E+01 -0.3167287806114E+01  0.0000000000000E+00
-0.1072582504859E+01 -0.3096183366749E+01  0.0000000000000E+00
-0.1072604987210E+01 -0.3025078866253E+01  0.0000000000000E+00
-0.1072768067061E+01 -0.2953974594875E+01  0.0000000000000E+00
-0.1073240734738E+01 -0.2882871888659E+01  0.0000000000000E+00
-0.1074177036625E+01 -0.2811774024513E+01  0.0000000000000E+00
-0.1075690363951E+01 -0.2740686684501E+01  0.0000000000000E+00
-0.1077853442627E+01 -0.2669617014531E+01  0.0000000000000E+00
-0.1080712774083E+01 -0.2598573344661E+01  0.0000000000000E+00
-0.1084305312776E+01 -0.2527564663401E+01  0.0000000000000E+00
-0.1088672864462E+01 -0.2456601685752E+01  0.0000000000000E+00
-0.1093872940397E+01 -0.2385697993847E+01  0.0000000000000E+00
-0.1099902305238E+01 -0.2314863405415E+01  0.0000000000000E+00
-0.1106676648231E+01 -0.2244099678337E+01  0.0000000000000E+00
-0.1114135782912E+01 -0.2173408489510E+01  0.0000000000000E+00
-0.1122244705194E+01 -0.2102792618679E+01  0.0000000000000E+00
-0.1130991992091E+01 -0.2032256967667E+01  0.0000000000000E+00
-0.1140395174223E+01 -0.1961810429153E+01  0.0000000000000E+00
-0.1150524750544E+01 -0.1891470211900E+01  0.0000000000000E+00
-0.1045006744548E+01 -0.4660372386096E+01  0.0000000000000E+00
-0.1045013489082E+01 -0.4589157794926E+01  0.0000000000000E+00
-0.1045020233658E+01 -0.4517942766438E+01  0.0000000000000E+00
-0.1045026978215E+01 -0.4446727937600E+01  0.0000000000000E+00
-0.1045033722770E+01 -0.4375513122924E+01  0.0000000000000E+00
-0.1045040467328E+01 -0.4304298281489E+01  0.0000000000000E+00
-0.1045047211882E+01 -0.4233083482143E+01  0.0000000000000E+00
-0.1045053956438E+01 -0.4161868656690E+01  0.0000000000000E+00
-0.1045060700994E+01 -0.4090653836468E+01  0.0000000000000E+00
-0.1045067445549E+01 -0.4019439024110E+01  0.0000000000000E+00
-0.1045074190105E+01 -0.3948224196846E+01  0.0000000000000E+00
-0.1045080934660E+01 -0.3877009392935E+01  0.0000000000000E+00
-0.1045087679217E+01 -0.3805794557944E+01  0.0000000000000E+00
-0.1045094423780E+01 -0.3734579664855E+01  0.0000000000000E+00
-0.1045101168341E+01 -0.3663364792032E+01  0.0000000000000E+00
-0.1045107912893E+01 -0.3592150004402E+01  0.0000000000000E+00
-0.1045114657506E+01 -0.3520934588052E+01  0.0000000000000E+00
-0.1045121402005E+01 -0.3449720361602E+01  0.0000000000000E+00
-0.1045128146562E+01 -0.3378505531081E+01  0.0000000000000E+00
-0.1045134891112E+01 -0.3307290778593E+01  0.0000000000000E+00
-0.1045141635652E+01 -0.3236076116811E+01  0.0000000000000E+00
-0.1045148380197E+01 -0.3164861419091E+01  0.0000000000000E+00
-0.1045155124744E+01 -0.3093646689524E+01  0.0000000000000E+00
-0.1045180279185E+01 -0.3022431898726E+01  0.0000000000000E+00
-0.1045342420071E+01 -0.2951217337114E+01  0.0000000000000E+00
-0.1045806197445E+01 -0.2880004340854E+01  0.0000000000000E+00
-0.1046721701225E+01 -0.2808796186706E+01  0.0000000000000E+00
-0.1048199410343E+01 -0.2737598556815E+01  0.0000000000000E+00
-0.1050310182850E+01 -0.2666418596963E+01  0.0000000000000E+00
-0.1053099325844E+01 -0.2595264637382E+01  0.0000000000000E+00
-0.1056602844668E+01 -0.2524145666314E+01  0.0000000000000E+00
-0.1060861471353E+01 -0.2453072398792E+01  0.0000000000000E+00
-0.1065931240050E+01 -0.2382058417274E+01  0.0000000000000E+00
-0.1071808998522E+01 -0.2311113539101E+01  0.0000000000000E+00
-0.1078412601419E+01 -0.2240239522158E+01  0.0000000000000E+00
-0.1085683408080E+01 -0.2169438043419E+01  0.0000000000000E+00
-0.1093587313453E+01 -0.2098711882551E+01  0.0000000000000E+00
-0.1102113187936E+01 -0.2028065941388E+01  0.0000000000000E+00
-0.1111278111887E+01 -0.1957509112984E+01  0.0000000000000E+00
-0.1121150773592E+01 -0.1887058606097E+01  0.0000000000000E+00
-0.1017509482115E+01 -0.4660264886424E+01  0.0000000000000E+00
-0.1017518964210E+01 -0.4588942795806E+01  0.0000000000000E+00
-0.1017528446364E+01 -0.4517620267209E+01  0.0000000000000E+00
-0.1017537928491E+01 -0.4446297938565E+01  0.0000000000000E+00
-0.1017547410616E+01 -0.4374975624103E+01  0.0000000000000E+00
-0.1017556892744E+01 -0.4303653282842E+01  0.0000000000000E+00
-0.1017566374867E+01 -0.4232330983734E+01  0.0000000000000E+00
-0.1017575856993E+01 -0.4161008658479E+01  0.0000000000000E+00
-0.1017585339119E+01 -0.4089686338463E+01  0.0000000000000E+00
-0.1017594821244E+01 -0.4018364026323E+01  0.0000000000000E+00
-0.1017604303371E+01 -0.3947041699254E+01  0.0000000000000E+00
-0.1017613785494E+01 -0.3875719395574E+01  0.0000000000000E+00
-0.1017623267622E+01 -0.3804397060767E+01  0.0000000000000E+00
-0.1017632749757E+01 -0.3733074667774E+01  0.0000000000000E+00
-0.1017642231890E+01 -0.3661752295078E+01  0.0000000000000E+00
-0.1017651714011E+01 -0.3590430007703E+01  0.0000000000000E+00
-0.1017661196216E+01 -0.3519107090659E+01  0.0000000000000E+00
-0.1017670678263E+01 -0.3447785365312E+01  0.0000000000000E+00
-0.1017680160390E+01 -0.3376463034981E+01  0.0000000000000E+00
-0.1017689642507E+01 -0.3305140782802E+01  0.0000000000000E+00
-0.1017699124612E+01 -0.3233818621464E+01  0.0000000000000E+00
-0.1017708606721E+01 -0.3162496424136E+01  0.0000000000000E+00
-0.1017718088835E+01 -0.3091174194911E+01  0.0000000000000E+00
-0.1017745495548E+01 -0.3019851904360E+01  0.0000000000000E+00
-0.1017906277653E+01 -0.2948529843060E+01  0.0000000000000E+00
-0.1018360744909E+01 -0.2877209347299E+01  0.0000000000000E+00
-0.1019255030769E+01 -0.2805893693688E+01  0.0000000000000E+00
-0.1020696701869E+01 -0.2734588564456E+01  0.0000000000000E+00
-0.1022754748397E+01 -0.2663301105260E+01  0.0000000000000E+00
-0.1025473283124E+01 -0.2592039646501E+01  0.0000000000000E+00
-0.1028887362274E+01 -0.2520813176160E+01  0.0000000000000E+00
-0.1033036644157E+01 -0.2449632409301E+01  0.0000000000000E+00
-0.1037975685816E+01 -0.2378510928701E+01  0.0000000000000E+00
-0.1043701418122E+01 -0.2307458551321E+01  0.0000000000000E+00
-0.1050133861127E+01 -0.2236477035050E+01  0.0000000000000E+00
-0.1057215919976E+01 -0.2165568056937E+01  0.0000000000000E+00
-0.1064914388649E+01 -0.2094734396573E+01  0.0000000000000E+00
-0.1073218430927E+01 -0.2023980955804E+01  0.0000000000000E+00
-0.1082144676909E+01 -0.1953316628048E+01  0.0000000000000E+00
-0.1091760004215E+01 -0.1882758622058E+01  0.0000000000000E+00
-0.9900118099064E+00 -0.4660160183698E+01  0.0000000000000E+00
-0.9900236197882E+00 -0.4588733390572E+01  0.0000000000000E+00
-0.9900354297426E+00 -0.4517306158826E+01  0.0000000000000E+00
-0.9900472396638E+00 -0.4445879127324E+01  0.0000000000000E+00
-0.9900590495827E+00 -0.4374452110027E+01  0.0000000000000E+00
-0.9900708595060E+00 -0.4303025065890E+01  0.0000000000000E+00
-0.9900826694223E+00 -0.4231598063968E+01  0.0000000000000E+00
-0.9900944793430E+00 -0.4160171035861E+01  0.0000000000000E+00
-0.9901062892628E+00 -0.4088744013001E+01  0.0000000000000E+00
-0.9901180991813E+00 -0.4017316998028E+01  0.0000000000000E+00
-0.9901299091023E+00 -0.3945889968104E+01  0.0000000000000E+00
-0.9901417190194E+00 -0.3874462961605E+01  0.0000000000000E+00
-0.9901535289416E+00 -0.3803035923932E+01  0.0000000000000E+00
-0.9901653388735E+00 -0.3731608827986E+01  0.0000000000000E+00
-0.9901771488020E+00 -0.3660181752369E+01  0.0000000000000E+00
-0.9901889587164E+00 -0.3588754762198E+01  0.0000000000000E+00
-0.9902007687351E+00 -0.3517327141434E+01  0.0000000000000E+00
-0.9902125785564E+00 -0.3445900714115E+01  0.0000000000000E+00
-0.9902243884779E+00 -0.3374473680925E+01  0.0000000000000E+00
-0.9902361983865E+00 -0.3303046726000E+01  0.0000000000000E+00
-0.9902480082800E+00 -0.3231619862052E+01  0.0000000000000E+00
-0.9902598181795E+00 -0.3160192962059E+01  0.0000000000000E+00
-0.9902716280843E+00 -0.3088766030123E+01  0.0000000000000E+00
-0.9903008772941E+00 -0.3017339036768E+01  0.0000000000000E+00
-0.9904598908441E+00 -0.2945912272726E+01  0.0000000000000E+00
-0.9909046382074E+00 -0.2874487074405E+01  0.0000000000000E+00
-0.9917772963762E+00 -0.2803066718274E+01  0.0000000000000E+00
-0.9931825196868E+00 -0.2731656886637E+01  0.0000000000000E+00
-0.9951874304676E+00 -0.2660264725035E+01  0.0000000000000E+00
-0.9978349471605E+00 -0.2588898564031E+01  0.0000000000000E+00
-0.1001159176873E+01 -0.2517567391354E+01  0.0000000000000E+00
-0.1005198704189E+01 -0.2446281922097E+01  0.0000000000000E+00
-0.1010006609051E+01 -0.2375055739345E+01  0.0000000000000E+00
-0.1015579905431E+01 -0.2303898659692E+01  0.0000000000000E+00
-0.1021840778788E+01 -0.2232812441032E+01  0.0000000000000E+00
-0.1028733680069E+01 -0.2161798760483E+01  0.0000000000000E+00
-0.1036226302287E+01 -0.2090860397566E+01  0.0000000000000E+00
-0.1044308102607E+01 -0.2020002254134E+01  0.0000000000000E+00
-0.1052995260869E+01 -0.1949233223964E+01  0.0000000000000E+00
-0.1062352844026E+01 -0.1878570515803E+01  0.0000000000000E+00
-0.9625137375235E+00 -0.4660058284100E+01  0.0000000000000E+00
-0.9625274750185E+00 -0.4588529591588E+01  0.0000000000000E+00
-0.9625412125977E+00 -0.4517000459829E+01  0.0000000000000E+00
-0.9625549501385E+00 -0.4445471528601E+01  0.0000000000000E+00
-0.9625686876766E+00 -0.4373942611598E+01  0.0000000000000E+00
-0.9625824252198E+00 -0.4302413667716E+01  0.0000000000000E+00
-0.9625961627548E+00 -0.4230884766111E+01  0.0000000000000E+00
-0.9626099002950E+00 -0.4159355838283E+01  0.0000000000000E+00
-0.9626236378341E+00 -0.4087826915708E+01  0.0000000000000E+00
-0.9626373753717E+00 -0.4016298001032E+01  0.0000000000000E+00
-0.9626511129121E+00 -0.3944769071385E+01  0.0000000000000E+00
-0.9626648504481E+00 -0.3873240165195E+01  0.0000000000000E+00
-0.9626785879900E+00 -0.3801711227786E+01  0.0000000000000E+00
-0.9626923255432E+00 -0.3730182232023E+01  0.0000000000000E+00
-0.9627060630925E+00 -0.3658653256616E+01  0.0000000000000E+00
-0.9627198006253E+00 -0.3587124366778E+01  0.0000000000000E+00
-0.9627335382794E+00 -0.3515594845447E+01  0.0000000000000E+00
-0.9627472757039E+00 -0.3444066519263E+01  0.0000000000000E+00
-0.9627610132450E+00 -0.3372537586345E+01  0.0000000000000E+00
-0.9627747507711E+00 -0.3301008731803E+01  0.0000000000000E+00
-0.9627884882796E+00 -0.3229479968367E+01  0.0000000000000E+00
-0.9628022257951E+00 -0.3157951168836E+01  0.0000000000000E+00
-0.9628159633167E+00 -0.3086422337316E+01  0.0000000000000E+00
-0.9628466548485E+00 -0.3014893444285E+01  0.0000000000000E+00
-0.9630034996671E+00 -0.2943364780630E+01  0.0000000000000E+00
-0.9634381269610E+00 -0.2871837682872E+01  0.0000000000000E+00
-0.9642887572571E+00 -0.2800315427341E+01  0.0000000000000E+00
-0.9656571325932E+00 -0.2728803696419E+01  0.0000000000000E+00
-0.9676085074361E+00 -0.2657309635530E+01  0.0000000000000E+00
-0.9701846058996E+00 -0.2585841575395E+01  0.0000000000000E+00
-0.9734185859714E+00 -0.2514408503499E+01  0.0000000000000E+00
-0.9773479585130E+00 -0.2443021134961E+01  0.0000000000000E+00
-0.9820243263633E+00 -0.2371693053170E+01  0.0000000000000E+00
-0.9874447865971E+00 -0.2300434074359E+01  0.0000000000000E+00
-0.9935336900779E+00 -0.2229245956427E+01  0.0000000000000E+00
-0.1000237033557E+01 -0.2158130376562E+01  0.0000000000000E+00
-0.1007523409081E+01 -0.2087090114213E+01  0.0000000000000E+00
-0.1015382567198E+01 -0.2016130071245E+01  0.0000000000000E+00
-0.1023830237492E+01 -0.1945259141781E+01  0.0000000000000E+00
-0.1032929676247E+01 -0.1874494534560E+01  0.0000000000000E+00
-0.9350152757427E+00 -0.4659959193825E+01  0.0000000000000E+00
-0.9350305514535E+00 -0.4588331411245E+01  0.0000000000000E+00
-0.9350458272582E+00 -0.4516703188809E+01  0.0000000000000E+00
-0.9350611030201E+00 -0.4445075167182E+01  0.0000000000000E+00
-0.9350763787789E+00 -0.4373447159799E+01  0.0000000000000E+00
-0.9350916545434E+00 -0.4301819125501E+01  0.0000000000000E+00
-0.9351069302989E+00 -0.4230191133537E+01  0.0000000000000E+00
-0.9351222060600E+00 -0.4158563115315E+01  0.0000000000000E+00
-0.9351374818200E+00 -0.4086935102354E+01  0.0000000000000E+00
-0.9351527575783E+00 -0.4015307097302E+01  0.0000000000000E+00
-0.9351680333398E+00 -0.3943679077257E+01  0.0000000000000E+00
-0.9351833090963E+00 -0.3872051080703E+01  0.0000000000000E+00
-0.9351985848595E+00 -0.3800423052887E+01  0.0000000000000E+00
-0.9352138606351E+00 -0.3728794966635E+01  0.0000000000000E+00
-0.9352291364064E+00 -0.3657166900768E+01  0.0000000000000E+00
-0.9352444121594E+00 -0.3585538920588E+01  0.0000000000000E+00
-0.9352596880473E+00 -0.3513910308040E+01  0.0000000000000E+00
-0.9352749636799E+00 -0.3442282892296E+01  0.0000000000000E+00
-0.9352902394421E+00 -0.3370654868976E+01  0.0000000000000E+00
-0.9353055151876E+00 -0.3299026924142E+01  0.0000000000000E+00
-0.9353207909136E+00 -0.3227399070539E+01  0.0000000000000E+00
-0.9353360666473E+00 -0.3155771180791E+01  0.0000000000000E+00
-0.9353513423878E+00 -0.3084143259010E+01  0.0000000000000E+00
-0.9353830868434E+00 -0.3012515275629E+01  0.0000000000000E+00
-0.9355373735330E+00 -0.2940887521685E+01  0.0000000000000E+00
-0.9359614913613E+00 -0.2869261333809E+01  0.0000000000000E+00
-0.9367897043898E+00 -0.2797639988196E+01  0.0000000000000E+00
-0.9381208423587E+00 -0.2726029167304E+01  0.0000000000000E+00
-0.9400182918724E+00 -0.2654436016443E+01  0.0000000000000E+00
-0.9425225827175E+00 -0.2582868866489E+01  0.0000000000000E+00
-0.9456659237619E+00 -0.2511336704686E+01  0.0000000000000E+00
-0.9494847521435E+00 -0.2439850246183E+01  0.0000000000000E+00
-0.9540291935997E+00 -0.2368423074660E+01  0.0000000000000E+00
-0.9592964283062E+00 -0.2297065006004E+01  0.0000000000000E+00
-0.9652129725315E+00 -0.2225777798115E+01  0.0000000000000E+00
-0.9717263688312E+00 -0.2154563128249E+01  0.0000000000000E+00
-0.9788061082853E+00 -0.2083423775788E+01  0.0000000000000E+00
-0.9864422348236E+00 -0.2012364642606E+01  0.0000000000000E+00
-0.9946500277763E+00 -0.1941394623162E+01  0.0000000000000E+00
-0.1003490932759E+01 -0.1870530926191E+01  0.0000000000000E+00
-0.9075164348415E+00 -0.4659862918834E+01  0.0000000000000E+00
-0.9075328696488E+00 -0.4588138861463E+01  0.0000000000000E+00
-0.9075493045571E+00 -0.4516414363646E+01  0.0000000000000E+00
-0.9075657394192E+00 -0.4444690066907E+01  0.0000000000000E+00
-0.9075821742781E+00 -0.4372965784431E+01  0.0000000000000E+00
-0.9075986091431E+00 -0.4301241475005E+01  0.0000000000000E+00
-0.9076150439985E+00 -0.4229517207969E+01  0.0000000000000E+00
-0.9076314788598E+00 -0.4157792914640E+01  0.0000000000000E+00
-0.9076479137200E+00 -0.4086068626578E+01  0.0000000000000E+00
-0.9076643485783E+00 -0.4014344346436E+01  0.0000000000000E+00
-0.9076807834401E+00 -0.3942620051282E+01  0.0000000000000E+00
-0.9076972182965E+00 -0.3870895779649E+01  0.0000000000000E+00
-0.9077136531601E+00 -0.3799171476713E+01  0.0000000000000E+00
-0.9077300880371E+00 -0.3727447115263E+01  0.0000000000000E+00
-0.9077465229094E+00 -0.3655722774225E+01  0.0000000000000E+00
-0.9077629577620E+00 -0.3583998518988E+01  0.0000000000000E+00
-0.9077793927597E+00 -0.3512273630535E+01  0.0000000000000E+00
-0.9077958274829E+00 -0.3440549940493E+01  0.0000000000000E+00
-0.9078122623454E+00 -0.3368825642059E+01  0.0000000000000E+00
-0.9078286971899E+00 -0.3297101422216E+01  0.0000000000000E+00
-0.9078451320135E+00 -0.3225377293728E+01  0.0000000000000E+00
-0.9078615668454E+00 -0.3153653129045E+01  0.0000000000000E+00
-0.9078780016846E+00 -0.3081928932287E+01  0.0000000000000E+00
-0.9079104199434E+00 -0.3010204673842E+01  0.0000000000000E+00
-0.9080617693840E+00 -0.2938480644892E+01  0.0000000000000E+00
-0.9084749986280E+00 -0.2866758182177E+01  0.0000000000000E+00
-0.9092804152714E+00 -0.2795040561762E+01  0.0000000000000E+00
-0.9105739367573E+00 -0.2723333466175E+01  0.0000000000000E+00
-0.9124170818274E+00 -0.2651644040617E+01  0.0000000000000E+00
-0.9148491859419E+00 -0.2579980616114E+01  0.0000000000000E+00
-0.9179015088477E+00 -0.2508352179677E+01  0.0000000000000E+00
-0.9216094139598E+00 -0.2436769446484E+01  0.0000000000000E+00
-0.9260215499149E+00 -0.2365246000499E+01  0.0000000000000E+00
-0.9311351799888E+00 -0.2293791657267E+01  0.0000000000000E+00
-0.9368789858541E+00 -0.2222408174696E+01  0.0000000000000E+00
-0.9432020558717E+00 -0.2151097230106E+01  0.0000000000000E+00
-0.9500747801533E+00 -0.2079861602812E+01  0.0000000000000E+00
-0.9574874960124E+00 -0.2008706194698E+01  0.0000000000000E+00
-0.9654550325253E+00 -0.1937639900549E+01  0.0000000000000E+00
-0.9740370246404E+00 -0.1866679929097E+01  0.0000000000000E+00
-0.8800172251723E+00 -0.4659769464936E+01  0.0000000000000E+00
-0.8800344503086E+00 -0.4587951953862E+01  0.0000000000000E+00
-0.8800516755508E+00 -0.4516134001767E+01  0.0000000000000E+00
-0.8800689007447E+00 -0.4444316251013E+01  0.0000000000000E+00
-0.8800861259351E+00 -0.4372498514541E+01  0.0000000000000E+00
-0.8801033511320E+00 -0.4300680751083E+01  0.0000000000000E+00
-0.8801205763187E+00 -0.4228863030071E+01  0.0000000000000E+00
-0.8801378015118E+00 -0.4157045282730E+01  0.0000000000000E+00
-0.8801550267036E+00 -0.4085227540665E+01  0.0000000000000E+00
-0.8801722518934E+00 -0.4013409806530E+01  0.0000000000000E+00
-0.8801894770869E+00 -0.3941592057363E+01  0.0000000000000E+00
-0.8802067022748E+00 -0.3869774331747E+01  0.0000000000000E+00
-0.8802239274701E+00 -0.3797956574788E+01  0.0000000000000E+00
-0.8802411526795E+00 -0.3726138759238E+01  0.0000000000000E+00
-0.8802583778840E+00 -0.3654320964127E+01  0.0000000000000E+00
-0.8802756030679E+00 -0.3582503254930E+01  0.0000000000000E+00
-0.8802928284039E+00 -0.3510684911690E+01  0.0000000000000E+00
-0.8803100534520E+00 -0.3438867768424E+01  0.0000000000000E+00
-0.8803272786463E+00 -0.3367050015972E+01  0.0000000000000E+00
-0.8803445038217E+00 -0.3295232342214E+01  0.0000000000000E+00
-0.8803617289752E+00 -0.3223414759930E+01  0.0000000000000E+00
-0.8803789541373E+00 -0.3151597141404E+01  0.0000000000000E+00
-0.8803961793072E+00 -0.3079779490761E+01  0.0000000000000E+00
-0.8804289026007E+00 -0.3007961778347E+01  0.0000000000000E+00
-0.8805769460245E+00 -0.2936144295485E+01  0.0000000000000E+00
-0.8809789179176E+00 -0.2864328379021E+01  0.0000000000000E+00
-0.8817611694101E+00 -0.2792517304890E+01  0.0000000000000E+00
-0.8830167056487E+00 -0.2720716755693E+01  0.0000000000000E+00
-0.8848051775121E+00 -0.2648933876522E+01  0.0000000000000E+00
-0.8871647261348E+00 -0.2577176998550E+01  0.0000000000000E+00
-0.8901256621418E+00 -0.2505455108563E+01  0.0000000000000E+00
-0.8937222752253E+00 -0.2433778921763E+01  0.0000000000000E+00
-0.8980017369228E+00 -0.2362162022393E+01  0.0000000000000E+00
-0.9029613936084E+00 -0.2290614225668E+01  0.0000000000000E+00
-0.9085320923593E+00 -0.2219137289498E+01  0.0000000000000E+00
-0.9146644673410E+00 -0.2147732891269E+01  0.0000000000000E+00
-0.9213298076975E+00 -0.2076403810231E+01  0.0000000000000E+00
-0.9285187441254E+00 -0.2005154948275E+01  0.0000000000000E+00
-0.9362456554485E+00 -0.1933995200506E+01  0.0000000000000E+00
-0.9445683659478E+00 -0.1862941775651E+01  0.0000000000000E+00
-0.8525176569623E+00 -0.4659678837762E+01  0.0000000000000E+00
-0.8525353138878E+00 -0.4587770699704E+01  0.0000000000000E+00
-0.8525529709217E+00 -0.4515862120068E+01  0.0000000000000E+00
-0.8525706279061E+00 -0.4443953742027E+01  0.0000000000000E+00
-0.8525882848871E+00 -0.4372045378286E+01  0.0000000000000E+00
-0.8526059418746E+00 -0.4300136987525E+01  0.0000000000000E+00
-0.8526235988517E+00 -0.4228228639263E+01  0.0000000000000E+00
-0.8526412558353E+00 -0.4156320264640E+01  0.0000000000000E+00
-0.8526589128176E+00 -0.4084411895299E+01  0.0000000000000E+00
-0.8526765697980E+00 -0.4012503533897E+01  0.0000000000000E+00
-0.8526942267820E+00 -0.3940595157445E+01  0.0000000000000E+00
-0.8527118837602E+00 -0.3868686804574E+01  0.0000000000000E+00
-0.8527295407462E+00 -0.3796778420320E+01  0.0000000000000E+00
-0.8527471977466E+00 -0.3724869977402E+01  0.0000000000000E+00
-0.8527648547419E+00 -0.3652961554948E+01  0.0000000000000E+00
-0.8527825117161E+00 -0.3581053218515E+01  0.0000000000000E+00
-0.8528001688462E+00 -0.3509144247241E+01  0.0000000000000E+00
-0.8528178256813E+00 -0.3437236477454E+01  0.0000000000000E+00
-0.8528354826661E+00 -0.3365328097713E+01  0.0000000000000E+00
-0.8528531396316E+00 -0.3293419796766E+01  0.0000000000000E+00
-0.8528707965746E+00 -0.3221511587407E+01  0.0000000000000E+00
-0.8528884535265E+00 -0.3149603341761E+01  0.0000000000000E+00
-0.8529061104864E+00 -0.3077695063957E+01  0.0000000000000E+00
-0.8529387802737E+00 -0.3005786724301E+01  0.0000000000000E+00
-0.8530831591395E+00 -0.2933878614253E+01  0.0000000000000E+00
-0.8534735151404E+00 -0.2861972070759E+01  0.0000000000000E+00
-0.8542322429400E+00 -0.2790070369632E+01  0.0000000000000E+00
-0.8554494353881E+00 -0.2718179193539E+01  0.0000000000000E+00
-0.8571828755004E+00 -0.2646305687471E+01  0.0000000000000E+00
-0.8594695100855E+00 -0.2574458182743E+01  0.0000000000000E+00
-0.8623387006461E+00 -0.2502645665919E+01  0.0000000000000E+00
-0.8658236631514E+00 -0.2430878852229E+01  0.0000000000000E+00
-0.8699700920406E+00 -0.2359171326182E+01  0.0000000000000E+00
-0.8747754167849E+00 -0.2287532902676E+01  0.0000000000000E+00
-0.8801726498660E+00 -0.2215965339624E+01  0.0000000000000E+00
-0.8861139712552E+00 -0.2144470314473E+01  0.0000000000000E+00
-0.8925715691276E+00 -0.2073050606409E+01  0.0000000000000E+00
-0.8995363675637E+00 -0.2001711117336E+01  0.0000000000000E+00
-0.9070222951358E+00 -0.1930460742663E+01  0.0000000000000E+00
-0.9150853654571E+00 -0.1859316691115E+01  0.0000000000000E+00
-0.8250177407139E+00 -0.4659591042819E+01  0.0000000000000E+00
-0.8250354813908E+00 -0.4587595110000E+01  0.0000000000000E+00
-0.8250532221767E+00 -0.4515598735065E+01  0.0000000000000E+00
-0.8250709629128E+00 -0.4443602561971E+01  0.0000000000000E+00
-0.8250887036454E+00 -0.4371606403194E+01  0.0000000000000E+00
-0.8251064443847E+00 -0.4299610217364E+01  0.0000000000000E+00
-0.8251241851135E+00 -0.4227614074085E+01  0.0000000000000E+00
-0.8251419258488E+00 -0.4155617904413E+01  0.0000000000000E+00
-0.8251596665828E+00 -0.4083621740029E+01  0.0000000000000E+00
-0.8251774073148E+00 -0.4011625583594E+01  0.0000000000000E+00
-0.8251951480505E+00 -0.3939629412091E+01  0.0000000000000E+00
-0.8252128887805E+00 -0.3867633264198E+01  0.0000000000000E+00
-0.8252306295181E+00 -0.3795637084882E+01  0.0000000000000E+00
-0.8252483702703E+00 -0.3723640846831E+01  0.0000000000000E+00
-0.8252661110174E+00 -0.3651644629270E+01  0.0000000000000E+00
-0.8252838517432E+00 -0.3579648497835E+01  0.0000000000000E+00
-0.8253015926257E+00 -0.3507651730783E+01  0.0000000000000E+00
-0.8253193332118E+00 -0.3435656166686E+01  0.0000000000000E+00
-0.8253370739484E+00 -0.3363659991889E+01  0.0000000000000E+00
-0.8253548146655E+00 -0.3291663895982E+01  0.0000000000000E+00
-0.8253725553600E+00 -0.3219667891776E+01  0.0000000000000E+00
-0.8253902960635E+00 -0.3147671851239E+01  0.0000000000000E+00
-0.8254080367749E+00 -0.3075675778504E+01  0.0000000000000E+00
-0.8254403050173E+00 -0.3003679643838E+01  0.0000000000000E+00
-0.8255806712862E+00 -0.2931683738833E+01  0.0000000000000E+00
-0.8259590633559E+00 -0.2859689400535E+01  0.0000000000000E+00
-0.8266939194225E+00 -0.2787699904637E+01  0.0000000000000E+00
-0.8278724200392E+00 -0.2715720933871E+01  0.0000000000000E+00
-0.8295504803575E+00 -0.2643759633128E+01  0.0000000000000E+00
-0.8317638528612E+00 -0.2571824333859E+01  0.0000000000000E+00
-0.8345409499295E+00 -0.2499924022419E+01  0.0000000000000E+00
-0.8379139138084E+00 -0.2428069414060E+01  0.0000000000000E+00
-0.8419269618398E+00 -0.2356274093551E+01  0.0000000000000E+00
-0.8465776065910E+00 -0.2284547875482E+01  0.0000000000000E+00
-0.8518010259485E+00 -0.2212892517768E+01  0.0000000000000E+00
-0.8575509456891E+00 -0.2141309697916E+01  0.0000000000000E+00
-0.8638004530197E+00 -0.2069802195054E+01  0.0000000000000E+00
-0.8705407654042E+00 -0.1998374911091E+01  0.0000000000000E+00
-0.8777853611645E+00 -0.1927036741736E+01  0.0000000000000E+00
-0.8855884432463E+00 -0.1855804895709E+01  0.0000000000000E+00
-0.7975174872200E+00 -0.4659506085482E+01  0.0000000000000E+00
-0.7975349744037E+00 -0.4587425195502E+01  0.0000000000000E+00
-0.7975524616947E+00 -0.4515343862885E+01  0.0000000000000E+00
-0.7975699489366E+00 -0.4443262732347E+01  0.0000000000000E+00
-0.7975874361751E+00 -0.4371181616143E+01  0.0000000000000E+00
-0.7976049234202E+00 -0.4299100472854E+01  0.0000000000000E+00
-0.7976224106549E+00 -0.4227019372167E+01  0.0000000000000E+00
-0.7976398978961E+00 -0.4154938245055E+01  0.0000000000000E+00
-0.7976573851359E+00 -0.4082857123237E+01  0.0000000000000E+00
-0.7976748723739E+00 -0.4010776009378E+01  0.0000000000000E+00
-0.7976923596155E+00 -0.3938694880433E+01  0.0000000000000E+00
-0.7977098468513E+00 -0.3866613775126E+01  0.0000000000000E+00
-0.7977273340948E+00 -0.3794532638359E+01  0.0000000000000E+00
-0.7977448213526E+00 -0.3722451442787E+01  0.0000000000000E+00
-0.7977623086053E+00 -0.3650370267730E+01  0.0000000000000E+00
-0.7977797958372E+00 -0.3578289178900E+01  0.0000000000000E+00
-0.7977972832234E+00 -0.3506207453703E+01  0.0000000000000E+00
-0.7978147703175E+00 -0.3434126932881E+01  0.0000000000000E+00
-0.7978322575599E+00 -0.3362045800638E+01  0.0000000000000E+00
-0.7978497447831E+00 -0.3289964747379E+01  0.0000000000000E+00
-0.7978672319841E+00 -0.3217883785928E+01  0.0000000000000E+00
-0.7978847191938E+00 -0.3145802788103E+01  0.0000000000000E+00
-0.7979022064114E+00 -0.3073721758043E+01  0.0000000000000E+00
-0.7979337358632E+00 -0.3001640665976E+01  0.0000000000000E+00
-0.7980697522901E+00 -0.2929559803621E+01  0.0000000000000E+00
-0.7984358431845E+00 -0.2857480508120E+01  0.0000000000000E+00
-0.7991464902748E+00 -0.2785406055050E+01  0.0000000000000E+00
-0.8002859618180E+00 -0.2713342127208E+01  0.0000000000000E+00
-0.8019083051015E+00 -0.2641295869387E+01  0.0000000000000E+00
-0.8040480782847E+00 -0.2569275613171E+01  0.0000000000000E+00
-0.8067327446223E+00 -0.2497290344709E+01  0.0000000000000E+00
-0.8099933726376E+00 -0.2425350779278E+01  0.0000000000000E+00
-0.8138727025763E+00 -0.2353470501899E+01  0.0000000000000E+00
-0.8183683301003E+00 -0.2281659326859E+01  0.0000000000000E+00
-0.8234175985009E+00 -0.2209919012080E+01  0.0000000000000E+00
-0.8289757793607E+00 -0.2138251235127E+01  0.0000000000000E+00
-0.8350168589179E+00 -0.2066658775066E+01  0.0000000000000E+00
-0.8415323480198E+00 -0.1995146533818E+01  0.0000000000000E+00
-0.8485352747396E+00 -0.1923723407379E+01  0.0000000000000E+00
-0.8560780313548E+00 -0.1852406604464E+01  0.0000000000000E+00
-0.7700169071112E+00 -0.4659423970938E+01  0.0000000000000E+00
-0.7700338141872E+00 -0.4587260966585E+01  0.0000000000000E+00
-0.7700507213671E+00 -0.4515097519091E+01  0.0000000000000E+00
-0.7700676284995E+00 -0.4442934273906E+01  0.0000000000000E+00
-0.7700845356285E+00 -0.4370771043071E+01  0.0000000000000E+00
-0.7701014427640E+00 -0.4298607785120E+01  0.0000000000000E+00
-0.7701183498894E+00 -0.4226444569820E+01  0.0000000000000E+00
-0.7701352570210E+00 -0.4154281328065E+01  0.0000000000000E+00
-0.7701521641514E+00 -0.4082118091610E+01  0.0000000000000E+00
-0.7701690712799E+00 -0.4009954863123E+01  0.0000000000000E+00
-0.7701859784119E+00 -0.3937791619533E+01  0.0000000000000E+00
-0.7702028855385E+00 -0.3865628399607E+01  0.0000000000000E+00
-0.7702197926723E+00 -0.3793465148187E+01  0.0000000000000E+00
-0.7702366998200E+00 -0.3721301837894E+01  0.0000000000000E+00
-0.7702536069629E+00 -0.3649138548138E+01  0.0000000000000E+00
-0.7702705140855E+00 -0.3576975344709E+01  0.0000000000000E+00
-0.7702874213574E+00 -0.3504811504187E+01  0.0000000000000E+00
-0.7703043283468E+00 -0.3432648869413E+01  0.0000000000000E+00
-0.7703212354797E+00 -0.3360485622521E+01  0.0000000000000E+00
-0.7703381425940E+00 -0.3288322454703E+01  0.0000000000000E+00
-0.7703550496867E+00 -0.3216159378797E+01  0.0000000000000E+00
-0.7703719567880E+00 -0.3143996266477E+01  0.0000000000000E+00
-0.7703888638969E+00 -0.3071833121884E+01  0.0000000000000E+00
-0.7704193279429E+00 -0.2999669915210E+01  0.0000000000000E+00
-0.7705506679129E+00 -0.2927506938299E+01  0.0000000000000E+00
-0.7709041310181E+00 -0.2855345528385E+01  0.0000000000000E+00
-0.7715902425191E+00 -0.2783188960931E+01  0.0000000000000E+00
-0.7726903583770E+00 -0.2711042918797E+01  0.0000000000000E+00
-0.7742566580147E+00 -0.2638914546683E+01  0.0000000000000E+00
-0.7763225052677E+00 -0.2566812176300E+01  0.0000000000000E+00
-0.7789144142657E+00 -0.2494744793600E+01  0.0000000000000E+00
-0.7820623798096E+00 -0.2422723113881E+01  0.0000000000000E+00
-0.7858076650495E+00 -0.2350760722408E+01  0.0000000000000E+00
-0.7901479487410E+00 -0.2278867433179E+01  0.0000000000000E+00
-0.7950227395800E+00 -0.2207045004120E+01  0.0000000000000E+00
-0.8003888549551E+00 -0.2135295112850E+01  0.0000000000000E+00
-0.8062211801355E+00 -0.2063620538380E+01  0.0000000000000E+00
-0.8125115193522E+00 -0.1992026182637E+01  0.0000000000000E+00
-0.8192724504302E+00 -0.1920520941899E+01  0.0000000000000E+00
-0.8265545549795E+00 -0.1849122024875E+01  0.0000000000000E+00
-0.7425160110831E+00 -0.4659344704214E+01  0.0000000000000E+00
-0.7425320221329E+00 -0.4587102433304E+01  0.0000000000000E+00
-0.7425480332810E+00 -0.4514859718765E+01  0.0000000000000E+00
-0.7425640443842E+00 -0.4442617206757E+01  0.0000000000000E+00
-0.7425800554842E+00 -0.4370374709116E+01  0.0000000000000E+00
-0.7425960665902E+00 -0.4298132184328E+01  0.0000000000000E+00
-0.7426120776868E+00 -0.4225889702238E+01  0.0000000000000E+00
-0.7426280887892E+00 -0.4153647193664E+01  0.0000000000000E+00
-0.7426440998905E+00 -0.4081404690396E+01  0.0000000000000E+00
-0.7426601109900E+00 -0.4009162195105E+01  0.0000000000000E+00
-0.7426761220928E+00 -0.3936919684694E+01  0.0000000000000E+00
-0.7426921331904E+00 -0.3864677197973E+01  0.0000000000000E+00
-0.7427081442950E+00 -0.3792434679724E+01  0.0000000000000E+00
-0.7427241554126E+00 -0.3720192102536E+01  0.0000000000000E+00
-0.7427401665257E+00 -0.3647949545909E+01  0.0000000000000E+00
-0.7427561776197E+00 -0.3575707075704E+01  0.0000000000000E+00
-0.7427721888549E+00 -0.3503463967706E+01  0.0000000000000E+00
-0.7427881998227E+00 -0.3431222066779E+01  0.0000000000000E+00
-0.7428042109263E+00 -0.3358979553063E+01  0.0000000000000E+00
-0.7428202220123E+00 -0.3286737118507E+01  0.0000000000000E+00
-0.7428362330780E+00 -0.3214494775965E+01  0.0000000000000E+00
-0.7428522441517E+00 -0.3142252396968E+01  0.0000000000000E+00
-0.7428682552326E+00 -0.3070009985662E+01  0.0000000000000E+00
-0.7428973379532E+00 -0.2997767512206E+01  0.0000000000000E+00
-0.7430236855472E+00 -0.2925525268560E+01  0.0000000000000E+00
-0.7433642049450E+00 -0.2853284592048E+01  0.0000000000000E+00
-0.7440254649391E+00 -0.2781048758026E+01  0.0000000000000E+00
-0.7450859091951E+00 -0.2708823449412E+01  0.0000000000000E+00
-0.7465958492710E+00 -0.2636615810817E+01  0.0000000000000E+00
-0.7485874546793E+00 -0.2564434174075E+01  0.0000000000000E+00
-0.7510862904237E+00 -0.2492287524946E+01  0.0000000000000E+00
-0.7541212775826E+00 -0.2420186578752E+01  0.0000000000000E+00
-0.7577322022120E+00 -0.2348144920990E+01  0.0000000000000E+00
-0.7619168261599E+00 -0.2276172365381E+01  0.0000000000000E+00
-0.7666168235266E+00 -0.2204270669853E+01  0.0000000000000E+00
-0.7717905575071E+00 -0.2132441512079E+01  0.0000000000000E+00
-0.7774138124011E+00 -0.2060687671016E+01  0.0000000000000E+00
-0.7834786858233E+00 -0.1989014048599E+01  0.0000000000000E+00
-0.7899973053517E+00 -0.1917429541373E+01  0.0000000000000E+00
-0.7970184419288E+00 -0.1845951358046E+01  0.0000000000000E+00
-0.7150148098282E+00 -0.4659268290171E+01  0.0000000000000E+00
-0.7150296196255E+00 -0.4586949605377E+01  0.0000000000000E+00
-0.7150444295138E+00 -0.4514630476484E+01  0.0000000000000E+00
-0.7150592393606E+00 -0.4442311550338E+01  0.0000000000000E+00
-0.7150740492044E+00 -0.4369992638572E+01  0.0000000000000E+00
-0.7150888590538E+00 -0.4297673699632E+01  0.0000000000000E+00
-0.7151036688944E+00 -0.4225354803435E+01  0.0000000000000E+00
-0.7151184787405E+00 -0.4153035880725E+01  0.0000000000000E+00
-0.7151332885855E+00 -0.4080716963328E+01  0.0000000000000E+00
-0.7151480984288E+00 -0.4008398053915E+01  0.0000000000000E+00
-0.7151629082753E+00 -0.3936079129367E+01  0.0000000000000E+00
-0.7151777181168E+00 -0.3863760228534E+01  0.0000000000000E+00
-0.7151925279649E+00 -0.3791441296138E+01  0.0000000000000E+00
-0.7152073378250E+00 -0.3719122304743E+01  0.0000000000000E+00
-0.7152221476809E+00 -0.3646803333930E+01  0.0000000000000E+00
-0.7152369575191E+00 -0.3574484449629E+01  0.0000000000000E+00
-0.7152517674881E+00 -0.3502164926862E+01  0.0000000000000E+00
-0.7152665772096E+00 -0.3429846612442E+01  0.0000000000000E+00
-0.7152813870567E+00 -0.3357527684586E+01  0.0000000000000E+00
-0.7152961968876E+00 -0.3285208835972E+01  0.0000000000000E+00
-0.7153110066996E+00 -0.3212890079470E+01  0.0000000000000E+00
-0.7153258165191E+00 -0.3140571286475E+01  0.0000000000000E+00
-0.7153406263452E+00 -0.3068252461137E+01  0.0000000000000E+00
-0.7153680225135E+00 -0.2995933573580E+01  0.0000000000000E+00
-0.7154890725045E+00 -0.2923614915879E+01  0.0000000000000E+00
-0.7158163429684E+00 -0.2851297825445E+01  0.0000000000000E+00
-0.7164524462290E+00 -0.2778985577529E+01  0.0000000000000E+00
-0.7174729136566E+00 -0.2706683855107E+01  0.0000000000000E+00
-0.7189261889441E+00 -0.2634399802702E+01  0.0000000000000E+00
-0.7208432472812E+00 -0.2562141752268E+01  0.0000000000000E+00
-0.7232487045449E+00 -0.2489918689380E+01  0.0000000000000E+00
-0.7261704080913E+00 -0.2417741329381E+01  0.0000000000000E+00
-0.7296466668831E+00 -0.2345623257995E+01  0.0000000000000E+00
-0.7336753258596E+00 -0.2273574288674E+01  0.0000000000000E+00
-0.7382002245257E+00 -0.2201596179347E+01  0.0000000000000E+00
-0.7431812718828E+00 -0.2129690607742E+01  0.0000000000000E+00
-0.7485951512610E+00 -0.2057860352761E+01  0.0000000000000E+00
-0.7544342536587E+00 -0.1986110316347E+01  0.0000000000000E+00
-0.7607102564081E+00 -0.1914449395305E+01  0.0000000000000E+00
-0.7674701197840E+00 -0.1842894798340E+01  0.0000000000000E+00
-0.6875133140180E+00 -0.4659194733497E+01  0.0000000000000E+00
-0.6875266280083E+00 -0.4586802492181E+01  0.0000000000000E+00
-0.6875399420804E+00 -0.4514409806315E+01  0.0000000000000E+00
-0.6875532561151E+00 -0.4442017323401E+01  0.0000000000000E+00
-0.6875665701472E+00 -0.4369624854884E+01  0.0000000000000E+00
-0.6875798841843E+00 -0.4297232359164E+01  0.0000000000000E+00
-0.6875931982135E+00 -0.4224839906230E+01  0.0000000000000E+00
-0.6876065122476E+00 -0.4152447426757E+01  0.0000000000000E+00
-0.6876198262808E+00 -0.4080054952602E+01  0.0000000000000E+00
-0.6876331403124E+00 -0.4007662486439E+01  0.0000000000000E+00
-0.6876464543469E+00 -0.3935270005125E+01  0.0000000000000E+00
-0.6876597683769E+00 -0.3862877547551E+01  0.0000000000000E+00
-0.6876730824128E+00 -0.3790485058383E+01  0.0000000000000E+00
-0.6876863964596E+00 -0.3718092510154E+01  0.0000000000000E+00
-0.6876997105025E+00 -0.3645699982529E+01  0.0000000000000E+00
-0.6877130245296E+00 -0.3573307541504E+01  0.0000000000000E+00
-0.6877263386741E+00 -0.3500914461363E+01  0.0000000000000E+00
-0.6877396525963E+00 -0.3428522590798E+01  0.0000000000000E+00
-0.6877529666313E+00 -0.3356130106173E+01  0.0000000000000E+00
-0.6877662806518E+00 -0.3283737700872E+01  0.0000000000000E+00
-0.6877795946553E+00 -0.3211345387775E+01  0.0000000000000E+00
-0.6877929086655E+00 -0.3138953038149E+01  0.0000000000000E+00
-0.6878062226817E+00 -0.3066560656146E+01  0.0000000000000E+00
-0.6878316377421E+00 -0.2994168211858E+01  0.0000000000000E+00
-0.6879470955743E+00 -0.2921775997472E+01  0.0000000000000E+00
-0.6882608225479E+00 -0.2849385350480E+01  0.0000000000000E+00
-0.6888714745171E+00 -0.2776999546033E+01  0.0000000000000E+00
-0.6898516705568E+00 -0.2704624267162E+01  0.0000000000000E+00
-0.6912479864942E+00 -0.2632266658308E+01  0.0000000000000E+00
-0.6930902031963E+00 -0.2559935051537E+01  0.0000000000000E+00
-0.6954019874130E+00 -0.2487638432247E+01  0.0000000000000E+00
-0.6982101127777E+00 -0.2415387515803E+01  0.0000000000000E+00
-0.7015514111604E+00 -0.2343195888146E+01  0.0000000000000E+00
-0.7054238105909E+00 -0.2271073362469E+01  0.0000000000000E+00
-0.7097733159789E+00 -0.2199021696703E+01  0.0000000000000E+00
-0.7145613821325E+00 -0.2127042568627E+01  0.0000000000000E+00
-0.7197655914124E+00 -0.2055138757093E+01  0.0000000000000E+00
-0.7253786282006E+00 -0.1983315164049E+01  0.0000000000000E+00
-0.7314117195845E+00 -0.1911580686551E+01  0.0000000000000E+00
-0.7379100151708E+00 -0.1839952533300E+01  0.0000000000000E+00
-0.6600115347780E+00 -0.4659124038756E+01  0.0000000000000E+00
-0.6600230695320E+00 -0.4586661102847E+01  0.0000000000000E+00
-0.6600346043568E+00 -0.4514197721954E+01  0.0000000000000E+00
-0.6600461391493E+00 -0.4441734544211E+01  0.0000000000000E+00
-0.6600576739395E+00 -0.4369271380878E+01  0.0000000000000E+00
-0.6600692087340E+00 -0.4296808190316E+01  0.0000000000000E+00
-0.6600807435217E+00 -0.4224345042582E+01  0.0000000000000E+00
-0.6600922783136E+00 -0.4151881868284E+01  0.0000000000000E+00
-0.6601038131047E+00 -0.4079418699308E+01  0.0000000000000E+00
-0.6601153478945E+00 -0.4006955538333E+01  0.0000000000000E+00
-0.6601268826867E+00 -0.3934492362191E+01  0.0000000000000E+00
-0.6601384174751E+00 -0.3862029209812E+01  0.0000000000000E+00
-0.6601499522686E+00 -0.3789566025808E+01  0.0000000000000E+00
-0.6601614870715E+00 -0.3717102782687E+01  0.0000000000000E+00
-0.6601730218711E+00 -0.3644639560188E+01  0.0000000000000E+00
-0.6601845566569E+00 -0.3572176424375E+01  0.0000000000000E+00
-0.6601960915445E+00 -0.3499712648821E+01  0.0000000000000E+00
-0.6602076262394E+00 -0.3427250084026E+01  0.0000000000000E+00
-0.6602191610322E+00 -0.3354786904570E+01  0.0000000000000E+00
-0.6602306958123E+00 -0.3282323804515E+01  0.0000000000000E+00
-0.6602422305777E+00 -0.3209860796755E+01  0.0000000000000E+00
-0.6602537653490E+00 -0.3137397752429E+01  0.0000000000000E+00
-0.6602653001253E+00 -0.3064934675696E+01  0.0000000000000E+00
-0.6602884506478E+00 -0.2992471536614E+01  0.0000000000000E+00
-0.6603980328915E+00 -0.2920008627477E+01  0.0000000000000E+00
-0.6606979329459E+00 -0.2847547285856E+01  0.0000000000000E+00
-0.6612828501955E+00 -0.2775090786807E+01  0.0000000000000E+00
-0.6622224914199E+00 -0.2702644813413E+01  0.0000000000000E+00
-0.6635615645806E+00 -0.2630216510033E+01  0.0000000000000E+00
-0.6653286562223E+00 -0.2557814208847E+01  0.0000000000000E+00
-0.6675464839670E+00 -0.2485446895079E+01  0.0000000000000E+00
-0.6702407477259E+00 -0.2413125284116E+01  0.0000000000000E+00
-0.6734468022770E+00 -0.2340862962106E+01  0.0000000000000E+00
-0.6771626587394E+00 -0.2268669741993E+01  0.0000000000000E+00
-0.6813364874278E+00 -0.2196547381714E+01  0.0000000000000E+00
-0.6859312889571E+00 -0.2124497559093E+01  0.0000000000000E+00
-0.6909255447183E+00 -0.2052523052934E+01  0.0000000000000E+00
-0.6963122324769E+00 -0.1980628765193E+01  0.0000000000000E+00
-0.7021021290765E+00 -0.1908823593166E+01  0.0000000000000E+00
-0.7083385734561E+00 -0.1837124745548E+01  0.0000000000000E+00
-0.6325094830437E+00 -0.4659056210321E+01  0.0000000000000E+00
-0.6325189660676E+00 -0.4586525446119E+01  0.0000000000000E+00
-0.6325284491498E+00 -0.4513994236516E+01  0.0000000000000E+00
-0.6325379322054E+00 -0.4441463230253E+01  0.0000000000000E+00
-0.6325474152591E+00 -0.4368932238414E+01  0.0000000000000E+00
-0.6325568983163E+00 -0.4296401219321E+01  0.0000000000000E+00
-0.6325663813680E+00 -0.4223870243095E+01  0.0000000000000E+00
-0.6325758644231E+00 -0.4151339240280E+01  0.0000000000000E+00
-0.6325853474776E+00 -0.4078808242792E+01  0.0000000000000E+00
-0.6325948305309E+00 -0.4006277253313E+01  0.0000000000000E+00
-0.6326043135863E+00 -0.3933746248653E+01  0.0000000000000E+00
-0.6326137966386E+00 -0.3861215267778E+01  0.0000000000000E+00
-0.6326232796950E+00 -0.3788684255248E+01  0.0000000000000E+00
-0.6326327627591E+00 -0.3716153183546E+01  0.0000000000000E+00
-0.6326422458206E+00 -0.3643622132486E+01  0.0000000000000E+00
-0.6326517288707E+00 -0.3571091168192E+01  0.0000000000000E+00
-0.6326612120045E+00 -0.3498559563559E+01  0.0000000000000E+00
-0.6326706949798E+00 -0.3426029170817E+01  0.0000000000000E+00
-0.6326801780356E+00 -0.3353498162840E+01  0.0000000000000E+00
-0.6326896610811E+00 -0.3280967234338E+01  0.0000000000000E+00
-0.6326991441144E+00 -0.3208436398218E+01  0.0000000000000E+00
-0.6327086271525E+00 -0.3135905525497E+01  0.0000000000000E+00
-0.6327181101949E+00 -0.3063374620339E+01  0.0000000000000E+00
-0.6327387236849E+00 -0.2990843652771E+01  0.0000000000000E+00
-0.6328421578459E+00 -0.2918312915189E+01  0.0000000000000E+00
-0.6331279584877E+00 -0.2845783745241E+01  0.0000000000000E+00
-0.6336868685247E+00 -0.2773259417889E+01  0.0000000000000E+00
-0.6345856824418E+00 -0.2700745616269E+01  0.0000000000000E+00
-0.6358672403342E+00 -0.2628249484662E+01  0.0000000000000E+00
-0.6375589344252E+00 -0.2555779355352E+01  0.0000000000000E+00
-0.6396825332080E+00 -0.2483344213402E+01  0.0000000000000E+00
-0.6422626628715E+00 -0.2410954774215E+01  0.0000000000000E+00
-0.6453332011029E+00 -0.2338624624143E+01  0.0000000000000E+00
-0.6488922421098E+00 -0.2266363575889E+01  0.0000000000000E+00
-0.6528901216113E+00 -0.2194173387393E+01  0.0000000000000E+00
-0.6572913860296E+00 -0.2122055736525E+01  0.0000000000000E+00
-0.6620754157856E+00 -0.2050013402043E+01  0.0000000000000E+00
-0.6672354820285E+00 -0.1978051285908E+01  0.0000000000000E+00
-0.6727819113590E+00 -0.1906178285648E+01  0.0000000000000E+00
-0.6787562320482E+00 -0.1834411609955E+01  0.0000000000000E+00
-0.6050071698059E+00 -0.4658991252397E+01  0.0000000000000E+00
-0.6050143395968E+00 -0.4586395530405E+01  0.0000000000000E+00
-0.6050215094317E+00 -0.4513799362613E+01  0.0000000000000E+00
-0.6050286792466E+00 -0.4441203398345E+01  0.0000000000000E+00
-0.6050358490600E+00 -0.4368607448512E+01  0.0000000000000E+00
-0.6050430188761E+00 -0.4296011471401E+01  0.0000000000000E+00
-0.6050501886880E+00 -0.4223415537196E+01  0.0000000000000E+00
-0.6050573585025E+00 -0.4150819576378E+01  0.0000000000000E+00
-0.6050645283165E+00 -0.4078223620892E+01  0.0000000000000E+00
-0.6050716981297E+00 -0.4005627673422E+01  0.0000000000000E+00
-0.6050788679444E+00 -0.3933031710757E+01  0.0000000000000E+00
-0.6050860377568E+00 -0.3860435771899E+01  0.0000000000000E+00
-0.6050932075722E+00 -0.3787839801358E+01  0.0000000000000E+00
-0.6051003773936E+00 -0.3715243771590E+01  0.0000000000000E+00
-0.6051075472128E+00 -0.3642647762484E+01  0.0000000000000E+00
-0.6051147170236E+00 -0.3570051840222E+01  0.0000000000000E+00
-0.6051218868976E+00 -0.3497455277047E+01  0.0000000000000E+00
-0.6051290566518E+00 -0.3424859926848E+01  0.0000000000000E+00
-0.6051362264668E+00 -0.3352263960863E+01  0.0000000000000E+00
-0.6051433962740E+00 -0.3279668074425E+01  0.0000000000000E+00
-0.6051505660720E+00 -0.3207072280451E+01  0.0000000000000E+00
-0.6051577358736E+00 -0.3134476449843E+01  0.0000000000000E+00
-0.6051649056785E+00 -0.3061880586770E+01  0.0000000000000E+00
-0.6051827206324E+00 -0.2989284661228E+01  0.0000000000000E+00
-0.6052797452072E+00 -0.2916688965711E+01  0.0000000000000E+00
-0.6055511849337E+00 -0.2844094837942E+01  0.0000000000000E+00
-0.6060838262558E+00 -0.2771505552792E+01  0.0000000000000E+00
-0.6069415513641E+00 -0.2698926793447E+01  0.0000000000000E+00
-0.6081653324871E+00 -0.2626365704114E+01  0.0000000000000E+00
-0.6097813675272E+00 -0.2553830617177E+01  0.0000000000000E+00
-0.6118104758481E+00 -0.2481330517544E+01  0.0000000000000E+00
-0.6142762099169E+00 -0.2408876120636E+01  0.0000000000000E+00
-0.6172109703304E+00 -0.2336481012995E+01  0.0000000000000E+00
-0.6206129343837E+00 -0.2264155007098E+01  0.0000000000000E+00
-0.6244346032008E+00 -0.2191899860885E+01  0.0000000000000E+00
-0.6286420690109E+00 -0.2119717252272E+01  0.0000000000000E+00
-0.6332156112646E+00 -0.2047609959972E+01  0.0000000000000E+00
-0.6381487944950E+00 -0.1975582885952E+01  0.0000000000000E+00
-0.6434514950607E+00 -0.1903644927961E+01  0.0000000000000E+00
-0.6491634305650E+00 -0.1831813294687E+01  0.0000000000000E+00
-0.5775046061084E+00 -0.4658929169017E+01  0.0000000000000E+00
-0.5775092122072E+00 -0.4586271363775E+01  0.0000000000000E+00
-0.5775138183343E+00 -0.4513613112352E+01  0.0000000000000E+00
-0.5775184244485E+00 -0.4440955064626E+01  0.0000000000000E+00
-0.5775230305618E+00 -0.4368297031349E+01  0.0000000000000E+00
-0.5775276366768E+00 -0.4295638970769E+01  0.0000000000000E+00
-0.5775322427890E+00 -0.4222980953132E+01  0.0000000000000E+00
-0.5775368489030E+00 -0.4150322908860E+01  0.0000000000000E+00
-0.5775414550166E+00 -0.4077664869924E+01  0.0000000000000E+00
-0.5775460611297E+00 -0.4005006839010E+01  0.0000000000000E+00
-0.5775506672438E+00 -0.3932348792890E+01  0.0000000000000E+00
-0.5775552733564E+00 -0.3859690770596E+01  0.0000000000000E+00
-0.5775598794710E+00 -0.3787032716592E+01  0.0000000000000E+00
-0.5775644855893E+00 -0.3714374603311E+01  0.0000000000000E+00
-0.5775690917063E+00 -0.3641716510709E+01  0.0000000000000E+00
-0.5775736978178E+00 -0.3569058505025E+01  0.0000000000000E+00
-0.5775783039700E+00 -0.3496399857880E+01  0.0000000000000E+00
-0.5775829100452E+00 -0.3423742424750E+01  0.0000000000000E+00
-0.5775875161595E+00 -0.3351084375306E+01  0.0000000000000E+00
-0.5775921222688E+00 -0.3278426405476E+01  0.0000000000000E+00
-0.5775967283721E+00 -0.3205768528191E+01  0.0000000000000E+00
-0.5776013344778E+00 -0.3133110614240E+01  0.0000000000000E+00
-0.5776059405856E+00 -0.3060452667796E+01  0.0000000000000E+00
-0.5776207065436E+00 -0.2987794658827E+01  0.0000000000000E+00
-0.5777110710727E+00 -0.2915136879922E+01  0.0000000000000E+00
-0.5779678994248E+00 -0.2842480668871E+01  0.0000000000000E+00
-0.5784740215735E+00 -0.2769829300463E+01  0.0000000000000E+00
-0.5792904074149E+00 -0.2697188457929E+01  0.0000000000000E+00
-0.5804561613110E+00 -0.2624565285406E+01  0.0000000000000E+00
-0.5819962868433E+00 -0.2551968115375E+01  0.0000000000000E+00
-0.5839306542459E+00 -0.2479405932593E+01  0.0000000000000E+00
-0.5862817422636E+00 -0.2406889452499E+01  0.0000000000000E+00
-0.5890804744040E+00 -0.2334432261820E+01  0.0000000000000E+00
-0.5923251110489E+00 -0.2262044172811E+01  0.0000000000000E+00
-0.5959703187267E+00 -0.2189726943418E+01  0.0000000000000E+00
-0.5999837354740E+00 -0.2117482251598E+01  0.0000000000000E+00
-0.6043465397710E+00 -0.2045312876019E+01  0.0000000000000E+00
-0.6090525895346E+00 -0.1973223718658E+01  0.0000000000000E+00
-0.6141113108821E+00 -0.1901223677472E+01  0.0000000000000E+00
-0.6195606107491E+00 -0.1829329961147E+01  0.0000000000000E+00
-0.5500018030462E+00 -0.4658869964047E+01  0.0000000000000E+00
-0.5500036060886E+00 -0.4586152953959E+01  0.0000000000000E+00
-0.5500054091420E+00 -0.4513435497326E+01  0.0000000000000E+00
-0.5500072121905E+00 -0.4440718244555E+01  0.0000000000000E+00
-0.5500090152385E+00 -0.4368001006246E+01  0.0000000000000E+00
-0.5500108182873E+00 -0.4295283740612E+01  0.0000000000000E+00
-0.5500126213350E+00 -0.4222566517955E+01  0.0000000000000E+00
-0.5500144243833E+00 -0.4149849268642E+01  0.0000000000000E+00
-0.5500162274315E+00 -0.4077132024669E+01  0.0000000000000E+00
-0.5500180304795E+00 -0.4004414788725E+01  0.0000000000000E+00
-0.5500198335279E+00 -0.3931697537561E+01  0.0000000000000E+00
-0.5500216365757E+00 -0.3858980310244E+01  0.0000000000000E+00
-0.5500234396243E+00 -0.3786263051191E+01  0.0000000000000E+00
-0.5500252426743E+00 -0.3713545732813E+01  0.0000000000000E+00
-0.5500270457239E+00 -0.3640828435130E+01  0.0000000000000E+00
-0.5500288487712E+00 -0.3568111224436E+01  0.0000000000000E+00
-0.5500306518345E+00 -0.3495393371759E+01  0.0000000000000E+00
-0.5500324548677E+00 -0.3422676734085E+01  0.0000000000000E+00
-0.5500342579162E+00 -0.3349959479596E+01  0.0000000000000E+00
-0.5500360609627E+00 -0.3277242304786E+01  0.0000000000000E+00
-0.5500378640069E+00 -0.3204525222595E+01  0.0000000000000E+00
-0.5500396670520E+00 -0.3131808103709E+01  0.0000000000000E+00
-0.5500414700979E+00 -0.3059090952303E+01  0.0000000000000E+00
-0.5500529476950E+00 -0.2986373738320E+01  0.0000000000000E+00
-0.5501364128136E+00 -0.2913656754436E+01  0.0000000000000E+00
-0.5503783904272E+00 -0.2840941338509E+01  0.0000000000000E+00
-0.5508577540385E+00 -0.2768230765247E+01  0.0000000000000E+00
-0.5516325612498E+00 -0.2695530717925E+01  0.0000000000000E+00
-0.5527400485558E+00 -0.2622848340613E+01  0.0000000000000E+00
-0.5542040252180E+00 -0.2550191965884E+01  0.0000000000000E+00
-0.5560434123399E+00 -0.2477570578353E+01  0.0000000000000E+00
-0.5582796149445E+00 -0.2404994893474E+01  0.0000000000000E+00
-0.5609420794508E+00 -0.2332478498149E+01  0.0000000000000E+00
-0.5640291493261E+00 -0.2260031204427E+01  0.0000000000000E+00
-0.5674976565036E+00 -0.2187654770253E+01  0.0000000000000E+00
-0.5713167848275E+00 -0.2115350873628E+01  0.0000000000000E+00
-0.5754686118071E+00 -0.2043122293177E+01  0.0000000000000E+00
-0.5799472887431E+00 -0.1970973930881E+01  0.0000000000000E+00
-0.5847617915126E+00 -0.1898914684902E+01  0.0000000000000E+00
-0.5899482163835E+00 -0.1826961763921E+01  0.0000000000000E+00
-0.5225031123729E+00 -0.4658813981278E+01  0.0000000000000E+00
-0.5225062247393E+00 -0.4586040988536E+01  0.0000000000000E+00
-0.5225093371249E+00 -0.4513267548907E+01  0.0000000000000E+00
-0.5225124495017E+00 -0.4440494313297E+01  0.0000000000000E+00
-0.5225155618779E+00 -0.4367721092158E+01  0.0000000000000E+00
-0.5225186742552E+00 -0.4294947843675E+01  0.0000000000000E+00
-0.5225217866308E+00 -0.4222174638202E+01  0.0000000000000E+00
-0.5225248990074E+00 -0.4149401406051E+01  0.0000000000000E+00
-0.5225280113839E+00 -0.4076628179245E+01  0.0000000000000E+00
-0.5225311237600E+00 -0.4003854960475E+01  0.0000000000000E+00
-0.5225342361367E+00 -0.3931081726473E+01  0.0000000000000E+00
-0.5225373485124E+00 -0.3858308516336E+01  0.0000000000000E+00
-0.5225404608895E+00 -0.3785535274437E+01  0.0000000000000E+00
-0.5225435732691E+00 -0.3712761973169E+01  0.0000000000000E+00
-0.5225466856479E+00 -0.3639988692612E+01  0.0000000000000E+00
-0.5225497980229E+00 -0.3567215499111E+01  0.0000000000000E+00
-0.5225529104254E+00 -0.3494441663132E+01  0.0000000000000E+00
-0.5225560227759E+00 -0.3421669043092E+01  0.0000000000000E+00
-0.5225591351527E+00 -0.3348895805762E+01  0.0000000000000E+00
-0.5225622475262E+00 -0.3276122648172E+01  0.0000000000000E+00
-0.5225653598957E+00 -0.3203349583273E+01  0.0000000000000E+00
-0.5225684722668E+00 -0.3130576481651E+01  0.0000000000000E+00
-0.5225715846393E+00 -0.3057803347483E+01  0.0000000000000E+00
-0.5225838878364E+00 -0.2985030150688E+01  0.0000000000000E+00
-0.5226645791765E+00 -0.2912257184026E+01  0.0000000000000E+00
-0.5228958573808E+00 -0.2839485785418E+01  0.0000000000000E+00
-0.5233526522770E+00 -0.2766719229496E+01  0.0000000000000E+00
-0.5240901185848E+00 -0.2693963199577E+01  0.0000000000000E+00
-0.5251436309752E+00 -0.2621224839666E+01  0.0000000000000E+00
-0.5265358082435E+00 -0.2548512482425E+01  0.0000000000000E+00
-0.5282846254413E+00 -0.2475835112332E+01  0.0000000000000E+00
-0.5304104173394E+00 -0.2403203444858E+01  0.0000000000000E+00
-0.5329411580310E+00 -0.2330631067071E+01  0.0000000000000E+00
-0.5358752738152E+00 -0.2258127790822E+01  0.0000000000000E+00
-0.5391717550294E+00 -0.2185695374059E+01  0.0000000000000E+00
-0.5428013263252E+00 -0.2113335494818E+01  0.0000000000000E+00
-0.5467469613379E+00 -0.2041050931690E+01  0.0000000000000E+00
-0.5510031038032E+00 -0.1968846586659E+01  0.0000000000000E+00
-0.5555782807994E+00 -0.1896731358076E+01  0.0000000000000E+00
-0.5605067837800E+00 -0.1824722454622E+01  0.0000000000000E+00
-0.4950042080534E+00 -0.4658760848519E+01  0.0000000000000E+00
-0.4950084160981E+00 -0.4585934723130E+01  0.0000000000000E+00
-0.4950126241686E+00 -0.4513108150526E+01  0.0000000000000E+00
-0.4950168322273E+00 -0.4440281782090E+01  0.0000000000000E+00
-0.4950210402851E+00 -0.4367455428137E+01  0.0000000000000E+00
-0.4950252483446E+00 -0.4294629046819E+01  0.0000000000000E+00
-0.4950294564015E+00 -0.4221802708543E+01  0.0000000000000E+00
-0.4950336644600E+00 -0.4148976343569E+01  0.0000000000000E+00
-0.4950378725182E+00 -0.4076149983944E+01  0.0000000000000E+00
-0.4950420805759E+00 -0.4003323632361E+01  0.0000000000000E+00
-0.4950462886345E+00 -0.3930497265535E+01  0.0000000000000E+00
-0.4950504966917E+00 -0.3857670922591E+01  0.0000000000000E+00
-0.4950547047508E+00 -0.3784844547863E+01  0.0000000000000E+00
-0.4950589128133E+00 -0.3712018113721E+01  0.0000000000000E+00
-0.4950631208746E+00 -0.3639191700306E+01  0.0000000000000E+00
-0.4950673289308E+00 -0.3566365374010E+01  0.0000000000000E+00
-0.4950715370242E+00 -0.3493538404768E+01  0.0000000000000E+00
-0.4950757450473E+00 -0.3420712652352E+01  0.0000000000000E+00
-0.4950799531061E+00 -0.3347886282195E+01  0.0000000000000E+00
-0.4950841611603E+00 -0.3275059991837E+01  0.0000000000000E+00
-0.4950883692091E+00 -0.3202233794237E+01  0.0000000000000E+00
-0.4950925772601E+00 -0.3129407559887E+01  0.0000000000000E+00
-0.4950967853129E+00 -0.3056581292968E+01  0.0000000000000E+00
-0.4951097004640E+00 -0.2983754963374E+01  0.0000000000000E+00
-0.4951874043817E+00 -0.2910928863946E+01  0.0000000000000E+00
-0.4954077695377E+00 -0.2838104332664E+01  0.0000000000000E+00
-0.4958417820870E+00 -0.2765284644087E+01  0.0000000000000E+00
-0.4965416938684E+00 -0.2692475481572E+01  0.0000000000000E+00
-0.4975410177298E+00 -0.2619683989065E+01  0.0000000000000E+00
-0.4988611820019E+00 -0.2546918499309E+01  0.0000000000000E+00
-0.5005192156838E+00 -0.2474187996655E+01  0.0000000000000E+00
-0.5025343832951E+00 -0.2401503196589E+01  0.0000000000000E+00
-0.5049331866049E+00 -0.2328877686334E+01  0.0000000000000E+00
-0.5077141347430E+00 -0.2256321277556E+01  0.0000000000000E+00
-0.5108383764496E+00 -0.2183835728204E+01  0.0000000000000E+00
-0.5142781771833E+00 -0.2111422716353E+01  0.0000000000000E+00
-0.5180174067047E+00 -0.2039085020552E+01  0.0000000000000E+00
-0.5220508011842E+00 -0.1966827542795E+01  0.0000000000000E+00
-0.5263864389021E+00 -0.1894659181612E+01  0.0000000000000E+00
-0.5310568064991E+00 -0.1822597145681E+01  0.0000000000000E+00
-0.4675051002525E+00 -0.4658710568986E+01  0.0000000000000E+00
-0.4675102004944E+00 -0.4585834164169E+01  0.0000000000000E+00
-0.4675153007675E+00 -0.4512957311829E+01  0.0000000000000E+00
-0.4675204010264E+00 -0.4440080663798E+01  0.0000000000000E+00
-0.4675255012843E+00 -0.4367204030259E+01  0.0000000000000E+00
-0.4675306015441E+00 -0.4294327369336E+01  0.0000000000000E+00
-0.4675357018008E+00 -0.4221450751485E+01  0.0000000000000E+00
-0.4675408020595E+00 -0.4148574106919E+01  0.0000000000000E+00
-0.4675459023178E+00 -0.4075697467704E+01  0.0000000000000E+00
-0.4675510025755E+00 -0.4002820836537E+01  0.0000000000000E+00
-0.4675561028342E+00 -0.3929944190116E+01  0.0000000000000E+00
-0.4675612030913E+00 -0.3857067567594E+01  0.0000000000000E+00
-0.4675663033506E+00 -0.3784190913266E+01  0.0000000000000E+00
-0.4675714036141E+00 -0.3711314199484E+01  0.0000000000000E+00
-0.4675765038762E+00 -0.3638437506442E+01  0.0000000000000E+00
-0.4675816041321E+00 -0.3565560900580E+01  0.0000000000000E+00
-0.4675867044331E+00 -0.3492683651327E+01  0.0000000000000E+00
-0.4675918046488E+00 -0.3419807619741E+01  0.0000000000000E+00
-0.4675969049078E+00 -0.3346930969987E+01  0.0000000000000E+00
-0.4676020051612E+00 -0.3274054400087E+01  0.0000000000000E+00
-0.4676071054081E+00 -0.3201177923009E+01  0.0000000000000E+00
-0.4676122056576E+00 -0.3128301409157E+01  0.0000000000000E+00
-0.4676173059094E+00 -0.3055424862712E+01  0.0000000000000E+00
-0.4676306295327E+00 -0.2982548253547E+01  0.0000000000000E+00
-0.4677051425463E+00 -0.2909671874579E+01  0.0000000000000E+00
-0.4679143911723E+00 -0.2836797063844E+01  0.0000000000000E+00
-0.4683254178920E+00 -0.2763927095833E+01  0.0000000000000E+00
-0.4689875716638E+00 -0.2691067653940E+01  0.0000000000000E+00
-0.4699325035119E+00 -0.2618225882054E+01  0.0000000000000E+00
-0.4711804513026E+00 -0.2545410112997E+01  0.0000000000000E+00
-0.4727474979822E+00 -0.2472629330997E+01  0.0000000000000E+00
-0.4746518378190E+00 -0.2399894251555E+01  0.0000000000000E+00
-0.4769185002582E+00 -0.2327218462044E+01  0.0000000000000E+00
-0.4795460772598E+00 -0.2254611773950E+01  0.0000000000000E+00
-0.4824978759672E+00 -0.2182075945228E+01  0.0000000000000E+00
-0.4857477026460E+00 -0.2109612653982E+01  0.0000000000000E+00
-0.4892803231818E+00 -0.2037224678732E+01  0.0000000000000E+00
-0.4930907661800E+00 -0.1964916921473E+01  0.0000000000000E+00
-0.4971866611237E+00 -0.1892698280907E+01  0.0000000000000E+00
-0.5015986898404E+00 -0.1820585965710E+01  0.0000000000000E+00
-0.4400057998211E+00 -0.4658663145781E+01  0.0000000000000E+00
-0.4400115996301E+00 -0.4585739317857E+01  0.0000000000000E+00
-0.4400173994747E+00 -0.4512815042119E+01  0.0000000000000E+00
-0.4400231993031E+00 -0.4439890970823E+01  0.0000000000000E+00
-0.4400289991303E+00 -0.4366966914029E+01  0.0000000000000E+00
-0.4400347989596E+00 -0.4294042829833E+01  0.0000000000000E+00
-0.4400405987856E+00 -0.4221118788737E+01  0.0000000000000E+00
-0.4400463986137E+00 -0.4148194720907E+01  0.0000000000000E+00
-0.4400521984413E+00 -0.4075270658434E+01  0.0000000000000E+00
-0.4400579982683E+00 -0.4002346604013E+01  0.0000000000000E+00
-0.4400637980966E+00 -0.3929422534328E+01  0.0000000000000E+00
-0.4400695979229E+00 -0.3856498488558E+01  0.0000000000000E+00
-0.4400753977517E+00 -0.3783574410961E+01  0.0000000000000E+00
-0.4400811975853E+00 -0.3710650273871E+01  0.0000000000000E+00
-0.4400869974173E+00 -0.3637726157535E+01  0.0000000000000E+00
-0.4400927972423E+00 -0.3564802128435E+01  0.0000000000000E+00
-0.4400985971185E+00 -0.3491877455526E+01  0.0000000000000E+00
-0.4401043968978E+00 -0.3418954001076E+01  0.0000000000000E+00
-0.4401101967263E+00 -0.3346029928056E+01  0.0000000000000E+00
-0.4401159965484E+00 -0.3273105934943E+01  0.0000000000000E+00
-0.4401217963631E+00 -0.3200182034711E+01  0.0000000000000E+00
-0.4401275961808E+00 -0.3127258097681E+01  0.0000000000000E+00
-0.4401333960011E+00 -0.3054334128038E+01  0.0000000000000E+00
-0.4401469354660E+00 -0.2981410095632E+01  0.0000000000000E+00
-0.4402180649440E+00 -0.2908486293451E+01  0.0000000000000E+00
-0.4404160044070E+00 -0.2835564059586E+01  0.0000000000000E+00
-0.4408038526617E+00 -0.2762646668462E+01  0.0000000000000E+00
-0.4414280557851E+00 -0.2689739803510E+01  0.0000000000000E+00
-0.4423184029774E+00 -0.2616850608563E+01  0.0000000000000E+00
-0.4434939416404E+00 -0.2543987416518E+01  0.0000000000000E+00
-0.4449698086669E+00 -0.2471159211489E+01  0.0000000000000E+00
-0.4467631280738E+00 -0.2398376708990E+01  0.0000000000000E+00
-0.4488974569826E+00 -0.2325653496533E+01  0.0000000000000E+00
-0.4513714701828E+00 -0.2252999385440E+01  0.0000000000000E+00
-0.4541506332215E+00 -0.2180416133664E+01  0.0000000000000E+00
-0.4572102931718E+00 -0.2107905419345E+01  0.0000000000000E+00
-0.4605361120445E+00 -0.2035470020967E+01  0.0000000000000E+00
-0.4641234108799E+00 -0.1963114840532E+01  0.0000000000000E+00
-0.4679793703646E+00 -0.1890848776901E+01  0.0000000000000E+00
-0.4721328675123E+00 -0.1818689038749E+01  0.0000000000000E+00
-0.4125063188255E+00 -0.4658618581908E+01  0.0000000000000E+00
-0.4125126376377E+00 -0.4585650190204E+01  0.0000000000000E+00
-0.4125189564888E+00 -0.4512681350412E+01  0.0000000000000E+00
-0.4125252753222E+00 -0.4439712715187E+01  0.0000000000000E+00
-0.4125315941543E+00 -0.4366744094473E+01  0.0000000000000E+00
-0.4125379129888E+00 -0.4293775446340E+01  0.0000000000000E+00
-0.4125442318196E+00 -0.4220806841334E+01  0.0000000000000E+00
-0.4125505506527E+00 -0.4147838209578E+01  0.0000000000000E+00
-0.4125568694853E+00 -0.4074869583181E+01  0.0000000000000E+00
-0.4125631883172E+00 -0.4001900964841E+01  0.0000000000000E+00
-0.4125695071504E+00 -0.3928932331228E+01  0.0000000000000E+00
-0.4125758259816E+00 -0.3855963721545E+01  0.0000000000000E+00
-0.4125821448155E+00 -0.3782995080015E+01  0.0000000000000E+00
-0.4125884636546E+00 -0.3710026378956E+01  0.0000000000000E+00
-0.4125947824919E+00 -0.3637057698663E+01  0.0000000000000E+00
-0.4126011013216E+00 -0.3564089105661E+01  0.0000000000000E+00
-0.4126074202071E+00 -0.3491119868455E+01  0.0000000000000E+00
-0.4126137389871E+00 -0.3418151850454E+01  0.0000000000000E+00
-0.4126200578206E+00 -0.3345183213504E+01  0.0000000000000E+00
-0.4126263766472E+00 -0.3272214656509E+01  0.0000000000000E+00
-0.4126326954657E+00 -0.3199246192453E+01  0.0000000000000E+00
-0.4126390142875E+00 -0.3126277691576E+01  0.0000000000000E+00
-0.4126453331121E+00 -0.3053309158066E+01  0.0000000000000E+00
-0.4126589078544E+00 -0.2980340561753E+01  0.0000000000000E+00
-0.4127264732346E+00 -0.2907372195693E+01  0.0000000000000E+00
-0.4129129229765E+00 -0.2834405398026E+01  0.0000000000000E+00
-0.4132774122137E+00 -0.2761443443115E+01  0.0000000000000E+00
-0.4138634841439E+00 -0.2688492014427E+01  0.0000000000000E+00
-0.4146990661436E+00 -0.2615558255743E+01  0.0000000000000E+00
-0.4158020151508E+00 -0.2542650500030E+01  0.0000000000000E+00
-0.4171865220053E+00 -0.2469777731294E+01  0.0000000000000E+00
-0.4188686404727E+00 -0.2396950665061E+01  0.0000000000000E+00
-0.4208704553524E+00 -0.2324182888976E+01  0.0000000000000E+00
-0.4231907242625E+00 -0.2251484214202E+01  0.0000000000000E+00
-0.4257970711529E+00 -0.2178856398696E+01  0.0000000000000E+00
-0.4286663839034E+00 -0.2106301120627E+01  0.0000000000000E+00
-0.4317852206497E+00 -0.2033821158450E+01  0.0000000000000E+00
-0.4351491948666E+00 -0.1961421414169E+01  0.0000000000000E+00
-0.4387650384451E+00 -0.1889110786798E+01  0.0000000000000E+00
-0.4426598235861E+00 -0.1816906485009E+01  0.0000000000000E+00
-0.3850066669832E+00 -0.4658576880046E+01  0.0000000000000E+00
-0.3850133339525E+00 -0.4585566786567E+01  0.0000000000000E+00
-0.3850200009627E+00 -0.4512556244743E+01  0.0000000000000E+00
-0.3850266679543E+00 -0.4439545907604E+01  0.0000000000000E+00
-0.3850333349445E+00 -0.4366535584984E+01  0.0000000000000E+00
-0.3850400019372E+00 -0.4293525234929E+01  0.0000000000000E+00
-0.3850466689260E+00 -0.4220514928026E+01  0.0000000000000E+00
-0.3850533359172E+00 -0.4147504594357E+01  0.0000000000000E+00
-0.3850600029079E+00 -0.4074494266050E+01  0.0000000000000E+00
-0.3850666698979E+00 -0.4001483945806E+01  0.0000000000000E+00
-0.3850733368893E+00 -0.3928473610280E+01  0.0000000000000E+00
-0.3850800038785E+00 -0.3855463298697E+01  0.0000000000000E+00
-0.3850866708707E+00 -0.3782452955249E+01  0.0000000000000E+00
-0.3850933378682E+00 -0.3709442552238E+01  0.0000000000000E+00
-0.3851000048639E+00 -0.3636432170005E+01  0.0000000000000E+00
-0.3851066718516E+00 -0.3563421875112E+01  0.0000000000000E+00
-0.3851133388981E+00 -0.3490410935648E+01  0.0000000000000E+00
-0.3851200058333E+00 -0.3417401216084E+01  0.0000000000000E+00
-0.3851266728250E+00 -0.3344390877219E+01  0.0000000000000E+00
-0.3851333398094E+00 -0.3271380618355E+01  0.0000000000000E+00
-0.3851400067853E+00 -0.3198370452482E+01  0.0000000000000E+00
-0.3851466737645E+00 -0.3125360249768E+01  0.0000000000000E+00
-0.3851533407468E+00 -0.3052350014401E+01  0.0000000000000E+00
-0.3851667799195E+00 -0.2979339716195E+01  0.0000000000000E+00
-0.3852306103528E+00 -0.2906329648266E+01  0.0000000000000E+00
-0.3854053995203E+00 -0.2833321148803E+01  0.0000000000000E+00
-0.3857463588799E+00 -0.2760317492112E+01  0.0000000000000E+00
-0.3862941287481E+00 -0.2687324361690E+01  0.0000000000000E+00
-0.3870747746768E+00 -0.2614348901271E+01  0.0000000000000E+00
-0.3881049631399E+00 -0.2541399443887E+01  0.0000000000000E+00
-0.3893979389227E+00 -0.2468484973444E+01  0.0000000000000E+00
-0.3909686855394E+00 -0.2395616205479E+01  0.0000000000000E+00
-0.3928378154667E+00 -0.2322806727761E+01  0.0000000000000E+00
-0.3950041691510E+00 -0.2250066351305E+01  0.0000000000000E+00
-0.3974375289459E+00 -0.2177396834071E+01  0.0000000000000E+00
-0.4001163235393E+00 -0.2104799854255E+01  0.0000000000000E+00
-0.4030280071917E+00 -0.2032278190284E+01  0.0000000000000E+00
-0.4061684858133E+00 -0.1959836744166E+01  0.0000000000000E+00
-0.4095440424992E+00 -0.1887484415058E+01  0.0000000000000E+00
-0.4131799446368E+00 -0.1815238411627E+01  0.0000000000000E+00
-0.3575068566982E+00 -0.4658538042865E+01  0.0000000000000E+00
-0.3575137133821E+00 -0.4585489112285E+01  0.0000000000000E+00
-0.3575205701081E+00 -0.4512439733123E+01  0.0000000000000E+00
-0.3575274268148E+00 -0.4439390558754E+01  0.0000000000000E+00
-0.3575342835202E+00 -0.4366341398912E+01  0.0000000000000E+00
-0.3575411402282E+00 -0.4293292211620E+01  0.0000000000000E+00
-0.3575479969321E+00 -0.4220243067503E+01  0.0000000000000E+00
-0.3575548536386E+00 -0.4147193896606E+01  0.0000000000000E+00
-0.3575617103445E+00 -0.4074144731074E+01  0.0000000000000E+00
-0.3575685670497E+00 -0.4001095573609E+01  0.0000000000000E+00
-0.3575754237563E+00 -0.3928046400854E+01  0.0000000000000E+00
-0.3575822804607E+00 -0.3854997252054E+01  0.0000000000000E+00
-0.3575891371681E+00 -0.3781948071373E+01  0.0000000000000E+00
-0.3575959938810E+00 -0.3708898831097E+01  0.0000000000000E+00
-0.3576028505920E+00 -0.3635849611611E+01  0.0000000000000E+00
-0.3576097072948E+00 -0.3562800479510E+01  0.0000000000000E+00
-0.3576165640582E+00 -0.3489750702496E+01  0.0000000000000E+00
-0.3576234207069E+00 -0.3416702146031E+01  0.0000000000000E+00
-0.3576302774139E+00 -0.3343652969935E+01  0.0000000000000E+00
-0.3576371341133E+00 -0.3270603873882E+01  0.0000000000000E+00
-0.3576439908040E+00 -0.3197554870871E+01  0.0000000000000E+00
-0.3576508474981E+00 -0.3124505830998E+01  0.0000000000000E+00
-0.3576577041953E+00 -0.3051456758456E+01  0.0000000000000E+00
-0.3576708493558E+00 -0.2978407623039E+01  0.0000000000000E+00
-0.3577307864007E+00 -0.2905358717923E+01  0.0000000000000E+00
-0.3578937565552E+00 -0.2832311381340E+01  0.0000000000000E+00
-0.3582110276026E+00 -0.2759268887544E+01  0.0000000000000E+00
-0.3587203369794E+00 -0.2686236920060E+01  0.0000000000000E+00
-0.3594458884130E+00 -0.2613222622579E+01  0.0000000000000E+00
-0.3604031579141E+00 -0.2540234328192E+01  0.0000000000000E+00
-0.3616044442134E+00 -0.2467281020712E+01  0.0000000000000E+00
-0.3630636605739E+00 -0.2394373415687E+01  0.0000000000000E+00
-0.3647999471507E+00 -0.2321525101001E+01  0.0000000000000E+00
-0.3668122272178E+00 -0.2248745887532E+01  0.0000000000000E+00
-0.3690724415322E+00 -0.2176037533241E+01  0.0000000000000E+00
-0.3715605595890E+00 -0.2103401716352E+01  0.0000000000000E+00
-0.3742649317735E+00 -0.2030841215263E+01  0.0000000000000E+00
-0.3771817564307E+00 -0.1958360931988E+01  0.0000000000000E+00
-0.3803168678611E+00 -0.1885969765814E+01  0.0000000000000E+00
-0.3836937286386E+00 -0.1813684925408E+01  0.0000000000000E+00
-0.3300068987676E+00 -0.4658502072758E+01  0.0000000000000E+00
-0.3300137975208E+00 -0.4585417172147E+01  0.0000000000000E+00
-0.3300206963164E+00 -0.4512331822732E+01  0.0000000000000E+00
-0.3300275950926E+00 -0.4439246678212E+01  0.0000000000000E+00
-0.3300344938675E+00 -0.4366161548225E+01  0.0000000000000E+00
-0.3300413926450E+00 -0.4293076390776E+01  0.0000000000000E+00
-0.3300482914184E+00 -0.4219991276521E+01  0.0000000000000E+00
-0.3300551901943E+00 -0.4146906135475E+01  0.0000000000000E+00
-0.3300620889697E+00 -0.4073820999796E+01  0.0000000000000E+00
-0.3300689877443E+00 -0.4000735872187E+01  0.0000000000000E+00
-0.3300758865204E+00 -0.3927650729281E+01  0.0000000000000E+00
-0.3300827852943E+00 -0.3854565610343E+01  0.0000000000000E+00
-0.3300896840711E+00 -0.3781480459507E+01  0.0000000000000E+00
-0.3300965828536E+00 -0.3708395249047E+01  0.0000000000000E+00
-0.3301034816341E+00 -0.3635310059386E+01  0.0000000000000E+00
-0.3301103804063E+00 -0.3562224957155E+01  0.0000000000000E+00
-0.3301172792395E+00 -0.3489139209693E+01  0.0000000000000E+00
-0.3301241779574E+00 -0.3416054683381E+01  0.0000000000000E+00
-0.3301310767338E+00 -0.3342969537132E+01  0.0000000000000E+00
-0.3301379755026E+00 -0.3269884470966E+01  0.0000000000000E+00
-0.3301448742627E+00 -0.3196799497888E+01  0.0000000000000E+00
-0.3301517730262E+00 -0.3123714487929E+01  0.0000000000000E+00
-0.3301586717929E+00 -0.3050629445286E+01  0.0000000000000E+00
-0.3301713752953E+00 -0.2977544339735E+01  0.0000000000000E+00
-0.3302272713064E+00 -0.2904459464508E+01  0.0000000000000E+00
-0.3303782748028E+00 -0.2831376157875E+01  0.0000000000000E+00
-0.3306717098932E+00 -0.2758297694042E+01  0.0000000000000E+00
-0.3311424111341E+00 -0.2685229756563E+01  0.0000000000000E+00
-0.3318127204285E+00 -0.2612179489085E+01  0.0000000000000E+00
-0.3326969233240E+00 -0.2539155224757E+01  0.0000000000000E+00
-0.3338063724964E+00 -0.2466165947304E+01  0.0000000000000E+00
-0.3351539109577E+00 -0.2393222372285E+01  0.0000000000000E+00
-0.3367572065418E+00 -0.2320338087689E+01  0.0000000000000E+00
-0.3386152653497E+00 -0.2247522904270E+01  0.0000000000000E+00
-0.3407021865415E+00 -0.2174778579988E+01  0.0000000000000E+00
-0.3429994804201E+00 -0.2102106793092E+01  0.0000000000000E+00
-0.3454963934951E+00 -0.2029510321956E+01  0.0000000000000E+00
-0.3481894165466E+00 -0.1956994068596E+01  0.0000000000000E+00
-0.3510839350807E+00 -0.1884566932422E+01  0.0000000000000E+00
-0.3542016068581E+00 -0.1812246122100E+01  0.0000000000000E+00
-0.3025068041260E+00 -0.4658468971956E+01  0.0000000000000E+00
-0.3025136082379E+00 -0.4585350970612E+01  0.0000000000000E+00
-0.3025204123915E+00 -0.4512232520260E+01  0.0000000000000E+00
-0.3025272165261E+00 -0.4439114274896E+01  0.0000000000000E+00
-0.3025340206593E+00 -0.4365996044072E+01  0.0000000000000E+00
-0.3025408247951E+00 -0.4292877785773E+01  0.0000000000000E+00
-0.3025476289268E+00 -0.4219759570689E+01  0.0000000000000E+00
-0.3025544330610E+00 -0.4146641328800E+01  0.0000000000000E+00
-0.3025612371948E+00 -0.4073523092281E+01  0.0000000000000E+00
-0.3025680413278E+00 -0.4000404863836E+01  0.0000000000000E+00
-0.3025748454622E+00 -0.3927286620088E+01  0.0000000000000E+00
-0.3025816495944E+00 -0.3854168400317E+01  0.0000000000000E+00
-0.3025884537295E+00 -0.3781050148635E+01  0.0000000000000E+00
-0.3025952578702E+00 -0.3707931837301E+01  0.0000000000000E+00
-0.3026020620090E+00 -0.3634813546776E+01  0.0000000000000E+00
-0.3026088661396E+00 -0.3561695343720E+01  0.0000000000000E+00
-0.3026156703303E+00 -0.3488576495141E+01  0.0000000000000E+00
-0.3026224744073E+00 -0.3415458868265E+01  0.0000000000000E+00
-0.3026292785420E+00 -0.3342340621172E+01  0.0000000000000E+00
-0.3026360826693E+00 -0.3269222454198E+01  0.0000000000000E+00
-0.3026428867879E+00 -0.3196104380354E+01  0.0000000000000E+00
-0.3026496909099E+00 -0.3122986269612E+01  0.0000000000000E+00
-0.3026564950350E+00 -0.3049868126171E+01  0.0000000000000E+00
-0.3026686201683E+00 -0.2976749919793E+01  0.0000000000000E+00
-0.3027203384337E+00 -0.2903631943759E+01  0.0000000000000E+00
-0.3028592385586E+00 -0.2830515536376E+01  0.0000000000000E+00
-0.3031287009763E+00 -0.2757403971806E+01  0.0000000000000E+00
-0.3035606573625E+00 -0.2684302933626E+01  0.0000000000000E+00
-0.3041755877955E+00 -0.2611219565447E+01  0.0000000000000E+00
-0.3049865873595E+00 -0.2538162200469E+01  0.0000000000000E+00
-0.3060040626750E+00 -0.2465139822337E+01  0.0000000000000E+00
-0.3072397865029E+00 -0.2392163146619E+01  0.0000000000000E+00
-0.3087099543557E+00 -0.2319245761402E+01  0.0000000000000E+00
-0.3104136551612E+00 -0.2246397477324E+01  0.0000000000000E+00
-0.3123271464832E+00 -0.2173620052345E+01  0.0000000000000E+00
-0.3144334794324E+00 -0.2100915164739E+01  0.0000000000000E+00
-0.3167227966432E+00 -0.2028285592855E+01  0.0000000000000E+00
-0.3191918813306E+00 -0.1955736238713E+01  0.0000000000000E+00
-0.3218456702067E+00 -0.1883276001836E+01  0.0000000000000E+00
-0.3247040162189E+00 -0.1810922090887E+01  0.0000000000000E+00
-0.2750065847907E+00 -0.4658438742560E+01  0.0000000000000E+00
-0.2750131695678E+00 -0.4585290511882E+01  0.0000000000000E+00
-0.2750197543852E+00 -0.4512141832011E+01  0.0000000000000E+00
-0.2750263391843E+00 -0.4438993357213E+01  0.0000000000000E+00
-0.2750329239819E+00 -0.4365844896960E+01  0.0000000000000E+00
-0.2750395087821E+00 -0.4292696409222E+01  0.0000000000000E+00
-0.2750460935784E+00 -0.4219547964716E+01  0.0000000000000E+00
-0.2750526783771E+00 -0.4146399493394E+01  0.0000000000000E+00
-0.2750592631753E+00 -0.4073251027445E+01  0.0000000000000E+00
-0.2750658479728E+00 -0.4000102569572E+01  0.0000000000000E+00
-0.2750724327716E+00 -0.3926954096390E+01  0.0000000000000E+00
-0.2750790175683E+00 -0.3853805647195E+01  0.0000000000000E+00
-0.2750856023679E+00 -0.3780657166076E+01  0.0000000000000E+00
-0.2750921871729E+00 -0.3707508625281E+01  0.0000000000000E+00
-0.2750987719759E+00 -0.3634360105303E+01  0.0000000000000E+00
-0.2751053567711E+00 -0.3561211672831E+01  0.0000000000000E+00
-0.2751119416245E+00 -0.3488062594568E+01  0.0000000000000E+00
-0.2751185263678E+00 -0.3414914738513E+01  0.0000000000000E+00
-0.2751251111669E+00 -0.3341766261985E+01  0.0000000000000E+00
-0.2751316959589E+00 -0.3268617865609E+01  0.0000000000000E+00
-0.2751382807424E+00 -0.3195469562401E+01  0.0000000000000E+00
-0.2751448655293E+00 -0.3122321222281E+01  0.0000000000000E+00
-0.2751514503191E+00 -0.3049172849447E+01  0.0000000000000E+00
-0.2751628723896E+00 -0.2976024413650E+01  0.0000000000000E+00
-0.2752102882170E+00 -0.2902876208215E+01  0.0000000000000E+00
-0.2753369602811E+00 -0.2829729571484E+01  0.0000000000000E+00
-0.2755823253407E+00 -0.2756587777576E+01  0.0000000000000E+00
-0.2759754121923E+00 -0.2683456510093E+01  0.0000000000000E+00
-0.2765348390895E+00 -0.2610342912610E+01  0.0000000000000E+00
-0.2772725106540E+00 -0.2537255318374E+01  0.0000000000000E+00
-0.2781978874511E+00 -0.2464202710958E+01  0.0000000000000E+00
-0.2793216719906E+00 -0.2391195805938E+01  0.0000000000000E+00
-0.2806585874648E+00 -0.2318248191491E+01  0.0000000000000E+00
-0.2822078056280E+00 -0.2245369678147E+01  0.0000000000000E+00
-0.2839477424465E+00 -0.2172562023869E+01  0.0000000000000E+00
-0.2858629898386E+00 -0.2099826906950E+01  0.0000000000000E+00
-0.2879445865631E+00 -0.2027167105719E+01  0.0000000000000E+00
-0.2901896082697E+00 -0.1954587522199E+01  0.0000000000000E+00
-0.2926025428774E+00 -0.1882097056015E+01  0.0000000000000E+00
-0.2952014385204E+00 -0.1809712915830E+01  0.0000000000000E+00
-0.2475062510879E+00 -0.4658411386417E+01  0.0000000000000E+00
-0.2475125021628E+00 -0.4585235799654E+01  0.0000000000000E+00
-0.2475187532761E+00 -0.4512059763530E+01  0.0000000000000E+00
-0.2475250043718E+00 -0.4438883932554E+01  0.0000000000000E+00
-0.2475312554664E+00 -0.4365708116131E+01  0.0000000000000E+00
-0.2475375065632E+00 -0.4292532272210E+01  0.0000000000000E+00
-0.2475437576564E+00 -0.4219356471539E+01  0.0000000000000E+00
-0.2475500087518E+00 -0.4146180644042E+01  0.0000000000000E+00
-0.2475562598468E+00 -0.4073004821919E+01  0.0000000000000E+00
-0.2475625109411E+00 -0.3999829007876E+01  0.0000000000000E+00
-0.2475687620368E+00 -0.3926653178517E+01  0.0000000000000E+00
-0.2475750131303E+00 -0.3853477373156E+01  0.0000000000000E+00
-0.2475812642266E+00 -0.3780301535857E+01  0.0000000000000E+00
-0.2475875153280E+00 -0.3707125638860E+01  0.0000000000000E+00
-0.2475937664276E+00 -0.3633949762689E+01  0.0000000000000E+00
-0.2476000175198E+00 -0.3560773974055E+01  0.0000000000000E+00
-0.2476062686671E+00 -0.3487597539390E+01  0.0000000000000E+00
-0.2476125197100E+00 -0.3414422327390E+01  0.0000000000000E+00
-0.2476187708059E+00 -0.3341246494684E+01  0.0000000000000E+00
-0.2476250218949E+00 -0.3268070742161E+01  0.0000000000000E+00
-0.2476312729760E+00 -0.3194895082840E+01  0.0000000000000E+00
-0.2476375240603E+00 -0.3121719386594E+01  0.0000000000000E+00
-0.2476437751473E+00 -0.3048543657622E+01  0.0000000000000E+00
-0.2476543797871E+00 -0.2975367865661E+01  0.0000000000000E+00
-0.2476973788073E+00 -0.2902192304079E+01  0.0000000000000E+00
-0.2478117084387E+00 -0.2829018311249E+01  0.0000000000000E+00
-0.2480328617639E+00 -0.2755849161253E+01  0.0000000000000E+00
-0.2483869646989E+00 -0.2682690537711E+01  0.0000000000000E+00
-0.2488907736722E+00 -0.2609549584168E+01  0.0000000000000E+00
-0.2495550028424E+00 -0.2536434633916E+01  0.0000000000000E+00
-0.2503881667191E+00 -0.2463354670459E+01  0.0000000000000E+00
-0.2513998975606E+00 -0.2390320409382E+01  0.0000000000000E+00
-0.2526034462390E+00 -0.2317345438943E+01  0.0000000000000E+00
-0.2539980673341E+00 -0.2244439569574E+01  0.0000000000000E+00
-0.2555643352162E+00 -0.2171604559242E+01  0.0000000000000E+00
-0.2572883826116E+00 -0.2098842086256E+01  0.0000000000000E+00
-0.2591621444036E+00 -0.2026154928927E+01  0.0000000000000E+00
-0.2611829886770E+00 -0.1953547989281E+01  0.0000000000000E+00
-0.2633549545578E+00 -0.1881030167037E+01  0.0000000000000E+00
-0.2656942853663E+00 -0.1808618670854E+01  0.0000000000000E+00
-0.2200058151317E+00 -0.4658386905273E+01  0.0000000000000E+00
-0.2200116302512E+00 -0.4585186837416E+01  0.0000000000000E+00
-0.2200174454065E+00 -0.4511986320049E+01  0.0000000000000E+00
-0.2200232605455E+00 -0.4438786007899E+01  0.0000000000000E+00
-0.2200290756833E+00 -0.4365585710305E+01  0.0000000000000E+00
-0.2200348908233E+00 -0.4292385385205E+01  0.0000000000000E+00
-0.2200407059598E+00 -0.4219185103369E+01  0.0000000000000E+00
-0.2200465210985E+00 -0.4145984794698E+01  0.0000000000000E+00
-0.2200523362367E+00 -0.4072784491403E+01  0.0000000000000E+00
-0.2200581513744E+00 -0.3999584196191E+01  0.0000000000000E+00
-0.2200639665132E+00 -0.3926383885658E+01  0.0000000000000E+00
-0.2200697816501E+00 -0.3853183599130E+01  0.0000000000000E+00
-0.2200755967896E+00 -0.3779983280655E+01  0.0000000000000E+00
-0.2200814119338E+00 -0.3706782902461E+01  0.0000000000000E+00
-0.2200872270764E+00 -0.3633582545100E+01  0.0000000000000E+00
-0.2200930422120E+00 -0.3560382275305E+01  0.0000000000000E+00
-0.2200988573989E+00 -0.3487181359263E+01  0.0000000000000E+00
-0.2201046724887E+00 -0.3413981666295E+01  0.0000000000000E+00
-0.2201104876278E+00 -0.3340781352414E+01  0.0000000000000E+00
-0.2201163027605E+00 -0.3267581118742E+01  0.0000000000000E+00
-0.2201221178858E+00 -0.3194380978304E+01  0.0000000000000E+00
-0.2201279330141E+00 -0.3121180800927E+01  0.0000000000000E+00
-0.2201337481449E+00 -0.3047980590815E+01  0.0000000000000E+00
-0.2201434331007E+00 -0.2974780317691E+01  0.0000000000000E+00
-0.2201819130612E+00 -0.2901580274962E+01  0.0000000000000E+00
-0.2202837980092E+00 -0.2828381801026E+01  0.0000000000000E+00
-0.2204806373518E+00 -0.2755188169933E+01  0.0000000000000E+00
-0.2207956541254E+00 -0.2682005065322E+01  0.0000000000000E+00
-0.2212437429334E+00 -0.2608839630710E+01  0.0000000000000E+00
-0.2218344274720E+00 -0.2535700199426E+01  0.0000000000000E+00
-0.2225752761947E+00 -0.2462595754916E+01  0.0000000000000E+00
-0.2234748511090E+00 -0.2389537012771E+01  0.0000000000000E+00
-0.2245449307669E+00 -0.2316537561322E+01  0.0000000000000E+00
-0.2257848525739E+00 -0.2243607210915E+01  0.0000000000000E+00
-0.2271773493033E+00 -0.2170747719517E+01  0.0000000000000E+00
-0.2287100944895E+00 -0.2097960765455E+01  0.0000000000000E+00
-0.2303759191400E+00 -0.2025249127022E+01  0.0000000000000E+00
-0.2321724837746E+00 -0.1952617706247E+01  0.0000000000000E+00
-0.2341033787265E+00 -0.1880075402931E+01  0.0000000000000E+00
-0.2361830425028E+00 -0.1807639425734E+01  0.0000000000000E+00
-0.1925052879758E+00 -0.4658365300648E+01  0.0000000000000E+00
-0.1925105759406E+00 -0.4585143628212E+01  0.0000000000000E+00
-0.1925158639379E+00 -0.4511921506133E+01  0.0000000000000E+00
-0.1925211519204E+00 -0.4438699589331E+01  0.0000000000000E+00
-0.1925264399018E+00 -0.4365477687090E+01  0.0000000000000E+00
-0.1925317278851E+00 -0.4292255757335E+01  0.0000000000000E+00
-0.1925370158654E+00 -0.4219033870856E+01  0.0000000000000E+00
-0.1925423038476E+00 -0.4145811957534E+01  0.0000000000000E+00
-0.1925475918294E+00 -0.4072590049591E+01  0.0000000000000E+00
-0.1925528798106E+00 -0.3999368149732E+01  0.0000000000000E+00
-0.1925581677930E+00 -0.3926146234548E+01  0.0000000000000E+00
-0.1925634557736E+00 -0.3852924343376E+01  0.0000000000000E+00
-0.1925687437565E+00 -0.3779702420247E+01  0.0000000000000E+00
-0.1925740317437E+00 -0.3706480437382E+01  0.0000000000000E+00
-0.1925793197294E+00 -0.3633258475356E+01  0.0000000000000E+00
-0.1925846077088E+00 -0.3560036600922E+01  0.0000000000000E+00
-0.1925898957349E+00 -0.3486814080050E+01  0.0000000000000E+00
-0.1925951836726E+00 -0.3413592782614E+01  0.0000000000000E+00
-0.1926004716552E+00 -0.3340370864080E+01  0.0000000000000E+00
-0.1926057596320E+00 -0.3267149025780E+01  0.0000000000000E+00
-0.1926110476020E+00 -0.3193927280741E+01  0.0000000000000E+00
-0.1926163355748E+00 -0.3120705498753E+01  0.0000000000000E+00
-0.1926216235498E+00 -0.3047483684019E+01  0.0000000000000E+00
-0.1926302976219E+00 -0.2974261806254E+01  0.0000000000000E+00
-0.1926641673231E+00 -0.2901040158897E+01  0.0000000000000E+00
-0.1927535163882E+00 -0.2827820080371E+01  0.0000000000000E+00
-0.1929259505487E+00 -0.2754604844696E+01  0.0000000000000E+00
-0.1932017899616E+00 -0.2681400135527E+01  0.0000000000000E+00
-0.1935940674049E+00 -0.2608213096357E+01  0.0000000000000E+00
-0.1941111161126E+00 -0.2535052060547E+01  0.0000000000000E+00
-0.1947595584820E+00 -0.2461926011493E+01  0.0000000000000E+00
-0.1955468862697E+00 -0.2388845664791E+01  0.0000000000000E+00
-0.1964834057080E+00 -0.2315824608836E+01  0.0000000000000E+00
-0.1975685370274E+00 -0.2242872653898E+01  0.0000000000000E+00
-0.1987871714047E+00 -0.2169991557945E+01  0.0000000000000E+00
-0.2001285231822E+00 -0.2097182999318E+01  0.0000000000000E+00
-0.2015863194915E+00 -0.2024449756296E+01  0.0000000000000E+00
-0.2031585132875E+00 -0.1951796730910E+01  0.0000000000000E+00
-0.2048482461110E+00 -0.1879232823034E+01  0.0000000000000E+00
-0.2066681516558E+00 -0.1806775241326E+01  0.0000000000000E+00
-0.1650046808342E+00 -0.4658346573894E+01  0.0000000000000E+00
-0.1650093616587E+00 -0.4585106174743E+01  0.0000000000000E+00
-0.1650140425120E+00 -0.4511865325833E+01  0.0000000000000E+00
-0.1650187233521E+00 -0.4438624682253E+01  0.0000000000000E+00
-0.1650234041912E+00 -0.4365384053239E+01  0.0000000000000E+00
-0.1650280850322E+00 -0.4292143396702E+01  0.0000000000000E+00
-0.1650327658704E+00 -0.4218902783454E+01  0.0000000000000E+00
-0.1650374467102E+00 -0.4145662143355E+01  0.0000000000000E+00
-0.1650421275498E+00 -0.4072421508636E+01  0.0000000000000E+00
-0.1650468083888E+00 -0.3999180882004E+01  0.0000000000000E+00
-0.1650514892288E+00 -0.3925940240043E+01  0.0000000000000E+00
-0.1650561700673E+00 -0.3852699622099E+01  0.0000000000000E+00
-0.1650608509078E+00 -0.3779458972191E+01  0.0000000000000E+00
-0.1650655317521E+00 -0.3706218262532E+01  0.0000000000000E+00
-0.1650702125951E+00 -0.3632977573716E+01  0.0000000000000E+00
-0.1650748934325E+00 -0.3559736972516E+01  0.0000000000000E+00
-0.1650795743113E+00 -0.3486495724711E+01  0.0000000000000E+00
-0.1650842551118E+00 -0.3413255700655E+01  0.0000000000000E+00
-0.1650889359520E+00 -0.3340015055344E+01  0.0000000000000E+00
-0.1650936167871E+00 -0.3266774490286E+01  0.0000000000000E+00
-0.1650982976162E+00 -0.3193534018513E+01  0.0000000000000E+00
-0.1651029784477E+00 -0.3120293509782E+01  0.0000000000000E+00
-0.1651076592813E+00 -0.3047052968296E+01  0.0000000000000E+00
-0.1651152424838E+00 -0.2973812363763E+01  0.0000000000000E+00
-0.1651444219395E+00 -0.2900571989649E+01  0.0000000000000E+00
-0.1652211551347E+00 -0.2827333184399E+01  0.0000000000000E+00
-0.1653691041251E+00 -0.2754099222006E+01  0.0000000000000E+00
-0.1656056861875E+00 -0.2680875786140E+01  0.0000000000000E+00
-0.1659420722746E+00 -0.2607670020273E+01  0.0000000000000E+00
-0.1663854051581E+00 -0.2534490257795E+01  0.0000000000000E+00
-0.1669413611788E+00 -0.2461345482056E+01  0.0000000000000E+00
-0.1676163618420E+00 -0.2388246408658E+01  0.0000000000000E+00
-0.1684192410609E+00 -0.2315206626052E+01  0.0000000000000E+00
-0.1693495018906E+00 -0.2242235944441E+01  0.0000000000000E+00
-0.1703941939114E+00 -0.2169336121793E+01  0.0000000000000E+00
-0.1715440722738E+00 -0.2096508836464E+01  0.0000000000000E+00
-0.1727937602337E+00 -0.2023756866719E+01  0.0000000000000E+00
-0.1741415031809E+00 -0.1951085114590E+01  0.0000000000000E+00
-0.1755899938642E+00 -0.1878502480015E+01  0.0000000000000E+00
-0.1771500611639E+00 -0.1806026171652E+01  0.0000000000000E+00
-0.1375040054788E+00 -0.4658330726195E+01  0.0000000000000E+00
-0.1375080109493E+00 -0.4585074479377E+01  0.0000000000000E+00
-0.1375120164444E+00 -0.4511817782703E+01  0.0000000000000E+00
-0.1375160219283E+00 -0.4438561291404E+01  0.0000000000000E+00
-0.1375200274113E+00 -0.4365304814673E+01  0.0000000000000E+00
-0.1375240328959E+00 -0.4292048310415E+01  0.0000000000000E+00
-0.1375280383781E+00 -0.4218791849453E+01  0.0000000000000E+00
-0.1375320438618E+00 -0.4145535361636E+01  0.0000000000000E+00
-0.1375360493451E+00 -0.4072278879200E+01  0.0000000000000E+00
-0.1375400548281E+00 -0.3999022404852E+01  0.0000000000000E+00
-0.1375440603118E+00 -0.3925765915171E+01  0.0000000000000E+00
-0.1375480657943E+00 -0.3852509449514E+01  0.0000000000000E+00
-0.1375520712785E+00 -0.3779252951886E+01  0.0000000000000E+00
-0.1375560767660E+00 -0.3705996394492E+01  0.0000000000000E+00
-0.1375600822523E+00 -0.3632739857948E+01  0.0000000000000E+00
-0.1375640877338E+00 -0.3559483409037E+01  0.0000000000000E+00
-0.1375680932507E+00 -0.3486226313383E+01  0.0000000000000E+00
-0.1375720987007E+00 -0.3412970441741E+01  0.0000000000000E+00
-0.1375761041846E+00 -0.3339713948710E+01  0.0000000000000E+00
-0.1375801096642E+00 -0.3266457535950E+01  0.0000000000000E+00
-0.1375841151387E+00 -0.3193201216495E+01  0.0000000000000E+00
-0.1375881206152E+00 -0.3119944860073E+01  0.0000000000000E+00
-0.1375921260934E+00 -0.3046688470890E+01  0.0000000000000E+00
-0.1375985502126E+00 -0.2973432018646E+01  0.0000000000000E+00
-0.1376229712097E+00 -0.2900175796830E+01  0.0000000000000E+00
-0.1376870203236E+00 -0.2826921143905E+01  0.0000000000000E+00
-0.1378104159346E+00 -0.2753671333843E+01  0.0000000000000E+00
-0.1380076724401E+00 -0.2680432050327E+01  0.0000000000000E+00
-0.1382880989677E+00 -0.2607210436809E+01  0.0000000000000E+00
-0.1386576478271E+00 -0.2534014826704E+01  0.0000000000000E+00
-0.1391210493026E+00 -0.2460854203325E+01  0.0000000000000E+00
-0.1396836546487E+00 -0.2387739282277E+01  0.0000000000000E+00
-0.1403528254594E+00 -0.2314683652058E+01  0.0000000000000E+00
-0.1411281476146E+00 -0.2241697122816E+01  0.0000000000000E+00
-0.1419988290975E+00 -0.2168781452520E+01  0.0000000000000E+00
-0.1429571658668E+00 -0.2095938319535E+01  0.0000000000000E+00
-0.1439986773022E+00 -0.2023170502116E+01  0.0000000000000E+00
-0.1451219012286E+00 -0.1950482902297E+01  0.0000000000000E+00
-0.1463290816030E+00 -0.1877884420070E+01  0.0000000000000E+00
-0.1476292424924E+00 -0.1805392264092E+01  0.0000000000000E+00
-0.1100032727679E+00 -0.4658317758532E+01  0.0000000000000E+00
-0.1100065455290E+00 -0.4585048544080E+01  0.0000000000000E+00
-0.1100098183102E+00 -0.4511778879691E+01  0.0000000000000E+00
-0.1100130910822E+00 -0.4438509420714E+01  0.0000000000000E+00
-0.1100163638535E+00 -0.4365239976307E+01  0.0000000000000E+00
-0.1100196366261E+00 -0.4291970504368E+01  0.0000000000000E+00
-0.1100229093967E+00 -0.4218701075733E+01  0.0000000000000E+00
-0.1100261821686E+00 -0.4145431620239E+01  0.0000000000000E+00
-0.1100294549402E+00 -0.4072162170125E+01  0.0000000000000E+00
-0.1100327277114E+00 -0.3998892728102E+01  0.0000000000000E+00
-0.1100360004834E+00 -0.3925623270744E+01  0.0000000000000E+00
-0.1100392732542E+00 -0.3852353837413E+01  0.0000000000000E+00
-0.1100425460265E+00 -0.3779084372104E+01  0.0000000000000E+00
-0.1100458188015E+00 -0.3705814847021E+01  0.0000000000000E+00
-0.1100490915755E+00 -0.3632545342790E+01  0.0000000000000E+00
-0.1100523643456E+00 -0.3559275926208E+01  0.0000000000000E+00
-0.1100556371446E+00 -0.3486005862769E+01  0.0000000000000E+00
-0.1100589098889E+00 -0.3412737023558E+01  0.0000000000000E+00
-0.1100621826610E+00 -0.3339467562849E+01  0.0000000000000E+00
-0.1100654554295E+00 -0.3266198182424E+01  0.0000000000000E+00
-0.1100687281938E+00 -0.3192928895321E+01  0.0000000000000E+00
-0.1100720009598E+00 -0.3119659571245E+01  0.0000000000000E+00
-0.1100752737272E+00 -0.3046390214401E+01  0.0000000000000E+00
-0.1100804814074E+00 -0.2973120794485E+01  0.0000000000000E+00
-0.1101000865895E+00 -0.2899851605005E+01  0.0000000000000E+00
-0.1101513942642E+00 -0.2826583984439E+01  0.0000000000000E+00
-0.1102501791352E+00 -0.2753321206740E+01  0.0000000000000E+00
-0.1104080527204E+00 -0.2680068955602E+01  0.0000000000000E+00
-0.1106324623216E+00 -0.2606834374461E+01  0.0000000000000E+00
-0.1109281697863E+00 -0.2533625796754E+01  0.0000000000000E+00
-0.1112989593421E+00 -0.2460452205761E+01  0.0000000000000E+00
-0.1117491119923E+00 -0.2387324317091E+01  0.0000000000000E+00
-0.1122845170118E+00 -0.2314255719281E+01  0.0000000000000E+00
-0.1129048431049E+00 -0.2241256222433E+01  0.0000000000000E+00
-0.1136014566584E+00 -0.2168327584516E+01  0.0000000000000E+00
-0.1143681944392E+00 -0.2095471483905E+01  0.0000000000000E+00
-0.1152014719513E+00 -0.2022690698846E+01  0.0000000000000E+00
-0.1161001194546E+00 -0.1949990131373E+01  0.0000000000000E+00
-0.1170659321143E+00 -0.1877378681522E+01  0.0000000000000E+00
-0.1181061291839E+00 -0.1804873557950E+01  0.0000000000000E+00
-0.8250249454314E-01 -0.4658307671731E+01  0.0000000000000E+00
-0.8250498908109E-01 -0.4585028370497E+01  0.0000000000000E+00
-0.8250748363435E-01 -0.4511748619267E+01  0.0000000000000E+00
-0.8250997818062E-01 -0.4438469073475E+01  0.0000000000000E+00
-0.8251247272640E-01 -0.4365189542255E+01  0.0000000000000E+00
-0.8251496727311E-01 -0.4291909983500E+01  0.0000000000000E+00
-0.8251746181835E-01 -0.4218630468056E+01  0.0000000000000E+00
-0.8251995636450E-01 -0.4145350925747E+01  0.0000000000000E+00
-0.8252245091047E-01 -0.4072071388821E+01  0.0000000000000E+00
-0.8252494545616E-01 -0.3998791859985E+01  0.0000000000000E+00
-0.8252744000238E-01 -0.3925512315813E+01  0.0000000000000E+00
-0.8252993454778E-01 -0.3852232795671E+01  0.0000000000000E+00
-0.8253242909426E-01 -0.3778953243548E+01  0.0000000000000E+00
-0.8253492364278E-01 -0.3705673631641E+01  0.0000000000000E+00
-0.8253741819059E-01 -0.3632394040589E+01  0.0000000000000E+00
-0.8253991273542E-01 -0.3559114537199E+01  0.0000000000000E+00
-0.8254240730227E-01 -0.3485834386862E+01  0.0000000000000E+00
-0.8254490182744E-01 -0.3412555460923E+01  0.0000000000000E+00
-0.8254739637377E-01 -0.3339275913399E+01  0.0000000000000E+00
-0.8254989091737E-01 -0.3265996446170E+01  0.0000000000000E+00
-0.8255238545779E-01 -0.3192717072277E+01  0.0000000000000E+00
-0.8255487999946E-01 -0.3119437661405E+01  0.0000000000000E+00
-0.8255737454226E-01 -0.3046158217761E+01  0.0000000000000E+00
-0.8256132026964E-01 -0.2972878711036E+01  0.0000000000000E+00
-0.8257606412342E-01 -0.2899599434752E+01  0.0000000000000E+00
-0.8261458484651E-01 -0.2826321727400E+01  0.0000000000000E+00
-0.8268871346684E-01 -0.2753048862920E+01  0.0000000000000E+00
-0.8280715862262E-01 -0.2679786525011E+01  0.0000000000000E+00
-0.8297550579031E-01 -0.2606541857099E+01  0.0000000000000E+00
-0.8319732635544E-01 -0.2533323192637E+01  0.0000000000000E+00
-0.8347545848869E-01 -0.2460139514879E+01  0.0000000000000E+00
-0.8381311294265E-01 -0.2387001539440E+01  0.0000000000000E+00
-0.8421470667327E-01 -0.2313922854883E+01  0.0000000000000E+00
-0.8467999120903E-01 -0.2240913271277E+01  0.0000000000000E+00
-0.8520249134003E-01 -0.2167974546591E+01  0.0000000000000E+00
-0.8577758464144E-01 -0.2095108359206E+01  0.0000000000000E+00
-0.8640258274117E-01 -0.2022317487362E+01  0.0000000000000E+00
-0.8707660833415E-01 -0.1949606833093E+01  0.0000000000000E+00
-0.8780100779414E-01 -0.1876985296471E+01  0.0000000000000E+00
-0.8858119556126E-01 -0.1804470086151E+01  0.0000000000000E+00
-0.5500168202915E-01 -0.4658300466420E+01  0.0000000000000E+00
-0.5500336405479E-01 -0.4585013959890E+01  0.0000000000000E+00
-0.5500504609076E-01 -0.4511727003319E+01  0.0000000000000E+00
-0.5500672812202E-01 -0.4438440252207E+01  0.0000000000000E+00
-0.5500841015294E-01 -0.4365153515669E+01  0.0000000000000E+00
-0.5501009218450E-01 -0.4291866751592E+01  0.0000000000000E+00
-0.5501177421506E-01 -0.4218580030830E+01  0.0000000000000E+00
-0.5501345624623E-01 -0.4145293283201E+01  0.0000000000000E+00
-0.5501513827729E-01 -0.4072006540956E+01  0.0000000000000E+00
-0.5501682030815E-01 -0.3998719806802E+01  0.0000000000000E+00
-0.5501850233937E-01 -0.3925433057309E+01  0.0000000000000E+00
-0.5502018437004E-01 -0.3852146331850E+01  0.0000000000000E+00
-0.5502186640144E-01 -0.3778859574406E+01  0.0000000000000E+00
-0.5502354843422E-01 -0.3705572757172E+01  0.0000000000000E+00
-0.5502523046651E-01 -0.3632285960796E+01  0.0000000000000E+00
-0.5502691249680E-01 -0.3558999252090E+01  0.0000000000000E+00
-0.5502859454193E-01 -0.3485711896373E+01  0.0000000000000E+00
-0.5503027655896E-01 -0.3412425765174E+01  0.0000000000000E+00
-0.5503195859026E-01 -0.3339139012330E+01  0.0000000000000E+00
-0.5503364061971E-01 -0.3265852339789E+01  0.0000000000000E+00
-0.5503532264702E-01 -0.3192565760592E+01  0.0000000000000E+00
-0.5503700467518E-01 -0.3119279144413E+01  0.0000000000000E+00
-0.5503868670409E-01 -0.3045992495459E+01  0.0000000000000E+00
-0.5504133618940E-01 -0.2972705783417E+01  0.0000000000000E+00
-0.5505118442552E-01 -0.2899419301821E+01  0.0000000000000E+00
-0.5507688390763E-01 -0.2826134389170E+01  0.0000000000000E+00
-0.5512632198758E-01 -0.2752854319392E+01  0.0000000000000E+00
-0.5520530442408E-01 -0.2679584776194E+01  0.0000000000000E+00
-0.5531755486806E-01 -0.2606332902993E+01  0.0000000000000E+00
-0.5546545424311E-01 -0.2533107033253E+01  0.0000000000000E+00
-0.5565089466302E-01 -0.2459916150211E+01  0.0000000000000E+00
-0.5587601662944E-01 -0.2386770969482E+01  0.0000000000000E+00
-0.5614376477954E-01 -0.2313685079654E+01  0.0000000000000E+00
-0.5645397346590E-01 -0.2240668290768E+01  0.0000000000000E+00
-0.5680232588196E-01 -0.2167722360794E+01  0.0000000000000E+00
-0.5718574041112E-01 -0.2094848968118E+01  0.0000000000000E+00
-0.5760242480531E-01 -0.2022050890974E+01  0.0000000000000E+00
-0.5805179419448E-01 -0.1949333031399E+01  0.0000000000000E+00
-0.5853474616100E-01 -0.1876704289487E+01  0.0000000000000E+00
-0.5905489033159E-01 -0.1804181873893E+01  0.0000000000000E+00
-0.2750084664702E-01 -0.4658296143052E+01  0.0000000000000E+00
-0.2750169329227E-01 -0.4585005313163E+01  0.0000000000000E+00
-0.2750253994273E-01 -0.4511714033207E+01  0.0000000000000E+00
-0.2750338659081E-01 -0.4438422958722E+01  0.0000000000000E+00
-0.2750423323872E-01 -0.4365131898811E+01  0.0000000000000E+00
-0.2750507988695E-01 -0.4291840811361E+01  0.0000000000000E+00
-0.2750592653468E-01 -0.4218549767228E+01  0.0000000000000E+00
-0.2750677318272E-01 -0.4145258696226E+01  0.0000000000000E+00
-0.2750761983069E-01 -0.4071967630608E+01  0.0000000000000E+00
-0.2750846647858E-01 -0.3998676573082E+01  0.0000000000000E+00
-0.2750931312664E-01 -0.3925385500216E+01  0.0000000000000E+00
-0.2751015977442E-01 -0.3852094451385E+01  0.0000000000000E+00
-0.2751100642257E-01 -0.3778803370567E+01  0.0000000000000E+00
-0.2751185307142E-01 -0.3705512229957E+01  0.0000000000000E+00
-0.2751269972002E-01 -0.3632221110204E+01  0.0000000000000E+00
-0.2751354636761E-01 -0.3558930078128E+01  0.0000000000000E+00
-0.2751439302267E-01 -0.3485638399002E+01  0.0000000000000E+00
-0.2751523966359E-01 -0.3412347944467E+01  0.0000000000000E+00
-0.2751608631169E-01 -0.3339056868249E+01  0.0000000000000E+00
-0.2751693295887E-01 -0.3265765872339E+01  0.0000000000000E+00
-0.2751777960496E-01 -0.3192474969780E+01  0.0000000000000E+00
-0.2751862625148E-01 -0.3119184030236E+01  0.0000000000000E+00
-0.2751947289838E-01 -0.3045893057915E+01  0.0000000000000E+00
-0.2752080327345E-01 -0.2972602022502E+01  0.0000000000000E+00
-0.2752573302372E-01 -0.2899311217538E+01  0.0000000000000E+00
-0.2753858839655E-01 -0.2826021981525E+01  0.0000000000000E+00
-0.2756331306764E-01 -0.2752737588388E+01  0.0000000000000E+00
-0.2760280991616E-01 -0.2679463721835E+01  0.0000000000000E+00
-0.2765894076745E-01 -0.2606207525280E+01  0.0000000000000E+00
-0.2773289608320E-01 -0.2532977332192E+01  0.0000000000000E+00
-0.2782562192022E-01 -0.2459782125798E+01  0.0000000000000E+00
-0.2793818852921E-01 -0.2386632621716E+01  0.0000000000000E+00
-0.2807206822860E-01 -0.2313542408544E+01  0.0000000000000E+00
-0.2822717819500E-01 -0.2240521296308E+01  0.0000000000000E+00
-0.2840136002522E-01 -0.2167571042980E+01  0.0000000000000E+00
-0.2859307291094E-01 -0.2094693326949E+01  0.0000000000000E+00
-0.2880142072809E-01 -0.2021890926444E+01  0.0000000000000E+00
-0.2902611104167E-01 -0.1949168743503E+01  0.0000000000000E+00
-0.2926759264271E-01 -0.1876535678237E+01  0.0000000000000E+00
-0.2952767034453E-01 -0.1804008939299E+01  0.0000000000000E+00
 0.1341298275034E-09 -0.4658294701900E+01  0.0000000000000E+00
 0.2682591870488E-09 -0.4585002430862E+01  0.0000000000000E+00
 0.4023893957001E-09 -0.4511709709747E+01  0.0000000000000E+00
 0.5365190323347E-09 -0.4438417194108E+01  0.0000000000000E+00
 0.6706488701749E-09 -0.4365124693044E+01  0.0000000000000E+00
 0.8047787882590E-09 -0.4291832164439E+01  0.0000000000000E+00
 0.9389088597081E-09 -0.4218539679152E+01  0.0000000000000E+00
 0.1073038524398E-08 -0.4145247166996E+01  0.0000000000000E+00
 0.1207168262094E-08 -0.4071954660224E+01  0.0000000000000E+00
 0.1341298234168E-08 -0.3998662161544E+01  0.0000000000000E+00
 0.1475428013433E-08 -0.3925369647524E+01  0.0000000000000E+00
 0.1609557830157E-08 -0.3852077157540E+01  0.0000000000000E+00
 0.1743687652334E-08 -0.3778784635568E+01  0.0000000000000E+00
 0.1877817310913E-08 -0.3705492053802E+01  0.0000000000000E+00
 0.2011947706894E-08 -0.3632199492894E+01  0.0000000000000E+00
 0.2146077408419E-08 -0.3558907019664E+01  0.0000000000000E+00
 0.2280208426415E-08 -0.3485613899373E+01  0.0000000000000E+00
 0.2414336888433E-08 -0.3412322003696E+01  0.0000000000000E+00
 0.2548466840620E-08 -0.3339029486324E+01  0.0000000000000E+00
 0.2682596584237E-08 -0.3265737049261E+01  0.0000000000000E+00
 0.2816726205452E-08 -0.3192444705551E+01  0.0000000000000E+00
 0.2950855619598E-08 -0.3119152324855E+01  0.0000000000000E+00
 0.3084985484792E-08 -0.3045859911382E+01  0.0000000000000E+00
 0.3219175371806E-08 -0.2972567434816E+01  0.0000000000000E+00
 0.3353698962349E-08 -0.2899275188699E+01  0.0000000000000E+00
 0.3488929411804E-08 -0.2825984511537E+01  0.0000000000000E+00
 0.3625244941819E-08 -0.2752698677250E+01  0.0000000000000E+00
 0.3762956809338E-08 -0.2679423369550E+01  0.0000000000000E+00
 0.3902297487834E-08 -0.2606165731846E+01  0.0000000000000E+00
 0.4043435735482E-08 -0.2532934097612E+01  0.0000000000000E+00
 0.4186557962945E-08 -0.2459737450072E+01  0.0000000000000E+00
 0.4331879569796E-08 -0.2386586504841E+01  0.0000000000000E+00
 0.4479654772516E-08 -0.2313494850525E+01  0.0000000000000E+00
 0.4629287928948E-08 -0.2240472297144E+01  0.0000000000000E+00
 0.4780639145247E-08 -0.2167520602668E+01  0.0000000000000E+00
 0.4933757342576E-08 -0.2094641445488E+01  0.0000000000000E+00
 0.5088733100688E-08 -0.2021837603833E+01  0.0000000000000E+00
 0.5245556969086E-08 -0.1949113979741E+01  0.0000000000000E+00
 0.5404454514473E-08 -0.1876479473326E+01  0.0000000000000E+00
 0.5565503903438E-08 -0.1803951293244E+01  0.0000000000000E+00
 0.2750084691528E-01 -0.4658296143053E+01  0.0000000000000E+00
 0.2750169382879E-01 -0.4585005313166E+01  0.0000000000000E+00
 0.2750254074750E-01 -0.4511714033210E+01  0.0000000000000E+00
 0.2750338766384E-01 -0.4438422958726E+01  0.0000000000000E+00
 0.2750423458000E-01 -0.4365131898817E+01  0.0000000000000E+00
 0.2750508149649E-01 -0.4291840811368E+01  0.0000000000000E+00
 0.2750592841248E-01 -0.4218549767235E+01  0.0000000000000E+00
 0.2750677532877E-01 -0.4145258696235E+01  0.0000000000000E+00
 0.2750762224501E-01 -0.4071967630618E+01  0.0000000000000E+00
 0.2750846916115E-01 -0.3998676573093E+01  0.0000000000000E+00
 0.2750931607747E-01 -0.3925385500228E+01  0.0000000000000E+00
 0.2751016299351E-01 -0.3852094451398E+01  0.0000000000000E+00
 0.2751100990992E-01 -0.3778803370582E+01  0.0000000000000E+00
 0.2751185682702E-01 -0.3705512229972E+01  0.0000000000000E+00
 0.2751270374388E-01 -0.3632221110221E+01  0.0000000000000E+00
 0.2751355065973E-01 -0.3558930078145E+01  0.0000000000000E+00
 0.2751439758305E-01 -0.3485638399021E+01  0.0000000000000E+00
 0.2751524449223E-01 -0.3412347944487E+01  0.0000000000000E+00
 0.2751609140858E-01 -0.3339056868270E+01  0.0000000000000E+00
 0.2751693832401E-01 -0.3265765872362E+01  0.0000000000000E+00
 0.2751778523836E-01 -0.3192474969803E+01  0.0000000000000E+00
 0.2751863215314E-01 -0.3119184030260E+01  0.0000000000000E+00
 0.2751947906830E-01 -0.3045893057940E+01  0.0000000000000E+00
 0.2752080971174E-01 -0.2972602022528E+01  0.0000000000000E+00
 0.2752573973106E-01 -0.2899311217565E+01  0.0000000000000E+00
 0.2753859537435E-01 -0.2826021981554E+01  0.0000000000000E+00
 0.2756332031807E-01 -0.2752737588418E+01  0.0000000000000E+00
 0.2760281744201E-01 -0.2679463721866E+01  0.0000000000000E+00
 0.2765894857198E-01 -0.2606207525312E+01  0.0000000000000E+00
 0.2773290417001E-01 -0.2532977332225E+01  0.0000000000000E+00
 0.2782563029327E-01 -0.2459782125833E+01  0.0000000000000E+00
 0.2793819719290E-01 -0.2386632621751E+01  0.0000000000000E+00
 0.2807207718784E-01 -0.2313542408580E+01  0.0000000000000E+00
 0.2822718745350E-01 -0.2240521296346E+01  0.0000000000000E+00
 0.2840136958642E-01 -0.2167571043019E+01  0.0000000000000E+00
 0.2859308277837E-01 -0.2094693326988E+01  0.0000000000000E+00
 0.2880143090548E-01 -0.2021890926485E+01  0.0000000000000E+00
 0.2902612153270E-01 -0.1949168743545E+01  0.0000000000000E+00
 0.2926760345153E-01 -0.1876535678280E+01  0.0000000000000E+00
 0.2952768147545E-01 -0.1804008939343E+01  0.0000000000000E+00
 0.5500168229740E-01 -0.4658300466422E+01  0.0000000000000E+00
 0.5500336459129E-01 -0.4585013959894E+01  0.0000000000000E+00
 0.5500504689552E-01 -0.4511727003325E+01  0.0000000000000E+00
 0.5500672919502E-01 -0.4438440252216E+01  0.0000000000000E+00
 0.5500841149420E-01 -0.4365153515680E+01  0.0000000000000E+00
 0.5501009379400E-01 -0.4291866751605E+01  0.0000000000000E+00
 0.5501177609281E-01 -0.4218580030846E+01  0.0000000000000E+00
 0.5501345839224E-01 -0.4145293283219E+01  0.0000000000000E+00
 0.5501514069154E-01 -0.4072006540976E+01  0.0000000000000E+00
 0.5501682299066E-01 -0.3998719806824E+01  0.0000000000000E+00
 0.5501850529013E-01 -0.3925433057334E+01  0.0000000000000E+00
 0.5502018758905E-01 -0.3852146331877E+01  0.0000000000000E+00
 0.5502186988871E-01 -0.3778859574434E+01  0.0000000000000E+00
 0.5502355218973E-01 -0.3705572757203E+01  0.0000000000000E+00
 0.5502523449028E-01 -0.3632285960829E+01  0.0000000000000E+00
 0.5502691678881E-01 -0.3558999252125E+01  0.0000000000000E+00
 0.5502859910220E-01 -0.3485711896410E+01  0.0000000000000E+00
 0.5503028138748E-01 -0.3412425765214E+01  0.0000000000000E+00
 0.5503196368702E-01 -0.3339139012372E+01  0.0000000000000E+00
 0.5503364598473E-01 -0.3265852339833E+01  0.0000000000000E+00
 0.5503532828029E-01 -0.3192565760638E+01  0.0000000000000E+00
 0.5503701057670E-01 -0.3119279144462E+01  0.0000000000000E+00
 0.5503869287386E-01 -0.3045992495510E+01  0.0000000000000E+00
 0.5504134262754E-01 -0.2972705783470E+01  0.0000000000000E+00
 0.5505119113270E-01 -0.2899419301877E+01  0.0000000000000E+00
 0.5507689088526E-01 -0.2826134389227E+01  0.0000000000000E+00
 0.5512632923783E-01 -0.2752854319452E+01  0.0000000000000E+00
 0.5520531194975E-01 -0.2679584776256E+01  0.0000000000000E+00
 0.5531756267240E-01 -0.2606332903057E+01  0.0000000000000E+00
 0.5546546232972E-01 -0.2533107033319E+01  0.0000000000000E+00
 0.5565090303586E-01 -0.2459916150279E+01  0.0000000000000E+00
 0.5587602529292E-01 -0.2386770969553E+01  0.0000000000000E+00
 0.5614377373856E-01 -0.2313685079727E+01  0.0000000000000E+00
 0.5645398272418E-01 -0.2240668290843E+01  0.0000000000000E+00
 0.5680233544293E-01 -0.2167722360871E+01  0.0000000000000E+00
 0.5718575027832E-01 -0.2094848968198E+01  0.0000000000000E+00
 0.5760243498245E-01 -0.2022050891056E+01  0.0000000000000E+00
 0.5805180468526E-01 -0.1949333031483E+01  0.0000000000000E+00
 0.5853475696956E-01 -0.1876704289573E+01  0.0000000000000E+00
 0.5905490146225E-01 -0.1804181873982E+01  0.0000000000000E+00
 0.8250249481138E-01 -0.4658307671734E+01  0.0000000000000E+00
 0.8250498961757E-01 -0.4585028370504E+01  0.0000000000000E+00
 0.8250748443907E-01 -0.4511748619277E+01  0.0000000000000E+00
 0.8250997925358E-01 -0.4438469073488E+01  0.0000000000000E+00
 0.8251247406760E-01 -0.4365189542272E+01  0.0000000000000E+00
 0.8251496888255E-01 -0.4291909983520E+01  0.0000000000000E+00
 0.8251746369603E-01 -0.4218630468079E+01  0.0000000000000E+00
 0.8251995851042E-01 -0.4145350925774E+01  0.0000000000000E+00
 0.8252245332463E-01 -0.4072071388851E+01  0.0000000000000E+00
 0.8252494813856E-01 -0.3998791860019E+01  0.0000000000000E+00
 0.8252744295302E-01 -0.3925512315849E+01  0.0000000000000E+00
 0.8252993776665E-01 -0.3852232795711E+01  0.0000000000000E+00
 0.8253243258138E-01 -0.3778953243591E+01  0.0000000000000E+00
 0.8253492739814E-01 -0.3705673631687E+01  0.0000000000000E+00
 0.8253742221419E-01 -0.3632394040639E+01  0.0000000000000E+00
 0.8253991702726E-01 -0.3559114537252E+01  0.0000000000000E+00
 0.8254241186235E-01 -0.3485834386918E+01  0.0000000000000E+00
 0.8254490665576E-01 -0.3412555460983E+01  0.0000000000000E+00
 0.8254740147033E-01 -0.3339275913462E+01  0.0000000000000E+00
 0.8254989628217E-01 -0.3265996446236E+01  0.0000000000000E+00
 0.8255239109082E-01 -0.3192717072346E+01  0.0000000000000E+00
 0.8255488590074E-01 -0.3119437661478E+01  0.0000000000000E+00
 0.8255738071177E-01 -0.3046158217837E+01  0.0000000000000E+00
 0.8256132670752E-01 -0.2972878711115E+01  0.0000000000000E+00
 0.8257607083032E-01 -0.2899599434835E+01  0.0000000000000E+00
 0.8261459182386E-01 -0.2826321727487E+01  0.0000000000000E+00
 0.8268872071680E-01 -0.2753048863010E+01  0.0000000000000E+00
 0.8280716614798E-01 -0.2679786525104E+01  0.0000000000000E+00
 0.8297551359434E-01 -0.2606541857195E+01  0.0000000000000E+00
 0.8319733444172E-01 -0.2533323192736E+01  0.0000000000000E+00
 0.8347546686119E-01 -0.2460139514982E+01  0.0000000000000E+00
 0.8381312160577E-01 -0.2387001539546E+01  0.0000000000000E+00
 0.8421471563193E-01 -0.2313922854993E+01  0.0000000000000E+00
 0.8468000046694E-01 -0.2240913271390E+01  0.0000000000000E+00
 0.8520250090062E-01 -0.2167974546707E+01  0.0000000000000E+00
 0.8577759450824E-01 -0.2095108359326E+01  0.0000000000000E+00
 0.8640259291791E-01 -0.2022317487484E+01  0.0000000000000E+00
 0.8707661882451E-01 -0.1949606833219E+01  0.0000000000000E+00
 0.8780101860228E-01 -0.1876985296600E+01  0.0000000000000E+00
 0.8858120669148E-01 -0.1804470086283E+01  0.0000000000000E+00
 0.1100032730361E+00 -0.4658317758537E+01  0.0000000000000E+00
 0.1100065460654E+00 -0.4585048544088E+01  0.0000000000000E+00
 0.1100098191148E+00 -0.4511778879705E+01  0.0000000000000E+00
 0.1100130921551E+00 -0.4438509420732E+01  0.0000000000000E+00
 0.1100163651946E+00 -0.4365239976329E+01  0.0000000000000E+00
 0.1100196382354E+00 -0.4291970504395E+01  0.0000000000000E+00
 0.1100229112743E+00 -0.4218701075764E+01  0.0000000000000E+00
 0.1100261843144E+00 -0.4145431620274E+01  0.0000000000000E+00
 0.1100294573542E+00 -0.4072162170165E+01  0.0000000000000E+00
 0.1100327303937E+00 -0.3998892728146E+01  0.0000000000000E+00
 0.1100360034338E+00 -0.3925623270792E+01  0.0000000000000E+00
 0.1100392764729E+00 -0.3852353837466E+01  0.0000000000000E+00
 0.1100425495134E+00 -0.3779084372162E+01  0.0000000000000E+00
 0.1100458225566E+00 -0.3705814847083E+01  0.0000000000000E+00
 0.1100490955988E+00 -0.3632545342856E+01  0.0000000000000E+00
 0.1100523686372E+00 -0.3559275926279E+01  0.0000000000000E+00
 0.1100556417044E+00 -0.3486005862844E+01  0.0000000000000E+00
 0.1100589147169E+00 -0.3412737023638E+01  0.0000000000000E+00
 0.1100621877572E+00 -0.3339467562933E+01  0.0000000000000E+00
 0.1100654607940E+00 -0.3266198182512E+01  0.0000000000000E+00
 0.1100687338265E+00 -0.3192928895414E+01  0.0000000000000E+00
 0.1100720068607E+00 -0.3119659571342E+01  0.0000000000000E+00
 0.1100752798964E+00 -0.3046390214503E+01  0.0000000000000E+00
 0.1100804878449E+00 -0.2973120794592E+01  0.0000000000000E+00
 0.1101000932960E+00 -0.2899851605116E+01  0.0000000000000E+00
 0.1101514012411E+00 -0.2826583984554E+01  0.0000000000000E+00
 0.1102501863848E+00 -0.2753321206860E+01  0.0000000000000E+00
 0.1104080602454E+00 -0.2680068955726E+01  0.0000000000000E+00
 0.1106324701252E+00 -0.2606834374589E+01  0.0000000000000E+00
 0.1109281778722E+00 -0.2533625796887E+01  0.0000000000000E+00
 0.1112989677141E+00 -0.2460452205898E+01  0.0000000000000E+00
 0.1117491206549E+00 -0.2387324317233E+01  0.0000000000000E+00
 0.1122845259700E+00 -0.2314255719427E+01  0.0000000000000E+00
 0.1129048523623E+00 -0.2241256222584E+01  0.0000000000000E+00
 0.1136014662184E+00 -0.2168327584671E+01  0.0000000000000E+00
 0.1143682043055E+00 -0.2095471484065E+01  0.0000000000000E+00
 0.1152014821275E+00 -0.2022690699010E+01  0.0000000000000E+00
 0.1161001299444E+00 -0.1949990131541E+01  0.0000000000000E+00
 0.1170659429218E+00 -0.1877378681695E+01  0.0000000000000E+00
 0.1181061403135E+00 -0.1804873558127E+01  0.0000000000000E+00
 0.1375040057470E+00 -0.4658330726200E+01  0.0000000000000E+00
 0.1375080114857E+00 -0.4585074479388E+01  0.0000000000000E+00
 0.1375120172490E+00 -0.4511817782720E+01  0.0000000000000E+00
 0.1375160230011E+00 -0.4438561291426E+01  0.0000000000000E+00
 0.1375200287523E+00 -0.4365304814701E+01  0.0000000000000E+00
 0.1375240345051E+00 -0.4292048310448E+01  0.0000000000000E+00
 0.1375280402555E+00 -0.4218791849492E+01  0.0000000000000E+00
 0.1375320460074E+00 -0.4145535361680E+01  0.0000000000000E+00
 0.1375360517590E+00 -0.4072278879250E+01  0.0000000000000E+00
 0.1375400575101E+00 -0.3999022404907E+01  0.0000000000000E+00
 0.1375440632621E+00 -0.3925765915232E+01  0.0000000000000E+00
 0.1375480690127E+00 -0.3852509449581E+01  0.0000000000000E+00
 0.1375520747651E+00 -0.3779252951958E+01  0.0000000000000E+00
 0.1375560805208E+00 -0.3705996394570E+01  0.0000000000000E+00
 0.1375600862754E+00 -0.3632739858031E+01  0.0000000000000E+00
 0.1375640920251E+00 -0.3559483409126E+01  0.0000000000000E+00
 0.1375680978102E+00 -0.3486226313477E+01  0.0000000000000E+00
 0.1375721035284E+00 -0.3412970441841E+01  0.0000000000000E+00
 0.1375761092805E+00 -0.3339713948815E+01  0.0000000000000E+00
 0.1375801150283E+00 -0.3266457536060E+01  0.0000000000000E+00
 0.1375841207710E+00 -0.3193201216611E+01  0.0000000000000E+00
 0.1375881265157E+00 -0.3119944860195E+01  0.0000000000000E+00
 0.1375921322621E+00 -0.3046688471017E+01  0.0000000000000E+00
 0.1375985566497E+00 -0.2973432018779E+01  0.0000000000000E+00
 0.1376229779157E+00 -0.2900175796968E+01  0.0000000000000E+00
 0.1376870273001E+00 -0.2826921144049E+01  0.0000000000000E+00
 0.1378104231836E+00 -0.2753671333993E+01  0.0000000000000E+00
 0.1380076799644E+00 -0.2680432050482E+01  0.0000000000000E+00
 0.1382881067707E+00 -0.2607210436969E+01  0.0000000000000E+00
 0.1386576559123E+00 -0.2534014826870E+01  0.0000000000000E+00
 0.1391210576740E+00 -0.2460854203496E+01  0.0000000000000E+00
 0.1396836633107E+00 -0.2387739282454E+01  0.0000000000000E+00
 0.1403528344169E+00 -0.2314683652241E+01  0.0000000000000E+00
 0.1411281568713E+00 -0.2241697123004E+01  0.0000000000000E+00
 0.1419988386569E+00 -0.2168781452713E+01  0.0000000000000E+00
 0.1429571757323E+00 -0.2095938319734E+01  0.0000000000000E+00
 0.1439986874777E+00 -0.2023170502321E+01  0.0000000000000E+00
 0.1451219117177E+00 -0.1950482902508E+01  0.0000000000000E+00
 0.1463290924098E+00 -0.1877884420286E+01  0.0000000000000E+00
 0.1476292536212E+00 -0.1805392264313E+01  0.0000000000000E+00
 0.1650046811024E+00 -0.4658346573901E+01  0.0000000000000E+00
 0.1650093621951E+00 -0.4585106174756E+01  0.0000000000000E+00
 0.1650140433165E+00 -0.4511865325853E+01  0.0000000000000E+00
 0.1650187244248E+00 -0.4438624682280E+01  0.0000000000000E+00
 0.1650234055322E+00 -0.4365384053272E+01  0.0000000000000E+00
 0.1650280866413E+00 -0.4292143396742E+01  0.0000000000000E+00
 0.1650327677476E+00 -0.4218902783500E+01  0.0000000000000E+00
 0.1650374488557E+00 -0.4145662143408E+01  0.0000000000000E+00
 0.1650421299634E+00 -0.4072421508696E+01  0.0000000000000E+00
 0.1650468110706E+00 -0.3999180882070E+01  0.0000000000000E+00
 0.1650514921788E+00 -0.3925940240116E+01  0.0000000000000E+00
 0.1650561732855E+00 -0.3852699622179E+01  0.0000000000000E+00
 0.1650608543942E+00 -0.3779458972278E+01  0.0000000000000E+00
 0.1650655355067E+00 -0.3706218262625E+01  0.0000000000000E+00
 0.1650702166179E+00 -0.3632977573816E+01  0.0000000000000E+00
 0.1650748977234E+00 -0.3559736972622E+01  0.0000000000000E+00
 0.1650795788703E+00 -0.3486495724824E+01  0.0000000000000E+00
 0.1650842599390E+00 -0.3413255700775E+01  0.0000000000000E+00
 0.1650889410474E+00 -0.3340015055470E+01  0.0000000000000E+00
 0.1650936221507E+00 -0.3266774490419E+01  0.0000000000000E+00
 0.1650983032480E+00 -0.3193534018653E+01  0.0000000000000E+00
 0.1651029843477E+00 -0.3120293509928E+01  0.0000000000000E+00
 0.1651076654495E+00 -0.3047052968449E+01  0.0000000000000E+00
 0.1651152489203E+00 -0.2973812363923E+01  0.0000000000000E+00
 0.1651444286449E+00 -0.2900571989815E+01  0.0000000000000E+00
 0.1652211621105E+00 -0.2827333184571E+01  0.0000000000000E+00
 0.1653691113735E+00 -0.2754099222185E+01  0.0000000000000E+00
 0.1656056937112E+00 -0.2680875786326E+01  0.0000000000000E+00
 0.1659420800769E+00 -0.2607670020465E+01  0.0000000000000E+00
 0.1663854132426E+00 -0.2534490257994E+01  0.0000000000000E+00
 0.1669413695495E+00 -0.2461345482262E+01  0.0000000000000E+00
 0.1676163705033E+00 -0.2388246408871E+01  0.0000000000000E+00
 0.1684192500176E+00 -0.2315206626271E+01  0.0000000000000E+00
 0.1693495111465E+00 -0.2242235944667E+01  0.0000000000000E+00
 0.1703942034699E+00 -0.2169336122026E+01  0.0000000000000E+00
 0.1715440821385E+00 -0.2096508836703E+01  0.0000000000000E+00
 0.1727937704082E+00 -0.2023756866964E+01  0.0000000000000E+00
 0.1741415136690E+00 -0.1951085114842E+01  0.0000000000000E+00
 0.1755900046701E+00 -0.1878502480274E+01  0.0000000000000E+00
 0.1771500722917E+00 -0.1806026171918E+01  0.0000000000000E+00
 0.1925052882440E+00 -0.4658365300656E+01  0.0000000000000E+00
 0.1925105764769E+00 -0.4585143628228E+01  0.0000000000000E+00
 0.1925158647424E+00 -0.4511921506156E+01  0.0000000000000E+00
 0.1925211529930E+00 -0.4438699589362E+01  0.0000000000000E+00
 0.1925264412425E+00 -0.4365477687129E+01  0.0000000000000E+00
 0.1925317294941E+00 -0.4292255757381E+01  0.0000000000000E+00
 0.1925370177425E+00 -0.4219033870910E+01  0.0000000000000E+00
 0.1925423059928E+00 -0.4145811957596E+01  0.0000000000000E+00
 0.1925475942428E+00 -0.4072590049661E+01  0.0000000000000E+00
 0.1925528824922E+00 -0.3999368149810E+01  0.0000000000000E+00
 0.1925581707427E+00 -0.3926146234633E+01  0.0000000000000E+00
 0.1925634589914E+00 -0.3852924343469E+01  0.0000000000000E+00
 0.1925687472425E+00 -0.3779702420348E+01  0.0000000000000E+00
 0.1925740354978E+00 -0.3706480437491E+01  0.0000000000000E+00
 0.1925793237517E+00 -0.3633258475472E+01  0.0000000000000E+00
 0.1925846119993E+00 -0.3560036601046E+01  0.0000000000000E+00
 0.1925899002935E+00 -0.3486814080182E+01  0.0000000000000E+00
 0.1925951884994E+00 -0.3413592782753E+01  0.0000000000000E+00
 0.1926004767501E+00 -0.3340370864228E+01  0.0000000000000E+00
 0.1926057649950E+00 -0.3267149025935E+01  0.0000000000000E+00
 0.1926110532332E+00 -0.3193927280904E+01  0.0000000000000E+00
 0.1926163414741E+00 -0.3120705498923E+01  0.0000000000000E+00
 0.1926216297173E+00 -0.3047483684197E+01  0.0000000000000E+00
 0.1926303040577E+00 -0.2974261806440E+01  0.0000000000000E+00
 0.1926641740278E+00 -0.2901040159091E+01  0.0000000000000E+00
 0.1927535233632E+00 -0.2827820080573E+01  0.0000000000000E+00
 0.1929259577963E+00 -0.2754604844905E+01  0.0000000000000E+00
 0.1932017974845E+00 -0.2681400135744E+01  0.0000000000000E+00
 0.1935940752064E+00 -0.2608213096582E+01  0.0000000000000E+00
 0.1941111241963E+00 -0.2535052060780E+01  0.0000000000000E+00
 0.1947595668518E+00 -0.2461926011733E+01  0.0000000000000E+00
 0.1955468949300E+00 -0.2388845665039E+01  0.0000000000000E+00
 0.1964834146637E+00 -0.2315824609092E+01  0.0000000000000E+00
 0.1975685462823E+00 -0.2242872654162E+01  0.0000000000000E+00
 0.1987871809622E+00 -0.2169991558216E+01  0.0000000000000E+00
 0.2001285330459E+00 -0.2097182999597E+01  0.0000000000000E+00
 0.2015863296650E+00 -0.2024449756583E+01  0.0000000000000E+00
 0.2031585237745E+00 -0.1951796731204E+01  0.0000000000000E+00
 0.2048482569157E+00 -0.1879232823336E+01  0.0000000000000E+00
 0.2066681627825E+00 -0.1806775241636E+01  0.0000000000000E+00
 0.2200058153998E+00 -0.4658386905282E+01  0.0000000000000E+00
 0.2200116307875E+00 -0.4585186837434E+01  0.0000000000000E+00
 0.2200174462108E+00 -0.4511986320076E+01  0.0000000000000E+00
 0.2200232616179E+00 -0.4438786007934E+01  0.0000000000000E+00
 0.2200290770239E+00 -0.4365585710349E+01  0.0000000000000E+00
 0.2200348924320E+00 -0.4292385385258E+01  0.0000000000000E+00
 0.2200407078366E+00 -0.4219185103431E+01  0.0000000000000E+00
 0.2200465232434E+00 -0.4145984794769E+01  0.0000000000000E+00
 0.2200523386498E+00 -0.4072784491483E+01  0.0000000000000E+00
 0.2200581540556E+00 -0.3999584196280E+01  0.0000000000000E+00
 0.2200639694625E+00 -0.3926383885756E+01  0.0000000000000E+00
 0.2200697848676E+00 -0.3853183599236E+01  0.0000000000000E+00
 0.2200756002751E+00 -0.3779983280770E+01  0.0000000000000E+00
 0.2200814156875E+00 -0.3706782902585E+01  0.0000000000000E+00
 0.2200872310981E+00 -0.3633582545232E+01  0.0000000000000E+00
 0.2200930465019E+00 -0.3560382275447E+01  0.0000000000000E+00
 0.2200988619569E+00 -0.3487181359413E+01  0.0000000000000E+00
 0.2201046773148E+00 -0.3413981666454E+01  0.0000000000000E+00
 0.2201104927220E+00 -0.3340781352582E+01  0.0000000000000E+00
 0.2201163081229E+00 -0.3267581118919E+01  0.0000000000000E+00
 0.2201221235163E+00 -0.3194380978490E+01  0.0000000000000E+00
 0.2201279389127E+00 -0.3121180801122E+01  0.0000000000000E+00
 0.2201337543117E+00 -0.3047980591018E+01  0.0000000000000E+00
 0.2201434395357E+00 -0.2974780317904E+01  0.0000000000000E+00
 0.2201819197651E+00 -0.2901580275183E+01  0.0000000000000E+00
 0.2202838049834E+00 -0.2828381801256E+01  0.0000000000000E+00
 0.2204806445985E+00 -0.2755188170172E+01  0.0000000000000E+00
 0.2207956616474E+00 -0.2682005065570E+01  0.0000000000000E+00
 0.2212437507339E+00 -0.2608839630967E+01  0.0000000000000E+00
 0.2218344355546E+00 -0.2535700199692E+01  0.0000000000000E+00
 0.2225752845634E+00 -0.2462595755191E+01  0.0000000000000E+00
 0.2234748597682E+00 -0.2389537013054E+01  0.0000000000000E+00
 0.2245449397216E+00 -0.2316537561614E+01  0.0000000000000E+00
 0.2257848618277E+00 -0.2243607211216E+01  0.0000000000000E+00
 0.2271773588597E+00 -0.2170747719827E+01  0.0000000000000E+00
 0.2287101043520E+00 -0.2097960765773E+01  0.0000000000000E+00
 0.2303759293123E+00 -0.2025249127350E+01  0.0000000000000E+00
 0.2321724942604E+00 -0.1952617706584E+01  0.0000000000000E+00
 0.2341033895299E+00 -0.1880075403276E+01  0.0000000000000E+00
 0.2361830536282E+00 -0.1807639426087E+01  0.0000000000000E+00
 0.2475062513560E+00 -0.4658411386427E+01  0.0000000000000E+00
 0.2475125026990E+00 -0.4585235799674E+01  0.0000000000000E+00
 0.2475187540803E+00 -0.4512059763560E+01  0.0000000000000E+00
 0.2475250054442E+00 -0.4438883932594E+01  0.0000000000000E+00
 0.2475312568068E+00 -0.4365708116181E+01  0.0000000000000E+00
 0.2475375081717E+00 -0.4292532272270E+01  0.0000000000000E+00
 0.2475437595330E+00 -0.4219356471609E+01  0.0000000000000E+00
 0.2475500108965E+00 -0.4146180644121E+01  0.0000000000000E+00
 0.2475562622596E+00 -0.4073004822009E+01  0.0000000000000E+00
 0.2475625136220E+00 -0.3999829007976E+01  0.0000000000000E+00
 0.2475687649857E+00 -0.3926653178627E+01  0.0000000000000E+00
 0.2475750163473E+00 -0.3853477373275E+01  0.0000000000000E+00
 0.2475812677117E+00 -0.3780301535987E+01  0.0000000000000E+00
 0.2475875190812E+00 -0.3707125639000E+01  0.0000000000000E+00
 0.2475937704489E+00 -0.3633949762838E+01  0.0000000000000E+00
 0.2476000218091E+00 -0.3560773974215E+01  0.0000000000000E+00
 0.2476062732245E+00 -0.3487597539559E+01  0.0000000000000E+00
 0.2476125245354E+00 -0.3414422327569E+01  0.0000000000000E+00
 0.2476187758994E+00 -0.3341246494873E+01  0.0000000000000E+00
 0.2476250272566E+00 -0.3268070742360E+01  0.0000000000000E+00
 0.2476312786057E+00 -0.3194895083049E+01  0.0000000000000E+00
 0.2476375299581E+00 -0.3121719386813E+01  0.0000000000000E+00
 0.2476437813132E+00 -0.3048543657851E+01  0.0000000000000E+00
 0.2476543862212E+00 -0.2975367865900E+01  0.0000000000000E+00
 0.2476973855103E+00 -0.2902192304328E+01  0.0000000000000E+00
 0.2478117154120E+00 -0.2829018311508E+01  0.0000000000000E+00
 0.2480328690096E+00 -0.2755849161521E+01  0.0000000000000E+00
 0.2483869722199E+00 -0.2682690537989E+01  0.0000000000000E+00
 0.2488907814716E+00 -0.2609549584457E+01  0.0000000000000E+00
 0.2495550109240E+00 -0.2536434634215E+01  0.0000000000000E+00
 0.2503881750867E+00 -0.2463354670768E+01  0.0000000000000E+00
 0.2513999062187E+00 -0.2390320409700E+01  0.0000000000000E+00
 0.2526034551925E+00 -0.2317345439271E+01  0.0000000000000E+00
 0.2539980765867E+00 -0.2244439569913E+01  0.0000000000000E+00
 0.2555643447712E+00 -0.2171604559590E+01  0.0000000000000E+00
 0.2572883924727E+00 -0.2098842086614E+01  0.0000000000000E+00
 0.2591621545745E+00 -0.2026154929295E+01  0.0000000000000E+00
 0.2611829991614E+00 -0.1953547989660E+01  0.0000000000000E+00
 0.2633549653598E+00 -0.1881030167425E+01  0.0000000000000E+00
 0.2656942964902E+00 -0.1808618671252E+01  0.0000000000000E+00
 0.2750065850588E+00 -0.4658438742571E+01  0.0000000000000E+00
 0.2750131701039E+00 -0.4585290511904E+01  0.0000000000000E+00
 0.2750197551894E+00 -0.4512141832045E+01  0.0000000000000E+00
 0.2750263402564E+00 -0.4438993357257E+01  0.0000000000000E+00
 0.2750329253222E+00 -0.4365844897016E+01  0.0000000000000E+00
 0.2750395103904E+00 -0.4292696409288E+01  0.0000000000000E+00
 0.2750460954547E+00 -0.4219547964793E+01  0.0000000000000E+00
 0.2750526805214E+00 -0.4146399493482E+01  0.0000000000000E+00
 0.2750592655877E+00 -0.4073251027544E+01  0.0000000000000E+00
 0.2750658506532E+00 -0.4000102569683E+01  0.0000000000000E+00
 0.2750724357201E+00 -0.3926954096512E+01  0.0000000000000E+00
 0.2750790207848E+00 -0.3853805647328E+01  0.0000000000000E+00
 0.2750856058524E+00 -0.3780657166220E+01  0.0000000000000E+00
 0.2750921909254E+00 -0.3707508625436E+01  0.0000000000000E+00
 0.2750987759965E+00 -0.3634360105469E+01  0.0000000000000E+00
 0.2751053610598E+00 -0.3561211673007E+01  0.0000000000000E+00
 0.2751119461812E+00 -0.3488062594756E+01  0.0000000000000E+00
 0.2751185311925E+00 -0.3414914738712E+01  0.0000000000000E+00
 0.2751251162597E+00 -0.3341766262195E+01  0.0000000000000E+00
 0.2751317013197E+00 -0.3268617865830E+01  0.0000000000000E+00
 0.2751382863713E+00 -0.3195469562633E+01  0.0000000000000E+00
 0.2751448714262E+00 -0.3122321222524E+01  0.0000000000000E+00
 0.2751514564841E+00 -0.3049172849702E+01  0.0000000000000E+00
 0.2751628788227E+00 -0.2976024413916E+01  0.0000000000000E+00
 0.2752102949189E+00 -0.2902876208491E+01  0.0000000000000E+00
 0.2753369672533E+00 -0.2829729571771E+01  0.0000000000000E+00
 0.2755823325853E+00 -0.2756587777875E+01  0.0000000000000E+00
 0.2759754197121E+00 -0.2683456510402E+01  0.0000000000000E+00
 0.2765348468877E+00 -0.2610342912930E+01  0.0000000000000E+00
 0.2772725187343E+00 -0.2537255318706E+01  0.0000000000000E+00
 0.2781978958174E+00 -0.2464202711301E+01  0.0000000000000E+00
 0.2793216806473E+00 -0.2391195806292E+01  0.0000000000000E+00
 0.2806585964169E+00 -0.2318248191856E+01  0.0000000000000E+00
 0.2822078148791E+00 -0.2245369678523E+01  0.0000000000000E+00
 0.2839477520001E+00 -0.2172562024256E+01  0.0000000000000E+00
 0.2858629996983E+00 -0.2099826907348E+01  0.0000000000000E+00
 0.2879445967325E+00 -0.2027167106128E+01  0.0000000000000E+00
 0.2901896187525E+00 -0.1954587522619E+01  0.0000000000000E+00
 0.2926025536778E+00 -0.1882097056446E+01  0.0000000000000E+00
 0.2952014496426E+00 -0.1809712916272E+01  0.0000000000000E+00
 0.3025068043940E+00 -0.4658468971968E+01  0.0000000000000E+00
 0.3025136087739E+00 -0.4585350970636E+01  0.0000000000000E+00
 0.3025204131955E+00 -0.4512232520297E+01  0.0000000000000E+00
 0.3025272175981E+00 -0.4439114274945E+01  0.0000000000000E+00
 0.3025340219993E+00 -0.4365996044133E+01  0.0000000000000E+00
 0.3025408264030E+00 -0.4292877785846E+01  0.0000000000000E+00
 0.3025476308028E+00 -0.4219759570774E+01  0.0000000000000E+00
 0.3025544352050E+00 -0.4146641328897E+01  0.0000000000000E+00
 0.3025612396067E+00 -0.4073523092391E+01  0.0000000000000E+00
 0.3025680440077E+00 -0.4000404863958E+01  0.0000000000000E+00
 0.3025748484101E+00 -0.3927286620221E+01  0.0000000000000E+00
 0.3025816528103E+00 -0.3854168400463E+01  0.0000000000000E+00
 0.3025884572134E+00 -0.3781050148793E+01  0.0000000000000E+00
 0.3025952616221E+00 -0.3707931837471E+01  0.0000000000000E+00
 0.3026020660289E+00 -0.3634813546959E+01  0.0000000000000E+00
 0.3026088704275E+00 -0.3561695343915E+01  0.0000000000000E+00
 0.3026156748862E+00 -0.3488576495348E+01  0.0000000000000E+00
 0.3026224792312E+00 -0.3415458868484E+01  0.0000000000000E+00
 0.3026292836339E+00 -0.3342340621403E+01  0.0000000000000E+00
 0.3026360880292E+00 -0.3269222454441E+01  0.0000000000000E+00
 0.3026428924158E+00 -0.3196104380609E+01  0.0000000000000E+00
 0.3026496968058E+00 -0.3122986269880E+01  0.0000000000000E+00
 0.3026565011989E+00 -0.3049868126451E+01  0.0000000000000E+00
 0.3026686266003E+00 -0.2976749920085E+01  0.0000000000000E+00
 0.3027203451345E+00 -0.2903631944063E+01  0.0000000000000E+00
 0.3028592455296E+00 -0.2830515536692E+01  0.0000000000000E+00
 0.3031287082196E+00 -0.2757403972134E+01  0.0000000000000E+00
 0.3035606648810E+00 -0.2684302933966E+01  0.0000000000000E+00
 0.3041755955924E+00 -0.2611219565799E+01  0.0000000000000E+00
 0.3049865954384E+00 -0.2538162200834E+01  0.0000000000000E+00
 0.3060040710399E+00 -0.2465139822714E+01  0.0000000000000E+00
 0.3072397951582E+00 -0.2392163147008E+01  0.0000000000000E+00
 0.3087099633062E+00 -0.2319245761804E+01  0.0000000000000E+00
 0.3104136644108E+00 -0.2246397477737E+01  0.0000000000000E+00
 0.3123271560352E+00 -0.2173620052771E+01  0.0000000000000E+00
 0.3144334892904E+00 -0.2100915165177E+01  0.0000000000000E+00
 0.3167228068109E+00 -0.2028285593305E+01  0.0000000000000E+00
 0.3191918918116E+00 -0.1955736239175E+01  0.0000000000000E+00
 0.3218456810053E+00 -0.1883276002310E+01  0.0000000000000E+00
 0.3247040273393E+00 -0.1810922091373E+01  0.0000000000000E+00
 0.3300068990355E+00 -0.4658502072771E+01  0.0000000000000E+00
 0.3300137980567E+00 -0.4585417172174E+01  0.0000000000000E+00
 0.3300206971202E+00 -0.4512331822772E+01  0.0000000000000E+00
 0.3300275961644E+00 -0.4439246678265E+01  0.0000000000000E+00
 0.3300344952072E+00 -0.4366161548291E+01  0.0000000000000E+00
 0.3300413942526E+00 -0.4293076390855E+01  0.0000000000000E+00
 0.3300482932940E+00 -0.4219991276614E+01  0.0000000000000E+00
 0.3300551923378E+00 -0.4146906135581E+01  0.0000000000000E+00
 0.3300620913812E+00 -0.4073820999915E+01  0.0000000000000E+00
 0.3300689904238E+00 -0.4000735872320E+01  0.0000000000000E+00
 0.3300758894678E+00 -0.3927650729427E+01  0.0000000000000E+00
 0.3300827885096E+00 -0.3854565610502E+01  0.0000000000000E+00
 0.3300896875544E+00 -0.3781480459680E+01  0.0000000000000E+00
 0.3300965866048E+00 -0.3708395249233E+01  0.0000000000000E+00
 0.3301034856532E+00 -0.3635310059585E+01  0.0000000000000E+00
 0.3301103846934E+00 -0.3562224957367E+01  0.0000000000000E+00
 0.3301172837945E+00 -0.3489139209918E+01  0.0000000000000E+00
 0.3301241827804E+00 -0.3416054683619E+01  0.0000000000000E+00
 0.3301310818247E+00 -0.3342969537384E+01  0.0000000000000E+00
 0.3301379808615E+00 -0.3269884471232E+01  0.0000000000000E+00
 0.3301448798895E+00 -0.3196799498167E+01  0.0000000000000E+00
 0.3301517789210E+00 -0.3123714488221E+01  0.0000000000000E+00
 0.3301586779556E+00 -0.3050629445591E+01  0.0000000000000E+00
 0.3301713817261E+00 -0.2977544340053E+01  0.0000000000000E+00
 0.3302272780059E+00 -0.2904459464839E+01  0.0000000000000E+00
 0.3303782817725E+00 -0.2831376158220E+01  0.0000000000000E+00
 0.3306717171352E+00 -0.2758297694401E+01  0.0000000000000E+00
 0.3311424186512E+00 -0.2685229756934E+01  0.0000000000000E+00
 0.3318127282240E+00 -0.2612179489470E+01  0.0000000000000E+00
 0.3326969314014E+00 -0.2539155225155E+01  0.0000000000000E+00
 0.3338063808598E+00 -0.2466165947716E+01  0.0000000000000E+00
 0.3351539196114E+00 -0.2393222372710E+01  0.0000000000000E+00
 0.3367572154907E+00 -0.2320338088127E+01  0.0000000000000E+00
 0.3386152745975E+00 -0.2247522904721E+01  0.0000000000000E+00
 0.3407021960918E+00 -0.2174778580452E+01  0.0000000000000E+00
 0.3429994902762E+00 -0.2102106793569E+01  0.0000000000000E+00
 0.3454964036609E+00 -0.2029510322446E+01  0.0000000000000E+00
 0.3481894270257E+00 -0.1956994069100E+01  0.0000000000000E+00
 0.3510839458773E+00 -0.1884566932939E+01  0.0000000000000E+00
 0.3542016179765E+00 -0.1812246122631E+01  0.0000000000000E+00
 0.3575068569661E+00 -0.4658538042879E+01  0.0000000000000E+00
 0.3575137139178E+00 -0.4585489112314E+01  0.0000000000000E+00
 0.3575205709117E+00 -0.4512439733166E+01  0.0000000000000E+00
 0.3575274278864E+00 -0.4439390558811E+01  0.0000000000000E+00
 0.3575342848597E+00 -0.4366341398983E+01  0.0000000000000E+00
 0.3575411418356E+00 -0.4293292211706E+01  0.0000000000000E+00
 0.3575479988074E+00 -0.4220243067603E+01  0.0000000000000E+00
 0.3575548557817E+00 -0.4147193896721E+01  0.0000000000000E+00
 0.3575617127555E+00 -0.4074144731204E+01  0.0000000000000E+00
 0.3575685697286E+00 -0.4001095573752E+01  0.0000000000000E+00
 0.3575754267031E+00 -0.3928046401012E+01  0.0000000000000E+00
 0.3575822836754E+00 -0.3854997252227E+01  0.0000000000000E+00
 0.3575891406506E+00 -0.3781948071560E+01  0.0000000000000E+00
 0.3575959976315E+00 -0.3708898831298E+01  0.0000000000000E+00
 0.3576028546104E+00 -0.3635849611826E+01  0.0000000000000E+00
 0.3576097115811E+00 -0.3562800479740E+01  0.0000000000000E+00
 0.3576165686123E+00 -0.3489750702740E+01  0.0000000000000E+00
 0.3576234255290E+00 -0.3416702146290E+01  0.0000000000000E+00
 0.3576302825038E+00 -0.3343652970208E+01  0.0000000000000E+00
 0.3576371394711E+00 -0.3270603874170E+01  0.0000000000000E+00
 0.3576439964297E+00 -0.3197554871173E+01  0.0000000000000E+00
 0.3576508533917E+00 -0.3124505831314E+01  0.0000000000000E+00
 0.3576577103568E+00 -0.3051456758786E+01  0.0000000000000E+00
 0.3576708557852E+00 -0.2978407623384E+01  0.0000000000000E+00
 0.3577307930988E+00 -0.2905358718283E+01  0.0000000000000E+00
 0.3578937635234E+00 -0.2832311381714E+01  0.0000000000000E+00
 0.3582110348432E+00 -0.2759268887932E+01  0.0000000000000E+00
 0.3587203444949E+00 -0.2686236920463E+01  0.0000000000000E+00
 0.3594458962068E+00 -0.2613222622996E+01  0.0000000000000E+00
 0.3604031659898E+00 -0.2540234328623E+01  0.0000000000000E+00
 0.3616044525750E+00 -0.2467281021158E+01  0.0000000000000E+00
 0.3630636692258E+00 -0.2394373416147E+01  0.0000000000000E+00
 0.3647999560978E+00 -0.2321525101475E+01  0.0000000000000E+00
 0.3668122364638E+00 -0.2248745888021E+01  0.0000000000000E+00
 0.3690724510805E+00 -0.2176037533744E+01  0.0000000000000E+00
 0.3715605694432E+00 -0.2103401716869E+01  0.0000000000000E+00
 0.3742649419373E+00 -0.2030841215795E+01  0.0000000000000E+00
 0.3771817669077E+00 -0.1958360932534E+01  0.0000000000000E+00
 0.3803168786556E+00 -0.1885969766374E+01  0.0000000000000E+00
 0.3836937397548E+00 -0.1813684925983E+01  0.0000000000000E+00
 0.3850066672510E+00 -0.4658576880061E+01  0.0000000000000E+00
 0.3850133344881E+00 -0.4585566786598E+01  0.0000000000000E+00
 0.3850200017662E+00 -0.4512556244790E+01  0.0000000000000E+00
 0.3850266690256E+00 -0.4439545907666E+01  0.0000000000000E+00
 0.3850333362836E+00 -0.4366535585061E+01  0.0000000000000E+00
 0.3850400035442E+00 -0.4293525235022E+01  0.0000000000000E+00
 0.3850466708008E+00 -0.4220514928134E+01  0.0000000000000E+00
 0.3850533380599E+00 -0.4147504594480E+01  0.0000000000000E+00
 0.3850600053184E+00 -0.4074494266190E+01  0.0000000000000E+00
 0.3850666725763E+00 -0.4001483945960E+01  0.0000000000000E+00
 0.3850733398355E+00 -0.3928473610450E+01  0.0000000000000E+00
 0.3850800070925E+00 -0.3855463298882E+01  0.0000000000000E+00
 0.3850866743525E+00 -0.3782452955450E+01  0.0000000000000E+00
 0.3850933416179E+00 -0.3709442552454E+01  0.0000000000000E+00
 0.3851000088814E+00 -0.3636432170237E+01  0.0000000000000E+00
 0.3851066761369E+00 -0.3563421875359E+01  0.0000000000000E+00
 0.3851133434512E+00 -0.3490410935911E+01  0.0000000000000E+00
 0.3851200106542E+00 -0.3417401216363E+01  0.0000000000000E+00
 0.3851266779138E+00 -0.3344390877513E+01  0.0000000000000E+00
 0.3851333451660E+00 -0.3271380618664E+01  0.0000000000000E+00
 0.3851400124097E+00 -0.3198370452807E+01  0.0000000000000E+00
 0.3851466796568E+00 -0.3125360250108E+01  0.0000000000000E+00
 0.3851533469069E+00 -0.3052350014757E+01  0.0000000000000E+00
 0.3851667863476E+00 -0.2979339716566E+01  0.0000000000000E+00
 0.3852306170495E+00 -0.2906329648653E+01  0.0000000000000E+00
 0.3854054064870E+00 -0.2833321149205E+01  0.0000000000000E+00
 0.3857463661188E+00 -0.2760317492529E+01  0.0000000000000E+00
 0.3862941362620E+00 -0.2687324362123E+01  0.0000000000000E+00
 0.3870747824689E+00 -0.2614348901720E+01  0.0000000000000E+00
 0.3881049712139E+00 -0.2541399444351E+01  0.0000000000000E+00
 0.3893979472826E+00 -0.2468484973924E+01  0.0000000000000E+00
 0.3909686941895E+00 -0.2395616205974E+01  0.0000000000000E+00
 0.3928378244118E+00 -0.2322806728271E+01  0.0000000000000E+00
 0.3950041783950E+00 -0.2250066351831E+01  0.0000000000000E+00
 0.3974375384922E+00 -0.2177396834612E+01  0.0000000000000E+00
 0.4001163333914E+00 -0.2104799854812E+01  0.0000000000000E+00
 0.4030280173533E+00 -0.2032278190856E+01  0.0000000000000E+00
 0.4061684962881E+00 -0.1959836744754E+01  0.0000000000000E+00
 0.4095440532914E+00 -0.1887484415661E+01  0.0000000000000E+00
 0.4131799557506E+00 -0.1815238412246E+01  0.0000000000000E+00
 0.4125063190932E+00 -0.4658618581925E+01  0.0000000000000E+00
 0.4125126381733E+00 -0.4585650190237E+01  0.0000000000000E+00
 0.4125189572921E+00 -0.4512681350462E+01  0.0000000000000E+00
 0.4125252763933E+00 -0.4439712715254E+01  0.0000000000000E+00
 0.4125315954932E+00 -0.4366744094556E+01  0.0000000000000E+00
 0.4125379145954E+00 -0.4293775446440E+01  0.0000000000000E+00
 0.4125442336940E+00 -0.4220806841450E+01  0.0000000000000E+00
 0.4125505527948E+00 -0.4147838209710E+01  0.0000000000000E+00
 0.4125568718952E+00 -0.4074869583330E+01  0.0000000000000E+00
 0.4125631909949E+00 -0.4001900965006E+01  0.0000000000000E+00
 0.4125695100959E+00 -0.3928932331410E+01  0.0000000000000E+00
 0.4125758291948E+00 -0.3855963721744E+01  0.0000000000000E+00
 0.4125821482965E+00 -0.3782995080231E+01  0.0000000000000E+00
 0.4125884674034E+00 -0.3710026379188E+01  0.0000000000000E+00
 0.4125947865084E+00 -0.3637057698912E+01  0.0000000000000E+00
 0.4126011056059E+00 -0.3564089105926E+01  0.0000000000000E+00
 0.4126074247592E+00 -0.3491119868737E+01  0.0000000000000E+00
 0.4126137438069E+00 -0.3418151850752E+01  0.0000000000000E+00
 0.4126200629082E+00 -0.3345183213819E+01  0.0000000000000E+00
 0.4126263820025E+00 -0.3272214656840E+01  0.0000000000000E+00
 0.4126327010889E+00 -0.3199246192801E+01  0.0000000000000E+00
 0.4126390201784E+00 -0.3126277691941E+01  0.0000000000000E+00
 0.4126453392707E+00 -0.3053309158447E+01  0.0000000000000E+00
 0.4126589142810E+00 -0.2980340562151E+01  0.0000000000000E+00
 0.4127264799297E+00 -0.2907372196107E+01  0.0000000000000E+00
 0.4129129299416E+00 -0.2834405398456E+01  0.0000000000000E+00
 0.4132774194510E+00 -0.2761443443563E+01  0.0000000000000E+00
 0.4138634916560E+00 -0.2688492014891E+01  0.0000000000000E+00
 0.4146990739339E+00 -0.2615558256224E+01  0.0000000000000E+00
 0.4158020232230E+00 -0.2542650500527E+01  0.0000000000000E+00
 0.4171865303632E+00 -0.2469777731808E+01  0.0000000000000E+00
 0.4188686491207E+00 -0.2396950665591E+01  0.0000000000000E+00
 0.4208704642954E+00 -0.2324182889523E+01  0.0000000000000E+00
 0.4231907335043E+00 -0.2251484214766E+01  0.0000000000000E+00
 0.4257970806970E+00 -0.2178856399276E+01  0.0000000000000E+00
 0.4286663937532E+00 -0.2106301121224E+01  0.0000000000000E+00
 0.4317852308089E+00 -0.2033821159063E+01  0.0000000000000E+00
 0.4351492053391E+00 -0.1961421414798E+01  0.0000000000000E+00
 0.4387650492349E+00 -0.1889110787444E+01  0.0000000000000E+00
 0.4426598346975E+00 -0.1816906485672E+01  0.0000000000000E+00
 0.4400058000888E+00 -0.4658663145799E+01  0.0000000000000E+00
 0.4400116001655E+00 -0.4585739317892E+01  0.0000000000000E+00
 0.4400174002778E+00 -0.4512815042172E+01  0.0000000000000E+00
 0.4400232003739E+00 -0.4439890970894E+01  0.0000000000000E+00
 0.4400290004688E+00 -0.4366966914117E+01  0.0000000000000E+00
 0.4400348005658E+00 -0.4294042829939E+01  0.0000000000000E+00
 0.4400406006595E+00 -0.4221118788861E+01  0.0000000000000E+00
 0.4400464007553E+00 -0.4148194721049E+01  0.0000000000000E+00
 0.4400522008506E+00 -0.4075270658593E+01  0.0000000000000E+00
 0.4400580009453E+00 -0.4002346604189E+01  0.0000000000000E+00
 0.4400638010413E+00 -0.3929422534522E+01  0.0000000000000E+00
 0.4400696011353E+00 -0.3856498488770E+01  0.0000000000000E+00
 0.4400754012318E+00 -0.3783574411191E+01  0.0000000000000E+00
 0.4400812013331E+00 -0.3710650274118E+01  0.0000000000000E+00
 0.4400870014328E+00 -0.3637726157800E+01  0.0000000000000E+00
 0.4400928015255E+00 -0.3564802128718E+01  0.0000000000000E+00
 0.4400986016694E+00 -0.3491877455827E+01  0.0000000000000E+00
 0.4401044017164E+00 -0.3418954001394E+01  0.0000000000000E+00
 0.4401102018126E+00 -0.3346029928392E+01  0.0000000000000E+00
 0.4401160019024E+00 -0.3273105935296E+01  0.0000000000000E+00
 0.4401218019848E+00 -0.3200182035083E+01  0.0000000000000E+00
 0.4401276020702E+00 -0.3127258098070E+01  0.0000000000000E+00
 0.4401334021582E+00 -0.3054334128444E+01  0.0000000000000E+00
 0.4401469418909E+00 -0.2981410096056E+01  0.0000000000000E+00
 0.4402180716374E+00 -0.2908486293893E+01  0.0000000000000E+00
 0.4404160113703E+00 -0.2835564060045E+01  0.0000000000000E+00
 0.4408038598970E+00 -0.2762646668939E+01  0.0000000000000E+00
 0.4414280632953E+00 -0.2689739804005E+01  0.0000000000000E+00
 0.4423184107658E+00 -0.2616850609075E+01  0.0000000000000E+00
 0.4434939497105E+00 -0.2543987417048E+01  0.0000000000000E+00
 0.4449698170227E+00 -0.2471159212037E+01  0.0000000000000E+00
 0.4467631367197E+00 -0.2398376709555E+01  0.0000000000000E+00
 0.4488974659235E+00 -0.2325653497116E+01  0.0000000000000E+00
 0.4513714794224E+00 -0.2252999386040E+01  0.0000000000000E+00
 0.4541506427632E+00 -0.2180416134282E+01  0.0000000000000E+00
 0.4572103030192E+00 -0.2107905419981E+01  0.0000000000000E+00
 0.4605361222013E+00 -0.2035470021620E+01  0.0000000000000E+00
 0.4641234213498E+00 -0.1963114841203E+01  0.0000000000000E+00
 0.4679793811517E+00 -0.1890848777590E+01  0.0000000000000E+00
 0.4721328786209E+00 -0.1818689039456E+01  0.0000000000000E+00
 0.4675051005201E+00 -0.4658710569005E+01  0.0000000000000E+00
 0.4675102010296E+00 -0.4585834164207E+01  0.0000000000000E+00
 0.4675153015704E+00 -0.4512957311885E+01  0.0000000000000E+00
 0.4675204020969E+00 -0.4440080663873E+01  0.0000000000000E+00
 0.4675255026224E+00 -0.4367204030353E+01  0.0000000000000E+00
 0.4675306031498E+00 -0.4294327369449E+01  0.0000000000000E+00
 0.4675357036742E+00 -0.4221450751617E+01  0.0000000000000E+00
 0.4675408042005E+00 -0.4148574107069E+01  0.0000000000000E+00
 0.4675459047264E+00 -0.4075697467873E+01  0.0000000000000E+00
 0.4675510052517E+00 -0.4002820836724E+01  0.0000000000000E+00
 0.4675561057781E+00 -0.3929944190322E+01  0.0000000000000E+00
 0.4675612063029E+00 -0.3857067567819E+01  0.0000000000000E+00
 0.4675663068298E+00 -0.3784190913510E+01  0.0000000000000E+00
 0.4675714073609E+00 -0.3711314199746E+01  0.0000000000000E+00
 0.4675765078906E+00 -0.3638437506723E+01  0.0000000000000E+00
 0.4675816084142E+00 -0.3565560900880E+01  0.0000000000000E+00
 0.4675867089827E+00 -0.3492683651646E+01  0.0000000000000E+00
 0.4675918094661E+00 -0.3419807620078E+01  0.0000000000000E+00
 0.4675969099927E+00 -0.3346930970343E+01  0.0000000000000E+00
 0.4676020105138E+00 -0.3274054400462E+01  0.0000000000000E+00
 0.4676071110283E+00 -0.3201177923403E+01  0.0000000000000E+00
 0.4676122115455E+00 -0.3128301409569E+01  0.0000000000000E+00
 0.4676173120649E+00 -0.3055424863144E+01  0.0000000000000E+00
 0.4676306359560E+00 -0.2982548253998E+01  0.0000000000000E+00
 0.4677051492379E+00 -0.2909671875048E+01  0.0000000000000E+00
 0.4679143981338E+00 -0.2836797064332E+01  0.0000000000000E+00
 0.4683254251255E+00 -0.2763927096339E+01  0.0000000000000E+00
 0.4689875791721E+00 -0.2691067654466E+01  0.0000000000000E+00
 0.4699325112982E+00 -0.2618225882598E+01  0.0000000000000E+00
 0.4711804593705E+00 -0.2545410113560E+01  0.0000000000000E+00
 0.4727475063358E+00 -0.2472629331579E+01  0.0000000000000E+00
 0.4746518464626E+00 -0.2399894252155E+01  0.0000000000000E+00
 0.4769185091967E+00 -0.2327218462663E+01  0.0000000000000E+00
 0.4795460864969E+00 -0.2254611774588E+01  0.0000000000000E+00
 0.4824978855064E+00 -0.2182075945884E+01  0.0000000000000E+00
 0.4857477124908E+00 -0.2109612654658E+01  0.0000000000000E+00
 0.4892803333359E+00 -0.2037224679426E+01  0.0000000000000E+00
 0.4930907766471E+00 -0.1964916922187E+01  0.0000000000000E+00
 0.4971866719080E+00 -0.1892698281639E+01  0.0000000000000E+00
 0.5015987009462E+00 -0.1820585966460E+01  0.0000000000000E+00
 0.4950042083210E+00 -0.4658760848539E+01  0.0000000000000E+00
 0.4950084166332E+00 -0.4585934723169E+01  0.0000000000000E+00
 0.4950126249712E+00 -0.4513108150585E+01  0.0000000000000E+00
 0.4950168332975E+00 -0.4440281782170E+01  0.0000000000000E+00
 0.4950210416229E+00 -0.4367455428237E+01  0.0000000000000E+00
 0.4950252499499E+00 -0.4294629046938E+01  0.0000000000000E+00
 0.4950294582744E+00 -0.4221802708682E+01  0.0000000000000E+00
 0.4950336666004E+00 -0.4148976343728E+01  0.0000000000000E+00
 0.4950378749262E+00 -0.4076149984123E+01  0.0000000000000E+00
 0.4950420832514E+00 -0.4003323632559E+01  0.0000000000000E+00
 0.4950462915776E+00 -0.3930497265753E+01  0.0000000000000E+00
 0.4950504999024E+00 -0.3857670922829E+01  0.0000000000000E+00
 0.4950547082290E+00 -0.3784844548121E+01  0.0000000000000E+00
 0.4950589165590E+00 -0.3712018113999E+01  0.0000000000000E+00
 0.4950631248879E+00 -0.3639191700604E+01  0.0000000000000E+00
 0.4950673332117E+00 -0.3566365374328E+01  0.0000000000000E+00
 0.4950715415726E+00 -0.3493538405106E+01  0.0000000000000E+00
 0.4950757498633E+00 -0.3420712652710E+01  0.0000000000000E+00
 0.4950799581896E+00 -0.3347886282572E+01  0.0000000000000E+00
 0.4950841665114E+00 -0.3275059992234E+01  0.0000000000000E+00
 0.4950883748277E+00 -0.3202233794654E+01  0.0000000000000E+00
 0.4950925831462E+00 -0.3129407560324E+01  0.0000000000000E+00
 0.4950967914666E+00 -0.3056581293425E+01  0.0000000000000E+00
 0.4951097068853E+00 -0.2983754963851E+01  0.0000000000000E+00
 0.4951874110714E+00 -0.2910928864443E+01  0.0000000000000E+00
 0.4954077764972E+00 -0.2838104333180E+01  0.0000000000000E+00
 0.4958417893184E+00 -0.2765284644623E+01  0.0000000000000E+00
 0.4965417013745E+00 -0.2692475482128E+01  0.0000000000000E+00
 0.4975410255139E+00 -0.2619683989641E+01  0.0000000000000E+00
 0.4988611900675E+00 -0.2546918499905E+01  0.0000000000000E+00
 0.5005192240350E+00 -0.2474187997271E+01  0.0000000000000E+00
 0.5025343919363E+00 -0.2401503197224E+01  0.0000000000000E+00
 0.5049331955409E+00 -0.2328877686990E+01  0.0000000000000E+00
 0.5077141439775E+00 -0.2256321278231E+01  0.0000000000000E+00
 0.5108383859861E+00 -0.2183835728900E+01  0.0000000000000E+00
 0.5142781870254E+00 -0.2111422717068E+01  0.0000000000000E+00
 0.5180174168560E+00 -0.2039085021287E+01  0.0000000000000E+00
 0.5220508116484E+00 -0.1966827543550E+01  0.0000000000000E+00
 0.5263864496834E+00 -0.1894659182387E+01  0.0000000000000E+00
 0.5310568176018E+00 -0.1822597146475E+01  0.0000000000000E+00
 0.5225031126404E+00 -0.4658813981299E+01  0.0000000000000E+00
 0.5225062252743E+00 -0.4586040988578E+01  0.0000000000000E+00
 0.5225093379273E+00 -0.4513267548970E+01  0.0000000000000E+00
 0.5225124505716E+00 -0.4440494313380E+01  0.0000000000000E+00
 0.5225155632152E+00 -0.4367721092263E+01  0.0000000000000E+00
 0.5225186758601E+00 -0.4294947843801E+01  0.0000000000000E+00
 0.5225217885031E+00 -0.4222174638349E+01  0.0000000000000E+00
 0.5225249011472E+00 -0.4149401406219E+01  0.0000000000000E+00
 0.5225280137911E+00 -0.4076628179434E+01  0.0000000000000E+00
 0.5225311264347E+00 -0.4003854960684E+01  0.0000000000000E+00
 0.5225342390789E+00 -0.3931081726703E+01  0.0000000000000E+00
 0.5225373517221E+00 -0.3858308516587E+01  0.0000000000000E+00
 0.5225404643666E+00 -0.3785535274710E+01  0.0000000000000E+00
 0.5225435770137E+00 -0.3712761973463E+01  0.0000000000000E+00
 0.5225466896599E+00 -0.3639988692926E+01  0.0000000000000E+00
 0.5225498023024E+00 -0.3567215499446E+01  0.0000000000000E+00
 0.5225529149724E+00 -0.3494441663489E+01  0.0000000000000E+00
 0.5225560275903E+00 -0.3421669043470E+01  0.0000000000000E+00
 0.5225591402347E+00 -0.3348895806160E+01  0.0000000000000E+00
 0.5225622528757E+00 -0.3276122648591E+01  0.0000000000000E+00
 0.5225653655126E+00 -0.3203349583713E+01  0.0000000000000E+00
 0.5225684781512E+00 -0.3130576482112E+01  0.0000000000000E+00
 0.5225715907911E+00 -0.3057803347965E+01  0.0000000000000E+00
 0.5225838942559E+00 -0.2985030151191E+01  0.0000000000000E+00
 0.5226645858642E+00 -0.2912257184550E+01  0.0000000000000E+00
 0.5228958643382E+00 -0.2839485785963E+01  0.0000000000000E+00
 0.5233526595062E+00 -0.2766719230062E+01  0.0000000000000E+00
 0.5240901260887E+00 -0.2693963200164E+01  0.0000000000000E+00
 0.5251436387569E+00 -0.2621224840274E+01  0.0000000000000E+00
 0.5265358163068E+00 -0.2548512483054E+01  0.0000000000000E+00
 0.5282846337900E+00 -0.2475835112982E+01  0.0000000000000E+00
 0.5304104259779E+00 -0.2403203445529E+01  0.0000000000000E+00
 0.5329411669643E+00 -0.2330631067763E+01  0.0000000000000E+00
 0.5358752830470E+00 -0.2258127791534E+01  0.0000000000000E+00
 0.5391717645631E+00 -0.2185695374792E+01  0.0000000000000E+00
 0.5428013361643E+00 -0.2113335495573E+01  0.0000000000000E+00
 0.5467469714862E+00 -0.2041050932465E+01  0.0000000000000E+00
 0.5510031142644E+00 -0.1968846587455E+01  0.0000000000000E+00
 0.5555782915776E+00 -0.1896731358894E+01  0.0000000000000E+00
 0.5605067948795E+00 -0.1824722455461E+01  0.0000000000000E+00
 0.5500018033136E+00 -0.4658869964069E+01  0.0000000000000E+00
 0.5500036066233E+00 -0.4586152954003E+01  0.0000000000000E+00
 0.5500054099442E+00 -0.4513435497392E+01  0.0000000000000E+00
 0.5500072132600E+00 -0.4440718244644E+01  0.0000000000000E+00
 0.5500090165755E+00 -0.4368001006356E+01  0.0000000000000E+00
 0.5500108198916E+00 -0.4295283740744E+01  0.0000000000000E+00
 0.5500126232067E+00 -0.4222566518110E+01  0.0000000000000E+00
 0.5500144265224E+00 -0.4149849268818E+01  0.0000000000000E+00
 0.5500162298380E+00 -0.4077132024867E+01  0.0000000000000E+00
 0.5500180331534E+00 -0.4004414788945E+01  0.0000000000000E+00
 0.5500198364692E+00 -0.3931697537804E+01  0.0000000000000E+00
 0.5500216397843E+00 -0.3858980310509E+01  0.0000000000000E+00
 0.5500234431003E+00 -0.3786263051477E+01  0.0000000000000E+00
 0.5500252464177E+00 -0.3713545733121E+01  0.0000000000000E+00
 0.5500270497347E+00 -0.3640828435461E+01  0.0000000000000E+00
 0.5500288530494E+00 -0.3568111224789E+01  0.0000000000000E+00
 0.5500306563801E+00 -0.3495393372134E+01  0.0000000000000E+00
 0.5500324596807E+00 -0.3422676734482E+01  0.0000000000000E+00
 0.5500342629965E+00 -0.3349959480015E+01  0.0000000000000E+00
 0.5500360663104E+00 -0.3277242305227E+01  0.0000000000000E+00
 0.5500378696220E+00 -0.3204525223058E+01  0.0000000000000E+00
 0.5500396729345E+00 -0.3131808104194E+01  0.0000000000000E+00
 0.5500414762478E+00 -0.3059090952810E+01  0.0000000000000E+00
 0.5500529541124E+00 -0.2986373738849E+01  0.0000000000000E+00
 0.5501364194992E+00 -0.2913656754987E+01  0.0000000000000E+00
 0.5503783973824E+00 -0.2840941339082E+01  0.0000000000000E+00
 0.5508577612655E+00 -0.2768230765842E+01  0.0000000000000E+00
 0.5516325687513E+00 -0.2695530718543E+01  0.0000000000000E+00
 0.5527400563351E+00 -0.2622848341252E+01  0.0000000000000E+00
 0.5542040332787E+00 -0.2550191966546E+01  0.0000000000000E+00
 0.5560434206860E+00 -0.2477570579036E+01  0.0000000000000E+00
 0.5582796235804E+00 -0.2404994894179E+01  0.0000000000000E+00
 0.5609420883813E+00 -0.2332478498877E+01  0.0000000000000E+00
 0.5640291585551E+00 -0.2260031205176E+01  0.0000000000000E+00
 0.5674976660344E+00 -0.2187654771025E+01  0.0000000000000E+00
 0.5713167946636E+00 -0.2115350874421E+01  0.0000000000000E+00
 0.5754686219523E+00 -0.2043122293992E+01  0.0000000000000E+00
 0.5799472992011E+00 -0.1970973931719E+01  0.0000000000000E+00
 0.5847618022875E+00 -0.1898914685761E+01  0.0000000000000E+00
 0.5899482274796E+00 -0.1826961764802E+01  0.0000000000000E+00
 0.5775046063623E+00 -0.4658929169039E+01  0.0000000000000E+00
 0.5775092127151E+00 -0.4586271363819E+01  0.0000000000000E+00
 0.5775138190961E+00 -0.4513613112418E+01  0.0000000000000E+00
 0.5775184254642E+00 -0.4440955064714E+01  0.0000000000000E+00
 0.5775230318314E+00 -0.4368297031459E+01  0.0000000000000E+00
 0.5775276382004E+00 -0.4295638970901E+01  0.0000000000000E+00
 0.5775322445666E+00 -0.4222980953286E+01  0.0000000000000E+00
 0.5775368509345E+00 -0.4150322909036E+01  0.0000000000000E+00
 0.5775414573020E+00 -0.4077664870122E+01  0.0000000000000E+00
 0.5775460636691E+00 -0.4005006839230E+01  0.0000000000000E+00
 0.5775506700371E+00 -0.3932348793131E+01  0.0000000000000E+00
 0.5775552764036E+00 -0.3859690770860E+01  0.0000000000000E+00
 0.5775598827721E+00 -0.3787032716878E+01  0.0000000000000E+00
 0.5775644891444E+00 -0.3714374603619E+01  0.0000000000000E+00
 0.5775690955153E+00 -0.3641716511039E+01  0.0000000000000E+00
 0.5775737018808E+00 -0.3569058505377E+01  0.0000000000000E+00
 0.5775783082869E+00 -0.3496399858254E+01  0.0000000000000E+00
 0.5775829146160E+00 -0.3423742425146E+01  0.0000000000000E+00
 0.5775875209843E+00 -0.3351084375724E+01  0.0000000000000E+00
 0.5775921273474E+00 -0.3278426405916E+01  0.0000000000000E+00
 0.5775967337047E+00 -0.3205768528653E+01  0.0000000000000E+00
 0.5776013400644E+00 -0.3133110614724E+01  0.0000000000000E+00
 0.5776059464261E+00 -0.3060452668301E+01  0.0000000000000E+00
 0.5776207126381E+00 -0.2987794659355E+01  0.0000000000000E+00
 0.5777110774219E+00 -0.2915136880472E+01  0.0000000000000E+00
 0.5779679060300E+00 -0.2842480669443E+01  0.0000000000000E+00
 0.5784740284367E+00 -0.2769829301057E+01  0.0000000000000E+00
 0.5792904145389E+00 -0.2697188458545E+01  0.0000000000000E+00
 0.5804561686988E+00 -0.2624565286044E+01  0.0000000000000E+00
 0.5819962944983E+00 -0.2551968116035E+01  0.0000000000000E+00
 0.5839306621719E+00 -0.2479405933275E+01  0.0000000000000E+00
 0.5862817504648E+00 -0.2406889453203E+01  0.0000000000000E+00
 0.5890804828851E+00 -0.2334432262545E+01  0.0000000000000E+00
 0.5923251198134E+00 -0.2262044173559E+01  0.0000000000000E+00
 0.5959703277778E+00 -0.2189726944188E+01  0.0000000000000E+00
 0.5999837448152E+00 -0.2117482252390E+01  0.0000000000000E+00
 0.6043465494057E+00 -0.2045312876833E+01  0.0000000000000E+00
 0.6090525994664E+00 -0.1973223719494E+01  0.0000000000000E+00
 0.6141113211150E+00 -0.1901223678329E+01  0.0000000000000E+00
 0.6195606212872E+00 -0.1829329962027E+01  0.0000000000000E+00
 0.6050071700463E+00 -0.4658991252418E+01  0.0000000000000E+00
 0.6050143400778E+00 -0.4586395530448E+01  0.0000000000000E+00
 0.6050215101532E+00 -0.4513799362679E+01  0.0000000000000E+00
 0.6050286802085E+00 -0.4441203398432E+01  0.0000000000000E+00
 0.6050358502624E+00 -0.4368607448621E+01  0.0000000000000E+00
 0.6050430203191E+00 -0.4296011471532E+01  0.0000000000000E+00
 0.6050501903714E+00 -0.4223415537349E+01  0.0000000000000E+00
 0.6050573604264E+00 -0.4150819576553E+01  0.0000000000000E+00
 0.6050645304809E+00 -0.4078223621089E+01  0.0000000000000E+00
 0.6050717005346E+00 -0.4005627673640E+01  0.0000000000000E+00
 0.6050788705898E+00 -0.3933031710997E+01  0.0000000000000E+00
 0.6050860406426E+00 -0.3860435772161E+01  0.0000000000000E+00
 0.6050932106985E+00 -0.3787839801641E+01  0.0000000000000E+00
 0.6051003807603E+00 -0.3715243771896E+01  0.0000000000000E+00
 0.6051075508201E+00 -0.3642647762811E+01  0.0000000000000E+00
 0.6051147208713E+00 -0.3570051840571E+01  0.0000000000000E+00
 0.6051218909858E+00 -0.3497455277418E+01  0.0000000000000E+00
 0.6051290609805E+00 -0.3424859927241E+01  0.0000000000000E+00
 0.6051362310360E+00 -0.3352263961278E+01  0.0000000000000E+00
 0.6051434010836E+00 -0.3279668074861E+01  0.0000000000000E+00
 0.6051505711222E+00 -0.3207072280909E+01  0.0000000000000E+00
 0.6051577411643E+00 -0.3134476450324E+01  0.0000000000000E+00
 0.6051649112096E+00 -0.3061880587272E+01  0.0000000000000E+00
 0.6051827264041E+00 -0.2989284661751E+01  0.0000000000000E+00
 0.6052797512201E+00 -0.2916688966257E+01  0.0000000000000E+00
 0.6055511911890E+00 -0.2844094838509E+01  0.0000000000000E+00
 0.6060838327555E+00 -0.2771505553381E+01  0.0000000000000E+00
 0.6069415581107E+00 -0.2698926794058E+01  0.0000000000000E+00
 0.6081653394835E+00 -0.2626365704746E+01  0.0000000000000E+00
 0.6097813747766E+00 -0.2553830617832E+01  0.0000000000000E+00
 0.6118104833542E+00 -0.2481330518221E+01  0.0000000000000E+00
 0.6142762176836E+00 -0.2408876121334E+01  0.0000000000000E+00
 0.6172109783622E+00 -0.2336481013715E+01  0.0000000000000E+00
 0.6206129426840E+00 -0.2264155007840E+01  0.0000000000000E+00
 0.6244346117725E+00 -0.2191899861649E+01  0.0000000000000E+00
 0.6286420778573E+00 -0.2119717253058E+01  0.0000000000000E+00
 0.6332156203890E+00 -0.2047609960779E+01  0.0000000000000E+00
 0.6381488039008E+00 -0.1975582886781E+01  0.0000000000000E+00
 0.6434515047517E+00 -0.1903644928812E+01  0.0000000000000E+00
 0.6491634405451E+00 -0.1831813295560E+01  0.0000000000000E+00
 0.6325094832707E+00 -0.4659056210343E+01  0.0000000000000E+00
 0.6325189665217E+00 -0.4586525446162E+01  0.0000000000000E+00
 0.6325284498309E+00 -0.4513994236580E+01  0.0000000000000E+00
 0.6325379331135E+00 -0.4441463230339E+01  0.0000000000000E+00
 0.6325474163943E+00 -0.4368932238522E+01  0.0000000000000E+00
 0.6325568996786E+00 -0.4296401219450E+01  0.0000000000000E+00
 0.6325663829573E+00 -0.4223870243246E+01  0.0000000000000E+00
 0.6325758662394E+00 -0.4151339240452E+01  0.0000000000000E+00
 0.6325853495209E+00 -0.4078808242986E+01  0.0000000000000E+00
 0.6325948328014E+00 -0.4006277253528E+01  0.0000000000000E+00
 0.6326043160838E+00 -0.3933746248890E+01  0.0000000000000E+00
 0.6326137993631E+00 -0.3861215268037E+01  0.0000000000000E+00
 0.6326232826465E+00 -0.3788684255529E+01  0.0000000000000E+00
 0.6326327659377E+00 -0.3716153183848E+01  0.0000000000000E+00
 0.6326422492262E+00 -0.3643622132809E+01  0.0000000000000E+00
 0.6326517325033E+00 -0.3571091168537E+01  0.0000000000000E+00
 0.6326612158642E+00 -0.3498559563925E+01  0.0000000000000E+00
 0.6326706990666E+00 -0.3426029171205E+01  0.0000000000000E+00
 0.6326801823494E+00 -0.3353498163249E+01  0.0000000000000E+00
 0.6326896656219E+00 -0.3280967234769E+01  0.0000000000000E+00
 0.6326991488823E+00 -0.3208436398670E+01  0.0000000000000E+00
 0.6327086321474E+00 -0.3135905525971E+01  0.0000000000000E+00
 0.6327181154168E+00 -0.3063374620834E+01  0.0000000000000E+00
 0.6327387291340E+00 -0.2990843653288E+01  0.0000000000000E+00
 0.6328421635227E+00 -0.2918312915727E+01  0.0000000000000E+00
 0.6331279643934E+00 -0.2845783745801E+01  0.0000000000000E+00
 0.6336868746610E+00 -0.2773259418471E+01  0.0000000000000E+00
 0.6345856888113E+00 -0.2700745616872E+01  0.0000000000000E+00
 0.6358672469395E+00 -0.2628249485287E+01  0.0000000000000E+00
 0.6375589412693E+00 -0.2555779355998E+01  0.0000000000000E+00
 0.6396825402943E+00 -0.2483344214070E+01  0.0000000000000E+00
 0.6422626702039E+00 -0.2410954774905E+01  0.0000000000000E+00
 0.6453332086857E+00 -0.2338624624854E+01  0.0000000000000E+00
 0.6488922499460E+00 -0.2266363576622E+01  0.0000000000000E+00
 0.6528901297038E+00 -0.2194173388147E+01  0.0000000000000E+00
 0.6572913943814E+00 -0.2122055737301E+01  0.0000000000000E+00
 0.6620754243999E+00 -0.2050013402840E+01  0.0000000000000E+00
 0.6672354909085E+00 -0.1978051286727E+01  0.0000000000000E+00
 0.6727819205084E+00 -0.1906178286488E+01  0.0000000000000E+00
 0.6787562414707E+00 -0.1834411610816E+01  0.0000000000000E+00
 0.6600115349916E+00 -0.4659124038777E+01  0.0000000000000E+00
 0.6600230699592E+00 -0.4586661102889E+01  0.0000000000000E+00
 0.6600346049976E+00 -0.4514197722017E+01  0.0000000000000E+00
 0.6600461400037E+00 -0.4441734544296E+01  0.0000000000000E+00
 0.6600576750075E+00 -0.4369271380984E+01  0.0000000000000E+00
 0.6600692100156E+00 -0.4296808190443E+01  0.0000000000000E+00
 0.6600807450169E+00 -0.4224345042731E+01  0.0000000000000E+00
 0.6600922800224E+00 -0.4151881868453E+01  0.0000000000000E+00
 0.6601038150271E+00 -0.4079418699498E+01  0.0000000000000E+00
 0.6601153500305E+00 -0.4006955538544E+01  0.0000000000000E+00
 0.6601268850364E+00 -0.3934492362423E+01  0.0000000000000E+00
 0.6601384200384E+00 -0.3862029210066E+01  0.0000000000000E+00
 0.6601499550455E+00 -0.3789566026083E+01  0.0000000000000E+00
 0.6601614900620E+00 -0.3717102782983E+01  0.0000000000000E+00
 0.6601730250752E+00 -0.3644639560506E+01  0.0000000000000E+00
 0.6601845600746E+00 -0.3572176424713E+01  0.0000000000000E+00
 0.6601960951758E+00 -0.3499712649181E+01  0.0000000000000E+00
 0.6602076300843E+00 -0.3427250084407E+01  0.0000000000000E+00
 0.6602191650907E+00 -0.3354786904972E+01  0.0000000000000E+00
 0.6602307000844E+00 -0.3282323804938E+01  0.0000000000000E+00
 0.6602422350634E+00 -0.3209860797199E+01  0.0000000000000E+00
 0.6602537700482E+00 -0.3137397752895E+01  0.0000000000000E+00
 0.6602653050382E+00 -0.3064934676183E+01  0.0000000000000E+00
 0.6602884557744E+00 -0.2992471537122E+01  0.0000000000000E+00
 0.6603980382323E+00 -0.2920008628006E+01  0.0000000000000E+00
 0.6606979385021E+00 -0.2847547286406E+01  0.0000000000000E+00
 0.6612828559686E+00 -0.2775090787378E+01  0.0000000000000E+00
 0.6622224974123E+00 -0.2702644814005E+01  0.0000000000000E+00
 0.6635615707948E+00 -0.2630216510647E+01  0.0000000000000E+00
 0.6653286626613E+00 -0.2557814209481E+01  0.0000000000000E+00
 0.6675464906339E+00 -0.2485446895735E+01  0.0000000000000E+00
 0.6702407546242E+00 -0.2413125284793E+01  0.0000000000000E+00
 0.6734468094109E+00 -0.2340862962804E+01  0.0000000000000E+00
 0.6771626661118E+00 -0.2268669742713E+01  0.0000000000000E+00
 0.6813364950413E+00 -0.2196547382455E+01  0.0000000000000E+00
 0.6859312968146E+00 -0.2124497559855E+01  0.0000000000000E+00
 0.6909255528227E+00 -0.2052523053717E+01  0.0000000000000E+00
 0.6963122408314E+00 -0.1980628765997E+01  0.0000000000000E+00
 0.7021021376845E+00 -0.1908823593990E+01  0.0000000000000E+00
 0.7083385823212E+00 -0.1837124746394E+01  0.0000000000000E+00
 0.6875133142182E+00 -0.4659194733517E+01  0.0000000000000E+00
 0.6875266284087E+00 -0.4586802492222E+01  0.0000000000000E+00
 0.6875399426809E+00 -0.4514409806377E+01  0.0000000000000E+00
 0.6875532569158E+00 -0.4442017323484E+01  0.0000000000000E+00
 0.6875665711481E+00 -0.4369624854987E+01  0.0000000000000E+00
 0.6875798853854E+00 -0.4297232359288E+01  0.0000000000000E+00
 0.6875931996148E+00 -0.4224839906374E+01  0.0000000000000E+00
 0.6876065138490E+00 -0.4152447426922E+01  0.0000000000000E+00
 0.6876198280823E+00 -0.4080054952788E+01  0.0000000000000E+00
 0.6876331423142E+00 -0.4007662486646E+01  0.0000000000000E+00
 0.6876464565488E+00 -0.3935270005352E+01  0.0000000000000E+00
 0.6876597707790E+00 -0.3862877547799E+01  0.0000000000000E+00
 0.6876730850151E+00 -0.3790485058651E+01  0.0000000000000E+00
 0.6876863992620E+00 -0.3718092510443E+01  0.0000000000000E+00
 0.6876997135052E+00 -0.3645699982838E+01  0.0000000000000E+00
 0.6877130277324E+00 -0.3573307541834E+01  0.0000000000000E+00
 0.6877263420771E+00 -0.3500914461714E+01  0.0000000000000E+00
 0.6877396561994E+00 -0.3428522591170E+01  0.0000000000000E+00
 0.6877529704346E+00 -0.3356130106565E+01  0.0000000000000E+00
 0.6877662846553E+00 -0.3283737701285E+01  0.0000000000000E+00
 0.6877795988589E+00 -0.3211345388209E+01  0.0000000000000E+00
 0.6877929130693E+00 -0.3138953038603E+01  0.0000000000000E+00
 0.6878062272857E+00 -0.3066560656621E+01  0.0000000000000E+00
 0.6878316425464E+00 -0.2994168212354E+01  0.0000000000000E+00
 0.6879471005793E+00 -0.2921775997988E+01  0.0000000000000E+00
 0.6882608277547E+00 -0.2849385351017E+01  0.0000000000000E+00
 0.6888714799273E+00 -0.2776999546590E+01  0.0000000000000E+00
 0.6898516761724E+00 -0.2704624267741E+01  0.0000000000000E+00
 0.6912479923176E+00 -0.2632266658906E+01  0.0000000000000E+00
 0.6930902092303E+00 -0.2559935052156E+01  0.0000000000000E+00
 0.6954019936605E+00 -0.2487638432887E+01  0.0000000000000E+00
 0.6982101192422E+00 -0.2415387516464E+01  0.0000000000000E+00
 0.7015514178457E+00 -0.2343195888828E+01  0.0000000000000E+00
 0.7054238174997E+00 -0.2271073363171E+01  0.0000000000000E+00
 0.7097733231136E+00 -0.2199021697426E+01  0.0000000000000E+00
 0.7145613894959E+00 -0.2127042569371E+01  0.0000000000000E+00
 0.7197655990073E+00 -0.2055138757856E+01  0.0000000000000E+00
 0.7253786360298E+00 -0.1983315164833E+01  0.0000000000000E+00
 0.7314117276514E+00 -0.1911580687357E+01  0.0000000000000E+00
 0.7379100234788E+00 -0.1839952534126E+01  0.0000000000000E+00
 0.7150148100149E+00 -0.4659268290191E+01  0.0000000000000E+00
 0.7150296199990E+00 -0.4586949605417E+01  0.0000000000000E+00
 0.7150444300741E+00 -0.4514630476544E+01  0.0000000000000E+00
 0.7150592401076E+00 -0.4442311550418E+01  0.0000000000000E+00
 0.7150740501382E+00 -0.4369992638672E+01  0.0000000000000E+00
 0.7150888601743E+00 -0.4297673699752E+01  0.0000000000000E+00
 0.7151036702017E+00 -0.4225354803575E+01  0.0000000000000E+00
 0.7151184802345E+00 -0.4153035880886E+01  0.0000000000000E+00
 0.7151332902662E+00 -0.4080716963508E+01  0.0000000000000E+00
 0.7151481002963E+00 -0.4008398054116E+01  0.0000000000000E+00
 0.7151629103295E+00 -0.3936079129587E+01  0.0000000000000E+00
 0.7151777203579E+00 -0.3863760228774E+01  0.0000000000000E+00
 0.7151925303927E+00 -0.3791441296399E+01  0.0000000000000E+00
 0.7152073404395E+00 -0.3719122305024E+01  0.0000000000000E+00
 0.7152221504822E+00 -0.3646803334230E+01  0.0000000000000E+00
 0.7152369605072E+00 -0.3574484449950E+01  0.0000000000000E+00
 0.7152517706629E+00 -0.3502164927202E+01  0.0000000000000E+00
 0.7152665805711E+00 -0.3429846612803E+01  0.0000000000000E+00
 0.7152813906050E+00 -0.3357527684966E+01  0.0000000000000E+00
 0.7152962006226E+00 -0.3285208836373E+01  0.0000000000000E+00
 0.7153110106214E+00 -0.3212890079891E+01  0.0000000000000E+00
 0.7153258206276E+00 -0.3140571286916E+01  0.0000000000000E+00
 0.7153406306405E+00 -0.3068252461598E+01  0.0000000000000E+00
 0.7153680269957E+00 -0.2995933574060E+01  0.0000000000000E+00
 0.7154890771739E+00 -0.2923614916380E+01  0.0000000000000E+00
 0.7158163478261E+00 -0.2851297825966E+01  0.0000000000000E+00
 0.7164524512764E+00 -0.2778985578070E+01  0.0000000000000E+00
 0.7174729188955E+00 -0.2706683855668E+01  0.0000000000000E+00
 0.7189261943769E+00 -0.2634399803283E+01  0.0000000000000E+00
 0.7208432529104E+00 -0.2562141752869E+01  0.0000000000000E+00
 0.7232487103733E+00 -0.2489918690001E+01  0.0000000000000E+00
 0.7261704141222E+00 -0.2417741330022E+01  0.0000000000000E+00
 0.7296466731201E+00 -0.2345623258656E+01  0.0000000000000E+00
 0.7336753323051E+00 -0.2273574289355E+01  0.0000000000000E+00
 0.7382002311820E+00 -0.2201596180048E+01  0.0000000000000E+00
 0.7431812787523E+00 -0.2129690608463E+01  0.0000000000000E+00
 0.7485951583465E+00 -0.2057860353502E+01  0.0000000000000E+00
 0.7544342609629E+00 -0.1986110317108E+01  0.0000000000000E+00
 0.7607102639342E+00 -0.1914449396087E+01  0.0000000000000E+00
 0.7674701275352E+00 -0.1842894799141E+01  0.0000000000000E+00
 0.7425160112565E+00 -0.4659344704234E+01  0.0000000000000E+00
 0.7425320224796E+00 -0.4587102433343E+01  0.0000000000000E+00
 0.7425480338010E+00 -0.4514859718823E+01  0.0000000000000E+00
 0.7425640450775E+00 -0.4442617206834E+01  0.0000000000000E+00
 0.7425800563509E+00 -0.4370374709212E+01  0.0000000000000E+00
 0.7425960676302E+00 -0.4298132184444E+01  0.0000000000000E+00
 0.7426120789002E+00 -0.4225889702373E+01  0.0000000000000E+00
 0.7426280901759E+00 -0.4153647193819E+01  0.0000000000000E+00
 0.7426441014505E+00 -0.4081404690570E+01  0.0000000000000E+00
 0.7426601127234E+00 -0.4009162195299E+01  0.0000000000000E+00
 0.7426761239995E+00 -0.3936919684906E+01  0.0000000000000E+00
 0.7426921352705E+00 -0.3864677198205E+01  0.0000000000000E+00
 0.7427081465484E+00 -0.3792434679975E+01  0.0000000000000E+00
 0.7427241578394E+00 -0.3720192102807E+01  0.0000000000000E+00
 0.7427401691258E+00 -0.3647949546199E+01  0.0000000000000E+00
 0.7427561803931E+00 -0.3575707076013E+01  0.0000000000000E+00
 0.7427721918017E+00 -0.3503463968034E+01  0.0000000000000E+00
 0.7427882029428E+00 -0.3431222067126E+01  0.0000000000000E+00
 0.7428042142197E+00 -0.3358979553430E+01  0.0000000000000E+00
 0.7428202254791E+00 -0.3286737118893E+01  0.0000000000000E+00
 0.7428362367181E+00 -0.3214494776370E+01  0.0000000000000E+00
 0.7428522479651E+00 -0.3142252397393E+01  0.0000000000000E+00
 0.7428682592193E+00 -0.3070009986107E+01  0.0000000000000E+00
 0.7428973421134E+00 -0.2997767512669E+01  0.0000000000000E+00
 0.7430236898812E+00 -0.2925525269043E+01  0.0000000000000E+00
 0.7433642094537E+00 -0.2853284592550E+01  0.0000000000000E+00
 0.7440254696239E+00 -0.2781048758547E+01  0.0000000000000E+00
 0.7450859140576E+00 -0.2708823449953E+01  0.0000000000000E+00
 0.7465958543135E+00 -0.2636615811377E+01  0.0000000000000E+00
 0.7485874599040E+00 -0.2564434174655E+01  0.0000000000000E+00
 0.7510862958333E+00 -0.2492287525545E+01  0.0000000000000E+00
 0.7541212831801E+00 -0.2420186579370E+01  0.0000000000000E+00
 0.7577322080008E+00 -0.2348144921627E+01  0.0000000000000E+00
 0.7619168321423E+00 -0.2276172366038E+01  0.0000000000000E+00
 0.7666168297047E+00 -0.2204270670529E+01  0.0000000000000E+00
 0.7717905638831E+00 -0.2132441512775E+01  0.0000000000000E+00
 0.7774138189777E+00 -0.2060687671731E+01  0.0000000000000E+00
 0.7834786926029E+00 -0.1989014049333E+01  0.0000000000000E+00
 0.7899973123374E+00 -0.1917429542126E+01  0.0000000000000E+00
 0.7970184491235E+00 -0.1845951358818E+01  0.0000000000000E+00
 0.7700169072712E+00 -0.4659423970956E+01  0.0000000000000E+00
 0.7700338145071E+00 -0.4587260966622E+01  0.0000000000000E+00
 0.7700507218469E+00 -0.4515097519146E+01  0.0000000000000E+00
 0.7700676291392E+00 -0.4442934273980E+01  0.0000000000000E+00
 0.7700845364282E+00 -0.4370771043164E+01  0.0000000000000E+00
 0.7701014437236E+00 -0.4298607785231E+01  0.0000000000000E+00
 0.7701183510089E+00 -0.4226444569949E+01  0.0000000000000E+00
 0.7701352583005E+00 -0.4154281328213E+01  0.0000000000000E+00
 0.7701521655908E+00 -0.4082118091776E+01  0.0000000000000E+00
 0.7701690728792E+00 -0.4009954863308E+01  0.0000000000000E+00
 0.7701859801712E+00 -0.3937791619736E+01  0.0000000000000E+00
 0.7702028874577E+00 -0.3865628399829E+01  0.0000000000000E+00
 0.7702197947515E+00 -0.3793465148427E+01  0.0000000000000E+00
 0.7702367020591E+00 -0.3721301838152E+01  0.0000000000000E+00
 0.7702536093619E+00 -0.3649138548415E+01  0.0000000000000E+00
 0.7702705166445E+00 -0.3576975345005E+01  0.0000000000000E+00
 0.7702874240763E+00 -0.3504811504502E+01  0.0000000000000E+00
 0.7703043312257E+00 -0.3432648869745E+01  0.0000000000000E+00
 0.7703212385184E+00 -0.3360485622873E+01  0.0000000000000E+00
 0.7703381457926E+00 -0.3288322455072E+01  0.0000000000000E+00
 0.7703550530453E+00 -0.3216159379186E+01  0.0000000000000E+00
 0.7703719603066E+00 -0.3143996266884E+01  0.0000000000000E+00
 0.7703888675754E+00 -0.3071833122309E+01  0.0000000000000E+00
 0.7704193317813E+00 -0.2999669915654E+01  0.0000000000000E+00
 0.7705506719117E+00 -0.2927506938761E+01  0.0000000000000E+00
 0.7709041351781E+00 -0.2855345528865E+01  0.0000000000000E+00
 0.7715902468416E+00 -0.2783188961430E+01  0.0000000000000E+00
 0.7726903628635E+00 -0.2711042919314E+01  0.0000000000000E+00
 0.7742566626671E+00 -0.2638914547219E+01  0.0000000000000E+00
 0.7763225100882E+00 -0.2566812176855E+01  0.0000000000000E+00
 0.7789144192568E+00 -0.2494744794173E+01  0.0000000000000E+00
 0.7820623849740E+00 -0.2422723114472E+01  0.0000000000000E+00
 0.7858076703905E+00 -0.2350760723017E+01  0.0000000000000E+00
 0.7901479542606E+00 -0.2278867433808E+01  0.0000000000000E+00
 0.7950227452801E+00 -0.2207045004767E+01  0.0000000000000E+00
 0.8003888608380E+00 -0.2135295113515E+01  0.0000000000000E+00
 0.8062211862034E+00 -0.2063620539063E+01  0.0000000000000E+00
 0.8125115256075E+00 -0.1992026183340E+01  0.0000000000000E+00
 0.8192724568757E+00 -0.1920520942619E+01  0.0000000000000E+00
 0.8265545616180E+00 -0.1849122025614E+01  0.0000000000000E+00
 0.7975174873666E+00 -0.4659506085499E+01  0.0000000000000E+00
 0.7975349746967E+00 -0.4587425195538E+01  0.0000000000000E+00
 0.7975524621343E+00 -0.4515343862938E+01  0.0000000000000E+00
 0.7975699495228E+00 -0.4443262732417E+01  0.0000000000000E+00
 0.7975874369078E+00 -0.4371181616231E+01  0.0000000000000E+00
 0.7976049242994E+00 -0.4299100472959E+01  0.0000000000000E+00
 0.7976224116807E+00 -0.4227019372289E+01  0.0000000000000E+00
 0.7976398990684E+00 -0.4154938245195E+01  0.0000000000000E+00
 0.7976573864548E+00 -0.4082857123395E+01  0.0000000000000E+00
 0.7976748738393E+00 -0.4010776009554E+01  0.0000000000000E+00
 0.7976923612274E+00 -0.3938694880626E+01  0.0000000000000E+00
 0.7977098486098E+00 -0.3866613775336E+01  0.0000000000000E+00
 0.7977273359998E+00 -0.3794532638587E+01  0.0000000000000E+00
 0.7977448234041E+00 -0.3722451443033E+01  0.0000000000000E+00
 0.7977623108034E+00 -0.3650370267993E+01  0.0000000000000E+00
 0.7977797981818E+00 -0.3578289179181E+01  0.0000000000000E+00
 0.7977972857146E+00 -0.3506207454001E+01  0.0000000000000E+00
 0.7978147729552E+00 -0.3434126933196E+01  0.0000000000000E+00
 0.7978322603441E+00 -0.3362045800972E+01  0.0000000000000E+00
 0.7978497477139E+00 -0.3289964747730E+01  0.0000000000000E+00
 0.7978672350614E+00 -0.3217883786296E+01  0.0000000000000E+00
 0.7978847224177E+00 -0.3145802788489E+01  0.0000000000000E+00
 0.7979022097818E+00 -0.3073721758446E+01  0.0000000000000E+00
 0.7979337393802E+00 -0.3001640666396E+01  0.0000000000000E+00
 0.7980697559540E+00 -0.2929559804059E+01  0.0000000000000E+00
 0.7984358469961E+00 -0.2857480508576E+01  0.0000000000000E+00
 0.7991464942352E+00 -0.2785406055523E+01  0.0000000000000E+00
 0.8002859659286E+00 -0.2713342127699E+01  0.0000000000000E+00
 0.8019083093641E+00 -0.2641295869896E+01  0.0000000000000E+00
 0.8040480827013E+00 -0.2569275613697E+01  0.0000000000000E+00
 0.8067327491951E+00 -0.2497290345253E+01  0.0000000000000E+00
 0.8099933773693E+00 -0.2425350779840E+01  0.0000000000000E+00
 0.8138727074699E+00 -0.2353470502477E+01  0.0000000000000E+00
 0.8183683351576E+00 -0.2281659327455E+01  0.0000000000000E+00
 0.8234176037235E+00 -0.2209919012694E+01  0.0000000000000E+00
 0.8289757847507E+00 -0.2138251235758E+01  0.0000000000000E+00
 0.8350168644774E+00 -0.2066658775715E+01  0.0000000000000E+00
 0.8415323537512E+00 -0.1995146534484E+01  0.0000000000000E+00
 0.8485352806454E+00 -0.1923723408063E+01  0.0000000000000E+00
 0.8560780374376E+00 -0.1852406605166E+01  0.0000000000000E+00
 0.8250177408470E+00 -0.4659591042836E+01  0.0000000000000E+00
 0.8250354816571E+00 -0.4587595110033E+01  0.0000000000000E+00
 0.8250532225761E+00 -0.4515598735114E+01  0.0000000000000E+00
 0.8250709634454E+00 -0.4443602562037E+01  0.0000000000000E+00
 0.8250887043112E+00 -0.4371606403276E+01  0.0000000000000E+00
 0.8251064451836E+00 -0.4299610217462E+01  0.0000000000000E+00
 0.8251241860456E+00 -0.4227614074200E+01  0.0000000000000E+00
 0.8251419269140E+00 -0.4155617904545E+01  0.0000000000000E+00
 0.8251596677812E+00 -0.4083621740177E+01  0.0000000000000E+00
 0.8251774086463E+00 -0.4011625583759E+01  0.0000000000000E+00
 0.8251951495152E+00 -0.3939629412272E+01  0.0000000000000E+00
 0.8252128903783E+00 -0.3867633264395E+01  0.0000000000000E+00
 0.8252306312491E+00 -0.3795637085097E+01  0.0000000000000E+00
 0.8252483721344E+00 -0.3723640847062E+01  0.0000000000000E+00
 0.8252661130147E+00 -0.3651644629517E+01  0.0000000000000E+00
 0.8252838538737E+00 -0.3579648498099E+01  0.0000000000000E+00
 0.8253015948893E+00 -0.3507651731063E+01  0.0000000000000E+00
 0.8253193356086E+00 -0.3435656166982E+01  0.0000000000000E+00
 0.8253370764783E+00 -0.3363659992202E+01  0.0000000000000E+00
 0.8253548173285E+00 -0.3291663896312E+01  0.0000000000000E+00
 0.8253725581562E+00 -0.3219667892122E+01  0.0000000000000E+00
 0.8253902989928E+00 -0.3147671851602E+01  0.0000000000000E+00
 0.8254080398374E+00 -0.3075675778883E+01  0.0000000000000E+00
 0.8254403082130E+00 -0.3003679644234E+01  0.0000000000000E+00
 0.8255806746155E+00 -0.2931683739246E+01  0.0000000000000E+00
 0.8259590668194E+00 -0.2859689400964E+01  0.0000000000000E+00
 0.8266939230211E+00 -0.2787699905082E+01  0.0000000000000E+00
 0.8278724237742E+00 -0.2715720934332E+01  0.0000000000000E+00
 0.8295504842306E+00 -0.2643759633606E+01  0.0000000000000E+00
 0.8317638568742E+00 -0.2571824334354E+01  0.0000000000000E+00
 0.8345409540844E+00 -0.2499924022930E+01  0.0000000000000E+00
 0.8379139181077E+00 -0.2428069414587E+01  0.0000000000000E+00
 0.8419269662863E+00 -0.2356274094095E+01  0.0000000000000E+00
 0.8465776111862E+00 -0.2284547876042E+01  0.0000000000000E+00
 0.8518010306940E+00 -0.2212892518345E+01  0.0000000000000E+00
 0.8575509505866E+00 -0.2141309698510E+01  0.0000000000000E+00
 0.8638004580713E+00 -0.2069802195663E+01  0.0000000000000E+00
 0.8705407706120E+00 -0.1998374911717E+01  0.0000000000000E+00
 0.8777853665310E+00 -0.1927036742379E+01  0.0000000000000E+00
 0.8855884487738E+00 -0.1855804896368E+01  0.0000000000000E+00
 0.8525176570821E+00 -0.4659678837778E+01  0.0000000000000E+00
 0.8525353141273E+00 -0.4587770699734E+01  0.0000000000000E+00
 0.8525529712811E+00 -0.4515862120114E+01  0.0000000000000E+00
 0.8525706283853E+00 -0.4443953742088E+01  0.0000000000000E+00
 0.8525882854860E+00 -0.4372045378363E+01  0.0000000000000E+00
 0.8526059425933E+00 -0.4300136987617E+01  0.0000000000000E+00
 0.8526235996902E+00 -0.4228228639370E+01  0.0000000000000E+00
 0.8526412567936E+00 -0.4156320264763E+01  0.0000000000000E+00
 0.8526589138956E+00 -0.4084411895437E+01  0.0000000000000E+00
 0.8526765709957E+00 -0.4012503534050E+01  0.0000000000000E+00
 0.8526942280996E+00 -0.3940595157614E+01  0.0000000000000E+00
 0.8527118851976E+00 -0.3868686804758E+01  0.0000000000000E+00
 0.8527295423033E+00 -0.3796778420520E+01  0.0000000000000E+00
 0.8527471994235E+00 -0.3724869977616E+01  0.0000000000000E+00
 0.8527648565386E+00 -0.3652961555178E+01  0.0000000000000E+00
 0.8527825136326E+00 -0.3581053218760E+01  0.0000000000000E+00
 0.8528001708824E+00 -0.3509144247501E+01  0.0000000000000E+00
 0.8528178278373E+00 -0.3437236477730E+01  0.0000000000000E+00
 0.8528354849419E+00 -0.3365328098005E+01  0.0000000000000E+00
 0.8528531420272E+00 -0.3293419797072E+01  0.0000000000000E+00
 0.8528707990900E+00 -0.3221511587729E+01  0.0000000000000E+00
 0.8528884561617E+00 -0.3149603342098E+01  0.0000000000000E+00
 0.8529061132413E+00 -0.3077695064310E+01  0.0000000000000E+00
 0.8529387831484E+00 -0.3005786724669E+01  0.0000000000000E+00
 0.8530831621344E+00 -0.2933878614636E+01  0.0000000000000E+00
 0.8534735182559E+00 -0.2861972071157E+01  0.0000000000000E+00
 0.8542322461771E+00 -0.2790070370046E+01  0.0000000000000E+00
 0.8554494387479E+00 -0.2718179193968E+01  0.0000000000000E+00
 0.8571828789842E+00 -0.2646305687916E+01  0.0000000000000E+00
 0.8594695136951E+00 -0.2574458183202E+01  0.0000000000000E+00
 0.8623387043834E+00 -0.2502645666394E+01  0.0000000000000E+00
 0.8658236670186E+00 -0.2430878852720E+01  0.0000000000000E+00
 0.8699700960402E+00 -0.2359171326688E+01  0.0000000000000E+00
 0.8747754209183E+00 -0.2287532903197E+01  0.0000000000000E+00
 0.8801726541347E+00 -0.2215965340160E+01  0.0000000000000E+00
 0.8861139756606E+00 -0.2144470315024E+01  0.0000000000000E+00
 0.8925715736717E+00 -0.2073050606976E+01  0.0000000000000E+00
 0.8995363722484E+00 -0.2001711117918E+01  0.0000000000000E+00
 0.9070222999633E+00 -0.1930460743261E+01  0.0000000000000E+00
 0.9150853704297E+00 -0.1859316691727E+01  0.0000000000000E+00
 0.8800172252787E+00 -0.4659769464950E+01  0.0000000000000E+00
 0.8800344505215E+00 -0.4587951953890E+01  0.0000000000000E+00
 0.8800516758700E+00 -0.4516134001809E+01  0.0000000000000E+00
 0.8800689011703E+00 -0.4444316251069E+01  0.0000000000000E+00
 0.8800861264672E+00 -0.4372498514612E+01  0.0000000000000E+00
 0.8801033517705E+00 -0.4300680751167E+01  0.0000000000000E+00
 0.8801205770637E+00 -0.4228863030169E+01  0.0000000000000E+00
 0.8801378023631E+00 -0.4157045282843E+01  0.0000000000000E+00
 0.8801550276613E+00 -0.4085227540792E+01  0.0000000000000E+00
 0.8801722529576E+00 -0.4013409806670E+01  0.0000000000000E+00
 0.8801894782575E+00 -0.3941592057517E+01  0.0000000000000E+00
 0.8802067035518E+00 -0.3869774331916E+01  0.0000000000000E+00
 0.8802239288535E+00 -0.3797956574971E+01  0.0000000000000E+00
 0.8802411541693E+00 -0.3726138759435E+01  0.0000000000000E+00
 0.8802583794803E+00 -0.3654320964338E+01  0.0000000000000E+00
 0.8802756047706E+00 -0.3582503255154E+01  0.0000000000000E+00
 0.8802928302130E+00 -0.3510684911929E+01  0.0000000000000E+00
 0.8803100553675E+00 -0.3438867768677E+01  0.0000000000000E+00
 0.8803272806682E+00 -0.3367050016239E+01  0.0000000000000E+00
 0.8803445059500E+00 -0.3295232342495E+01  0.0000000000000E+00
 0.8803617312099E+00 -0.3223414760225E+01  0.0000000000000E+00
 0.8803789564785E+00 -0.3151597141714E+01  0.0000000000000E+00
 0.8803961817547E+00 -0.3079779491084E+01  0.0000000000000E+00
 0.8804289051548E+00 -0.3007961778684E+01  0.0000000000000E+00
 0.8805769486853E+00 -0.2936144295837E+01  0.0000000000000E+00
 0.8809789206855E+00 -0.2864328379386E+01  0.0000000000000E+00
 0.8817611722860E+00 -0.2792517305270E+01  0.0000000000000E+00
 0.8830167086335E+00 -0.2720716756086E+01  0.0000000000000E+00
 0.8848051806072E+00 -0.2648933876929E+01  0.0000000000000E+00
 0.8871647293415E+00 -0.2577176998972E+01  0.0000000000000E+00
 0.8901256654619E+00 -0.2505455108999E+01  0.0000000000000E+00
 0.8937222786608E+00 -0.2433778922213E+01  0.0000000000000E+00
 0.8980017404761E+00 -0.2362162022856E+01  0.0000000000000E+00
 0.9029613972806E+00 -0.2290614226146E+01  0.0000000000000E+00
 0.9085320961515E+00 -0.2219137289990E+01  0.0000000000000E+00
 0.9146644712548E+00 -0.2147732891775E+01  0.0000000000000E+00
 0.9213298117345E+00 -0.2076403810750E+01  0.0000000000000E+00
 0.9285187482873E+00 -0.2005154948809E+01  0.0000000000000E+00
 0.9362456597375E+00 -0.1933995201054E+01  0.0000000000000E+00
 0.9445683703660E+00 -0.1862941776213E+01  0.0000000000000E+00
 0.9075164349346E+00 -0.4659862918846E+01  0.0000000000000E+00
 0.9075328698350E+00 -0.4588138861488E+01  0.0000000000000E+00
 0.9075493048363E+00 -0.4516414363684E+01  0.0000000000000E+00
 0.9075657397915E+00 -0.4444690066958E+01  0.0000000000000E+00
 0.9075821747434E+00 -0.4372965784495E+01  0.0000000000000E+00
 0.9075986097015E+00 -0.4301241475081E+01  0.0000000000000E+00
 0.9076150446499E+00 -0.4229517208058E+01  0.0000000000000E+00
 0.9076314796044E+00 -0.4157792914741E+01  0.0000000000000E+00
 0.9076479145576E+00 -0.4086068626692E+01  0.0000000000000E+00
 0.9076643495090E+00 -0.4014344346563E+01  0.0000000000000E+00
 0.9076807844639E+00 -0.3942620051422E+01  0.0000000000000E+00
 0.9076972194133E+00 -0.3870895779802E+01  0.0000000000000E+00
 0.9077136543699E+00 -0.3799171476878E+01  0.0000000000000E+00
 0.9077300893400E+00 -0.3727447115440E+01  0.0000000000000E+00
 0.9077465243053E+00 -0.3655722774415E+01  0.0000000000000E+00
 0.9077629592511E+00 -0.3583998519191E+01  0.0000000000000E+00
 0.9077793943419E+00 -0.3512273630750E+01  0.0000000000000E+00
 0.9077958291580E+00 -0.3440549940721E+01  0.0000000000000E+00
 0.9078122641136E+00 -0.3368825642300E+01  0.0000000000000E+00
 0.9078286990512E+00 -0.3297101422470E+01  0.0000000000000E+00
 0.9078451339679E+00 -0.3225377293994E+01  0.0000000000000E+00
 0.9078615688929E+00 -0.3153653129324E+01  0.0000000000000E+00
 0.9078780038252E+00 -0.3081928932578E+01  0.0000000000000E+00
 0.9079104221770E+00 -0.3010204674146E+01  0.0000000000000E+00
 0.9080617717110E+00 -0.2938480645209E+01  0.0000000000000E+00
 0.9084750010487E+00 -0.2866758182507E+01  0.0000000000000E+00
 0.9092804177864E+00 -0.2795040562104E+01  0.0000000000000E+00
 0.9105739393675E+00 -0.2723333466530E+01  0.0000000000000E+00
 0.9124170845339E+00 -0.2651644040984E+01  0.0000000000000E+00
 0.9148491887460E+00 -0.2579980616494E+01  0.0000000000000E+00
 0.9179015117509E+00 -0.2508352180070E+01  0.0000000000000E+00
 0.9216094169639E+00 -0.2436769446890E+01  0.0000000000000E+00
 0.9260215530222E+00 -0.2365246000917E+01  0.0000000000000E+00
 0.9311351832001E+00 -0.2293791657698E+01  0.0000000000000E+00
 0.9368789891704E+00 -0.2222408175140E+01  0.0000000000000E+00
 0.9432020592942E+00 -0.2151097230562E+01  0.0000000000000E+00
 0.9500747836836E+00 -0.2079861603281E+01  0.0000000000000E+00
 0.9574874996521E+00 -0.2008706195179E+01  0.0000000000000E+00
 0.9654550362763E+00 -0.1937639901043E+01  0.0000000000000E+00
 0.9740370285046E+00 -0.1866679929603E+01  0.0000000000000E+00
 0.9350152758224E+00 -0.4659959193836E+01  0.0000000000000E+00
 0.9350305516130E+00 -0.4588331411267E+01  0.0000000000000E+00
 0.9350458274974E+00 -0.4516703188842E+01  0.0000000000000E+00
 0.9350611033390E+00 -0.4445075167227E+01  0.0000000000000E+00
 0.9350763791775E+00 -0.4373447159855E+01  0.0000000000000E+00
 0.9350916550218E+00 -0.4301819125568E+01  0.0000000000000E+00
 0.9351069308570E+00 -0.4230191133616E+01  0.0000000000000E+00
 0.9351222066979E+00 -0.4158563115405E+01  0.0000000000000E+00
 0.9351374825376E+00 -0.4086935102455E+01  0.0000000000000E+00
 0.9351527583756E+00 -0.4015307097413E+01  0.0000000000000E+00
 0.9351680342168E+00 -0.3943679077380E+01  0.0000000000000E+00
 0.9351833100531E+00 -0.3872051080837E+01  0.0000000000000E+00
 0.9351985858960E+00 -0.3800423053032E+01  0.0000000000000E+00
 0.9352138617513E+00 -0.3728794966791E+01  0.0000000000000E+00
 0.9352291376023E+00 -0.3657166900936E+01  0.0000000000000E+00
 0.9352444134350E+00 -0.3585538920767E+01  0.0000000000000E+00
 0.9352596894026E+00 -0.3513910308230E+01  0.0000000000000E+00
 0.9352749651150E+00 -0.3442282892497E+01  0.0000000000000E+00
 0.9352902409569E+00 -0.3370654869188E+01  0.0000000000000E+00
 0.9353055167821E+00 -0.3299026924365E+01  0.0000000000000E+00
 0.9353207925879E+00 -0.3227399070774E+01  0.0000000000000E+00
 0.9353360684013E+00 -0.3155771181037E+01  0.0000000000000E+00
 0.9353513442216E+00 -0.3084143259268E+01  0.0000000000000E+00
 0.9353830887569E+00 -0.3012515275898E+01  0.0000000000000E+00
 0.9355373755264E+00 -0.2940887521964E+01  0.0000000000000E+00
 0.9359614934350E+00 -0.2869261334099E+01  0.0000000000000E+00
 0.9367897065442E+00 -0.2797639988499E+01  0.0000000000000E+00
 0.9381208445946E+00 -0.2726029167618E+01  0.0000000000000E+00
 0.9400182941908E+00 -0.2654436016767E+01  0.0000000000000E+00
 0.9425225851194E+00 -0.2582868866825E+01  0.0000000000000E+00
 0.9456659262486E+00 -0.2511336705033E+01  0.0000000000000E+00
 0.9494847547168E+00 -0.2439850246541E+01  0.0000000000000E+00
 0.9540291962613E+00 -0.2368423075029E+01  0.0000000000000E+00
 0.9592964310570E+00 -0.2297065006384E+01  0.0000000000000E+00
 0.9652129753722E+00 -0.2225777798506E+01  0.0000000000000E+00
 0.9717263717630E+00 -0.2154563128652E+01  0.0000000000000E+00
 0.9788061113094E+00 -0.2083423776202E+01  0.0000000000000E+00
 0.9864422379415E+00 -0.2012364643031E+01  0.0000000000000E+00
 0.9946500309898E+00 -0.1941394623598E+01  0.0000000000000E+00
 0.1003490936070E+01 -0.1870530926638E+01  0.0000000000000E+00
 0.9625137375899E+00 -0.4660058284109E+01  0.0000000000000E+00
 0.9625274751513E+00 -0.4588529591607E+01  0.0000000000000E+00
 0.9625412127970E+00 -0.4517000459858E+01  0.0000000000000E+00
 0.9625549504041E+00 -0.4445471528639E+01  0.0000000000000E+00
 0.9625686880086E+00 -0.4373942611646E+01  0.0000000000000E+00
 0.9625824256182E+00 -0.4302413667774E+01  0.0000000000000E+00
 0.9625961632197E+00 -0.4230884766178E+01  0.0000000000000E+00
 0.9626099008262E+00 -0.4159355838359E+01  0.0000000000000E+00
 0.9626236384317E+00 -0.4087826915795E+01  0.0000000000000E+00
 0.9626373760357E+00 -0.4016298001128E+01  0.0000000000000E+00
 0.9626511136426E+00 -0.3944769071490E+01  0.0000000000000E+00
 0.9626648512449E+00 -0.3873240165310E+01  0.0000000000000E+00
 0.9626785888533E+00 -0.3801711227911E+01  0.0000000000000E+00
 0.9626923264728E+00 -0.3730182232157E+01  0.0000000000000E+00
 0.9627060640885E+00 -0.3658653256760E+01  0.0000000000000E+00
 0.9627198016877E+00 -0.3587124366931E+01  0.0000000000000E+00
 0.9627335394082E+00 -0.3515594845610E+01  0.0000000000000E+00
 0.9627472768992E+00 -0.3444066519436E+01  0.0000000000000E+00
 0.9627610145067E+00 -0.3372537586527E+01  0.0000000000000E+00
 0.9627747520991E+00 -0.3301008731995E+01  0.0000000000000E+00
 0.9627884896741E+00 -0.3229479968569E+01  0.0000000000000E+00
 0.9628022272560E+00 -0.3157951169047E+01  0.0000000000000E+00
 0.9628159648440E+00 -0.3086422337537E+01  0.0000000000000E+00
 0.9628466564423E+00 -0.3014893444515E+01  0.0000000000000E+00
 0.9630035013274E+00 -0.2943364780869E+01  0.0000000000000E+00
 0.9634381286881E+00 -0.2871837683121E+01  0.0000000000000E+00
 0.9642887590514E+00 -0.2800315427600E+01  0.0000000000000E+00
 0.9656571344553E+00 -0.2728803696687E+01  0.0000000000000E+00
 0.9676085093668E+00 -0.2657309635808E+01  0.0000000000000E+00
 0.9701846078996E+00 -0.2585841575683E+01  0.0000000000000E+00
 0.9734185880421E+00 -0.2514408503796E+01  0.0000000000000E+00
 0.9773479606558E+00 -0.2443021135268E+01  0.0000000000000E+00
 0.9820243285798E+00 -0.2371693053486E+01  0.0000000000000E+00
 0.9874447888878E+00 -0.2300434074685E+01  0.0000000000000E+00
 0.9935336924435E+00 -0.2229245956763E+01  0.0000000000000E+00
 0.1000237035998E+01 -0.2158130376907E+01  0.0000000000000E+00
 0.1007523411600E+01 -0.2087090114568E+01  0.0000000000000E+00
 0.1015382569795E+01 -0.2016130071610E+01  0.0000000000000E+00
 0.1023830240168E+01 -0.1945259142154E+01  0.0000000000000E+00
 0.1032929679005E+01 -0.1874494534943E+01  0.0000000000000E+00
 0.9900118099595E+00 -0.4660160183706E+01  0.0000000000000E+00
 0.9900236198944E+00 -0.4588733390588E+01  0.0000000000000E+00
 0.9900354299019E+00 -0.4517306158849E+01  0.0000000000000E+00
 0.9900472398762E+00 -0.4445879127356E+01  0.0000000000000E+00
 0.9900590498481E+00 -0.4374452110066E+01  0.0000000000000E+00
 0.9900708598246E+00 -0.4303025065937E+01  0.0000000000000E+00
 0.9900826697940E+00 -0.4231598064023E+01  0.0000000000000E+00
 0.9900944797677E+00 -0.4160171035925E+01  0.0000000000000E+00
 0.9901062897406E+00 -0.4088744013072E+01  0.0000000000000E+00
 0.9901180997122E+00 -0.4017316998107E+01  0.0000000000000E+00
 0.9901299096863E+00 -0.3945889968191E+01  0.0000000000000E+00
 0.9901417196565E+00 -0.3874462961699E+01  0.0000000000000E+00
 0.9901535296318E+00 -0.3803035924034E+01  0.0000000000000E+00
 0.9901653396168E+00 -0.3731608828097E+01  0.0000000000000E+00
 0.9901771495984E+00 -0.3660181752487E+01  0.0000000000000E+00
 0.9901889595659E+00 -0.3588754762324E+01  0.0000000000000E+00
 0.9902007696377E+00 -0.3517327141568E+01  0.0000000000000E+00
 0.9902125795121E+00 -0.3445900714257E+01  0.0000000000000E+00
 0.9902243894867E+00 -0.3374473681074E+01  0.0000000000000E+00
 0.9902361994483E+00 -0.3303046726158E+01  0.0000000000000E+00
 0.9902480093950E+00 -0.3231619862217E+01  0.0000000000000E+00
 0.9902598193475E+00 -0.3160192962233E+01  0.0000000000000E+00
 0.9902716293054E+00 -0.3088766030305E+01  0.0000000000000E+00
 0.9903008785684E+00 -0.3017339036957E+01  0.0000000000000E+00
 0.9904598921716E+00 -0.2945912272923E+01  0.0000000000000E+00
 0.9909046395882E+00 -0.2874487074610E+01  0.0000000000000E+00
 0.9917772978107E+00 -0.2803066718486E+01  0.0000000000000E+00
 0.9931825211753E+00 -0.2731656886858E+01  0.0000000000000E+00
 0.9951874320109E+00 -0.2660264725264E+01  0.0000000000000E+00
 0.9978349487592E+00 -0.2588898564268E+01  0.0000000000000E+00
 0.1001159178528E+01 -0.2517567391599E+01  0.0000000000000E+00
 0.1005198705901E+01 -0.2446281922349E+01  0.0000000000000E+00
 0.1010006610822E+01 -0.2375055739605E+01  0.0000000000000E+00
 0.1015579907262E+01 -0.2303898659960E+01  0.0000000000000E+00
 0.1021840780679E+01 -0.2232812441308E+01  0.0000000000000E+00
 0.1028733682020E+01 -0.2161798760767E+01  0.0000000000000E+00
 0.1036226304300E+01 -0.2090860397857E+01  0.0000000000000E+00
 0.1044308104682E+01 -0.2020002254434E+01  0.0000000000000E+00
 0.1052995263009E+01 -0.1949233224272E+01  0.0000000000000E+00
 0.1062352846232E+01 -0.1878570516118E+01  0.0000000000000E+00
 0.1017509482155E+01 -0.4660264886430E+01  0.0000000000000E+00
 0.1017518964290E+01 -0.4588942795818E+01  0.0000000000000E+00
 0.1017528446483E+01 -0.4517620267227E+01  0.0000000000000E+00
 0.1017537928650E+01 -0.4446297938589E+01  0.0000000000000E+00
 0.1017547410815E+01 -0.4374975624134E+01  0.0000000000000E+00
 0.1017556892983E+01 -0.4303653282878E+01  0.0000000000000E+00
 0.1017566375146E+01 -0.4232330983776E+01  0.0000000000000E+00
 0.1017575857312E+01 -0.4161008658528E+01  0.0000000000000E+00
 0.1017585339477E+01 -0.4089686338518E+01  0.0000000000000E+00
 0.1017594821642E+01 -0.4018364026383E+01  0.0000000000000E+00
 0.1017604303808E+01 -0.3947041699321E+01  0.0000000000000E+00
 0.1017613785972E+01 -0.3875719395647E+01  0.0000000000000E+00
 0.1017623268139E+01 -0.3804397060846E+01  0.0000000000000E+00
 0.1017632750314E+01 -0.3733074667859E+01  0.0000000000000E+00
 0.1017642232487E+01 -0.3661752295169E+01  0.0000000000000E+00
 0.1017651714648E+01 -0.3590430007800E+01  0.0000000000000E+00
 0.1017661196893E+01 -0.3519107090763E+01  0.0000000000000E+00
 0.1017670678979E+01 -0.3447785365421E+01  0.0000000000000E+00
 0.1017680161146E+01 -0.3376463035097E+01  0.0000000000000E+00
 0.1017689643303E+01 -0.3305140782923E+01  0.0000000000000E+00
 0.1017699125447E+01 -0.3233818621592E+01  0.0000000000000E+00
 0.1017708607596E+01 -0.3162496424270E+01  0.0000000000000E+00
 0.1017718089750E+01 -0.3091174195051E+01  0.0000000000000E+00
 0.1017745496503E+01 -0.3019851904506E+01  0.0000000000000E+00
 0.1017906278648E+01 -0.2948529843212E+01  0.0000000000000E+00
 0.1018360745944E+01 -0.2877209347457E+01  0.0000000000000E+00
 0.1019255031844E+01 -0.2805893693852E+01  0.0000000000000E+00
 0.1020696702984E+01 -0.2734588564626E+01  0.0000000000000E+00
 0.1022754749553E+01 -0.2663301105436E+01  0.0000000000000E+00
 0.1025473284322E+01 -0.2592039646683E+01  0.0000000000000E+00
 0.1028887363514E+01 -0.2520813176348E+01  0.0000000000000E+00
 0.1033036645440E+01 -0.2449632409496E+01  0.0000000000000E+00
 0.1037975687144E+01 -0.2378510928901E+01  0.0000000000000E+00
 0.1043701419494E+01 -0.2307458551527E+01  0.0000000000000E+00
 0.1050133862544E+01 -0.2236477035263E+01  0.0000000000000E+00
 0.1057215921438E+01 -0.2165568057156E+01  0.0000000000000E+00
 0.1064914390158E+01 -0.2094734396797E+01  0.0000000000000E+00
 0.1073218432483E+01 -0.2023980956034E+01  0.0000000000000E+00
 0.1082144678514E+01 -0.1953316628284E+01  0.0000000000000E+00
 0.1091760005868E+01 -0.1882758622300E+01  0.0000000000000E+00
 0.1045006744575E+01 -0.4660372386100E+01  0.0000000000000E+00
 0.1045013489135E+01 -0.4589157794934E+01  0.0000000000000E+00
 0.1045020233737E+01 -0.4517942766450E+01  0.0000000000000E+00
 0.1045026978321E+01 -0.4446727937617E+01  0.0000000000000E+00
 0.1045033722903E+01 -0.4375513122945E+01  0.0000000000000E+00
 0.1045040467487E+01 -0.4304298281514E+01  0.0000000000000E+00
 0.1045047212067E+01 -0.4233083482172E+01  0.0000000000000E+00
 0.1045053956650E+01 -0.4161868656724E+01  0.0000000000000E+00
 0.1045060701232E+01 -0.4090653836506E+01  0.0000000000000E+00
 0.1045067445814E+01 -0.4019439024151E+01  0.0000000000000E+00
 0.1045074190397E+01 -0.3948224196891E+01  0.0000000000000E+00
 0.1045080934978E+01 -0.3877009392985E+01  0.0000000000000E+00
 0.1045087679562E+01 -0.3805794557998E+01  0.0000000000000E+00
 0.1045094424151E+01 -0.3734579664913E+01  0.0000000000000E+00
 0.1045101168738E+01 -0.3663364792095E+01  0.0000000000000E+00
 0.1045107913318E+01 -0.3592150004468E+01  0.0000000000000E+00
 0.1045114657956E+01 -0.3520934588123E+01  0.0000000000000E+00
 0.1045121402483E+01 -0.3449720361677E+01  0.0000000000000E+00
 0.1045128147066E+01 -0.3378505531160E+01  0.0000000000000E+00
 0.1045134891642E+01 -0.3307290778676E+01  0.0000000000000E+00
 0.1045141636209E+01 -0.3236076116898E+01  0.0000000000000E+00
 0.1045148380780E+01 -0.3164861419183E+01  0.0000000000000E+00
 0.1045155125354E+01 -0.3093646689619E+01  0.0000000000000E+00
 0.1045180279821E+01 -0.3022431898826E+01  0.0000000000000E+00
 0.1045342420734E+01 -0.2951217337218E+01  0.0000000000000E+00
 0.1045806198134E+01 -0.2880004340962E+01  0.0000000000000E+00
 0.1046721701941E+01 -0.2808796186818E+01  0.0000000000000E+00
 0.1048199411086E+01 -0.2737598556931E+01  0.0000000000000E+00
 0.1050310183620E+01 -0.2666418597083E+01  0.0000000000000E+00
 0.1053099326642E+01 -0.2595264637507E+01  0.0000000000000E+00
 0.1056602845493E+01 -0.2524145666443E+01  0.0000000000000E+00
 0.1060861472207E+01 -0.2453072398925E+01  0.0000000000000E+00
 0.1065931240934E+01 -0.2382058417411E+01  0.0000000000000E+00
 0.1071808999436E+01 -0.2311113539242E+01  0.0000000000000E+00
 0.1078412602362E+01 -0.2240239522303E+01  0.0000000000000E+00
 0.1085683409054E+01 -0.2169438043568E+01  0.0000000000000E+00
 0.1093587314458E+01 -0.2098711882704E+01  0.0000000000000E+00
 0.1102113188972E+01 -0.2028065941545E+01  0.0000000000000E+00
 0.1111278112956E+01 -0.1957509113146E+01  0.0000000000000E+00
 0.1121150774694E+01 -0.1887058606262E+01  0.0000000000000E+00
 0.1072503587178E+01 -0.4660482676316E+01  0.0000000000000E+00
 0.1072507174348E+01 -0.4589378375137E+01  0.0000000000000E+00
 0.1072510761541E+01 -0.4518273637316E+01  0.0000000000000E+00
 0.1072514348723E+01 -0.4447169098837E+01  0.0000000000000E+00
 0.1072517935905E+01 -0.4376064574498E+01  0.0000000000000E+00
 0.1072521523088E+01 -0.4304960023440E+01  0.0000000000000E+00
 0.1072525110269E+01 -0.4233855514407E+01  0.0000000000000E+00
 0.1072528697451E+01 -0.4162750979308E+01  0.0000000000000E+00
 0.1072532284633E+01 -0.4091646449431E+01  0.0000000000000E+00
 0.1072535871815E+01 -0.4020541927405E+01  0.0000000000000E+00
 0.1072539458997E+01 -0.3949437390497E+01  0.0000000000000E+00
 0.1072543046178E+01 -0.3878332876907E+01  0.0000000000000E+00
 0.1072546633361E+01 -0.3807228332284E+01  0.0000000000000E+00
 0.1072550220546E+01 -0.3736123729652E+01  0.0000000000000E+00
 0.1072553807731E+01 -0.3665019147257E+01  0.0000000000000E+00
 0.1072557394911E+01 -0.3593914649921E+01  0.0000000000000E+00
 0.1072560982123E+01 -0.3522809524840E+01  0.0000000000000E+00
 0.1072564569275E+01 -0.3451705587815E+01  0.0000000000000E+00
 0.1072568156458E+01 -0.3380601047655E+01  0.0000000000000E+00
 0.1072571743636E+01 -0.3309496585407E+01  0.0000000000000E+00
 0.1072575330810E+01 -0.3238392213725E+01  0.0000000000000E+00
 0.1072578917986E+01 -0.3167287806161E+01  0.0000000000000E+00
 0.1072582505164E+01 -0.3096183366798E+01  0.0000000000000E+00
 0.1072604987528E+01 -0.3025078866304E+01  0.0000000000000E+00
 0.1072768067392E+01 -0.2953974594929E+01  0.0000000000000E+00
 0.1073240735083E+01 -0.2882871888714E+01  0.0000000000000E+00
 0.1074177036982E+01 -0.2811774024571E+01  0.0000000000000E+00
 0.1075690364322E+01 -0.2740686684561E+01  0.0000000000000E+00
 0.1077853443011E+01 -0.2669617014592E+01  0.0000000000000E+00
 0.1080712774480E+01 -0.2598573344725E+01  0.0000000000000E+00
 0.1084305313187E+01 -0.2527564663467E+01  0.0000000000000E+00
 0.1088672864887E+01 -0.2456601685821E+01  0.0000000000000E+00
 0.1093872940837E+01 -0.2385697993918E+01  0.0000000000000E+00
 0.1099902305694E+01 -0.2314863405488E+01  0.0000000000000E+00
 0.1106676648702E+01 -0.2244099678411E+01  0.0000000000000E+00
 0.1114135783397E+01 -0.2173408489587E+01  0.0000000000000E+00
 0.1122244705695E+01 -0.2102792618758E+01  0.0000000000000E+00
 0.1130991992608E+01 -0.2032256967748E+01  0.0000000000000E+00
 0.1140395174757E+01 -0.1961810429236E+01  0.0000000000000E+00
 0.1150524751096E+01 -0.1891470211985E+01  0.0000000000000E+00
-0.5660382933727E+00 -0.1689691761343E+01  0.0000000000000E+00
-0.5663123720575E+00 -0.1626506538788E+01  0.0000000000000E+00
-0.5667790339879E+00 -0.1563322491581E+01  0.0000000000000E+00
-0.5674663936241E+00 -0.1500140613648E+01  0.0000000000000E+00
-0.5684046240156E+00 -0.1436962158218E+01  0.0000000000000E+00
-0.5696222518212E+00 -0.1373788927613E+01  0.0000000000000E+00
-0.5711380830886E+00 -0.1310622648082E+01  0.0000000000000E+00
-0.5729469100487E+00 -0.1247464856343E+01  0.0000000000000E+00
-0.5750009089678E+00 -0.1184315217396E+01  0.0000000000000E+00
-0.5771979571333E+00 -0.1121170853713E+01  0.0000000000000E+00
-0.5793950052231E+00 -0.1058026490028E+01  0.0000000000000E+00
-0.5814490039253E+00 -0.9948768510738E+00  0.0000000000000E+00
-0.5832578305519E+00 -0.9317190593259E+00  0.0000000000000E+00
-0.5847736613987E+00 -0.8685527797851E+00  0.0000000000000E+00
-0.5859912887235E+00 -0.8053795491707E+00  0.0000000000000E+00
-0.5869295185944E+00 -0.7422010937332E+00  0.0000000000000E+00
-0.5876168776851E+00 -0.6790192157949E+00  0.0000000000000E+00
-0.5880835390555E+00 -0.6158351685841E+00  0.0000000000000E+00
-0.5883576171726E+00 -0.5526499460259E+00  0.0000000000000E+00
-0.5363253834601E+00 -0.1687245125446E+01  0.0000000000000E+00
-0.5366119768712E+00 -0.1623791708043E+01  0.0000000000000E+00
-0.5370810175640E+00 -0.1560339466072E+01  0.0000000000000E+00
-0.5377591402814E+00 -0.1496889393551E+01  0.0000000000000E+00
-0.5386749300523E+00 -0.1433442743371E+01  0.0000000000000E+00
-0.5398554120886E+00 -0.1370001318292E+01  0.0000000000000E+00
-0.5413184027050E+00 -0.1306566843974E+01  0.0000000000000E+00
-0.5430589681685E+00 -0.1243140857698E+01  0.0000000000000E+00
-0.5450318018343E+00 -0.1179723023941E+01  0.0000000000000E+00
-0.5471401558424E+00 -0.1116310465411E+01  0.0000000000000E+00
-0.5492485097748E+00 -0.1052897906879E+01  0.0000000000000E+00
-0.5512213432236E+00 -0.9894800731148E+00  0.0000000000000E+00
-0.5529619083535E+00 -0.9260540868295E+00  0.0000000000000E+00
-0.5544248985495E+00 -0.8626196125025E+00  0.0000000000000E+00
-0.5556053801049E+00 -0.7991781874149E+00  0.0000000000000E+00
-0.5565211693552E+00 -0.7357315372274E+00  0.0000000000000E+00
-0.5571992915272E+00 -0.6722814647015E+00  0.0000000000000E+00
-0.5576683316600E+00 -0.6088292227269E+00  0.0000000000000E+00
-0.5579549245034E+00 -0.5453758053214E+00  0.0000000000000E+00
-0.5065999670663E+00 -0.1684928561672E+01  0.0000000000000E+00
-0.5068949115904E+00 -0.1621220039384E+01  0.0000000000000E+00
-0.5073621674199E+00 -0.1557512692609E+01  0.0000000000000E+00
-0.5080268895799E+00 -0.1493807515451E+01  0.0000000000000E+00
-0.5089160750712E+00 -0.1430105760479E+01  0.0000000000000E+00
-0.5100552476636E+00 -0.1366409230871E+01  0.0000000000000E+00
-0.5114612339286E+00 -0.1302719651727E+01  0.0000000000000E+00
-0.5131293741780E+00 -0.1239038560861E+01  0.0000000000000E+00
-0.5150168788513E+00 -0.1175365622255E+01  0.0000000000000E+00
-0.5170323749522E+00 -0.1111697958841E+01  0.0000000000000E+00
-0.5190478709775E+00 -0.1048030295425E+01  0.0000000000000E+00
-0.5209353754338E+00 -0.9843573568131E+00  0.0000000000000E+00
-0.5226035153497E+00 -0.9206762659386E+00  0.0000000000000E+00
-0.5240095011942E+00 -0.8569866867857E+00  0.0000000000000E+00
-0.5251486733057E+00 -0.7932901571698E+00  0.0000000000000E+00
-0.5260378582764E+00 -0.7295884021909E+00  0.0000000000000E+00
-0.5267025798910E+00 -0.6658832250280E+00  0.0000000000000E+00
-0.5271698351604E+00 -0.6021758782489E+00  0.0000000000000E+00
-0.5274647791169E+00 -0.5384673559593E+00  0.0000000000000E+00
-0.4768626705487E+00 -0.1682742416099E+01  0.0000000000000E+00
-0.4771619844321E+00 -0.1618792097827E+01  0.0000000000000E+00
-0.4776234736490E+00 -0.1554842955143E+01  0.0000000000000E+00
-0.4782708135087E+00 -0.1490895982235E+01  0.0000000000000E+00
-0.4791294129793E+00 -0.1426952431367E+01  0.0000000000000E+00
-0.4802232943955E+00 -0.1363014106112E+01  0.0000000000000E+00
-0.4815682945772E+00 -0.1299082731039E+01  0.0000000000000E+00
-0.4831600278892E+00 -0.1235159844468E+01  0.0000000000000E+00
-0.4849582218467E+00 -0.1171245109912E+01  0.0000000000000E+00
-0.4868768783191E+00 -0.1107335650514E+01  0.0000000000000E+00
-0.4887955347158E+00 -0.1043426191114E+01  0.0000000000000E+00
-0.4905937284563E+00 -0.9795114565527E+00  0.0000000000000E+00
-0.4921854614348E+00 -0.9155885699739E+00  0.0000000000000E+00
-0.4935304611959E+00 -0.8516571948924E+00  0.0000000000000E+00
-0.4946243421312E+00 -0.7877188696299E+00  0.0000000000000E+00
-0.4954829410813E+00 -0.7237753187550E+00  0.0000000000000E+00
-0.4961302803955E+00 -0.6598283458425E+00  0.0000000000000E+00
-0.4965917690524E+00 -0.5958792031548E+00  0.0000000000000E+00
-0.4968910823681E+00 -0.5319288848814E+00  0.0000000000000E+00
-0.4471141738714E+00 -0.1680687021658E+01  0.0000000000000E+00
-0.4474140589931E+00 -0.1616508426019E+01  0.0000000000000E+00
-0.4478659834921E+00 -0.1552331006037E+01  0.0000000000000E+00
-0.4484921429651E+00 -0.1488155755982E+01  0.0000000000000E+00
-0.4493163583450E+00 -0.1423983927828E+01  0.0000000000000E+00
-0.4503611505400E+00 -0.1359817325524E+01  0.0000000000000E+00
-0.4516413666112E+00 -0.1295657673134E+01  0.0000000000000E+00
-0.4531528949840E+00 -0.1231506509458E+01  0.0000000000000E+00
-0.4548579802386E+00 -0.1167363497567E+01  0.0000000000000E+00
-0.4566759991053E+00 -0.1103225760801E+01  0.0000000000000E+00
-0.4584940178964E+00 -0.1039088024033E+01  0.0000000000000E+00
-0.4601991029340E+00 -0.9749450121357E+00  0.0000000000000E+00
-0.4617106309733E+00 -0.9107938484529E+00  0.0000000000000E+00
-0.4629908466239E+00 -0.8466341960555E+00  0.0000000000000E+00
-0.4640356383381E+00 -0.7824675937435E+00  0.0000000000000E+00
-0.4648598531975E+00 -0.7182957655835E+00  0.0000000000000E+00
-0.4654860121251E+00 -0.6541205155242E+00  0.0000000000000E+00
-0.4659379360640E+00 -0.5899430955397E+00  0.0000000000000E+00
-0.4662378206180E+00 -0.5257644998984E+00  0.0000000000000E+00
-0.4173550630559E+00 -0.1678762688173E+01  0.0000000000000E+00
-0.4176519113029E+00 -0.1614369533789E+01  0.0000000000000E+00
-0.4180906629569E+00 -0.1549977555129E+01  0.0000000000000E+00
-0.4186920339012E+00 -0.1485587746537E+01  0.0000000000000E+00
-0.4194782570266E+00 -0.1421201359716E+01  0.0000000000000E+00
-0.4204703518181E+00 -0.1356820198965E+01  0.0000000000000E+00
-0.4216821755688E+00 -0.1292445987879E+01  0.0000000000000E+00
-0.4231098907729E+00 -0.1228080265706E+01  0.0000000000000E+00
-0.4247182590719E+00 -0.1163722695099E+01  0.0000000000000E+00
-0.4264320320686E+00 -0.1099370399588E+01  0.0000000000000E+00
-0.4281458049896E+00 -0.1035018104075E+01  0.0000000000000E+00
-0.4297541730716E+00 -0.9706605334635E+00  0.0000000000000E+00
-0.4311818879422E+00 -0.9062948112837E+00  0.0000000000000E+00
-0.4323937112723E+00 -0.8419206001903E+00  0.0000000000000E+00
-0.4333858055829E+00 -0.7775394394327E+00  0.0000000000000E+00
-0.4341720281878E+00 -0.7131530526057E+00  0.0000000000000E+00
-0.4347733985867E+00 -0.6487632440093E+00  0.0000000000000E+00
-0.4352121496806E+00 -0.5843712653468E+00  0.0000000000000E+00
-0.4355089973599E+00 -0.5199781109607E+00  0.0000000000000E+00
-0.3875860504174E+00 -0.1676969717501E+01  0.0000000000000E+00
-0.3878764553724E+00 -0.1612375915377E+01  0.0000000000000E+00
-0.3882986277719E+00 -0.1547783289039E+01  0.0000000000000E+00
-0.3888718037880E+00 -0.1483192832901E+01  0.0000000000000E+00
-0.3896166282662E+00 -0.1418605798412E+01  0.0000000000000E+00
-0.3905526192750E+00 -0.1354023990201E+01  0.0000000000000E+00
-0.3916926443324E+00 -0.1289449131420E+01  0.0000000000000E+00
-0.3930331400086E+00 -0.1224882761738E+01  0.0000000000000E+00
-0.3945413849981E+00 -0.1160324543420E+01  0.0000000000000E+00
-0.3961475057755E+00 -0.1095771600169E+01  0.0000000000000E+00
-0.3977536264772E+00 -0.1031218656915E+01  0.0000000000000E+00
-0.3992618712497E+00 -0.9666604385923E+00  0.0000000000000E+00
-0.4006023665923E+00 -0.9020940689044E+00  0.0000000000000E+00
-0.4017423912293E+00 -0.8375192101168E+00  0.0000000000000E+00
-0.4026783817572E+00 -0.7729374018990E+00  0.0000000000000E+00
-0.4034232057148E+00 -0.7083503674049E+00  0.0000000000000E+00
-0.4039963811855E+00 -0.6437599112629E+00  0.0000000000000E+00
-0.4044185530250E+00 -0.5791672849229E+00  0.0000000000000E+00
-0.4047089574122E+00 -0.5145734827968E+00  0.0000000000000E+00
-0.3578077848507E+00 -0.1675308389248E+01  0.0000000000000E+00
-0.3580885470070E+00 -0.1610528031852E+01  0.0000000000000E+00
-0.3584909406433E+00 -0.1545748850301E+01  0.0000000000000E+00
-0.3590327222207E+00 -0.1480971839072E+01  0.0000000000000E+00
-0.3597329485350E+00 -0.1416198249379E+01  0.0000000000000E+00
-0.3606096362428E+00 -0.1351429886156E+01  0.0000000000000E+00
-0.3616746630801E+00 -0.1286668472146E+01  0.0000000000000E+00
-0.3629247396993E+00 -0.1221915547408E+01  0.0000000000000E+00
-0.3643296618428E+00 -0.1157170773845E+01  0.0000000000000E+00
-0.3658249308613E+00 -0.1092431275322E+01  0.0000000000000E+00
-0.3673201998042E+00 -0.1027691776797E+01  0.0000000000000E+00
-0.3687251217307E+00 -0.9629470032288E+00  0.0000000000000E+00
-0.3699751980164E+00 -0.8981940784852E+00  0.0000000000000E+00
-0.3710402244331E+00 -0.8334326644688E+00  0.0000000000000E+00
-0.3719169116601E+00 -0.7686643012399E+00  0.0000000000000E+00
-0.3726171374538E+00 -0.7038907115421E+00  0.0000000000000E+00
-0.3731589184858E+00 -0.6391137003095E+00  0.0000000000000E+00
-0.3735613115620E+00 -0.5743345187563E+00  0.0000000000000E+00
-0.3738420731506E+00 -0.5095541613588E+00  0.0000000000000E+00
-0.3280209322967E+00 -0.1673778966441E+01  0.0000000000000E+00
-0.3282890703009E+00 -0.1608826317856E+01  0.0000000000000E+00
-0.3286687038227E+00 -0.1543874845170E+01  0.0000000000000E+00
-0.3291761096142E+00 -0.1478925542919E+01  0.0000000000000E+00
-0.3298287564176E+00 -0.1413979662100E+01  0.0000000000000E+00
-0.3306431594830E+00 -0.1349039007928E+01  0.0000000000000E+00
-0.3316302067577E+00 -0.1284105302768E+01  0.0000000000000E+00
-0.3327868829826E+00 -0.1219180087040E+01  0.0000000000000E+00
-0.3340855009420E+00 -0.1154263022312E+01  0.0000000000000E+00
-0.3354669368643E+00 -0.1089351232600E+01  0.0000000000000E+00
-0.3368483727111E+00 -0.1024439442887E+01  0.0000000000000E+00
-0.3381469904534E+00 -0.9595223781546E+00  0.0000000000000E+00
-0.3393036663448E+00 -0.8945971624215E+00  0.0000000000000E+00
-0.3402907131989E+00 -0.8296634572558E+00  0.0000000000000E+00
-0.3411051157835E+00 -0.7647228030786E+00  0.0000000000000E+00
-0.3417577620663E+00 -0.6997769222548E+00  0.0000000000000E+00
-0.3422651673124E+00 -0.6348276200005E+00  0.0000000000000E+00
-0.3426448002742E+00 -0.5698761473125E+00  0.0000000000000E+00
-0.3429129377106E+00 -0.5049234987264E+00  0.0000000000000E+00
-0.2982262059385E+00 -0.1672381694973E+01  0.0000000000000E+00
-0.2984789576442E+00 -0.1607271179011E+01  0.0000000000000E+00
-0.2988330689080E+00 -0.1542161838997E+01  0.0000000000000E+00
-0.2993033367739E+00 -0.1477054669522E+01  0.0000000000000E+00
-0.2999056419273E+00 -0.1411950921383E+01  0.0000000000000E+00
-0.3006549982166E+00 -0.1346852400053E+01  0.0000000000000E+00
-0.3015613037944E+00 -0.1281760827552E+01  0.0000000000000E+00
-0.3026218174963E+00 -0.1216677744629E+01  0.0000000000000E+00
-0.3038113691420E+00 -0.1151602812546E+01  0.0000000000000E+00
-0.3050762098397E+00 -0.1086533155457E+01  0.0000000000000E+00
-0.3063410504618E+00 -0.1021463498367E+01  0.0000000000000E+00
-0.3075306018905E+00 -0.9563885662797E+00  0.0000000000000E+00
-0.3085911152588E+00 -0.8913054833521E+00  0.0000000000000E+00
-0.3094974204161E+00 -0.8262139108455E+00  0.0000000000000E+00
-0.3102467762245E+00 -0.7611153895116E+00  0.0000000000000E+00
-0.3108490808573E+00 -0.6960116413682E+00  0.0000000000000E+00
-0.3113193481778E+00 -0.6309044718900E+00  0.0000000000000E+00
-0.3116734588816E+00 -0.5657951318742E+00  0.0000000000000E+00
-0.3119262100196E+00 -0.5006846159113E+00  0.0000000000000E+00
-0.2684242591111E+00 -0.1671116799086E+01  0.0000000000000E+00
-0.2686590939796E+00 -0.1605862988030E+01  0.0000000000000E+00
-0.2689851524448E+00 -0.1540610352966E+01  0.0000000000000E+00
-0.2694157518426E+00 -0.1475359888535E+01  0.0000000000000E+00
-0.2699651847983E+00 -0.1410112845353E+01  0.0000000000000E+00
-0.2706469637623E+00 -0.1344871029129E+01  0.0000000000000E+00
-0.2714699970866E+00 -0.1279636161565E+01  0.0000000000000E+00
-0.2724318177065E+00 -0.1214409783713E+01  0.0000000000000E+00
-0.2735097724737E+00 -0.1149191556555E+01  0.0000000000000E+00
-0.2746554873792E+00 -0.1083978604371E+01  0.0000000000000E+00
-0.2758012022091E+00 -0.1018765652186E+01  0.0000000000000E+00
-0.2768791567593E+00 -0.9535474250252E+00  0.0000000000000E+00
-0.2778409770457E+00 -0.8883210471688E+00  0.0000000000000E+00
-0.2786640099495E+00 -0.8230861796004E+00  0.0000000000000E+00
-0.2793457884325E+00 -0.7578443633719E+00  0.0000000000000E+00
-0.2798952208677E+00 -0.6925973201861E+00  0.0000000000000E+00
-0.2803258197201E+00 -0.6273468557523E+00  0.0000000000000E+00
-0.2806518776252E+00 -0.5620942206867E+00  0.0000000000000E+00
-0.2808867119260E+00 -0.4968404096294E+00  0.0000000000000E+00
-0.2386158232353E+00 -0.1669984486219E+01  0.0000000000000E+00
-0.2388304441249E+00 -0.1604602088268E+01  0.0000000000000E+00
-0.2391261526536E+00 -0.1539220866350E+01  0.0000000000000E+00
-0.2395147864510E+00 -0.1473841815148E+01  0.0000000000000E+00
-0.2400090500797E+00 -0.1408466185117E+01  0.0000000000000E+00
-0.2406209545962E+00 -0.1343095782177E+01  0.0000000000000E+00
-0.2413584185475E+00 -0.1277732327748E+01  0.0000000000000E+00
-0.2422192489735E+00 -0.1212377363149E+01  0.0000000000000E+00
-0.2431833097518E+00 -0.1147030549114E+01  0.0000000000000E+00
-0.2442076017572E+00 -0.1081689010035E+01  0.0000000000000E+00
-0.2452318936869E+00 -0.1016347470955E+01  0.0000000000000E+00
-0.2461959542483E+00 -0.9510006569173E+00  0.0000000000000E+00
-0.2470567843406E+00 -0.8856456923147E+00  0.0000000000000E+00
-0.2477942478714E+00 -0.8202822378808E+00  0.0000000000000E+00
-0.2484061519071E+00 -0.7549118349370E+00  0.0000000000000E+00
-0.2489004150152E+00 -0.6895362049032E+00  0.0000000000000E+00
-0.2492890482672E+00 -0.6241571536992E+00  0.0000000000000E+00
-0.2495847562358E+00 -0.5587759317790E+00  0.0000000000000E+00
-0.2497993765577E+00 -0.4933935338269E+00  0.0000000000000E+00
-0.2088015918171E+00 -0.1668984941864E+01  0.0000000000000E+00
-0.2089939423704E+00 -0.1603488788333E+01  0.0000000000000E+00
-0.2092572446060E+00 -0.1537993810870E+01  0.0000000000000E+00
-0.2096018564480E+00 -0.1472501004198E+01  0.0000000000000E+00
-0.2100388943936E+00 -0.1407011618628E+01  0.0000000000000E+00
-0.2105788681090E+00 -0.1341527460266E+01  0.0000000000000E+00
-0.2112287063315E+00 -0.1276050250282E+01  0.0000000000000E+00
-0.2119864902098E+00 -0.1210581530234E+01  0.0000000000000E+00
-0.2128346006438E+00 -0.1145120960635E+01  0.0000000000000E+00
-0.2137354133933E+00 -0.1079665665975E+01  0.0000000000000E+00
-0.2146362260672E+00 -0.1014210371315E+01  0.0000000000000E+00
-0.2154843362842E+00 -0.9487498017129E+00  0.0000000000000E+00
-0.2162421198289E+00 -0.8832810816616E+00  0.0000000000000E+00
-0.2168919576308E+00 -0.8178038716736E+00  0.0000000000000E+00
-0.2174319308654E+00 -0.7523197133084E+00  0.0000000000000E+00
-0.2178689682905E+00 -0.6868303277357E+00  0.0000000000000E+00
-0.2182135795869E+00 -0.6213375210618E+00  0.0000000000000E+00
-0.2184768812625E+00 -0.5558425435970E+00  0.0000000000000E+00
-0.2186692312481E+00 -0.4903463900649E+00  0.0000000000000E+00
-0.1789822699684E+00 -0.1668118331209E+01  0.0000000000000E+00
-0.1791505394161E+00 -0.1602523363227E+01  0.0000000000000E+00
-0.1793796245881E+00 -0.1536929571344E+01  0.0000000000000E+00
-0.1796784037030E+00 -0.1471337950318E+01  0.0000000000000E+00
-0.1800564051905E+00 -0.1405749750333E+01  0.0000000000000E+00
-0.1805226373288E+00 -0.1340166777658E+01  0.0000000000000E+00
-0.1810830390415E+00 -0.1274590753246E+01  0.0000000000000E+00
-0.1817359655899E+00 -0.1209023218861E+01  0.0000000000000E+00
-0.1824663148931E+00 -0.1143463834825E+01  0.0000000000000E+00
-0.1832418375987E+00 -0.1077909725716E+01  0.0000000000000E+00
-0.1840173602287E+00 -0.1012355616605E+01  0.0000000000000E+00
-0.1847477093150E+00 -0.9467962325665E+00  0.0000000000000E+00
-0.1854006355298E+00 -0.8812286981792E+00  0.0000000000000E+00
-0.1859610368220E+00 -0.8156526737635E+00  0.0000000000000E+00
-0.1864272684794E+00 -0.7500697010859E+00  0.0000000000000E+00
-0.1868052694463E+00 -0.6844815010990E+00  0.0000000000000E+00
-0.1871040480158E+00 -0.6188898800707E+00  0.0000000000000E+00
-0.1873331326277E+00 -0.5532960881865E+00  0.0000000000000E+00
-0.1875014015077E+00 -0.4877011202043E+00  0.0000000000000E+00
-0.1491585906986E+00 -0.1667384798938E+01  0.0000000000000E+00
-0.1493012179629E+00 -0.1601706053757E+01  0.0000000000000E+00
-0.1494945249966E+00 -0.1536028484701E+01  0.0000000000000E+00
-0.1497459103137E+00 -0.1470353086556E+01  0.0000000000000E+00
-0.1500633142746E+00 -0.1404681109403E+01  0.0000000000000E+00
-0.1504542437727E+00 -0.1339014359645E+01  0.0000000000000E+00
-0.1509236479144E+00 -0.1273354558052E+01  0.0000000000000E+00
-0.1514701560771E+00 -0.1207703246565E+01  0.0000000000000E+00
-0.1520811831954E+00 -0.1142060085341E+01  0.0000000000000E+00
-0.1527298548045E+00 -0.1076422199032E+01  0.0000000000000E+00
-0.1533785263379E+00 -0.1010784312722E+01  0.0000000000000E+00
-0.1539895532392E+00 -0.9451411514961E+00  0.0000000000000E+00
-0.1545360610683E+00 -0.8794898400065E+00  0.0000000000000E+00
-0.1550054647896E+00 -0.8138300384108E+00  0.0000000000000E+00
-0.1553963938067E+00 -0.7481632886510E+00  0.0000000000000E+00
-0.1557137972470E+00 -0.6824913114955E+00  0.0000000000000E+00
-0.1559651820187E+00 -0.6168159133492E+00  0.0000000000000E+00
-0.1561584884923E+00 -0.5511383442921E+00  0.0000000000000E+00
-0.1563011151890E+00 -0.4854595991108E+00  0.0000000000000E+00
-0.1193312533689E+00 -0.1666784467333E+01  0.0000000000000E+00
-0.1194469324420E+00 -0.1601037064197E+01  0.0000000000000E+00
-0.1196031553282E+00 -0.1535290837207E+01  0.0000000000000E+00
-0.1198058408375E+00 -0.1469546781173E+01  0.0000000000000E+00
-0.1200613412589E+00 -0.1403806146089E+01  0.0000000000000E+00
-0.1203756621029E+00 -0.1338070738472E+01  0.0000000000000E+00
-0.1207527626561E+00 -0.1272342278939E+01  0.0000000000000E+00
-0.1211915464142E+00 -0.1206622309575E+01  0.0000000000000E+00
-0.1216819453254E+00 -0.1140910490406E+01  0.0000000000000E+00
-0.1222024598146E+00 -0.1075203946141E+01  0.0000000000000E+00
-0.1227229742282E+00 -0.1009497401875E+01  0.0000000000000E+00
-0.1232133729224E+00 -0.9437855827039E+00  0.0000000000000E+00
-0.1236521563469E+00 -0.8780656133384E+00  0.0000000000000E+00
-0.1240292564796E+00 -0.8123371538032E+00  0.0000000000000E+00
-0.1243435768427E+00 -0.7466017461841E+00  0.0000000000000E+00
-0.1245990767436E+00 -0.6808611110984E+00  0.0000000000000E+00
-0.1248017617074E+00 -0.6151170550636E+00  0.0000000000000E+00
-0.1249579840336E+00 -0.5493708280728E+00  0.0000000000000E+00
-0.1250736625389E+00 -0.4836234249364E+00  0.0000000000000E+00
-0.8950100053862E-01 -0.1666317437650E+01  0.0000000000000E+00
-0.8958868171560E-01 -0.1600516563313E+01  0.0000000000000E+00
-0.8970677075129E-01 -0.1534716865139E+01  0.0000000000000E+00
-0.8985970675196E-01 -0.1468919337956E+01  0.0000000000000E+00
-0.9005225393426E-01 -0.1403125231690E+01  0.0000000000000E+00
-0.9028891642774E-01 -0.1337336352946E+01  0.0000000000000E+00
-0.9057266369673E-01 -0.1271554422224E+01  0.0000000000000E+00
-0.9090267335780E-01 -0.1205780981720E+01  0.0000000000000E+00
-0.9127139437015E-01 -0.1140015691357E+01  0.0000000000000E+00
-0.9166270204846E-01 -0.1074255675890E+01  0.0000000000000E+00
-0.9205400965113E-01 -0.1008495660424E+01  0.0000000000000E+00
-0.9242273044648E-01 -0.9427303700588E+00  0.0000000000000E+00
-0.9275273977399E-01 -0.8769569295541E+00  0.0000000000000E+00
-0.9303648662245E-01 -0.8111749988302E+00  0.0000000000000E+00
-0.9327314863504E-01 -0.7453861200848E+00  0.0000000000000E+00
-0.9346569529677E-01 -0.6795920138176E+00  0.0000000000000E+00
-0.9361863075200E-01 -0.6137944866337E+00  0.0000000000000E+00
-0.9373671922766E-01 -0.5479947884587E+00  0.0000000000000E+00
-0.9382439983693E-01 -0.4821939141214E+00  0.0000000000000E+00
-0.5966855245610E-01 -0.1665983788540E+01  0.0000000000000E+00
-0.5972744638703E-01 -0.1600144682577E+01  0.0000000000000E+00
-0.5980661222241E-01 -0.1534306752788E+01  0.0000000000000E+00
-0.5990900936510E-01 -0.1468470994015E+01  0.0000000000000E+00
-0.6003781395841E-01 -0.1402638656136E+01  0.0000000000000E+00
-0.6019602875215E-01 -0.1336811545818E+01  0.0000000000000E+00
-0.6038563338675E-01 -0.1270991383477E+01  0.0000000000000E+00
-0.6060607960119E-01 -0.1205179711391E+01  0.0000000000000E+00
-0.6085233336420E-01 -0.1139376189405E+01  0.0000000000000E+00
-0.6111364488103E-01 -0.1073577942312E+01  0.0000000000000E+00
-0.6137495632221E-01 -0.1007779695218E+01  0.0000000000000E+00
-0.6162120986821E-01 -0.9419761732318E+00  0.0000000000000E+00
-0.6184165574910E-01 -0.8761645011445E+00  0.0000000000000E+00
-0.6203125996316E-01 -0.8103443388026E+00  0.0000000000000E+00
-0.6218947427602E-01 -0.7445172284838E+00  0.0000000000000E+00
-0.6231827834875E-01 -0.6786848906039E+00  0.0000000000000E+00
-0.6242067494601E-01 -0.6128491318304E+00  0.0000000000000E+00
-0.6249984022135E-01 -0.5470112020407E+00  0.0000000000000E+00
-0.6255873358457E-01 -0.4811720960768E+00  0.0000000000000E+00
-0.2983463937156E-01 -0.1665783576456E+01  0.0000000000000E+00
-0.2986421868488E-01 -0.1599921516320E+01  0.0000000000000E+00
-0.2990393394841E-01 -0.1534060632365E+01  0.0000000000000E+00
-0.2995526486180E-01 -0.1468201919441E+01  0.0000000000000E+00
-0.3001979949427E-01 -0.1402346627397E+01  0.0000000000000E+00
-0.3009903921680E-01 -0.1336496562938E+01  0.0000000000000E+00
-0.3019397384468E-01 -0.1270653446429E+01  0.0000000000000E+00
-0.3030432924049E-01 -0.1204818820196E+01  0.0000000000000E+00
-0.3042758838143E-01 -0.1138992344041E+01  0.0000000000000E+00
-0.3055837636388E-01 -0.1073171142774E+01  0.0000000000000E+00
-0.3068916427068E-01 -0.1007349941507E+01  0.0000000000000E+00
-0.3081242319462E-01 -0.9415234653514E+00  0.0000000000000E+00
-0.3092277825687E-01 -0.8756888391178E+00  0.0000000000000E+00
-0.3101771246422E-01 -0.8098457226084E+00  0.0000000000000E+00
-0.3109695170586E-01 -0.7439956581489E+00  0.0000000000000E+00
-0.3116148581776E-01 -0.6781403661046E+00  0.0000000000000E+00
-0.3121281618571E-01 -0.6122816531806E+00  0.0000000000000E+00
-0.3125253088920E-01 -0.5464207692254E+00  0.0000000000000E+00
-0.3128210963481E-01 -0.4805587090888E+00  0.0000000000000E+00
 0.5155270087001E-08 -0.1665716835338E+01  0.0000000000000E+00
 0.4584959248036E-08 -0.1599847121274E+01  0.0000000000000E+00
 0.4018463788390E-08 -0.1533978583394E+01  0.0000000000000E+00
 0.3459266960008E-08 -0.1468112216549E+01  0.0000000000000E+00
 0.2912509139835E-08 -0.1402249270580E+01  0.0000000000000E+00
 0.2385637097306E-08 -0.1336391552204E+01  0.0000000000000E+00
 0.1889015036877E-08 -0.1270540781768E+01  0.0000000000000E+00
 0.1435985996629E-08 -0.1204698501615E+01  0.0000000000000E+00
 0.1041351357948E-08 -0.1138864371533E+01  0.0000000000000E+00
 0.7174784364422E-09 -0.1073035516338E+01  0.0000000000000E+00
 0.4692480349616E-09 -0.1007206661143E+01  0.0000000000000E+00
 0.2916179217409E-09 -0.9413725310599E+00  0.0000000000000E+00
 0.1721480478919E-09 -0.8755302509073E+00  0.0000000000000E+00
 0.9605795782101E-10 -0.8096794804718E+00  0.0000000000000E+00
 0.5007320361460E-10 -0.7438217620953E+00  0.0000000000000E+00
 0.2389664209818E-10 -0.6779588161260E+00  0.0000000000000E+00
 0.1013582257418E-10 -0.6120924492818E+00  0.0000000000000E+00
 0.3684745325373E-11 -0.5462239114012E+00  0.0000000000000E+00
 0.1082611060245E-11 -0.4803541973369E+00  0.0000000000000E+00
 0.2983464968201E-01 -0.1665783576500E+01  0.0000000000000E+00
 0.2986422785471E-01 -0.1599921516362E+01  0.0000000000000E+00
 0.2990394198526E-01 -0.1534060632404E+01  0.0000000000000E+00
 0.2995527178026E-01 -0.1468201919478E+01  0.0000000000000E+00
 0.3001980531922E-01 -0.1402346627432E+01  0.0000000000000E+00
 0.3009904398801E-01 -0.1336496562970E+01  0.0000000000000E+00
 0.3019397762265E-01 -0.1270653446458E+01  0.0000000000000E+00
 0.3030433211240E-01 -0.1204818820222E+01  0.0000000000000E+00
 0.3042759046408E-01 -0.1138992344063E+01  0.0000000000000E+00
 0.3055837779879E-01 -0.1073171142794E+01  0.0000000000000E+00
 0.3068916520914E-01 -0.1007349941524E+01  0.0000000000000E+00
 0.3081242377782E-01 -0.9415234653661E+00  0.0000000000000E+00
 0.3092277860113E-01 -0.8756888391304E+00  0.0000000000000E+00
 0.3101771265631E-01 -0.8098457226190E+00  0.0000000000000E+00
 0.3109695180599E-01 -0.7439956581577E+00  0.0000000000000E+00
 0.3116148586553E-01 -0.6781403661116E+00  0.0000000000000E+00
 0.3121281620596E-01 -0.6122816531859E+00  0.0000000000000E+00
 0.3125253089656E-01 -0.5464207692289E+00  0.0000000000000E+00
 0.3128210963697E-01 -0.4805587090906E+00  0.0000000000000E+00
 0.5966856276630E-01 -0.1665983788628E+01  0.0000000000000E+00
 0.5972745555662E-01 -0.1600144682660E+01  0.0000000000000E+00
 0.5980662025903E-01 -0.1534306752866E+01  0.0000000000000E+00
 0.5990901628335E-01 -0.1468470994089E+01  0.0000000000000E+00
 0.6003781978316E-01 -0.1402638656205E+01  0.0000000000000E+00
 0.6019603352318E-01 -0.1336811545881E+01  0.0000000000000E+00
 0.6038563716454E-01 -0.1270991383534E+01  0.0000000000000E+00
 0.6060608247295E-01 -0.1205179711442E+01  0.0000000000000E+00
 0.6085233544670E-01 -0.1139376189450E+01  0.0000000000000E+00
 0.6111364631580E-01 -0.1073577942351E+01  0.0000000000000E+00
 0.6137495726055E-01 -0.1007779695252E+01  0.0000000000000E+00
 0.6162121045131E-01 -0.9419761732611E+00  0.0000000000000E+00
 0.6184165609327E-01 -0.8761645011696E+00  0.0000000000000E+00
 0.6203126015517E-01 -0.8103443388238E+00  0.0000000000000E+00
 0.6218947437608E-01 -0.7445172285014E+00  0.0000000000000E+00
 0.6231827839647E-01 -0.6786848906179E+00  0.0000000000000E+00
 0.6242067496623E-01 -0.6128491318409E+00  0.0000000000000E+00
 0.6249984022868E-01 -0.5470112020477E+00  0.0000000000000E+00
 0.6255873358672E-01 -0.4811720960803E+00  0.0000000000000E+00
 0.8950101084839E-01 -0.1666317437781E+01  0.0000000000000E+00
 0.8958869088479E-01 -0.1600516563438E+01  0.0000000000000E+00
 0.8970677878753E-01 -0.1534716865257E+01  0.0000000000000E+00
 0.8985971366985E-01 -0.1468919338067E+01  0.0000000000000E+00
 0.9005225975868E-01 -0.1403125231793E+01  0.0000000000000E+00
 0.9028892119845E-01 -0.1337336353041E+01  0.0000000000000E+00
 0.9057266747424E-01 -0.1271554422310E+01  0.0000000000000E+00
 0.9090267622929E-01 -0.1205780981797E+01  0.0000000000000E+00
 0.9127139645241E-01 -0.1140015691424E+01  0.0000000000000E+00
 0.9166270348301E-01 -0.1074255675949E+01  0.0000000000000E+00
 0.9205401058927E-01 -0.1008495660475E+01  0.0000000000000E+00
 0.9242273102939E-01 -0.9427303701028E+00  0.0000000000000E+00
 0.9275274011800E-01 -0.8769569295918E+00  0.0000000000000E+00
 0.9303648681432E-01 -0.8111749988621E+00  0.0000000000000E+00
 0.9327314873499E-01 -0.7453861201111E+00  0.0000000000000E+00
 0.9346569534440E-01 -0.6795920138386E+00  0.0000000000000E+00
 0.9361863077215E-01 -0.6137944866494E+00  0.0000000000000E+00
 0.9373671923494E-01 -0.5479947884691E+00  0.0000000000000E+00
 0.9382439983905E-01 -0.4821939141266E+00  0.0000000000000E+00
 0.1193312636781E+00 -0.1666784467507E+01  0.0000000000000E+00
 0.1194469416106E+00 -0.1601037064363E+01  0.0000000000000E+00
 0.1196031633639E+00 -0.1535290837365E+01  0.0000000000000E+00
 0.1198058477548E+00 -0.1469546781322E+01  0.0000000000000E+00
 0.1200613470828E+00 -0.1403806146227E+01  0.0000000000000E+00
 0.1203756668731E+00 -0.1338070738599E+01  0.0000000000000E+00
 0.1207527664332E+00 -0.1272342279054E+01  0.0000000000000E+00
 0.1211915492853E+00 -0.1206622309678E+01  0.0000000000000E+00
 0.1216819474073E+00 -0.1140910490496E+01  0.0000000000000E+00
 0.1222024612488E+00 -0.1075203946219E+01  0.0000000000000E+00
 0.1227229751660E+00 -0.1009497401943E+01  0.0000000000000E+00
 0.1232133735050E+00 -0.9437855827625E+00  0.0000000000000E+00
 0.1236521566907E+00 -0.8780656133886E+00  0.0000000000000E+00
 0.1240292566713E+00 -0.8123371538457E+00  0.0000000000000E+00
 0.1243435769425E+00 -0.7466017462192E+00  0.0000000000000E+00
 0.1245990767911E+00 -0.6808611111264E+00  0.0000000000000E+00
 0.1248017617275E+00 -0.6151170550845E+00  0.0000000000000E+00
 0.1249579840408E+00 -0.5493708280868E+00  0.0000000000000E+00
 0.1250736625410E+00 -0.4836234249434E+00  0.0000000000000E+00
 0.1491586010070E+00 -0.1667384799156E+01  0.0000000000000E+00
 0.1493012271308E+00 -0.1601706053965E+01  0.0000000000000E+00
 0.1494945330316E+00 -0.1536028484898E+01  0.0000000000000E+00
 0.1497459172305E+00 -0.1470353086742E+01  0.0000000000000E+00
 0.1500633200979E+00 -0.1404681109575E+01  0.0000000000000E+00
 0.1504542485424E+00 -0.1339014359804E+01  0.0000000000000E+00
 0.1509236516910E+00 -0.1273354558196E+01  0.0000000000000E+00
 0.1514701589477E+00 -0.1207703246693E+01  0.0000000000000E+00
 0.1520811852768E+00 -0.1142060085454E+01  0.0000000000000E+00
 0.1527298562383E+00 -0.1076422199130E+01  0.0000000000000E+00
 0.1533785272754E+00 -0.1010784312807E+01  0.0000000000000E+00
 0.1539895538216E+00 -0.9451411515694E+00  0.0000000000000E+00
 0.1545360614118E+00 -0.8794898400693E+00  0.0000000000000E+00
 0.1550054649810E+00 -0.8138300384639E+00  0.0000000000000E+00
 0.1553963939063E+00 -0.7481632886949E+00  0.0000000000000E+00
 0.1557137972944E+00 -0.6824913115305E+00  0.0000000000000E+00
 0.1559651820386E+00 -0.6168159133754E+00  0.0000000000000E+00
 0.1561584884995E+00 -0.5511383443096E+00  0.0000000000000E+00
 0.1563011151911E+00 -0.4854595991195E+00  0.0000000000000E+00
 0.1789822802759E+00 -0.1668118331470E+01  0.0000000000000E+00
 0.1791505485831E+00 -0.1602523363477E+01  0.0000000000000E+00
 0.1793796326223E+00 -0.1536929571581E+01  0.0000000000000E+00
 0.1796784106189E+00 -0.1471337950540E+01  0.0000000000000E+00
 0.1800564110131E+00 -0.1405749750540E+01  0.0000000000000E+00
 0.1805226420978E+00 -0.1340166777849E+01  0.0000000000000E+00
 0.1810830428174E+00 -0.1274590753418E+01  0.0000000000000E+00
 0.1817359684599E+00 -0.1209023219015E+01  0.0000000000000E+00
 0.1824663169740E+00 -0.1143463834961E+01  0.0000000000000E+00
 0.1832418390321E+00 -0.1077909725833E+01  0.0000000000000E+00
 0.1840173611658E+00 -0.1012355616707E+01  0.0000000000000E+00
 0.1847477098969E+00 -0.9467962326544E+00  0.0000000000000E+00
 0.1854006358730E+00 -0.8812286982545E+00  0.0000000000000E+00
 0.1859610370131E+00 -0.8156526738272E+00  0.0000000000000E+00
 0.1864272685787E+00 -0.7500697011386E+00  0.0000000000000E+00
 0.1868052694934E+00 -0.6844815011410E+00  0.0000000000000E+00
 0.1871040480356E+00 -0.6188898801021E+00  0.0000000000000E+00
 0.1873331326348E+00 -0.5532960882075E+00  0.0000000000000E+00
 0.1875014015097E+00 -0.4877011202147E+00  0.0000000000000E+00
 0.2088016021235E+00 -0.1668984942169E+01  0.0000000000000E+00
 0.2089939515364E+00 -0.1603488788624E+01  0.0000000000000E+00
 0.2092572526392E+00 -0.1537993811146E+01  0.0000000000000E+00
 0.2096018633630E+00 -0.1472501004457E+01  0.0000000000000E+00
 0.2100389002153E+00 -0.1407011618869E+01  0.0000000000000E+00
 0.2105788728772E+00 -0.1341527460488E+01  0.0000000000000E+00
 0.2112287101067E+00 -0.1276050250483E+01  0.0000000000000E+00
 0.2119864930791E+00 -0.1210581530413E+01  0.0000000000000E+00
 0.2128346027241E+00 -0.1145120960792E+01  0.0000000000000E+00
 0.2137354148261E+00 -0.1079665666113E+01  0.0000000000000E+00
 0.2146362270037E+00 -0.1014210371434E+01  0.0000000000000E+00
 0.2154843368657E+00 -0.9487498018155E+00  0.0000000000000E+00
 0.2162421201716E+00 -0.8832810817495E+00  0.0000000000000E+00
 0.2168919578216E+00 -0.8178038717479E+00  0.0000000000000E+00
 0.2174319309644E+00 -0.7523197133698E+00  0.0000000000000E+00
 0.2178689683374E+00 -0.6868303277847E+00  0.0000000000000E+00
 0.2182135796066E+00 -0.6213375210985E+00  0.0000000000000E+00
 0.2184768812695E+00 -0.5558425436214E+00  0.0000000000000E+00
 0.2186692312501E+00 -0.4903463900771E+00  0.0000000000000E+00
 0.2386158335404E+00 -0.1669984486568E+01  0.0000000000000E+00
 0.2388304532896E+00 -0.1604602088601E+01  0.0000000000000E+00
 0.2391261606856E+00 -0.1539220866665E+01  0.0000000000000E+00
 0.2395147933649E+00 -0.1473841815444E+01  0.0000000000000E+00
 0.2400090559004E+00 -0.1408466185393E+01  0.0000000000000E+00
 0.2406209593635E+00 -0.1343095782431E+01  0.0000000000000E+00
 0.2413584223218E+00 -0.1277732327977E+01  0.0000000000000E+00
 0.2422192518420E+00 -0.1212377363354E+01  0.0000000000000E+00
 0.2431833118313E+00 -0.1147030549294E+01  0.0000000000000E+00
 0.2442076031893E+00 -0.1081689010192E+01  0.0000000000000E+00
 0.2452318946228E+00 -0.1016347471091E+01  0.0000000000000E+00
 0.2461959548292E+00 -0.9510006570345E+00  0.0000000000000E+00
 0.2470567846829E+00 -0.8856456924151E+00  0.0000000000000E+00
 0.2477942480618E+00 -0.8202822379657E+00  0.0000000000000E+00
 0.2484061520058E+00 -0.7549118350073E+00  0.0000000000000E+00
 0.2489004150619E+00 -0.6895362049592E+00  0.0000000000000E+00
 0.2492890482866E+00 -0.6241571537411E+00  0.0000000000000E+00
 0.2495847562426E+00 -0.5587759318069E+00  0.0000000000000E+00
 0.2497993765596E+00 -0.4933935338409E+00  0.0000000000000E+00
 0.2684242694147E+00 -0.1671116799478E+01  0.0000000000000E+00
 0.2686591031430E+00 -0.1605862988404E+01  0.0000000000000E+00
 0.2689851604755E+00 -0.1540610353321E+01  0.0000000000000E+00
 0.2694157587553E+00 -0.1475359888869E+01  0.0000000000000E+00
 0.2699651906179E+00 -0.1410112845663E+01  0.0000000000000E+00
 0.2706469685284E+00 -0.1344871029414E+01  0.0000000000000E+00
 0.2714700008599E+00 -0.1279636161824E+01  0.0000000000000E+00
 0.2724318205741E+00 -0.1214409783944E+01  0.0000000000000E+00
 0.2735097745524E+00 -0.1149191556758E+01  0.0000000000000E+00
 0.2746554888105E+00 -0.1083978604548E+01  0.0000000000000E+00
 0.2758012031444E+00 -0.1018765652339E+01  0.0000000000000E+00
 0.2768791573396E+00 -0.9535474251570E+00  0.0000000000000E+00
 0.2778409773874E+00 -0.8883210472817E+00  0.0000000000000E+00
 0.2786640101394E+00 -0.8230861796958E+00  0.0000000000000E+00
 0.2793457885309E+00 -0.7578443634509E+00  0.0000000000000E+00
 0.2798952209140E+00 -0.6925973202491E+00  0.0000000000000E+00
 0.2803258197392E+00 -0.6273468557994E+00  0.0000000000000E+00
 0.2806518776318E+00 -0.5620942207181E+00  0.0000000000000E+00
 0.2808867119278E+00 -0.4968404096451E+00  0.0000000000000E+00
 0.2982262162405E+00 -0.1672381695408E+01  0.0000000000000E+00
 0.2984789668060E+00 -0.1607271179427E+01  0.0000000000000E+00
 0.2988330769373E+00 -0.1542161839391E+01  0.0000000000000E+00
 0.2993033436852E+00 -0.1477054669892E+01  0.0000000000000E+00
 0.2999056477456E+00 -0.1411950921727E+01  0.0000000000000E+00
 0.3006550029816E+00 -0.1346852400370E+01  0.0000000000000E+00
 0.3015613075666E+00 -0.1281760827839E+01  0.0000000000000E+00
 0.3026218203629E+00 -0.1216677744886E+01  0.0000000000000E+00
 0.3038113712198E+00 -0.1151602812772E+01  0.0000000000000E+00
 0.3050762112702E+00 -0.1086533155653E+01  0.0000000000000E+00
 0.3063410513962E+00 -0.1021463498536E+01  0.0000000000000E+00
 0.3075306024701E+00 -0.9563885664261E+00  0.0000000000000E+00
 0.3085911155999E+00 -0.8913054834775E+00  0.0000000000000E+00
 0.3094974206055E+00 -0.8262139109515E+00  0.0000000000000E+00
 0.3102467763224E+00 -0.7611153895993E+00  0.0000000000000E+00
 0.3108490809033E+00 -0.6960116414382E+00  0.0000000000000E+00
 0.3113193481967E+00 -0.6309044719423E+00  0.0000000000000E+00
 0.3116734588881E+00 -0.5657951319091E+00  0.0000000000000E+00
 0.3119262100213E+00 -0.5006846159287E+00  0.0000000000000E+00
 0.3280209425970E+00 -0.1673778966920E+01  0.0000000000000E+00
 0.3282890794610E+00 -0.1608826318313E+01  0.0000000000000E+00
 0.3286687118504E+00 -0.1543874845604E+01  0.0000000000000E+00
 0.3291761165241E+00 -0.1478925543327E+01  0.0000000000000E+00
 0.3298287622345E+00 -0.1413979662479E+01  0.0000000000000E+00
 0.3306431642467E+00 -0.1349039008277E+01  0.0000000000000E+00
 0.3316302105286E+00 -0.1284105303084E+01  0.0000000000000E+00
 0.3327868858481E+00 -0.1219180087322E+01  0.0000000000000E+00
 0.3340855030187E+00 -0.1154263022560E+01  0.0000000000000E+00
 0.3354669382939E+00 -0.1089351232816E+01  0.0000000000000E+00
 0.3368483736447E+00 -0.1024439443074E+01  0.0000000000000E+00
 0.3381469910323E+00 -0.9595223783156E+00  0.0000000000000E+00
 0.3393036666853E+00 -0.8945971625594E+00  0.0000000000000E+00
 0.3402907133878E+00 -0.8296634573724E+00  0.0000000000000E+00
 0.3411051158809E+00 -0.7647228031751E+00  0.0000000000000E+00
 0.3417577621119E+00 -0.6997769223317E+00  0.0000000000000E+00
 0.3422651673310E+00 -0.6348276200581E+00  0.0000000000000E+00
 0.3426448002805E+00 -0.5698761473508E+00  0.0000000000000E+00
 0.3429129377122E+00 -0.5049234987456E+00  0.0000000000000E+00
 0.3578077951490E+00 -0.1675308389770E+01  0.0000000000000E+00
 0.3580885561653E+00 -0.1610528032351E+01  0.0000000000000E+00
 0.3584909486692E+00 -0.1545748850774E+01  0.0000000000000E+00
 0.3590327291289E+00 -0.1480971839517E+01  0.0000000000000E+00
 0.3597329543503E+00 -0.1416198249793E+01  0.0000000000000E+00
 0.3606096410050E+00 -0.1351429886536E+01  0.0000000000000E+00
 0.3616746668497E+00 -0.1286668472490E+01  0.0000000000000E+00
 0.3629247425635E+00 -0.1221915547716E+01  0.0000000000000E+00
 0.3643296639184E+00 -0.1157170774115E+01  0.0000000000000E+00
 0.3658249322898E+00 -0.1092431275557E+01  0.0000000000000E+00
 0.3673202007369E+00 -0.1027691777001E+01  0.0000000000000E+00
 0.3687251223088E+00 -0.9629470034044E+00  0.0000000000000E+00
 0.3699751983561E+00 -0.8981940786356E+00  0.0000000000000E+00
 0.3710402246213E+00 -0.8334326645960E+00  0.0000000000000E+00
 0.3719169117570E+00 -0.7686643013451E+00  0.0000000000000E+00
 0.3726171374990E+00 -0.7038907116260E+00  0.0000000000000E+00
 0.3731589185041E+00 -0.6391137003723E+00  0.0000000000000E+00
 0.3735613115680E+00 -0.5743345187982E+00  0.0000000000000E+00
 0.3738420731521E+00 -0.5095541613797E+00  0.0000000000000E+00
 0.3875860607136E+00 -0.1676969718067E+01  0.0000000000000E+00
 0.3878764645286E+00 -0.1612375915917E+01  0.0000000000000E+00
 0.3882986357959E+00 -0.1547783289551E+01  0.0000000000000E+00
 0.3888718106944E+00 -0.1483192833383E+01  0.0000000000000E+00
 0.3896166340798E+00 -0.1418605798860E+01  0.0000000000000E+00
 0.3905526240356E+00 -0.1354023990612E+01  0.0000000000000E+00
 0.3916926481006E+00 -0.1289449131793E+01  0.0000000000000E+00
 0.3930331428715E+00 -0.1224882762071E+01  0.0000000000000E+00
 0.3945413870725E+00 -0.1160324543713E+01  0.0000000000000E+00
 0.3961475072028E+00 -0.1095771600424E+01  0.0000000000000E+00
 0.3977536274088E+00 -0.1031218657136E+01  0.0000000000000E+00
 0.3992618718269E+00 -0.9666604387825E+00  0.0000000000000E+00
 0.4006023669313E+00 -0.9020940690673E+00  0.0000000000000E+00
 0.4017423914168E+00 -0.8375192102545E+00  0.0000000000000E+00
 0.4026783818535E+00 -0.7729374020130E+00  0.0000000000000E+00
 0.4034232057596E+00 -0.7083503674957E+00  0.0000000000000E+00
 0.4039963812035E+00 -0.6437599113309E+00  0.0000000000000E+00
 0.4044185530308E+00 -0.5791672849682E+00  0.0000000000000E+00
 0.4047089574136E+00 -0.5145734828194E+00  0.0000000000000E+00
 0.4173550733497E+00 -0.1678762688782E+01  0.0000000000000E+00
 0.4176519204570E+00 -0.1614369534370E+01  0.0000000000000E+00
 0.4180906709789E+00 -0.1549977555680E+01  0.0000000000000E+00
 0.4186920408057E+00 -0.1485587747055E+01  0.0000000000000E+00
 0.4194782628384E+00 -0.1421201360198E+01  0.0000000000000E+00
 0.4204703565771E+00 -0.1356820199408E+01  0.0000000000000E+00
 0.4216821793354E+00 -0.1292445988280E+01  0.0000000000000E+00
 0.4231098936343E+00 -0.1228080266064E+01  0.0000000000000E+00
 0.4247182611449E+00 -0.1163722695415E+01  0.0000000000000E+00
 0.4264320334947E+00 -0.1099370399863E+01  0.0000000000000E+00
 0.4281458059202E+00 -0.1035018104312E+01  0.0000000000000E+00
 0.4297541736479E+00 -0.9706605336683E+00  0.0000000000000E+00
 0.4311818882803E+00 -0.9062948114591E+00  0.0000000000000E+00
 0.4323937114591E+00 -0.8419206003386E+00  0.0000000000000E+00
 0.4333858056787E+00 -0.7775394395554E+00  0.0000000000000E+00
 0.4341720282321E+00 -0.7131530527035E+00  0.0000000000000E+00
 0.4347733986043E+00 -0.6487632440825E+00  0.0000000000000E+00
 0.4352121496862E+00 -0.5843712653956E+00  0.0000000000000E+00
 0.4355089973612E+00 -0.5199781109850E+00  0.0000000000000E+00
 0.4471141841628E+00 -0.1680687022310E+01  0.0000000000000E+00
 0.4474140681448E+00 -0.1616508426641E+01  0.0000000000000E+00
 0.4478659915118E+00 -0.1552331006628E+01  0.0000000000000E+00
 0.4484921498675E+00 -0.1488155756537E+01  0.0000000000000E+00
 0.4493163641549E+00 -0.1423983928345E+01  0.0000000000000E+00
 0.4503611552972E+00 -0.1359817325998E+01  0.0000000000000E+00
 0.4516413703761E+00 -0.1295657673564E+01  0.0000000000000E+00
 0.4531528978439E+00 -0.1231506509842E+01  0.0000000000000E+00
 0.4548579823102E+00 -0.1167363497905E+01  0.0000000000000E+00
 0.4566760005302E+00 -0.1103225761095E+01  0.0000000000000E+00
 0.4584940188258E+00 -0.1039088024287E+01  0.0000000000000E+00
 0.4601991035092E+00 -0.9749450123550E+00  0.0000000000000E+00
 0.4617106313106E+00 -0.9107938486407E+00  0.0000000000000E+00
 0.4629908468100E+00 -0.8466341962143E+00  0.0000000000000E+00
 0.4640356384332E+00 -0.7824675938748E+00  0.0000000000000E+00
 0.4648598532412E+00 -0.7182957656882E+00  0.0000000000000E+00
 0.4654860121423E+00 -0.6541205156026E+00  0.0000000000000E+00
 0.4659379360693E+00 -0.5899430955919E+00  0.0000000000000E+00
 0.4662378206191E+00 -0.5257644999245E+00  0.0000000000000E+00
 0.4768626808375E+00 -0.1682742416794E+01  0.0000000000000E+00
 0.4771619935814E+00 -0.1618792098491E+01  0.0000000000000E+00
 0.4776234816665E+00 -0.1554842955773E+01  0.0000000000000E+00
 0.4782708204089E+00 -0.1490895982827E+01  0.0000000000000E+00
 0.4791294187871E+00 -0.1426952431917E+01  0.0000000000000E+00
 0.4802232991507E+00 -0.1363014106618E+01  0.0000000000000E+00
 0.4815682983403E+00 -0.1299082731497E+01  0.0000000000000E+00
 0.4831600307474E+00 -0.1235159844877E+01  0.0000000000000E+00
 0.4849582239168E+00 -0.1171245110272E+01  0.0000000000000E+00
 0.4868768797426E+00 -0.1107335650828E+01  0.0000000000000E+00
 0.4887955356439E+00 -0.1043426191385E+01  0.0000000000000E+00
 0.4905937290304E+00 -0.9795114567866E+00  0.0000000000000E+00
 0.4921854617710E+00 -0.9155885701742E+00  0.0000000000000E+00
 0.4935304613811E+00 -0.8516571950617E+00  0.0000000000000E+00
 0.4946243422257E+00 -0.7877188697700E+00  0.0000000000000E+00
 0.4954829411245E+00 -0.7237753188667E+00  0.0000000000000E+00
 0.4961302804124E+00 -0.6598283459261E+00  0.0000000000000E+00
 0.4965917690575E+00 -0.5958792032105E+00  0.0000000000000E+00
 0.4968910823691E+00 -0.5319288849093E+00  0.0000000000000E+00
 0.5065999773523E+00 -0.1684928562411E+01  0.0000000000000E+00
 0.5068949207371E+00 -0.1621220040089E+01  0.0000000000000E+00
 0.5073621754349E+00 -0.1557512693277E+01  0.0000000000000E+00
 0.5080268964777E+00 -0.1493807516079E+01  0.0000000000000E+00
 0.5089160808768E+00 -0.1430105761064E+01  0.0000000000000E+00
 0.5100552524167E+00 -0.1366409231408E+01  0.0000000000000E+00
 0.5114612376898E+00 -0.1302719652214E+01  0.0000000000000E+00
 0.5131293770345E+00 -0.1239038561295E+01  0.0000000000000E+00
 0.5150168809198E+00 -0.1175365622638E+01  0.0000000000000E+00
 0.5170323763743E+00 -0.1111697959174E+01  0.0000000000000E+00
 0.5190478719044E+00 -0.1048030295713E+01  0.0000000000000E+00
 0.5209353760067E+00 -0.9843573570614E+00  0.0000000000000E+00
 0.5226035156849E+00 -0.9206762661513E+00  0.0000000000000E+00
 0.5240095013785E+00 -0.8569866869656E+00  0.0000000000000E+00
 0.5251486733994E+00 -0.7932901573186E+00  0.0000000000000E+00
 0.5260378583190E+00 -0.7295884023095E+00  0.0000000000000E+00
 0.5267025799074E+00 -0.6658832251168E+00  0.0000000000000E+00
 0.5271698351652E+00 -0.6021758783080E+00  0.0000000000000E+00
 0.5274647791177E+00 -0.5384673559889E+00  0.0000000000000E+00
 0.5363253937430E+00 -0.1687245126228E+01  0.0000000000000E+00
 0.5366119860150E+00 -0.1623791708789E+01  0.0000000000000E+00
 0.5370810255763E+00 -0.1560339466780E+01  0.0000000000000E+00
 0.5377591471768E+00 -0.1496889394217E+01  0.0000000000000E+00
 0.5386749358556E+00 -0.1433442743990E+01  0.0000000000000E+00
 0.5398554168395E+00 -0.1370001318861E+01  0.0000000000000E+00
 0.5413184064642E+00 -0.1306566844490E+01  0.0000000000000E+00
 0.5430589710231E+00 -0.1243140858158E+01  0.0000000000000E+00
 0.5450318039010E+00 -0.1179723024346E+01  0.0000000000000E+00
 0.5471401572628E+00 -0.1116310465763E+01  0.0000000000000E+00
 0.5492485107003E+00 -0.1052897907183E+01  0.0000000000000E+00
 0.5512213437952E+00 -0.9894800733776E+00  0.0000000000000E+00
 0.5529619086877E+00 -0.9260540870546E+00  0.0000000000000E+00
 0.5544248987329E+00 -0.8626196126929E+00  0.0000000000000E+00
 0.5556053801978E+00 -0.7991781875723E+00  0.0000000000000E+00
 0.5565211693972E+00 -0.7357315373529E+00  0.0000000000000E+00
 0.5571992915431E+00 -0.6722814647954E+00  0.0000000000000E+00
 0.5576683316644E+00 -0.6088292227895E+00  0.0000000000000E+00
 0.5579549245041E+00 -0.5453758053527E+00  0.0000000000000E+00
 0.5660383036526E+00 -0.1689691762168E+01  0.0000000000000E+00
 0.5663123811983E+00 -0.1626506539575E+01  0.0000000000000E+00
 0.5667790419974E+00 -0.1563322492327E+01  0.0000000000000E+00
 0.5674664005168E+00 -0.1500140614350E+01  0.0000000000000E+00
 0.5684046298164E+00 -0.1436962158871E+01  0.0000000000000E+00
 0.5696222565698E+00 -0.1373788928213E+01  0.0000000000000E+00
 0.5711380868456E+00 -0.1310622648626E+01  0.0000000000000E+00
 0.5729469129013E+00 -0.1247464856829E+01  0.0000000000000E+00
 0.5750009110328E+00 -0.1184315217823E+01  0.0000000000000E+00
 0.5771979585521E+00 -0.1121170854085E+01  0.0000000000000E+00
 0.5793950061471E+00 -0.1058026490350E+01  0.0000000000000E+00
 0.5814490044956E+00 -0.9948768513511E+00  0.0000000000000E+00
 0.5832578308849E+00 -0.9317190595634E+00  0.0000000000000E+00
 0.5847736615812E+00 -0.8685527799859E+00  0.0000000000000E+00
 0.5859912888156E+00 -0.8053795493368E+00  0.0000000000000E+00
 0.5869295186357E+00 -0.7422010938657E+00  0.0000000000000E+00
 0.5876168777006E+00 -0.6790192158940E+00  0.0000000000000E+00
 0.5880835390597E+00 -0.6158351686501E+00  0.0000000000000E+00
 0.5883576171732E+00 -0.5526499460589E+00  0.0000000000000E+00
-0.1182610616184E+01 -0.1709938151910E+01  0.0000000000000E+00
-0.1206840600949E+01 -0.1599271303952E+01  0.0000000000000E+00
-0.1234987980858E+01 -0.1489562273115E+01  0.0000000000000E+00
-0.1268147886288E+01 -0.1381306365269E+01  0.0000000000000E+00
-0.1307801009883E+01 -0.1275324724782E+01  0.0000000000000E+00
-0.1353020462603E+01 -0.1171637126831E+01  0.0000000000000E+00
-0.1397268459649E+01 -0.1067515066351E+01  0.0000000000000E+00
-0.1437122473078E+01 -0.9615813592161E+00  0.0000000000000E+00
-0.1472550192246E+01 -0.8540374650362E+00  0.0000000000000E+00
-0.1503921191345E+01 -0.7452053677059E+00  0.0000000000000E+00
-0.1531272791497E+01 -0.6352674555980E+00  0.0000000000000E+00
-0.1554282707568E+01 -0.5243175831196E+00  0.0000000000000E+00
-0.1572939532414E+01 -0.4125357734460E+00  0.0000000000000E+00
-0.1586992041029E+01 -0.3000702231276E+00  0.0000000000000E+00
-0.1595657715404E+01 -0.1870553481994E+00  0.0000000000000E+00
-0.1598364296081E+01 -0.7373369945448E-01  0.0000000000000E+00
-0.1596500729268E+01  0.3959193470411E-01  0.0000000000000E+00
-0.1576465557885E+01  0.1508144777421E+00  0.0000000000000E+00
-0.1525097607493E+01  0.2508838507572E+00  0.0000000000000E+00
-0.1151849224518E+01 -0.1708018429854E+01  0.0000000000000E+00
-0.1174810817950E+01 -0.1599917521458E+01  0.0000000000000E+00
-0.1201494297363E+01 -0.1492724079797E+01  0.0000000000000E+00
-0.1232938712419E+01 -0.1386907393241E+01  0.0000000000000E+00
-0.1270548496269E+01 -0.1283245453469E+01  0.0000000000000E+00
-0.1313447122937E+01 -0.1181757097507E+01  0.0000000000000E+00
-0.1355441944237E+01 -0.1079857510625E+01  0.0000000000000E+00
-0.1393290276807E+01 -0.9762420726324E+00  0.0000000000000E+00
-0.1426958860821E+01 -0.8711016241228E+00  0.0000000000000E+00
-0.1456792161492E+01 -0.7647410505408E+00  0.0000000000000E+00
-0.1482817610549E+01 -0.6573328628486E+00  0.0000000000000E+00
-0.1504721960076E+01 -0.5489656979899E+00  0.0000000000000E+00
-0.1522488745507E+01 -0.4398099530286E+00  0.0000000000000E+00
-0.1535877314757E+01 -0.3300060065687E+00  0.0000000000000E+00
-0.1544146046571E+01 -0.2196812801132E+00  0.0000000000000E+00
-0.1546753842042E+01 -0.1090656515018E+00  0.0000000000000E+00
-0.1545018125930E+01  0.1553936656996E-02  0.0000000000000E+00
-0.1526054989336E+01  0.1101813215066E+00  0.0000000000000E+00
-0.1477397507004E+01  0.2082426775406E+00  0.0000000000000E+00
-0.1121071481666E+01 -0.1706207396943E+01  0.0000000000000E+00
-0.1142765544784E+01 -0.1600666705050E+01  0.0000000000000E+00
-0.1167985984722E+01 -0.1495983129601E+01  0.0000000000000E+00
-0.1197715770410E+01 -0.1392599941581E+01  0.0000000000000E+00
-0.1233283075506E+01 -0.1291251980047E+01  0.0000000000000E+00
-0.1273861737223E+01 -0.1191957143015E+01  0.0000000000000E+00
-0.1313604243862E+01 -0.1092274306747E+01  0.0000000000000E+00
-0.1349447756621E+01 -0.9909714150146E+00  0.0000000000000E+00
-0.1381358066526E+01 -0.8882286892072E+00  0.0000000000000E+00
-0.1409654529800E+01 -0.7843339163719E+00  0.0000000000000E+00
-0.1434354688775E+01 -0.6794497301018E+00  0.0000000000000E+00
-0.1455154332752E+01 -0.5736595498896E+00  0.0000000000000E+00
-0.1472031939748E+01 -0.4671241466607E+00  0.0000000000000E+00
-0.1484757430585E+01 -0.3599760811308E+00  0.0000000000000E+00
-0.1492630080751E+01 -0.2523357803654E+00  0.0000000000000E+00
-0.1495139951914E+01 -0.1444204490327E+00  0.0000000000000E+00
-0.1493532947327E+01 -0.3650118443096E-01  0.0000000000000E+00
-0.1475642704875E+01  0.6953675537040E-01  0.0000000000000E+00
-0.1429696548673E+01  0.1655957997913E+00  0.0000000000000E+00
-0.1090277778680E+01 -0.1704505302474E+01  0.0000000000000E+00
-0.1110705151904E+01 -0.1601519090901E+01  0.0000000000000E+00
-0.1134463392784E+01 -0.1499339645572E+01  0.0000000000000E+00
-0.1162479389508E+01 -0.1398384220211E+01  0.0000000000000E+00
-0.1196005056235E+01 -0.1299344501311E+01  0.0000000000000E+00
-0.1234264593488E+01 -0.1202237447020E+01  0.0000000000000E+00
-0.1271755625938E+01 -0.1104765625254E+01  0.0000000000000E+00
-0.1305595159327E+01 -0.1005769543773E+01  0.0000000000000E+00
-0.1335748035559E+01 -0.9054188045732E+00  0.0000000000000E+00
-0.1362508501866E+01 -0.8039840963573E+00  0.0000000000000E+00
-0.1385884211173E+01 -0.7016181753908E+00  0.0000000000000E+00
-0.1405579989997E+01 -0.5983992437282E+00  0.0000000000000E+00
-0.1421569258942E+01 -0.4944784461285E+00  0.0000000000000E+00
-0.1433632511731E+01 -0.3899805254777E+00  0.0000000000000E+00
-0.1441109920573E+01 -0.2850189144976E+00  0.0000000000000E+00
-0.1443522707747E+01 -0.1797981444669E+00  0.0000000000000E+00
-0.1442045254927E+01 -0.7457346785855E-01  0.0000000000000E+00
-0.1425228745440E+01  0.2888075313570E-01  0.0000000000000E+00
-0.1381994752957E+01  0.1229432044031E+00  0.0000000000000E+00
-0.1059468488513E+01 -0.1702912387231E+01  0.0000000000000E+00
-0.1078629992469E+01 -0.1602474907163E+01  0.0000000000000E+00
-0.1100926854868E+01 -0.1502793843219E+01  0.0000000000000E+00
-0.1127229883123E+01 -0.1404260431974E+01  0.0000000000000E+00
-0.1158714731872E+01 -0.1307523207410E+01  0.0000000000000E+00
-0.1194655965084E+01 -0.1212598186943E+01  0.0000000000000E+00
-0.1229896343770E+01 -0.1117331630845E+01  0.0000000000000E+00
-0.1261732718247E+01 -0.1020636610909E+01  0.0000000000000E+00
-0.1290128981326E+01 -0.9226721095494E+00  0.0000000000000E+00
-0.1315354271230E+01 -0.8236917171689E+00  0.0000000000000E+00
-0.1337406351476E+01 -0.7238383127460E+00  0.0000000000000E+00
-0.1355999085795E+01 -0.6231848809079E+00  0.0000000000000E+00
-0.1371100837377E+01 -0.5218729402175E+00  0.0000000000000E+00
-0.1382502672845E+01 -0.4200194157871E+00  0.0000000000000E+00
-0.1389585661121E+01 -0.3177307460877E+00  0.0000000000000E+00
-0.1391902185134E+01 -0.2151987887865E+00  0.0000000000000E+00
-0.1390555104895E+01 -0.1126629520127E+00  0.0000000000000E+00
-0.1374813148038E+01 -0.1178671098245E-01  0.0000000000000E+00
-0.1334292138156E+01  0.8028487832643E-01  0.0000000000000E+00
-0.1028644031902E+01 -0.1701428892511E+01  0.0000000000000E+00
-0.1046540465220E+01 -0.1603534382381E+01  0.0000000000000E+00
-0.1067376747767E+01 -0.1506345938346E+01  0.0000000000000E+00
-0.1091967606169E+01 -0.1410228779957E+01  0.0000000000000E+00
-0.1121412435542E+01 -0.1315788288743E+01  0.0000000000000E+00
-0.1155036163413E+01 -0.1223039540529E+01  0.0000000000000E+00
-0.1188026687019E+01 -0.1129972488601E+01  0.0000000000000E+00
-0.1217860701239E+01 -0.1035572768820E+01  0.0000000000000E+00
-0.1244501149814E+01 -0.9399887438216E+00  0.0000000000000E+00
-0.1268192061956E+01 -0.8434569057652E+00  0.0000000000000E+00
-0.1288921311765E+01 -0.7461102563833E+00  0.0000000000000E+00
-0.1306411800184E+01 -0.6480165628883E+00  0.0000000000000E+00
-0.1320626833000E+01 -0.5493077176197E+00  0.0000000000000E+00
-0.1331368049718E+01 -0.4500928279743E+00  0.0000000000000E+00
-0.1338057415963E+01 -0.3504713382674E+00  0.0000000000000E+00
-0.1340278475341E+01 -0.2506224323349E+00  0.0000000000000E+00
-0.1339062566136E+01 -0.1507696744498E+00  0.0000000000000E+00
-0.1324395959008E+01 -0.5246566180157E-01  0.0000000000000E+00
-0.1286588727643E+01  0.3762080931293E-01  0.0000000000000E+00
-0.9978048091164E+00 -0.1700055050454E+01  0.0000000000000E+00
-0.1014436949344E+01 -0.1604697736472E+01  0.0000000000000E+00
-0.1033813429585E+01 -0.1509996138651E+01  0.0000000000000E+00
-0.1056692895666E+01 -0.1416289459633E+01  0.0000000000000E+00
-0.1084098483174E+01 -0.1324139928563E+01  0.0000000000000E+00
-0.1115405483312E+01 -0.1233561678802E+01  0.0000000000000E+00
-0.1146146929431E+01 -0.1142688357325E+01  0.0000000000000E+00
-0.1173979360959E+01 -0.1050578164083E+01  0.0000000000000E+00
-0.1198864772593E+01 -0.9573688417442E+00  0.0000000000000E+00
-0.1221022084529E+01 -0.8632797842780E+00  0.0000000000000E+00
-0.1240429281443E+01 -0.7684341162128E+00  0.0000000000000E+00
-0.1256818301491E+01 -0.6728943873585E+00  0.0000000000000E+00
-0.1270147393055E+01 -0.5767828638030E+00  0.0000000000000E+00
-0.1280228768520E+01 -0.4802008352871E+00  0.0000000000000E+00
-0.1286525290197E+01 -0.3832407520642E+00  0.0000000000000E+00
-0.1288651662395E+01 -0.2860691239199E+00  0.0000000000000E+00
-0.1287567701612E+01 -0.1888936717586E+00  0.0000000000000E+00
-0.1273977220288E+01 -0.9315612371048E-01  0.0000000000000E+00
-0.1238884542376E+01 -0.5049014836916E-02  0.0000000000000E+00
-0.9669512233292E+00 -0.1698791087330E+01  0.0000000000000E+00
-0.9823198267800E+00 -0.1605965183794E+01  0.0000000000000E+00
-0.1000237261024E+01 -0.1513744646577E+01  0.0000000000000E+00
-0.1021406091078E+01 -0.1422442661535E+01  0.0000000000000E+00
-0.1046773192995E+01 -0.1332578305487E+01  0.0000000000000E+00
-0.1075764221763E+01 -0.1244164768467E+01  0.0000000000000E+00
-0.1104257346747E+01 -0.1155479391803E+01  0.0000000000000E+00
-0.1130088951907E+01 -0.1065652939568E+01  0.0000000000000E+00
-0.1153220082925E+01 -0.9748125342746E+00  0.0000000000000E+00
-0.1173844550973E+01 -0.8831604717515E+00  0.0000000000000E+00
-0.1191930451300E+01 -0.7908099993657E+00  0.0000000000000E+00
-0.1207218759270E+01 -0.6978184495369E+00  0.0000000000000E+00
-0.1219662665868E+01 -0.6042984620743E+00  0.0000000000000E+00
-0.1229084956349E+01 -0.5103435091204E+00  0.0000000000000E+00
-0.1234989389694E+01 -0.4160390469624E+00  0.0000000000000E+00
-0.1237021830944E+01 -0.3215389111147E+00  0.0000000000000E+00
-0.1236070574753E+01 -0.2270349796020E+00  0.0000000000000E+00
-0.1223556974129E+01 -0.1338581204802E+00  0.0000000000000E+00
-0.1191179603475E+01 -0.4772460601326E-01  0.0000000000000E+00
-0.9360836724979E+00 -0.1697637222502E+01  0.0000000000000E+00
-0.9501894744693E+00 -0.1607336932178E+01  0.0000000000000E+00
-0.9666485979921E+00 -0.1517591658418E+01  0.0000000000000E+00
-0.9861075272542E+00 -0.1428688570411E+01  0.0000000000000E+00
-0.1009436878761E+01 -0.1341103592706E+01  0.0000000000000E+00
-0.1036112671401E+01 -0.1254848971143E+01  0.0000000000000E+00
-0.1062358210486E+01 -0.1168345742088E+01  0.0000000000000E+00
-0.1086189724515E+01 -0.1080797233774E+01  0.0000000000000E+00
-0.1107567310176E+01 -0.9923199483614E+00  0.0000000000000E+00
-0.1126659669612E+01 -0.9030990835921E+00  0.0000000000000E+00
-0.1143425008638E+01 -0.8132380097123E+00  0.0000000000000E+00
-0.1157613339827E+01 -0.7227888417635E+00  0.0000000000000E+00
-0.1169172796767E+01 -0.6318545932468E+00  0.0000000000000E+00
-0.1177936737578E+01 -0.5405209187650E+00  0.0000000000000E+00
-0.1183449817901E+01 -0.4488662807332E+00  0.0000000000000E+00
-0.1185389063541E+01 -0.3570318401726E+00  0.0000000000000E+00
-0.1184571247236E+01 -0.2651936327164E+00  0.0000000000000E+00
-0.1173135261469E+01 -0.1745716753379E+00  0.0000000000000E+00
-0.1143473931327E+01 -0.9040597589074E-01  0.0000000000000E+00
-0.9052025656608E+00 -0.1696593670407E+01  0.0000000000000E+00
-0.9180462799102E+00 -0.1608813184770E+01  0.0000000000000E+00
-0.9330478064465E+00 -0.1521537366029E+01  0.0000000000000E+00
-0.9507975486092E+00 -0.1435027366826E+01  0.0000000000000E+00
-0.9720898633460E+00 -0.1349715959497E+01  0.0000000000000E+00
-0.9964511335561E+00 -0.1265614444814E+01  0.0000000000000E+00
-0.1020449800433E+01 -0.1181287554874E+01  0.0000000000000E+00
-0.1042281937024E+01 -0.1096011182100E+01  0.0000000000000E+00
-0.1061906691047E+01 -0.1009891208114E+01  0.0000000000000E+00
-0.1079467655605E+01 -0.9230957326186E+00  0.0000000000000E+00
-0.1094913147077E+01 -0.8357182487808E+00  0.0000000000000E+00
-0.1108002215241E+01 -0.7478056542760E+00  0.0000000000000E+00
-0.1118677936293E+01 -0.6594513362685E+00  0.0000000000000E+00
-0.1126784241210E+01 -0.5707331318790E+00  0.0000000000000E+00
-0.1131906682287E+01 -0.4817225097452E+00  0.0000000000000E+00
-0.1133753446117E+01 -0.3925479561725E+00  0.0000000000000E+00
-0.1133069783463E+01 -0.3033696648919E+00  0.0000000000000E+00
-0.1122712125213E+01 -0.2152968108032E+00  0.0000000000000E+00
-0.1095767547380E+01 -0.1330931357309E+00  0.0000000000000E+00
-0.8743083235843E+00 -0.1695660640404E+01  0.0000000000000E+00
-0.8858906417741E+00 -0.1610394139888E+01  0.0000000000000E+00
-0.8994352629835E+00 -0.1525581956693E+01  0.0000000000000E+00
-0.9154765096915E+00 -0.1441459227032E+01  0.0000000000000E+00
-0.9347324792844E+00 -0.1358415571095E+01  0.0000000000000E+00
-0.9567799187723E+00 -0.1276461343713E+01  0.0000000000000E+00
-0.9785324051374E+00 -0.1194304973383E+01  0.0000000000000E+00
-0.9983658559628E+00 -0.1111294916756E+01  0.0000000000000E+00
-0.1016238470020E+01 -0.1027526434715E+01  0.0000000000000E+00
-0.1032268731369E+01 -0.9431505289813E+00  0.0000000000000E+00
-0.1046395066944E+01 -0.8582508156835E+00  0.0000000000000E+00
-0.1058385563728E+01 -0.7728689751435E+00  0.0000000000000E+00
-0.1068178240529E+01 -0.6870887681605E+00  0.0000000000000E+00
-0.1075627601174E+01 -0.6009802144323E+00  0.0000000000000E+00
-0.1080360094597E+01 -0.5146077889146E+00  0.0000000000000E+00
-0.1082115068208E+01 -0.4280873029753E+00  0.0000000000000E+00
-0.1081566250735E+01 -0.3415631089346E+00  0.0000000000000E+00
-0.1072287610372E+01 -0.2560335486556E+00  0.0000000000000E+00
-0.1048060474216E+01 -0.1757860963612E+00  0.0000000000000E+00
-0.8434013602891E+00 -0.1694838334539E+01  0.0000000000000E+00
-0.8537229522776E+00 -0.1612079988939E+01  0.0000000000000E+00
-0.8658113380143E+00 -0.1529725611177E+01  0.0000000000000E+00
-0.8801447591061E+00 -0.1447984321162E+01  0.0000000000000E+00
-0.8973650533733E+00 -0.1367202586994E+01  0.0000000000000E+00
-0.9170993320358E+00 -0.1287389816692E+01  0.0000000000000E+00
-0.9366063077746E+00 -0.1207398135830E+01  0.0000000000000E+00
-0.9544417426990E+00 -0.1126648565315E+01  0.0000000000000E+00
-0.9705628866563E+00 -0.1045225745102E+01  0.0000000000000E+00
-0.9850631146560E+00 -0.9632635789787E+00  0.0000000000000E+00
-0.9978709641868E+00 -0.8808358060813E+00  0.0000000000000E+00
-0.1008763559434E+01 -0.7979788893896E+00  0.0000000000000E+00
-0.1017673861820E+01 -0.7147669633096E+00  0.0000000000000E+00
-0.1024466948015E+01 -0.6312622301750E+00  0.0000000000000E+00
-0.1028810163580E+01 -0.5475221713554E+00  0.0000000000000E+00
-0.1030474016764E+01 -0.4636499230587E+00  0.0000000000000E+00
-0.1030060714210E+01 -0.3797739966868E+00  0.0000000000000E+00
-0.1021861760353E+01 -0.2967819101190E+00  0.0000000000000E+00
-0.1000352733534E+01 -0.2184848683968E+00  0.0000000000000E+00
-0.8124820923393E+00 -0.1694126948634E+01  0.0000000000000E+00
-0.8215436060466E+00 -0.1613870917436E+01  0.0000000000000E+00
-0.8321764042262E+00 -0.1533968504685E+01  0.0000000000000E+00
-0.8448026476007E+00 -0.1454602814107E+01  0.0000000000000E+00
-0.8599879144201E+00 -0.1376077161776E+01  0.0000000000000E+00
-0.8774096802096E+00 -0.1298400008021E+01  0.0000000000000E+00
-0.8946717932639E+00 -0.1220567176174E+01  0.0000000000000E+00
-0.9105098602098E+00 -0.1142072251424E+01  0.0000000000000E+00
-0.9248801819917E+00 -0.1062989252608E+01  0.0000000000000E+00
-0.9378510245649E+00 -0.9834349856361E+00  0.0000000000000E+00
-0.9493410359662E+00 -0.9034733126893E+00  0.0000000000000E+00
-0.9591363775820E+00 -0.8231354794195E+00  0.0000000000000E+00
-0.9671649534541E+00 -0.7424859938115E+00  0.0000000000000E+00
-0.9733024130866E+00 -0.6615792408938E+00  0.0000000000000E+00
-0.9772569986568E+00 -0.5804657085455E+00  0.0000000000000E+00
-0.9788303792791E+00 -0.4992358575917E+00  0.0000000000000E+00
-0.9785532394554E+00 -0.4180023590096E+00  0.0000000000000E+00
-0.9714346188367E+00 -0.3375419157624E+00  0.0000000000000E+00
-0.9526443471667E+00 -0.2611894621254E+00  0.0000000000000E+00
-0.7815509360540E+00 -0.1693526671952E+01  0.0000000000000E+00
-0.7893529974569E+00 -0.1615767104683E+01  0.0000000000000E+00
-0.7985308340446E+00 -0.1538310806561E+01  0.0000000000000E+00
-0.8094505256421E+00 -0.1461314865248E+01  0.0000000000000E+00
-0.8226013909215E+00 -0.1385039444855E+01  0.0000000000000E+00
-0.8377112698082E+00 -0.1309492057141E+01  0.0000000000000E+00
-0.8527291461403E+00 -0.1233812223881E+01  0.0000000000000E+00
-0.8665704710604E+00 -0.1157566094584E+01  0.0000000000000E+00
-0.8791905966306E+00 -0.1080817066771E+01  0.0000000000000E+00
-0.8906326797461E+00 -0.1003664848526E+01  0.0000000000000E+00
-0.9008054789872E+00 -0.9261634251201E+00  0.0000000000000E+00
-0.9095041929406E+00 -0.8483388248877E+00  0.0000000000000E+00
-0.9166516682694E+00 -0.7702459293638E+00  0.0000000000000E+00
-0.9221341273071E+00 -0.6919313063309E+00  0.0000000000000E+00
-0.9257007088365E+00 -0.6134384502728E+00  0.0000000000000E+00
-0.9271842428608E+00 -0.5348451464090E+00  0.0000000000000E+00
-0.9270438916883E+00 -0.4562482257846E+00  0.0000000000000E+00
-0.9210062292211E+00 -0.3783135855268E+00  0.0000000000000E+00
-0.9049353367833E+00 -0.3038998875393E+00  0.0000000000000E+00
-0.7506083067926E+00 -0.1693037687126E+01  0.0000000000000E+00
-0.7571515199521E+00 -0.1617768723708E+01  0.0000000000000E+00
-0.7648749989831E+00 -0.1542752680226E+01  0.0000000000000E+00
-0.7740887427956E+00 -0.1468120628396E+01  0.0000000000000E+00
-0.7852058104717E+00 -0.1394089580419E+01  0.0000000000000E+00
-0.7980044064311E+00 -0.1320666098610E+01  0.0000000000000E+00
-0.8107786500141E+00 -0.1247133403882E+01  0.0000000000000E+00
-0.8226238368907E+00 -0.1173130210103E+01  0.0000000000000E+00
-0.8334943702607E+00 -0.1098709293284E+01  0.0000000000000E+00
-0.8434082979516E+00 -0.1023953263733E+01  0.0000000000000E+00
-0.8522644890822E+00 -0.9489062298512E+00  0.0000000000000E+00
-0.8598671794387E+00 -0.8735890026696E+00  0.0000000000000E+00
-0.8661341583082E+00 -0.7980468372435E+00  0.0000000000000E+00
-0.8709622208482E+00 -0.7223184841673E+00  0.0000000000000E+00
-0.8741414024410E+00 -0.6464404446253E+00  0.0000000000000E+00
-0.8755356940038E+00 -0.5704778280057E+00  0.0000000000000E+00
-0.8755327355947E+00 -0.4945116259155E+00  0.0000000000000E+00
-0.8705766344891E+00 -0.4190969387318E+00  0.0000000000000E+00
-0.8572257238154E+00 -0.3466161543434E+00  0.0000000000000E+00
-0.7196546383067E+00 -0.1692660171955E+01  0.0000000000000E+00
-0.7249395845113E+00 -0.1619875942931E+01  0.0000000000000E+00
-0.7312092872703E+00 -0.1547294284722E+01  0.0000000000000E+00
-0.7387176645684E+00 -0.1475020253223E+01  0.0000000000000E+00
-0.7478015158933E+00 -0.1403227708788E+01  0.0000000000000E+00
-0.7582894102453E+00 -0.1331922263408E+01  0.0000000000000E+00
-0.7688206023893E+00 -0.1260530837814E+01  0.0000000000000E+00
-0.7786702325147E+00 -0.1188764710264E+01  0.0000000000000E+00
-0.7877917549782E+00 -0.1116666035064E+01  0.0000000000000E+00
-0.7961781085352E+00 -0.1044300324802E+01  0.0000000000000E+00
-0.8037182728390E+00 -0.9717018110512E+00  0.0000000000000E+00
-0.8102255208740E+00 -0.8988860875506E+00  0.0000000000000E+00
-0.8156125845540E+00 -0.8258887828474E+00  0.0000000000000E+00
-0.8197868318547E+00 -0.7527408304077E+00  0.0000000000000E+00
-0.8225791947468E+00 -0.6794717382122E+00  0.0000000000000E+00
-0.8238848250832E+00 -0.6061339395944E+00  0.0000000000000E+00
-0.8240198406246E+00 -0.5327925872182E+00  0.0000000000000E+00
-0.8201458810983E+00 -0.4598919938240E+00  0.0000000000000E+00
-0.8095155315770E+00 -0.3893382716925E+00  0.0000000000000E+00
-0.6886903565093E+00 -0.1692394296717E+01  0.0000000000000E+00
-0.6927175946182E+00 -0.1622088923663E+01  0.0000000000000E+00
-0.6975340799601E+00 -0.1551935772397E+01  0.0000000000000E+00
-0.7033376495840E+00 -0.1482013883113E+01  0.0000000000000E+00
-0.7103888433793E+00 -0.1412453964381E+01  0.0000000000000E+00
-0.7185665950094E+00 -0.1343260676984E+01  0.0000000000000E+00
-0.7268552945909E+00 -0.1274004642159E+01  0.0000000000000E+00
-0.7347099268254E+00 -0.1204469702582E+01  0.0000000000000E+00
-0.7420829972449E+00 -0.1134687390663E+01  0.0000000000000E+00
-0.7489423355285E+00 -0.1064706121319E+01  0.0000000000000E+00
-0.7551670318599E+00 -0.9945502493410E+00  0.0000000000000E+00
-0.7605793964204E+00 -0.9242301511863E+00  0.0000000000000E+00
-0.7650871037535E+00 -0.8537718288664E+00  0.0000000000000E+00
-0.7686080946470E+00 -0.7831983987784E+00  0.0000000000000E+00
-0.7710141976503E+00 -0.7125323757957E+00  0.0000000000000E+00
-0.7722317255725E+00 -0.6418135169728E+00  0.0000000000000E+00
-0.7725052738312E+00 -0.5710911365270E+00  0.0000000000000E+00
-0.7697140137222E+00 -0.5006987686882E+00  0.0000000000000E+00
-0.7618047823999E+00 -0.4320662485312E+00  0.0000000000000E+00
-0.6577158894649E+00 -0.1692240225162E+01  0.0000000000000E+00
-0.6604859557950E+00 -0.1624407821033E+01  0.0000000000000E+00
-0.6638497600319E+00 -0.1556677289756E+01  0.0000000000000E+00
-0.6679490582789E+00 -0.1489101655950E+01  0.0000000000000E+00
-0.6729681308228E+00 -0.1421768476460E+01  0.0000000000000E+00
-0.6788362760697E+00 -0.1354681459979E+01  0.0000000000000E+00
-0.6848830194189E+00 -0.1287554928934E+01  0.0000000000000E+00
-0.6907431900779E+00 -0.1220245290453E+01  0.0000000000000E+00
-0.6963683447720E+00 -0.1152773454854E+01  0.0000000000000E+00
-0.7017012040992E+00 -0.1085170739436E+01  0.0000000000000E+00
-0.7066109687703E+00 -0.1017451622250E+01  0.0000000000000E+00
-0.7109289861621E+00 -0.9496212624844E+00  0.0000000000000E+00
-0.7145578734505E+00 -0.8816960355872E+00  0.0000000000000E+00
-0.7174261442299E+00 -0.8136912409452E+00  0.0000000000000E+00
-0.7194465236187E+00 -0.7456224004210E+00  0.0000000000000E+00
-0.7205764854021E+00 -0.6775165945656E+00  0.0000000000000E+00
-0.7209891026108E+00 -0.6094072996466E+00  0.0000000000000E+00
-0.7192810772636E+00 -0.5415172805228E+00  0.0000000000000E+00
-0.7140934987308E+00 -0.4748000934607E+00  0.0000000000000E+00
-0.6267316673077E+00 -0.1692198114453E+01  0.0000000000000E+00
-0.6282450755248E+00 -0.1626832783928E+01  0.0000000000000E+00
-0.6301567123173E+00 -0.1561518977415E+01  0.0000000000000E+00
-0.6325522528331E+00 -0.1496283704073E+01  0.0000000000000E+00
-0.6355397177521E+00 -0.1431171369089E+01  0.0000000000000E+00
-0.6390987702994E+00 -0.1366184728180E+01  0.0000000000000E+00
-0.6429040710920E+00 -0.1301181805651E+01  0.0000000000000E+00
-0.6467702938377E+00 -0.1236091573113E+01  0.0000000000000E+00
-0.6506480464722E+00 -0.1170924318597E+01  0.0000000000000E+00
-0.6544549405083E+00 -0.1105694261838E+01  0.0000000000000E+00
-0.6580502871802E+00 -0.1040406004188E+01  0.0000000000000E+00
-0.6612744710591E+00 -0.9750594875815E+00  0.0000000000000E+00
-0.6640250519556E+00 -0.9096614608717E+00  0.0000000000000E+00
-0.6662411162656E+00 -0.8442194064959E+00  0.0000000000000E+00
-0.6678762856675E+00 -0.7787418534021E+00  0.0000000000000E+00
-0.6689191949418E+00 -0.7132432054128E+00  0.0000000000000E+00
-0.6694713946900E+00 -0.6477411013437E+00  0.0000000000000E+00
-0.6688471168461E+00 -0.5823475458340E+00  0.0000000000000E+00
-0.6663817031269E+00 -0.5175398147359E+00  0.0000000000000E+00
 0.6267316770671E+00 -0.1692198115309E+01  0.0000000000000E+00
 0.6282450842043E+00 -0.1626832784735E+01  0.0000000000000E+00
 0.6301567199257E+00 -0.1561518978170E+01  0.0000000000000E+00
 0.6325522593862E+00 -0.1496283704774E+01  0.0000000000000E+00
 0.6355397232755E+00 -0.1431171369731E+01  0.0000000000000E+00
 0.6390987748289E+00 -0.1366184728759E+01  0.0000000000000E+00
 0.6429040746811E+00 -0.1301181806162E+01  0.0000000000000E+00
 0.6467702965677E+00 -0.1236091573554E+01  0.0000000000000E+00
 0.6506480484535E+00 -0.1170924318967E+01  0.0000000000000E+00
 0.6544549418750E+00 -0.1105694262141E+01  0.0000000000000E+00
 0.6580502880753E+00 -0.1040406004428E+01  0.0000000000000E+00
 0.6612744716160E+00 -0.9750594877654E+00  0.0000000000000E+00
 0.6640250522846E+00 -0.9096614610038E+00  0.0000000000000E+00
 0.6662411164480E+00 -0.8442194065791E+00  0.0000000000000E+00
 0.6678762857589E+00 -0.7787418534389E+00  0.0000000000000E+00
 0.6689191949800E+00 -0.7132432054044E+00  0.0000000000000E+00
 0.6694713946944E+00 -0.6477411012908E+00  0.0000000000000E+00
 0.6688471167994E+00 -0.5823475457445E+00  0.0000000000000E+00
 0.6663817030200E+00 -0.5175398146315E+00  0.0000000000000E+00
 0.6577158987074E+00 -0.1692240226002E+01  0.0000000000000E+00
 0.6604859640163E+00 -0.1624407821814E+01  0.0000000000000E+00
 0.6638497672423E+00 -0.1556677290478E+01  0.0000000000000E+00
 0.6679490644955E+00 -0.1489101656609E+01  0.0000000000000E+00
 0.6729681360715E+00 -0.1421768477054E+01  0.0000000000000E+00
 0.6788362803826E+00 -0.1354681460503E+01  0.0000000000000E+00
 0.6848830228425E+00 -0.1287554929381E+01  0.0000000000000E+00
 0.6907431926874E+00 -0.1220245290822E+01  0.0000000000000E+00
 0.6963683466717E+00 -0.1152773455142E+01  0.0000000000000E+00
 0.7017012054155E+00 -0.1085170739648E+01  0.0000000000000E+00
 0.7066109696382E+00 -0.1017451622390E+01  0.0000000000000E+00
 0.7109289867072E+00 -0.9496212625587E+00  0.0000000000000E+00
 0.7145578737767E+00 -0.8816960355999E+00  0.0000000000000E+00
 0.7174261444133E+00 -0.8136912408991E+00  0.0000000000000E+00
 0.7194465237104E+00 -0.7456224003186E+00  0.0000000000000E+00
 0.7205764854380E+00 -0.6775165944084E+00  0.0000000000000E+00
 0.7209891026047E+00 -0.6094072994359E+00  0.0000000000000E+00
 0.7192810771664E+00 -0.5415172802740E+00  0.0000000000000E+00
 0.7140934985165E+00 -0.4748000932170E+00  0.0000000000000E+00
 0.6886903652351E+00 -0.1692394297536E+01  0.0000000000000E+00
 0.6927176023816E+00 -0.1622088924415E+01  0.0000000000000E+00
 0.6975340867727E+00 -0.1551935773080E+01  0.0000000000000E+00
 0.7033376554643E+00 -0.1482013883727E+01  0.0000000000000E+00
 0.7103888483534E+00 -0.1412453964924E+01  0.0000000000000E+00
 0.7185665991058E+00 -0.1343260677450E+01  0.0000000000000E+00
 0.7268552978490E+00 -0.1274004642540E+01  0.0000000000000E+00
 0.7347099293146E+00 -0.1204469702875E+01  0.0000000000000E+00
 0.7420829990631E+00 -0.1134687390868E+01  0.0000000000000E+00
 0.7489423367946E+00 -0.1064706121439E+01  0.0000000000000E+00
 0.7551670327006E+00 -0.9945502493794E+00  0.0000000000000E+00
 0.7605793969537E+00 -0.9242301511490E+00  0.0000000000000E+00
 0.7650871040769E+00 -0.8537718287581E+00  0.0000000000000E+00
 0.7686080948315E+00 -0.7831983986016E+00  0.0000000000000E+00
 0.7710141977424E+00 -0.7125323755530E+00  0.0000000000000E+00
 0.7722317256061E+00 -0.6418135166660E+00  0.0000000000000E+00
 0.7725052738146E+00 -0.5710911361576E+00  0.0000000000000E+00
 0.7697140135745E+00 -0.5006987682796E+00  0.0000000000000E+00
 0.7618047820783E+00 -0.4320662481480E+00  0.0000000000000E+00
 0.7196546465161E+00 -0.1692660172748E+01  0.0000000000000E+00
 0.7249395918170E+00 -0.1619875943648E+01  0.0000000000000E+00
 0.7312092936854E+00 -0.1547294285363E+01  0.0000000000000E+00
 0.7387176701125E+00 -0.1475020253788E+01  0.0000000000000E+00
 0.7478015205931E+00 -0.1403227709276E+01  0.0000000000000E+00
 0.7582894141255E+00 -0.1331922263812E+01  0.0000000000000E+00
 0.7688206054822E+00 -0.1260530838125E+01  0.0000000000000E+00
 0.7786702348837E+00 -0.1188764710478E+01  0.0000000000000E+00
 0.7877917567151E+00 -0.1116666035182E+01  0.0000000000000E+00
 0.7961781097513E+00 -0.1044300324826E+01  0.0000000000000E+00
 0.8037182736528E+00 -0.9717018109855E+00  0.0000000000000E+00
 0.8102255213957E+00 -0.8988860874001E+00  0.0000000000000E+00
 0.8156125848748E+00 -0.8258887826165E+00  0.0000000000000E+00
 0.8197868320404E+00 -0.7527408300988E+00  0.0000000000000E+00
 0.8225791948393E+00 -0.6794717378281E+00  0.0000000000000E+00
 0.8238848251146E+00 -0.6061339391370E+00  0.0000000000000E+00
 0.8240198405976E+00 -0.5327925866896E+00  0.0000000000000E+00
 0.8201458809002E+00 -0.4598919932551E+00  0.0000000000000E+00
 0.8095155311481E+00 -0.3893382711694E+00  0.0000000000000E+00
 0.7506083144858E+00 -0.1693037687890E+01  0.0000000000000E+00
 0.7571515268004E+00 -0.1617768724388E+01  0.0000000000000E+00
 0.7648750050008E+00 -0.1542752680822E+01  0.0000000000000E+00
 0.7740887480037E+00 -0.1468120628908E+01  0.0000000000000E+00
 0.7852058148974E+00 -0.1394089580847E+01  0.0000000000000E+00
 0.7980044100952E+00 -0.1320666098949E+01  0.0000000000000E+00
 0.8107786529419E+00 -0.1247133404121E+01  0.0000000000000E+00
 0.8226238391398E+00 -0.1173130210237E+01  0.0000000000000E+00
 0.8334943719163E+00 -0.1098709293313E+01  0.0000000000000E+00
 0.8434082991177E+00 -0.1023953263659E+01  0.0000000000000E+00
 0.8522644898690E+00 -0.9489062296793E+00  0.0000000000000E+00
 0.8598671799488E+00 -0.8735890024040E+00  0.0000000000000E+00
 0.8661341586265E+00 -0.7980468368884E+00  0.0000000000000E+00
 0.8709622210352E+00 -0.7223184837249E+00  0.0000000000000E+00
 0.8741414025340E+00 -0.6464404440986E+00  0.0000000000000E+00
 0.8755356940330E+00 -0.5704778273969E+00  0.0000000000000E+00
 0.8755327355573E+00 -0.4945116252270E+00  0.0000000000000E+00
 0.8705766342406E+00 -0.4190969380022E+00  0.0000000000000E+00
 0.8572257232791E+00 -0.3466161536803E+00  0.0000000000000E+00
 0.7815509432313E+00 -0.1693526672682E+01  0.0000000000000E+00
 0.7893530038481E+00 -0.1615767105320E+01  0.0000000000000E+00
 0.7985308396653E+00 -0.1538310807107E+01  0.0000000000000E+00
 0.8094505305145E+00 -0.1461314865704E+01  0.0000000000000E+00
 0.8226013950733E+00 -0.1385039445222E+01  0.0000000000000E+00
 0.8377112732565E+00 -0.1309492057412E+01  0.0000000000000E+00
 0.8527291489033E+00 -0.1233812224044E+01  0.0000000000000E+00
 0.8665704731897E+00 -0.1157566094634E+01  0.0000000000000E+00
 0.8791905982052E+00 -0.1080817066708E+01  0.0000000000000E+00
 0.8906326808624E+00 -0.1003664848353E+01  0.0000000000000E+00
 0.9008054797473E+00 -0.9261634248400E+00  0.0000000000000E+00
 0.9095041934393E+00 -0.8483388245051E+00  0.0000000000000E+00
 0.9166516685853E+00 -0.7702459288830E+00  0.0000000000000E+00
 0.9221341274954E+00 -0.6919313057536E+00  0.0000000000000E+00
 0.9257007089301E+00 -0.6134384496025E+00  0.0000000000000E+00
 0.9271842428878E+00 -0.5348451456479E+00  0.0000000000000E+00
 0.9270438916406E+00 -0.4562482249355E+00  0.0000000000000E+00
 0.9210062289222E+00 -0.3783135846360E+00  0.0000000000000E+00
 0.9049353361397E+00 -0.3038998867360E+00  0.0000000000000E+00
 0.8124820990011E+00 -0.1694126949326E+01  0.0000000000000E+00
 0.8215436119809E+00 -0.1613870918028E+01  0.0000000000000E+00
 0.8321764094502E+00 -0.1533968505178E+01  0.0000000000000E+00
 0.8448026521377E+00 -0.1454602814503E+01  0.0000000000000E+00
 0.8599879182983E+00 -0.1376077162078E+01  0.0000000000000E+00
 0.8774096834423E+00 -0.1298400008221E+01  0.0000000000000E+00
 0.8946717958622E+00 -0.1220567176258E+01  0.0000000000000E+00
 0.9105098622195E+00 -0.1142072251388E+01  0.0000000000000E+00
 0.9248801834856E+00 -0.1062989252451E+01  0.0000000000000E+00
 0.9378510256317E+00 -0.9834349853607E+00  0.0000000000000E+00
 0.9493410366997E+00 -0.9034733122990E+00  0.0000000000000E+00
 0.9591363780693E+00 -0.8231354789182E+00  0.0000000000000E+00
 0.9671649537677E+00 -0.7424859932034E+00  0.0000000000000E+00
 0.9733024132764E+00 -0.6615792401804E+00  0.0000000000000E+00
 0.9772569987510E+00 -0.5804657077303E+00  0.0000000000000E+00
 0.9788303793041E+00 -0.4992358566774E+00  0.0000000000000E+00
 0.9785532393974E+00 -0.4180023579992E+00  0.0000000000000E+00
 0.9714346184875E+00 -0.3375419147100E+00  0.0000000000000E+00
 0.9526443464158E+00 -0.2611894611816E+00  0.0000000000000E+00
 0.8434013664357E+00 -0.1694838335189E+01  0.0000000000000E+00
 0.8537229577554E+00 -0.1612079989481E+01  0.0000000000000E+00
 0.8658113428418E+00 -0.1529725611613E+01  0.0000000000000E+00
 0.8801447633080E+00 -0.1447984321494E+01  0.0000000000000E+00
 0.8973650569782E+00 -0.1367202587227E+01  0.0000000000000E+00
 0.9170993350532E+00 -0.1287389816818E+01  0.0000000000000E+00
 0.9366063102086E+00 -0.1207398135833E+01  0.0000000000000E+00
 0.9544417445893E+00 -0.1126648565190E+01  0.0000000000000E+00
 0.9705628880695E+00 -0.1045225744848E+01  0.0000000000000E+00
 0.9850631156734E+00 -0.9632635785991E+00  0.0000000000000E+00
 0.9978709648940E+00 -0.8808358055787E+00  0.0000000000000E+00
 0.1008763559910E+01 -0.7979788887677E+00  0.0000000000000E+00
 0.1017673862132E+01 -0.7147669625726E+00  0.0000000000000E+00
 0.1024466948207E+01 -0.6312622293241E+00  0.0000000000000E+00
 0.1028810163675E+01 -0.5475221703943E+00  0.0000000000000E+00
 0.1030474016787E+01 -0.4636499219902E+00  0.0000000000000E+00
 0.1030060714142E+01 -0.3797739955145E+00  0.0000000000000E+00
 0.1021861759954E+01 -0.2967819089046E+00  0.0000000000000E+00
 0.1000352732676E+01 -0.2184848673123E+00  0.0000000000000E+00
 0.8743083292160E+00 -0.1695660641007E+01  0.0000000000000E+00
 0.8858906467958E+00 -0.1610394140375E+01  0.0000000000000E+00
 0.8994352674149E+00 -0.1525581957067E+01  0.0000000000000E+00
 0.9154765135586E+00 -0.1441459227297E+01  0.0000000000000E+00
 0.9347324826162E+00 -0.1358415571256E+01  0.0000000000000E+00
 0.9567799215746E+00 -0.1276461343761E+01  0.0000000000000E+00
 0.9785324074072E+00 -0.1194304973301E+01  0.0000000000000E+00
 0.9983658577340E+00 -0.1111294916539E+01  0.0000000000000E+00
 0.1016238471353E+01 -0.1027526434362E+01  0.0000000000000E+00
 0.1032268732337E+01 -0.9431505284951E+00  0.0000000000000E+00
 0.1046395067625E+01 -0.8582508150666E+00  0.0000000000000E+00
 0.1058385564193E+01 -0.7728689743992E+00  0.0000000000000E+00
 0.1068178240839E+01 -0.6870887672930E+00  0.0000000000000E+00
 0.1075627601367E+01 -0.6009802134425E+00  0.0000000000000E+00
 0.1080360094693E+01 -0.5146077878065E+00  0.0000000000000E+00
 0.1082115068229E+01 -0.4280873017517E+00  0.0000000000000E+00
 0.1081566250656E+01 -0.3415631075997E+00  0.0000000000000E+00
 0.1072287609923E+01 -0.2560335472787E+00  0.0000000000000E+00
 0.1048060473251E+01 -0.1757860951357E+00  0.0000000000000E+00
 0.9052025707781E+00 -0.1696593670959E+01  0.0000000000000E+00
 0.9180462844761E+00 -0.1608813185199E+01  0.0000000000000E+00
 0.9330478104822E+00 -0.1521537366339E+01  0.0000000000000E+00
 0.9507975521418E+00 -0.1435027367020E+01  0.0000000000000E+00
 0.9720898664051E+00 -0.1349715959582E+01  0.0000000000000E+00
 0.9964511361435E+00 -0.1265614444782E+01  0.0000000000000E+00
 0.1020449802539E+01 -0.1181287554705E+01  0.0000000000000E+00
 0.1042281938676E+01 -0.1096011181789E+01  0.0000000000000E+00
 0.1061906692299E+01 -0.1009891207660E+01  0.0000000000000E+00
 0.1079467656524E+01 -0.9230957320237E+00  0.0000000000000E+00
 0.1094913147732E+01 -0.8357182480476E+00  0.0000000000000E+00
 0.1108002215695E+01 -0.7478056534076E+00  0.0000000000000E+00
 0.1118677936601E+01 -0.6594513352690E+00  0.0000000000000E+00
 0.1126784241405E+01 -0.5707331307489E+00  0.0000000000000E+00
 0.1131906682383E+01 -0.4817225084889E+00  0.0000000000000E+00
 0.1133753446136E+01 -0.3925479547930E+00  0.0000000000000E+00
 0.1133069783374E+01 -0.3033696633937E+00  0.0000000000000E+00
 0.1122712124713E+01 -0.2152968092632E+00  0.0000000000000E+00
 0.1095767546307E+01 -0.1330931343643E+00  0.0000000000000E+00
 0.9360836771012E+00 -0.1697637222998E+01  0.0000000000000E+00
 0.9501894785799E+00 -0.1607336932545E+01  0.0000000000000E+00
 0.9666486016325E+00 -0.1517591658659E+01  0.0000000000000E+00
 0.9861075304526E+00 -0.1428688570531E+01  0.0000000000000E+00
 0.1009436881547E+01 -0.1341103592713E+01  0.0000000000000E+00
 0.1036112673774E+01 -0.1254848971027E+01  0.0000000000000E+00
 0.1062358212428E+01 -0.1168345741829E+01  0.0000000000000E+00
 0.1086189726049E+01 -0.1080797233366E+01  0.0000000000000E+00
 0.1107567311349E+01 -0.9923199478029E+00  0.0000000000000E+00
 0.1126659670482E+01 -0.9030990828862E+00  0.0000000000000E+00
 0.1143425009267E+01 -0.8132380088607E+00  0.0000000000000E+00
 0.1157613340271E+01 -0.7227888407692E+00  0.0000000000000E+00
 0.1169172797073E+01 -0.6318545921137E+00  0.0000000000000E+00
 0.1177936737775E+01 -0.5405209174934E+00  0.0000000000000E+00
 0.1183449817999E+01 -0.4488662793275E+00  0.0000000000000E+00
 0.1185389063559E+01 -0.3570318386362E+00  0.0000000000000E+00
 0.1184571247138E+01 -0.2651936310542E+00  0.0000000000000E+00
 0.1173135260919E+01 -0.1745716736346E+00  0.0000000000000E+00
 0.1143473930147E+01 -0.9040597438278E-01  0.0000000000000E+00
 0.9669512274189E+00 -0.1698791087767E+01  0.0000000000000E+00
 0.9823198304356E+00 -0.1605965184095E+01  0.0000000000000E+00
 0.1000237264269E+01 -0.1513744646745E+01  0.0000000000000E+00
 0.1021406093943E+01 -0.1422442661578E+01  0.0000000000000E+00
 0.1046773195509E+01 -0.1332578305411E+01  0.0000000000000E+00
 0.1075764223922E+01 -0.1244164768264E+01  0.0000000000000E+00
 0.1104257348526E+01 -0.1155479391450E+01  0.0000000000000E+00
 0.1130088953323E+01 -0.1065652939060E+01  0.0000000000000E+00
 0.1153220084018E+01 -0.9748125336096E+00  0.0000000000000E+00
 0.1173844551794E+01 -0.8831604709323E+00  0.0000000000000E+00
 0.1191930451903E+01 -0.7908099983938E+00  0.0000000000000E+00
 0.1207218759703E+01 -0.6978184484149E+00  0.0000000000000E+00
 0.1219662666172E+01 -0.6042984608059E+00  0.0000000000000E+00
 0.1229084956548E+01 -0.5103435077058E+00  0.0000000000000E+00
 0.1234989389793E+01 -0.4160390454063E+00  0.0000000000000E+00
 0.1237021830960E+01 -0.3215389094206E+00  0.0000000000000E+00
 0.1236070574644E+01 -0.2270349777752E+00  0.0000000000000E+00
 0.1223556973529E+01 -0.1338581186130E+00  0.0000000000000E+00
 0.1191179602188E+01 -0.4772460436371E-01  0.0000000000000E+00
 0.9978048126931E+00 -0.1700055050828E+01  0.0000000000000E+00
 0.1014436952546E+01 -0.1604697736702E+01  0.0000000000000E+00
 0.1033813432435E+01 -0.1509996138743E+01  0.0000000000000E+00
 0.1056692898198E+01 -0.1416289459594E+01  0.0000000000000E+00
 0.1084098485417E+01 -0.1324139928402E+01  0.0000000000000E+00
 0.1115405485257E+01 -0.1233561678510E+01  0.0000000000000E+00
 0.1146146931048E+01 -0.1142688356877E+01  0.0000000000000E+00
 0.1173979362256E+01 -0.1050578163472E+01  0.0000000000000E+00
 0.1198864773607E+01 -0.9573688409702E+00  0.0000000000000E+00
 0.1221022085302E+01 -0.8632797833433E+00  0.0000000000000E+00
 0.1240429282021E+01 -0.7684341151186E+00  0.0000000000000E+00
 0.1256818301914E+01 -0.6728943861069E+00  0.0000000000000E+00
 0.1270147393358E+01 -0.5767828623979E+00  0.0000000000000E+00
 0.1280228768722E+01 -0.4802008337283E+00  0.0000000000000E+00
 0.1286525290297E+01 -0.3832407503566E+00  0.0000000000000E+00
 0.1288651662409E+01 -0.2860691220672E+00  0.0000000000000E+00
 0.1287567701494E+01 -0.1888936697665E+00  0.0000000000000E+00
 0.1273977219637E+01 -0.9315612167893E-01  0.0000000000000E+00
 0.1238884540982E+01 -0.5049013045557E-02  0.0000000000000E+00
 0.1028644034966E+01 -0.1701428892817E+01  0.0000000000000E+00
 0.1046540467967E+01 -0.1603534382536E+01  0.0000000000000E+00
 0.1067376750223E+01 -0.1506345938358E+01  0.0000000000000E+00
 0.1091967608368E+01 -0.1410228779832E+01  0.0000000000000E+00
 0.1121412437513E+01 -0.1315788288493E+01  0.0000000000000E+00
 0.1155036165145E+01 -0.1223039540143E+01  0.0000000000000E+00
 0.1188026688472E+01 -0.1129972488054E+01  0.0000000000000E+00
 0.1217860702418E+01 -0.1035572768105E+01  0.0000000000000E+00
 0.1244501150748E+01 -0.9399887429363E+00  0.0000000000000E+00
 0.1268192062681E+01 -0.8434569047128E+00  0.0000000000000E+00
 0.1288921312318E+01 -0.7461102551647E+00  0.0000000000000E+00
 0.1306411800597E+01 -0.6480165615055E+00  0.0000000000000E+00
 0.1320626833301E+01 -0.5493077160762E+00  0.0000000000000E+00
 0.1331368049922E+01 -0.4500928262700E+00  0.0000000000000E+00
 0.1338057416065E+01 -0.3504713364071E+00  0.0000000000000E+00
 0.1340278475353E+01 -0.2506224303227E+00  0.0000000000000E+00
 0.1339062566007E+01 -0.1507696722917E+00  0.0000000000000E+00
 0.1324395958307E+01 -0.5246565960526E-01  0.0000000000000E+00
 0.1286588726141E+01  0.3762081124632E-01  0.0000000000000E+00
 0.1059468491065E+01 -0.1702912387465E+01  0.0000000000000E+00
 0.1078629994763E+01 -0.1602474907241E+01  0.0000000000000E+00
 0.1100926856931E+01 -0.1502793843147E+01  0.0000000000000E+00
 0.1127229884989E+01 -0.1404260431761E+01  0.0000000000000E+00
 0.1158714733573E+01 -0.1307523207068E+01  0.0000000000000E+00
 0.1194655966603E+01 -0.1212598186461E+01  0.0000000000000E+00
 0.1229896345061E+01 -0.1117331630195E+01  0.0000000000000E+00
 0.1261732719309E+01 -0.1020636610086E+01  0.0000000000000E+00
 0.1290128982182E+01 -0.9226721085503E+00  0.0000000000000E+00
 0.1315354271908E+01 -0.8236917159966E+00  0.0000000000000E+00
 0.1337406352004E+01 -0.7238383114011E+00  0.0000000000000E+00
 0.1355999086198E+01 -0.6231848793920E+00  0.0000000000000E+00
 0.1371100837678E+01 -0.5218729385342E+00  0.0000000000000E+00
 0.1382502673051E+01 -0.4200194139358E+00  0.0000000000000E+00
 0.1389585661224E+01 -0.3177307440737E+00  0.0000000000000E+00
 0.1391902185146E+01 -0.2151987866139E+00  0.0000000000000E+00
 0.1390555104757E+01 -0.1126629496880E+00  0.0000000000000E+00
 0.1374813147288E+01 -0.1178670862095E-01  0.0000000000000E+00
 0.1334292136548E+01  0.8028488040207E-01  0.0000000000000E+00
 0.1090277780720E+01 -0.1704505302632E+01  0.0000000000000E+00
 0.1110705153744E+01 -0.1601519090897E+01  0.0000000000000E+00
 0.1134463394454E+01 -0.1499339645413E+01  0.0000000000000E+00
 0.1162479391042E+01 -0.1398384219907E+01  0.0000000000000E+00
 0.1196005057665E+01 -0.1299344500874E+01  0.0000000000000E+00
 0.1234264594794E+01 -0.1202237446439E+01  0.0000000000000E+00
 0.1271755627067E+01 -0.1104765624500E+01  0.0000000000000E+00
 0.1305595160272E+01 -0.1005769542839E+01  0.0000000000000E+00
 0.1335748036337E+01 -0.9054188034578E+00  0.0000000000000E+00
 0.1362508502496E+01 -0.8039840950629E+00  0.0000000000000E+00
 0.1385884211676E+01 -0.7016181739175E+00  0.0000000000000E+00
 0.1405579990391E+01 -0.5983992420775E+00  0.0000000000000E+00
 0.1421569259242E+01 -0.4944784443039E+00  0.0000000000000E+00
 0.1433632511940E+01 -0.3899805234782E+00  0.0000000000000E+00
 0.1441109920678E+01 -0.2850189123287E+00  0.0000000000000E+00
 0.1443522707758E+01 -0.1797981421330E+00  0.0000000000000E+00
 0.1442045254780E+01 -0.7457346536650E-01  0.0000000000000E+00
 0.1425228744639E+01  0.2888075566284E-01  0.0000000000000E+00
 0.1381994751242E+01  0.1229432066213E+00  0.0000000000000E+00
 0.1121071483195E+01 -0.1706207397020E+01  0.0000000000000E+00
 0.1142765546172E+01 -0.1600666704959E+01  0.0000000000000E+00
 0.1167985985999E+01 -0.1495983129350E+01  0.0000000000000E+00
 0.1197715771612E+01 -0.1392599941181E+01  0.0000000000000E+00
 0.1233283076667E+01 -0.1291251979511E+01  0.0000000000000E+00
 0.1273861738317E+01 -0.1191957142331E+01  0.0000000000000E+00
 0.1313604244830E+01 -0.1092274305885E+01  0.0000000000000E+00
 0.1349447757450E+01 -0.9909714139681E+00  0.0000000000000E+00
 0.1381358067225E+01 -0.8882286879731E+00  0.0000000000000E+00
 0.1409654530383E+01 -0.7843339149532E+00  0.0000000000000E+00
 0.1434354689253E+01 -0.6794497284982E+00  0.0000000000000E+00
 0.1455154333136E+01 -0.5736595481023E+00  0.0000000000000E+00
 0.1472031940047E+01 -0.4671241446931E+00  0.0000000000000E+00
 0.1484757430797E+01 -0.3599760789818E+00  0.0000000000000E+00
 0.1492630080857E+01 -0.2523357780405E+00  0.0000000000000E+00
 0.1495139951924E+01 -0.1444204465366E+00  0.0000000000000E+00
 0.1493532947170E+01 -0.3650118177095E-01  0.0000000000000E+00
 0.1475642704025E+01  0.6953675806361E-01  0.0000000000000E+00
 0.1429696546851E+01  0.1655958021522E+00  0.0000000000000E+00
 0.1151849225537E+01 -0.1708018429846E+01  0.0000000000000E+00
 0.1174810818886E+01 -0.1599917521276E+01  0.0000000000000E+00
 0.1201494298248E+01 -0.1492724079452E+01  0.0000000000000E+00
 0.1232938713290E+01 -0.1386907392741E+01  0.0000000000000E+00
 0.1270548497160E+01 -0.1283245452831E+01  0.0000000000000E+00
 0.1313447123819E+01 -0.1181757096718E+01  0.0000000000000E+00
 0.1355441945044E+01 -0.1079857509653E+01  0.0000000000000E+00
 0.1393290277519E+01 -0.9762420714703E+00  0.0000000000000E+00
 0.1426958861442E+01 -0.8711016227676E+00  0.0000000000000E+00
 0.1456792162028E+01 -0.7647410489956E+00  0.0000000000000E+00
 0.1482817611003E+01 -0.6573328611127E+00  0.0000000000000E+00
 0.1504721960451E+01 -0.5489656960643E+00  0.0000000000000E+00
 0.1522488745806E+01 -0.4398099509165E+00  0.0000000000000E+00
 0.1535877314972E+01 -0.3300060042687E+00  0.0000000000000E+00
 0.1544146046680E+01 -0.2196812776313E+00  0.0000000000000E+00
 0.1546753842050E+01 -0.1090656488427E+00  0.0000000000000E+00
 0.1545018125764E+01  0.1553939485620E-02  0.0000000000000E+00
 0.1526054988436E+01  0.1101813243664E+00  0.0000000000000E+00
 0.1477397505075E+01  0.2082426800443E+00  0.0000000000000E+00
 0.1182610616693E+01 -0.1709938151813E+01  0.0000000000000E+00
 0.1206840601434E+01 -0.1599271303676E+01  0.0000000000000E+00
 0.1234987981351E+01 -0.1489562272670E+01  0.0000000000000E+00
 0.1268147886829E+01 -0.1381306364667E+01  0.0000000000000E+00
 0.1307801010505E+01 -0.1275324724039E+01  0.0000000000000E+00
 0.1353020463274E+01 -0.1171637125933E+01  0.0000000000000E+00
 0.1397268460295E+01 -0.1067515065265E+01  0.0000000000000E+00
 0.1437122473674E+01 -0.9615813579356E+00  0.0000000000000E+00
 0.1472550192790E+01 -0.8540374635575E+00  0.0000000000000E+00
 0.1503921191834E+01 -0.7452053660319E+00  0.0000000000000E+00
 0.1531272791928E+01 -0.6352674537278E+00  0.0000000000000E+00
 0.1554282707934E+01 -0.5243175810539E+00  0.0000000000000E+00
 0.1572939532713E+01 -0.4125357711880E+00  0.0000000000000E+00
 0.1586992041247E+01 -0.3000702206755E+00  0.0000000000000E+00
 0.1595657715515E+01 -0.1870553455593E+00  0.0000000000000E+00
 0.1598364296089E+01 -0.7373369663145E-01  0.0000000000000E+00
 0.1596500729092E+01  0.3959193770200E-01  0.0000000000000E+00
 0.1576465556935E+01  0.1508144807688E+00  0.0000000000000E+00
 0.1525097605457E+01  0.2508838534040E+00  0.0000000000000E+00
-0.6299559715430E+00 -0.4448788635045E+00  0.0000000000000E+00
-0.6714480734955E+00 -0.4002935756204E+00  0.0000000000000E+00
-0.7129401754481E+00 -0.3557082877364E+00  0.0000000000000E+00
-0.7544322774006E+00 -0.3111229998524E+00  0.0000000000000E+00
-0.7959243793531E+00 -0.2665377119684E+00  0.0000000000000E+00
-0.8374164813057E+00 -0.2219524240844E+00  0.0000000000000E+00
-0.8789085832582E+00 -0.1773671362004E+00  0.0000000000000E+00
-0.9204006852108E+00 -0.1327818483163E+00  0.0000000000000E+00
-0.9618927871633E+00 -0.8819656043232E-01  0.0000000000000E+00
-0.1003384889116E+01 -0.4361127254831E-01  0.0000000000000E+00
-0.1044876991068E+01  0.9740153357094E-03  0.0000000000000E+00
-0.1086369093021E+01  0.4555930321973E-01  0.0000000000000E+00
-0.1127861194973E+01  0.9014459110374E-01  0.0000000000000E+00
-0.1169353296926E+01  0.1347298789878E+00  0.0000000000000E+00
-0.1210845398879E+01  0.1793151668718E+00  0.0000000000000E+00
-0.1252337500831E+01  0.2239004547558E+00  0.0000000000000E+00
-0.1293829602784E+01  0.2684857426398E+00  0.0000000000000E+00
-0.1335321704736E+01  0.3130710305238E+00  0.0000000000000E+00
-0.1376813806689E+01  0.3576563184078E+00  0.0000000000000E+00
-0.5974622415961E+00 -0.4366441451899E+00  0.0000000000000E+00
-0.6368419585758E+00 -0.3913664749580E+00  0.0000000000000E+00
-0.6762216755556E+00 -0.3460888047261E+00  0.0000000000000E+00
-0.7156013925353E+00 -0.3008111344942E+00  0.0000000000000E+00
-0.7549811095150E+00 -0.2555334642623E+00  0.0000000000000E+00
-0.7943608264947E+00 -0.2102557940303E+00  0.0000000000000E+00
-0.8337405434744E+00 -0.1649781237984E+00  0.0000000000000E+00
-0.8731202604541E+00 -0.1197004535665E+00  0.0000000000000E+00
-0.9124999774338E+00 -0.7442278333461E-01  0.0000000000000E+00
-0.9518796944135E+00 -0.2914511310269E-01  0.0000000000000E+00
-0.9912594113932E+00  0.1613255712922E-01  0.0000000000000E+00
-0.1030639128373E+01  0.6141022736114E-01  0.0000000000000E+00
-0.1070018845353E+01  0.1066878975930E+00  0.0000000000000E+00
-0.1109398562332E+01  0.1519655678250E+00  0.0000000000000E+00
-0.1148778279312E+01  0.1972432380569E+00  0.0000000000000E+00
-0.1188157996292E+01  0.2425209082888E+00  0.0000000000000E+00
-0.1227537713272E+01  0.2877985785207E+00  0.0000000000000E+00
-0.1266917430251E+01  0.3330762487526E+00  0.0000000000000E+00
-0.1306297147231E+01  0.3783539189845E+00  0.0000000000000E+00
-0.5647851637629E+00 -0.4291779471807E+00  0.0000000000000E+00
-0.6019607642087E+00 -0.3835976335802E+00  0.0000000000000E+00
-0.6391363646544E+00 -0.3380173199797E+00  0.0000000000000E+00
-0.6763119651002E+00 -0.2924370063792E+00  0.0000000000000E+00
-0.7134875655459E+00 -0.2468566927788E+00  0.0000000000000E+00
-0.7506631659917E+00 -0.2012763791783E+00  0.0000000000000E+00
-0.7878387664375E+00 -0.1556960655778E+00  0.0000000000000E+00
-0.8250143668832E+00 -0.1101157519773E+00  0.0000000000000E+00
-0.8621899673290E+00 -0.6453543837680E-01  0.0000000000000E+00
-0.8993655677748E+00 -0.1895512477632E-01  0.0000000000000E+00
-0.9365411682205E+00  0.2662518882417E-01  0.0000000000000E+00
-0.9737167686663E+00  0.7220550242466E-01  0.0000000000000E+00
-0.1010892369112E+01  0.1177858160251E+00  0.0000000000000E+00
-0.1048067969558E+01  0.1633661296256E+00  0.0000000000000E+00
-0.1085243570004E+01  0.2089464432261E+00  0.0000000000000E+00
-0.1122419170449E+01  0.2545267568266E+00  0.0000000000000E+00
-0.1159594770895E+01  0.3001070704271E+00  0.0000000000000E+00
-0.1196770371341E+01  0.3456873840276E+00  0.0000000000000E+00
-0.1233945971787E+01  0.3912676976281E+00  0.0000000000000E+00
-0.5319747863850E+00 -0.4224941396796E+00  0.0000000000000E+00
-0.5669005038771E+00 -0.3770102860137E+00  0.0000000000000E+00
-0.6018262213692E+00 -0.3315264323477E+00  0.0000000000000E+00
-0.6367519388613E+00 -0.2860425786818E+00  0.0000000000000E+00
-0.6716776563534E+00 -0.2405587250158E+00  0.0000000000000E+00
-0.7066033738455E+00 -0.1950748713499E+00  0.0000000000000E+00
-0.7415290913375E+00 -0.1495910176839E+00  0.0000000000000E+00
-0.7764548088296E+00 -0.1041071640180E+00  0.0000000000000E+00
-0.8113805263217E+00 -0.5862331035200E-01  0.0000000000000E+00
-0.8463062438138E+00 -0.1313945668605E-01  0.0000000000000E+00
-0.8812319613059E+00  0.3234439697990E-01  0.0000000000000E+00
-0.9161576787979E+00  0.7782825064585E-01  0.0000000000000E+00
-0.9510833962900E+00  0.1233121043118E+00  0.0000000000000E+00
-0.9860091137821E+00  0.1687959579778E+00  0.0000000000000E+00
-0.1020934831274E+01  0.2142798116437E+00  0.0000000000000E+00
-0.1055860548766E+01  0.2597636653097E+00  0.0000000000000E+00
-0.1090786266258E+01  0.3052475189756E+00  0.0000000000000E+00
-0.1125711983750E+01  0.3507313726416E+00  0.0000000000000E+00
-0.1160637701243E+01  0.3962152263075E+00  0.0000000000000E+00
-0.4990802666255E+00 -0.4165840327232E+00  0.0000000000000E+00
-0.5317553219230E+00 -0.3715827348048E+00  0.0000000000000E+00
-0.5644303772205E+00 -0.3265814368864E+00  0.0000000000000E+00
-0.5971054325179E+00 -0.2815801389680E+00  0.0000000000000E+00
-0.6297804878154E+00 -0.2365788410496E+00  0.0000000000000E+00
-0.6624555431129E+00 -0.1915775431312E+00  0.0000000000000E+00
-0.6951305984104E+00 -0.1465762452128E+00  0.0000000000000E+00
-0.7278056537078E+00 -0.1015749472944E+00  0.0000000000000E+00
-0.7604807090053E+00 -0.5657364937598E-01  0.0000000000000E+00
-0.7931557643028E+00 -0.1157235145757E-01  0.0000000000000E+00
-0.8258308196003E+00  0.3342894646083E-01  0.0000000000000E+00
-0.8585058748978E+00  0.7843024437923E-01  0.0000000000000E+00
-0.8911809301952E+00  0.1234315422976E+00  0.0000000000000E+00
-0.9238559854927E+00  0.1684328402160E+00  0.0000000000000E+00
-0.9565310407902E+00  0.2134341381344E+00  0.0000000000000E+00
-0.9892060960877E+00  0.2584354360528E+00  0.0000000000000E+00
-0.1021881151385E+01  0.3034367339713E+00  0.0000000000000E+00
-0.1054556206683E+01  0.3484380318897E+00  0.0000000000000E+00
-0.1087231261980E+01  0.3934393298081E+00  0.0000000000000E+00
-0.4661358894282E+00 -0.4113546120754E+00  0.0000000000000E+00
-0.4965895947067E+00 -0.3671248415236E+00  0.0000000000000E+00
-0.5270432999851E+00 -0.3228950709718E+00  0.0000000000000E+00
-0.5574970052636E+00 -0.2786653004201E+00  0.0000000000000E+00
-0.5879507105420E+00 -0.2344355298683E+00  0.0000000000000E+00
-0.6184044158205E+00 -0.1902057593165E+00  0.0000000000000E+00
-0.6488581210989E+00 -0.1459759887648E+00  0.0000000000000E+00
-0.6793118263774E+00 -0.1017462182130E+00  0.0000000000000E+00
-0.7097655316558E+00 -0.5751644766124E-01  0.0000000000000E+00
-0.7402192369343E+00 -0.1328667710947E-01  0.0000000000000E+00
-0.7706729422127E+00  0.3094309344230E-01  0.0000000000000E+00
-0.8011266474912E+00  0.7517286399407E-01  0.0000000000000E+00
-0.8315803527696E+00  0.1194026345458E+00  0.0000000000000E+00
-0.8620340580481E+00  0.1636324050976E+00  0.0000000000000E+00
-0.8924877633265E+00  0.2078621756494E+00  0.0000000000000E+00
-0.9229414686050E+00  0.2520919462011E+00  0.0000000000000E+00
-0.9533951738834E+00  0.2963217167529E+00  0.0000000000000E+00
-0.9838488791619E+00  0.3405514873047E+00  0.0000000000000E+00
-0.1014302584440E+01  0.3847812578564E+00  0.0000000000000E+00
-0.4331566793992E+00 -0.4067328540872E+00  0.0000000000000E+00
-0.4614288249452E+00 -0.3634866017615E+00  0.0000000000000E+00
-0.4897009704912E+00 -0.3202403494357E+00  0.0000000000000E+00
-0.5179731160371E+00 -0.2769940971100E+00  0.0000000000000E+00
-0.5462452615831E+00 -0.2337478447842E+00  0.0000000000000E+00
-0.5745174071291E+00 -0.1905015924585E+00  0.0000000000000E+00
-0.6027895526750E+00 -0.1472553401327E+00  0.0000000000000E+00
-0.6310616982210E+00 -0.1040090878070E+00  0.0000000000000E+00
-0.6593338437670E+00 -0.6076283548125E-01  0.0000000000000E+00
-0.6876059893129E+00 -0.1751658315551E-01  0.0000000000000E+00
-0.7158781348589E+00  0.2572966917024E-01  0.0000000000000E+00
-0.7441502804048E+00  0.6897592149599E-01  0.0000000000000E+00
-0.7724224259508E+00  0.1122221738217E+00  0.0000000000000E+00
-0.8006945714968E+00  0.1554684261475E+00  0.0000000000000E+00
-0.8289667170427E+00  0.1987146784732E+00  0.0000000000000E+00
-0.8572388625887E+00  0.2419609307990E+00  0.0000000000000E+00
-0.8855110081347E+00  0.2852071831247E+00  0.0000000000000E+00
-0.9137831536806E+00  0.3284534354505E+00  0.0000000000000E+00
-0.9420552992266E+00  0.3716996877762E+00  0.0000000000000E+00
-0.4001452660089E+00 -0.4026538267990E+00  0.0000000000000E+00
-0.4262736922835E+00 -0.3605344241827E+00  0.0000000000000E+00
-0.4524021185581E+00 -0.3184150215665E+00  0.0000000000000E+00
-0.4785305448327E+00 -0.2762956189502E+00  0.0000000000000E+00
-0.5046589711073E+00 -0.2341762163340E+00  0.0000000000000E+00
-0.5307873973819E+00 -0.1920568137177E+00  0.0000000000000E+00
-0.5569158236565E+00 -0.1499374111015E+00  0.0000000000000E+00
-0.5830442499311E+00 -0.1078180084852E+00  0.0000000000000E+00
-0.6091726762057E+00 -0.6569860586900E-01  0.0000000000000E+00
-0.6353011024803E+00 -0.2357920325275E-01  0.0000000000000E+00
-0.6614295287548E+00  0.1854019936350E-01  0.0000000000000E+00
-0.6875579550294E+00  0.6065960197974E-01  0.0000000000000E+00
-0.7136863813040E+00  0.1027790045960E+00  0.0000000000000E+00
-0.7398148075786E+00  0.1448984072122E+00  0.0000000000000E+00
-0.7659432338532E+00  0.1870178098285E+00  0.0000000000000E+00
-0.7920716601278E+00  0.2291372124447E+00  0.0000000000000E+00
-0.8182000864024E+00  0.2712566150610E+00  0.0000000000000E+00
-0.8443285126770E+00  0.3133760176772E+00  0.0000000000000E+00
-0.8704569389516E+00  0.3554954202935E+00  0.0000000000000E+00
-0.3670941282270E+00 -0.3990479117006E+00  0.0000000000000E+00
-0.3911043433766E+00 -0.3581255480735E+00  0.0000000000000E+00
-0.4151145585263E+00 -0.3172031844463E+00  0.0000000000000E+00
-0.4391247736759E+00 -0.2762808208192E+00  0.0000000000000E+00
-0.4631349888256E+00 -0.2353584571920E+00  0.0000000000000E+00
-0.4871452039753E+00 -0.1944360935648E+00  0.0000000000000E+00
-0.5111554191249E+00 -0.1535137299377E+00  0.0000000000000E+00
-0.5351656342746E+00 -0.1125913663105E+00  0.0000000000000E+00
-0.5591758494243E+00 -0.7166900268338E-01  0.0000000000000E+00
-0.5831860645739E+00 -0.3074663905622E-01  0.0000000000000E+00
-0.6071962797236E+00  0.1017572457094E-01  0.0000000000000E+00
-0.6312064948732E+00  0.5109808819809E-01  0.0000000000000E+00
-0.6552167100229E+00  0.9202045182525E-01  0.0000000000000E+00
-0.6792269251726E+00  0.1329428154524E+00  0.0000000000000E+00
-0.7032371403222E+00  0.1738651790796E+00  0.0000000000000E+00
-0.7272473554719E+00  0.2147875427067E+00  0.0000000000000E+00
-0.7512575706216E+00  0.2557099063339E+00  0.0000000000000E+00
-0.7752677857712E+00  0.2966322699610E+00  0.0000000000000E+00
-0.7992780009209E+00  0.3375546335882E+00  0.0000000000000E+00
-0.3339899907783E+00 -0.3958444358955E+00  0.0000000000000E+00
-0.3558893495395E+00 -0.3561153468993E+00  0.0000000000000E+00
-0.3777887083006E+00 -0.3163862579032E+00  0.0000000000000E+00
-0.3996880670618E+00 -0.2766571689070E+00  0.0000000000000E+00
-0.4215874258230E+00 -0.2369280799109E+00  0.0000000000000E+00
-0.4434867845841E+00 -0.1971989909147E+00  0.0000000000000E+00
-0.4653861433453E+00 -0.1574699019185E+00  0.0000000000000E+00
-0.4872855021064E+00 -0.1177408129224E+00  0.0000000000000E+00
-0.5091848608676E+00 -0.7801172392620E-01  0.0000000000000E+00
-0.5310842196287E+00 -0.3828263493003E-01  0.0000000000000E+00
-0.5529835783899E+00  0.1446454066132E-02  0.0000000000000E+00
-0.5748829371510E+00  0.4117554306230E-01  0.0000000000000E+00
-0.5967822959122E+00  0.8090463205846E-01  0.0000000000000E+00
-0.6186816546733E+00  0.1206337210546E+00  0.0000000000000E+00
-0.6405810134345E+00  0.1603628100508E+00  0.0000000000000E+00
-0.6624803721956E+00  0.2000918990470E+00  0.0000000000000E+00
-0.6843797309568E+00  0.2398209880431E+00  0.0000000000000E+00
-0.7062790897179E+00  0.2795500770393E+00  0.0000000000000E+00
-0.7281784484791E+00  0.3192791660354E+00  0.0000000000000E+00
-0.3008163579508E+00 -0.3929631427710E+00  0.0000000000000E+00
-0.3205906658870E+00 -0.3543402622484E+00  0.0000000000000E+00
-0.3403649738232E+00 -0.3157173817257E+00  0.0000000000000E+00
-0.3601392817595E+00 -0.2770945012030E+00  0.0000000000000E+00
-0.3799135896957E+00 -0.2384716206803E+00  0.0000000000000E+00
-0.3996878976320E+00 -0.1998487401576E+00  0.0000000000000E+00
-0.4194622055682E+00 -0.1612258596350E+00  0.0000000000000E+00
-0.4392365135044E+00 -0.1226029791123E+00  0.0000000000000E+00
-0.4590108214407E+00 -0.8398009858960E-01  0.0000000000000E+00
-0.4787851293769E+00 -0.4535721806692E-01  0.0000000000000E+00
-0.4985594373131E+00 -0.6734337544235E-02  0.0000000000000E+00
-0.5183337452494E+00  0.3188854297845E-01  0.0000000000000E+00
-0.5381080531856E+00  0.7051142350113E-01  0.0000000000000E+00
-0.5578823611218E+00  0.1091343040238E+00  0.0000000000000E+00
-0.5776566690581E+00  0.1477571845465E+00  0.0000000000000E+00
-0.5974309769943E+00  0.1863800650692E+00  0.0000000000000E+00
-0.6172052849306E+00  0.2250029455919E+00  0.0000000000000E+00
-0.6369795928668E+00  0.2636258261145E+00  0.0000000000000E+00
-0.6567539008030E+00  0.3022487066372E+00  0.0000000000000E+00
-0.2675697753590E+00 -0.3903634585794E+00  0.0000000000000E+00
-0.2851962171292E+00 -0.3527163567611E+00  0.0000000000000E+00
-0.3028226588994E+00 -0.3150692549428E+00  0.0000000000000E+00
-0.3204491006696E+00 -0.2774221531245E+00  0.0000000000000E+00
-0.3380755424398E+00 -0.2397750513062E+00  0.0000000000000E+00
-0.3557019842100E+00 -0.2021279494878E+00  0.0000000000000E+00
-0.3733284259802E+00 -0.1644808476695E+00  0.0000000000000E+00
-0.3909548677504E+00 -0.1268337458512E+00  0.0000000000000E+00
-0.4085813095206E+00 -0.8918664403293E-01  0.0000000000000E+00
-0.4262077512908E+00 -0.5153954221463E-01  0.0000000000000E+00
-0.4438341930610E+00 -0.1389244039632E-01  0.0000000000000E+00
-0.4614606348312E+00  0.2375466142199E-01  0.0000000000000E+00
-0.4790870766014E+00  0.6140176324029E-01  0.0000000000000E+00
-0.4967135183717E+00  0.9904886505860E-01  0.0000000000000E+00
-0.5143399601419E+00  0.1366959668769E+00  0.0000000000000E+00
-0.5319664019121E+00  0.1743430686952E+00  0.0000000000000E+00
-0.5495928436823E+00  0.2119901705135E+00  0.0000000000000E+00
-0.5672192854525E+00  0.2496372723318E+00  0.0000000000000E+00
-0.5848457272227E+00  0.2872843741501E+00  0.0000000000000E+00
-0.2342578969919E+00 -0.3880438745316E+00  0.0000000000000E+00
-0.2497160431228E+00 -0.3512380881835E+00  0.0000000000000E+00
-0.2651741892537E+00 -0.3144323018355E+00  0.0000000000000E+00
-0.2806323353846E+00 -0.2776265154874E+00  0.0000000000000E+00
-0.2960904815155E+00 -0.2408207291393E+00  0.0000000000000E+00
-0.3115486276463E+00 -0.2040149427913E+00  0.0000000000000E+00
-0.3270067737772E+00 -0.1672091564432E+00  0.0000000000000E+00
-0.3424649199081E+00 -0.1304033700952E+00  0.0000000000000E+00
-0.3579230660390E+00 -0.9359758374711E-01  0.0000000000000E+00
-0.3733812121699E+00 -0.5679179739905E-01  0.0000000000000E+00
-0.3888393583008E+00 -0.1998601105098E-01  0.0000000000000E+00
-0.4042975044317E+00  0.1681977529708E-01  0.0000000000000E+00
-0.4197556505626E+00  0.5362556164514E-01  0.0000000000000E+00
-0.4352137966935E+00  0.9043134799320E-01  0.0000000000000E+00
-0.4506719428244E+00  0.1272371343413E+00  0.0000000000000E+00
-0.4661300889553E+00  0.1640429206893E+00  0.0000000000000E+00
-0.4815882350862E+00  0.2008487070374E+00  0.0000000000000E+00
-0.4970463812171E+00  0.2376544933854E+00  0.0000000000000E+00
-0.5125045273480E+00  0.2744602797335E+00  0.0000000000000E+00
-0.2008905517879E+00 -0.3860140358384E+00  0.0000000000000E+00
-0.2141644306440E+00 -0.3499224952607E+00  0.0000000000000E+00
-0.2274383095000E+00 -0.3138309546829E+00  0.0000000000000E+00
-0.2407121883561E+00 -0.2777394141052E+00  0.0000000000000E+00
-0.2539860672121E+00 -0.2416478735275E+00  0.0000000000000E+00
-0.2672599460682E+00 -0.2055563329498E+00  0.0000000000000E+00
-0.2805338249242E+00 -0.1694647923721E+00  0.0000000000000E+00
-0.2938077037803E+00 -0.1333732517943E+00  0.0000000000000E+00
-0.3070815826363E+00 -0.9728171121661E-01  0.0000000000000E+00
-0.3203554614924E+00 -0.6119017063889E-01  0.0000000000000E+00
-0.3336293403484E+00 -0.2509863006116E-01  0.0000000000000E+00
-0.3469032192045E+00  0.1099291051656E-01  0.0000000000000E+00
-0.3601770980605E+00  0.4708445109428E-01  0.0000000000000E+00
-0.3734509769166E+00  0.8317599167200E-01  0.0000000000000E+00
-0.3867248557726E+00  0.1192675322497E+00  0.0000000000000E+00
-0.3999987346287E+00  0.1553590728274E+00  0.0000000000000E+00
-0.4132726134847E+00  0.1914506134052E+00  0.0000000000000E+00
-0.4265464923408E+00  0.2275421539829E+00  0.0000000000000E+00
-0.4398203711968E+00  0.2636336945606E+00  0.0000000000000E+00
-0.1674771093533E+00 -0.3842843495524E+00  0.0000000000000E+00
-0.1785546413643E+00 -0.3487884211107E+00  0.0000000000000E+00
-0.1896321733754E+00 -0.3132924926690E+00  0.0000000000000E+00
-0.2007097053864E+00 -0.2777965642273E+00  0.0000000000000E+00
-0.2117872373974E+00 -0.2423006357856E+00  0.0000000000000E+00
-0.2228647694084E+00 -0.2068047073439E+00  0.0000000000000E+00
-0.2339423014194E+00 -0.1713087789022E+00  0.0000000000000E+00
-0.2450198334305E+00 -0.1358128504605E+00  0.0000000000000E+00
-0.2560973654415E+00 -0.1003169220188E+00  0.0000000000000E+00
-0.2671748974525E+00 -0.6482099357711E-01  0.0000000000000E+00
-0.2782524294635E+00 -0.2932506513542E-01  0.0000000000000E+00
-0.2893299614745E+00  0.6170863306275E-02  0.0000000000000E+00
-0.3004074934856E+00  0.4166679174797E-01  0.0000000000000E+00
-0.3114850254966E+00  0.7716272018966E-01  0.0000000000000E+00
-0.3225625575076E+00  0.1126586486314E+00  0.0000000000000E+00
-0.3336400895186E+00  0.1481545770730E+00  0.0000000000000E+00
-0.3447176215296E+00  0.1836505055147E+00  0.0000000000000E+00
-0.3557951535407E+00  0.2191464339564E+00  0.0000000000000E+00
-0.3668726855517E+00  0.2546423623981E+00  0.0000000000000E+00
-0.1340261091775E+00 -0.3828631734966E+00  0.0000000000000E+00
-0.1428982089424E+00 -0.3478509012348E+00  0.0000000000000E+00
-0.1517703087072E+00 -0.3128386289729E+00  0.0000000000000E+00
-0.1606424084721E+00 -0.2778263567111E+00  0.0000000000000E+00
-0.1695145082369E+00 -0.2428140844493E+00  0.0000000000000E+00
-0.1783866080018E+00 -0.2078018121875E+00  0.0000000000000E+00
-0.1872587077666E+00 -0.1727895399257E+00  0.0000000000000E+00
-0.1961308075315E+00 -0.1377772676639E+00  0.0000000000000E+00
-0.2050029072963E+00 -0.1027649954021E+00  0.0000000000000E+00
-0.2138750070612E+00 -0.6775272314032E-01  0.0000000000000E+00
-0.2227471068260E+00 -0.3274045087851E-01  0.0000000000000E+00
-0.2316192065909E+00  0.2271821383293E-02  0.0000000000000E+00
-0.2404913063557E+00  0.3728409364510E-01  0.0000000000000E+00
-0.2493634061206E+00  0.7229636590690E-01  0.0000000000000E+00
-0.2582355058855E+00  0.1073086381687E+00  0.0000000000000E+00
-0.2671076056503E+00  0.1423209104305E+00  0.0000000000000E+00
-0.2759797054152E+00  0.1773331826923E+00  0.0000000000000E+00
-0.2848518051800E+00  0.2123454549541E+00  0.0000000000000E+00
-0.2937239049449E+00  0.2473577272159E+00  0.0000000000000E+00
-0.1005454709900E+00 -0.3817562677518E+00  0.0000000000000E+00
-0.1072053602565E+00 -0.3471200718438E+00  0.0000000000000E+00
-0.1138652495230E+00 -0.3124838759358E+00  0.0000000000000E+00
-0.1205251387895E+00 -0.2778476800278E+00  0.0000000000000E+00
-0.1271850280560E+00 -0.2432114841198E+00  0.0000000000000E+00
-0.1338449173226E+00 -0.2085752882118E+00  0.0000000000000E+00
-0.1405048065891E+00 -0.1739390923039E+00  0.0000000000000E+00
-0.1471646958556E+00 -0.1393028963959E+00  0.0000000000000E+00
-0.1538245851221E+00 -0.1046667004879E+00  0.0000000000000E+00
-0.1604844743886E+00 -0.7003050457989E-01  0.0000000000000E+00
-0.1671443636552E+00 -0.3539430867190E-01  0.0000000000000E+00
-0.1738042529217E+00 -0.7581127639063E-03  0.0000000000000E+00
-0.1804641421882E+00  0.3387808314408E-01  0.0000000000000E+00
-0.1871240314547E+00  0.6851427905207E-01  0.0000000000000E+00
-0.1937839207212E+00  0.1031504749601E+00  0.0000000000000E+00
-0.2004438099878E+00  0.1377866708681E+00  0.0000000000000E+00
-0.2071036992543E+00  0.1724228667760E+00  0.0000000000000E+00
-0.2137635885208E+00  0.2070590626840E+00  0.0000000000000E+00
-0.2204234777873E+00  0.2416952585920E+00  0.0000000000000E+00
-0.6704270627605E-01 -0.3809667730720E+00  0.0000000000000E+00
-0.7148545141935E-01 -0.3466011322144E+00  0.0000000000000E+00
-0.7592819656265E-01 -0.3122354913569E+00  0.0000000000000E+00
-0.8037094170595E-01 -0.2778698504993E+00  0.0000000000000E+00
-0.8481368684925E-01 -0.2435042096418E+00  0.0000000000000E+00
-0.8925643199255E-01 -0.2091385687842E+00  0.0000000000000E+00
-0.9369917713585E-01 -0.1747729279267E+00  0.0000000000000E+00
-0.9814192227916E-01 -0.1404072870692E+00  0.0000000000000E+00
-0.1025846674225E+00 -0.1060416462116E+00  0.0000000000000E+00
-0.1070274125658E+00 -0.7167600535406E-01  0.0000000000000E+00
-0.1114701577091E+00 -0.3731036449652E-01  0.0000000000000E+00
-0.1159129028524E+00 -0.2944723638973E-02  0.0000000000000E+00
-0.1203556479957E+00  0.3142091721857E-01  0.0000000000000E+00
-0.1247983931390E+00  0.6578655807612E-01  0.0000000000000E+00
-0.1292411382823E+00  0.1001521989337E+00  0.0000000000000E+00
-0.1336838834256E+00  0.1345178397912E+00  0.0000000000000E+00
-0.1381266285689E+00  0.1688834806488E+00  0.0000000000000E+00
-0.1425693737122E+00  0.2032491215063E+00  0.0000000000000E+00
-0.1470121188555E+00  0.2376147623638E+00  0.0000000000000E+00
-0.3352511022345E-01 -0.3804951770728E+00  0.0000000000000E+00
-0.3574736497451E-01 -0.3462942814123E+00  0.0000000000000E+00
-0.3796961972557E-01 -0.3120933857518E+00  0.0000000000000E+00
-0.4019187447663E-01 -0.2778924900913E+00  0.0000000000000E+00
-0.4241412922770E-01 -0.2436915944307E+00  0.0000000000000E+00
-0.4463638397876E-01 -0.2094906987702E+00  0.0000000000000E+00
-0.4685863872982E-01 -0.1752898031097E+00  0.0000000000000E+00
-0.4908089348088E-01 -0.1410889074492E+00  0.0000000000000E+00
-0.5130314823194E-01 -0.1068880117887E+00  0.0000000000000E+00
-0.5352540298300E-01 -0.7268711612818E-01  0.0000000000000E+00
-0.5574765773406E-01 -0.3848622046767E-01  0.0000000000000E+00
-0.5796991248513E-01 -0.4285324807156E-02  0.0000000000000E+00
-0.6019216723619E-01  0.2991557085336E-01  0.0000000000000E+00
-0.6241442198725E-01  0.6411646651387E-01  0.0000000000000E+00
-0.6463667673831E-01  0.9831736217438E-01  0.0000000000000E+00
-0.6685893148937E-01  0.1325182578349E+00  0.0000000000000E+00
-0.6908118624043E-01  0.1667191534954E+00  0.0000000000000E+00
-0.7130344099149E-01  0.2009200491559E+00  0.0000000000000E+00
-0.7352569574256E-01  0.2351209448164E+00  0.0000000000000E+00
-0.9110412026432E-10 -0.3803390679715E+00  0.0000000000000E+00
-0.1822078997847E-09 -0.3461942289011E+00  0.0000000000000E+00
-0.2733118597163E-09 -0.3120493898306E+00  0.0000000000000E+00
-0.3644157225034E-09 -0.2779045507602E+00  0.0000000000000E+00
-0.4555196408017E-09 -0.2437597116898E+00  0.0000000000000E+00
-0.5466234480776E-09 -0.2096148726194E+00  0.0000000000000E+00
-0.6377270888201E-09 -0.1754700335490E+00  0.0000000000000E+00
-0.7288309516072E-09 -0.1413251944785E+00  0.0000000000000E+00
-0.8199347588832E-09 -0.1071803554081E+00  0.0000000000000E+00
-0.9110384551368E-09 -0.7303551633770E-01  0.0000000000000E+00
-0.1002142373435E-08 -0.3889067726728E-01  0.0000000000000E+00
-0.1093246125200E-08 -0.4745838196866E-02  0.0000000000000E+00
-0.1184349710431E-08  0.2939900087355E-01  0.0000000000000E+00
-0.1275453573218E-08  0.6354383994397E-01  0.0000000000000E+00
-0.1366557602539E-08  0.9768867901439E-01  0.0000000000000E+00
-0.1457661298793E-08  0.1318335180848E+00  0.0000000000000E+00
-0.1548765106068E-08  0.1659783571552E+00  0.0000000000000E+00
-0.1639868913344E-08  0.2001231962256E+00  0.0000000000000E+00
-0.1730972498576E-08  0.2342680352961E+00  0.0000000000000E+00
 0.3352511004131E-01 -0.3804951770771E+00  0.0000000000000E+00
 0.3574736461023E-01 -0.3462942814209E+00  0.0000000000000E+00
 0.3796961917915E-01 -0.3120933857647E+00  0.0000000000000E+00
 0.4019187374807E-01 -0.2778924901086E+00  0.0000000000000E+00
 0.4241412831699E-01 -0.2436915944524E+00  0.0000000000000E+00
 0.4463638288591E-01 -0.2094906987962E+00  0.0000000000000E+00
 0.4685863745483E-01 -0.1752898031400E+00  0.0000000000000E+00
 0.4908089202375E-01 -0.1410889074838E+00  0.0000000000000E+00
 0.5130314659267E-01 -0.1068880118276E+00  0.0000000000000E+00
 0.5352540116158E-01 -0.7268711617143E-01  0.0000000000000E+00
 0.5574765573050E-01 -0.3848622051524E-01  0.0000000000000E+00
 0.5796991029942E-01 -0.4285324859053E-02  0.0000000000000E+00
 0.6019216486834E-01  0.2991557079713E-01  0.0000000000000E+00
 0.6241441943726E-01  0.6411646645332E-01  0.0000000000000E+00
 0.6463667400618E-01  0.9831736210951E-01  0.0000000000000E+00
 0.6685892857510E-01  0.1325182577657E+00  0.0000000000000E+00
 0.6908118314402E-01  0.1667191534219E+00  0.0000000000000E+00
 0.7130343771294E-01  0.2009200490781E+00  0.0000000000000E+00
 0.7352569228186E-01  0.2351209447343E+00  0.0000000000000E+00
 0.6704270609402E-01 -0.3809667730804E+00  0.0000000000000E+00
 0.7148545105530E-01 -0.3466011322313E+00  0.0000000000000E+00
 0.7592819601657E-01 -0.3122354913822E+00  0.0000000000000E+00
 0.8037094097785E-01 -0.2778698505331E+00  0.0000000000000E+00
 0.8481368593912E-01 -0.2435042096840E+00  0.0000000000000E+00
 0.8925643090040E-01 -0.2091385688349E+00  0.0000000000000E+00
 0.9369917586167E-01 -0.1747729279858E+00  0.0000000000000E+00
 0.9814192082294E-01 -0.1404072871367E+00  0.0000000000000E+00
 0.1025846657842E+00 -0.1060416462876E+00  0.0000000000000E+00
 0.1070274107455E+00 -0.7167600543851E-01  0.0000000000000E+00
 0.1114701557068E+00 -0.3731036458941E-01  0.0000000000000E+00
 0.1159129006680E+00 -0.2944723740310E-02  0.0000000000000E+00
 0.1203556456293E+00  0.3142091710879E-01  0.0000000000000E+00
 0.1247983905906E+00  0.6578655795789E-01  0.0000000000000E+00
 0.1292411355519E+00  0.1001521988070E+00  0.0000000000000E+00
 0.1336838805131E+00  0.1345178396561E+00  0.0000000000000E+00
 0.1381266254744E+00  0.1688834805052E+00  0.0000000000000E+00
 0.1425693704357E+00  0.2032491213543E+00  0.0000000000000E+00
 0.1470121153970E+00  0.2376147622034E+00  0.0000000000000E+00
 0.1005454708081E+00 -0.3817562677643E+00  0.0000000000000E+00
 0.1072053598928E+00 -0.3471200718688E+00  0.0000000000000E+00
 0.1138652489775E+00 -0.3124838759733E+00  0.0000000000000E+00
 0.1205251380622E+00 -0.2778476800778E+00  0.0000000000000E+00
 0.1271850271469E+00 -0.2432114841823E+00  0.0000000000000E+00
 0.1338449162316E+00 -0.2085752882868E+00  0.0000000000000E+00
 0.1405048053162E+00 -0.1739390923913E+00  0.0000000000000E+00
 0.1471646944009E+00 -0.1393028964959E+00  0.0000000000000E+00
 0.1538245834856E+00 -0.1046667006004E+00  0.0000000000000E+00
 0.1604844725703E+00 -0.7003050470487E-01  0.0000000000000E+00
 0.1671443616550E+00 -0.3539430880938E-01  0.0000000000000E+00
 0.1738042507397E+00 -0.7581129138917E-03  0.0000000000000E+00
 0.1804641398244E+00  0.3387808298160E-01  0.0000000000000E+00
 0.1871240289091E+00  0.6851427887709E-01  0.0000000000000E+00
 0.1937839179937E+00  0.1031504747726E+00  0.0000000000000E+00
 0.2004438070784E+00  0.1377866706681E+00  0.0000000000000E+00
 0.2071036961631E+00  0.1724228665636E+00  0.0000000000000E+00
 0.2137635852478E+00  0.2070590624591E+00  0.0000000000000E+00
 0.2204234743325E+00  0.2416952583545E+00  0.0000000000000E+00
 0.1340261089962E+00 -0.3828631735131E+00  0.0000000000000E+00
 0.1428982085797E+00 -0.3478509012679E+00  0.0000000000000E+00
 0.1517703081632E+00 -0.3128386290227E+00  0.0000000000000E+00
 0.1606424077467E+00 -0.2778263567775E+00  0.0000000000000E+00
 0.1695145073302E+00 -0.2428140845323E+00  0.0000000000000E+00
 0.1783866069137E+00 -0.2078018122871E+00  0.0000000000000E+00
 0.1872587064972E+00 -0.1727895400418E+00  0.0000000000000E+00
 0.1961308060807E+00 -0.1377772677966E+00  0.0000000000000E+00
 0.2050029056642E+00 -0.1027649955514E+00  0.0000000000000E+00
 0.2138750052477E+00 -0.6775272330619E-01  0.0000000000000E+00
 0.2227471048312E+00 -0.3274045106098E-01  0.0000000000000E+00
 0.2316192044147E+00  0.2271821184241E-02  0.0000000000000E+00
 0.2404913039982E+00  0.3728409342946E-01  0.0000000000000E+00
 0.2493634035817E+00  0.7229636567468E-01  0.0000000000000E+00
 0.2582355031652E+00  0.1073086379199E+00  0.0000000000000E+00
 0.2671076027487E+00  0.1423209101651E+00  0.0000000000000E+00
 0.2759797023322E+00  0.1773331824103E+00  0.0000000000000E+00
 0.2848518019157E+00  0.2123454546555E+00  0.0000000000000E+00
 0.2937239014992E+00  0.2473577269008E+00  0.0000000000000E+00
 0.1674771091722E+00 -0.3842843495732E+00  0.0000000000000E+00
 0.1785546410022E+00 -0.3487884211524E+00  0.0000000000000E+00
 0.1896321728322E+00 -0.3132924927316E+00  0.0000000000000E+00
 0.2007097046621E+00 -0.2777965643107E+00  0.0000000000000E+00
 0.2117872364921E+00 -0.2423006358899E+00  0.0000000000000E+00
 0.2228647683220E+00 -0.2068047074691E+00  0.0000000000000E+00
 0.2339423001520E+00 -0.1713087790483E+00  0.0000000000000E+00
 0.2450198319819E+00 -0.1358128506275E+00  0.0000000000000E+00
 0.2560973638119E+00 -0.1003169222066E+00  0.0000000000000E+00
 0.2671748956418E+00 -0.6482099378580E-01  0.0000000000000E+00
 0.2782524274718E+00 -0.2932506536498E-01  0.0000000000000E+00
 0.2893299593017E+00  0.6170863055847E-02  0.0000000000000E+00
 0.3004074911317E+00  0.4166679147667E-01  0.0000000000000E+00
 0.3114850229616E+00  0.7716271989750E-01  0.0000000000000E+00
 0.3225625547916E+00  0.1126586483183E+00  0.0000000000000E+00
 0.3336400866215E+00  0.1481545767391E+00  0.0000000000000E+00
 0.3447176184515E+00  0.1836505051600E+00  0.0000000000000E+00
 0.3557951502814E+00  0.2191464335808E+00  0.0000000000000E+00
 0.3668726821114E+00  0.2546423620016E+00  0.0000000000000E+00
 0.2008905516076E+00 -0.3860140358638E+00  0.0000000000000E+00
 0.2141644302833E+00 -0.3499224953114E+00  0.0000000000000E+00
 0.2274383089590E+00 -0.3138309547591E+00  0.0000000000000E+00
 0.2407121876348E+00 -0.2777394142068E+00  0.0000000000000E+00
 0.2539860663105E+00 -0.2416478736544E+00  0.0000000000000E+00
 0.2672599449862E+00 -0.2055563331021E+00  0.0000000000000E+00
 0.2805338236619E+00 -0.1694647925498E+00  0.0000000000000E+00
 0.2938077023376E+00 -0.1333732519975E+00  0.0000000000000E+00
 0.3070815810133E+00 -0.9728171144512E-01  0.0000000000000E+00
 0.3203554596891E+00 -0.6119017089279E-01  0.0000000000000E+00
 0.3336293383648E+00 -0.2509863034046E-01  0.0000000000000E+00
 0.3469032170405E+00  0.1099291021187E-01  0.0000000000000E+00
 0.3601770957162E+00  0.4708445076420E-01  0.0000000000000E+00
 0.3734509743919E+00  0.8317599131653E-01  0.0000000000000E+00
 0.3867248530677E+00  0.1192675318689E+00  0.0000000000000E+00
 0.3999987317434E+00  0.1553590724212E+00  0.0000000000000E+00
 0.4132726104191E+00  0.1914506129735E+00  0.0000000000000E+00
 0.4265464890948E+00  0.2275421535259E+00  0.0000000000000E+00
 0.4398203677705E+00  0.2636336940782E+00  0.0000000000000E+00
 0.2342578968120E+00 -0.3880438745619E+00  0.0000000000000E+00
 0.2497160427631E+00 -0.3512380882442E+00  0.0000000000000E+00
 0.2651741887142E+00 -0.3144323019265E+00  0.0000000000000E+00
 0.2806323346653E+00 -0.2776265156088E+00  0.0000000000000E+00
 0.2960904806164E+00 -0.2408207292911E+00  0.0000000000000E+00
 0.3115486265674E+00 -0.2040149429734E+00  0.0000000000000E+00
 0.3270067725185E+00 -0.1672091566557E+00  0.0000000000000E+00
 0.3424649184696E+00 -0.1304033703380E+00  0.0000000000000E+00
 0.3579230644207E+00 -0.9359758402027E-01  0.0000000000000E+00
 0.3733812103718E+00 -0.5679179770256E-01  0.0000000000000E+00
 0.3888393563228E+00 -0.1998601138485E-01  0.0000000000000E+00
 0.4042975022739E+00  0.1681977493286E-01  0.0000000000000E+00
 0.4197556482250E+00  0.5362556125056E-01  0.0000000000000E+00
 0.4352137941761E+00  0.9043134756827E-01  0.0000000000000E+00
 0.4506719401272E+00  0.1272371338860E+00  0.0000000000000E+00
 0.4661300860782E+00  0.1640429202037E+00  0.0000000000000E+00
 0.4815882320293E+00  0.2008487065214E+00  0.0000000000000E+00
 0.4970463779804E+00  0.2376544928391E+00  0.0000000000000E+00
 0.5125045239315E+00  0.2744602791568E+00  0.0000000000000E+00
 0.2675697751805E+00 -0.3903634586150E+00  0.0000000000000E+00
 0.2851962167721E+00 -0.3527163568323E+00  0.0000000000000E+00
 0.3028226583638E+00 -0.3150692550497E+00  0.0000000000000E+00
 0.3204490999555E+00 -0.2774221532670E+00  0.0000000000000E+00
 0.3380755415472E+00 -0.2397750514843E+00  0.0000000000000E+00
 0.3557019831389E+00 -0.2021279497017E+00  0.0000000000000E+00
 0.3733284247305E+00 -0.1644808479190E+00  0.0000000000000E+00
 0.3909548663222E+00 -0.1268337461363E+00  0.0000000000000E+00
 0.4085813079139E+00 -0.8918664435365E-01  0.0000000000000E+00
 0.4262077495056E+00 -0.5153954257098E-01  0.0000000000000E+00
 0.4438341910973E+00 -0.1389244078831E-01  0.0000000000000E+00
 0.4614606326889E+00  0.2375466099436E-01  0.0000000000000E+00
 0.4790870742806E+00  0.6140176277703E-01  0.0000000000000E+00
 0.4967135158723E+00  0.9904886455970E-01  0.0000000000000E+00
 0.5143399574640E+00  0.1366959663424E+00  0.0000000000000E+00
 0.5319663990557E+00  0.1743430681250E+00  0.0000000000000E+00
 0.5495928406473E+00  0.2119901699077E+00  0.0000000000000E+00
 0.5672192822390E+00  0.2496372716904E+00  0.0000000000000E+00
 0.5848457238307E+00  0.2872843734730E+00  0.0000000000000E+00
 0.3008163577734E+00 -0.3929631428122E+00  0.0000000000000E+00
 0.3205906655322E+00 -0.3543402623307E+00  0.0000000000000E+00
 0.3403649732910E+00 -0.3157173818492E+00  0.0000000000000E+00
 0.3601392810498E+00 -0.2770945013677E+00  0.0000000000000E+00
 0.3799135888087E+00 -0.2384716208863E+00  0.0000000000000E+00
 0.3996878965675E+00 -0.1998487404048E+00  0.0000000000000E+00
 0.4194622043263E+00 -0.1612258599233E+00  0.0000000000000E+00
 0.4392365120851E+00 -0.1226029794418E+00  0.0000000000000E+00
 0.4590108198439E+00 -0.8398009896027E-01  0.0000000000000E+00
 0.4787851276028E+00 -0.4535721847878E-01  0.0000000000000E+00
 0.4985594353616E+00 -0.6734337997284E-02  0.0000000000000E+00
 0.5183337431204E+00  0.3188854248421E-01  0.0000000000000E+00
 0.5381080508792E+00  0.7051142296571E-01  0.0000000000000E+00
 0.5578823586381E+00  0.1091343034472E+00  0.0000000000000E+00
 0.5776566663969E+00  0.1477571839287E+00  0.0000000000000E+00
 0.5974309741557E+00  0.1863800644102E+00  0.0000000000000E+00
 0.6172052819145E+00  0.2250029448917E+00  0.0000000000000E+00
 0.6369795896734E+00  0.2636258253732E+00  0.0000000000000E+00
 0.6567538974322E+00  0.3022487058547E+00  0.0000000000000E+00
 0.3339899906020E+00 -0.3958444359414E+00  0.0000000000000E+00
 0.3558893491867E+00 -0.3561153469911E+00  0.0000000000000E+00
 0.3777887077715E+00 -0.3163862580408E+00  0.0000000000000E+00
 0.3996880663563E+00 -0.2766571690905E+00  0.0000000000000E+00
 0.4215874249411E+00 -0.2369280801402E+00  0.0000000000000E+00
 0.4434867835259E+00 -0.1971989911899E+00  0.0000000000000E+00
 0.4653861421107E+00 -0.1574699022396E+00  0.0000000000000E+00
 0.4872855006954E+00 -0.1177408132894E+00  0.0000000000000E+00
 0.5091848592802E+00 -0.7801172433906E-01  0.0000000000000E+00
 0.5310842178650E+00 -0.3828263538877E-01  0.0000000000000E+00
 0.5529835764498E+00  0.1446453561517E-02  0.0000000000000E+00
 0.5748829350346E+00  0.4117554251181E-01  0.0000000000000E+00
 0.5967822936193E+00  0.8090463146210E-01  0.0000000000000E+00
 0.6186816522041E+00  0.1206337204124E+00  0.0000000000000E+00
 0.6405810107889E+00  0.1603628093627E+00  0.0000000000000E+00
 0.6624803693737E+00  0.2000918983130E+00  0.0000000000000E+00
 0.6843797279585E+00  0.2398209872633E+00  0.0000000000000E+00
 0.7062790865433E+00  0.2795500762135E+00  0.0000000000000E+00
 0.7281784451280E+00  0.3192791651638E+00  0.0000000000000E+00
 0.3670941280509E+00 -0.3990479117477E+00  0.0000000000000E+00
 0.3911043430246E+00 -0.3581255481675E+00  0.0000000000000E+00
 0.4151145579982E+00 -0.3172031845874E+00  0.0000000000000E+00
 0.4391247729718E+00 -0.2762808210073E+00  0.0000000000000E+00
 0.4631349879455E+00 -0.2353584574271E+00  0.0000000000000E+00
 0.4871452029191E+00 -0.1944360938470E+00  0.0000000000000E+00
 0.5111554178927E+00 -0.1535137302669E+00  0.0000000000000E+00
 0.5351656328664E+00 -0.1125913666867E+00  0.0000000000000E+00
 0.5591758478400E+00 -0.7166900310660E-01  0.0000000000000E+00
 0.5831860628136E+00 -0.3074663952647E-01  0.0000000000000E+00
 0.6071962777873E+00  0.1017572405366E-01  0.0000000000000E+00
 0.6312064927609E+00  0.5109808763380E-01  0.0000000000000E+00
 0.6552167077345E+00  0.9202045121393E-01  0.0000000000000E+00
 0.6792269227082E+00  0.1329428147941E+00  0.0000000000000E+00
 0.7032371376818E+00  0.1738651783742E+00  0.0000000000000E+00
 0.7272473526555E+00  0.2147875419543E+00  0.0000000000000E+00
 0.7512575676291E+00  0.2557099055345E+00  0.0000000000000E+00
 0.7752677826027E+00  0.2966322691146E+00  0.0000000000000E+00
 0.7992779975764E+00  0.3375546326947E+00  0.0000000000000E+00
 0.4001452658322E+00 -0.4026538268434E+00  0.0000000000000E+00
 0.4262736919301E+00 -0.3605344242716E+00  0.0000000000000E+00
 0.4524021180279E+00 -0.3184150216998E+00  0.0000000000000E+00
 0.4785305441258E+00 -0.2762956191280E+00  0.0000000000000E+00
 0.5046589702237E+00 -0.2341762165562E+00  0.0000000000000E+00
 0.5307873963216E+00 -0.1920568139844E+00  0.0000000000000E+00
 0.5569158224194E+00 -0.1499374114126E+00  0.0000000000000E+00
 0.5830442485173E+00 -0.1078180088408E+00  0.0000000000000E+00
 0.6091726746152E+00 -0.6569860626900E-01  0.0000000000000E+00
 0.6353011007131E+00 -0.2357920369720E-01  0.0000000000000E+00
 0.6614295268109E+00  0.1854019887460E-01  0.0000000000000E+00
 0.6875579529088E+00  0.6065960144641E-01  0.0000000000000E+00
 0.7136863790067E+00  0.1027790040182E+00  0.0000000000000E+00
 0.7398148051046E+00  0.1448984065900E+00  0.0000000000000E+00
 0.7659432312024E+00  0.1870178091618E+00  0.0000000000000E+00
 0.7920716573003E+00  0.2291372117336E+00  0.0000000000000E+00
 0.8182000833982E+00  0.2712566143054E+00  0.0000000000000E+00
 0.8443285094961E+00  0.3133760168772E+00  0.0000000000000E+00
 0.8704569355939E+00  0.3554954194490E+00  0.0000000000000E+00
 0.4331566792210E+00 -0.4067328541253E+00  0.0000000000000E+00
 0.4614288245888E+00 -0.3634866018376E+00  0.0000000000000E+00
 0.4897009699565E+00 -0.3202403495500E+00  0.0000000000000E+00
 0.5179731153242E+00 -0.2769940972623E+00  0.0000000000000E+00
 0.5462452606920E+00 -0.2337478449747E+00  0.0000000000000E+00
 0.5745174060597E+00 -0.1905015926870E+00  0.0000000000000E+00
 0.6027895514275E+00 -0.1472553403993E+00  0.0000000000000E+00
 0.6310616967952E+00 -0.1040090881117E+00  0.0000000000000E+00
 0.6593338421629E+00 -0.6076283582400E-01  0.0000000000000E+00
 0.6876059875307E+00 -0.1751658353633E-01  0.0000000000000E+00
 0.7158781328984E+00  0.2572966875133E-01  0.0000000000000E+00
 0.7441502782662E+00  0.6897592103899E-01  0.0000000000000E+00
 0.7724224236339E+00  0.1122221733267E+00  0.0000000000000E+00
 0.8006945690017E+00  0.1554684256143E+00  0.0000000000000E+00
 0.8289667143694E+00  0.1987146779020E+00  0.0000000000000E+00
 0.8572388597371E+00  0.2419609301896E+00  0.0000000000000E+00
 0.8855110051049E+00  0.2852071824773E+00  0.0000000000000E+00
 0.9137831504726E+00  0.3284534347650E+00  0.0000000000000E+00
 0.9420552958404E+00  0.3716996870526E+00  0.0000000000000E+00
 0.4661358892480E+00 -0.4113546121035E+00  0.0000000000000E+00
 0.4965895943463E+00 -0.3671248415798E+00  0.0000000000000E+00
 0.5270432994446E+00 -0.3228950710562E+00  0.0000000000000E+00
 0.5574970045428E+00 -0.2786653005325E+00  0.0000000000000E+00
 0.5879507096411E+00 -0.2344355300089E+00  0.0000000000000E+00
 0.6184044147394E+00 -0.1902057594852E+00  0.0000000000000E+00
 0.6488581198376E+00 -0.1459759889615E+00  0.0000000000000E+00
 0.6793118249359E+00 -0.1017462184379E+00  0.0000000000000E+00
 0.7097655300342E+00 -0.5751644791423E-01  0.0000000000000E+00
 0.7402192351324E+00 -0.1328667739058E-01  0.0000000000000E+00
 0.7706729402307E+00  0.3094309313308E-01  0.0000000000000E+00
 0.8011266453290E+00  0.7517286365674E-01  0.0000000000000E+00
 0.8315803504272E+00  0.1194026341804E+00  0.0000000000000E+00
 0.8620340555255E+00  0.1636324047041E+00  0.0000000000000E+00
 0.8924877606238E+00  0.2078621752277E+00  0.0000000000000E+00
 0.9229414657220E+00  0.2520919457514E+00  0.0000000000000E+00
 0.9533951708203E+00  0.2963217162750E+00  0.0000000000000E+00
 0.9838488759186E+00  0.3405514867987E+00  0.0000000000000E+00
 0.1014302581017E+01  0.3847812573223E+00  0.0000000000000E+00
 0.4990802664438E+00 -0.4165840327379E+00  0.0000000000000E+00
 0.5317553215595E+00 -0.3715827348342E+00  0.0000000000000E+00
 0.5644303766752E+00 -0.3265814369305E+00  0.0000000000000E+00
 0.5971054317909E+00 -0.2815801390268E+00  0.0000000000000E+00
 0.6297804869067E+00 -0.2365788411232E+00  0.0000000000000E+00
 0.6624555420224E+00 -0.1915775432195E+00  0.0000000000000E+00
 0.6951305971381E+00 -0.1465762453158E+00  0.0000000000000E+00
 0.7278056522539E+00 -0.1015749474121E+00  0.0000000000000E+00
 0.7604807073696E+00 -0.5657364950839E-01  0.0000000000000E+00
 0.7931557624853E+00 -0.1157235160470E-01  0.0000000000000E+00
 0.8258308176011E+00  0.3342894629900E-01  0.0000000000000E+00
 0.8585058727168E+00  0.7843024420269E-01  0.0000000000000E+00
 0.8911809278325E+00  0.1234315421064E+00  0.0000000000000E+00
 0.9238559829483E+00  0.1684328400101E+00  0.0000000000000E+00
 0.9565310380640E+00  0.2134341379138E+00  0.0000000000000E+00
 0.9892060931797E+00  0.2584354358175E+00  0.0000000000000E+00
 0.1021881148295E+01  0.3034367337211E+00  0.0000000000000E+00
 0.1054556203411E+01  0.3484380316248E+00  0.0000000000000E+00
 0.1087231258527E+01  0.3934393295285E+00  0.0000000000000E+00
 0.5319747862026E+00 -0.4224941396770E+00  0.0000000000000E+00
 0.5669005035122E+00 -0.3770102860085E+00  0.0000000000000E+00
 0.6018262208219E+00 -0.3315264323400E+00  0.0000000000000E+00
 0.6367519381315E+00 -0.2860425786714E+00  0.0000000000000E+00
 0.6716776554412E+00 -0.2405587250029E+00  0.0000000000000E+00
 0.7066033727508E+00 -0.1950748713344E+00  0.0000000000000E+00
 0.7415290900604E+00 -0.1495910176658E+00  0.0000000000000E+00
 0.7764548073701E+00 -0.1041071639973E+00  0.0000000000000E+00
 0.8113805246797E+00 -0.5862331032874E-01  0.0000000000000E+00
 0.8463062419894E+00 -0.1313945666021E-01  0.0000000000000E+00
 0.8812319592990E+00  0.3234439700833E-01  0.0000000000000E+00
 0.9161576766086E+00  0.7782825067687E-01  0.0000000000000E+00
 0.9510833939183E+00  0.1233121043454E+00  0.0000000000000E+00
 0.9860091112279E+00  0.1687959580139E+00  0.0000000000000E+00
 0.1020934828538E+01  0.2142798116825E+00  0.0000000000000E+00
 0.1055860545847E+01  0.2597636653510E+00  0.0000000000000E+00
 0.1090786263157E+01  0.3052475190195E+00  0.0000000000000E+00
 0.1125711980466E+01  0.3507313726881E+00  0.0000000000000E+00
 0.1160637697776E+01  0.3962152263566E+00  0.0000000000000E+00
 0.5647851635818E+00 -0.4291779471573E+00  0.0000000000000E+00
 0.6019607638464E+00 -0.3835976335334E+00  0.0000000000000E+00
 0.6391363641111E+00 -0.3380173199096E+00  0.0000000000000E+00
 0.6763119643757E+00 -0.2924370062857E+00  0.0000000000000E+00
 0.7134875646404E+00 -0.2468566926618E+00  0.0000000000000E+00
 0.7506631649050E+00 -0.2012763790380E+00  0.0000000000000E+00
 0.7878387651697E+00 -0.1556960654141E+00  0.0000000000000E+00
 0.8250143654344E+00 -0.1101157517902E+00  0.0000000000000E+00
 0.8621899656990E+00 -0.6453543816633E-01  0.0000000000000E+00
 0.8993655659637E+00 -0.1895512454246E-01  0.0000000000000E+00
 0.9365411662283E+00  0.2662518908141E-01  0.0000000000000E+00
 0.9737167664930E+00  0.7220550270529E-01  0.0000000000000E+00
 0.1010892366758E+01  0.1177858163292E+00  0.0000000000000E+00
 0.1048067967022E+01  0.1633661299530E+00  0.0000000000000E+00
 0.1085243567287E+01  0.2089464435769E+00  0.0000000000000E+00
 0.1122419167552E+01  0.2545267572008E+00  0.0000000000000E+00
 0.1159594767816E+01  0.3001070708247E+00  0.0000000000000E+00
 0.1196770368081E+01  0.3456873844485E+00  0.0000000000000E+00
 0.1233945968346E+01  0.3912676980724E+00  0.0000000000000E+00
 0.5974622414189E+00 -0.4366441451446E+00  0.0000000000000E+00
 0.6368419582214E+00 -0.3913664748674E+00  0.0000000000000E+00
 0.6762216750239E+00 -0.3460888045901E+00  0.0000000000000E+00
 0.7156013918264E+00 -0.3008111343129E+00  0.0000000000000E+00
 0.7549811086289E+00 -0.2555334640357E+00  0.0000000000000E+00
 0.7943608254314E+00 -0.2102557937584E+00  0.0000000000000E+00
 0.8337405422339E+00 -0.1649781234812E+00  0.0000000000000E+00
 0.8731202590364E+00 -0.1197004532040E+00  0.0000000000000E+00
 0.9124999758389E+00 -0.7442278292673E-01  0.0000000000000E+00
 0.9518796926414E+00 -0.2914511264950E-01  0.0000000000000E+00
 0.9912594094439E+00  0.1613255762773E-01  0.0000000000000E+00
 0.1030639126246E+01  0.6141022790496E-01  0.0000000000000E+00
 0.1070018843049E+01  0.1066878981822E+00  0.0000000000000E+00
 0.1109398559851E+01  0.1519655684594E+00  0.0000000000000E+00
 0.1148778276654E+01  0.1972432387367E+00  0.0000000000000E+00
 0.1188157993456E+01  0.2425209090139E+00  0.0000000000000E+00
 0.1227537710259E+01  0.2877985792911E+00  0.0000000000000E+00
 0.1266917427061E+01  0.3330762495684E+00  0.0000000000000E+00
 0.1306297143864E+01  0.3783539198456E+00  0.0000000000000E+00
 0.6299559713731E+00 -0.4448788634348E+00  0.0000000000000E+00
 0.6714480731557E+00 -0.4002935754811E+00  0.0000000000000E+00
 0.7129401749383E+00 -0.3557082875275E+00  0.0000000000000E+00
 0.7544322767209E+00 -0.3111229995738E+00  0.0000000000000E+00
 0.7959243785035E+00 -0.2665377116201E+00  0.0000000000000E+00
 0.8374164802861E+00 -0.2219524236665E+00  0.0000000000000E+00
 0.8789085820687E+00 -0.1773671357128E+00  0.0000000000000E+00
 0.9204006838513E+00 -0.1327818477591E+00  0.0000000000000E+00
 0.9618927856339E+00 -0.8819655980548E-01  0.0000000000000E+00
 0.1003384887417E+01 -0.4361127185182E-01  0.0000000000000E+00
 0.1044876989199E+01  0.9740161018480E-03  0.0000000000000E+00
 0.1086369090982E+01  0.4555930405551E-01  0.0000000000000E+00
 0.1127861192764E+01  0.9014459200918E-01  0.0000000000000E+00
 0.1169353294547E+01  0.1347298799628E+00  0.0000000000000E+00
 0.1210845396330E+01  0.1793151679165E+00  0.0000000000000E+00
 0.1252337498112E+01  0.2239004558702E+00  0.0000000000000E+00
 0.1293829599895E+01  0.2684857438238E+00  0.0000000000000E+00
 0.1335321701677E+01  0.3130710317775E+00  0.0000000000000E+00
 0.1376813803460E+01  0.3576563197312E+00  0.0000000000000E+00
</DataArray>
</Points>
<Cells>
<DataArray type="Int64" Name="connectivity" format="ascii">
0 11 438 243
243 438 439 244
244 439 440 245
245 440 441 246
246 441 442 247
247 442 443 248
248 443 444 249
249 444 445 250
250 445 446 251
251 446 447 252
252 447 448 253
253 448 449 254
254 449 450 255
255 450 451 256
256 451 452 257
257 452 453 258
258 453 454 259
259 454 455 260
260 455 456 261
261 456 457 262
262 457 458 263
263 458 459 264
264 459 460 265
265 460 461 266
266 461 462 267
267 462 463 268
268 463 464 269
269 464 465 270
270 465 466 271
271 466 467 272
272 467 468 273
273 468 469 274
274 469 470 275
275 470 471 276
276 471 472 277
277 472 473 278
278 473 474 279
279 474 475 280
280 475 476 281
281 476 477 282
282 477 89 3
11 12 478 438
438 478 479 439
439 479 480 440
440 480 481 441
441 481 482 442
442 482 483 443
443 483 484 444
444 484 485 445
445 485 486 446
446 486 487 447
447 487 488 448
448 488 489 449
449 489 490 450
450 490 491 451
451 491 492 452
452 492 493 453
453 493 494 454
454 494 495 455
455 495 496 456
456 496 497 457
457 497 498 458
458 498 499 459
459 499 500 460
460 500 501 461
461 501 502 462
462 502 503 463
463 503 504 464
464 504 505 465
465 505 506 466
466 506 507 467
467 507 508 468
468 508 509 469
469 509 510 470
470 510 511 471
471 511 512 472
472 512 513 473
473 513 514 474
474 514 515 475
475 515 516 476
476 516 517 477
477 517 90 89
12 13 518 478
478 518 519 479
479 519 520 480
480 520 521 481
481 521 522 482
482 522 523 483
483 523 524 484
484 524 525 485
485 525 526 486
486 526 527 487
487 527 528 488
488 528 529 489
489 529 530 490
490 530 531 491
491 531 532 492
492 532 533 493
493 533 534 494
494 534 535 495
495 535 536 496
496 536 537 497
497 537 538 498
498 538 539 499
499 539 540 500
500 540 541 501
501 541 542 502
502 542 543 503
503 543 544 504
504 544 545 505
505 545 546 506
506 546 547 507
507 547 548 508
508 548 549 509
509 549 550 510
510 550 551 511
511 551 552 512
512 552 553 513
513 553 554 514
514 554 555 515
515 555 556 516
516 556 557 517
517 557 91 90
13 14 558 518
518 558 559 519
519 559 560 520
520 560 561 521
521 561 562 522
522 562 563 523
523 563 564 524
524 564 565 525
525 565 566 526
526 566 567 527
527 567 568 528
528 568 569 529
529 569 570 530
530 570 571 531
531 571 572 532
532 572 573 533
533 573 574 534
534 574 575 535
535 575 576 536
536 576 577 537
537 577 578 538
538 578 579 539
539 579 580 540
540 580 581 541
541 581 582 542
542 582 583 543
543 583 584 544
544 584 585 545
545 585 586 546
546 586 587 547
547 587 588 548
548 588 589 549
549 589 590 550
550 590 591 551
551 591 592 552
552 592 593 553
553 593 594 554
554 594 595 555
555 595 596 556
556 596 597 557
557 597 92 91
14 15 598 558
558 598 599 559
559 599 600 560
560 600 601 561
561 601 602 562
562 602 603 563
563 603 604 564
564 604 605 565
565 605 606 566
566 606 607 567
567 607 608 568
568 608 609 569
569 609 610 570
570 610 611 571
571 611 612 572
572 612 613 573
573 613 614 574
574 614 615 575
575 615 616 576
576 616 617 577
577 617 618 578
578 618 619 579
579 619 620 580
580 620 621 581
581 621 622 582
582 622 623 583
583 623 624 584
584 624 625 585
585 625 626 586
586 626 627 587
587 627 628 588
588 628 629 589
589 629 630 590
590 630 631 591
591 631 632 592
592 632 633 593
593 633 634 594
594 634 635 595
595 635 636 596
596 636 637 597
597 637 93 92
15 16 638 598
598 638 639 599
599 639 640 600
600 640 641 601
601 641 642 602
602 642 643 603
603 643 644 604
604 644 645 605
605 645 646 606
606 646 647 607
607 647 648 608
608 648 649 609
609 649 650 610
610 650 651 611
611 651 652 612
612 652 653 613
613 653 654 614
614 654 655 615
615 655 656 616
616 656 657 617
617 657 658 618
618 658 659 619
619 659 660 620
620 660 661 621
621 661 662 622
622 662 663 623
623 663 664 624
624 664 665 625
625 665 666 626
626 666 667 627
627 667 668 628
628 668 669 629
629 669 670 630
630 670 671 631
631 671 672 632
632 672 673 633
633 673 674 634
634 674 675 635
635 675 676 636
636 676 677 637
637 677 94 93
16 17 678 638
638 678 679 639
639 679 680 640
640 680 681 641
641 681 682 642
642 682 683 643
643 683 684 644
644 684 685 645
645 685 686 646
646 686 687 647
647 687 688 648
648 688 689 649
649 689 690 650
650 690 691 651
651 691 692 652
652 692 693 653
653 693 694 654
654 694 695 655
655 695 696 656
656 696 697 657
657 697 698 658
658 698 699 659
659 699 700 660
660 700 701 661
661 701 702 662
662 702 703 663
663 703 704 664
664 704 705 665
665 705 706 666
666 706 707 667
667 707 708 668
668 708 709 669
669 709 710 670
670 710 711 671
671 711 712 672
672 712 713 673
673 713 714 674
674 714 715 675
675 715 716 676
676 716 717 677
677 717 95 94
17 18 718 678
678 718 719 679
679 719 720 680
680 720 721 681
681 721 722 682
682 722 723 683
683 723 724 684
684 724 725 685
685 725 726 686
686 726 727 687
687 727 728 688
688 728 729 689
689 729 730 690
690 730 731 691
691 731 732 692
692 732 733 693
693 733 734 694
694 734 735 695
695 735 736 696
696 736 737 697
697 737 738 698
698 738 739 699
699 739 740 700
700 740 741 701
701 741 742 702
702 742 743 703
703 743 744 704
704 744 745 705
705 745 746 706
706 746 747 707
707 747 748 708
708 748 749 709
709 749 750 710
710 750 751 711
711 751 752 712
712 752 753 713
713 753 754 714
714 754 755 715
715 755 756 716
716 756 757 717
717 757 96 95
18 19 758 718
718 758 759 719
719 759 760 720
720 760 761 721
721 761 762 722
722 762 763 723
723 763 764 724
724 764 765 725
725 765 766 726
726 766 767 727
727 767 768 728
728 768 769 729
729 769 770 730
730 770 771 731
731 771 772 732
732 772 773 733
733 773 774 734
734 774 775 735
735 775 776 736
736 776 777 737
737 777 778 738
738 778 779 739
739 779 780 740
740 780 781 741
741 781 782 742
742 782 783 743
743 783 784 744
744 784 785 745
745 785 786 746
746 786 787 747
747 787 788 748
748 788 789 749
749 789 790 750
750 790 791 751
751 791 792 752
752 792 793 753
753 793 794 754
754 794 795 755
755 795 796 756
756 796 797 757
757 797 97 96
19 20 798 758
758 798 799 759
759 799 800 760
760 800 801 761
761 801 802 762
762 802 803 763
763 803 804 764
764 804 805 765
765 805 806 766
766 806 807 767
767 807 808 768
768 808 809 769
769 809 810 770
770 810 811 771
771 811 812 772
772 812 813 773
773 813 814 774
774 814 815 775
775 815 816 776
776 816 817 777
777 817 818 778
778 818 819 779
779 819 820 780
780 820 821 781
781 821 822 782
782 822 823 783
783 823 824 784
784 824 825 785
785 825 826 786
786 826 827 787
787 827 828 788
788 828 829 789
789 829 830 790
790 830 831 791
791 831 832 792
792 832 833 793
793 833 834 794
794 834 835 795
795 835 836 796
796 836 837 797
797 837 98 97
20 21 838 798
798 838 839 799
799 839 840 800
800 840 841 801
801 841 842 802
802 842 843 803
803 843 844 804
804 844 845 805
805 845 846 806
806 846 847 807
807 847 848 808
808 848 849 809
809 849 850 810
810 850 851 811
811 851 852 812
812 852 853 813
813 853 854 814
814 854 855 815
815 855 856 816
816 856 857 817
817 857 858 818
818 858 859 819
819 859 860 820
820 860 861 821
821 861 862 822
822 862 863 823
823 863 864 824
824 864 865 825
825 865 866 826
826 866 867 827
827 867 868 828
828 868 869 829
829 869 870 830
830 870 871 831
831 871 872 832
832 872 873 833
833 873 874 834
834 874 875 835
835 875 876 836
836 876 877 837
837 877 99 98
21 22 878 838
838 878 879 839
839 879 880 840
840 880 881 841
841 881 882 842
842 882 883 843
843 883 884 844
844 884 885 845
845 885 886 846
846 886 887 847
847 887 888 848
848 888 889 849
849 889 890 850
850 890 891 851
851 891 892 852
852 892 893 853
853 893 894 854
854 894 895 855
855 895 896 856
856 896 897 857
857 897 898 858
858 898 899 859
859 899 900 860
860 900 901 861
861 901 902 862
862 902 903 863
863 903 904 864
864 904 905 865
865 905 906 866
866 906 907 867
867 907 908 868
868 908 909 869
869 909 910 870
870 910 911 871
871 911 912 872
872 912 913 873
873 913 914 874
874 914 915 875
875 915 916 876
876 916 917 877
877 917 100 99
22 23 918 878
878 918 919 879
879 919 920 880
880 920 921 881
881 921 922 882
882 922 923 883
883 923 924 884
884 924 925 885
885 925 926 886
886 926 927 887
887 927 928 888
888 928 929 889
889 929 930 890
890 930 931 891
891 931 932 892
892 932 933 893
893 933 934 894
894 934 935 895
895 935 936 896
896 936 937 897
897 937 938 898
898 938 939 899
899 939 940 900
900 940 941 901
901 941 942 902
902 942 943 903
903 943 944 904
904 944 945 905
905 945 946 906
906 946 947 907
907 947 948 908
908 948 949 909
909 949 950 910
910 950 951 911
911 951 952 912
912 952 953 913
913 953 954 914
914 954 955 915
915 955 956 916
916 956 957 917
917 957 101 100
23 24 958 918
918 958 959 919
919 959 960 920
920 960 961 921
921 961 962 922
922 962 963 923
923 963 964 924
924 964 965 925
925 965 966 926
926 966 967 927
927 967 968 928
928 968 969 929
929 969 970 930
930 970 971 931
931 971 972 932
932 972 973 933
933 973 974 934
934 974 975 935
935 975 976 936
936 976 977 937
937 977 978 938
938 978 979 939
939 979 980 940
940 980 981 941
941 981 982 942
942 982 983 943
943 983 984 944
944 984 985 945
945 985 986 946
946 986 987 947
947 987 988 948
948 988 989 949
949 989 990 950
950 990 991 951
951 991 992 952
952 992 993 953
953 993 994 954
954 994 995 955
955 995 996 956
956 996 997 957
957 997 102 101
24 25 998 958
958 998 999 959
959 999 1000 960
960 1000 1001 961
961 1001 1002 962
962 1002 1003 963
963 1003 1004 964
964 1004 1005 965
965 1005 1006 966
966 1006 1007 967
967 1007 1008 968
968 1008 1009 969
969 1009 1010 970
970 1010 1011 971
971 1011 1012 972
972 1012 1013 973
973 1013 1014 974
974 1014 1015 975
975 1015 1016 976
976 1016 1017 977
977 1017 1018 978
978 1018 1019 979
979 1019 1020 980
980 1020 1021 981
981 1021 1022 982
982 1022 1023 983
983 1023 1024 984
984 1024 1025 985
985 1025 1026 986
986 1026 1027 987
987 1027 1028 988
988 1028 1029 989
989 1029 1030 990
990 1030 1031 991
991 1031 1032 992
992 1032 1033 993
993 1033 1034 994
994 1034 1035 995
995 1035 1036 996
996 1036 1037 997
997 1037 103 102
25 26 1038 998
998 1038 1039 999
999 1039 1040 1000
1000 1040 1041 1001
1001 1041 1042 1002
1002 1042 1043 1003
1003 1043 1044 1004
1004 1044 1045 1005
1005 1045 1046 1006
1006 1046 1047 1007
1007 1047 1048 1008
1008 1048 1049 1009
1009 1049 1050 1010
1010 1050 1051 1011
1011 1051 1052 1012
1012 1052 1053 1013
1013 1053 1054 1014
1014 1054 1055 1015
1015 1055 1056 1016
1016 1056 1057 1017
1017 1057 1058 1018
1018 1058 1059 1019
1019 1059 1060 1020
1020 1060 1061 1021
1021 1061 1062 1022
1022 1062 1063 1023
1023 1063 1064 1024
1024 1064 1065 1025
1025 1065 1066 1026
1026 1066 1067 1027
1027 1067 1068 1028
1028 1068 1069 1029
1029 1069 1070 1030
1030 1070 1071 1031
1031 1071 1072 1032
1032 1072 1073 1033
1033 1073 1074 1034
1034 1074 1075 1035
1035 1075 1076 1036
1036 1076 1077 1037
1037 1077 104 103
26 27 1078 1038
1038 1078 1079 1039
1039 1079 1080 1040
1040 1080 1081 1041
1041 1081 1082 1042
1042 1082 1083 1043
1043 1083 1084 1044
1044 1084 1085 1045
1045 1085 1086 1046
1046 1086 1087 1047
1047 1087 1088 1048
1048 1088 1089 1049
1049 1089 1090 1050
1050 1090 1091 1051
1051 1091 1092 1052
1052 1092 1093 1053
1053 1093 1094 1054
1054 1094 1095 1055
1055 1095 1096 1056
1056 1096 1097 1057
1057 1097 1098 1058
1058 1098 1099 1059
1059 1099 1100 1060
1060 1100 1101 1061
1061 1101 1102 1062
1062 1102 1103 1063
1063 1103 1104 1064
1064 1104 1105 1065
1065 1105 1106 1066
1066 1106 1107 1067
1067 1107 1108 1068
1068 1108 1109 1069
1069 1109 1110 1070
1070 1110 1111 1071
1071 1111 1112 1072
1072 1112 1113 1073
1073 1113 1114 1074
1074 1114 1115 1075
1075 1115 1116 1076
1076 1116 1117 1077
1077 1117 105 104
27 28 1118 1078
1078 1118 1119 1079
1079 1119 1120 1080
1080 1120 1121 1081
1081 1121 1122 1082
1082 1122 1123 1083
1083 1123 1124 1084
1084 1124 1125 1085
1085 1125 1126 1086
1086 1126 1127 1087
1087 1127 1128 1088
1088 1128 1129 1089
1089 1129 1130 1090
1090 1130 1131 1091
1091 1131 1132 1092
1092 1132 1133 1093
1093 1133 1134 1094
1094 1134 1135 1095
1095 1135 1136 1096
1096 1136 1137 1097
1097 1137 1138 1098
1098 1138 1139 1099
1099 1139 1140 1100
1100 1140 1141 1101
1101 1141 1142 1102
1102 1142 1143 1103
1103 1143 1144 1104
1104 1144 1145 1105
1105 1145 1146 1106
1106 1146 1147 1107
1107 1147 1148 1108
1108 1148 1149 1109
1109 1149 1150 1110
1110 1150 1151 1111
1111 1151 1152 1112
1112 1152 1153 1113
1113 1153 1154 1114
1114 1154 1155 1115
1115 1155 1156 1116
1116 1156 1157 1117
1117 1157 106 105
28 29 1158 1118
1118 1158 1159 1119
1119 1159 1160 1120
1120 1160 1161 1121
1121 1161 1162 1122
1122 1162 1163 1123
1123 1163 1164 1124
1124 1164 1165 1125
1125 1165 1166 1126
1126 1166 1167 1127
1127 1167 1168 1128
1128 1168 1169 1129
1129 1169 1170 1130
1130 1170 1171 1131
1131 1171 1172 1132
1132 1172 1173 1133
1133 1173 1174 1134
1134 1174 1175 1135
1135 1175 1176 1136
1136 1176 1177 1137
1137 1177 1178 1138
1138 1178 1179 1139
1139 1179 1180 1140
1140 1180 1181 1141
1141 1181 1182 1142
1142 1182 1183 1143
1143 1183 1184 1144
1144 1184 1185 1145
1145 1185 1186 1146
1146 1186 1187 1147
1147 1187 1188 1148
1148 1188 1189 1149
1149 1189 1190 1150
1150 1190 1191 1151
1151 1191 1192 1152
1152 1192 1193 1153
1153 1193 1194 1154
1154 1194 1195 1155
1155 1195 1196 1156
1156 1196 1197 1157
1157 1197 107 106
29 30 1198 1158
1158 1198 1199 1159
1159 1199 1200 1160
1160 1200 1201 1161
1161 1201 1202 1162
1162 1202 1203 1163
1163 1203 1204 1164
1164 1204 1205 1165
1165 1205 1206 1166
1166 1206 1207 1167
1167 1207 1208 1168
1168 1208 1209 1169
1169 1209 1210 1170
1170 1210 1211 1171
1171 1211 1212 1172
1172 1212 1213 1173
1173 1213 1214 1174
1174 1214 1215 1175
1175 1215 1216 1176
1176 1216 1217 1177
1177 1217 1218 1178
1178 1218 1219 1179
1179 1219 1220 1180
1180 1220 1221 1181
1181 1221 1222 1182
1182 1222 1223 1183
1183 1223 1224 1184
1184 1224 1225 1185
1185 1225 1226 1186
1186 1226 1227 1187
1187 1227 1228 1188
1188 1228 1229 1189
1189 1229 1230 1190
1190 1230 1231 1191
1191 1231 1232 1192
1192 1232 1233 1193
1193 1233 1234 1194
1194 1234 1235 1195
1195 1235 1236 1196
1196 1236 1237 1197
1197 1237 4 107
30 31 1238 1198
1198 1238 1239 1199
1199 1239 1240 1200
1200 1240 1241 1201
1201 1241 1242 1202
1202 1242 1243 1203
1203 1243 1244 1204
1204 1244 1245 1205
1205 1245 1246 1206
1206 1246 1247 1207
1207 1247 1248 1208
1208 1248 1249 1209
1209 1249 1250 1210
1210 1250 1251 1211
1211 1251 1252 1212
1212 1252 1253 1213
1213 1253 1254 1214
1214 1254 1255 1215
1215 1255 1256 1216
1216 1256 1257 1217
1217 1257 1258 1218
1218 1258 1259 1219
1219 1259 1260 1220
1220 1260 1261 1221
1221 1261 1262 1222
1222 1262 1263 1223
1223 1263 1264 1224
1224 1264 1265 1225
1225 1265 1266 1226
1226 1266 1267 1227
1227 1267 1268 1228
1228 1268 1269 1229
1229 1269 1270 1230
1230 1270 1271 1231
1231 1271 1272 1232
1232 1272 1273 1233
1233 1273 1274 1234
1234 1274 1275 1235
1235 1275 1276 1236
1236 1276 1277 1237
1237 1277 108 4
31 32 1278 1238
1238 1278 1279 1239
1239 1279 1280 1240
1240 1280 1281 1241
1241 1281 1282 1242
1242 1282 1283 1243
1243 1283 1284 1244
1244 1284 1285 1245
1245 1285 1286 1246
1246 1286 1287 1247
1247 1287 1288 1248
1248 1288 1289 1249
1249 1289 1290 1250
1250 1290 1291 1251
1251 1291 1292 1252
1252 1292 1293 1253
1253 1293 1294 1254
1254 1294 1295 1255
1255 1295 1296 1256
1256 1296 1297 1257
1257 1297 1298 1258
1258 1298 1299 1259
1259 1299 1300 1260
1260 1300 1301 1261
1261 1301 1302 1262
1262 1302 1303 1263
1263 1303 1304 1264
1264 1304 1305 1265
1265 1305 1306 1266
1266 1306 1307 1267
1267 1307 1308 1268
1268 1308 1309 1269
1269 1309 1310 1270
1270 1310 1311 1271
1271 1311 1312 1272
1272 1312 1313 1273
1273 1313 1314 1274
1274 1314 1315 1275
1275 1315 1316 1276
1276 1316 1317 1277
1277 1317 109 108
32 33 1318 1278
1278 1318 1319 1279
1279 1319 1320 1280
1280 1320 1321 1281
1281 1321 1322 1282
1282 1322 1323 1283
1283 1323 1324 1284
1284 1324 1325 1285
1285 1325 1326 1286
1286 1326 1327 1287
1287 1327 1328 1288
1288 1328 1329 1289
1289 1329 1330 1290
1290 1330 1331 1291
1291 1331 1332 1292
1292 1332 1333 1293
1293 1333 1334 1294
1294 1334 1335 1295
1295 1335 1336 1296
1296 1336 1337 1297
1297 1337 1338 1298
1298 1338 1339 1299
1299 1339 1340 1300
1300 1340 1341 1301
1301 1341 1342 1302
1302 1342 1343 1303
1303 1343 1344 1304
1304 1344 1345 1305
1305 1345 1346 1306
1306 1346 1347 1307
1307 1347 1348 1308
1308 1348 1349 1309
1309 1349 1350 1310
1310 1350 1351 1311
1311 1351 1352 1312
1312 1352 1353 1313
1313 1353 1354 1314
1314 1354 1355 1315
1315 1355 1356 1316
1316 1356 1357 1317
1317 1357 110 109
33 34 1358 1318
1318 1358 1359 1319
1319 1359 1360 1320
1320 1360 1361 1321
1321 1361 1362 1322
1322 1362 1363 1323
1323 1363 1364 1324
1324 1364 1365 1325
1325 1365 1366 1326
1326 1366 1367 1327
1327 1367 1368 1328
1328 1368 1369 1329
1329 1369 1370 1330
1330 1370 1371 1331
1331 1371 1372 1332
1332 1372 1373 1333
1333 1373 1374 1334
1334 1374 1375 1335
1335 1375 1376 1336
1336 1376 1377 1337
1337 1377 1378 1338
1338 1378 1379 1339
1339 1379 1380 1340
1340 1380 1381 1341
1341 1381 1382 1342
1342 1382 1383 1343
1343 1383 1384 1344
1344 1384 1385 1345
1345 1385 1386 1346
1346 1386 1387 1347
1347 1387 1388 1348
1348 1388 1389 1349
1349 1389 1390 1350
1350 1390 1391 1351
1351 1391 1392 1352
1352 1392 1393 1353
1353 1393 1394 1354
1354 1394 1395 1355
1355 1395 1396 1356
1356 1396 1397 1357
1357 1397 111 110
34 35 1398 1358
1358 1398 1399 1359
1359 1399 1400 1360
1360 1400 1401 1361
1361 1401 1402 1362
1362 1402 1403 1363
1363 1403 1404 1364
1364 1404 1405 1365
1365 1405 1406 1366
1366 1406 1407 1367
1367 1407 1408 1368
1368 1408 1409 1369
1369 1409 1410 1370
1370 1410 1411 1371
1371 1411 1412 1372
1372 1412 1413 1373
1373 1413 1414 1374
1374 1414 1415 1375
1375 1415 1416 1376
1376 1416 1417 1377
1377 1417 1418 1378
1378 1418 1419 1379
1379 1419 1420 1380
1380 1420 1421 1381
1381 1421 1422 1382
1382 1422 1423 1383
1383 1423 1424 1384
1384 1424 1425 1385
1385 1425 1426 1386
1386 1426 1427 1387
1387 1427 1428 1388
1388 1428 1429 1389
1389 1429 1430 1390
1390 1430 1431 1391
1391 1431 1432 1392
1392 1432 1433 1393
1393 1433 1434 1394
1394 1434 1435 1395
1395 1435 1436 1396
1396 1436 1437 1397
1397 1437 112 111
35 36 1438 1398
1398 1438 1439 1399
1399 1439 1440 1400
1400 1440 1441 1401
1401 1441 1442 1402
1402 1442 1443 1403
1403 1443 1444 1404
1404 1444 1445 1405
1405 1445 1446 1406
1406 1446 1447 1407
1407 1447 1448 1408
1408 1448 1449 1409
1409 1449 1450 1410
1410 1450 1451 1411
1411 1451 1452 1412
1412 1452 1453 1413
1413 1453 1454 1414
1414 1454 1455 1415
1415 1455 1456 1416
1416 1456 1457 1417
1417 1457 1458 1418
1418 1458 1459 1419
1419 1459 1460 1420
1420 1460 1461 1421
1421 1461 1462 1422
1422 1462 1463 1423
1423 1463 1464 1424
1424 1464 1465 1425
1425 1465 1466 1426
1426 1466 1467 1427
1427 1467 1468 1428
1428 1468 1469 1429
1429 1469 1470 1430
1430 1470 1471 1431
1431 1471 1472 1432
1432 1472 1473 1433
1433 1473 1474 1434
1434 1474 1475 1435
1435 1475 1476 1436
1436 1476 1477 1437
1437 1477 113 112
36 37 1478 1438
1438 1478 1479 1439
1439 1479 1480 1440
1440 1480 1481 1441
1441 1481 1482 1442
1442 1482 1483 1443
1443 1483 1484 1444
1444 1484 1485 1445
1445 1485 1486 1446
1446 1486 1487 1447
1447 1487 1488 1448
1448 1488 1489 1449
1449 1489 1490 1450
1450 1490 1491 1451
1451 1491 1492 1452
1452 1492 1493 1453
1453 1493 1494 1454
1454 1494 1495 1455
1455 1495 1496 1456
1456 1496 1497 1457
1457 1497 1498 1458
1458 1498 1499 1459
1459 1499 1500 1460
1460 1500 1501 1461
1461 1501 1502 1462
1462 1502 1503 1463
1463 1503 1504 1464
1464 1504 1505 1465
1465 1505 1506 1466
1466 1506 1507 1467
1467 1507 1508 1468
1468 1508 1509 1469
1469 1509 1510 1470
1470 1510 1511 1471
1471 1511 1512 1472
1472 1512 1513 1473
1473 1513 1514 1474
1474 1514 1515 1475
1475 1515 1516 1476
1476 1516 1517 1477
1477 1517 114 113
37 38 1518 1478
1478 1518 1519 1479
1479 1519 1520 1480
1480 1520 1521 1481
1481 1521 1522 1482
1482 1522 1523 1483
1483 1523 1524 1484
1484 1524 1525 1485
1485 1525 1526 1486
1486 1526 1527 1487
1487 1527 1528 1488
1488 1528 1529 1489
1489 1529 1530 1490
1490 1530 1531 1491
1491 1531 1532 1492
1492 1532 1533 1493
1493 1533 1534 1494
1494 1534 1535 1495
1495 1535 1536 1496
1496 1536 1537 1497
1497 1537 1538 1498
1498 1538 1539 1499
1499 1539 1540 1500
1500 1540 1541 1501
1501 1541 1542 1502
1502 1542 1543 1503
1503 1543 1544 1504
1504 1544 1545 1505
1505 1545 1546 1506
1506 1546 1547 1507
1507 1547 1548 1508
1508 1548 1549 1509
1509 1549 1550 1510
1510 1550 1551 1511
1511 1551 1552 1512
1512 1552 1553 1513
1513 1553 1554 1514
1514 1554 1555 1515
1515 1555 1556 1516
1516 1556 1557 1517
1517 1557 115 114
38 39 1558 1518
1518 1558 1559 1519
1519 1559 1560 1520
1520 1560 1561 1521
1521 1561 1562 1522
1522 1562 1563 1523
1523 1563 1564 1524
1524 1564 1565 1525
1525 1565 1566 1526
1526 1566 1567 1527
1527 1567 1568 1528
1528 1568 1569 1529
1529 1569 1570 1530
1530 1570 1571 1531
1531 1571 1572 1532
1532 1572 1573 1533
1533 1573 1574 1534
1534 1574 1575 1535
1535 1575 1576 1536
1536 1576 1577 1537
1537 1577 1578 1538
1538 1578 1579 1539
1539 1579 1580 1540
1540 1580 1581 1541
1541 1581 1582 1542
1542 1582 1583 1543
1543 1583 1584 1544
1544 1584 1585 1545
1545 1585 1586 1546
1546 1586 1587 1547
1547 1587 1588 1548
1548 1588 1589 1549
1549 1589 1590 1550
1550 1590 1591 1551
1551 1591 1592 1552
1552 1592 1593 1553
1553 1593 1594 1554
1554 1594 1595 1555
1555 1595 1596 1556
1556 1596 1597 1557
1557 1597 116 115
39 40 1598 1558
1558 1598 1599 1559
1559 1599 1600 1560
1560 1600 1601 1561
1561 1601 1602 1562
1562 1602 1603 1563
1563 1603 1604 1564
1564 1604 1605 1565
1565 1605 1606 1566
1566 1606 1607 1567
1567 1607 1608 1568
1568 1608 1609 1569
1569 1609 1610 1570
1570 1610 1611 1571
1571 1611 1612 1572
1572 1612 1613 1573
1573 1613 1614 1574
1574 1614 1615 1575
1575 1615 1616 1576
1576 1616 1617 1577
1577 1617 1618 1578
1578 1618 1619 1579
1579 1619 1620 1580
1580 1620 1621 1581
1581 1621 1622 1582
1582 1622 1623 1583
1583 1623 1624 1584
1584 1624 1625 1585
1585 1625 1626 1586
1586 1626 1627 1587
1587 1627 1628 1588
1588 1628 1629 1589
1589 1629 1630 1590
1590 1630 1631 1591
1591 1631 1632 1592
1592 1632 1633 1593
1593 1633 1634 1594
1594 1634 1635 1595
1595 1635 1636 1596
1596 1636 1637 1597
1597 1637 117 116
40 41 1638 1598
1598 1638 1639 1599
1599 1639 1640 1600
1600 1640 1641 1601
1601 1641 1642 1602
1602 1642 1643 1603
1603 1643 1644 1604
1604 1644 1645 1605
1605 1645 1646 1606
1606 1646 1647 1607
1607 1647 1648 1608
1608 1648 1649 1609
1609 1649 1650 1610
1610 1650 1651 1611
1611 1651 1652 1612
1612 1652 1653 1613
1613 1653 1654 1614
1614 1654 1655 1615
1615 1655 1656 1616
1616 1656 1657 1617
1617 1657 1658 1618
1618 1658 1659 1619
1619 1659 1660 1620
1620 1660 1661 1621
1621 1661 1662 1622
1622 1662 1663 1623
1623 1663 1664 1624
1624 1664 1665 1625
1625 1665 1666 1626
1626 1666 1667 1627
1627 1667 1668 1628
1628 1668 1669 1629
1629 1669 1670 1630
1630 1670 1671 1631
1631 1671 1672 1632
1632 1672 1673 1633
1633 1673 1674 1634
1634 1674 1675 1635
1635 1675 1676 1636
1636 1676 1677 1637
1637 1677 118 117
41 42 1678 1638
1638 1678 1679 1639
1639 1679 1680 1640
1640 1680 1681 1641
1641 1681 1682 1642
1642 1682 1683 1643
1643 1683 1684 1644
1644 1684 1685 1645
1645 1685 1686 1646
1646 1686 1687 1647
1647 1687 1688 1648
1648 1688 1689 1649
1649 1689 1690 1650
1650 1690 1691 1651
1651 1691 1692 1652
1652 1692 1693 1653
1653 1693 1694 1654
1654 1694 1695 1655
1655 1695 1696 1656
1656 1696 1697 1657
1657 1697 1698 1658
1658 1698 1699 1659
1659 1699 1700 1660
1660 1700 1701 1661
1661 1701 1702 1662
1662 1702 1703 1663
1663 1703 1704 1664
1664 1704 1705 1665
1665 1705 1706 1666
1666 1706 1707 1667
1667 1707 1708 1668
1668 1708 1709 1669
1669 1709 1710 1670
1670 1710 1711 1671
1671 1711 1712 1672
1672 1712 1713 1673
1673 1713 1714 1674
1674 1714 1715 1675
1675 1715 1716 1676
1676 1716 1717 1677
1677 1717 119 118
42 43 1718 1678
1678 1718 1719 1679
1679 1719 1720 1680
1680 1720 1721 1681
1681 1721 1722 1682
1682 1722 1723 1683
1683 1723 1724 1684
1684 1724 1725 1685
1685 1725 1726 1686
1686 1726 1727 1687
1687 1727 1728 1688
1688 1728 1729 1689
1689 1729 1730 1690
1690 1730 1731 1691
1691 1731 1732 1692
1692 1732 1733 1693
1693 1733 1734 1694
1694 1734 1735 1695
1695 1735 1736 1696
1696 1736 1737 1697
1697 1737 1738 1698
1698 1738 1739 1699
1699 1739 1740 1700
1700 1740 1741 1701
1701 1741 1742 1702
1702 1742 1743 1703
1703 1743 1744 1704
1704 1744 1745 1705
1705 1745 1746 1706
1706 1746 1747 1707
1707 1747 1748 1708
1708 1748 1749 1709
1709 1749 1750 1710
1710 1750 1751 1711
1711 1751 1752 1712
1712 1752 1753 1713
1713 1753 1754 1714
1714 1754 1755 1715
1715 1755 1756 1716
1716 1756 1757 1717
1717 1757 120 119
43 44 1758 1718
1718 1758 1759 1719
1719 1759 1760 1720
1720 1760 1761 1721
1721 1761 1762 1722
1722 1762 1763 1723
1723 1763 1764 1724
1724 1764 1765 1725
1725 1765 1766 1726
1726 1766 1767 1727
1727 1767 1768 1728
1728 1768 1769 1729
1729 1769 1770 1730
1730 1770 1771 1731
1731 1771 1772 1732
1732 1772 1773 1733
1733 1773 1774 1734
1734 1774 1775 1735
1735 1775 1776 1736
1736 1776 1777 1737
1737 1777 1778 1738
1738 1778 1779 1739
1739 1779 1780 1740
1740 1780 1781 1741
1741 1781 1782 1742
1742 1782 1783 1743
1743 1783 1784 1744
1744 1784 1785 1745
1745 1785 1786 1746
1746 1786 1787 1747
1747 1787 1788 1748
1748 1788 1789 1749
1749 1789 1790 1750
1750 1790 1791 1751
1751 1791 1792 1752
1752 1792 1793 1753
1753 1793 1794 1754
1754 1794 1795 1755
1755 1795 1796 1756
1756 1796 1797 1757
1757 1797 121 120
44 45 1798 1758
1758 1798 1799 1759
1759 1799 1800 1760
1760 1800 1801 1761
1761 1801 1802 1762
1762 1802 1803 1763
1763 1803 1804 1764
1764 1804 1805 1765
1765 1805 1806 1766
1766 1806 1807 1767
1767 1807 1808 1768
1768 1808 1809 1769
1769 1809 1810 1770
1770 1810 1811 1771
1771 1811 1812 1772
1772 1812 1813 1773
1773 1813 1814 1774
1774 1814 1815 1775
1775 1815 1816 1776
1776 1816 1817 1777
1777 1817 1818 1778
1778 1818 1819 1779
1779 1819 1820 1780
1780 1820 1821 1781
1781 1821 1822 1782
1782 1822 1823 1783
1783 1823 1824 1784
1784 1824 1825 1785
1785 1825 1826 1786
1786 1826 1827 1787
1787 1827 1828 1788
1788 1828 1829 1789
1789 1829 1830 1790
1790 1830 1831 1791
1791 1831 1832 1792
1792 1832 1833 1793
1793 1833 1834 1794
1794 1834 1835 1795
1795 1835 1836 1796
1796 1836 1837 1797
1797 1837 122 121
45 46 1838 1798
1798 1838 1839 1799
1799 1839 1840 1800
1800 1840 1841 1801
1801 1841 1842 1802
1802 1842 1843 1803
1803 1843 1844 1804
1804 1844 1845 1805
1805 1845 1846 1806
1806 1846 1847 1807
1807 1847 1848 1808
1808 1848 1849 1809
1809 1849 1850 1810
1810 1850 1851 1811
1811 1851 1852 1812
1812 1852 1853 1813
1813 1853 1854 1814
1814 1854 1855 1815
1815 1855 1856 1816
1816 1856 1857 1817
1817 1857 1858 1818
1818 1858 1859 1819
1819 1859 1860 1820
1820 1860 1861 1821
1821 1861 1862 1822
1822 1862 1863 1823
1823 1863 1864 1824
1824 1864 1865 1825
1825 1865 1866 1826
1826 1866 1867 1827
1827 1867 1868 1828
1828 1868 1869 1829
1829 1869 1870 1830
1830 1870 1871 1831
1831 1871 1872 1832
1832 1872 1873 1833
1833 1873 1874 1834
1834 1874 1875 1835
1835 1875 1876 1836
1836 1876 1877 1837
1837 1877 123 122
46 47 1878 1838
1838 1878 1879 1839
1839 1879 1880 1840
1840 1880 1881 1841
1841 1881 1882 1842
1842 1882 1883 1843
1843 1883 1884 1844
1844 1884 1885 1845
1845 1885 1886 1846
1846 1886 1887 1847
1847 1887 1888 1848
1848 1888 1889 1849
1849 1889 1890 1850
1850 1890 1891 1851
1851 1891 1892 1852
1852 1892 1893 1853
1853 1893 1894 1854
1854 1894 1895 1855
1855 1895 1896 1856
1856 1896 1897 1857
1857 1897 1898 1858
1858 1898 1899 1859
1859 1899 1900 1860
1860 1900 1901 1861
1861 1901 1902 1862
1862 1902 1903 1863
1863 1903 1904 1864
1864 1904 1905 1865
1865 1905 1906 1866
1866 1906 1907 1867
1867 1907 1908 1868
1868 1908 1909 1869
1869 1909 1910 1870
1870 1910 1911 1871
1871 1911 1912 1872
1872 1912 1913 1873
1873 1913 1914 1874
1874 1914 1915 1875
1875 1915 1916 1876
1876 1916 1917 1877
1877 1917 124 123
47 48 1918 1878
1878 1918 1919 1879
1879 1919 1920 1880
1880 1920 1921 1881
1881 1921 1922 1882
1882 1922 1923 1883
1883 1923 1924 1884
1884 1924 1925 1885
1885 1925 1926 1886
1886 1926 1927 1887
1887 1927 1928 1888
1888 1928 1929 1889
1889 1929 1930 1890
1890 1930 1931 1891
1891 1931 1932 1892
1892 1932 1933 1893
1893 1933 1934 1894
1894 1934 1935 1895
1895 1935 1936 1896
1896 1936 1937 1897
1897 1937 1938 1898
1898 1938 1939 1899
1899 1939 1940 1900
1900 1940 1941 1901
1901 1941 1942 1902
1902 1942 1943 1903
1903 1943 1944 1904
1904 1944 1945 1905
1905 1945 1946 1906
1906 1946 1947 1907
1907 1947 1948 1908
1908 1948 1949 1909
1909 1949 1950 1910
1910 1950 1951 1911
1911 1951 1952 1912
1912 1952 1953 1913
1913 1953 1954 1914
1914 1954 1955 1915
1915 1955 1956 1916
1916 1956 1957 1917
1917 1957 125 124
48 49 1958 1918
1918 1958 1959 1919
1919 1959 1960 1920
1920 1960 1961 1921
1921 1961 1962 1922
1922 1962 1963 1923
1923 1963 1964 1924
1924 1964 1965 1925
1925 1965 1966 1926
1926 1966 1967 1927
1927 1967 1968 1928
1928 1968 1969 1929
1929 1969 1970 1930
1930 1970 1971 1931
1931 1971 1972 1932
1932 1972 1973 1933
1933 1973 1974 1934
1934 1974 1975 1935
1935 1975 1976 1936
1936 1976 1977 1937
1937 1977 1978 1938
1938 1978 1979 1939
1939 1979 1980 1940
1940 1980 1981 1941
1941 1981 1982 1942
1942 1982 1983 1943
1943 1983 1984 1944
1944 1984 1985 1945
1945 1985 1986 1946
1946 1986 1987 1947
1947 1987 1988 1948
1948 1988 1989 1949
1949 1989 1990 1950
1950 1990 1991 1951
1951 1991 1992 1952
1952 1992 1993 1953
1953 1993 1994 1954
1954 1994 1995 1955
1955 1995 1996 1956
1956 1996 1997 1957
1957 1997 126 125
49 1 1998 1958
1958 1998 1999 1959
1959 1999 2000 1960
1960 2000 2001 1961
1961 2001 2002 1962
1962 2002 2003 1963
1963 2003 2004 1964
1964 2004 2005 1965
1965 2005 2006 1966
1966 2006 2007 1967
1967 2007 2008 1968
1968 2008 2009 1969
1969 2009 2010 1970
1970 2010 2011 1971
1971 2011 2012 1972
1972 2012 2013 1973
1973 2013 2014 1974
1974 2014 2015 1975
1975 2015 2016 1976
1976 2016 2017 1977
1977 2017 2018 1978
1978 2018 2019 1979
1979 2019 2020 1980
1980 2020 2021 1981
1981 2021 2022 1982
1982 2022 2023 1983
1983 2023 2024 1984
1984 2024 2025 1985
1985 2025 2026 1986
1986 2026 2027 1987
1987 2027 2028 1988
1988 2028 2029 1989
1989 2029 2030 1990
1990 2030 2031 1991
1991 2031 2032 1992
1992 2032 2033 1993
1993 2033 2034 1994
1994 2034 2035 1995
1995 2035 2036 1996
1996 2036 2037 1997
1997 2037 127 126
1 50 2038 1998
1998 2038 2039 1999
1999 2039 2040 2000
2000 2040 2041 2001
2001 2041 2042 2002
2002 2042 2043 2003
2003 2043 2044 2004
2004 2044 2045 2005
2005 2045 2046 2006
2006 2046 2047 2007
2007 2047 2048 2008
2008 2048 2049 2009
2009 2049 2050 2010
2010 2050 2051 2011
2011 2051 2052 2012
2012 2052 2053 2013
2013 2053 2054 2014
2014 2054 2055 2015
2015 2055 2056 2016
2016 2056 2057 2017
2017 2057 2058 2018
2018 2058 2059 2019
2019 2059 2060 2020
2020 2060 2061 2021
2021 2061 2062 2022
2022 2062 2063 2023
2023 2063 2064 2024
2024 2064 2065 2025
2025 2065 2066 2026
2026 2066 2067 2027
2027 2067 2068 2028
2028 2068 2069 2029
2029 2069 2070 2030
2030 2070 2071 2031
2031 2071 2072 2032
2032 2072 2073 2033
2033 2073 2074 2034
2034 2074 2075 2035
2035 2075 2076 2036
2036 2076 2077 2037
2037 2077 128 127
50 51 2078 2038
2038 2078 2079 2039
2039 2079 2080 2040
2040 2080 2081 2041
2041 2081 2082 2042
2042 2082 2083 2043
2043 2083 2084 2044
2044 2084 2085 2045
2045 2085 2086 2046
2046 2086 2087 2047
2047 2087 2088 2048
2048 2088 2089 2049
2049 2089 2090 2050
2050 2090 2091 2051
2051 2091 2092 2052
2052 2092 2093 2053
2053 2093 2094 2054
2054 2094 2095 2055
2055 2095 2096 2056
2056 2096 2097 2057
2057 2097 2098 2058
2058 2098 2099 2059
2059 2099 2100 2060
2060 2100 2101 2061
2061 2101 2102 2062
2062 2102 2103 2063
2063 2103 2104 2064
2064 2104 2105 2065
2065 2105 2106 2066
2066 2106 2107 2067
2067 2107 2108 2068
2068 2108 2109 2069
2069 2109 2110 2070
2070 2110 2111 2071
2071 2111 2112 2072
2072 2112 2113 2073
2073 2113 2114 2074
2074 2114 2115 2075
2075 2115 2116 2076
2076 2116 2117 2077
2077 2117 129 128
51 52 2118 2078
2078 2118 2119 2079
2079 2119 2120 2080
2080 2120 2121 2081
2081 2121 2122 2082
2082 2122 2123 2083
2083 2123 2124 2084
2084 2124 2125 2085
2085 2125 2126 2086
2086 2126 2127 2087
2087 2127 2128 2088
2088 2128 2129 2089
2089 2129 2130 2090
2090 2130 2131 2091
2091 2131 2132 2092
2092 2132 2133 2093
2093 2133 2134 2094
2094 2134 2135 2095
2095 2135 2136 2096
2096 2136 2137 2097
2097 2137 2138 2098
2098 2138 2139 2099
2099 2139 2140 2100
2100 2140 2141 2101
2101 2141 2142 2102
2102 2142 2143 2103
2103 2143 2144 2104
2104 2144 2145 2105
2105 2145 2146 2106
2106 2146 2147 2107
2107 2147 2148 2108
2108 2148 2149 2109
2109 2149 2150 2110
2110 2150 2151 2111
2111 2151 2152 2112
2112 2152 2153 2113
2113 2153 2154 2114
2114 2154 2155 2115
2115 2155 2156 2116
2116 2156 2157 2117
2117 2157 130 129
52 53 2158 2118
2118 2158 2159 2119
2119 2159 2160 2120
2120 2160 2161 2121
2121 2161 2162 2122
2122 2162 2163 2123
2123 2163 2164 2124
2124 2164 2165 2125
2125 2165 2166 2126
2126 2166 2167 2127
2127 2167 2168 2128
2128 2168 2169 2129
2129 2169 2170 2130
2130 2170 2171 2131
2131 2171 2172 2132
2132 2172 2173 2133
2133 2173 2174 2134
2134 2174 2175 2135
2135 2175 2176 2136
2136 2176 2177 2137
2137 2177 2178 2138
2138 2178 2179 2139
2139 2179 2180 2140
2140 2180 2181 2141
2141 2181 2182 2142
2142 2182 2183 2143
2143 2183 2184 2144
2144 2184 2185 2145
2145 2185 2186 2146
2146 2186 2187 2147
2147 2187 2188 2148
2148 2188 2189 2149
2149 2189 2190 2150
2150 2190 2191 2151
2151 2191 2192 2152
2152 2192 2193 2153
2153 2193 2194 2154
2154 2194 2195 2155
2155 2195 2196 2156
2156 2196 2197 2157
2157 2197 131 130
53 54 2198 2158
2158 2198 2199 2159
2159 2199 2200 2160
2160 2200 2201 2161
2161 2201 2202 2162
2162 2202 2203 2163
2163 2203 2204 2164
2164 2204 2205 2165
2165 2205 2206 2166
2166 2206 2207 2167
2167 2207 2208 2168
2168 2208 2209 2169
2169 2209 2210 2170
2170 2210 2211 2171
2171 2211 2212 2172
2172 2212 2213 2173
2173 2213 2214 2174
2174 2214 2215 2175
2175 2215 2216 2176
2176 2216 2217 2177
2177 2217 2218 2178
2178 2218 2219 2179
2179 2219 2220 2180
2180 2220 2221 2181
2181 2221 2222 2182
2182 2222 2223 2183
2183 2223 2224 2184
2184 2224 2225 2185
2185 2225 2226 2186
2186 2226 2227 2187
2187 2227 2228 2188
2188 2228 2229 2189
2189 2229 2230 2190
2190 2230 2231 2191
2191 2231 2232 2192
2192 2232 2233 2193
2193 2233 2234 2194
2194 2234 2235 2195
2195 2235 2236 2196
2196 2236 2237 2197
2197 2237 132 131
54 55 2238 2198
2198 2238 2239 2199
2199 2239 2240 2200
2200 2240 2241 2201
2201 2241 2242 2202
2202 2242 2243 2203
2203 2243 2244 2204
2204 2244 2245 2205
2205 2245 2246 2206
2206 2246 2247 2207
2207 2247 2248 2208
2208 2248 2249 2209
2209 2249 2250 2210
2210 2250 2251 2211
2211 2251 2252 2212
2212 2252 2253 2213
2213 2253 2254 2214
2214 2254 2255 2215
2215 2255 2256 2216
2216 2256 2257 2217
2217 2257 2258 2218
2218 2258 2259 2219
2219 2259 2260 2220
2220 2260 2261 2221
2221 2261 2262 2222
2222 2262 2263 2223
2223 2263 2264 2224
2224 2264 2265 2225
2225 2265 2266 2226
2226 2266 2267 2227
2227 2267 2268 2228
2228 2268 2269 2229
2229 2269 2270 2230
2230 2270 2271 2231
2231 2271 2272 2232
2232 2272 2273 2233
2233 2273 2274 2234
2234 2274 2275 2235
2235 2275 2276 2236
2236 2276 2277 2237
2237 2277 133 132
55 56 2278 2238
2238 2278 2279 2239
2239 2279 2280 2240
2240 2280 2281 2241
2241 2281 2282 2242
2242 2282 2283 2243
2243 2283 2284 2244
2244 2284 2285 2245
2245 2285 2286 2246
2246 2286 2287 2247
2247 2287 2288 2248
2248 2288 2289 2249
2249 2289 2290 2250
2250 2290 2291 2251
2251 2291 2292 2252
2252 2292 2293 2253
2253 2293 2294 2254
2254 2294 2295 2255
2255 2295 2296 2256
2256 2296 2297 2257
2257 2297 2298 2258
2258 2298 2299 2259
2259 2299 2300 2260
2260 2300 2301 2261
2261 2301 2302 2262
2262 2302 2303 2263
2263 2303 2304 2264
2264 2304 2305 2265
2265 2305 2306 2266
2266 2306 2307 2267
2267 2307 2308 2268
2268 2308 2309 2269
2269 2309 2310 2270
2270 2310 2311 2271
2271 2311 2312 2272
2272 2312 2313 2273
2273 2313 2314 2274
2274 2314 2315 2275
2275 2315 2316 2276
2276 2316 2317 2277
2277 2317 134 133
56 57 2318 2278
2278 2318 2319 2279
2279 2319 2320 2280
2280 2320 2321 2281
2281 2321 2322 2282
2282 2322 2323 2283
2283 2323 2324 2284
2284 2324 2325 2285
2285 2325 2326 2286
2286 2326 2327 2287
2287 2327 2328 2288
2288 2328 2329 2289
2289 2329 2330 2290
2290 2330 2331 2291
2291 2331 2332 2292
2292 2332 2333 2293
2293 2333 2334 2294
2294 2334 2335 2295
2295 2335 2336 2296
2296 2336 2337 2297
2297 2337 2338 2298
2298 2338 2339 2299
2299 2339 2340 2300
2300 2340 2341 2301
2301 2341 2342 2302
2302 2342 2343 2303
2303 2343 2344 2304
2304 2344 2345 2305
2305 2345 2346 2306
2306 2346 2347 2307
2307 2347 2348 2308
2308 2348 2349 2309
2309 2349 2350 2310
2310 2350 2351 2311
2311 2351 2352 2312
2312 2352 2353 2313
2313 2353 2354 2314
2314 2354 2355 2315
2315 2355 2356 2316
2316 2356 2357 2317
2317 2357 135 134
57 58 2358 2318
2318 2358 2359 2319
2319 2359 2360 2320
2320 2360 2361 2321
2321 2361 2362 2322
2322 2362 2363 2323
2323 2363 2364 2324
2324 2364 2365 2325
2325 2365 2366 2326
2326 2366 2367 2327
2327 2367 2368 2328
2328 2368 2369 2329
2329 2369 2370 2330
2330 2370 2371 2331
2331 2371 2372 2332
2332 2372 2373 2333
2333 2373 2374 2334
2334 2374 2375 2335
2335 2375 2376 2336
2336 2376 2377 2337
2337 2377 2378 2338
2338 2378 2379 2339
2339 2379 2380 2340
2340 2380 2381 2341
2341 2381 2382 2342
2342 2382 2383 2343
2343 2383 2384 2344
2344 2384 2385 2345
2345 2385 2386 2346
2346 2386 2387 2347
2347 2387 2388 2348
2348 2388 2389 2349
2349 2389 2390 2350
2350 2390 2391 2351
2351 2391 2392 2352
2352 2392 2393 2353
2353 2393 2394 2354
2354 2394 2395 2355
2355 2395 2396 2356
2356 2396 2397 2357
2357 2397 136 135
58 59 2398 2358
2358 2398 2399 2359
2359 2399 2400 2360
2360 2400 2401 2361
2361 2401 2402 2362
2362 2402 2403 2363
2363 2403 2404 2364
2364 2404 2405 2365
2365 2405 2406 2366
2366 2406 2407 2367
2367 2407 2408 2368
2368 2408 2409 2369
2369 2409 2410 2370
2370 2410 2411 2371
2371 2411 2412 2372
2372 2412 2413 2373
2373 2413 2414 2374
2374 2414 2415 2375
2375 2415 2416 2376
2376 2416 2417 2377
2377 2417 2418 2378
2378 2418 2419 2379
2379 2419 2420 2380
2380 2420 2421 2381
2381 2421 2422 2382
2382 2422 2423 2383
2383 2423 2424 2384
2384 2424 2425 2385
2385 2425 2426 2386
2386 2426 2427 2387
2387 2427 2428 2388
2388 2428 2429 2389
2389 2429 2430 2390
2390 2430 2431 2391
2391 2431 2432 2392
2392 2432 2433 2393
2393 2433 2434 2394
2394 2434 2435 2395
2395 2435 2436 2396
2396 2436 2437 2397
2397 2437 137 136
59 60 2438 2398
2398 2438 2439 2399
2399 2439 2440 2400
2400 2440 2441 2401
2401 2441 2442 2402
2402 2442 2443 2403
2403 2443 2444 2404
2404 2444 2445 2405
2405 2445 2446 2406
2406 2446 2447 2407
2407 2447 2448 2408
2408 2448 2449 2409
2409 2449 2450 2410
2410 2450 2451 2411
2411 2451 2452 2412
2412 2452 2453 2413
2413 2453 2454 2414
2414 2454 2455 2415
2415 2455 2456 2416
2416 2456 2457 2417
2417 2457 2458 2418
2418 2458 2459 2419
2419 2459 2460 2420
2420 2460 2461 2421
2421 2461 2462 2422
2422 2462 2463 2423
2423 2463 2464 2424
2424 2464 2465 2425
2425 2465 2466 2426
2426 2466 2467 2427
2427 2467 2468 2428
2428 2468 2469 2429
2429 2469 2470 2430
2430 2470 2471 2431
2431 2471 2472 2432
2432 2472 2473 2433
2433 2473 2474 2434
2434 2474 2475 2435
2435 2475 2476 2436
2436 2476 2477 2437
2437 2477 138 137
60 61 2478 2438
2438 2478 2479 2439
2439 2479 2480 2440
2440 2480 2481 2441
2441 2481 2482 2442
2442 2482 2483 2443
2443 2483 2484 2444
2444 2484 2485 2445
2445 2485 2486 2446
2446 2486 2487 2447
2447 2487 2488 2448
2448 2488 2489 2449
2449 2489 2490 2450
2450 2490 2491 2451
2451 2491 2492 2452
2452 2492 2493 2453
2453 2493 2494 2454
2454 2494 2495 2455
2455 2495 2496 2456
2456 2496 2497 2457
2457 2497 2498 2458
2458 2498 2499 2459
2459 2499 2500 2460
2460 2500 2501 2461
2461 2501 2502 2462
2462 2502 2503 2463
2463 2503 2504 2464
2464 2504 2505 2465
2465 2505 2506 2466
2466 2506 2507 2467
2467 2507 2508 2468
2468 2508 2509 2469
2469 2509 2510 2470
2470 2510 2511 2471
2471 2511 2512 2472
2472 2512 2513 2473
2473 2513 2514 2474
2474 2514 2515 2475
2475 2515 2516 2476
2476 2516 2517 2477
2477 2517 139 138
61 62 2518 2478
2478 2518 2519 2479
2479 2519 2520 2480
2480 2520 2521 2481
2481 2521 2522 2482
2482 2522 2523 2483
2483 2523 2524 2484
2484 2524 2525 2485
2485 2525 2526 2486
2486 2526 2527 2487
2487 2527 2528 2488
2488 2528 2529 2489
2489 2529 2530 2490
2490 2530 2531 2491
2491 2531 2532 2492
2492 2532 2533 2493
2493 2533 2534 2494
2494 2534 2535 2495
2495 2535 2536 2496
2496 2536 2537 2497
2497 2537 2538 2498
2498 2538 2539 2499
2499 2539 2540 2500
2500 2540 2541 2501
2501 2541 2542 2502
2502 2542 2543 2503
2503 2543 2544 2504
2504 2544 2545 2505
2505 2545 2546 2506
2506 2546 2547 2507
2507 2547 2548 2508
2508 2548 2549 2509
2509 2549 2550 2510
2510 2550 2551 2511
2511 2551 2552 2512
2512 2552 2553 2513
2513 2553 2554 2514
2514 2554 2555 2515
2515 2555 2556 2516
2516 2556 2557 2517
2517 2557 140 139
62 63 2558 2518
2518 2558 2559 2519
2519 2559 2560 2520
2520 2560 2561 2521
2521 2561 2562 2522
2522 2562 2563 2523
2523 2563 2564 2524
2524 2564 2565 2525
2525 2565 2566 2526
2526 2566 2567 2527
2527 2567 2568 2528
2528 2568 2569 2529
2529 2569 2570 2530
2530 2570 2571 2531
2531 2571 2572 2532
2532 2572 2573 2533
2533 2573 2574 2534
2534 2574 2575 2535
2535 2575 2576 2536
2536 2576 2577 2537
2537 2577 2578 2538
2538 2578 2579 2539
2539 2579 2580 2540
2540 2580 2581 2541
2541 2581 2582 2542
2542 2582 2583 2543
2543 2583 2584 2544
2544 2584 2585 2545
2545 2585 2586 2546
2546 2586 2587 2547
2547 2587 2588 2548
2548 2588 2589 2549
2549 2589 2590 2550
2550 2590 2591 2551
2551 2591 2592 2552
2552 2592 2593 2553
2553 2593 2594 2554
2554 2594 2595 2555
2555 2595 2596 2556
2556 2596 2597 2557
2557 2597 141 140
63 64 2598 2558
2558 2598 2599 2559
2559 2599 2600 2560
2560 2600 2601 2561
2561 2601 2602 2562
2562 2602 2603 2563
2563 2603 2604 2564
2564 2604 2605 2565
2565 2605 2606 2566
2566 2606 2607 2567
2567 2607 2608 2568
2568 2608 2609 2569
2569 2609 2610 2570
2570 2610 2611 2571
2571 2611 2612 2572
2572 2612 2613 2573
2573 2613 2614 2574
2574 2614 2615 2575
2575 2615 2616 2576
2576 2616 2617 2577
2577 2617 2618 2578
2578 2618 2619 2579
2579 2619 2620 2580
2580 2620 2621 2581
2581 2621 2622 2582
2582 2622 2623 2583
2583 2623 2624 2584
2584 2624 2625 2585
2585 2625 2626 2586
2586 2626 2627 2587
2587 2627 2628 2588
2588 2628 2629 2589
2589 2629 2630 2590
2590 2630 2631 2591
2591 2631 2632 2592
2592 2632 2633 2593
2593 2633 2634 2594
2594 2634 2635 2595
2595 2635 2636 2596
2596 2636 2637 2597
2597 2637 142 141
64 65 2638 2598
2598 2638 2639 2599
2599 2639 2640 2600
2600 2640 2641 2601
2601 2641 2642 2602
2602 2642 2643 2603
2603 2643 2644 2604
2604 2644 2645 2605
2605 2645 2646 2606
2606 2646 2647 2607
2607 2647 2648 2608
2608 2648 2649 2609
2609 2649 2650 2610
2610 2650 2651 2611
2611 2651 2652 2612
2612 2652 2653 2613
2613 2653 2654 2614
2614 2654 2655 2615
2615 2655 2656 2616
2616 2656 2657 2617
2617 2657 2658 2618
2618 2658 2659 2619
2619 2659 2660 2620
2620 2660 2661 2621
2621 2661 2662 2622
2622 2662 2663 2623
2623 2663 2664 2624
2624 2664 2665 2625
2625 2665 2666 2626
2626 2666 2667 2627
2627 2667 2668 2628
2628 2668 2669 2629
2629 2669 2670 2630
2630 2670 2671 2631
2631 2671 2672 2632
2632 2672 2673 2633
2633 2673 2674 2634
2634 2674 2675 2635
2635 2675 2676 2636
2636 2676 2677 2637
2637 2677 143 142
65 66 2678 2638
2638 2678 2679 2639
2639 2679 2680 2640
2640 2680 2681 2641
2641 2681 2682 2642
2642 2682 2683 2643
2643 2683 2684 2644
2644 2684 2685 2645
2645 2685 2686 2646
2646 2686 2687 2647
2647 2687 2688 2648
2648 2688 2689 2649
2649 2689 2690 2650
2650 2690 2691 2651
2651 2691 2692 2652
2652 2692 2693 2653
2653 2693 2694 2654
2654 2694 2695 2655
2655 2695 2696 2656
2656 2696 2697 2657
2657 2697 2698 2658
2658 2698 2699 2659
2659 2699 2700 2660
2660 2700 2701 2661
2661 2701 2702 2662
2662 2702 2703 2663
2663 2703 2704 2664
2664 2704 2705 2665
2665 2705 2706 2666
2666 2706 2707 2667
2667 2707 2708 2668
2668 2708 2709 2669
2669 2709 2710 2670
2670 2710 2711 2671
2671 2711 2712 2672
2672 2712 2713 2673
2673 2713 2714 2674
2674 2714 2715 2675
2675 2715 2716 2676
2676 2716 2717 2677
2677 2717 144 143
66 67 2718 2678
2678 2718 2719 2679
2679 2719 2720 2680
2680 2720 2721 2681
2681 2721 2722 2682
2682 2722 2723 2683
2683 2723 2724 2684
2684 2724 2725 2685
2685 2725 2726 2686
2686 2726 2727 2687
2687 2727 2728 2688
2688 2728 2729 2689
2689 2729 2730 2690
2690 2730 2731 2691
2691 2731 2732 2692
2692 2732 2733 2693
2693 2733 2734 2694
2694 2734 2735 2695
2695 2735 2736 2696
2696 2736 2737 2697
2697 2737 2738 2698
2698 2738 2739 2699
2699 2739 2740 2700
2700 2740 2741 2701
2701 2741 2742 2702
2702 2742 2743 2703
2703 2743 2744 2704
2704 2744 2745 2705
2705 2745 2746 2706
2706 2746 2747 2707
2707 2747 2748 2708
2708 2748 2749 2709
2709 2749 2750 2710
2710 2750 2751 2711
2711 2751 2752 2712
2712 2752 2753 2713
2713 2753 2754 2714
2714 2754 2755 2715
2715 2755 2756 2716
2716 2756 2757 2717
2717 2757 145 144
67 68 2758 2718
2718 2758 2759 2719
2719 2759 2760 2720
2720 2760 2761 2721
2721 2761 2762 2722
2722 2762 2763 2723
2723 2763 2764 2724
2724 2764 2765 2725
2725 2765 2766 2726
2726 2766 2767 2727
2727 2767 2768 2728
2728 2768 2769 2729
2729 2769 2770 2730
2730 2770 2771 2731
2731 2771 2772 2732
2732 2772 2773 2733
2733 2773 2774 2734
2734 2774 2775 2735
2735 2775 2776 2736
2736 2776 2777 2737
2737 2777 2778 2738
2738 2778 2779 2739
2739 2779 2780 2740
2740 2780 2781 2741
2741 2781 2782 2742
2742 2782 2783 2743
2743 2783 2784 2744
2744 2784 2785 2745
2745 2785 2786 2746
2746 2786 2787 2747
2747 2787 2788 2748
2748 2788 2789 2749
2749 2789 2790 2750
2750 2790 2791 2751
2751 2791 2792 2752
2752 2792 2793 2753
2753 2793 2794 2754
2754 2794 2795 2755
2755 2795 2796 2756
2756 2796 2797 2757
2757 2797 146 145
68 69 2798 2758
2758 2798 2799 2759
2759 2799 2800 2760
2760 2800 2801 2761
2761 2801 2802 2762
2762 2802 2803 2763
2763 2803 2804 2764
2764 2804 2805 2765
2765 2805 2806 2766
2766 2806 2807 2767
2767 2807 2808 2768
2768 2808 2809 2769
2769 2809 2810 2770
2770 2810 2811 2771
2771 2811 2812 2772
2772 2812 2813 2773
2773 2813 2814 2774
2774 2814 2815 2775
2775 2815 2816 2776
2776 2816 2817 2777
2777 2817 2818 2778
2778 2818 2819 2779
2779 2819 2820 2780
2780 2820 2821 2781
2781 2821 2822 2782
2782 2822 2823 2783
2783 2823 2824 2784
2784 2824 2825 2785
2785 2825 2826 2786
2786 2826 2827 2787
2787 2827 2828 2788
2788 2828 2829 2789
2789 2829 2830 2790
2790 2830 2831 2791
2791 2831 2832 2792
2792 2832 2833 2793
2793 2833 2834 2794
2794 2834 2835 2795
2795 2835 2836 2796
2796 2836 2837 2797
2797 2837 5 146
69 70 2838 2798
2798 2838 2839 2799
2799 2839 2840 2800
2800 2840 2841 2801
2801 2841 2842 2802
2802 2842 2843 2803
2803 2843 2844 2804
2804 2844 2845 2805
2805 2845 2846 2806
2806 2846 2847 2807
2807 2847 2848 2808
2808 2848 2849 2809
2809 2849 2850 2810
2810 2850 2851 2811
2811 2851 2852 2812
2812 2852 2853 2813
2813 2853 2854 2814
2814 2854 2855 2815
2815 2855 2856 2816
2816 2856 2857 2817
2817 2857 2858 2818
2818 2858 2859 2819
2819 2859 2860 2820
2820 2860 2861 2821
2821 2861 2862 2822
2822 2862 2863 2823
2823 2863 2864 2824
2824 2864 2865 2825
2825 2865 2866 2826
2826 2866 2867 2827
2827 2867 2868 2828
2828 2868 2869 2829
2829 2869 2870 2830
2830 2870 2871 2831
2831 2871 2872 2832
2832 2872 2873 2833
2833 2873 2874 2834
2834 2874 2875 2835
2835 2875 2876 2836
2836 2876 2877 2837
2837 2877 147 5
70 71 2878 2838
2838 2878 2879 2839
2839 2879 2880 2840
2840 2880 2881 2841
2841 2881 2882 2842
2842 2882 2883 2843
2843 2883 2884 2844
2844 2884 2885 2845
2845 2885 2886 2846
2846 2886 2887 2847
2847 2887 2888 2848
2848 2888 2889 2849
2849 2889 2890 2850
2850 2890 2891 2851
2851 2891 2892 2852
2852 2892 2893 2853
2853 2893 2894 2854
2854 2894 2895 2855
2855 2895 2896 2856
2856 2896 2897 2857
2857 2897 2898 2858
2858 2898 2899 2859
2859 2899 2900 2860
2860 2900 2901 2861
2861 2901 2902 2862
2862 2902 2903 2863
2863 2903 2904 2864
2864 2904 2905 2865
2865 2905 2906 2866
2866 2906 2907 2867
2867 2907 2908 2868
2868 2908 2909 2869
2869 2909 2910 2870
2870 2910 2911 2871
2871 2911 2912 2872
2872 2912 2913 2873
2873 2913 2914 2874
2874 2914 2915 2875
2875 2915 2916 2876
2876 2916 2917 2877
2877 2917 148 147
71 72 2918 2878
2878 2918 2919 2879
2879 2919 2920 2880
2880 2920 2921 2881
2881 2921 2922 2882
2882 2922 2923 2883
2883 2923 2924 2884
2884 2924 2925 2885
2885 2925 2926 2886
2886 2926 2927 2887
2887 2927 2928 2888
2888 2928 2929 2889
2889 2929 2930 2890
2890 2930 2931 2891
2891 2931 2932 2892
2892 2932 2933 2893
2893 2933 2934 2894
2894 2934 2935 2895
2895 2935 2936 2896
2896 2936 2937 2897
2897 2937 2938 2898
2898 2938 2939 2899
2899 2939 2940 2900
2900 2940 2941 2901
2901 2941 2942 2902
2902 2942 2943 2903
2903 2943 2944 2904
2904 2944 2945 2905
2905 2945 2946 2906
2906 2946 2947 2907
2907 2947 2948 2908
2908 2948 2949 2909
2909 2949 2950 2910
2910 2950 2951 2911
2911 2951 2952 2912
2912 2952 2953 2913
2913 2953 2954 2914
2914 2954 2955 2915
2915 2955 2956 2916
2916 2956 2957 2917
2917 2957 149 148
72 73 2958 2918
2918 2958 2959 2919
2919 2959 2960 2920
2920 2960 2961 2921
2921 2961 2962 2922
2922 2962 2963 2923
2923 2963 2964 2924
2924 2964 2965 2925
2925 2965 2966 2926
2926 2966 2967 2927
2927 2967 2968 2928
2928 2968 2969 2929
2929 2969 2970 2930
2930 2970 2971 2931
2931 2971 2972 2932
2932 2972 2973 2933
2933 2973 2974 2934
2934 2974 2975 2935
2935 2975 2976 2936
2936 2976 2977 2937
2937 2977 2978 2938
2938 2978 2979 2939
2939 2979 2980 2940
2940 2980 2981 2941
2941 2981 2982 2942
2942 2982 2983 2943
2943 2983 2984 2944
2944 2984 2985 2945
2945 2985 2986 2946
2946 2986 2987 2947
2947 2987 2988 2948
2948 2988 2989 2949
2949 2989 2990 2950
2950 2990 2991 2951
2951 2991 2992 2952
2952 2992 2993 2953
2953 2993 2994 2954
2954 2994 2995 2955
2955 2995 2996 2956
2956 2996 2997 2957
2957 2997 150 149
73 74 2998 2958
2958 2998 2999 2959
2959 2999 3000 2960
2960 3000 3001 2961
2961 3001 3002 2962
2962 3002 3003 2963
2963 3003 3004 2964
2964 3004 3005 2965
2965 3005 3006 2966
2966 3006 3007 2967
2967 3007 3008 2968
2968 3008 3009 2969
2969 3009 3010 2970
2970 3010 3011 2971
2971 3011 3012 2972
2972 3012 3013 2973
2973 3013 3014 2974
2974 3014 3015 2975
2975 3015 3016 2976
2976 3016 3017 2977
2977 3017 3018 2978
2978 3018 3019 2979
2979 3019 3020 2980
2980 3020 3021 2981
2981 3021 3022 2982
2982 3022 3023 2983
2983 3023 3024 2984
2984 3024 3025 2985
2985 3025 3026 2986
2986 3026 3027 2987
2987 3027 3028 2988
2988 3028 3029 2989
2989 3029 3030 2990
2990 3030 3031 2991
2991 3031 3032 2992
2992 3032 3033 2993
2993 3033 3034 2994
2994 3034 3035 2995
2995 3035 3036 2996
2996 3036 3037 2997
2997 3037 151 150
74 75 3038 2998
2998 3038 3039 2999
2999 3039 3040 3000
3000 3040 3041 3001
3001 3041 3042 3002
3002 3042 3043 3003
3003 3043 3044 3004
3004 3044 3045 3005
3005 3045 3046 3006
3006 3046 3047 3007
3007 3047 3048 3008
3008 3048 3049 3009
3009 3049 3050 3010
3010 3050 3051 3011
3011 3051 3052 3012
3012 3052 3053 3013
3013 3053 3054 3014
3014 3054 3055 3015
3015 3055 3056 3016
3016 3056 3057 3017
3017 3057 3058 3018
3018 3058 3059 3019
3019 3059 3060 3020
3020 3060 3061 3021
3021 3061 3062 3022
3022 3062 3063 3023
3023 3063 3064 3024
3024 3064 3065 3025
3025 3065 3066 3026
3026 3066 3067 3027
3027 3067 3068 3028
3028 3068 3069 3029
3029 3069 3070 3030
3030 3070 3071 3031
3031 3071 3072 3032
3032 3072 3073 3033
3033 3073 3074 3034
3034 3074 3075 3035
3035 3075 3076 3036
3036 3076 3077 3037
3037 3077 152 151
75 76 3078 3038
3038 3078 3079 3039
3039 3079 3080 3040
3040 3080 3081 3041
3041 3081 3082 3042
3042 3082 3083 3043
3043 3083 3084 3044
3044 3084 3085 3045
3045 3085 3086 3046
3046 3086 3087 3047
3047 3087 3088 3048
3048 3088 3089 3049
3049 3089 3090 3050
3050 3090 3091 3051
3051 3091 3092 3052
3052 3092 3093 3053
3053 3093 3094 3054
3054 3094 3095 3055
3055 3095 3096 3056
3056 3096 3097 3057
3057 3097 3098 3058
3058 3098 3099 3059
3059 3099 3100 3060
3060 3100 3101 3061
3061 3101 3102 3062
3062 3102 3103 3063
3063 3103 3104 3064
3064 3104 3105 3065
3065 3105 3106 3066
3066 3106 3107 3067
3067 3107 3108 3068
3068 3108 3109 3069
3069 3109 3110 3070
3070 3110 3111 3071
3071 3111 3112 3072
3072 3112 3113 3073
3073 3113 3114 3074
3074 3114 3115 3075
3075 3115 3116 3076
3076 3116 3117 3077
3077 3117 153 152
76 77 3118 3078
3078 3118 3119 3079
3079 3119 3120 3080
3080 3120 3121 3081
3081 3121 3122 3082
3082 3122 3123 3083
3083 3123 3124 3084
3084 3124 3125 3085
3085 3125 3126 3086
3086 3126 3127 3087
3087 3127 3128 3088
3088 3128 3129 3089
3089 3129 3130 3090
3090 3130 3131 3091
3091 3131 3132 3092
3092 3132 3133 3093
3093 3133 3134 3094
3094 3134 3135 3095
3095 3135 3136 3096
3096 3136 3137 3097
3097 3137 3138 3098
3098 3138 3139 3099
3099 3139 3140 3100
3100 3140 3141 3101
3101 3141 3142 3102
3102 3142 3143 3103
3103 3143 3144 3104
3104 3144 3145 3105
3105 3145 3146 3106
3106 3146 3147 3107
3107 3147 3148 3108
3108 3148 3149 3109
3109 3149 3150 3110
3110 3150 3151 3111
3111 3151 3152 3112
3112 3152 3153 3113
3113 3153 3154 3114
3114 3154 3155 3115
3115 3155 3156 3116
3116 3156 3157 3117
3117 3157 154 153
77 78 3158 3118
3118 3158 3159 3119
3119 3159 3160 3120
3120 3160 3161 3121
3121 3161 3162 3122
3122 3162 3163 3123
3123 3163 3164 3124
3124 3164 3165 3125
3125 3165 3166 3126
3126 3166 3167 3127
3127 3167 3168 3128
3128 3168 3169 3129
3129 3169 3170 3130
3130 3170 3171 3131
3131 3171 3172 3132
3132 3172 3173 3133
3133 3173 3174 3134
3134 3174 3175 3135
3135 3175 3176 3136
3136 3176 3177 3137
3137 3177 3178 3138
3138 3178 3179 3139
3139 3179 3180 3140
3140 3180 3181 3141
3141 3181 3182 3142
3142 3182 3183 3143
3143 3183 3184 3144
3144 3184 3185 3145
3145 3185 3186 3146
3146 3186 3187 3147
3147 3187 3188 3148
3148 3188 3189 3149
3149 3189 3190 3150
3150 3190 3191 3151
3151 3191 3192 3152
3152 3192 3193 3153
3153 3193 3194 3154
3154 3194 3195 3155
3155 3195 3196 3156
3156 3196 3197 3157
3157 3197 155 154
78 79 3198 3158
3158 3198 3199 3159
3159 3199 3200 3160
3160 3200 3201 3161
3161 3201 3202 3162
3162 3202 3203 3163
3163 3203 3204 3164
3164 3204 3205 3165
3165 3205 3206 3166
3166 3206 3207 3167
3167 3207 3208 3168
3168 3208 3209 3169
3169 3209 3210 3170
3170 3210 3211 3171
3171 3211 3212 3172
3172 3212 3213 3173
3173 3213 3214 3174
3174 3214 3215 3175
3175 3215 3216 3176
3176 3216 3217 3177
3177 3217 3218 3178
3178 3218 3219 3179
3179 3219 3220 3180
3180 3220 3221 3181
3181 3221 3222 3182
3182 3222 3223 3183
3183 3223 3224 3184
3184 3224 3225 3185
3185 3225 3226 3186
3186 3226 3227 3187
3187 3227 3228 3188
3188 3228 3229 3189
3189 3229 3230 3190
3190 3230 3231 3191
3191 3231 3232 3192
3192 3232 3233 3193
3193 3233 3234 3194
3194 3234 3235 3195
3195 3235 3236 3196
3196 3236 3237 3197
3197 3237 156 155
79 80 3238 3198
3198 3238 3239 3199
3199 3239 3240 3200
3200 3240 3241 3201
3201 3241 3242 3202
3202 3242 3243 3203
3203 3243 3244 3204
3204 3244 3245 3205
3205 3245 3246 3206
3206 3246 3247 3207
3207 3247 3248 3208
3208 3248 3249 3209
3209 3249 3250 3210
3210 3250 3251 3211
3211 3251 3252 3212
3212 3252 3253 3213
3213 3253 3254 3214
3214 3254 3255 3215
3215 3255 3256 3216
3216 3256 3257 3217
3217 3257 3258 3218
3218 3258 3259 3219
3219 3259 3260 3220
3220 3260 3261 3221
3221 3261 3262 3222
3222 3262 3263 3223
3223 3263 3264 3224
3224 3264 3265 3225
3225 3265 3266 3226
3226 3266 3267 3227
3227 3267 3268 3228
3228 3268 3269 3229
3229 3269 3270 3230
3230 3270 3271 3231
3231 3271 3272 3232
3232 3272 3273 3233
3233 3273 3274 3234
3234 3274 3275 3235
3235 3275 3276 3236
3236 3276 3277 3237
3237 3277 157 156
80 81 3278 3238
3238 3278 3279 3239
3239 3279 3280 3240
3240 3280 3281 3241
3241 3281 3282 3242
3242 3282 3283 3243
3243 3283 3284 3244
3244 3284 3285 3245
3245 3285 3286 3246
3246 3286 3287 3247
3247 3287 3288 3248
3248 3288 3289 3249
3249 3289 3290 3250
3250 3290 3291 3251
3251 3291 3292 3252
3252 3292 3293 3253
3253 3293 3294 3254
3254 3294 3295 3255
3255 3295 3296 3256
3256 3296 3297 3257
3257 3297 3298 3258
3258 3298 3299 3259
3259 3299 3300 3260
3260 3300 3301 3261
3261 3301 3302 3262
3262 3302 3303 3263
3263 3303 3304 3264
3264 3304 3305 3265
3265 3305 3306 3266
3266 3306 3307 3267
3267 3307 3308 3268
3268 3308 3309 3269
3269 3309 3310 3270
3270 3310 3311 3271
3271 3311 3312 3272
3272 3312 3313 3273
3273 3313 3314 3274
3274 3314 3315 3275
3275 3315 3316 3276
3276 3316 3317 3277
3277 3317 158 157
81 82 3318 3278
3278 3318 3319 3279
3279 3319 3320 3280
3280 3320 3321 3281
3281 3321 3322 3282
3282 3322 3323 3283
3283 3323 3324 3284
3284 3324 3325 3285
3285 3325 3326 3286
3286 3326 3327 3287
3287 3327 3328 3288
3288 3328 3329 3289
3289 3329 3330 3290
3290 3330 3331 3291
3291 3331 3332 3292
3292 3332 3333 3293
3293 3333 3334 3294
3294 3334 3335 3295
3295 3335 3336 3296
3296 3336 3337 3297
3297 3337 3338 3298
3298 3338 3339 3299
3299 3339 3340 3300
3300 3340 3341 3301
3301 3341 3342 3302
3302 3342 3343 3303
3303 3343 3344 3304
3304 3344 3345 3305
3305 3345 3346 3306
3306 3346 3347 3307
3307 3347 3348 3308
3308 3348 3349 3309
3309 3349 3350 3310
3310 3350 3351 3311
3311 3351 3352 3312
3312 3352 3353 3313
3313 3353 3354 3314
3314 3354 3355 3315
3315 3355 3356 3316
3316 3356 3357 3317
3317 3357 159 158
82 83 3358 3318
3318 3358 3359 3319
3319 3359 3360 3320
3320 3360 3361 3321
3321 3361 3362 3322
3322 3362 3363 3323
3323 3363 3364 3324
3324 3364 3365 3325
3325 3365 3366 3326
3326 3366 3367 3327
3327 3367 3368 3328
3328 3368 3369 3329
3329 3369 3370 3330
3330 3370 3371 3331
3331 3371 3372 3332
3332 3372 3373 3333
3333 3373 3374 3334
3334 3374 3375 3335
3335 3375 3376 3336
3336 3376 3377 3337
3337 3377 3378 3338
3338 3378 3379 3339
3339 3379 3380 3340
3340 3380 3381 3341
3341 3381 3382 3342
3342 3382 3383 3343
3343 3383 3384 3344
3344 3384 3385 3345
3345 3385 3386 3346
3346 3386 3387 3347
3347 3387 3388 3348
3348 3388 3389 3349
3349 3389 3390 3350
3350 3390 3391 3351
3351 3391 3392 3352
3352 3392 3393 3353
3353 3393 3394 3354
3354 3394 3395 3355
3355 3395 3396 3356
3356 3396 3397 3357
3357 3397 160 159
83 84 3398 3358
3358 3398 3399 3359
3359 3399 3400 3360
3360 3400 3401 3361
3361 3401 3402 3362
3362 3402 3403 3363
3363 3403 3404 3364
3364 3404 3405 3365
3365 3405 3406 3366
3366 3406 3407 3367
3367 3407 3408 3368
3368 3408 3409 3369
3369 3409 3410 3370
3370 3410 3411 3371
3371 3411 3412 3372
3372 3412 3413 3373
3373 3413 3414 3374
3374 3414 3415 3375
3375 3415 3416 3376
3376 3416 3417 3377
3377 3417 3418 3378
3378 3418 3419 3379
3379 3419 3420 3380
3380 3420 3421 3381
3381 3421 3422 3382
3382 3422 3423 3383
3383 3423 3424 3384
3384 3424 3425 3385
3385 3425 3426 3386
3386 3426 3427 3387
3387 3427 3428 3388
3388 3428 3429 3389
3389 3429 3430 3390
3390 3430 3431 3391
3391 3431 3432 3392
3392 3432 3433 3393
3393 3433 3434 3394
3394 3434 3435 3395
3395 3435 3436 3396
3396 3436 3437 3397
3397 3437 161 160
84 85 3438 3398
3398 3438 3439 3399
3399 3439 3440 3400
3400 3440 3441 3401
3401 3441 3442 3402
3402 3442 3443 3403
3403 3443 3444 3404
3404 3444 3445 3405
3405 3445 3446 3406
3406 3446 3447 3407
3407 3447 3448 3408
3408 3448 3449 3409
3409 3449 3450 3410
3410 3450 3451 3411
3411 3451 3452 3412
3412 3452 3453 3413
3413 3453 3454 3414
3414 3454 3455 3415
3415 3455 3456 3416
3416 3456 3457 3417
3417 3457 3458 3418
3418 3458 3459 3419
3419 3459 3460 3420
3420 3460 3461 3421
3421 3461 3462 3422
3422 3462 3463 3423
3423 3463 3464 3424
3424 3464 3465 3425
3425 3465 3466 3426
3426 3466 3467 3427
3427 3467 3468 3428
3428 3468 3469 3429
3429 3469 3470 3430
3430 3470 3471 3431
3431 3471 3472 3432
3432 3472 3473 3433
3433 3473 3474 3434
3434 3474 3475 3435
3435 3475 3476 3436
3436 3476 3477 3437
3437 3477 162 161
85 86 3478 3438
3438 3478 3479 3439
3439 3479 3480 3440
3440 3480 3481 3441
3441 3481 3482 3442
3442 3482 3483 3443
3443 3483 3484 3444
3444 3484 3485 3445
3445 3485 3486 3446
3446 3486 3487 3447
3447 3487 3488 3448
3448 3488 3489 3449
3449 3489 3490 3450
3450 3490 3491 3451
3451 3491 3492 3452
3452 3492 3493 3453
3453 3493 3494 3454
3454 3494 3495 3455
3455 3495 3496 3456
3456 3496 3497 3457
3457 3497 3498 3458
3458 3498 3499 3459
3459 3499 3500 3460
3460 3500 3501 3461
3461 3501 3502 3462
3462 3502 3503 3463
3463 3503 3504 3464
3464 3504 3505 3465
3465 3505 3506 3466
3466 3506 3507 3467
3467 3507 3508 3468
3468 3508 3509 3469
3469 3509 3510 3470
3470 3510 3511 3471
3471 3511 3512 3472
3472 3512 3513 3473
3473 3513 3514 3474
3474 3514 3515 3475
3475 3515 3516 3476
3476 3516 3517 3477
3477 3517 163 162
86 87 3518 3478
3478 3518 3519 3479
3479 3519 3520 3480
3480 3520 3521 3481
3481 3521 3522 3482
3482 3522 3523 3483
3483 3523 3524 3484
3484 3524 3525 3485
3485 3525 3526 3486
3486 3526 3527 3487
3487 3527 3528 3488
3488 3528 3529 3489
3489 3529 3530 3490
3490 3530 3531 3491
3491 3531 3532 3492
3492 3532 3533 3493
3493 3533 3534 3494
3494 3534 3535 3495
3495 3535 3536 3496
3496 3536 3537 3497
3497 3537 3538 3498
3498 3538 3539 3499
3499 3539 3540 3500
3500 3540 3541 3501
3501 3541 3542 3502
3502 3542 3543 3503
3503 3543 3544 3504
3504 3544 3545 3505
3505 3545 3546 3506
3506 3546 3547 3507
3507 3547 3548 3508
3508 3548 3549 3509
3509 3549 3550 3510
3510 3550 3551 3511
3511 3551 3552 3512
3512 3552 3553 3513
3513 3553 3554 3514
3514 3554 3555 3515
3515 3555 3556 3516
3516 3556 3557 3517
3517 3557 164 163
87 88 3558 3518
3518 3558 3559 3519
3519 3559 3560 3520
3520 3560 3561 3521
3521 3561 3562 3522
3522 3562 3563 3523
3523 3563 3564 3524
3524 3564 3565 3525
3525 3565 3566 3526
3526 3566 3567 3527
3527 3567 3568 3528
3528 3568 3569 3529
3529 3569 3570 3530
3530 3570 3571 3531
3531 3571 3572 3532
3532 3572 3573 3533
3533 3573 3574 3534
3534 3574 3575 3535
3535 3575 3576 3536
3536 3576 3577 3537
3537 3577 3578 3538
3538 3578 3579 3539
3539 3579 3580 3540
3540 3580 3581 3541
3541 3581 3582 3542
3542 3582 3583 3543
3543 3583 3584 3544
3544 3584 3585 3545
3545 3585 3586 3546
3546 3586 3587 3547
3547 3587 3588 3548
3548 3588 3589 3549
3549 3589 3590 3550
3550 3590 3591 3551
3551 3591 3592 3552
3552 3592 3593 3553
3553 3593 3594 3554
3554 3594 3595 3555
3555 3595 3596 3556
3556 3596 3597 3557
3557 3597 165 164
88 2 322 3558
3558 322 321 3559
3559 321 320 3560
3560 320 319 3561
3561 319 318 3562
3562 318 317 3563
3563 317 316 3564
3564 316 315 3565
3565 315 314 3566
3566 314 313 3567
3567 313 312 3568
3568 312 311 3569
3569 311 310 3570
3570 310 309 3571
3571 309 308 3572
3572 308 307 3573
3573 307 306 3574
3574 306 305 3575
3575 305 304 3576
3576 304 303 3577
3577 303 302 3578
3578 302 301 3579
3579 301 300 3580
3580 300 299 3581
3581 299 298 3582
3582 298 297 3583
3583 297 296 3584
3584 296 295 3585
3585 295 294 3586
3586 294 293 3587
3587 293 292 3588
3588 292 291 3589
3589 291 290 3590
3590 290 289 3591
3591 289 288 3592
3592 288 287 3593
3593 287 286 3594
3594 286 285 3595
3595 285 284 3596
3596 284 283 3597
3597 283 6 165
4 108 3598 380
380 3598 3599 379
379 3599 3600 378
378 3600 3601 377
377 3601 3602 376
376 3602 3603 375
375 3603 3604 374
374 3604 3605 373
373 3605 3606 372
372 3606 3607 371
371 3607 3608 370
370 3608 3609 369
369 3609 3610 368
368 3610 3611 367
367 3611 3612 366
366 3612 3613 365
365 3613 3614 364
364 3614 3615 363
363 3615 3616 362
362 3616 323 9
108 109 3617 3598
3598 3617 3618 3599
3599 3618 3619 3600
3600 3619 3620 3601
3601 3620 3621 3602
3602 3621 3622 3603
3603 3622 3623 3604
3604 3623 3624 3605
3605 3624 3625 3606
3606 3625 3626 3607
3607 3626 3627 3608
3608 3627 3628 3609
3609 3628 3629 3610
3610 3629 3630 3611
3611 3630 3631 3612
3612 3631 3632 3613
3613 3632 3633 3614
3614 3633 3634 3615
3615 3634 3635 3616
3616 3635 324 323
109 110 3636 3617
3617 3636 3637 3618
3618 3637 3638 3619
3619 3638 3639 3620
3620 3639 3640 3621
3621 3640 3641 3622
3622 3641 3642 3623
3623 3642 3643 3624
3624 3643 3644 3625
3625 3644 3645 3626
3626 3645 3646 3627
3627 3646 3647 3628
3628 3647 3648 3629
3629 3648 3649 3630
3630 3649 3650 3631
3631 3650 3651 3632
3632 3651 3652 3633
3633 3652 3653 3634
3634 3653 3654 3635
3635 3654 325 324
110 111 3655 3636
3636 3655 3656 3637
3637 3656 3657 3638
3638 3657 3658 3639
3639 3658 3659 3640
3640 3659 3660 3641
3641 3660 3661 3642
3642 3661 3662 3643
3643 3662 3663 3644
3644 3663 3664 3645
3645 3664 3665 3646
3646 3665 3666 3647
3647 3666 3667 3648
3648 3667 3668 3649
3649 3668 3669 3650
3650 3669 3670 3651
3651 3670 3671 3652
3652 3671 3672 3653
3653 3672 3673 3654
3654 3673 326 325
111 112 3674 3655
3655 3674 3675 3656
3656 3675 3676 3657
3657 3676 3677 3658
3658 3677 3678 3659
3659 3678 3679 3660
3660 3679 3680 3661
3661 3680 3681 3662
3662 3681 3682 3663
3663 3682 3683 3664
3664 3683 3684 3665
3665 3684 3685 3666
3666 3685 3686 3667
3667 3686 3687 3668
3668 3687 3688 3669
3669 3688 3689 3670
3670 3689 3690 3671
3671 3690 3691 3672
3672 3691 3692 3673
3673 3692 327 326
112 113 3693 3674
3674 3693 3694 3675
3675 3694 3695 3676
3676 3695 3696 3677
3677 3696 3697 3678
3678 3697 3698 3679
3679 3698 3699 3680
3680 3699 3700 3681
3681 3700 3701 3682
3682 3701 3702 3683
3683 3702 3703 3684
3684 3703 3704 3685
3685 3704 3705 3686
3686 3705 3706 3687
3687 3706 3707 3688
3688 3707 3708 3689
3689 3708 3709 3690
3690 3709 3710 3691
3691 3710 3711 3692
3692 3711 328 327
113 114 3712 3693
3693 3712 3713 3694
3694 3713 3714 3695
3695 3714 3715 3696
3696 3715 3716 3697
3697 3716 3717 3698
3698 3717 3718 3699
3699 3718 3719 3700
3700 3719 3720 3701
3701 3720 3721 3702
3702 3721 3722 3703
3703 3722 3723 3704
3704 3723 3724 3705
3705 3724 3725 3706
3706 3725 3726 3707
3707 3726 3727 3708
3708 3727 3728 3709
3709 3728 3729 3710
3710 3729 3730 3711
3711 3730 329 328
114 115 3731 3712
3712 3731 3732 3713
3713 3732 3733 3714
3714 3733 3734 3715
3715 3734 3735 3716
3716 3735 3736 3717
3717 3736 3737 3718
3718 3737 3738 3719
3719 3738 3739 3720
3720 3739 3740 3721
3721 3740 3741 3722
3722 3741 3742 3723
3723 3742 3743 3724
3724 3743 3744 3725
3725 3744 3745 3726
3726 3745 3746 3727
3727 3746 3747 3728
3728 3747 3748 3729
3729 3748 3749 3730
3730 3749 330 329
115 116 3750 3731
3731 3750 3751 3732
3732 3751 3752 3733
3733 3752 3753 3734
3734 3753 3754 3735
3735 3754 3755 3736
3736 3755 3756 3737
3737 3756 3757 3738
3738 3757 3758 3739
3739 3758 3759 3740
3740 3759 3760 3741
3741 3760 3761 3742
3742 3761 3762 3743
3743 3762 3763 3744
3744 3763 3764 3745
3745 3764 3765 3746
3746 3765 3766 3747
3747 3766 3767 3748
3748 3767 3768 3749
3749 3768 331 330
116 117 3769 3750
3750 3769 3770 3751
3751 3770 3771 3752
3752 3771 3772 3753
3753 3772 3773 3754
3754 3773 3774 3755
3755 3774 3775 3756
3756 3775 3776 3757
3757 3776 3777 3758
3758 3777 3778 3759
3759 3778 3779 3760
3760 3779 3780 3761
3761 3780 3781 3762
3762 3781 3782 3763
3763 3782 3783 3764
3764 3783 3784 3765
3765 3784 3785 3766
3766 3785 3786 3767
3767 3786 3787 3768
3768 3787 332 331
117 118 3788 3769
3769 3788 3789 3770
3770 3789 3790 3771
3771 3790 3791 3772
3772 3791 3792 3773
3773 3792 3793 3774
3774 3793 3794 3775
3775 3794 3795 3776
3776 3795 3796 3777
3777 3796 3797 3778
3778 3797 3798 3779
3779 3798 3799 3780
3780 3799 3800 3781
3781 3800 3801 3782
3782 3801 3802 3783
3783 3802 3803 3784
3784 3803 3804 3785
3785 3804 3805 3786
3786 3805 3806 3787
3787 3806 333 332
118 119 3807 3788
3788 3807 3808 3789
3789 3808 3809 3790
3790 3809 3810 3791
3791 3810 3811 3792
3792 3811 3812 3793
3793 3812 3813 3794
3794 3813 3814 3795
3795 3814 3815 3796
3796 3815 3816 3797
3797 3816 3817 3798
3798 3817 3818 3799
3799 3818 3819 3800
3800 3819 3820 3801
3801 3820 3821 3802
3802 3821 3822 3803
3803 3822 3823 3804
3804 3823 3824 3805
3805 3824 3825 3806
3806 3825 334 333
119 120 3826 3807
3807 3826 3827 3808
3808 3827 3828 3809
3809 3828 3829 3810
3810 3829 3830 3811
3811 3830 3831 3812
3812 3831 3832 3813
3813 3832 3833 3814
3814 3833 3834 3815
3815 3834 3835 3816
3816 3835 3836 3817
3817 3836 3837 3818
3818 3837 3838 3819
3819 3838 3839 3820
3820 3839 3840 3821
3821 3840 3841 3822
3822 3841 3842 3823
3823 3842 3843 3824
3824 3843 3844 3825
3825 3844 335 334
120 121 3845 3826
3826 3845 3846 3827
3827 3846 3847 3828
3828 3847 3848 3829
3829 3848 3849 3830
3830 3849 3850 3831
3831 3850 3851 3832
3832 3851 3852 3833
3833 3852 3853 3834
3834 3853 3854 3835
3835 3854 3855 3836
3836 3855 3856 3837
3837 3856 3857 3838
3838 3857 3858 3839
3839 3858 3859 3840
3840 3859 3860 3841
3841 3860 3861 3842
3842 3861 3862 3843
3843 3862 3863 3844
3844 3863 336 335
121 122 3864 3845
3845 3864 3865 3846
3846 3865 3866 3847
3847 3866 3867 3848
3848 3867 3868 3849
3849 3868 3869 3850
3850 3869 3870 3851
3851 3870 3871 3852
3852 3871 3872 3853
3853 3872 3873 3854
3854 3873 3874 3855
3855 3874 3875 3856
3856 3875 3876 3857
3857 3876 3877 3858
3858 3877 3878 3859
3859 3878 3879 3860
3860 3879 3880 3861
3861 3880 3881 3862
3862 3881 3882 3863
3863 3882 337 336
122 123 3883 3864
3864 3883 3884 3865
3865 3884 3885 3866
3866 3885 3886 3867
3867 3886 3887 3868
3868 3887 3888 3869
3869 3888 3889 3870
3870 3889 3890 3871
3871 3890 3891 3872
3872 3891 3892 3873
3873 3892 3893 3874
3874 3893 3894 3875
3875 3894 3895 3876
3876 3895 3896 3877
3877 3896 3897 3878
3878 3897 3898 3879
3879 3898 3899 3880
3880 3899 3900 3881
3881 3900 3901 3882
3882 3901 338 337
123 124 3902 3883
3883 3902 3903 3884
3884 3903 3904 3885
3885 3904 3905 3886
3886 3905 3906 3887
3887 3906 3907 3888
3888 3907 3908 3889
3889 3908 3909 3890
3890 3909 3910 3891
3891 3910 3911 3892
3892 3911 3912 3893
3893 3912 3913 3894
3894 3913 3914 3895
3895 3914 3915 3896
3896 3915 3916 3897
3897 3916 3917 3898
3898 3917 3918 3899
3899 3918 3919 3900
3900 3919 3920 3901
3901 3920 339 338
124 125 3921 3902
3902 3921 3922 3903
3903 3922 3923 3904
3904 3923 3924 3905
3905 3924 3925 3906
3906 3925 3926 3907
3907 3926 3927 3908
3908 3927 3928 3909
3909 3928 3929 3910
3910 3929 3930 3911
3911 3930 3931 3912
3912 3931 3932 3913
3913 3932 3933 3914
3914 3933 3934 3915
3915 3934 3935 3916
3916 3935 3936 3917
3917 3936 3937 3918
3918 3937 3938 3919
3919 3938 3939 3920
3920 3939 340 339
125 126 3940 3921
3921 3940 3941 3922
3922 3941 3942 3923
3923 3942 3943 3924
3924 3943 3944 3925
3925 3944 3945 3926
3926 3945 3946 3927
3927 3946 3947 3928
3928 3947 3948 3929
3929 3948 3949 3930
3930 3949 3950 3931
3931 3950 3951 3932
3932 3951 3952 3933
3933 3952 3953 3934
3934 3953 3954 3935
3935 3954 3955 3936
3936 3955 3956 3937
3937 3956 3957 3938
3938 3957 3958 3939
3939 3958 341 340
126 127 3959 3940
3940 3959 3960 3941
3941 3960 3961 3942
3942 3961 3962 3943
3943 3962 3963 3944
3944 3963 3964 3945
3945 3964 3965 3946
3946 3965 3966 3947
3947 3966 3967 3948
3948 3967 3968 3949
3949 3968 3969 3950
3950 3969 3970 3951
3951 3970 3971 3952
3952 3971 3972 3953
3953 3972 3973 3954
3954 3973 3974 3955
3955 3974 3975 3956
3956 3975 3976 3957
3957 3976 3977 3958
3958 3977 342 341
127 128 3978 3959
3959 3978 3979 3960
3960 3979 3980 3961
3961 3980 3981 3962
3962 3981 3982 3963
3963 3982 3983 3964
3964 3983 3984 3965
3965 3984 3985 3966
3966 3985 3986 3967
3967 3986 3987 3968
3968 3987 3988 3969
3969 3988 3989 3970
3970 3989 3990 3971
3971 3990 3991 3972
3972 3991 3992 3973
3973 3992 3993 3974
3974 3993 3994 3975
3975 3994 3995 3976
3976 3995 3996 3977
3977 3996 343 342
128 129 3997 3978
3978 3997 3998 3979
3979 3998 3999 3980
3980 3999 4000 3981
3981 4000 4001 3982
3982 4001 4002 3983
3983 4002 4003 3984
3984 4003 4004 3985
3985 4004 4005 3986
3986 4005 4006 3987
3987 4006 4007 3988
3988 4007 4008 3989
3989 4008 4009 3990
3990 4009 4010 3991
3991 4010 4011 3992
3992 4011 4012 3993
3993 4012 4013 3994
3994 4013 4014 3995
3995 4014 4015 3996
3996 4015 344 343
129 130 4016 3997
3997 4016 4017 3998
3998 4017 4018 3999
3999 4018 4019 4000
4000 4019 4020 4001
4001 4020 4021 4002
4002 4021 4022 4003
4003 4022 4023 4004
4004 4023 4024 4005
4005 4024 4025 4006
4006 4025 4026 4007
4007 4026 4027 4008
4008 4027 4028 4009
4009 4028 4029 4010
4010 4029 4030 4011
4011 4030 4031 4012
4012 4031 4032 4013
4013 4032 4033 4014
4014 4033 4034 4015
4015 4034 345 344
130 131 4035 4016
4016 4035 4036 4017
4017 4036 4037 4018
4018 4037 4038 4019
4019 4038 4039 4020
4020 4039 4040 4021
4021 4040 4041 4022
4022 4041 4042 4023
4023 4042 4043 4024
4024 4043 4044 4025
4025 4044 4045 4026
4026 4045 4046 4027
4027 4046 4047 4028
4028 4047 4048 4029
4029 4048 4049 4030
4030 4049 4050 4031
4031 4050 4051 4032
4032 4051 4052 4033
4033 4052 4053 4034
4034 4053 346 345
131 132 4054 4035
4035 4054 4055 4036
4036 4055 4056 4037
4037 4056 4057 4038
4038 4057 4058 4039
4039 4058 4059 4040
4040 4059 4060 4041
4041 4060 4061 4042
4042 4061 4062 4043
4043 4062 4063 4044
4044 4063 4064 4045
4045 4064 4065 4046
4046 4065 4066 4047
4047 4066 4067 4048
4048 4067 4068 4049
4049 4068 4069 4050
4050 4069 4070 4051
4051 4070 4071 4052
4052 4071 4072 4053
4053 4072 347 346
132 133 4073 4054
4054 4073 4074 4055
4055 4074 4075 4056
4056 4075 4076 4057
4057 4076 4077 4058
4058 4077 4078 4059
4059 4078 4079 4060
4060 4079 4080 4061
4061 4080 4081 4062
4062 4081 4082 4063
4063 4082 4083 4064
4064 4083 4084 4065
4065 4084 4085 4066
4066 4085 4086 4067
4067 4086 4087 4068
4068 4087 4088 4069
4069 4088 4089 4070
4070 4089 4090 4071
4071 4090 4091 4072
4072 4091 348 347
133 134 4092 4073
4073 4092 4093 4074
4074 4093 4094 4075
4075 4094 4095 4076
4076 4095 4096 4077
4077 4096 4097 4078
4078 4097 4098 4079
4079 4098 4099 4080
4080 4099 4100 4081
4081 4100 4101 4082
4082 4101 4102 4083
4083 4102 4103 4084
4084 4103 4104 4085
4085 4104 4105 4086
4086 4105 4106 4087
4087 4106 4107 4088
4088 4107 4108 4089
4089 4108 4109 4090
4090 4109 4110 4091
4091 4110 349 348
134 135 4111 4092
4092 4111 4112 4093
4093 4112 4113 4094
4094 4113 4114 4095
4095 4114 4115 4096
4096 4115 4116 4097
4097 4116 4117 4098
4098 4117 4118 4099
4099 4118 4119 4100
4100 4119 4120 4101
4101 4120 4121 4102
4102 4121 4122 4103
4103 4122 4123 4104
4104 4123 4124 4105
4105 4124 4125 4106
4106 4125 4126 4107
4107 4126 4127 4108
4108 4127 4128 4109
4109 4128 4129 4110
4110 4129 350 349
135 136 4130 4111
4111 4130 4131 4112
4112 4131 4132 4113
4113 4132 4133 4114
4114 4133 4134 4115
4115 4134 4135 4116
4116 4135 4136 4117
4117 4136 4137 4118
4118 4137 4138 4119
4119 4138 4139 4120
4120 4139 4140 4121
4121 4140 4141 4122
4122 4141 4142 4123
4123 4142 4143 4124
4124 4143 4144 4125
4125 4144 4145 4126
4126 4145 4146 4127
4127 4146 4147 4128
4128 4147 4148 4129
4129 4148 351 350
136 137 4149 4130
4130 4149 4150 4131
4131 4150 4151 4132
4132 4151 4152 4133
4133 4152 4153 4134
4134 4153 4154 4135
4135 4154 4155 4136
4136 4155 4156 4137
4137 4156 4157 4138
4138 4157 4158 4139
4139 4158 4159 4140
4140 4159 4160 4141
4141 4160 4161 4142
4142 4161 4162 4143
4143 4162 4163 4144
4144 4163 4164 4145
4145 4164 4165 4146
4146 4165 4166 4147
4147 4166 4167 4148
4148 4167 352 351
137 138 4168 4149
4149 4168 4169 4150
4150 4169 4170 4151
4151 4170 4171 4152
4152 4171 4172 4153
4153 4172 4173 4154
4154 4173 4174 4155
4155 4174 4175 4156
4156 4175 4176 4157
4157 4176 4177 4158
4158 4177 4178 4159
4159 4178 4179 4160
4160 4179 4180 4161
4161 4180 4181 4162
4162 4181 4182 4163
4163 4182 4183 4164
4164 4183 4184 4165
4165 4184 4185 4166
4166 4185 4186 4167
4167 4186 353 352
138 139 4187 4168
4168 4187 4188 4169
4169 4188 4189 4170
4170 4189 4190 4171
4171 4190 4191 4172
4172 4191 4192 4173
4173 4192 4193 4174
4174 4193 4194 4175
4175 4194 4195 4176
4176 4195 4196 4177
4177 4196 4197 4178
4178 4197 4198 4179
4179 4198 4199 4180
4180 4199 4200 4181
4181 4200 4201 4182
4182 4201 4202 4183
4183 4202 4203 4184
4184 4203 4204 4185
4185 4204 4205 4186
4186 4205 354 353
139 140 4206 4187
4187 4206 4207 4188
4188 4207 4208 4189
4189 4208 4209 4190
4190 4209 4210 4191
4191 4210 4211 4192
4192 4211 4212 4193
4193 4212 4213 4194
4194 4213 4214 4195
4195 4214 4215 4196
4196 4215 4216 4197
4197 4216 4217 4198
4198 4217 4218 4199
4199 4218 4219 4200
4200 4219 4220 4201
4201 4220 4221 4202
4202 4221 4222 4203
4203 4222 4223 4204
4204 4223 4224 4205
4205 4224 355 354
140 141 4225 4206
4206 4225 4226 4207
4207 4226 4227 4208
4208 4227 4228 4209
4209 4228 4229 4210
4210 4229 4230 4211
4211 4230 4231 4212
4212 4231 4232 4213
4213 4232 4233 4214
4214 4233 4234 4215
4215 4234 4235 4216
4216 4235 4236 4217
4217 4236 4237 4218
4218 4237 4238 4219
4219 4238 4239 4220
4220 4239 4240 4221
4221 4240 4241 4222
4222 4241 4242 4223
4223 4242 4243 4224
4224 4243 356 355
141 142 4244 4225
4225 4244 4245 4226
4226 4245 4246 4227
4227 4246 4247 4228
4228 4247 4248 4229
4229 4248 4249 4230
4230 4249 4250 4231
4231 4250 4251 4232
4232 4251 4252 4233
4233 4252 4253 4234
4234 4253 4254 4235
4235 4254 4255 4236
4236 4255 4256 4237
4237 4256 4257 4238
4238 4257 4258 4239
4239 4258 4259 4240
4240 4259 4260 4241
4241 4260 4261 4242
4242 4261 4262 4243
4243 4262 357 356
142 143 4263 4244
4244 4263 4264 4245
4245 4264 4265 4246
4246 4265 4266 4247
4247 4266 4267 4248
4248 4267 4268 4249
4249 4268 4269 4250
4250 4269 4270 4251
4251 4270 4271 4252
4252 4271 4272 4253
4253 4272 4273 4254
4254 4273 4274 4255
4255 4274 4275 4256
4256 4275 4276 4257
4257 4276 4277 4258
4258 4277 4278 4259
4259 4278 4279 4260
4260 4279 4280 4261
4261 4280 4281 4262
4262 4281 358 357
143 144 4282 4263
4263 4282 4283 4264
4264 4283 4284 4265
4265 4284 4285 4266
4266 4285 4286 4267
4267 4286 4287 4268
4268 4287 4288 4269
4269 4288 4289 4270
4270 4289 4290 4271
4271 4290 4291 4272
4272 4291 4292 4273
4273 4292 4293 4274
4274 4293 4294 4275
4275 4294 4295 4276
4276 4295 4296 4277
4277 4296 4297 4278
4278 4297 4298 4279
4279 4298 4299 4280
4280 4299 4300 4281
4281 4300 359 358
144 145 4301 4282
4282 4301 4302 4283
4283 4302 4303 4284
4284 4303 4304 4285
4285 4304 4305 4286
4286 4305 4306 4287
4287 4306 4307 4288
4288 4307 4308 4289
4289 4308 4309 4290
4290 4309 4310 4291
4291 4310 4311 4292
4292 4311 4312 4293
4293 4312 4313 4294
4294 4313 4314 4295
4295 4314 4315 4296
4296 4315 4316 4297
4297 4316 4317 4298
4298 4317 4318 4299
4299 4318 4319 4300
4300 4319 360 359
145 146 4320 4301
4301 4320 4321 4302
4302 4321 4322 4303
4303 4322 4323 4304
4304 4323 4324 4305
4305 4324 4325 4306
4306 4325 4326 4307
4307 4326 4327 4308
4308 4327 4328 4309
4309 4328 4329 4310
4310 4329 4330 4311
4311 4330 4331 4312
4312 4331 4332 4313
4313 4332 4333 4314
4314 4333 4334 4315
4315 4334 4335 4316
4316 4335 4336 4317
4317 4336 4337 4318
4318 4337 4338 4319
4319 4338 361 360
146 5 399 4320
4320 399 398 4321
4321 398 397 4322
4322 397 396 4323
4323 396 395 4324
4324 395 394 4325
4325 394 393 4326
4326 393 392 4327
4327 392 391 4328
4328 391 390 4329
4329 390 389 4330
4330 389 388 4331
4331 388 387 4332
4332 387 386 4333
4333 386 385 4334
4334 385 384 4335
4335 384 383 4336
4336 383 382 4337
4337 382 381 4338
4338 381 10 361
3 89 4339 166
166 4339 4340 167
167 4340 4341 168
168 4341 4342 169
169 4342 4343 170
170 4343 4344 171
171 4344 4345 172
172 4345 4346 173
173 4346 4347 174
174 4347 4348 175
175 4348 4349 176
176 4349 4350 177
177 4350 4351 178
178 4351 4352 179
179 4352 4353 180
180 4353 4354 181
181 4354 4355 182
182 4355 4356 183
183 4356 4357 184
184 4357 418 7
89 90 4358 4339
4339 4358 4359 4340
4340 4359 4360 4341
4341 4360 4361 4342
4342 4361 4362 4343
4343 4362 4363 4344
4344 4363 4364 4345
4345 4364 4365 4346
4346 4365 4366 4347
4347 4366 4367 4348
4348 4367 4368 4349
4349 4368 4369 4350
4350 4369 4370 4351
4351 4370 4371 4352
4352 4371 4372 4353
4353 4372 4373 4354
4354 4373 4374 4355
4355 4374 4375 4356
4356 4375 4376 4357
4357 4376 417 418
90 91 4377 4358
4358 4377 4378 4359
4359 4378 4379 4360
4360 4379 4380 4361
4361 4380 4381 4362
4362 4381 4382 4363
4363 4382 4383 4364
4364 4383 4384 4365
4365 4384 4385 4366
4366 4385 4386 4367
4367 4386 4387 4368
4368 4387 4388 4369
4369 4388 4389 4370
4370 4389 4390 4371
4371 4390 4391 4372
4372 4391 4392 4373
4373 4392 4393 4374
4374 4393 4394 4375
4375 4394 4395 4376
4376 4395 416 417
91 92 4396 4377
4377 4396 4397 4378
4378 4397 4398 4379
4379 4398 4399 4380
4380 4399 4400 4381
4381 4400 4401 4382
4382 4401 4402 4383
4383 4402 4403 4384
4384 4403 4404 4385
4385 4404 4405 4386
4386 4405 4406 4387
4387 4406 4407 4388
4388 4407 4408 4389
4389 4408 4409 4390
4390 4409 4410 4391
4391 4410 4411 4392
4392 4411 4412 4393
4393 4412 4413 4394
4394 4413 4414 4395
4395 4414 415 416
92 93 4415 4396
4396 4415 4416 4397
4397 4416 4417 4398
4398 4417 4418 4399
4399 4418 4419 4400
4400 4419 4420 4401
4401 4420 4421 4402
4402 4421 4422 4403
4403 4422 4423 4404
4404 4423 4424 4405
4405 4424 4425 4406
4406 4425 4426 4407
4407 4426 4427 4408
4408 4427 4428 4409
4409 4428 4429 4410
4410 4429 4430 4411
4411 4430 4431 4412
4412 4431 4432 4413
4413 4432 4433 4414
4414 4433 414 415
93 94 4434 4415
4415 4434 4435 4416
4416 4435 4436 4417
4417 4436 4437 4418
4418 4437 4438 4419
4419 4438 4439 4420
4420 4439 4440 4421
4421 4440 4441 4422
4422 4441 4442 4423
4423 4442 4443 4424
4424 4443 4444 4425
4425 4444 4445 4426
4426 4445 4446 4427
4427 4446 4447 4428
4428 4447 4448 4429
4429 4448 4449 4430
4430 4449 4450 4431
4431 4450 4451 4432
4432 4451 4452 4433
4433 4452 413 414
94 95 4453 4434
4434 4453 4454 4435
4435 4454 4455 4436
4436 4455 4456 4437
4437 4456 4457 4438
4438 4457 4458 4439
4439 4458 4459 4440
4440 4459 4460 4441
4441 4460 4461 4442
4442 4461 4462 4443
4443 4462 4463 4444
4444 4463 4464 4445
4445 4464 4465 4446
4446 4465 4466 4447
4447 4466 4467 4448
4448 4467 4468 4449
4449 4468 4469 4450
4450 4469 4470 4451
4451 4470 4471 4452
4452 4471 412 413
95 96 4472 4453
4453 4472 4473 4454
4454 4473 4474 4455
4455 4474 4475 4456
4456 4475 4476 4457
4457 4476 4477 4458
4458 4477 4478 4459
4459 4478 4479 4460
4460 4479 4480 4461
4461 4480 4481 4462
4462 4481 4482 4463
4463 4482 4483 4464
4464 4483 4484 4465
4465 4484 4485 4466
4466 4485 4486 4467
4467 4486 4487 4468
4468 4487 4488 4469
4469 4488 4489 4470
4470 4489 4490 4471
4471 4490 411 412
96 97 4491 4472
4472 4491 4492 4473
4473 4492 4493 4474
4474 4493 4494 4475
4475 4494 4495 4476
4476 4495 4496 4477
4477 4496 4497 4478
4478 4497 4498 4479
4479 4498 4499 4480
4480 4499 4500 4481
4481 4500 4501 4482
4482 4501 4502 4483
4483 4502 4503 4484
4484 4503 4504 4485
4485 4504 4505 4486
4486 4505 4506 4487
4487 4506 4507 4488
4488 4507 4508 4489
4489 4508 4509 4490
4490 4509 410 411
97 98 4510 4491
4491 4510 4511 4492
4492 4511 4512 4493
4493 4512 4513 4494
4494 4513 4514 4495
4495 4514 4515 4496
4496 4515 4516 4497
4497 4516 4517 4498
4498 4517 4518 4499
4499 4518 4519 4500
4500 4519 4520 4501
4501 4520 4521 4502
4502 4521 4522 4503
4503 4522 4523 4504
4504 4523 4524 4505
4505 4524 4525 4506
4506 4525 4526 4507
4507 4526 4527 4508
4508 4527 4528 4509
4509 4528 409 410
98 99 4529 4510
4510 4529 4530 4511
4511 4530 4531 4512
4512 4531 4532 4513
4513 4532 4533 4514
4514 4533 4534 4515
4515 4534 4535 4516
4516 4535 4536 4517
4517 4536 4537 4518
4518 4537 4538 4519
4519 4538 4539 4520
4520 4539 4540 4521
4521 4540 4541 4522
4522 4541 4542 4523
4523 4542 4543 4524
4524 4543 4544 4525
4525 4544 4545 4526
4526 4545 4546 4527
4527 4546 4547 4528
4528 4547 408 409
99 100 4548 4529
4529 4548 4549 4530
4530 4549 4550 4531
4531 4550 4551 4532
4532 4551 4552 4533
4533 4552 4553 4534
4534 4553 4554 4535
4535 4554 4555 4536
4536 4555 4556 4537
4537 4556 4557 4538
4538 4557 4558 4539
4539 4558 4559 4540
4540 4559 4560 4541
4541 4560 4561 4542
4542 4561 4562 4543
4543 4562 4563 4544
4544 4563 4564 4545
4545 4564 4565 4546
4546 4565 4566 4547
4547 4566 407 408
100 101 4567 4548
4548 4567 4568 4549
4549 4568 4569 4550
4550 4569 4570 4551
4551 4570 4571 4552
4552 4571 4572 4553
4553 4572 4573 4554
4554 4573 4574 4555
4555 4574 4575 4556
4556 4575 4576 4557
4557 4576 4577 4558
4558 4577 4578 4559
4559 4578 4579 4560
4560 4579 4580 4561
4561 4580 4581 4562
4562 4581 4582 4563
4563 4582 4583 4564
4564 4583 4584 4565
4565 4584 4585 4566
4566 4585 406 407
101 102 4586 4567
4567 4586 4587 4568
4568 4587 4588 4569
4569 4588 4589 4570
4570 4589 4590 4571
4571 4590 4591 4572
4572 4591 4592 4573
4573 4592 4593 4574
4574 4593 4594 4575
4575 4594 4595 4576
4576 4595 4596 4577
4577 4596 4597 4578
4578 4597 4598 4579
4579 4598 4599 4580
4580 4599 4600 4581
4581 4600 4601 4582
4582 4601 4602 4583
4583 4602 4603 4584
4584 4603 4604 4585
4585 4604 405 406
102 103 4605 4586
4586 4605 4606 4587
4587 4606 4607 4588
4588 4607 4608 4589
4589 4608 4609 4590
4590 4609 4610 4591
4591 4610 4611 4592
4592 4611 4612 4593
4593 4612 4613 4594
4594 4613 4614 4595
4595 4614 4615 4596
4596 4615 4616 4597
4597 4616 4617 4598
4598 4617 4618 4599
4599 4618 4619 4600
4600 4619 4620 4601
4601 4620 4621 4602
4602 4621 4622 4603
4603 4622 4623 4604
4604 4623 404 405
103 104 4624 4605
4605 4624 4625 4606
4606 4625 4626 4607
4607 4626 4627 4608
4608 4627 4628 4609
4609 4628 4629 4610
4610 4629 4630 4611
4611 4630 4631 4612
4612 4631 4632 4613
4613 4632 4633 4614
4614 4633 4634 4615
4615 4634 4635 4616
4616 4635 4636 4617
4617 4636 4637 4618
4618 4637 4638 4619
4619 4638 4639 4620
4620 4639 4640 4621
4621 4640 4641 4622
4622 4641 4642 4623
4623 4642 403 404
104 105 4643 4624
4624 4643 4644 4625
4625 4644 4645 4626
4626 4645 4646 4627
4627 4646 4647 4628
4628 4647 4648 4629
4629 4648 4649 4630
4630 4649 4650 4631
4631 4650 4651 4632
4632 4651 4652 4633
4633 4652 4653 4634
4634 4653 4654 4635
4635 4654 4655 4636
4636 4655 4656 4637
4637 4656 4657 4638
4638 4657 4658 4639
4639 4658 4659 4640
4640 4659 4660 4641
4641 4660 4661 4642
4642 4661 402 403
105 106 4662 4643
4643 4662 4663 4644
4644 4663 4664 4645
4645 4664 4665 4646
4646 4665 4666 4647
4647 4666 4667 4648
4648 4667 4668 4649
4649 4668 4669 4650
4650 4669 4670 4651
4651 4670 4671 4652
4652 4671 4672 4653
4653 4672 4673 4654
4654 4673 4674 4655
4655 4674 4675 4656
4656 4675 4676 4657
4657 4676 4677 4658
4658 4677 4678 4659
4659 4678 4679 4660
4660 4679 4680 4661
4661 4680 401 402
106 107 4681 4662
4662 4681 4682 4663
4663 4682 4683 4664
4664 4683 4684 4665
4665 4684 4685 4666
4666 4685 4686 4667
4667 4686 4687 4668
4668 4687 4688 4669
4669 4688 4689 4670
4670 4689 4690 4671
4671 4690 4691 4672
4672 4691 4692 4673
4673 4692 4693 4674
4674 4693 4694 4675
4675 4694 4695 4676
4676 4695 4696 4677
4677 4696 4697 4678
4678 4697 4698 4679
4679 4698 4699 4680
4680 4699 400 401
107 4 380 4681
4681 380 379 4682
4682 379 378 4683
4683 378 377 4684
4684 377 376 4685
4685 376 375 4686
4686 375 374 4687
4687 374 373 4688
4688 373 372 4689
4689 372 371 4690
4690 371 370 4691
4691 370 369 4692
4692 369 368 4693
4693 368 367 4694
4694 367 366 4695
4695 366 365 4696
4696 365 364 4697
4697 364 363 4698
4698 363 362 4699
4699 362 9 400
5 147 4700 399
399 4700 4701 398
398 4701 4702 397
397 4702 4703 396
396 4703 4704 395
395 4704 4705 394
394 4705 4706 393
393 4706 4707 392
392 4707 4708 391
391 4708 4709 390
390 4709 4710 389
389 4710 4711 388
388 4711 4712 387
387 4712 4713 386
386 4713 4714 385
385 4714 4715 384
384 4715 4716 383
383 4716 4717 382
382 4717 4718 381
381 4718 419 10
147 148 4719 4700
4700 4719 4720 4701
4701 4720 4721 4702
4702 4721 4722 4703
4703 4722 4723 4704
4704 4723 4724 4705
4705 4724 4725 4706
4706 4725 4726 4707
4707 4726 4727 4708
4708 4727 4728 4709
4709 4728 4729 4710
4710 4729 4730 4711
4711 4730 4731 4712
4712 4731 4732 4713
4713 4732 4733 4714
4714 4733 4734 4715
4715 4734 4735 4716
4716 4735 4736 4717
4717 4736 4737 4718
4718 4737 420 419
148 149 4738 4719
4719 4738 4739 4720
4720 4739 4740 4721
4721 4740 4741 4722
4722 4741 4742 4723
4723 4742 4743 4724
4724 4743 4744 4725
4725 4744 4745 4726
4726 4745 4746 4727
4727 4746 4747 4728
4728 4747 4748 4729
4729 4748 4749 4730
4730 4749 4750 4731
4731 4750 4751 4732
4732 4751 4752 4733
4733 4752 4753 4734
4734 4753 4754 4735
4735 4754 4755 4736
4736 4755 4756 4737
4737 4756 421 420
149 150 4757 4738
4738 4757 4758 4739
4739 4758 4759 4740
4740 4759 4760 4741
4741 4760 4761 4742
4742 4761 4762 4743
4743 4762 4763 4744
4744 4763 4764 4745
4745 4764 4765 4746
4746 4765 4766 4747
4747 4766 4767 4748
4748 4767 4768 4749
4749 4768 4769 4750
4750 4769 4770 4751
4751 4770 4771 4752
4752 4771 4772 4753
4753 4772 4773 4754
4754 4773 4774 4755
4755 4774 4775 4756
4756 4775 422 421
150 151 4776 4757
4757 4776 4777 4758
4758 4777 4778 4759
4759 4778 4779 4760
4760 4779 4780 4761
4761 4780 4781 4762
4762 4781 4782 4763
4763 4782 4783 4764
4764 4783 4784 4765
4765 4784 4785 4766
4766 4785 4786 4767
4767 4786 4787 4768
4768 4787 4788 4769
4769 4788 4789 4770
4770 4789 4790 4771
4771 4790 4791 4772
4772 4791 4792 4773
4773 4792 4793 4774
4774 4793 4794 4775
4775 4794 423 422
151 152 4795 4776
4776 4795 4796 4777
4777 4796 4797 4778
4778 4797 4798 4779
4779 4798 4799 4780
4780 4799 4800 4781
4781 4800 4801 4782
4782 4801 4802 4783
4783 4802 4803 4784
4784 4803 4804 4785
4785 4804 4805 4786
4786 4805 4806 4787
4787 4806 4807 4788
4788 4807 4808 4789
4789 4808 4809 4790
4790 4809 4810 4791
4791 4810 4811 4792
4792 4811 4812 4793
4793 4812 4813 4794
4794 4813 424 423
152 153 4814 4795
4795 4814 4815 4796
4796 4815 4816 4797
4797 4816 4817 4798
4798 4817 4818 4799
4799 4818 4819 4800
4800 4819 4820 4801
4801 4820 4821 4802
4802 4821 4822 4803
4803 4822 4823 4804
4804 4823 4824 4805
4805 4824 4825 4806
4806 4825 4826 4807
4807 4826 4827 4808
4808 4827 4828 4809
4809 4828 4829 4810
4810 4829 4830 4811
4811 4830 4831 4812
4812 4831 4832 4813
4813 4832 425 424
153 154 4833 4814
4814 4833 4834 4815
4815 4834 4835 4816
4816 4835 4836 4817
4817 4836 4837 4818
4818 4837 4838 4819
4819 4838 4839 4820
4820 4839 4840 4821
4821 4840 4841 4822
4822 4841 4842 4823
4823 4842 4843 4824
4824 4843 4844 4825
4825 4844 4845 4826
4826 4845 4846 4827
4827 4846 4847 4828
4828 4847 4848 4829
4829 4848 4849 4830
4830 4849 4850 4831
4831 4850 4851 4832
4832 4851 426 425
154 155 4852 4833
4833 4852 4853 4834
4834 4853 4854 4835
4835 4854 4855 4836
4836 4855 4856 4837
4837 4856 4857 4838
4838 4857 4858 4839
4839 4858 4859 4840
4840 4859 4860 4841
4841 4860 4861 4842
4842 4861 4862 4843
4843 4862 4863 4844
4844 4863 4864 4845
4845 4864 4865 4846
4846 4865 4866 4847
4847 4866 4867 4848
4848 4867 4868 4849
4849 4868 4869 4850
4850 4869 4870 4851
4851 4870 427 426
155 156 4871 4852
4852 4871 4872 4853
4853 4872 4873 4854
4854 4873 4874 4855
4855 4874 4875 4856
4856 4875 4876 4857
4857 4876 4877 4858
4858 4877 4878 4859
4859 4878 4879 4860
4860 4879 4880 4861
4861 4880 4881 4862
4862 4881 4882 4863
4863 4882 4883 4864
4864 4883 4884 4865
4865 4884 4885 4866
4866 4885 4886 4867
4867 4886 4887 4868
4868 4887 4888 4869
4869 4888 4889 4870
4870 4889 428 427
156 157 4890 4871
4871 4890 4891 4872
4872 4891 4892 4873
4873 4892 4893 4874
4874 4893 4894 4875
4875 4894 4895 4876
4876 4895 4896 4877
4877 4896 4897 4878
4878 4897 4898 4879
4879 4898 4899 4880
4880 4899 4900 4881
4881 4900 4901 4882
4882 4901 4902 4883
4883 4902 4903 4884
4884 4903 4904 4885
4885 4904 4905 4886
4886 4905 4906 4887
4887 4906 4907 4888
4888 4907 4908 4889
4889 4908 429 428
157 158 4909 4890
4890 4909 4910 4891
4891 4910 4911 4892
4892 4911 4912 4893
4893 4912 4913 4894
4894 4913 4914 4895
4895 4914 4915 4896
4896 4915 4916 4897
4897 4916 4917 4898
4898 4917 4918 4899
4899 4918 4919 4900
4900 4919 4920 4901
4901 4920 4921 4902
4902 4921 4922 4903
4903 4922 4923 4904
4904 4923 4924 4905
4905 4924 4925 4906
4906 4925 4926 4907
4907 4926 4927 4908
4908 4927 430 429
158 159 4928 4909
4909 4928 4929 4910
4910 4929 4930 4911
4911 4930 4931 4912
4912 4931 4932 4913
4913 4932 4933 4914
4914 4933 4934 4915
4915 4934 4935 4916
4916 4935 4936 4917
4917 4936 4937 4918
4918 4937 4938 4919
4919 4938 4939 4920
4920 4939 4940 4921
4921 4940 4941 4922
4922 4941 4942 4923
4923 4942 4943 4924
4924 4943 4944 4925
4925 4944 4945 4926
4926 4945 4946 4927
4927 4946 431 430
159 160 4947 4928
4928 4947 4948 4929
4929 4948 4949 4930
4930 4949 4950 4931
4931 4950 4951 4932
4932 4951 4952 4933
4933 4952 4953 4934
4934 4953 4954 4935
4935 4954 4955 4936
4936 4955 4956 4937
4937 4956 4957 4938
4938 4957 4958 4939
4939 4958 4959 4940
4940 4959 4960 4941
4941 4960 4961 4942
4942 4961 4962 4943
4943 4962 4963 4944
4944 4963 4964 4945
4945 4964 4965 4946
4946 4965 432 431
160 161 4966 4947
4947 4966 4967 4948
4948 4967 4968 4949
4949 4968 4969 4950
4950 4969 4970 4951
4951 4970 4971 4952
4952 4971 4972 4953
4953 4972 4973 4954
4954 4973 4974 4955
4955 4974 4975 4956
4956 4975 4976 4957
4957 4976 4977 4958
4958 4977 4978 4959
4959 4978 4979 4960
4960 4979 4980 4961
4961 4980 4981 4962
4962 4981 4982 4963
4963 4982 4983 4964
4964 4983 4984 4965
4965 4984 433 432
161 162 4985 4966
4966 4985 4986 4967
4967 4986 4987 4968
4968 4987 4988 4969
4969 4988 4989 4970
4970 4989 4990 4971
4971 4990 4991 4972
4972 4991 4992 4973
4973 4992 4993 4974
4974 4993 4994 4975
4975 4994 4995 4976
4976 4995 4996 4977
4977 4996 4997 4978
4978 4997 4998 4979
4979 4998 4999 4980
4980 4999 5000 4981
4981 5000 5001 4982
4982 5001 5002 4983
4983 5002 5003 4984
4984 5003 434 433
162 163 5004 4985
4985 5004 5005 4986
4986 5005 5006 4987
4987 5006 5007 4988
4988 5007 5008 4989
4989 5008 5009 4990
4990 5009 5010 4991
4991 5010 5011 4992
4992 5011 5012 4993
4993 5012 5013 4994
4994 5013 5014 4995
4995 5014 5015 4996
4996 5015 5016 4997
4997 5016 5017 4998
4998 5017 5018 4999
4999 5018 5019 5000
5000 5019 5020 5001
5001 5020 5021 5002
5002 5021 5022 5003
5003 5022 435 434
163 164 5023 5004
5004 5023 5024 5005
5005 5024 5025 5006
5006 5025 5026 5007
5007 5026 5027 5008
5008 5027 5028 5009
5009 5028 5029 5010
5010 5029 5030 5011
5011 5030 5031 5012
5012 5031 5032 5013
5013 5032 5033 5014
5014 5033 5034 5015
5015 5034 5035 5016
5016 5035 5036 5017
5017 5036 5037 5018
5018 5037 5038 5019
5019 5038 5039 5020
5020 5039 5040 5021
5021 5040 5041 5022
5022 5041 436 435
164 165 5042 5023
5023 5042 5043 5024
5024 5043 5044 5025
5025 5044 5045 5026
5026 5045 5046 5027
5027 5046 5047 5028
5028 5047 5048 5029
5029 5048 5049 5030
5030 5049 5050 5031
5031 5050 5051 5032
5032 5051 5052 5033
5033 5052 5053 5034
5034 5053 5054 5035
5035 5054 5055 5036
5036 5055 5056 5037
5037 5056 5057 5038
5038 5057 5058 5039
5039 5058 5059 5040
5040 5059 5060 5041
5041 5060 437 436
165 6 242 5042
5042 242 241 5043
5043 241 240 5044
5044 240 239 5045
5045 239 238 5046
5046 238 237 5047
5047 237 236 5048
5048 236 235 5049
5049 235 234 5050
5050 234 233 5051
5051 233 232 5052
5052 232 231 5053
5053 231 230 5054
5054 230 229 5055
5055 229 228 5056
5056 228 227 5057
5057 227 226 5058
5058 226 225 5059
5059 225 224 5060
5060 224 8 437
9 323 5061 400
400 5061 5062 401
401 5062 5063 402
402 5063 5064 403
403 5064 5065 404
404 5065 5066 405
405 5066 5067 406
406 5067 5068 407
407 5068 5069 408
408 5069 5070 409
409 5070 5071 410
410 5071 5072 411
411 5072 5073 412
412 5073 5074 413
413 5074 5075 414
414 5075 5076 415
415 5076 5077 416
416 5077 5078 417
417 5078 5079 418
418 5079 185 7
323 324 5080 5061
5061 5080 5081 5062
5062 5081 5082 5063
5063 5082 5083 5064
5064 5083 5084 5065
5065 5084 5085 5066
5066 5085 5086 5067
5067 5086 5087 5068
5068 5087 5088 5069
5069 5088 5089 5070
5070 5089 5090 5071
5071 5090 5091 5072
5072 5091 5092 5073
5073 5092 5093 5074
5074 5093 5094 5075
5075 5094 5095 5076
5076 5095 5096 5077
5077 5096 5097 5078
5078 5097 5098 5079
5079 5098 186 185
324 325 5099 5080
5080 5099 5100 5081
5081 5100 5101 5082
5082 5101 5102 5083
5083 5102 5103 5084
5084 5103 5104 5085
5085 5104 5105 5086
5086 5105 5106 5087
5087 5106 5107 5088
5088 5107 5108 5089
5089 5108 5109 5090
5090 5109 5110 5091
5091 5110 5111 5092
5092 5111 5112 5093
5093 5112 5113 5094
5094 5113 5114 5095
5095 5114 5115 5096
5096 5115 5116 5097
5097 5116 5117 5098
5098 5117 187 186
325 326 5118 5099
5099 5118 5119 5100
5100 5119 5120 5101
5101 5120 5121 5102
5102 5121 5122 5103
5103 5122 5123 5104
5104 5123 5124 5105
5105 5124 5125 5106
5106 5125 5126 5107
5107 5126 5127 5108
5108 5127 5128 5109
5109 5128 5129 5110
5110 5129 5130 5111
5111 5130 5131 5112
5112 5131 5132 5113
5113 5132 5133 5114
5114 5133 5134 5115
5115 5134 5135 5116
5116 5135 5136 5117
5117 5136 188 187
326 327 5137 5118
5118 5137 5138 5119
5119 5138 5139 5120
5120 5139 5140 5121
5121 5140 5141 5122
5122 5141 5142 5123
5123 5142 5143 5124
5124 5143 5144 5125
5125 5144 5145 5126
5126 5145 5146 5127
5127 5146 5147 5128
5128 5147 5148 5129
5129 5148 5149 5130
5130 5149 5150 5131
5131 5150 5151 5132
5132 5151 5152 5133
5133 5152 5153 5134
5134 5153 5154 5135
5135 5154 5155 5136
5136 5155 189 188
327 328 5156 5137
5137 5156 5157 5138
5138 5157 5158 5139
5139 5158 5159 5140
5140 5159 5160 5141
5141 5160 5161 5142
5142 5161 5162 5143
5143 5162 5163 5144
5144 5163 5164 5145
5145 5164 5165 5146
5146 5165 5166 5147
5147 5166 5167 5148
5148 5167 5168 5149
5149 5168 5169 5150
5150 5169 5170 5151
5151 5170 5171 5152
5152 5171 5172 5153
5153 5172 5173 5154
5154 5173 5174 5155
5155 5174 190 189
328 329 5175 5156
5156 5175 5176 5157
5157 5176 5177 5158
5158 5177 5178 5159
5159 5178 5179 5160
5160 5179 5180 5161
5161 5180 5181 5162
5162 5181 5182 5163
5163 5182 5183 5164
5164 5183 5184 5165
5165 5184 5185 5166
5166 5185 5186 5167
5167 5186 5187 5168
5168 5187 5188 5169
5169 5188 5189 5170
5170 5189 5190 5171
5171 5190 5191 5172
5172 5191 5192 5173
5173 5192 5193 5174
5174 5193 191 190
329 330 5194 5175
5175 5194 5195 5176
5176 5195 5196 5177
5177 5196 5197 5178
5178 5197 5198 5179
5179 5198 5199 5180
5180 5199 5200 5181
5181 5200 5201 5182
5182 5201 5202 5183
5183 5202 5203 5184
5184 5203 5204 5185
5185 5204 5205 5186
5186 5205 5206 5187
5187 5206 5207 5188
5188 5207 5208 5189
5189 5208 5209 5190
5190 5209 5210 5191
5191 5210 5211 5192
5192 5211 5212 5193
5193 5212 192 191
330 331 5213 5194
5194 5213 5214 5195
5195 5214 5215 5196
5196 5215 5216 5197
5197 5216 5217 5198
5198 5217 5218 5199
5199 5218 5219 5200
5200 5219 5220 5201
5201 5220 5221 5202
5202 5221 5222 5203
5203 5222 5223 5204
5204 5223 5224 5205
5205 5224 5225 5206
5206 5225 5226 5207
5207 5226 5227 5208
5208 5227 5228 5209
5209 5228 5229 5210
5210 5229 5230 5211
5211 5230 5231 5212
5212 5231 193 192
331 332 5232 5213
5213 5232 5233 5214
5214 5233 5234 5215
5215 5234 5235 5216
5216 5235 5236 5217
5217 5236 5237 5218
5218 5237 5238 5219
5219 5238 5239 5220
5220 5239 5240 5221
5221 5240 5241 5222
5222 5241 5242 5223
5223 5242 5243 5224
5224 5243 5244 5225
5225 5244 5245 5226
5226 5245 5246 5227
5227 5246 5247 5228
5228 5247 5248 5229
5229 5248 5249 5230
5230 5249 5250 5231
5231 5250 194 193
332 333 5251 5232
5232 5251 5252 5233
5233 5252 5253 5234
5234 5253 5254 5235
5235 5254 5255 5236
5236 5255 5256 5237
5237 5256 5257 5238
5238 5257 5258 5239
5239 5258 5259 5240
5240 5259 5260 5241
5241 5260 5261 5242
5242 5261 5262 5243
5243 5262 5263 5244
5244 5263 5264 5245
5245 5264 5265 5246
5246 5265 5266 5247
5247 5266 5267 5248
5248 5267 5268 5249
5249 5268 5269 5250
5250 5269 195 194
333 334 5270 5251
5251 5270 5271 5252
5252 5271 5272 5253
5253 5272 5273 5254
5254 5273 5274 5255
5255 5274 5275 5256
5256 5275 5276 5257
5257 5276 5277 5258
5258 5277 5278 5259
5259 5278 5279 5260
5260 5279 5280 5261
5261 5280 5281 5262
5262 5281 5282 5263
5263 5282 5283 5264
5264 5283 5284 5265
5265 5284 5285 5266
5266 5285 5286 5267
5267 5286 5287 5268
5268 5287 5288 5269
5269 5288 196 195
334 335 5289 5270
5270 5289 5290 5271
5271 5290 5291 5272
5272 5291 5292 5273
5273 5292 5293 5274
5274 5293 5294 5275
5275 5294 5295 5276
5276 5295 5296 5277
5277 5296 5297 5278
5278 5297 5298 5279
5279 5298 5299 5280
5280 5299 5300 5281
5281 5300 5301 5282
5282 5301 5302 5283
5283 5302 5303 5284
5284 5303 5304 5285
5285 5304 5305 5286
5286 5305 5306 5287
5287 5306 5307 5288
5288 5307 197 196
335 336 5308 5289
5289 5308 5309 5290
5290 5309 5310 5291
5291 5310 5311 5292
5292 5311 5312 5293
5293 5312 5313 5294
5294 5313 5314 5295
5295 5314 5315 5296
5296 5315 5316 5297
5297 5316 5317 5298
5298 5317 5318 5299
5299 5318 5319 5300
5300 5319 5320 5301
5301 5320 5321 5302
5302 5321 5322 5303
5303 5322 5323 5304
5304 5323 5324 5305
5305 5324 5325 5306
5306 5325 5326 5307
5307 5326 198 197
336 337 5327 5308
5308 5327 5328 5309
5309 5328 5329 5310
5310 5329 5330 5311
5311 5330 5331 5312
5312 5331 5332 5313
5313 5332 5333 5314
5314 5333 5334 5315
5315 5334 5335 5316
5316 5335 5336 5317
5317 5336 5337 5318
5318 5337 5338 5319
5319 5338 5339 5320
5320 5339 5340 5321
5321 5340 5341 5322
5322 5341 5342 5323
5323 5342 5343 5324
5324 5343 5344 5325
5325 5344 5345 5326
5326 5345 199 198
337 338 5346 5327
5327 5346 5347 5328
5328 5347 5348 5329
5329 5348 5349 5330
5330 5349 5350 5331
5331 5350 5351 5332
5332 5351 5352 5333
5333 5352 5353 5334
5334 5353 5354 5335
5335 5354 5355 5336
5336 5355 5356 5337
5337 5356 5357 5338
5338 5357 5358 5339
5339 5358 5359 5340
5340 5359 5360 5341
5341 5360 5361 5342
5342 5361 5362 5343
5343 5362 5363 5344
5344 5363 5364 5345
5345 5364 200 199
338 339 5365 5346
5346 5365 5366 5347
5347 5366 5367 5348
5348 5367 5368 5349
5349 5368 5369 5350
5350 5369 5370 5351
5351 5370 5371 5352
5352 5371 5372 5353
5353 5372 5373 5354
5354 5373 5374 5355
5355 5374 5375 5356
5356 5375 5376 5357
5357 5376 5377 5358
5358 5377 5378 5359
5359 5378 5379 5360
5360 5379 5380 5361
5361 5380 5381 5362
5362 5381 5382 5363
5363 5382 5383 5364
5364 5383 201 200
339 340 5384 5365
5365 5384 5385 5366
5366 5385 5386 5367
5367 5386 5387 5368
5368 5387 5388 5369
5369 5388 5389 5370
5370 5389 5390 5371
5371 5390 5391 5372
5372 5391 5392 5373
5373 5392 5393 5374
5374 5393 5394 5375
5375 5394 5395 5376
5376 5395 5396 5377
5377 5396 5397 5378
5378 5397 5398 5379
5379 5398 5399 5380
5380 5399 5400 5381
5381 5400 5401 5382
5382 5401 5402 5383
5383 5402 202 201
340 341 5403 5384
5384 5403 5404 5385
5385 5404 5405 5386
5386 5405 5406 5387
5387 5406 5407 5388
5388 5407 5408 5389
5389 5408 5409 5390
5390 5409 5410 5391
5391 5410 5411 5392
5392 5411 5412 5393
5393 5412 5413 5394
5394 5413 5414 5395
5395 5414 5415 5396
5396 5415 5416 5397
5397 5416 5417 5398
5398 5417 5418 5399
5399 5418 5419 5400
5400 5419 5420 5401
5401 5420 5421 5402
5402 5421 203 202
341 342 5422 5403
5403 5422 5423 5404
5404 5423 5424 5405
5405 5424 5425 5406
5406 5425 5426 5407
5407 5426 5427 5408
5408 5427 5428 5409
5409 5428 5429 5410
5410 5429 5430 5411
5411 5430 5431 5412
5412 5431 5432 5413
5413 5432 5433 5414
5414 5433 5434 5415
5415 5434 5435 5416
5416 5435 5436 5417
5417 5436 5437 5418
5418 5437 5438 5419
5419 5438 5439 5420
5420 5439 5440 5421
5421 5440 204 203
342 343 5441 5422
5422 5441 5442 5423
5423 5442 5443 5424
5424 5443 5444 5425
5425 5444 5445 5426
5426 5445 5446 5427
5427 5446 5447 5428
5428 5447 5448 5429
5429 5448 5449 5430
5430 5449 5450 5431
5431 5450 5451 5432
5432 5451 5452 5433
5433 5452 5453 5434
5434 5453 5454 5435
5435 5454 5455 5436
5436 5455 5456 5437
5437 5456 5457 5438
5438 5457 5458 5439
5439 5458 5459 5440
5440 5459 205 204
343 344 5460 5441
5441 5460 5461 5442
5442 5461 5462 5443
5443 5462 5463 5444
5444 5463 5464 5445
5445 5464 5465 5446
5446 5465 5466 5447
5447 5466 5467 5448
5448 5467 5468 5449
5449 5468 5469 5450
5450 5469 5470 5451
5451 5470 5471 5452
5452 5471 5472 5453
5453 5472 5473 5454
5454 5473 5474 5455
5455 5474 5475 5456
5456 5475 5476 5457
5457 5476 5477 5458
5458 5477 5478 5459
5459 5478 206 205
344 345 5479 5460
5460 5479 5480 5461
5461 5480 5481 5462
5462 5481 5482 5463
5463 5482 5483 5464
5464 5483 5484 5465
5465 5484 5485 5466
5466 5485 5486 5467
5467 5486 5487 5468
5468 5487 5488 5469
5469 5488 5489 5470
5470 5489 5490 5471
5471 5490 5491 5472
5472 5491 5492 5473
5473 5492 5493 5474
5474 5493 5494 5475
5475 5494 5495 5476
5476 5495 5496 5477
5477 5496 5497 5478
5478 5497 207 206
345 346 5498 5479
5479 5498 5499 5480
5480 5499 5500 5481
5481 5500 5501 5482
5482 5501 5502 5483
5483 5502 5503 5484
5484 5503 5504 5485
5485 5504 5505 5486
5486 5505 5506 5487
5487 5506 5507 5488
5488 5507 5508 5489
5489 5508 5509 5490
5490 5509 5510 5491
5491 5510 5511 5492
5492 5511 5512 5493
5493 5512 5513 5494
5494 5513 5514 5495
5495 5514 5515 5496
5496 5515 5516 5497
5497 5516 208 207
346 347 5517 5498
5498 5517 5518 5499
5499 5518 5519 5500
5500 5519 5520 5501
5501 5520 5521 5502
5502 5521 5522 5503
5503 5522 5523 5504
5504 5523 5524 5505
5505 5524 5525 5506
5506 5525 5526 5507
5507 5526 5527 5508
5508 5527 5528 5509
5509 5528 5529 5510
5510 5529 5530 5511
5511 5530 5531 5512
5512 5531 5532 5513
5513 5532 5533 5514
5514 5533 5534 5515
5515 5534 5535 5516
5516 5535 209 208
347 348 5536 5517
5517 5536 5537 5518
5518 5537 5538 5519
5519 5538 5539 5520
5520 5539 5540 5521
5521 5540 5541 5522
5522 5541 5542 5523
5523 5542 5543 5524
5524 5543 5544 5525
5525 5544 5545 5526
5526 5545 5546 5527
5527 5546 5547 5528
5528 5547 5548 5529
5529 5548 5549 5530
5530 5549 5550 5531
5531 5550 5551 5532
5532 5551 5552 5533
5533 5552 5553 5534
5534 5553 5554 5535
5535 5554 210 209
348 349 5555 5536
5536 5555 5556 5537
5537 5556 5557 5538
5538 5557 5558 5539
5539 5558 5559 5540
5540 5559 5560 5541
5541 5560 5561 5542
5542 5561 5562 5543
5543 5562 5563 5544
5544 5563 5564 5545
5545 5564 5565 5546
5546 5565 5566 5547
5547 5566 5567 5548
5548 5567 5568 5549
5549 5568 5569 5550
5550 5569 5570 5551
5551 5570 5571 5552
5552 5571 5572 5553
5553 5572 5573 5554
5554 5573 211 210
349 350 5574 5555
5555 5574 5575 5556
5556 5575 5576 5557
5557 5576 5577 5558
5558 5577 5578 5559
5559 5578 5579 5560
5560 5579 5580 5561
5561 5580 5581 5562
5562 5581 5582 5563
5563 5582 5583 5564
5564 5583 5584 5565
5565 5584 5585 5566
5566 5585 5586 5567
5567 5586 5587 5568
5568 5587 5588 5569
5569 5588 5589 5570
5570 5589 5590 5571
5571 5590 5591 5572
5572 5591 5592 5573
5573 5592 212 211
350 351 5593 5574
5574 5593 5594 5575
5575 5594 5595 5576
5576 5595 5596 5577
5577 5596 5597 5578
5578 5597 5598 5579
5579 5598 5599 5580
5580 5599 5600 5581
5581 5600 5601 5582
5582 5601 5602 5583
5583 5602 5603 5584
5584 5603 5604 5585
5585 5604 5605 5586
5586 5605 5606 5587
5587 5606 5607 5588
5588 5607 5608 5589
5589 5608 5609 5590
5590 5609 5610 5591
5591 5610 5611 5592
5592 5611 213 212
351 352 5612 5593
5593 5612 5613 5594
5594 5613 5614 5595
5595 5614 5615 5596
5596 5615 5616 5597
5597 5616 5617 5598
5598 5617 5618 5599
5599 5618 5619 5600
5600 5619 5620 5601
5601 5620 5621 5602
5602 5621 5622 5603
5603 5622 5623 5604
5604 5623 5624 5605
5605 5624 5625 5606
5606 5625 5626 5607
5607 5626 5627 5608
5608 5627 5628 5609
5609 5628 5629 5610
5610 5629 5630 5611
5611 5630 214 213
352 353 5631 5612
5612 5631 5632 5613
5613 5632 5633 5614
5614 5633 5634 5615
5615 5634 5635 5616
5616 5635 5636 5617
5617 5636 5637 5618
5618 5637 5638 5619
5619 5638 5639 5620
5620 5639 5640 5621
5621 5640 5641 5622
5622 5641 5642 5623
5623 5642 5643 5624
5624 5643 5644 5625
5625 5644 5645 5626
5626 5645 5646 5627
5627 5646 5647 5628
5628 5647 5648 5629
5629 5648 5649 5630
5630 5649 215 214
353 354 5650 5631
5631 5650 5651 5632
5632 5651 5652 5633
5633 5652 5653 5634
5634 5653 5654 5635
5635 5654 5655 5636
5636 5655 5656 5637
5637 5656 5657 5638
5638 5657 5658 5639
5639 5658 5659 5640
5640 5659 5660 5641
5641 5660 5661 5642
5642 5661 5662 5643
5643 5662 5663 5644
5644 5663 5664 5645
5645 5664 5665 5646
5646 5665 5666 5647
5647 5666 5667 5648
5648 5667 5668 5649
5649 5668 216 215
354 355 5669 5650
5650 5669 5670 5651
5651 5670 5671 5652
5652 5671 5672 5653
5653 5672 5673 5654
5654 5673 5674 5655
5655 5674 5675 5656
5656 5675 5676 5657
5657 5676 5677 5658
5658 5677 5678 5659
5659 5678 5679 5660
5660 5679 5680 5661
5661 5680 5681 5662
5662 5681 5682 5663
5663 5682 5683 5664
5664 5683 5684 5665
5665 5684 5685 5666
5666 5685 5686 5667
5667 5686 5687 5668
5668 5687 217 216
355 356 5688 5669
5669 5688 5689 5670
5670 5689 5690 5671
5671 5690 5691 5672
5672 5691 5692 5673
5673 5692 5693 5674
5674 5693 5694 5675
5675 5694 5695 5676
5676 5695 5696 5677
5677 5696 5697 5678
5678 5697 5698 5679
5679 5698 5699 5680
5680 5699 5700 5681
5681 5700 5701 5682
5682 5701 5702 5683
5683 5702 5703 5684
5684 5703 5704 5685
5685 5704 5705 5686
5686 5705 5706 5687
5687 5706 218 217
356 357 5707 5688
5688 5707 5708 5689
5689 5708 5709 5690
5690 5709 5710 5691
5691 5710 5711 5692
5692 5711 5712 5693
5693 5712 5713 5694
5694 5713 5714 5695
5695 5714 5715 5696
5696 5715 5716 5697
5697 5716 5717 5698
5698 5717 5718 5699
5699 5718 5719 5700
5700 5719 5720 5701
5701 5720 5721 5702
5702 5721 5722 5703
5703 5722 5723 5704
5704 5723 5724 5705
5705 5724 5725 5706
5706 5725 219 218
357 358 5726 5707
5707 5726 5727 5708
5708 5727 5728 5709
5709 5728 5729 5710
5710 5729 5730 5711
5711 5730 5731 5712
5712 5731 5732 5713
5713 5732 5733 5714
5714 5733 5734 5715
5715 5734 5735 5716
5716 5735 5736 5717
5717 5736 5737 5718
5718 5737 5738 5719
5719 5738 5739 5720
5720 5739 5740 5721
5721 5740 5741 5722
5722 5741 5742 5723
5723 5742 5743 5724
5724 5743 5744 5725
5725 5744 220 219
358 359 5745 5726
5726 5745 5746 5727
5727 5746 5747 5728
5728 5747 5748 5729
5729 5748 5749 5730
5730 5749 5750 5731
5731 5750 5751 5732
5732 5751 5752 5733
5733 5752 5753 5734
5734 5753 5754 5735
5735 5754 5755 5736
5736 5755 5756 5737
5737 5756 5757 5738
5738 5757 5758 5739
5739 5758 5759 5740
5740 5759 5760 5741
5741 5760 5761 5742
5742 5761 5762 5743
5743 5762 5763 5744
5744 5763 221 220
359 360 5764 5745
5745 5764 5765 5746
5746 5765 5766 5747
5747 5766 5767 5748
5748 5767 5768 5749
5749 5768 5769 5750
5750 5769 5770 5751
5751 5770 5771 5752
5752 5771 5772 5753
5753 5772 5773 5754
5754 5773 5774 5755
5755 5774 5775 5756
5756 5775 5776 5757
5757 5776 5777 5758
5758 5777 5778 5759
5759 5778 5779 5760
5760 5779 5780 5761
5761 5780 5781 5762
5762 5781 5782 5763
5763 5782 222 221
360 361 5783 5764
5764 5783 5784 5765
5765 5784 5785 5766
5766 5785 5786 5767
5767 5786 5787 5768
5768 5787 5788 5769
5769 5788 5789 5770
5770 5789 5790 5771
5771 5790 5791 5772
5772 5791 5792 5773
5773 5792 5793 5774
5774 5793 5794 5775
5775 5794 5795 5776
5776 5795 5796 5777
5777 5796 5797 5778
5778 5797 5798 5779
5779 5798 5799 5780
5780 5799 5800 5781
5781 5800 5801 5782
5782 5801 223 222
361 10 419 5783
5783 419 420 5784
5784 420 421 5785
5785 421 422 5786
5786 422 423 5787
5787 423 424 5788
5788 424 425 5789
5789 425 426 5790
5790 426 427 5791
5791 427 428 5792
5792 428 429 5793
5793 429 430 5794
5794 430 431 5795
5795 431 432 5796
5796 432 433 5797
5797 433 434 5798
5798 434 435 5799
5799 435 436 5800
5800 436 437 5801
5801 437 8 223
</DataArray>
<DataArray type="Int64" Name="offsets" format="ascii">
4
8
12
16
20
24
28
32
36
40
44
48
52
56
60
64
68
72
76
80
84
88
92
96
100
104
108
112
116
120
124
128
132
136
140
144
148
152
156
160
164
168
172
176
180
184
188
192
196
200
204
208
212
216
220
224
228
232
236
240
244
248
252
256
260
264
268
272
276
280
284
288
292
296
300
304
308
312
316
320
324
328
332
336
340
344
348
352
356
360
364
368
372
376
380
384
388
392
396
400
404
408
412
416
420
424
428
432
436
440
444
448
452
456
460
464
468
472
476
480
484
488
492
496
500
504
508
512
516
520
524
528
532
536
540
544
548
552
556
560
564
568
572
576
580
584
588
592
596
600
604
608
612
616
620
624
628
632
636
640
644
648
652
656
660
664
668
672
676
680
684
688
692
696
700
704
708
712
716
720
724
728
732
736
740
744
748
752
756
760
764
768
772
776
780
784
788
792
796
800
804
808
812
816
820
824
828
832
836
840
844
848
852
856
860
864
868
872
876
880
884
888
892
896
900
904
908
912
916
920
924
928
932
936
940
944
948
952
956
960
964
968
972
976
980
984
988
992
996
1000
1004
1008
1012
1016
1020
1024
1028
1032
1036
1040
1044
1048
1052
1056
1060
1064
1068
1072
1076
1080
1084
1088
1092
1096
1100
1104
1108
1112
1116
1120
1124
1128
1132
1136
1140
1144
1148
1152
1156
1160
1164
1168
1172
1176
1180
1184
1188
1192
1196
1200
1204
1208
1212
1216
1220
1224
1228
1232
1236
1240
1244
1248
1252
1256
1260
1264
1268
1272
1276
1280
1284
1288
1292
1296
1300
1304
1308
1312
1316
1320
1324
1328
1332
1336
1340
1344
1348
1352
1356
1360
1364
1368
1372
1376
1380
1384
1388
1392
1396
1400
1404
1408
1412
1416
1420
1424
1428
1432
1436
1440
1444
1448
1452
1456
1460
1464
1468
1472
1476
1480
1484
1488
1492
1496
1500
1504
1508
1512
1516
1520
1524
1528
1532
1536
1540
1544
1548
1552
1556
1560
1564
1568
1572
1576
1580
1584
1588
1592
1596
1600
1604
1608
1612
1616
1620
1624
1628
1632
1636
1640
1644
1648
1652
1656
1660
1664
1668
1672
1676
1680
1684
1688
1692
1696
1700
1704
1708
1712
1716
1720
1724
1728
1732
1736
1740
1744
1748
1752
1756
1760
1764
1768
1772
1776
1780
1784
1788
1792
1796
1800
1804
1808
1812
1816
1820
1824
1828
1832
1836
1840
1844
1848
1852
1856
1860
1864
1868
1872
1876
1880
1884
1888
1892
1896
1900
1904
1908
1912
1916
1920
1924
1928
1932
1936
1940
1944
1948
1952
1956
1960
1964
1968
1972
1976
1980
1984
1988
1992
1996
2000
2004
2008
2012
2016
2020
2024
2028
2032
2036
2040
2044
2048
2052
2056
2060
2064
2068
2072
2076
2080
2084
2088
2092
2096
2100
2104
2108
2112
2116
2120
2124
2128
2132
2136
2140
2144
2148
2152
2156
2160
2164
2168
2172
2176
2180
2184
2188
2192
2196
2200
2204
2208
2212
2216
2220
2224
2228
2232
2236
2240
2244
2248
2252
2256
2260
2264
2268
2272
2276
2280
2284
2288
2292
2296
2300
2304
2308
2312
2316
2320
2324
2328
2332
2336
2340
2344
2348
2352
2356
2360
2364
2368
2372
2376
2380
2384
2388
2392
2396
2400
2404
2408
2412
2416
2420
2424
2428
2432
2436
2440
2444
2448
2452
2456
2460
2464
2468
2472
2476
2480
2484
2488
2492
2496
2500
2504
2508
2512
2516
2520
2524
2528
2532
2536
2540
2544
2548
2552
2556
2560
2564
2568
2572
2576
2580
2584
2588
2592
2596
2600
2604
2608
2612
2616
2620
2624
2628
2632
2636
2640
2644
2648
2652
2656
2660
2664
2668
2672
2676
2680
2684
2688
2692
2696
2700
2704
2708
2712
2716
2720
2724
2728
2732
2736
2740
2744
2748
2752
2756
2760
2764
2768
2772
2776
2780
2784
2788
2792
2796
2800
2804
2808
2812
2816
2820
2824
2828
2832
2836
2840
2844
2848
2852
2856
2860
2864
2868
2872
2876
2880
2884
2888
2892
2896
2900
2904
2908
2912
2916
2920
2924
2928
2932
2936
2940
2944
2948
2952
2956
2960
2964
2968
2972
2976
2980
2984
2988
2992
2996
3000
3004
3008
3012
3016
3020
3024
3028
3032
3036
3040
3044
3048
3052
3056
3060
3064
3068
3072
3076
3080
3084
3088
3092
3096
3100
3104
3108
3112
3116
3120
3124
3128
3132
3136
3140
3144
3148
3152
3156
3160
3164
3168
3172
3176
3180
3184
3188
3192
3196
3200
3204
3208
3212
3216
3220
3224
3228
3232
3236
3240
3244
3248
3252
3256
3260
3264
3268
3272
3276
3280
3284
3288
3292
3296
3300
3304
3308
3312
3316
3320
3324
3328
3332
3336
3340
3344
3348
3352
3356
3360
3364
3368
3372
3376
3380
3384
3388
3392
3396
3400
3404
3408
3412
3416
3420
3424
3428
3432
3436
3440
3444
3448
3452
3456
3460
3464
3468
3472
3476
3480
3484
3488
3492
3496
3500
3504
3508
3512
3516
3520
3524
3528
3532
3536
3540
3544
3548
3552
3556
3560
3564
3568
3572
3576
3580
3584
3588
3592
3596
3600
3604
3608
3612
3616
3620
3624
3628
3632
3636
3640
3644
3648
3652
3656
3660
3664
3668
3672
3676
3680
3684
3688
3692
3696
3700
3704
3708
3712
3716
3720
3724
3728
3732
3736
3740
3744
3748
3752
3756
3760
3764
3768
3772
3776
3780
3784
3788
3792
3796
3800
3804
3808
3812
3816
3820
3824
3828
3832
3836
3840
3844
3848
3852
3856
3860
3864
3868
3872
3876
3880
3884
3888
3892
3896
3900
3904
3908
3912
3916
3920
3924
3928
3932
3936
3940
3944
3948
3952
3956
3960
3964
3968
3972
3976
3980
3984
3988
3992
3996
4000
4004
4008
4012
4016
4020
4024
4028
4032
4036
4040
4044
4048
4052
4056
4060
4064
4068
4072
4076
4080
4084
4088
4092
4096
4100
4104
4108
4112
4116
4120
4124
4128
4132
4136
4140
4144
4148
4152
4156
4160
4164
4168
4172
4176
4180
4184
4188
4192
4196
4200
4204
4208
4212
4216
4220
4224
4228
4232
4236
4240
4244
4248
4252
4256
4260
4264
4268
4272
4276
4280
4284
4288
4292
4296
4300
4304
4308
4312
4316
4320
4324
4328
4332
4336
4340
4344
4348
4352
4356
4360
4364
4368
4372
4376
4380
4384
4388
4392
4396
4400
4404
4408
4412
4416
4420
4424
4428
4432
4436
4440
4444
4448
4452
4456
4460
4464
4468
4472
4476
4480
4484
4488
4492
4496
4500
4504
4508
4512
4516
4520
4524
4528
4532
4536
4540
4544
4548
4552
4556
4560
4564
4568
4572
4576
4580
4584
4588
4592
4596
4600
4604
4608
4612
4616
4620
4624
4628
4632
4636
4640
4644
4648
4652
4656
4660
4664
4668
4672
4676
4680
4684
4688
4692
4696
4700
4704
4708
4712
4716
4720
4724
4728
4732
4736
4740
4744
4748
4752
4756
4760
4764
4768
4772
4776
4780
4784
4788
4792
4796
4800
4804
4808
4812
4816
4820
4824
4828
4832
4836
4840
4844
4848
4852
4856
4860
4864
4868
4872
4876
4880
4884
4888
4892
4896
4900
4904
4908
4912
4916
4920
4924
4928
4932
4936
4940
4944
4948
4952
4956
4960
4964
4968
4972
4976
4980
4984
4988
4992
4996
5000
5004
5008
5012
5016
5020
5024
5028
5032
5036
5040
5044
5048
5052
5056
5060
5064
5068
5072
5076
5080
5084
5088
5092
5096
5100
5104
5108
5112
5116
5120
5124
5128
5132
5136
5140
5144
5148
5152
5156
5160
5164
5168
5172
5176
5180
5184
5188
5192
5196
5200
5204
5208
5212
5216
5220
5224
5228
5232
5236
5240
5244
5248
5252
5256
5260
5264
5268
5272
5276
5280
5284
5288
5292
5296
5300
5304
5308
5312
5316
5320
5324
5328
5332
5336
5340
5344
5348
5352
5356
5360
5364
5368
5372
5376
5380
5384
5388
5392
5396
5400
5404
5408
5412
5416
5420
5424
5428
5432
5436
5440
5444
5448
5452
5456
5460
5464
5468
5472
5476
5480
5484
5488
5492
5496
5500
5504
5508
5512
5516
5520
5524
5528
5532
5536
5540
5544
5548
5552
5556
5560
5564
5568
5572
5576
5580
5584
5588
5592
5596
5600
5604
5608
5612
5616
5620
5624
5628
5632
5636
5640
5644
5648
5652
5656
5660
5664
5668
5672
5676
5680
5684
5688
5692
5696
5700
5704
5708
5712
5716
5720
5724
5728
5732
5736
5740
5744
5748
5752
5756
5760
5764
5768
5772
5776
5780
5784
5788
5792
5796
5800
5804
5808
5812
5816
5820
5824
5828
5832
5836
5840
5844
5848
5852
5856
5860
5864
5868
5872
5876
5880
5884
5888
5892
5896
5900
5904
5908
5912
5916
5920
5924
5928
5932
5936
5940
5944
5948
5952
5956
5960
5964
5968
5972
5976
5980
5984
5988
5992
5996
6000
6004
6008
6012
6016
6020
6024
6028
6032
6036
6040
6044
6048
6052
6056
6060
6064
6068
6072
6076
6080
6084
6088
6092
6096
6100
6104
6108
6112
6116
6120
6124
6128
6132
6136
6140
6144
6148
6152
6156
6160
6164
6168
6172
6176
6180
6184
6188
6192
6196
6200
6204
6208
6212
6216
6220
6224
6228
6232
6236
6240
6244
6248
6252
6256
6260
6264
6268
6272
6276
6280
6284
6288
6292
6296
6300
6304
6308
6312
6316
6320
6324
6328
6332
6336
6340
6344
6348
6352
6356
6360
6364
6368
6372
6376
6380
6384
6388
6392
6396
6400
6404
6408
6412
6416
6420
6424
6428
6432
6436
6440
6444
6448
6452
6456
6460
6464
6468
6472
6476
6480
6484
6488
6492
6496
6500
6504
6508
6512
6516
6520
6524
6528
6532
6536
6540
6544
6548
6552
6556
6560
6564
6568
6572
6576
6580
6584
6588
6592
6596
6600
6604
6608
6612
6616
6620
6624
6628
6632
6636
6640
6644
6648
6652
6656
6660
6664
6668
6672
6676
6680
6684
6688
6692
6696
6700
6704
6708
6712
6716
6720
6724
6728
6732
6736
6740
6744
6748
6752
6756
6760
6764
6768
6772
6776
6780
6784
6788
6792
6796
6800
6804
6808
6812
6816
6820
6824
6828
6832
6836
6840
6844
6848
6852
6856
6860
6864
6868
6872
6876
6880
6884
6888
6892
6896
6900
6904
6908
6912
6916
6920
6924
6928
6932
6936
6940
6944
6948
6952
6956
6960
6964
6968
6972
6976
6980
6984
6988
6992
6996
7000
7004
7008
7012
7016
7020
7024
7028
7032
7036
7040
7044
7048
7052
7056
7060
7064
7068
7072
7076
7080
7084
7088
7092
7096
7100
7104
7108
7112
7116
7120
7124
7128
7132
7136
7140
7144
7148
7152
7156
7160
7164
7168
7172
7176
7180
7184
7188
7192
7196
7200
7204
7208
7212
7216
7220
7224
7228
7232
7236
7240
7244
7248
7252
7256
7260
7264
7268
7272
7276
7280
7284
7288
7292
7296
7300
7304
7308
7312
7316
7320
7324
7328
7332
7336
7340
7344
7348
7352
7356
7360
7364
7368
7372
7376
7380
7384
7388
7392
7396
7400
7404
7408
7412
7416
7420
7424
7428
7432
7436
7440
7444
7448
7452
7456
7460
7464
7468
7472
7476
7480
7484
7488
7492
7496
7500
7504
7508
7512
7516
7520
7524
7528
7532
7536
7540
7544
7548
7552
7556
7560
7564
7568
7572
7576
7580
7584
7588
7592
7596
7600
7604
7608
7612
7616
7620
7624
7628
7632
7636
7640
7644
7648
7652
7656
7660
7664
7668
7672
7676
7680
7684
7688
7692
7696
7700
7704
7708
7712
7716
7720
7724
7728
7732
7736
7740
7744
7748
7752
7756
7760
7764
7768
7772
7776
7780
7784
7788
7792
7796
7800
7804
7808
7812
7816
7820
7824
7828
7832
7836
7840
7844
7848
7852
7856
7860
7864
7868
7872
7876
7880
7884
7888
7892
7896
7900
7904
7908
7912
7916
7920
7924
7928
7932
7936
7940
7944
7948
7952
7956
7960
7964
7968
7972
7976
7980
7984
7988
7992
7996
8000
8004
8008
8012
8016
8020
8024
8028
8032
8036
8040
8044
8048
8052
8056
8060
8064
8068
8072
8076
8080
8084
8088
8092
8096
8100
8104
8108
8112
8116
8120
8124
8128
8132
8136
8140
8144
8148
8152
8156
8160
8164
8168
8172
8176
8180
8184
8188
8192
8196
8200
8204
8208
8212
8216
8220
8224
8228
8232
8236
8240
8244
8248
8252
8256
8260
8264
8268
8272
8276
8280
8284
8288
8292
8296
8300
8304
8308
8312
8316
8320
8324
8328
8332
8336
8340
8344
8348
8352
8356
8360
8364
8368
8372
8376
8380
8384
8388
8392
8396
8400
8404
8408
8412
8416
8420
8424
8428
8432
8436
8440
8444
8448
8452
8456
8460
8464
8468
8472
8476
8480
8484
8488
8492
8496
8500
8504
8508
8512
8516
8520
8524
8528
8532
8536
8540
8544
8548
8552
8556
8560
8564
8568
8572
8576
8580
8584
8588
8592
8596
8600
8604
8608
8612
8616
8620
8624
8628
8632
8636
8640
8644
8648
8652
8656
8660
8664
8668
8672
8676
8680
8684
8688
8692
8696
8700
8704
8708
8712
8716
8720
8724
8728
8732
8736
8740
8744
8748
8752
8756
8760
8764
8768
8772
8776
8780
8784
8788
8792
8796
8800
8804
8808
8812
8816
8820
8824
8828
8832
8836
8840
8844
8848
8852
8856
8860
8864
8868
8872
8876
8880
8884
8888
8892
8896
8900
8904
8908
8912
8916
8920
8924
8928
8932
8936
8940
8944
8948
8952
8956
8960
8964
8968
8972
8976
8980
8984
8988
8992
8996
9000
9004
9008
9012
9016
9020
9024
9028
9032
9036
9040
9044
9048
9052
9056
9060
9064
9068
9072
9076
9080
9084
9088
9092
9096
9100
9104
9108
9112
9116
9120
9124
9128
9132
9136
9140
9144
9148
9152
9156
9160
9164
9168
9172
9176
9180
9184
9188
9192
9196
9200
9204
9208
9212
9216
9220
9224
9228
9232
9236
9240
9244
9248
9252
9256
9260
9264
9268
9272
9276
9280
9284
9288
9292
9296
9300
9304
9308
9312
9316
9320
9324
9328
9332
9336
9340
9344
9348
9352
9356
9360
9364
9368
9372
9376
9380
9384
9388
9392
9396
9400
9404
9408
9412
9416
9420
9424
9428
9432
9436
9440
9444
9448
9452
9456
9460
9464
9468
9472
9476
9480
9484
9488
9492
9496
9500
9504
9508
9512
9516
9520
9524
9528
9532
9536
9540
9544
9548
9552
9556
9560
9564
9568
9572
9576
9580
9584
9588
9592
9596
9600
9604
9608
9612
9616
9620
9624
9628
9632
9636
9640
9644
9648
9652
9656
9660
9664
9668
9672
9676
9680
9684
9688
9692
9696
9700
9704
9708
9712
9716
9720
9724
9728
9732
9736
9740
9744
9748
9752
9756
9760
9764
9768
9772
9776
9780
9784
9788
9792
9796
9800
9804
9808
9812
9816
9820
9824
9828
9832
9836
9840
9844
9848
9852
9856
9860
9864
9868
9872
9876
9880
9884
9888
9892
9896
9900
9904
9908
9912
9916
9920
9924
9928
9932
9936
9940
9944
9948
9952
9956
9960
9964
9968
9972
9976
9980
9984
9988
9992
9996
10000
10004
10008
10012
10016
10020
10024
10028
10032
10036
10040
10044
10048
10052
10056
10060
10064
10068
10072
10076
10080
10084
10088
10092
10096
10100
10104
10108
10112
10116
10120
10124
10128
10132
10136
10140
10144
10148
10152
10156
10160
10164
10168
10172
10176
10180
10184
10188
10192
10196
10200
10204
10208
10212
10216
10220
10224
10228
10232
10236
10240
10244
10248
10252
10256
10260
10264
10268
10272
10276
10280
10284
10288
10292
10296
10300
10304
10308
10312
10316
10320
10324
10328
10332
10336
10340
10344
10348
10352
10356
10360
10364
10368
10372
10376
10380
10384
10388
10392
10396
10400
10404
10408
10412
10416
10420
10424
10428
10432
10436
10440
10444
10448
10452
10456
10460
10464
10468
10472
10476
10480
10484
10488
10492
10496
10500
10504
10508
10512
10516
10520
10524
10528
10532
10536
10540
10544
10548
10552
10556
10560
10564
10568
10572
10576
10580
10584
10588
10592
10596
10600
10604
10608
10612
10616
10620
10624
10628
10632
10636
10640
10644
10648
10652
10656
10660
10664
10668
10672
10676
10680
10684
10688
10692
10696
10700
10704
10708
10712
10716
10720
10724
10728
10732
10736
10740
10744
10748
10752
10756
10760
10764
10768
10772
10776
10780
10784
10788
10792
10796
10800
10804
10808
10812
10816
10820
10824
10828
10832
10836
10840
10844
10848
10852
10856
10860
10864
10868
10872
10876
10880
10884
10888
10892
10896
10900
10904
10908
10912
10916
10920
10924
10928
10932
10936
10940
10944
10948
10952
10956
10960
10964
10968
10972
10976
10980
10984
10988
10992
10996
11000
11004
11008
11012
11016
11020
11024
11028
11032
11036
11040
11044
11048
11052
11056
11060
11064
11068
11072
11076
11080
11084
11088
11092
11096
11100
11104
11108
11112
11116
11120
11124
11128
11132
11136
11140
11144
11148
11152
11156
11160
11164
11168
11172
11176
11180
11184
11188
11192
11196
11200
11204
11208
11212
11216
11220
11224
11228
11232
11236
11240
11244
11248
11252
11256
11260
11264
11268
11272
11276
11280
11284
11288
11292
11296
11300
11304
11308
11312
11316
11320
11324
11328
11332
11336
11340
11344
11348
11352
11356
11360
11364
11368
11372
11376
11380
11384
11388
11392
11396
11400
11404
11408
11412
11416
11420
11424
11428
11432
11436
11440
11444
11448
11452
11456
11460
11464
11468
11472
11476
11480
11484
11488
11492
11496
11500
11504
11508
11512
11516
11520
11524
11528
11532
11536
11540
11544
11548
11552
11556
11560
11564
11568
11572
11576
11580
11584
11588
11592
11596
11600
11604
11608
11612
11616
11620
11624
11628
11632
11636
11640
11644
11648
11652
11656
11660
11664
11668
11672
11676
11680
11684
11688
11692
11696
11700
11704
11708
11712
11716
11720
11724
11728
11732
11736
11740
11744
11748
11752
11756
11760
11764
11768
11772
11776
11780
11784
11788
11792
11796
11800
11804
11808
11812
11816
11820
11824
11828
11832
11836
11840
11844
11848
11852
11856
11860
11864
11868
11872
11876
11880
11884
11888
11892
11896
11900
11904
11908
11912
11916
11920
11924
11928
11932
11936
11940
11944
11948
11952
11956
11960
11964
11968
11972
11976
11980
11984
11988
11992
11996
12000
12004
12008
12012
12016
12020
12024
12028
12032
12036
12040
12044
12048
12052
12056
12060
12064
12068
12072
12076
12080
12084
12088
12092
12096
12100
12104
12108
12112
12116
12120
12124
12128
12132
12136
12140
12144
12148
12152
12156
12160
12164
12168
12172
12176
12180
12184
12188
12192
12196
12200
12204
12208
12212
12216
12220
12224
12228
12232
12236
12240
12244
12248
12252
12256
12260
12264
12268
12272
12276
12280
12284
12288
12292
12296
12300
12304
12308
12312
12316
12320
12324
12328
12332
12336
12340
12344
12348
12352
12356
12360
12364
12368
12372
12376
12380
12384
12388
12392
12396
12400
12404
12408
12412
12416
12420
12424
12428
12432
12436
12440
12444
12448
12452
12456
12460
12464
12468
12472
12476
12480
12484
12488
12492
12496
12500
12504
12508
12512
12516
12520
12524
12528
12532
12536
12540
12544
12548
12552
12556
12560
12564
12568
12572
12576
12580
12584
12588
12592
12596
12600
12604
12608
12612
12616
12620
12624
12628
12632
12636
12640
12644
12648
12652
12656
12660
12664
12668
12672
12676
12680
12684
12688
12692
12696
12700
12704
12708
12712
12716
12720
12724
12728
12732
12736
12740
12744
12748
12752
12756
12760
12764
12768
12772
12776
12780
12784
12788
12792
12796
12800
12804
12808
12812
12816
12820
12824
12828
12832
12836
12840
12844
12848
12852
12856
12860
12864
12868
12872
12876
12880
12884
12888
12892
12896
12900
12904
12908
12912
12916
12920
12924
12928
12932
12936
12940
12944
12948
12952
12956
12960
12964
12968
12972
12976
12980
12984
12988
12992
12996
13000
13004
13008
13012
13016
13020
13024
13028
13032
13036
13040
13044
13048
13052
13056
13060
13064
13068
13072
13076
13080
13084
13088
13092
13096
13100
13104
13108
13112
13116
13120
13124
13128
13132
13136
13140
13144
13148
13152
13156
13160
13164
13168
13172
13176
13180
13184
13188
13192
13196
13200
13204
13208
13212
13216
13220
13224
13228
13232
13236
13240
13244
13248
13252
13256
13260
13264
13268
13272
13276
13280
13284
13288
13292
13296
13300
13304
13308
13312
13316
13320
13324
13328
13332
13336
13340
13344
13348
13352
13356
13360
13364
13368
13372
13376
13380
13384
13388
13392
13396
13400
13404
13408
13412
13416
13420
13424
13428
13432
13436
13440
13444
13448
13452
13456
13460
13464
13468
13472
13476
13480
13484
13488
13492
13496
13500
13504
13508
13512
13516
13520
13524
13528
13532
13536
13540
13544
13548
13552
13556
13560
13564
13568
13572
13576
13580
13584
13588
13592
13596
13600
13604
13608
13612
13616
13620
13624
13628
13632
13636
13640
13644
13648
13652
13656
13660
13664
13668
13672
13676
13680
13684
13688
13692
13696
13700
13704
13708
13712
13716
13720
13724
13728
13732
13736
13740
13744
13748
13752
13756
13760
13764
13768
13772
13776
13780
13784
13788
13792
13796
13800
13804
13808
13812
13816
13820
13824
13828
13832
13836
13840
13844
13848
13852
13856
13860
13864
13868
13872
13876
13880
13884
13888
13892
13896
13900
13904
13908
13912
13916
13920
13924
13928
13932
13936
13940
13944
13948
13952
13956
13960
13964
13968
13972
13976
13980
13984
13988
13992
13996
14000
14004
14008
14012
14016
14020
14024
14028
14032
14036
14040
14044
14048
14052
14056
14060
14064
14068
14072
14076
14080
14084
14088
14092
14096
14100
14104
14108
14112
14116
14120
14124
14128
14132
14136
14140
14144
14148
14152
14156
14160
14164
14168
14172
14176
14180
14184
14188
14192
14196
14200
14204
14208
14212
14216
14220
14224
14228
14232
14236
14240
14244
14248
14252
14256
14260
14264
14268
14272
14276
14280
14284
14288
14292
14296
14300
14304
14308
14312
14316
14320
14324
14328
14332
14336
14340
14344
14348
14352
14356
14360
14364
14368
14372
14376
14380
14384
14388
14392
14396
14400
14404
14408
14412
14416
14420
14424
14428
14432
14436
14440
14444
14448
14452
14456
14460
14464
14468
14472
14476
14480
14484
14488
14492
14496
14500
14504
14508
14512
14516
14520
14524
14528
14532
14536
14540
14544
14548
14552
14556
14560
14564
14568
14572
14576
14580
14584
14588
14592
14596
14600
14604
14608
14612
14616
14620
14624
14628
14632
14636
14640
14644
14648
14652
14656
14660
14664
14668
14672
14676
14680
14684
14688
14692
14696
14700
14704
14708
14712
14716
14720
14724
14728
14732
14736
14740
14744
14748
14752
14756
14760
14764
14768
14772
14776
14780
14784
14788
14792
14796
14800
14804
14808
14812
14816
14820
14824
14828
14832
14836
14840
14844
14848
14852
14856
14860
14864
14868
14872
14876
14880
14884
14888
14892
14896
14900
14904
14908
14912
14916
14920
14924
14928
14932
14936
14940
14944
14948
14952
14956
14960
14964
14968
14972
14976
14980
14984
14988
14992
14996
15000
15004
15008
15012
15016
15020
15024
15028
15032
15036
15040
15044
15048
15052
15056
15060
15064
15068
15072
15076
15080
15084
15088
15092
15096
15100
15104
15108
15112
15116
15120
15124
15128
15132
15136
15140
15144
15148
15152
15156
15160
15164
15168
15172
15176
15180
15184
15188
15192
15196
15200
15204
15208
15212
15216
15220
15224
15228
15232
15236
15240
15244
15248
15252
15256
15260
15264
15268
15272
15276
15280
15284
15288
15292
15296
15300
15304
15308
15312
15316
15320
15324
15328
15332
15336
15340
15344
15348
15352
15356
15360
15364
15368
15372
15376
15380
15384
15388
15392
15396
15400
15404
15408
15412
15416
15420
15424
15428
15432
15436
15440
15444
15448
15452
15456
15460
15464
15468
15472
15476
15480
15484
15488
15492
15496
15500
15504
15508
15512
15516
15520
15524
15528
15532
15536
15540
15544
15548
15552
15556
15560
15564
15568
15572
15576
15580
15584
15588
15592
15596
15600
15604
15608
15612
15616
15620
15624
15628
15632
15636
15640
15644
15648
15652
15656
15660
15664
15668
15672
15676
15680
15684
15688
15692
15696
15700
15704
15708
15712
15716
15720
15724
15728
15732
15736
15740
15744
15748
15752
15756
15760
15764
15768
15772
15776
15780
15784
15788
15792
15796
15800
15804
15808
15812
15816
15820
15824
15828
15832
15836
15840
15844
15848
15852
15856
15860
15864
15868
15872
15876
15880
15884
15888
15892
15896
15900
15904
15908
15912
15916
15920
15924
15928
15932
15936
15940
15944
15948
15952
15956
15960
15964
15968
15972
15976
15980
15984
15988
15992
15996
16000
16004
16008
16012
16016
16020
16024
16028
16032
16036
16040
16044
16048
16052
16056
16060
16064
16068
16072
16076
16080
16084
16088
16092
16096
16100
16104
16108
16112
16116
16120
16124
16128
16132
16136
16140
16144
16148
16152
16156
16160
16164
16168
16172
16176
16180
16184
16188
16192
16196
16200
16204
16208
16212
16216
16220
16224
16228
16232
16236
16240
16244
16248
16252
16256
16260
16264
16268
16272
16276
16280
16284
16288
16292
16296
16300
16304
16308
16312
16316
16320
16324
16328
16332
16336
16340
16344
16348
16352
16356
16360
16364
16368
16372
16376
16380
16384
16388
16392
16396
16400
16404
16408
16412
16416
16420
16424
16428
16432
16436
16440
16444
16448
16452
16456
16460
16464
16468
16472
16476
16480
16484
16488
16492
16496
16500
16504
16508
16512
16516
16520
16524
16528
16532
16536
16540
16544
16548
16552
16556
16560
16564
16568
16572
16576
16580
16584
16588
16592
16596
16600
16604
16608
16612
16616
16620
16624
16628
16632
16636
16640
16644
16648
16652
16656
16660
16664
16668
16672
16676
16680
16684
16688
16692
16696
16700
16704
16708
16712
16716
16720
16724
16728
16732
16736
16740
16744
16748
16752
16756
16760
16764
16768
16772
16776
16780
16784
16788
16792
16796
16800
16804
16808
16812
16816
16820
16824
16828
16832
16836
16840
16844
16848
16852
16856
16860
16864
16868
16872
16876
16880
16884
16888
16892
16896
16900
16904
16908
16912
16916
16920
16924
16928
16932
16936
16940
16944
16948
16952
16956
16960
16964
16968
16972
16976
16980
16984
16988
16992
16996
17000
17004
17008
17012
17016
17020
17024
17028
17032
17036
17040
17044
17048
17052
17056
17060
17064
17068
17072
17076
17080
17084
17088
17092
17096
17100
17104
17108
17112
17116
17120
17124
17128
17132
17136
17140
17144
17148
17152
17156
17160
17164
17168
17172
17176
17180
17184
17188
17192
17196
17200
17204
17208
17212
17216
17220
17224
17228
17232
17236
17240
17244
17248
17252
17256
17260
17264
17268
17272
17276
17280
17284
17288
17292
17296
17300
17304
17308
17312
17316
17320
17324
17328
17332
17336
17340
17344
17348
17352
17356
17360
17364
17368
17372
17376
17380
17384
17388
17392
17396
17400
17404
17408
17412
17416
17420
17424
17428
17432
17436
17440
17444
17448
17452
17456
17460
17464
17468
17472
17476
17480
17484
17488
17492
17496
17500
17504
17508
17512
17516
17520
17524
17528
17532
17536
17540
17544
17548
17552
17556
17560
17564
17568
17572
17576
17580
17584
17588
17592
17596
17600
17604
17608
17612
17616
17620
17624
17628
17632
17636
17640
17644
17648
17652
17656
17660
17664
17668
17672
17676
17680
17684
17688
17692
17696
17700
17704
17708
17712
17716
17720
17724
17728
17732
17736
17740
17744
17748
17752
17756
17760
17764
17768
17772
17776
17780
17784
17788
17792
17796
17800
17804
17808
17812
17816
17820
17824
17828
17832
17836
17840
17844
17848
17852
17856
17860
17864
17868
17872
17876
17880
17884
17888
17892
17896
17900
17904
17908
17912
17916
17920
17924
17928
17932
17936
17940
17944
17948
17952
17956
17960
17964
17968
17972
17976
17980
17984
17988
17992
17996
18000
18004
18008
18012
18016
18020
18024
18028
18032
18036
18040
18044
18048
18052
18056
18060
18064
18068
18072
18076
18080
18084
18088
18092
18096
18100
18104
18108
18112
18116
18120
18124
18128
18132
18136
18140
18144
18148
18152
18156
18160
18164
18168
18172
18176
18180
18184
18188
18192
18196
18200
18204
18208
18212
18216
18220
18224
18228
18232
18236
18240
18244
18248
18252
18256
18260
18264
18268
18272
18276
18280
18284
18288
18292
18296
18300
18304
18308
18312
18316
18320
18324
18328
18332
18336
18340
18344
18348
18352
18356
18360
18364
18368
18372
18376
18380
18384
18388
18392
18396
18400
18404
18408
18412
18416
18420
18424
18428
18432
18436
18440
18444
18448
18452
18456
18460
18464
18468
18472
18476
18480
18484
18488
18492
18496
18500
18504
18508
18512
18516
18520
18524
18528
18532
18536
18540
18544
18548
18552
18556
18560
18564
18568
18572
18576
18580
18584
18588
18592
18596
18600
18604
18608
18612
18616
18620
18624
18628
18632
18636
18640
18644
18648
18652
18656
18660
18664
18668
18672
18676
18680
18684
18688
18692
18696
18700
18704
18708
18712
18716
18720
18724
18728
18732
18736
18740
18744
18748
18752
18756
18760
18764
18768
18772
18776
18780
18784
18788
18792
18796
18800
18804
18808
18812
18816
18820
18824
18828
18832
18836
18840
18844
18848
18852
18856
18860
18864
18868
18872
18876
18880
18884
18888
18892
18896
18900
18904
18908
18912
18916
18920
18924
18928
18932
18936
18940
18944
18948
18952
18956
18960
18964
18968
18972
18976
18980
18984
18988
18992
18996
19000
19004
19008
19012
19016
19020
19024
19028
19032
19036
19040
19044
19048
19052
19056
19060
19064
19068
19072
19076
19080
19084
19088
19092
19096
19100
19104
19108
19112
19116
19120
19124
19128
19132
19136
19140
19144
19148
19152
19156
19160
19164
19168
19172
19176
19180
19184
19188
19192
19196
19200
19204
19208
19212
19216
19220
19224
19228
19232
19236
19240
19244
19248
19252
19256
19260
19264
19268
19272
19276
19280
19284
19288
19292
19296
19300
19304
19308
19312
19316
19320
19324
19328
19332
19336
19340
19344
19348
19352
19356
19360
19364
19368
19372
19376
19380
19384
19388
19392
19396
19400
19404
19408
19412
19416
19420
19424
19428
19432
19436
19440
19444
19448
19452
19456
19460
19464
19468
19472
19476
19480
19484
19488
19492
19496
19500
19504
19508
19512
19516
19520
19524
19528
19532
19536
19540
19544
19548
19552
19556
19560
19564
19568
19572
19576
19580
19584
19588
19592
19596
19600
19604
19608
19612
19616
19620
19624
19628
19632
19636
19640
19644
19648
19652
19656
19660
19664
19668
19672
19676
19680
19684
19688
19692
19696
19700
19704
19708
19712
19716
19720
19724
19728
19732
19736
19740
19744
19748
19752
19756
19760
19764
19768
19772
19776
19780
19784
19788
19792
19796
19800
19804
19808
19812
19816
19820
19824
19828
19832
19836
19840
19844
19848
19852
19856
19860
19864
19868
19872
19876
19880
19884
19888
19892
19896
19900
19904
19908
19912
19916
19920
19924
19928
19932
19936
19940
19944
19948
19952
19956
19960
19964
19968
19972
19976
19980
19984
19988
19992
19996
20000
20004
20008
20012
20016
20020
20024
20028
20032
20036
20040
20044
20048
20052
20056
20060
20064
20068
20072
20076
20080
20084
20088
20092
20096
20100
20104
20108
20112
20116
20120
20124
20128
20132
20136
20140
20144
20148
20152
20156
20160
20164
20168
20172
20176
20180
20184
20188
20192
20196
20200
20204
20208
20212
20216
20220
20224
20228
20232
20236
20240
20244
20248
20252
20256
20260
20264
20268
20272
20276
20280
20284
20288
20292
20296
20300
20304
20308
20312
20316
20320
20324
20328
20332
20336
20340
20344
20348
20352
20356
20360
20364
20368
20372
20376
20380
20384
20388
20392
20396
20400
20404
20408
20412
20416
20420
20424
20428
20432
20436
20440
20444
20448
20452
20456
20460
20464
20468
20472
20476
20480
20484
20488
20492
20496
20500
20504
20508
20512
20516
20520
20524
20528
20532
20536
20540
20544
20548
20552
20556
20560
20564
20568
20572
20576
20580
20584
20588
20592
20596
20600
20604
20608
20612
20616
20620
20624
20628
20632
20636
20640
20644
20648
20652
20656
20660
20664
20668
20672
20676
20680
20684
20688
20692
20696
20700
20704
20708
20712
20716
20720
20724
20728
20732
20736
20740
20744
20748
20752
20756
20760
20764
20768
20772
20776
20780
20784
20788
20792
20796
20800
20804
20808
20812
20816
20820
20824
20828
20832
20836
20840
20844
20848
20852
20856
20860
20864
20868
20872
20876
20880
20884
20888
20892
20896
20900
20904
20908
20912
20916
20920
20924
20928
20932
20936
20940
20944
20948
20952
20956
20960
20964
20968
20972
20976
20980
20984
20988
20992
20996
21000
21004
21008
21012
21016
21020
21024
21028
21032
21036
21040
21044
21048
21052
21056
21060
21064
21068
21072
21076
21080
21084
21088
21092
21096
21100
21104
21108
21112
21116
21120
21124
21128
21132
21136
21140
21144
21148
21152
21156
21160
21164
21168
21172
21176
21180
21184
21188
21192
21196
21200
21204
21208
21212
21216
21220
21224
21228
21232
21236
21240
21244
21248
21252
21256
21260
21264
21268
21272
21276
21280
21284
21288
21292
21296
21300
21304
21308
21312
21316
21320
21324
21328
21332
21336
21340
21344
21348
21352
21356
21360
21364
21368
21372
21376
21380
21384
21388
21392
21396
21400
21404
21408
21412
21416
21420
21424
21428
21432
21436
21440
21444
21448
21452
21456
21460
21464
21468
21472
21476
21480
21484
21488
21492
21496
21500
21504
21508
21512
21516
21520
21524
21528
21532
21536
21540
21544
21548
21552
21556
21560
21564
21568
21572
21576
21580
21584
21588
21592
21596
21600
21604
21608
21612
21616
21620
21624
21628
21632
21636
21640
21644
21648
21652
21656
21660
21664
21668
21672
21676
21680
21684
21688
21692
21696
21700
21704
21708
21712
21716
21720
21724
21728
21732
21736
21740
21744
21748
21752
21756
21760
21764
21768
21772
21776
21780
21784
21788
21792
21796
21800
21804
21808
21812
21816
21820
21824
21828
21832
21836
21840
21844
21848
21852
21856
21860
21864
21868
21872
21876
21880
21884
21888
21892
21896
21900
21904
21908
21912
21916
21920
21924
21928
21932
21936
21940
21944
21948
21952
21956
21960
21964
21968
21972
21976
21980
21984
21988
21992
21996
22000
22004
22008
22012
22016
22020
22024
22028
22032
22036
22040
22044
22048
22052
22056
22060
22064
22068
22072
22076
22080
22084
22088
22092
22096
22100
22104
22108
22112
22116
22120
22124
22128
22132
22136
22140
22144
22148
22152
22156
22160
22164
22168
22172
22176
22180
22184
22188
22192
22196
22200
22204
22208
22212
22216
22220
22224
22228
22232
22236
22240
22244
22248
22252
22256
22260
22264
22268
22272
22276
22280
22284
22288
22292
22296
22300
22304
22308
22312
22316
22320
22324
22328
22332
22336
22340
22344
22348
22352
22356
22360
22364
22368
22372
22376
22380
22384
22388
22392
22396
22400
22404
22408
22412
22416
22420
22424
22428
22432
22436
22440
22444
22448
22452
22456
22460
22464
22468
22472
22476
22480
22484
22488
22492
22496
22500
22504
22508
22512
22516
22520
22524
22528
22532
22536
22540
22544
22548
22552
22556
22560
22564
22568
22572
22576
22580
22584
22588
22592
22596
22600
22604
22608
22612
22616
22620
22624
22628
22632
22636
22640
22644
22648
22652
22656
22660
22664
22668
22672
22676
22680
22684
22688
22692
22696
22700
22704
22708
22712
22716
22720
</DataArray>
<DataArray type="Int64" Name="types" format="ascii">
9
9
9
9
9
9
9
9
9
9
9
9
9
9
9
9
9
9
9
9
9
9
9
9
9
9
9
9
9
9
9
9
9
9
9
9
9
9
9
9
9
9
9
9
9
9
9
9
9
9
9
9
9
9
9
9
9
9
9
9
9
9
9
9
9
9
9
9
9
9
9
9
9
9
9
9
9
9
9
9
9
9
9
9
9
9
9
9
9
9
9
9
9
9
9
9
9
9
9
9
9
9
9
9
9
9
9
9
9
9
9
9
9
9
9
9
9
9
9
9
9
9
9
9
9
9
9
9
9
9
9
9
9
9
9
9
9
9
9
9
9
9
9
9
9
9
9
9
9
9
9
9
9
9
9
9
9
9
9
9
9
9
9
9
9
9
9
9
9
9
9
9
9
9
9
9
9
9
9
9
9
9
9
9
9
9
9
9
9
9
9
9
9
9
9
9
9
9
9
9
9
9
9
9
9
9
9
9
9
9
9
9
9
9
9
9
9
9
9
9
9
9
9
9
9
9
9
9
9
9
9
9
9
9
9
9
9
9
9
9
9
9
9
9
9
9
9
9
9
9
9
9
9
9
9
9
9
9
9
9
9
9
9
9
9
9
9
9
9
9
9
9
9
9
9
9
9
9
9
9
9
9
9
9
9
9
9
9
9
9
9
9
9
9
9
9
9
9
9
9
9
9
9
9
9
9
9
9
9
9
9
9
9
9
9
9
9
9
9
9
9
9
9
9
9
9
9
9
9
9
9
9
9
9
9
9
9
9
9
9
9
9
9
9
9
9
9
9
9
9
9
9
9
9
9
9
9
9
9
9
9
9
9
9
9
9
9
9
9
9
9
9
9
9
9
9
9
9
9
9
9
9
9
9
9
9
9
9
9
9
9
9
9
9
9
9
9
9
9
9
9
9
9
9
9
9
9
9
9
9
9
9
9
9
9
9
9
9
9
9
9
9
9
9
9
9
9
9
9
9
9
9
9
9
9
9
9
9
9
9
9
9
9
9
9
9
9
9
9
9
9
9
9
9
9
9
9
9
9
9
9
9
9
9
9
9
9
9
9
9
9
9
9
9
9
9
9
9
9
9
9
9
9
9
9
9
9
9
9
9
9
9
9
9
9
9
9
9
9
9
9
9
9
9
9
9
9
9
9
9
9
9
9
9
9
9
9
9
9
9
9
9
9
9
9
9
9
9
9
9
9
9
9
9
9
9
9
9
9
9
9
9
9
9
9
9
9
9
9
9
9
9
9
9
9
9
9
9
9
9
9
9
9
9
9
9
9
9
9
9
9
9
9
9
9
9
9
9
9
9
9
9
9
9
9
9
9
9
9
9
9
9
9
9
9
9
9
9
9
9
9
9
9
9
9
9
9
9
9
9
9
9
9
9
9
9
9
9
9
9
9
9
9
9
9
9
9
9
9
9
9
9
9
9
9
9
9
9
9
9
9
9
9
9
9
9
9
9
9
9
9
9
9
9
9
9
9
9
9
9
9
9
9
9
9
9
9
9
9
9
9
9
9
9
9
9
9
9
9
9
9
9
9
9
9
9
9
9
9
9
9
9
9
9
9
9
9
9
9
9
9
9
9
9
9
9
9
9
9
9
9
9
9
9
9
9
9
9
9
9
9
9
9
9
9
9
9
9
9
9
9
9
9
9
9
9
9
9
9
9
9
9
9
9
9
9
9
9
9
9
9
9
9
9
9
9
9
9
9
9
9
9
9
9
9
9
9
9
9
9
9
9
9
9
9
9
9
9
9
9
9
9
9
9
9
9
9
9
9
9
9
9
9
9
9
9
9
9
9
9
9
9
9
9
9
9
9
9
9
9
9
9
9
9
9
9
9
9
9
9
9
9
9
9
9
9
9
9
9
9
9
9
9
9
9
9
9
9
9
9
9
9
9
9
9
9
9
9
9
9
9
9
9
9
9
9
9
9
9
9
9
9
9
9
9
9
9
9
9
9
9
9
9
9
9
9
9
9
9
9
9
9
9
9
9
9
9
9
9
9
9
9
9
9
9
9
9
9
9
9
9
9
9
9
9
9
9
9
9
9
9
9
9
9
9
9
9
9
9
9
9
9
9
9
9
9
9
9
9
9
9
9
9
9
9
9
9
9
9
9
9
9
9
9
9
9
9
9
9
9
9
9
9
9
9
9
9
9
9
9
9
9
9
9
9
9
9
9
9
9
9
9
9
9
9
9
9
9
9
9
9
9
9
9
9
9
9
9
9
9
9
9
9
9
9
9
9
9
9
9
9
9
9
9
9
9
9
9
9
9
9
9
9
9
9
9
9
9
9
9
9
9
9
9
9
9
9
9
9
9
9
9
9
9
9
9
9
9
9
9
9
9
9
9
9
9
9
9
9
9
9
9
9
9
9
9
9
9
9
9
9
9
9
9
9
9
9
9
9
9
9
9
9
9
9
9
9
9
9
9
9
9
9
9
9
9
9
9
9
9
9
9
9
9
9
9
9
9
9
9
9
9
9
9
9
9
9
9
9
9
9
9
9
9
9
9
9
9
9
9
9
9
9
9
9
9
9
9
9
9
9
9
9
9
9
9
9
9
9
9
9
9
9
9
9
9
9
9
9
9
9
9
9
9
9
9
9
9
9
9
9
9
9
9
9
9
9
9
9
9
9
9
9
9
9
9
9
9
9
9
9
9
9
9
9
9
9
9
9
9
9
9
9
9
9
9
9
9
9
9
9
9
9
9
9
9
9
9
9
9
9
9
9
9
9
9
9
9
9
9
9
9
9
9
9
9
9
9
9
9
9
9
9
9
9
9
9
9
9
9
9
9
9
9
9
9
9
9
9
9
9
9
9
9
9
9
9
9
9
9
9
9
9
9
9
9
9
9
9
9
9
9
9
9
9
9
9
9
9
9
9
9
9
9
9
9
9
9
9
9
9
9
9
9
9
9
9
9
9
9
9
9
9
9
9
9
9
9
9
9
9
9
9
9
9
9
9
9
9
9
9
9
9
9
9
9
9
9
9
9
9
9
9
9
9
9
9
9
9
9
9
9
9
9
9
9
9
9
9
9
9
9
9
9
9
9
9
9
9
9
9
9
9
9
9
9
9
9
9
9
9
9
9
9
9
9
9
9
9
9
9
9
9
9
9
9
9
9
9
9
9
9
9
9
9
9
9
9
9
9
9
9
9
9
9
9
9
9
9
9
9
9
9
9
9
9
9
9
9
9
9
9
9
9
9
9
9
9
9
9
9
9
9
9
9
9
9
9
9
9
9
9
9
9
9
9
9
9
9
9
9
9
9
9
9
9
9
9
9
9
9
9
9
9
9
9
9
9
9
9
9
9
9
9
9
9
9
9
9
9
9
9
9
9
9
9
9
9
9
9
9
9
9
9
9
9
9
9
9
9
9
9
9
9
9
9
9
9
9
9
9
9
9
9
9
9
9
9
9
9
9
9
9
9
9
9
9
9
9
9
9
9
9
9
9
9
9
9
9
9
9
9
9
9
9
9
9
9
9
9
9
9
9
9
9
9
9
9
9
9
9
9
9
9
9
9
9
9
9
9
9
9
9
9
9
9
9
9
9
9
9
9
9
9
9
9
9
9
9
9
9
9
9
9
9
9
9
9
9
9
9
9
9
9
9
9
9
9
9
9
9
9
9
9
9
9
9
9
9
9
9
9
9
9
9
9
9
9
9
9
9
9
9
9
9
9
9
9
9
9
9
9
9
9
9
9
9
9
9
9
9
9
9
9
9
9
9
9
9
9
9
9
9
9
9
9
9
9
9
9
9
9
9
9
9
9
9
9
9
9
9
9
9
9
9
9
9
9
9
9
9
9
9
9
9
9
9
9
9
9
9
9
9
9
9
9
9
9
9
9
9
9
9
9
9
9
9
9
9
9
9
9
9
9
9
9
9
9
9
9
9
9
9
9
9
9
9
9
9
9
9
9
9
9
9
9
9
9
9
9
9
9
9
9
9
9
9
9
9
9
9
9
9
9
9
9
9
9
9
9
9
9
9
9
9
9
9
9
9
9
9
9
9
9
9
9
9
9
9
9
9
9
9
9
9
9
9
9
9
9
9
9
9
9
9
9
9
9
9
9
9
9
9
9
9
9
9
9
9
9
9
9
9
9
9
9
9
9
9
9
9
9
9
9
9
9
9
9
9
9
9
9
9
9
9
9
9
9
9
9
9
9
9
9
9
9
9
9
9
9
9
9
9
9
9
9
9
9
9
9
9
9
9
9
9
9
9
9
9
9
9
9
9
9
9
9
9
9
9
9
9
9
9
9
9
9
9
9
9
9
9
9
9
9
9
9
9
9
9
9
9
9
9
9
9
9
9
9
9
9
9
9
9
9
9
9
9
9
9
9
9
9
9
9
9
9
9
9
9
9
9
9
9
9
9
9
9
9
9
9
9
9
9
9
9
9
9
9
9
9
9
9
9
9
9
9
9
9
9
9
9
9
9
9
9
9
9
9
9
9
9
9
9
9
9
9
9
9
9
9
9
9
9
9
9
9
9
9
9
9
9
9
9
9
9
9
9
9
9
9
9
9
9
9
9
9
9
9
9
9
9
9
9
9
9
9
9
9
9
9
9
9
9
9
9
9
9
9
9
9
9
9
9
9
9
9
9
9
9
9
9
9
9
9
9
9
9
9
9
9
9
9
9
9
9
9
9
9
9
9
9
9
9
9
9
9
9
9
9
9
9
9
9
9
9
9
9
9
9
9
9
9
9
9
9
9
9
9
9
9
9
9
9
9
9
9
9
9
9
9
9
9
9
9
9
9
9
9
9
9
9
9
9
9
9
9
9
9
9
9
9
9
9
9
9
9
9
9
9
9
9
9
9
9
9
9
9
9
9
9
9
9
9
9
9
9
9
9
9
9
9
9
9
9
9
9
9
9
9
9
9
9
9
9
9
9
9
9
9
9
9
9
9
9
9
9
9
9
9
9
9
9
9
9
9
9
9
9
9
9
9
9
9
9
9
9
9
9
9
9
9
9
9
9
9
9
9
9
9
9
9
9
9
9
9
9
9
9
9
9
9
9
9
9
9
9
9
9
9
9
9
9
9
9
9
9
9
9
9
9
9
9
9
9
9
9
9
9
9
9
9
9
9
9
9
9
9
9
9
9
9
9
9
9
9
9
9
9
9
9
9
9
9
9
9
9
9
9
9
9
9
9
9
9
9
9
9
9
9
9
9
9
9
9
9
9
9
9
9
9
9
9
9
9
9
9
9
9
9
9
9
9
9
9
9
9
9
9
9
9
9
9
9
9
9
9
9
9
9
9
9
9
9
9
9
9
9
9
9
9
9
9
9
9
9
9
9
9
9
9
9
9
9
9
9
9
9
9
9
9
9
9
9
9
9
9
9
9
9
9
9
9
9
9
9
9
9
9
9
9
9
9
9
9
9
9
9
9
9
9
9
9
9
9
9
9
9
9
9
9
9
9
9
9
9
9
9
9
9
9
9
9
9
9
9
9
9
9
9
9
9
9
9
9
9
9
9
9
9
9
9
9
9
9
9
9
9
9
9
9
9
9
9
9
9
9
9
9
9
9
9
9
9
9
9
9
9
9
9
9
9
9
9
9
9
9
9
9
9
9
9
9
9
9
9
9
9
9
9
9
9
9
9
9
9
9
9
9
9
9
9
9
9
9
9
9
9
9
9
9
9
9
9
9
9
9
9
9
9
9
9
9
9
9
9
9
9
9
9
9
9
9
9
9
9
9
9
9
9
9
9
9
9
9
9
9
9
9
9
9
9
9
9
9
9
9
9
9
9
9
9
9
9
9
9
9
9
9
9
9
9
9
9
9
9
9
9
9
9
9
9
9
9
9
9
9
9
9
9
9
9
9
9
9
9
9
9
9
9
9
9
9
9
9
9
9
9
9
9
9
9
9
9
9
9
9
9
9
9
9
9
9
9
9
9
9
9
9
9
9
9
9
9
9
9
9
9
9
9
9
9
9
9
9
9
9
9
9
9
9
9
9
9
9
9
9
9
9
9
9
9
9
9
9
9
9
9
9
9
9
9
9
9
9
9
9
9
9
9
9
9
9
9
9
9
9
9
9
9
9
9
9
9
9
9
9
9
9
9
9
9
9
9
9
9
9
9
9
9
9
9
9
9
9
9
9
9
9
9
9
9
9
9
9
9
9
9
9
9
9
9
9
9
9
9
9
9
9
9
9
9
9
9
9
9
9
9
9
9
9
9
9
9
9
9
9
9
9
9
9
9
9
9
9
9
9
9
9
9
9
9
9
9
9
9
9
9
9
9
9
9
9
9
9
9
9
9
9
9
9
9
9
9
9
9
9
9
9
9
9
9
9
9
9
9
9
9
9
9
9
9
9
9
9
9
9
9
9
9
9
9
9
9
9
9
9
9
9
9
9
9
9
9
9
9
9
9
9
9
9
9
9
9
9
9
9
9
9
9
9
9
9
9
9
9
9
9
9
9
9
9
9
9
9
9
9
9
9
9
9
9
9
9
9
9
9
9
9
9
9
9
9
9
9
9
9
9
9
9
9
9
9
9
9
9
9
9
9
9
9
9
9
9
9
9
9
9
9
9
9
9
9
9
9
9
9
9
9
9
9
9
9
9
9
9
9
9
9
9
9
9
9
9
9
9
9
9
9
9
9
9
9
9
9
9
9
9
9
9
9
9
9
9
9
9
9
9
9
9
9
9
9
9
9
9
9
9
9
9
9
9
9
9
9
9
9
9
9
9
9
9
9
9
9
9
9
9
9
9
9
9
9
9
9
9
9
9
9
9
9
9
9
9
9
9
9
9
9
9
9
9
9
9
9
9
9
9
9
9
9
9
9
9
9
9
9
9
9
9
9
9
9
9
9
9
9
9
9
9
9
9
9
9
9
9
9
9
9
9
9
9
9
9
9
9
9
9
9
9
9
9
9
9
9
9
9
9
9
9
9
9
9
9
9
9
9
9
9
9
9
9
9
9
9
9
9
9
9
9
9
9
9
9
9
9
9
9
9
9
9
9
9
9
9
9
9
9
9
9
9
9
9
9
9
9
9
9
9
9
9
9
9
9
9
9
9
9
9
9
9
9
9
9
9
9
9
9
9
9
9
9
9
9
9
9
9
9
9
9
9
9
9
9
9
9
9
9
9
9
9
9
9
9
9
9
9
9
9
9
9
9
9
9
9
9
9
9
9
9
9
9
9
9
9
9
9
9
9
9
9
9
9
9
9
9
9
9
9
9
9
9
9
9
9
9
9
9
9
9
9
9
9
9
9
9
9
9
9
9
9
9
9
9
9
9
9
9
9
9
9
9
9
9
9
9
9
9
9
9
9
9
9
9
9
9
9
9
9
9
9
9
9
9
9
9
9
9
9
9
9
9
9
9
9
9
9
9
9
9
9
9
9
9
9
9
9
9
9
9
9
9
9
9
9
9
9
9
9
9
9
9
9
9
9
9
9
9
9
9
9
9
9
9
9
9
9
9
9
9
9
9
9
9
9
9
9
9
9
9
9
9
9
9
9
9
9
9
9
9
9
9
9
9
9
9
9
9
9
9
9
9
9
9
9
9
9
9
9
9
9
9
9
9
9
9
9
9
9
9
9
9
9
9
9
9
9
9
9
9
9
9
9
9
9
9
9
9
9
9
9
9
9
9
9
9
9
9
9
9
9
9
9
9
9
9
9
9
9
9
9
9
9
9
9
9
9
9
9
9
9
9
9
9
9
9
9
9
9
9
9
9
9
9
9
9
9
9
9
9
9
9
9
9
9
9
9
9
9
9
9
9
9
9
9
9
9
9
9
9
9
9
9
9
9
9
9
9
9
9
9
9
9
9
9
9
9
9
9
9
9
9
9
9
9
9
9
9
9
9
9
9
9
9
9
9
9
9
9
9
9
9
9
9
9
9
9
9
9
9
9
9
9
9
9
9
9
9
9
9
9
9
9
9
9
9
9
9
9
9
9
9
9
9
9
9
9
9
9
9
9
9
9
9
9
9
9
9
9
9
9
9
9
9
9
9
9
9
9
9
9
9
9
9
9
9
9
9
9
9
9
9
9
9
9
9
9
9
9
9
9
9
9
9
9
9
9
9
9
9
9
9
9
9
9
9
9
9
9
9
9
9
9
9
9
9
9
9
9
9
9
9
9
9
9
9
9
9
9
9
9
9
9
9
9
9
9
9
9
9
9
9
9
9
9
9
9
9
9
9
9
9
9
9
9
9
9
9
9
9
9
9
9
9
9
9
9
9
9
9
9
9
9
9
9
9
9
9
9
9
9
9
9
9
9
9
9
9
9
9
9
9
9
9
9
9
9
9
9
9
9
9
9
9
9
9
9
9
9
9
9
9
9
9
9
9
9
9
9
9
9
9
9
9
9
9
9
9
9
9
9
9
9
9
9
9
9
9
9
9
9
9
9
9
9
9
9
9
9
9
9
9
9
9
9
9
9
9
9
9
9
9
9
9
9
9
9
9
9
9
9
9
9
9
9
9
9
9
9
9
9
9
9
9
9
9
9
9
9
9
9
9
9
9
9
9
9
9
9
9
9
9
9
9
9
9
9
9
9
9
9
9
9
9
9
9
9
9
9
9
9
9
9
9
9
9
9
9
9
9
9
9
9
9
9
9
9
9
9
9
9
9
9
9
9
9
9
9
9
9
9
9
9
9
9
9
9
9
9
9
9
9
9
9
9
9
9
9
9
9
9
9
9
9
9
9
9
9
9
9
9
9
9
9
9
9
9
9
9
9
9
9
9
9
9
9
9
9
9
9
9
9
9
9
9
9
9
9
9
9
9
9
9
9
9
9
9
9
9
9
9
9
9
9
9
9
9
9
9
9
9
9
9
9
9
9
9
9
9
9
9
9
9
9
9
9
9
9
9
9
9
9
9
9
9
9
9
9
9
9
9
9
9
9
9
9
9
9
9
9
9
9
9
9
9
9
9
9
9
9
9
9
9
9
9
9
9
9
9
9
9
9
9
9
9
9
9
9
9
9
9
9
9
9
9
9
9
9
9
9
9
9
9
9
9
9
9
9
9
9
9
9
9
9
9
9
9
9
9
9
9
9
9
9
9
9
9
9
9
9
9
9
9
9
9
9
9
9
9
9
9
9
9
9
9
9
9
9
9
9
9
9
9
9
9
9
9
9
9
9
9
9
9
9
9
9
9
9
9
9
9
9
9
9
9
9
9
9
9
9
9
9
9
9
9
9
9
9
9
9
9
9
9
9
9
9
9
9
9
9
9
9
9
9
9
9
9
9
9
9
9
9
9
9
9
9
9
9
9
9
9
9
9
9
9
9
9
9
9
9
9
9
9
9
9
9
9
9
9
9
9
9
9
9
9
9
9
9
9
9
9
9
9
9
9
9
9
9
9
9
9
9
9
9
9
9
9
9
9
9
9
9
9
9
9
9
9
9
9
9
9
9
9
9
9
9
9
9
9
9
9
9
9
9
9
9
9
9
9
9
9
9
9
9
9
9
9
9
9
9
9
9
9
9
9
9
9
9
9
9
9
9
9
9
9
9
9
9
9
9
9
9
9
9
9
9
9
9
9
9
9
9
9
9
9
9
9
9
9
9
9
9
9
9
9
9
9
9
9
9
9
9
9
9
9
9
9
9
9
9
9
9
9
9
9
9
9
9
9
9
9
9
9
9
9
9
9
9
9
9
9
9
9
9
9
9
9
9
9
9
9
9
9
9
9
9
9
9
9
9
9
9
9
9
9
9
9
9
9
9
9
9
9
9
9
9
9
9
9
9
9
9
9
9
9
9
9
9
9
9
9
9
9
9
9
9
9
9
9
9
9
9
9
9
9
9
9
9
9
9
9
9
9
9
9
9
9
9
9
9
9
9
9
9
9
9
9
9
9
9
9
9
9
9
9
9
9
9
9
9
9
9
9
9
9
9
9
9
9
9
9
9
9
9
9
9
9
9
9
9
9
9
9
9
9
9
9
9
9
9
9
9
9
9
9
9
9
9
9
9
9
9
9
9
9
9
9
9
9
9
9
9
9
9
9
9
9
9
9
9
9
9
9
9
9
9
9
9
9
9
9
9
9
9
9
9
9
9
9
9
9
9
9
9
9
9
9
9
9
9
9
9
9
9
9
9
9
9
9
9
9
9
9
9
9
9
9
9
9
9
9
9
9
9
9
9
9
9
9
9
9
9
9
9
9
9
9
9
9
9
9
9
9
9
9
9
9
9
9
9
9
9
9
9
9
9
9
9
9
9
9
9
9
9
9
9
9
9
9
9
9
9
9
9
9
9
9
9
9
9
9
9
9
9
9
9
9
9
9
9
9
9
9
9
9
9
9
9
9
9
9
9
9
9
9
9
9
9
9
9
9
9
9
9
9
9
9
9
9
9
9
9
9
9
9
9
9
9
9
9
9
9
9
9
9
9
9
9
9
9
9
9
9
9
9
9
9
9
9
9
9
9
9
9
9
9
9
9
9
9
9
9
9
9
9
9
9
9
9
9
9
9
9
9
9
9
9
9
9
9
9
9
9
9
9
9
9
9
9
9
9
9
9
9
9
9
9
9
9
9
9
9
9
9
9
9
9
9
9
9
9
9
9
9
9
9
9
9
9
9
9
9
9
9
9
9
9
9
9
9
9
9
9
9
9
9
9
9
9
9
9
9
9
9
9
9
9
9
9
9
9
9
9
9
9
9
9
9
9
9
9
9
9
9
9
9
9
9
9
9
9
9
9
9
9
9
9
9
9
9
9
9
9
9
9
9
9
9
9
9
9
9
9
9
9
9
9
9
9
9
9
9
9
9
9
9
9
9
9
9
9
9
9
9
9
9
9
9
9
9
9
9
9
9
9
9
9
9
9
9
9
9
9
9
9
9
9
9
9
9
9
9
9
9
9
9
9
9
9
9
9
9
9
9
9
9
9
9
9
9
9
9
9
9
9
9
9
9
9
9
9
9
9
9
9
9
9
9
9
9
9
9
9
9
9
9
9
9
9
9
9
9
9
9
9
9
9
9
9
9
9
9
9
9
9
9
9
9
9
9
9
9
9
9
9
9
9
9
9
9
9
9
9
9
9
9
9
9
9
9
9
9
9
9
9
9
9
9
9
9
9
9
9
9
9
9
9
9
9
9
9
9
9
9
9
9
9
9
9
9
9
9
9
9
9
9
9
9
9
9
9
9
9
9
9
9
9
9
9
9
9
9
9
9
9
9
9
9
9
9
9
9
9
9
9
9
9
9
9
9
9
9
9
9
9
9
9
9
9
9
9
9
9
9
9
9
9
9
9
9
9
9
9
9
9
9
9
9
9
9
9
9
9
9
9
9
9
9
9
9
9
9
9
9
9
9
9
9
9
9
9
9
9
9
9
9
9
9
9
9
9
9
9
9
9
9
9
9
9
9
9
9
9
9
9
9
9
9
9
9
9
9
9
9
9
9
9
9
9
9
9
9
9
9
9
9
9
9
9
9
9
9
9
9
9
9
9
9
9
9
9
9
9
9
9
9
9
9
9
9
9
9
9
9
9
9
9
9
9
9
9
9
9
9
9
9
9
9
9
9
9
9
9
9
9
9
9
9
9
9
9
9
9
9
9
9
9
9
9
9
9
9
9
9
9
9
9
9
9
9
9
9
9
9
9
9
9
9
9
9
9
9
9
9
9
9
9
9
9
9
9
9
9
9
9
9
9
9
9
9
9
9
9
9
9
9
9
9
9
9
9
9
9
9
9
9
9
9
9
9
9
9
9
9
9
9
9
9
9
9
9
9
9
9
9
9
9
9
9
9
9
9
9
9
9
9
9
9
9
9
9
9
9
9
9
9
9
9
9
9
9
9
9
9
9
9
9
9
9
9
9
9
9
9
9
9
9
9
9
9
9
9
9
9
9
9
9
9
9
9
9
9
9
9
9
9
9
9
9
9
9
9
9
9
9
9
9
9
9
9
9
9
9
9
9
9
9
9
9
9
9
9
9
9
9
9
9
9
9
9
9
9
9
9
9
9
9
9
9
9
9
9
9
9
9
9
9
9
9
9
9
9
9
9
9
9
9
9
9
9
9
9
9
9
9
9
9
9
9
9
9
9
9
9
9
9
9
9
9
9
9
9
9
9
9
9
9
9
9
9
9
9
9
9
9
9
9
9
9
9
9
9
9
9
9
9
9
9
9
9
9
9
9
9
9
9
9
9
9
9
9
9
9
9
9
9
9
9
9
9
9
9
9
9
9
9
9
9
9
9
9
9
9
9
9
9
9
9
9
9
9
9
9
9
9
9
9
9
9
9
9
9
9
9
9
9
9
9
9
9
9
9
9
9
9
9
9
9
9
9
9
9
9
9
9
9
9
9
9
9
9
9
9
9
9
9
9
9
9
9
9
9
9
9
9
9
9
9
9
9
9
9
9
9
9
9
9
9
9
9
9
9
9
9
9
9
9
9
9
9
9
9
9
9
9
9
9
9
9
9
9
9
9
9
9
9
9
9
9
9
9
9
9
9
9
9
9
9
9
9
9
9
9
9
9
9
9
9
9
9
9
9
9
9
9
9
9
9
9
9
9
9
9
9
9
9
9
9
9
9
9
9
9
9
9
9
9
9
9
9
9
9
9
9
9
9
9
9
9
9
9
9
9
9
9
9
9
9
9
9
9
9
9
9
9
9
9
9
9
9
9
9
9
9
9
9
9
9
9
9
9
9
9
9
9
9
9
9
9
9
9
9
9
9
9
9
9
9
9
9
9
9
9
9
9
9
9
9
9
9
9
9
9
9
9
9
9
9
9
9
9
9
9
9
9
9
9
9
9
9
9
9
9
9
9
9
9
9
9
9
9
9
9
9
9
9
9
9
9
9
9
</DataArray>
</Cells>
<PointData Vectors="'U'">
<DataArray type="Float64" Name="U" NumberOfComponents="2" ComponentName0="U1" ComponentName1="U2" format="ascii">
 0.4816650841611E-37  0.1214256741747E-36
-0.2910866331962E-37 -0.2191319703130E-37
 0.2878071603269E-37 -0.7276675674357E-37
 0.2337329882772E-01  0.4801533677524E-03
 0.2645603166391E-01 -0.4526883101528E-02
 0.3449536680549E-01 -0.2292077799866E-01
 0.4254924611015E-01 -0.4752778869589E-01
 0.3766961507020E+00  0.7499080967011E-01
 0.8385728199352E+00 -0.6146795257457E+00
 0.9652801180934E-01 -0.1996490369201E+00
 0.5510768517396E+00 -0.4832624597947E+00
-0.1884345027965E-37  0.7148793029173E-37
-0.1745112929859E-37  0.6046079678321E-37
-0.1848988741460E-37  0.5535202350322E-37
-0.1971215351080E-37  0.5199301747149E-37
-0.2080455336037E-37  0.4931013813762E-37
-0.2174791515754E-37  0.4693760657675E-37
-0.2256647299158E-37  0.4472465832780E-37
-0.2328496471900E-37  0.4260041144006E-37
-0.2392253110997E-37  0.4052823658630E-37
-0.2449327335518E-37  0.3848781858054E-37
-0.2500761841831E-37  0.3646725458205E-37
-0.2547343101555E-37  0.3445925560767E-37
-0.2589678718531E-37  0.3245918943366E-37
-0.2628249220211E-37  0.3046401613249E-37
-0.2663442712911E-37  0.2847168262267E-37
-0.2695578406572E-37  0.2648076478877E-37
-0.2724922882962E-37  0.2449025164494E-37
-0.2751701600206E-37  0.2249941013754E-37
-0.2776107096842E-37  0.2050770111540E-37
-0.2798299104497E-37  0.1851475232002E-37
-0.2818467817507E-37  0.1651304528152E-37
-0.2836698649590E-37  0.1450954527454E-37
-0.2853097676991E-37  0.1250405745381E-37
-0.2867761525870E-37  0.1049644555112E-37
-0.2880775194362E-37  0.8486613388603E-38
-0.2892213280005E-37  0.6474502857354E-38
-0.2902141133313E-37  0.4460080916388E-38
-0.2910615764616E-37  0.2443343426307E-38
-0.2917686619691E-37  0.4243097244254E-39
-0.2923396227405E-37 -0.1596981031497E-38
-0.2927780715407E-37 -0.3620467112560E-38
-0.2930870266125E-37 -0.5646071691690E-38
-0.2932689476733E-37 -0.7673699800852E-38
-0.2933257664749E-37 -0.9703242041715E-38
-0.2932589123475E-37 -0.1173457698494E-37
-0.2930693322435E-37 -0.1376757056983E-37
-0.2927575074334E-37 -0.1580208118261E-37
-0.2923234661120E-37 -0.1783795907881E-37
-0.2917667925446E-37 -0.1987504994646E-37
-0.2902816996013E-37 -0.2395224349446E-37
-0.2893502681330E-37 -0.2599203527608E-37
-0.2882901766368E-37 -0.2803242417899E-37
-0.2870988177714E-37 -0.3007327089336E-37
-0.2857731287059E-37 -0.3211444825770E-37
-0.2843095769198E-37 -0.3415584644777E-37
-0.2827041421222E-37 -0.3619737457496E-37
-0.2809522922347E-37 -0.3823896854554E-37
-0.2790489551691E-37 -0.4028059392766E-37
-0.2769884829260E-37 -0.4232225263431E-37
-0.2747646081749E-37 -0.4436399184649E-37
-0.2723703934684E-37 -0.4640590733175E-37
-0.2697981661568E-37 -0.4844815864729E-37
-0.2670394444548E-37 -0.5049097579460E-37
-0.2640848444994E-37 -0.5253467440076E-37
-0.2609239680750E-37 -0.5457967526806E-37
-0.2575452709020E-37 -0.5662651804240E-37
-0.2539358947598E-37 -0.5867589604991E-37
-0.2500814839198E-37 -0.6072868596203E-37
-0.2459660231330E-37 -0.6278598285866E-37
-0.2415763054866E-37 -0.6484197330403E-37
-0.2368860971224E-37 -0.6690561660956E-37
-0.2318726713948E-37 -0.6897904122918E-37
-0.2265087271677E-37 -0.7106501770023E-37
-0.2207624214988E-37 -0.7316710345438E-37
-0.2145962111160E-37 -0.7528991553134E-37
-0.2079652571898E-37 -0.7743953065437E-37
-0.2008152052653E-37 -0.7962408156758E-37
-0.1930790335968E-37 -0.8185467549940E-37
-0.1846725097013E-37 -0.8414684979943E-37
-0.1754875784477E-37 -0.8652297029535E-37
-0.1653828325988E-37 -0.8901636745916E-37
-0.1541705910979E-37 -0.9167887451823E-37
-0.1416032368980E-37 -0.9459555717316E-37
-0.1273769221412E-37 -0.9791616563476E-37
-0.1112422105330E-37 -0.1019305956085E-36
-0.9366336477860E-38 -0.1072808097240E-36
-0.7948025977145E-38 -0.1157004144748E-36
-0.1013390693600E-37 -0.1334857291998E-36
 0.2361712518857E-01  0.8321141072477E-03
 0.2379401161862E-01  0.8944910521604E-03
 0.2395509465651E-01  0.8239921869198E-03
 0.2410757703266E-01  0.6782223566610E-03
 0.2425527625042E-01  0.4825952719631E-03
 0.2440028462807E-01  0.2509320362166E-03
 0.2454385678343E-01 -0.8310011746174E-05
 0.2468677403445E-01 -0.2894922022622E-03
 0.2482955006432E-01 -0.5886130891610E-03
 0.2497254515944E-01 -0.9026980875821E-03
 0.2511602981473E-01 -0.1229457964776E-02
 0.2526021971814E-01 -0.1567084461784E-02
 0.2540529455245E-01 -0.1914120291277E-02
 0.2555140788682E-01 -0.2269372400609E-02
 0.2569869194909E-01 -0.2631851267327E-02
 0.2584725931656E-01 -0.3000725900655E-02
 0.2599720285584E-01 -0.3375288762809E-02
 0.2614859695687E-01 -0.3754921211823E-02
 0.2630149347462E-01 -0.4139054808395E-02
 0.2661081275276E-01 -0.4916383590432E-02
 0.2676826305042E-01 -0.5309826214312E-02
 0.2692800246341E-01 -0.5706582464557E-02
 0.2708999080000E-01 -0.6106409554346E-02
 0.2725423002014E-01 -0.6509098136921E-02
 0.2742074444272E-01 -0.6914482555183E-02
 0.2758956317807E-01 -0.7322430880147E-02
 0.2776071562610E-01 -0.7732843901387E-02
 0.2793422836643E-01 -0.8145651107961E-02
 0.2811012376246E-01 -0.8560807943972E-02
 0.2828842020728E-01 -0.8978295872884E-02
 0.2846913115247E-01 -0.9398119199938E-02
 0.2865226593712E-01 -0.9820306039455E-02
 0.2883782970070E-01 -0.1024490715601E-01
 0.2902582356840E-01 -0.1067199553720E-01
 0.2921624539727E-01 -0.1110166732396E-01
 0.2940908965859E-01 -0.1153404087014E-01
 0.2960434830504E-01 -0.1196925811615E-01
 0.2980201101718E-01 -0.1240748463919E-01
 0.3000206574444E-01 -0.1284891044823E-01
 0.3020449927298E-01 -0.1329375091494E-01
 0.3040929777241E-01 -0.1374224774210E-01
 0.3061644737230E-01 -0.1419467009238E-01
 0.3082593482432E-01 -0.1465131601236E-01
 0.3103774820399E-01 -0.1511251407053E-01
 0.3125187734176E-01 -0.1557862456878E-01
 0.3146831500853E-01 -0.1605004259486E-01
 0.3168705703417E-01 -0.1652719901636E-01
 0.3190810344470E-01 -0.1701056404157E-01
 0.3213145897427E-01 -0.1750064989229E-01
 0.3235713318543E-01 -0.1799801327491E-01
 0.3258514167896E-01 -0.1850326118785E-01
 0.3281550484680E-01 -0.1901705270042E-01
 0.3304824791885E-01 -0.1954010561184E-01
 0.3328339850518E-01 -0.2007320058874E-01
 0.3352098159122E-01 -0.2061718391514E-01
 0.3376101284157E-01 -0.2117297184072E-01
 0.3400348195330E-01 -0.2174153822854E-01
 0.3424833172755E-01 -0.2232386975676E-01
 0.3474689649788E-01 -0.2353895620843E-01
 0.3500332916620E-01 -0.2417580662952E-01
 0.3526441113680E-01 -0.2483308891756E-01
 0.3553030151304E-01 -0.2551287678769E-01
 0.3580132813399E-01 -0.2621749915304E-01
 0.3607797704927E-01 -0.2694964297303E-01
 0.3636090358739E-01 -0.2771245144570E-01
 0.3665097225321E-01 -0.2850965519994E-01
 0.3694932505336E-01 -0.2934575367192E-01
 0.3725749082717E-01 -0.3022627993788E-01
 0.3757755714362E-01 -0.3115820117341E-01
 0.3791244150876E-01 -0.3215054907889E-01
 0.3826632210283E-01 -0.3321546119863E-01
 0.3864531981417E-01 -0.3436998932887E-01
 0.3905856022149E-01 -0.3563942994471E-01
 0.3951976852208E-01 -0.3706388523911E-01
 0.4004942261158E-01 -0.3871238139165E-01
 0.4067789043352E-01 -0.4071684938639E-01
 0.4144626154752E-01 -0.4337911779575E-01
-0.1585841515380E-01 -0.1839742121457E-01
-0.4024990356534E-01 -0.2629703392111E-01
-0.5658988031632E-01 -0.2533189436510E-01
-0.6515499167386E-01 -0.1935410340140E-01
-0.6693881879006E-01 -0.9773127935870E-02
-0.6273823940045E-01  0.2636122123308E-02
-0.5304596807781E-01  0.1680655692003E-01
-0.3839332960678E-01  0.3187314920600E-01
-0.1923221719183E-01  0.4736765053653E-01
 0.4139766668021E-02  0.6288128545418E-01
 0.3148823017552E-01  0.7796526827603E-01
 0.6257207772627E-01  0.9210508108730E-01
 0.9710366380277E-01  0.1048821860487E+00
 0.1347609327793E+00  0.1157984530555E+00
 0.1751416553601E+00  0.1241953385495E+00
 0.2177178101191E+00  0.1295131770674E+00
 0.2619858971802E+00  0.1319014560439E+00
 0.3063012390152E+00  0.1258427098608E+00
 0.3462117138893E+00  0.1064704652701E+00
 0.3893429801766E+00  0.4961728240454E-01
 0.3987381816676E+00  0.2276666898024E-01
 0.4054933571356E+00 -0.5043210551246E-02
 0.4095386805724E+00 -0.3362532146529E-01
 0.4110011914029E+00 -0.6287688766594E-01
 0.4106451202845E+00 -0.9293995752502E-01
 0.4090284432832E+00 -0.1242007258086E+00
 0.4066126522519E+00 -0.1573099845697E+00
 0.4038816888430E+00 -0.1932927414027E+00
 0.4015069870474E+00 -0.2338721575778E+00
 0.4012435008416E+00 -0.2818548012264E+00
 0.4042227587277E+00 -0.3372040614263E+00
 0.4102643338434E+00 -0.3964484853600E+00
 0.4192245349253E+00 -0.4567248271604E+00
 0.4310508555261E+00 -0.5159437561523E+00
 0.4456905596544E+00 -0.5725498930674E+00
 0.4630509086411E+00 -0.6253927500816E+00
 0.4829804360487E+00 -0.6736320400098E+00
 0.5052576414862E+00 -0.7166669501722E+00
 0.5295743716997E+00 -0.7540859361728E+00
 0.5555057803271E+00 -0.7856232966013E+00
 0.5825115483000E+00 -0.8110771141309E+00
 0.6100709154068E+00 -0.8303478835105E+00
 0.6376903267612E+00 -0.8434382065392E+00
 0.6648771758469E+00 -0.8504485147014E+00
 0.6911205637729E+00 -0.8515814289465E+00
 0.7158722951683E+00 -0.8471539572472E+00
 0.7385256782255E+00 -0.8376186951315E+00
 0.7584050935579E+00 -0.8235852292158E+00
 0.7748285396176E+00 -0.8057790415395E+00
 0.7874188644228E+00 -0.7847358813775E+00
 0.7965102815791E+00 -0.7606824658481E+00
 0.8030241058999E+00 -0.7340869526284E+00
 0.8081741145777E+00 -0.7059227395261E+00
 0.8130481203690E+00 -0.6780875800219E+00
 0.8178261946478E+00 -0.6542293631043E+00
 0.8227101835203E+00 -0.6370458183063E+00
 0.8280162366532E+00 -0.6258091140149E+00
 0.8334401747195E+00 -0.6187311662948E+00
 0.8462958924592E+00 -0.6128044160637E+00
 0.8511435719846E+00 -0.6149013421018E+00
 0.8515593396648E+00 -0.6187110747602E+00
 0.8467027651699E+00 -0.6226362087015E+00
 0.8366316787928E+00 -0.6259445059414E+00
 0.8213466159536E+00 -0.6273982678092E+00
 0.8009903652051E+00 -0.6261624624683E+00
 0.7758577109055E+00 -0.6216296714495E+00
 0.7462565336521E+00 -0.6132150667932E+00
 0.7124672946035E+00 -0.6003042320905E+00
 0.6747299480557E+00 -0.5823637716314E+00
 0.6331894580218E+00 -0.5585972939480E+00
 0.5879674885205E+00 -0.5276070902938E+00
 0.5394313327380E+00 -0.4872978671874E+00
 0.4880118024721E+00 -0.4372117654849E+00
 0.4328401151639E+00 -0.3806963359233E+00
 0.3715981125566E+00 -0.3181852559448E+00
 0.3000669075732E+00 -0.2471228603027E+00
 0.2107377773265E+00 -0.1567944463984E+00
 0.7982983666214E-04  0.1965119947325E-03
 0.1457371255545E-03  0.3724666361123E-03
 0.2401136501570E-03  0.5542973275069E-03
 0.3690137409987E-03  0.7384983397748E-03
 0.5356954431581E-03  0.9234824440092E-03
 0.7412722963420E-03  0.1107723843489E-02
 0.9861524999336E-03  0.1289928940503E-02
 0.1270283325338E-02  0.1468998806738E-02
 0.1593368051718E-02  0.1643981633130E-02
 0.1954955388177E-02  0.1814038799376E-02
 0.2354497077570E-02  0.1978414345328E-02
 0.2791378761335E-02  0.2136409321798E-02
 0.3264938581569E-02  0.2287359849380E-02
 0.3774474495003E-02  0.2430617166724E-02
 0.4319244684977E-02  0.2565529864072E-02
 0.4898464032014E-02  0.2691428259292E-02
 0.5511302210159E-02  0.2807611087193E-02
 0.6156842112961E-02  0.2913327849798E-02
 0.6834118400457E-02  0.3007776004909E-02
 0.7542044441501E-02  0.3090081630951E-02
 0.8279419061993E-02  0.3159293614147E-02
 0.9044898237443E-02  0.3214371455287E-02
 0.9836968548896E-02  0.3254170365239E-02
 0.1065392374696E-01  0.3277621514923E-02
 0.1149378165480E-01  0.3284691700728E-02
 0.1235414619333E-01  0.3275855095976E-02
 0.1323210848643E-01  0.3251507972962E-02
 0.1412421625161E-01  0.3211734109629E-02
 0.1502648661229E-01  0.3156304105581E-02
 0.1593440333773E-01  0.3084819595425E-02
 0.1684289258131E-01  0.2996886282233E-02
 0.1774623667871E-01  0.2892283056681E-02
 0.1863798086945E-01  0.2771222372207E-02
 0.1951105914683E-01  0.2633370043244E-02
 0.2035770901068E-01  0.2477029906112E-02
 0.2116888799831E-01  0.2299836254067E-02
 0.2193262292666E-01  0.2097789668797E-02
 0.2263397101982E-01  0.1863281869272E-02
 0.2323642143958E-01  0.1579931620750E-02
 0.2373263584961E-01  0.1183083258909E-02
 0.3486750305279E-01 -0.4287287001480E-01
 0.3198773029007E-01 -0.3992929186163E-01
 0.2957318044227E-01 -0.3773132482593E-01
 0.2758343366017E-01 -0.3586228630118E-01
 0.2583413330998E-01 -0.3420358244459E-01
 0.2426382853485E-01 -0.3269221040229E-01
 0.2282916193878E-01 -0.3129099968934E-01
 0.2150413829453E-01 -0.2997741891609E-01
 0.2027053182722E-01 -0.2873805946530E-01
 0.1911468253372E-01 -0.2756327218295E-01
 0.1802585857145E-01 -0.2644409750127E-01
 0.1699593154250E-01 -0.2537308720190E-01
 0.1601868104875E-01 -0.2434455806526E-01
 0.1508910645212E-01 -0.2335416812761E-01
 0.1420290448840E-01 -0.2239832870183E-01
 0.1335609727400E-01 -0.2147346667250E-01
 0.1254488447676E-01 -0.2057527977693E-01
 0.1176585466070E-01 -0.1969832329472E-01
 0.1101656401678E-01 -0.1883668306423E-01
 0.1029582815528E-01 -0.1798610990163E-01
 0.9603020907639E-02 -0.1714393891556E-01
 0.8937647629612E-02 -0.1630824232525E-01
 0.8299297974770E-02 -0.1547751176170E-01
 0.7687621029557E-02 -0.1465054290621E-01
 0.7102267086447E-02 -0.1382632766876E-01
 0.6542907418585E-02 -0.1300407541345E-01
 0.6009149753530E-02 -0.1218310508600E-01
 0.5500529971042E-02 -0.1136285148984E-01
 0.5016464730029E-02 -0.1054282652840E-01
 0.4556201588407E-02 -0.9722586173219E-02
 0.4118757675778E-02 -0.8901694215922E-02
 0.3702838636696E-02 -0.8079675515047E-02
 0.3306722628875E-02 -0.7255946555593E-02
 0.2928097326059E-02 -0.6429712036125E-02
 0.2563785579915E-02 -0.5599797974144E-02
 0.2209374330336E-02 -0.4764335107550E-02
 0.1858202631744E-02 -0.3920215957192E-02
 0.1500680585718E-02 -0.3061718323323E-02
 0.1117241651944E-02 -0.2176488114100E-02
 0.6778285574284E-03 -0.1246930902885E-02
 0.1036944597035E+00 -0.2114341729289E+00
 0.1110862268971E+00 -0.2234765600876E+00
 0.1187761212242E+00 -0.2357275832617E+00
 0.1267918703944E+00 -0.2481503039099E+00
 0.1351521685618E+00 -0.2607043715824E+00
 0.1438704486223E+00 -0.2733461382755E+00
 0.1529561368283E+00 -0.2860291763526E+00
 0.1624149339620E+00 -0.2987045642489E+00
 0.1722487541621E+00 -0.3113213644977E+00
 0.1824557662602E+00 -0.3238274250945E+00
 0.1930304314225E+00 -0.3361700155646E+00
 0.2039636291388E+00 -0.3482964718070E+00
 0.2152428387439E+00 -0.3601546554996E+00
 0.2268523037223E+00 -0.3716935389901E+00
 0.2387731699924E+00 -0.3828639097720E+00
 0.2509836716943E+00 -0.3936190785168E+00
 0.2634593507248E+00 -0.4039155070869E+00
 0.2761733247653E+00 -0.4137133609893E+00
 0.2890965894274E+00 -0.4229769778811E+00
 0.3021983434744E+00 -0.4316752551964E+00
 0.3154463221537E+00 -0.4397819525193E+00
 0.3288071176488E+00 -0.4472758777959E+00
 0.3422464990192E+00 -0.4541410408221E+00
 0.3557297237657E+00 -0.4603667672671E+00
 0.3692218403253E+00 -0.4659477397032E+00
 0.3826879742430E+00 -0.4708839672554E+00
 0.3960935920908E+00 -0.4751806852561E+00
 0.4094047319537E+00 -0.4788481839502E+00
 0.4225882156241E+00 -0.4819015688355E+00
 0.4356118014419E+00 -0.4843604318257E+00
 0.4484442993971E+00 -0.4862484260776E+00
 0.4610556802381E+00 -0.4875929790663E+00
 0.4734172739506E+00 -0.4884252642587E+00
 0.4855020571746E+00 -0.4887800497920E+00
 0.4972851257219E+00 -0.4886955387786E+00
 0.5087441648353E+00 -0.4882132727714E+00
 0.5198603736803E+00 -0.4873783087518E+00
 0.5306199295700E+00 -0.4862390431897E+00
 0.5410172643075E+00 -0.4848464752224E+00
 0.8088152310849E-01 -0.1877529799348E+00
 0.6601893166390E-01 -0.1758631767726E+00
 0.5200127828508E-01 -0.1638859238126E+00
 0.3888308389250E-01 -0.1518674132647E+00
 0.2671392955630E-01 -0.1398762652303E+00
 0.1554253534663E-01 -0.1279785566651E+00
 0.5440263800816E-02 -0.1162345497233E+00
-0.3508898083313E-02 -0.1046980797149E+00
-0.1121381030930E-01 -0.9341735047120E-01
-0.1757722906223E-01 -0.8243883624893E-01
-0.2249197570581E-01 -0.7181450615334E-01
-0.2583339351137E-01 -0.6160847424783E-01
-0.2745240721800E-01 -0.5189830616202E-01
-0.2717505939669E-01 -0.4277057024081E-01
-0.2480626556354E-01 -0.3431539581281E-01
-0.2013488672587E-01 -0.2662006790764E-01
-0.1293794795615E-01 -0.1975697776522E-01
-0.2970389859306E-02 -0.1377633825872E-01
 0.1005057868739E-01 -0.8702227510838E-02
 0.5304729460759E+00 -0.4547521458671E+00
 0.5093349568531E+00 -0.4263389327399E+00
 0.4876148227407E+00 -0.3979695807751E+00
 0.4652736171504E+00 -0.3696899279828E+00
 0.4422932664207E+00 -0.3415617949363E+00
 0.4186665630221E+00 -0.3136498899590E+00
 0.3943791269608E+00 -0.2860276071742E+00
 0.3694241343266E+00 -0.2587837515309E+00
 0.3438124062939E+00 -0.2320288627111E+00
 0.3175774394740E+00 -0.2059003846319E+00
 0.2907700945648E+00 -0.1805626010960E+00
 0.2634440905258E+00 -0.1562015770220E+00
 0.2356452503493E+00 -0.1330202965778E+00
 0.2074170646597E+00 -0.1112373975659E+00
 0.1788192632996E+00 -0.9108639323172E-01
 0.1499388171331E+00 -0.7280925570979E-01
 0.1208870706092E+00 -0.5664656396520E-01
 0.9181453555734E-01 -0.4282872556046E-01
 0.6292971430922E-01 -0.3155254663702E-01
 0.1005540445828E+00 -0.1928902312479E+00
 0.1059478114081E+00 -0.1845197299021E+00
 0.1128365441187E+00 -0.1746781467612E+00
 0.1212450254087E+00 -0.1635166324006E+00
 0.1311645965918E+00 -0.1511925695502E+00
 0.1425555242896E+00 -0.1378783524852E+00
 0.1553450456162E+00 -0.1237575963928E+00
 0.1694258209406E+00 -0.1090189156400E+00
 0.1846568268980E+00 -0.9384763670684E-01
 0.2008670648575E+00 -0.7841646338003E-01
 0.2178622503262E+00 -0.6287579447771E-01
 0.2354344449695E+00 -0.4734454403323E-01
 0.2533742668720E+00 -0.3190254284941E-01
 0.2714847278934E+00 -0.1658589251875E-01
 0.2895948600706E+00 -0.1386845035600E-02
 0.3075702968597E+00  0.1374041150657E-01
 0.3253173215414E+00  0.2886756020480E-01
 0.3427779072503E+00  0.4407503781193E-01
 0.3599144700367E+00  0.5943243964764E-01
 0.5830405072287E+00 -0.5055370282251E+00
 0.6141870067637E+00 -0.5264661408979E+00
 0.6442500794691E+00 -0.5458579980269E+00
 0.6730040152163E+00 -0.5635443982688E+00
 0.7002308578876E+00 -0.5793740783234E+00
 0.7257194784166E+00 -0.5932234607079E+00
 0.7492676489287E+00 -0.6050019181283E+00
 0.7706853259745E+00 -0.6146568909207E+00
 0.7897984684061E+00 -0.6221786093261E+00
 0.8064536168576E+00 -0.6276047023225E+00
 0.8205236691894E+00 -0.6310247232098E+00
 0.8319154867338E+00 -0.6325845426296E+00
 0.8405801813063E+00 -0.6324903929053E+00
 0.8465271645645E+00 -0.6310120395390E+00
 0.8498431951891E+00 -0.6284839503854E+00
 0.8507173308736E+00 -0.6253020527547E+00
 0.8494712096362E+00 -0.6219112905479E+00
 0.8465874021329E+00 -0.6187733769861E+00
 0.8427142401312E+00 -0.6162965999468E+00
 0.5998161313716E-04  0.1698351113458E-03
 0.1296500118943E-03  0.3425456957751E-03
 0.2233984127391E-03  0.5117771394140E-03
 0.3527510323206E-03  0.6823912696124E-03
 0.5199755486428E-03  0.8529741696529E-03
 0.7263831572856E-03  0.1022514092012E-02
 0.9723183353470E-03  0.1189926694629E-02
 0.1257722435600E-02  0.1354240673029E-02
 0.1582281820670E-02  0.1514580356125E-02
 0.1945533719796E-02  0.1670155296462E-02
 0.2346919855597E-02  0.1820241225204E-02
 0.2785818009964E-02  0.1964161293207E-02
 0.3261560166654E-02  0.2101268508667E-02
 0.3773439627309E-02  0.2230928836185E-02
 0.4320711144487E-02  0.2352505704031E-02
 0.4902587131812E-02  0.2465346130377E-02
 0.5518235438041E-02  0.2568768986550E-02
 0.6166737451795E-02  0.2662048756480E-02
 0.6847126397130E-02  0.2744413589095E-02
 0.7558313890803E-02  0.2815027458328E-02
 0.8299096468716E-02  0.2872985249654E-02
 0.9068127264279E-02  0.2917301744809E-02
 0.9863890189465E-02  0.2946895402667E-02
 0.1068467451295E-01  0.2960776144211E-02
 0.1152848788480E-01  0.2959036949882E-02
 0.1239290925499E-01  0.2942359591434E-02
 0.1327498735024E-01  0.2911383485737E-02
 0.1417121333812E-01  0.2866435072378E-02
 0.1507753753786E-01  0.2807522134444E-02
 0.1598936806166E-01  0.2734493284825E-02
 0.1690154394801E-01  0.2647234304121E-02
 0.1780824243677E-01  0.2545863330760E-02
 0.1870289983622E-01  0.2430879397188E-02
 0.1957835191155E-01  0.2302142458558E-02
 0.2042678623941E-01  0.2158425468803E-02
 0.2123888117937E-01  0.1998375067757E-02
 0.2200319711176E-01  0.1819776564231E-02
 0.2270082184538E-01  0.1620121827432E-02
 0.2331237110669E-01  0.1385376915267E-02
 0.2372858506293E-01  0.1139851153374E-02
 0.4508805898337E-04  0.1514699265316E-03
 0.1136007239668E-03  0.3110120778049E-03
 0.2080985566867E-03  0.4689375019638E-03
 0.3377143860247E-03  0.6260147154982E-03
 0.5055849793894E-03  0.7825575801413E-03
 0.7128224652750E-03  0.9376944175819E-03
 0.9598088714410E-03  0.1090586946552E-02
 0.1246464767916E-02  0.1240384253473E-02
 0.1572467973905E-02  0.1386293825532E-02
 0.1937345381858E-02  0.1527579561595E-02
 0.2340530406419E-02  0.1663555368074E-02
 0.2781393826343E-02  0.1793572617441E-02
 0.3259262046797E-02  0.1917006967060E-02
 0.3773424020680E-02  0.2033244505791E-02
 0.4323131193703E-02  0.2141668553032E-02
 0.4907593456361E-02  0.2241647606808E-02
 0.5525976697009E-02  0.2332524987927E-02
 0.6177360481207E-02  0.2413604534720E-02
 0.6860776201811E-02  0.2484148946281E-02
 0.7575133178355E-02  0.2543364242799E-02
 0.8319224880033E-02  0.2590395860974E-02
 0.9091700652478E-02  0.2624319537342E-02
 0.9891038978967E-02  0.2644130382460E-02
 0.1071551446290E-01  0.2648943105522E-02
 0.1156310636023E-01  0.2638973343813E-02
 0.1243135699935E-01  0.2615064002570E-02
 0.1331727309341E-01  0.2578046610982E-02
 0.1421729596472E-01  0.2528453287818E-02
 0.1512731592374E-01  0.2466506347054E-02
 0.1604266905665E-01  0.2392283974973E-02
 0.1695810691678E-01  0.2305928679987E-02
 0.1786771238197E-01  0.2207836723272E-02
 0.1876483620824E-01  0.2098768925577E-02
 0.1964222395504E-01  0.1978906770587E-02
 0.2049187867279E-01  0.1847630916401E-02
 0.2130438730783E-01  0.1704596382386E-02
 0.2206726039005E-01  0.1550132607481E-02
 0.2276322490634E-01  0.1383698741365E-02
 0.2336109226722E-01  0.1213327852614E-02
 0.2374587490415E-01  0.1065005534409E-02
 0.3360224938942E-04  0.1358746924900E-03
 0.9901447028656E-04  0.2806318937907E-03
 0.1938391664183E-03  0.4258190523641E-03
 0.3239101580047E-03  0.5696637451655E-03
 0.4924180317184E-03  0.7123262668705E-03
 0.7005129055137E-03  0.8533118212188E-03
 0.9485474016449E-03  0.9919153231092E-03
 0.1236441233536E-02  0.1127412157686E-02
 0.1563862298101E-02  0.1259089409688E-02
 0.1930330084868E-02  0.1386269078941E-02
 0.2335270857022E-02  0.1508307489144E-02
 0.2778049394759E-02  0.1624589039440E-02
 0.3257987139867E-02  0.1734516836389E-02
 0.3774369089538E-02  0.1837501769272E-02
 0.4326443581379E-02  0.1932951527335E-02
 0.4913418036931E-02  0.2020260315159E-02
 0.5534456305056E-02  0.2098799888266E-02
 0.6188635906559E-02  0.2167907219334E-02
 0.6874986054258E-02  0.2226883159713E-02
 0.7592413182501E-02  0.2274979431877E-02
 0.8339706810692E-02  0.2311396045092E-02
 0.9115510743111E-02  0.2335275364073E-02
 0.9918293266986E-02  0.2345699189242E-02
 0.1074630631200E-01  0.2341895811295E-02
 0.1159749183979E-01  0.2324194030337E-02
 0.1246934992270E-01  0.2293565458794E-02
 0.1335884504593E-01  0.2250994537657E-02
 0.1426237255333E-01  0.2197186221459E-02
 0.1517576767904E-01  0.2132552129605E-02
 0.1609429830927E-01  0.2057376976212E-02
 0.1701263428811E-01  0.1972028237363E-02
 0.1792477406588E-01  0.1877139723889E-02
 0.1882399001996E-01  0.1773723497460E-02
 0.1970290793949E-01  0.1662330066407E-02
 0.2055335605517E-01  0.1542939233301E-02
 0.2136552376721E-01  0.1416351500975E-02
 0.2212655554412E-01  0.1284412145594E-02
 0.2281781452411E-01  0.1151452886102E-02
 0.2340037449226E-01  0.1032206217042E-02
 0.2378604718440E-01  0.9366678034375E-03
 0.2449468695309E-04  0.1214880020440E-03
 0.8619829410215E-04  0.2513942117888E-03
 0.1807342378449E-03  0.3829869581649E-03
 0.3112530438925E-03  0.5134656310242E-03
 0.4804211232037E-03  0.6423976602524E-03
 0.6893819803655E-03  0.7694081898462E-03
 0.9384675748083E-03  0.8939218843643E-03
 0.1227588054982E-02  0.1015310006019E-02
 0.1556404816794E-02  0.1132937210050E-02
 0.1924430594791E-02  0.1246183078486E-02
 0.2331085787017E-02  0.1354449018683E-02
 0.2775729988997E-02  0.1457155922283E-02
 0.3257680310593E-02  0.1553738238235E-02
 0.3776218213889E-02  0.1643635623186E-02
 0.4330589189242E-02  0.1726284030341E-02
 0.4919998315546E-02  0.1801107100619E-02
 0.5543607396068E-02  0.1867508558382E-02
 0.6200491765949E-02  0.1924861831404E-02
 0.6889678152010E-02  0.1972509091573E-02
 0.7610069526331E-02  0.2009750889864E-02
 0.8360450429234E-02  0.2035845222075E-02
 0.9139456824932E-02  0.2050005589974E-02
 0.9945542256932E-02  0.2051405576676E-02
 0.1077693070516E-01  0.2039387227489E-02
 0.1163152293638E-01  0.2014380691379E-02
 0.1250677483758E-01  0.1977461023204E-02
 0.1339960905703E-01  0.1929734408339E-02
 0.1430637774287E-01  0.1872049133258E-02
 0.1522286519259E-01  0.1804979778151E-02
 0.1614427623187E-01  0.1728990506008E-02
 0.1706520665683E-01  0.1644641237989E-02
 0.1797957876283E-01  0.1552769726897E-02
 0.1888058231498E-01  0.1454621806316E-02
 0.1976071869740E-01  0.1351095819641E-02
 0.2061159200972E-01  0.1242751085144E-02
 0.2142304257807E-01  0.1131233660479E-02
 0.2218172331469E-01  0.1019830927270E-02
 0.2286723141129E-01  0.9156179231456E-03
 0.2344099010994E-01  0.8307275409838E-03
 0.2384592601499E-01  0.7623408294444E-03
 0.1712339489714E-04  0.1077302336948E-03
 0.7509166958068E-04  0.2230391319746E-03
 0.1688770597322E-03  0.3406718145406E-03
 0.2997156017351E-03  0.4575877373316E-03
 0.4695420862389E-03  0.5728529437349E-03
 0.6793728578184E-03  0.6860277969579E-03
 0.9295097148499E-03  0.7966157648799E-03
 0.1219847486543E-02  0.9040653083846E-03
 0.1550039714151E-02  0.1007808841361E-02
 0.1919592994400E-02  0.1107281869300E-02
 0.2327922473913E-02  0.1201931673866E-02
 0.2774383254501E-02  0.1291218026197E-02
 0.3258288658919E-02  0.1374609738585E-02
 0.3778917035738E-02  0.1451578529186E-02
 0.4335511324124E-02  0.1521591944432E-02
 0.4927274444383E-02  0.1584106298656E-02
 0.5553366219864E-02  0.1638560357937E-02
 0.6212859737199E-02  0.1684366868320E-02
 0.6904778993964E-02  0.1720912001378E-02
 0.7628022965423E-02  0.1747547677559E-02
 0.8381370116790E-02  0.1763592479369E-02
 0.9163446304465E-02  0.1768333717572E-02
 0.9972686845174E-02  0.1761037839492E-02
 0.1080728487307E-01  0.1741156182597E-02
 0.1166509907296E-01  0.1709207652274E-02
 0.1254354159099E-01  0.1666349683864E-02
 0.1343949460109E-01  0.1613784252122E-02
 0.1434926977890E-01  0.1552476165850E-02
 0.1526860475631E-01  0.1483136239166E-02
 0.1619264747872E-01  0.1406379309437E-02
 0.1711592813668E-01  0.1322925220059E-02
 0.1803229907800E-01  0.1233782537356E-02
 0.1893486799875E-01  0.1140396125848E-02
 0.1981600743308E-01  0.1043965698082E-02
 0.2066710754663E-01  0.9455036112104E-03
 0.2147771565252E-01  0.8472539042068E-03
 0.2223400645262E-01  0.7533785488460E-03
 0.2291512596300E-01  0.6710194278816E-03
 0.2348797792893E-01  0.6070173294693E-03
 0.2392063672015E-01  0.5520074809541E-03
 0.1107329293905E-04  0.9434451896194E-04
 0.6552953245893E-04  0.1953538616688E-03
 0.1582867840801E-03  0.2989282349121E-03
 0.2892891683429E-03  0.4021465816461E-03
 0.4597404160062E-03  0.5037617369663E-03
 0.6704368611800E-03  0.6032056606553E-03
 0.9216217026032E-03  0.7000051726143E-03
 0.1213167059191E-02  0.7936655237743E-03
 0.1544715449634E-02  0.8836766705701E-03
 0.1915766762031E-02  0.9695262836697E-03
 0.2325731079805E-02  0.1050707208161E-02
 0.2773959416462E-02  0.1126719459475E-02
 0.3259761746181E-02  0.1197068475277E-02
 0.3782413689352E-02  0.1261260696941E-02
 0.4341155947115E-02  0.1318798056973E-02
 0.4935189512524E-02  0.1369172298485E-02
 0.5563672364671E-02  0.1411859844001E-02
 0.6225675362479E-02  0.1446315156269E-02
 0.6920219618669E-02  0.1471970569444E-02
 0.7646199663947E-02  0.1488231275553E-02
 0.8402386896446E-02  0.1494478055906E-02
 0.9187395240395E-02  0.1490072832917E-02
 0.9999639593404E-02  0.1474373102324E-02
 0.1083728126957E-01  0.1446932478458E-02
 0.1169813795980E-01  0.1408345944357E-02
 0.1257958014503E-01  0.1359834961998E-02
 0.1347845192289E-01  0.1302674811606E-02
 0.1439102774762E-01  0.1237922131133E-02
 0.1531300343919E-01  0.1166397515911E-02
 0.1623947714488E-01  0.1088837215095E-02
 0.1716492219249E-01  0.1006088323131E-02
 0.1808312849506E-01  0.9192934387157E-03
 0.1898712677269E-01  0.8300508692872E-03
 0.1986917226645E-01  0.7397844565984E-03
 0.2072048448190E-01  0.6498053751180E-03
 0.2153040788482E-01  0.5626685311936E-03
 0.2228497405513E-01  0.4826238605076E-03
 0.2296442053178E-01  0.4152794505861E-03
 0.2354297566597E-01  0.3626885168687E-03
 0.2400640018572E-01  0.3132662123331E-03
 0.6063198128540E-05  0.8120269031899E-04
 0.5733127511450E-04  0.1681884561332E-03
 0.1489295668974E-03  0.2577407389197E-03
 0.2799597798821E-03  0.3472028996293E-03
 0.4509839473718E-03  0.4351757181030E-03
 0.6625319493753E-03  0.5209680921659E-03
 0.9147575377766E-03  0.6040947025246E-03
 0.1207499353091E-02  0.6840971303839E-03
 0.1540384589318E-02  0.7605128568856E-03
 0.1912904838903E-02  0.8328770923532E-03
 0.2324464782772E-02  0.9007269990884E-03
 0.2774411466936E-02  0.9636034276609E-03
 0.3262051808603E-02  0.1021050029621E-02
 0.3786659030909E-02  0.1072610061586E-02
 0.4347471911767E-02  0.1117822131281E-02
 0.4943689789160E-02  0.1156215703480E-02
 0.5574469003899E-02  0.1187307022961E-02
 0.6238878301981E-02  0.1210594202356E-02
 0.6935935870888E-02  0.1225557373532E-02
 0.7664531499112E-02  0.1231656226305E-02
 0.8423428795732E-02  0.1228334324541E-02
 0.9211228593154E-02  0.1215027382680E-02
 0.1002632444024E-01  0.1191180135768E-02
 0.1086684638302E-01  0.1156440076920E-02
 0.1173057359461E-01  0.1111465828386E-02
 0.1261483816891E-01  0.1057526414120E-02
 0.1351644953045E-01  0.9959503604966E-03
 0.1443164896731E-01  0.9278631781069E-03
 0.1535609614595E-01  0.8541694873131E-03
 0.1628484729777E-01  0.7756978651018E-03
 0.1721232848681E-01  0.6933893973766E-03
 0.1813227711088E-01  0.6084807755631E-03
 0.1903765911068E-01  0.5226689659566E-03
 0.1992064013965E-01  0.4375097811513E-03
 0.2077233530706E-01  0.3544506141943E-03
 0.2158204085488E-01  0.2760445326327E-03
 0.2233612650721E-01  0.2059899916582E-03
 0.2301699668776E-01  0.1478234942684E-03
 0.2360606522911E-01  0.1002026043808E-03
 0.2410057063872E-01  0.5166434023009E-04
 0.1894324074717E-05  0.6823502397809E-04
 0.5032962299606E-04  0.1414389590549E-03
 0.1407422497364E-03  0.2170698325433E-03
 0.2717016695263E-03  0.2927781702420E-03
 0.4432432868577E-03  0.3671260585984E-03
 0.6556211858917E-03  0.4393321006167E-03
 0.9088762151625E-03  0.5088843537551E-03
 0.1202801496217E-02  0.5753446728328E-03
 0.1537003629086E-02  0.6382887549577E-03
 0.1910963602528E-02  0.6972945866217E-03
 0.2324079852051E-02  0.7519418318598E-03
 0.2775695290349E-02  0.8018121730311E-03
 0.3265113912382E-02  0.8464885072660E-03
 0.3791606807219E-02  0.8855524921137E-03
 0.4354411137491E-02  0.9185812364998E-03
 0.4952724895496E-02  0.9451437819260E-03
 0.5585703063023E-02  0.9647979276723E-03
 0.6252412494569E-02  0.9770869124318E-03
 0.6951868557425E-02  0.9815397751419E-03
 0.7682956216623E-02  0.9776712532303E-03
 0.8444430961036E-02  0.9649873149584E-03
 0.9234880122709E-02  0.9429953498207E-03
 0.1005267611376E-01  0.9112222025875E-03
 0.1089591948048E-01  0.8694001570959E-03
 0.1176235438856E-01  0.8182394412402E-03
 0.1264927876625E-01  0.7590415979944E-03
 0.1355347170552E-01  0.6931701519817E-03
 0.1447114628663E-01  0.6217980391069E-03
 0.1539793255799E-01  0.5458891208214E-03
 0.1632885359112E-01  0.4663357385346E-03
 0.1725829904855E-01  0.3841394335006E-03
 0.1817996689653E-01  0.3005889195073E-03
 0.1908677803635E-01  0.2174203170587E-03
 0.1997084895515E-01  0.1362261783307E-03
 0.2082327675478E-01  0.5843145953144E-04
 0.2163350581928E-01 -0.1368623868270E-04
 0.2238868620590E-01 -0.7734360449087E-04
 0.2307389894137E-01 -0.1309835872473E-03
 0.2367671057942E-01 -0.1780105836302E-03
 0.2420133950038E-01 -0.2287010272513E-03
-0.1579089751996E-05  0.5540087076721E-04
 0.4437825445389E-04  0.1150321448829E-03
 0.1336484798426E-03  0.1768705365683E-03
 0.2644783151879E-03  0.2388698109858E-03
 0.4364883458162E-03  0.2996257748509E-03
 0.6496709548139E-03  0.3583050318059E-03
 0.9039407902475E-03  0.4143690703153E-03
 0.1199034627507E-02  0.4673901302031E-03
 0.1534532766685E-02  0.5169744162924E-03
 0.1909902802784E-02  0.5627382294115E-03
 0.2324535683191E-02  0.6043016897802E-03
 0.2777769757332E-02  0.6412868956807E-03
 0.3268906080486E-02  0.6733165764314E-03
 0.3797213799836E-02  0.7000119391784E-03
 0.4361928760305E-02  0.7209900008333E-03
 0.4962247954695E-02  0.7358608266086E-03
 0.5597325363128E-02  0.7442250901948E-03
 0.6266226290392E-02  0.7456721925212E-03
 0.6967963563750E-02  0.7397806806990E-03
 0.7701417515524E-02  0.7261202502178E-03
 0.8465335644805E-02  0.7042580596045E-03
 0.9258292130752E-02  0.6737700756830E-03
 0.1007863945720E-01  0.6342592921803E-03
 0.1092445141843E-01  0.5855334354500E-03
 0.1179344149090E-01  0.5283428022541E-03
 0.1268287843165E-01  0.4640075663274E-03
 0.1358951619479E-01  0.3939094640502E-03
 0.1450954550915E-01  0.3192488006842E-03
 0.1543857422913E-01  0.2410250468936E-03
 0.1637160196579E-01  0.1601666037336E-03
 0.1730299433644E-01  0.7770226602062E-04
 0.1822642627103E-01 -0.5069727744954E-05
 0.1913479973452E-01 -0.8643359700324E-04
 0.2002023159009E-01 -0.1648503059905E-03
 0.2087389956745E-01 -0.2390559966616E-03
 0.2168559209810E-01 -0.3072400777941E-03
 0.2244355041184E-01 -0.3676539075673E-03
 0.2313560520362E-01 -0.4203566755285E-03
 0.2375419179455E-01 -0.4698064598708E-03
 0.2430746282751E-01 -0.5247295896633E-03
-0.4467238045154E-05  0.4267505137850E-04
 0.3935195376155E-04  0.8891506452415E-04
 0.1275683302480E-03  0.1370994106436E-03
 0.2582456626243E-03  0.1854615373149E-03
 0.4306870142578E-03  0.2326737794882E-03
 0.6446495136984E-03  0.2778851526336E-03
 0.8999175362956E-03  0.3205386200081E-03
 0.1196163398155E-02  0.3602125966590E-03
 0.1532935646301E-02  0.3965382665619E-03
 0.1909685464980E-02  0.4291664284040E-03
 0.2325794796351E-02  0.4577556383976E-03
 0.2780596781131E-02  0.4819677518876E-03
 0.3273389382214E-02  0.5014655774707E-03
 0.3803439931257E-02  0.5159106528194E-03
 0.4369983244029E-02  0.5249609369108E-03
 0.4972215699105E-02  0.5282685909034E-03
 0.5609290716470E-02  0.5254780970591E-03
 0.6280272526645E-02  0.5162256400136E-03
 0.6984171897596E-02  0.5001394007830E-03
 0.7719865030241E-02  0.4768433690420E-03
 0.8486092055025E-02  0.4459639929744E-03
 0.9281415062022E-02  0.4071420159154E-03
 0.1010416867034E-01  0.3600501440216E-03
 0.1095240346754E-01  0.3045622166113E-03
 0.1182380721154E-01  0.2414576191552E-03
 0.1271562513313E-01  0.1720622748207E-03
 0.1362459200539E-01  0.9776061665120E-04
 0.1454688290139E-01  0.1976160609548E-04
 0.1547809175837E-01 -0.6092200067253E-04
 0.1641320537555E-01 -0.1433522241173E-03
 0.1734657918021E-01 -0.2265050945292E-03
 0.1827188431868E-01 -0.3091138544138E-03
 0.1918203441166E-01 -0.3895386806027E-03
 0.2006920113361E-01 -0.4663729723202E-03
 0.2092474169458E-01 -0.5386200121879E-03
 0.2173895088472E-01 -0.6050380407097E-03
 0.2250132384257E-01 -0.6648699670356E-03
 0.2320224300287E-01 -0.7193671399287E-03
 0.2383779004484E-01 -0.7733629595056E-03
 0.2441807121588E-01 -0.8340174016984E-03
-0.6855566292165E-05  0.3004105500676E-04
 0.3514437347742E-04  0.6304826740343E-04
 0.1224236452119E-03  0.9771685855713E-04
 0.2529553941863E-03  0.1325297784345E-03
 0.4258051491933E-03  0.1662588129491E-03
 0.6405260973818E-03  0.1980628825341E-03
 0.8967752453302E-03  0.2273777903835E-03
 0.1194155529354E-02  0.2537881698036E-03
 0.1532179107482E-02  0.2769469152277E-03
 0.1910277776271E-02  0.2965363789323E-03
 0.2327822812315E-02  0.3122517437652E-03
 0.2784141349796E-02  0.3237938610669E-03
 0.3278527998644E-02  0.3308656227211E-03
 0.3810248347324E-02  0.3331693763245E-03
 0.4378536467552E-02  0.3304047314134E-03
 0.4982588552431E-02  0.3222666785174E-03
 0.5621557994012E-02  0.3084440879769E-03
 0.6294508569184E-02  0.2886201677001E-03
 0.7000449686557E-02  0.2624724286028E-03
 0.7738254248131E-02  0.2296779980108E-03
 0.8506656126452E-02  0.1899201780761E-03
 0.9304207041046E-02  0.1429002171635E-03
 0.1012922653702E-01  0.8835388211605E-04
 0.1097974619581E-01  0.2621200331236E-04
 0.1185343356530E-01 -0.4272732290430E-04
 0.1274751654726E-01 -0.1171443736154E-03
 0.1365871735653E-01 -0.1956663571611E-03
 0.1458320285590E-01 -0.2770930276212E-03
 0.1551656211664E-01 -0.3604192027292E-03
 0.1645378064289E-01 -0.4447222003370E-03
 0.1738921880064E-01 -0.5290129938311E-03
 0.1831656521835E-01 -0.6120941004131E-03
 0.1922877807427E-01 -0.6924504826860E-03
 0.2011813838586E-01 -0.7688710454360E-03
 0.2097627058530E-01 -0.8406948772037E-03
 0.2179408837368E-01 -0.9072756622034E-03
 0.2256237762834E-01 -0.9687180980901E-03
 0.2327373769587E-01 -0.1027080209155E-02
 0.2392685741562E-01 -0.1087150899688E-02
 0.2453254603642E-01 -0.1154660254491E-02
-0.8811731583982E-05  0.1748743359216E-04
 0.3166528975035E-04  0.3740143372525E-04
 0.1181408010866E-03  0.5868753897042E-04
 0.2485575809027E-03  0.8004748173100E-04
 0.4218071890199E-03  0.1003626409689E-03
 0.6372705134547E-03  0.1188222567863E-03
 0.8944847193094E-03  0.1348668341579E-03
 0.1192981441354E-02  0.1480900004403E-03
 0.1532232955530E-02  0.1581650725739E-03
 0.1911648968085E-02  0.1648039669646E-03
 0.2330588414452E-02  0.1677370169909E-03
 0.2788371540382E-02  0.1667033149364E-03
 0.3284289268676E-02  0.1614456800324E-03
 0.3817605479724E-02  0.1517075087936E-03
 0.4387553791588E-02  0.1372304903588E-03
 0.4993330690022E-02  0.1177528766779E-03
 0.5634090168256E-02  0.9300818566510E-04
 0.6308896324011E-02  0.6272654503644E-04
 0.7016758136385E-02  0.2663411636463E-04
 0.7756546377004E-02 -0.1554039578931E-04
 0.8526990239445E-02 -0.6405966417374E-04
 0.9326633375629E-02 -0.1191664871522E-03
 0.1015378366196E-01 -0.1810687105747E-03
 0.1100645841505E-01 -0.2497872937045E-03
 0.1188231092788E-01 -0.3245151658119E-03
 0.1277855843678E-01 -0.4039498540807E-03
 0.1369191778880E-01 -0.4867434070152E-03
 0.1461855572321E-01 -0.5717202957109E-03
 0.1555406615307E-01 -0.6579021508185E-03
 0.1649344550366E-01 -0.7444044885267E-03
 0.1743107508046E-01 -0.8303006255790E-03
 0.1836068323310E-01 -0.9144956021903E-03
 0.1927530564821E-01 -0.9956392651607E-03
 0.2016738278675E-01 -0.1072761184634E-02
 0.2102887532443E-01 -0.1145569834638E-02
 0.2185137654308E-01 -0.1213987954814E-02
 0.2262690883222E-01 -0.1278819641990E-02
 0.2334990692464E-01 -0.1342618069305E-02
 0.2402083594247E-01 -0.1409889322974E-02
 0.2465043999927E-01 -0.1485122949347E-02
-0.1039023798315E-04  0.5005799290589E-05
 0.2883801821507E-04  0.1195053534602E-04
 0.1146519662551E-03  0.1998006751856E-04
 0.2450026267256E-03  0.2798631272830E-04
 0.4186569738707E-03  0.3496246420195E-04
 0.6348530823249E-03  0.4014236421961E-04
 0.8930184502485E-03  0.4298208430865E-04
 0.1192613961387E-02  0.4308849875629E-04
 0.1533069758611E-02  0.4015559560241E-04
 0.1913771197628E-02  0.3392377729161E-04
 0.2334063295391E-02  0.2415744701118E-04
 0.2793258510299E-02  0.1063326546862E-04
 0.3290643707629E-02 -0.6866269023621E-05
 0.3825481077610E-02 -0.2855665807680E-04
 0.4397004091233E-02 -0.5465393953246E-04
 0.5004410061067E-02 -0.8537643154380E-04
 0.5646854312823E-02 -0.1209459921471E-03
 0.6323402198416E-02 -0.1615859772872E-03
 0.7033063430081E-02 -0.2075225699259E-03
 0.7774708145867E-02 -0.2589773636178E-03
 0.8547062873473E-02 -0.3161621008284E-03
 0.9348666012598E-02 -0.3792683044009E-03
 0.1017781769240E-01 -0.4484539821123E-03
 0.1103252615149E-01 -0.5237002247333E-03
 0.1191043675198E-01 -0.6042000476200E-03
 0.1280876311560E-01 -0.6886783850275E-03
 0.1372422438011E-01 -0.7758241911240E-03
 0.1465299576790E-01 -0.8645012414194E-03
 0.1559068624769E-01 -0.9537754523351E-03
 0.1653231584262E-01 -0.1042821143202E-02
 0.1747230316660E-01 -0.1130798065183E-02
 0.1840443841482E-01 -0.1216741602804E-02
 0.1932186569348E-01 -0.1299496925667E-02
 0.2021722710522E-01 -0.1378361831197E-02
 0.2108286655735E-01 -0.1453419097896E-02
 0.2191107198368E-01 -0.1525102376411E-02
 0.2269499069657E-01 -0.1594752758945E-02
 0.2343051803151E-01 -0.1665184531735E-02
 0.2411925554768E-01 -0.1740502275322E-02
 0.2477142549963E-01 -0.1824149542717E-02
-0.1163561883489E-04 -0.7410330698401E-05
 0.2659718835131E-04 -0.1332403732619E-04
 0.1118955155211E-03 -0.1843350103621E-04
 0.2422426039496E-03 -0.2368211161382E-04
 0.4163185545368E-03 -0.2996735091647E-04
 0.6332447834575E-03 -0.3800139197229E-04
 0.8923504608835E-03 -0.4830338150876E-04
 0.1193028114470E-02 -0.6124837565606E-04
 0.1534664680739E-02 -0.7712039749742E-04
 0.1916619439555E-02 -0.9615085172494E-04
 0.2338222099947E-02 -0.1185419410970E-03
 0.2798776477763E-02 -0.1444799792138E-03
 0.3297565011222E-02 -0.1741430774741E-03
 0.3833848222495E-02 -0.2077057221197E-03
 0.4406859770277E-02 -0.2453416796439E-03
 0.5015798390907E-02 -0.2872258962216E-03
 0.5659821579897E-02 -0.3335358742313E-03
 0.6337997036860E-02 -0.3844491115258E-03
 0.7049336598501E-02 -0.4401453861154E-03
 0.7792711577123E-02 -0.5007986952239E-03
 0.8566848240538E-02 -0.5665731007483E-03
 0.9370282994124E-02 -0.6376135293154E-03
 0.1020131257104E-01 -0.7140344645931E-03
 0.1105794168274E-01 -0.7957849587525E-03
 0.1193781438397E-01 -0.8820664671503E-03
 0.1283814804435E-01 -0.9716405893465E-03
 0.1375567211935E-01 -0.1063244107888E-02
 0.1468657931156E-01 -0.1155793229845E-02
 0.1562650419146E-01 -0.1248413742472E-02
 0.1657050323627E-01 -0.1340356833927E-02
 0.1751304856826E-01 -0.1430889086112E-02
 0.1844801322326E-01 -0.1519198200582E-02
 0.1936867691198E-01 -0.1604345463781E-02
 0.2026791561455E-01 -0.1685908915777E-02
 0.2113848159597E-01 -0.1764329720554E-02
 0.2197333681082E-01 -0.1840479263419E-02
 0.2276661162871E-01 -0.1916090024893E-02
 0.2351532164638E-01 -0.1994071005601E-02
 0.2422172437799E-01 -0.2078081962428E-02
 0.2489526046690E-01 -0.2170700007332E-02
-0.1258468126902E-04 -0.1976622154636E-04
 0.2488689714179E-04 -0.3843873052303E-04
 0.1098159853769E-03 -0.5657820985563E-04
 0.2402321194507E-03 -0.7498555824495E-04
 0.4147568940260E-03 -0.9445405929063E-04
 0.6324175030732E-03 -0.1156362471635E-03
 0.8924562641032E-03 -0.1390190878670E-03
 0.1194200988737E-02 -0.1649547693879E-03
 0.1536995350941E-02 -0.1937033522363E-03
 0.1920171389841E-02 -0.2254677221350E-03
 0.2343042366011E-02 -0.2604169886318E-03
 0.2804902691931E-02 -0.2987008307605E-03
 0.3305030044371E-02 -0.3404582621114E-03
 0.3842683324868E-02 -0.3858229411109E-03
 0.4417096754898E-02 -0.4349265231336E-03
 0.5027471160550E-02 -0.4879008310193E-03
 0.5672967152471E-02 -0.5448794866330E-03
 0.6352656029153E-02 -0.6059949971906E-03
 0.7065553361798E-02 -0.6713821823278E-03
 0.7810533731933E-02 -0.7411697007581E-03
 0.8586325901576E-02 -0.8154772432741E-03
 0.9391467915968E-02 -0.8944077210975E-03
 0.1022425781694E-01 -0.9780380871501E-03
 0.1108270263180E-01 -0.1066292617627E-02
 0.1196445196700E-01 -0.1158388829463E-02
 0.1286673454132E-01 -0.1253133336510E-02
 0.1378629842498E-01 -0.1349320515819E-02
 0.1471936305556E-01 -0.1445930635011E-02
 0.1566159929857E-01 -0.1542162964299E-02
 0.1660811282726E-01 -0.1637360939998E-02
 0.1755344479271E-01 -0.1730914505182E-02
 0.1849157008908E-01 -0.1822179804955E-02
 0.1941592634285E-01 -0.1910446158714E-02
 0.2031964498464E-01 -0.1995571311190E-02
 0.2119589232141E-01 -0.2078325487665E-02
 0.2203825839866E-01 -0.2159941217744E-02
 0.2284170395604E-01 -0.2242420288500E-02
 0.2360407038833E-01 -0.2328653750053E-02
 0.2432791722879E-01 -0.2421858529501E-02
 0.2502176535936E-01 -0.2523903886639E-02
-0.1326812752862E-04 -0.3206634027338E-04
 0.2365920184017E-04 -0.6340768072349E-04
 0.1083637941105E-03 -0.9447668079627E-04
 0.2389288392562E-03 -0.1259508412322E-03
 0.4139384314146E-03 -0.1585256973659E-03
 0.6323443137751E-03 -0.1927912291632E-03
 0.8933129002655E-03 -0.2291965497233E-03
 0.1196111660832E-02 -0.2680665558673E-03
 0.1540041764812E-02 -0.3096350449803E-03
 0.1924407381039E-02 -0.3540756100311E-03
 0.2348504462970E-02 -0.4015242484644E-03
 0.2811617391694E-02 -0.4520942428385E-03
 0.3313018812902E-02 -0.5058857816241E-03
 0.3851966099757E-02 -0.5629919536453E-03
 0.4427694463268E-02 -0.6235025898777E-03
 0.5039407559468E-02 -0.6875067958001E-03
 0.5686270167484E-02 -0.7550949577059E-03
 0.6367358587638E-02 -0.8263556245355E-03
 0.7081693939706E-02 -0.9013802442754E-03
 0.7828156428263E-02 -0.9802544774280E-03
 0.8605480365708E-02 -0.1063056932582E-02
 0.9412209385677E-02 -0.1149852907824E-02
 0.1024664782854E-01 -0.1240687432583E-02
 0.1110681110814E-01 -0.1335466661030E-02
 0.1199036141738E-01 -0.1433431040786E-02
 0.1289454659414E-01 -0.1533439630084E-02
 0.1381614179475E-01 -0.1634352999635E-02
 0.1475140257362E-01 -0.1735225586700E-02
 0.1569604674796E-01 -0.1835341743146E-02
 0.1664524153544E-01 -0.1934149800029E-02
 0.1759361151782E-01 -0.2031175754700E-02
 0.1853524986673E-01 -0.2125954827907E-02
 0.1946376897707E-01 -0.2218008667865E-02
 0.2037256701791E-01 -0.2307464888973E-02
 0.2125521412036E-01 -0.2395386222181E-02
 0.2210586646805E-01 -0.2483293552866E-02
 0.2292016441734E-01 -0.2573360449660E-02
 0.2369652842709E-01 -0.2668387499129E-02
 0.2443756414778E-01 -0.2771175551592E-02
 0.2515080745466E-01 -0.2883024783403E-02
-0.1371175127838E-04 -0.4431461741783E-04
 0.2287289677163E-04 -0.8824330626203E-04
 0.1074948551697E-03 -0.1321495252810E-03
 0.2382937742672E-03 -0.1766036835107E-03
 0.4138315121597E-03 -0.2222105255665E-03
 0.6329997478421E-03 -0.2694965143713E-03
 0.8948990235814E-03 -0.3188687576976E-03
 0.1198741172067E-02 -0.3706209935710E-03
 0.1543786221457E-02 -0.4249583709556E-03
 0.1929310318245E-02 -0.4820241255373E-03
 0.2354591540686E-02 -0.5419208712577E-03
 0.2818903768989E-02 -0.6047255925604E-03
 0.3321514436622E-02 -0.6704998933982E-03
 0.3861679542404E-02 -0.7392965988787E-03
 0.4438635775223E-02 -0.8111641012949E-03
 0.5051590439229E-02 -0.8861493214662E-03
 0.5699713641278E-02 -0.9643001899004E-03
 0.6382088229357E-02 -0.1045662452663E-02
 0.7097742871746E-02 -0.1130285861598E-02
 0.7845565977748E-02 -0.1218215440523E-02
 0.8624300722674E-02 -0.1309491917164E-02
 0.9432500533854E-02 -0.1404147136540E-02
 0.1026848126371E-01 -0.1502199375796E-02
 0.1113027295236E-01 -0.1603542682314E-02
 0.1201555753323E-01 -0.1707446537218E-02
 0.1292160983490E-01 -0.1812828949162E-02
 0.1384524065516E-01 -0.1918624112816E-02
 0.1478275105018E-01 -0.2023969223733E-02
 0.1572991623854E-01 -0.2128243307955E-02
 0.1668197669402E-01 -0.2231009554243E-02
 0.1763365337492E-01 -0.2331939068075E-02
 0.1857917117899E-01 -0.2430751884505E-02
 0.1951232857641E-01 -0.2527200156848E-02
 0.2042679258475E-01 -0.2621665281331E-02
 0.2131651487198E-01 -0.2715463407013E-02
 0.2217614726349E-01 -0.2810338663903E-02
 0.2300186859676E-01 -0.2908561570041E-02
 0.2379247589127E-01 -0.3012798921026E-02
 0.2455043988291E-01 -0.3125471711901E-02
 0.2528229044596E-01 -0.3247432292777E-02
-0.1393733717622E-04 -0.5651461180733E-04
 0.2249252114276E-04 -0.1129567207783E-03
 0.1071701550857E-03 -0.1696156784049E-03
 0.2382914024394E-03 -0.2269686784739E-03
 0.4144066994589E-03 -0.2855366481962E-03
 0.6343600395331E-03 -0.3457829203362E-03
 0.8971950085134E-03 -0.4080697186576E-03
 0.1202072534724E-02 -0.4726563764598E-03
 0.1548213281550E-02 -0.5397170897817E-03
 0.1934865623398E-02 -0.6093635138310E-03
 0.2361289475864E-02 -0.6816644244783E-03
 0.2826747921163E-02 -0.7566604893715E-03
 0.3330503105357E-02 -0.8343749330282E-03
 0.3871809882384E-02 -0.9148206540319E-03
 0.4449906976945E-02 -0.9980050678074E-03
 0.5064006239505E-02 -0.1083933542599E-02
 0.5713284365660E-02 -0.1172612435603E-02
 0.6396832428352E-02 -0.1264045930011E-02
 0.7113688809376E-02 -0.1358243799851E-02
 0.7862752899906E-02 -0.1455212762365E-02
 0.8642780262463E-02 -0.1554958723194E-02
 0.9452338526720E-02 -0.1657483942231E-02
 0.1028976043841E-01 -0.1762784642400E-02
 0.1115309701905E-01 -0.1870748120591E-02
 0.1204005716310E-01 -0.1980678221070E-02
 0.1294795060072E-01 -0.2091557486614E-02
 0.1387363232668E-01 -0.2202400006982E-02
 0.1481345817560E-01 -0.2312432827148E-02
 0.1576327086209E-01 -0.2421137287104E-02
 0.1671839499891E-01 -0.2528198844768E-02
 0.1767365919022E-01 -0.2633439453656E-02
 0.1862343040073E-01 -0.2736765560873E-02
 0.1956169924855E-01 -0.2838153402318E-02
 0.2048239600862E-01 -0.2938218456527E-02
 0.2137982322341E-01 -0.3038491807265E-02
 0.2224905474756E-01 -0.3140885486853E-02
 0.2308668073201E-01 -0.3247710586988E-02
 0.2389171058274E-01 -0.3361479990009E-02
 0.2466635384451E-01 -0.3484268617486E-02
 0.2541614618608E-01 -0.3616578751281E-02
-0.1396334906080E-04 -0.6866961319330E-04
 0.2248755285416E-04 -0.1375580283005E-03
 0.1073553346579E-03 -0.2068926699737E-03
 0.2388896829105E-03 -0.2770693102767E-03
 0.4156369882786E-03 -0.3485317660439E-03
 0.6364033288000E-03 -0.4216815233707E-03
 0.9001830619114E-03 -0.4968340747226E-03
 0.1206090760014E-02 -0.5742117199248E-03
 0.1553309745520E-02 -0.6539555823861E-03
 0.1941061192358E-02 -0.7361444590679E-03
 0.2368586823794E-02 -0.8208127148397E-03
 0.2835138803084E-02 -0.9079645923092E-03
 0.3339974030926E-02 -0.9975851092009E-03
 0.3882346531394E-02 -0.1089647595357E-02
 0.4461497698260E-02 -0.1184119008735E-02
 0.5076644906722E-02 -0.1280963872628E-02
 0.5726972797820E-02 -0.1380147927247E-02
 0.6411582464688E-02 -0.1481635083115E-02
 0.7129524310195E-02 -0.1585396857419E-02
 0.7879711647039E-02 -0.1691403915177E-02
 0.8660916118115E-02 -0.1799630211768E-02
 0.9471724117921E-02 -0.1910051959492E-02
 0.1031049078349E-01 -0.2022647525563E-02
 0.1117529453883E-01 -0.2137302142251E-02
 0.1206387847769E-01 -0.2253358573669E-02
 0.1297359512440E-01 -0.2369868567874E-02
 0.1390135215234E-01 -0.2485931244253E-02
 0.1484356924701E-01 -0.2600869136908E-02
 0.1579616624094E-01 -0.2714271681163E-02
 0.1675456180723E-01 -0.2825951660937E-02
 0.1771370168365E-01 -0.2935884714198E-02
 0.1866810220544E-01 -0.3044161961494E-02
 0.1961194753856E-01 -0.3150974131854E-02
 0.2053941960461E-01 -0.3257149499507E-02
 0.2144513576983E-01 -0.3364398471632E-02
 0.2232451969734E-01 -0.3474754952057E-02
 0.2317445935111E-01 -0.3590532239719E-02
 0.2399404998036E-01 -0.3714075905455E-02
 0.2478514072430E-01 -0.3847173992370E-02
 0.2555232683370E-01 -0.3989977491858E-02
-0.1380546431990E-04 -0.8078269484207E-04
 0.2283175280875E-04 -0.1620565460229E-03
 0.1080202914004E-03 -0.2439968376655E-03
 0.2400600016272E-03 -0.3269280038216E-03
 0.4174979417037E-03 -0.4112230173906E-03
 0.6391098242888E-03 -0.4972233706463E-03
 0.9038473295072E-03 -0.5851967877592E-03
 0.1210782897284E-02 -0.6753264787998E-03
 0.1559064645207E-02 -0.7677186170058E-03
 0.1947887361074E-02 -0.8624178860564E-03
 0.2376474773425E-02 -0.9594236050168E-03
 0.2844068177574E-02 -0.1058703422391E-02
 0.3349919393775E-02 -0.1160204296783E-02
 0.3893282023364E-02 -0.1263860361599E-02
 0.4473400841098E-02 -0.1369598679891E-02
 0.5089499803877E-02 -0.1477343692957E-02
 0.5740772942706E-02 -0.1587021529033E-02
 0.6426333268958E-02 -0.1698557136413E-02
 0.7145245632998E-02 -0.1811885464829E-02
 0.7896440338393E-02 -0.1926943269169E-02
 0.8678708929451E-02 -0.2043675204503E-02
 0.9490661235872E-02 -0.2162034614312E-02
 0.1033068035398E-01 -0.2281985691887E-02
 0.1119687855218E-01 -0.2403415616608E-02
 0.1208704033490E-01 -0.2525709863587E-02
 0.1299856884383E-01 -0.2647993163017E-02
 0.1392843277509E-01 -0.2769453697232E-02
 0.1487312445668E-01 -0.2889513744795E-02
 0.1582864990373E-01 -0.3007874886681E-02
 0.1679053073795E-01 -0.3124480177430E-02
 0.1775383754043E-01 -0.3239459323694E-02
 0.1871324050374E-01 -0.3353083839982E-02
 0.1966311481536E-01 -0.3465747410273E-02
 0.2059787794093E-01 -0.3578469828459E-02
 0.2151242348072E-01 -0.3693109023238E-02
 0.2240245558028E-01 -0.3811784587589E-02
 0.2326506434642E-01 -0.3936784078902E-02
 0.2409932127103E-01 -0.4070293481707E-02
 0.2490668230288E-01 -0.4213822736052E-02
 0.2569074253956E-01 -0.4367356429047E-02
-0.1347702186710E-04 -0.9285484453701E-04
 0.2350184343130E-04 -0.1864527257199E-03
 0.1091368149535E-03 -0.2809251303478E-03
 0.2417732537408E-03 -0.3765336195617E-03
 0.4199615415580E-03 -0.4735860685497E-03
 0.6424526973528E-03 -0.5723661676654E-03
 0.9081611818944E-03 -0.6730934972864E-03
 0.1216121160356E-02 -0.7759106924052E-03
 0.1565447748757E-02 -0.8808874497533E-03
 0.1955310401875E-02 -0.9880332678841E-03
 0.2384915313458E-02 -0.1097311899372E-02
 0.2853493189860E-02 -0.1208654349827E-02
 0.3360291119050E-02 -0.1321969829887E-02
 0.3904562832651E-02 -0.1437153864427E-02
 0.4485557317740E-02 -0.1554094444899E-02
 0.5102506272014E-02 -0.1672676984409E-02
 0.5754614652011E-02 -0.1792789305198E-02
 0.6441009367891E-02 -0.1914318993992E-02
 0.7160772215333E-02 -0.2037166370470E-02
 0.7912853609983E-02 -0.2161236600159E-02
 0.8696068835192E-02 -0.2286447761126E-02
 0.9509055786445E-02 -0.2412733441569E-02
 0.1035023096886E-01 -0.2540047108164E-02
 0.1121774672076E-01 -0.2668281466609E-02
 0.1210943584273E-01 -0.2796867839083E-02
 0.1302275946911E-01 -0.2925006822507E-02
 0.1395475505086E-01 -0.3051978527014E-02
 0.1490199548846E-01 -0.3177307729116E-02
 0.1586058079599E-01 -0.3300810315776E-02
 0.1682614260769E-01 -0.3422560262245E-02
 0.1779388142941E-01 -0.3542839117998E-02
 0.1875862218903E-01 -0.3662091908106E-02
 0.1971492406416E-01 -0.3780901866652E-02
 0.2065741944071E-01 -0.3900459142041E-02
 0.2158123690276E-01 -0.4022741157725E-02
 0.2248229609307E-01 -0.4149924569785E-02
 0.2335780305465E-01 -0.4284255346318E-02
 0.2420673425675E-01 -0.4427766100249E-02
 0.2503007562159E-01 -0.4581744112004E-02
 0.2583065459268E-01 -0.4745957012087E-02
-0.1298924096830E-04 -0.1048908431417E-03
 0.2447923060074E-04 -0.2107628444018E-03
 0.1106840121486E-03 -0.3177102967219E-03
 0.2440107863774E-03 -0.4259391957451E-03
 0.4230143837961E-03 -0.5356975473016E-03
 0.6464252544793E-03 -0.6472135674657E-03
 0.9131250586119E-03 -0.7606587313054E-03
 0.1222113054161E-02 -0.8761339786925E-03
 0.1572473435422E-02 -0.9936711828556E-03
 0.1963351426484E-02 -0.1113243588033E-02
 0.2393936243712E-02 -0.1234778749518E-02
 0.2863448373306E-02 -0.1358170816652E-02
 0.3371130586989E-02 -0.1483291377572E-02
 0.3916237349726E-02 -0.1609997740425E-02
 0.4498022734021E-02 -0.1738139438245E-02
 0.5115727380513E-02 -0.1867563674491E-02
 0.5768568758679E-02 -0.1998120996624E-02
 0.6455689722997E-02 -0.2129662895485E-02
 0.7176191591875E-02 -0.2262056590503E-02
 0.7929048104666E-02 -0.2395177474009E-02
 0.8713102215941E-02 -0.2528919156540E-02
 0.9527024608164E-02 -0.2663197851769E-02
 0.1036927072643E-01 -0.2797958894500E-02
 0.1123803927883E-01 -0.2933103160956E-02
 0.1213121832705E-01 -0.3068110092495E-02
 0.1304633446839E-01 -0.3202258191411E-02
 0.1398050173542E-01 -0.3334921441182E-02
 0.1493038157350E-01 -0.3465728834320E-02
 0.1589217571721E-01 -0.3594611592321E-02
 0.1686163253829E-01 -0.3721774130482E-02
 0.1783408687527E-01 -0.3847646693412E-02
 0.1880451827761E-01 -0.3972840607420E-02
 0.1976766193002E-01 -0.4098116153701E-02
 0.2071834448396E-01 -0.4224815546870E-02
 0.2165189136622E-01 -0.4355013227731E-02
 0.2256438005886E-01 -0.4490922316176E-02
 0.2345306530854E-01 -0.4634739079022E-02
 0.2431675826098E-01 -0.4788354106661E-02
 0.2515599506481E-01 -0.4952879486969E-02
 0.2597267041401E-01 -0.5127854970092E-02
-0.1235161521838E-04 -0.1168934889511E-03
 0.2574762048313E-04 -0.2349946236015E-03
 0.1126425413928E-03 -0.3543660502530E-03
 0.2467536296748E-03 -0.4751643946174E-03
 0.4266400687377E-03 -0.5975825032242E-03
 0.6510145632782E-03 -0.7217954807984E-03
 0.9187294644262E-03 -0.8479270672725E-03
 0.1228752025019E-02 -0.9760357469044E-03
 0.1580137473496E-02 -0.1106114474350E-02
 0.1972007965248E-02 -0.1238099299392E-02
 0.2403536424015E-02 -0.1371880996465E-02
 0.2873933617744E-02 -0.1507316657212E-02
 0.3382438532880E-02 -0.1644240379848E-02
 0.3928307063646E-02 -0.1782471661785E-02
 0.4510799315871E-02 -0.1921822210452E-02
 0.5129166137857E-02 -0.2062101853276E-02
 0.5782639154684E-02 -0.2203124889813E-02
 0.6470379261127E-02 -0.2344707938350E-02
 0.7191509920728E-02 -0.2486686548220E-02
 0.7945031443084E-02 -0.2628907975976E-02
 0.8729818402971E-02 -0.2771243196980E-02
 0.9544578980043E-02 -0.2913593039332E-02
 0.1038781304306E-01 -0.3055896782944E-02
 0.1125777188016E-01 -0.3198065481861E-02
 0.1215240564851E-01 -0.3339628273886E-02
 0.1306931370258E-01 -0.3479942824125E-02
 0.1400569423342E-01 -0.3618478017781E-02
 0.1495830482246E-01 -0.3754967703231E-02
 0.1592345604879E-01 -0.3889458244474E-02
 0.1689701883562E-01 -0.4022282741197E-02
 0.1787446546762E-01 -0.4154015851827E-02
 0.1885092838384E-01 -0.4285427363382E-02
 0.1982130918872E-01 -0.4417442520610E-02
 0.2078060749481E-01 -0.4551539443850E-02
 0.2172430899566E-01 -0.4689871355602E-02
 0.2264859832910E-01 -0.4834673611258E-02
 0.2355071949054E-01 -0.4988089163711E-02
 0.2442927838358E-01 -0.5151888311826E-02
 0.2528432484459E-01 -0.5327017847763E-02
 0.2611697620464E-01 -0.5512980424035E-02
-0.1157208427331E-04 -0.1288654743484E-03
 0.2729331627588E-04 -0.2591554058039E-03
 0.1149960716636E-03 -0.3909054192297E-03
 0.2499857443969E-03 -0.5242280602203E-03
 0.4308248401228E-03 -0.6592652179096E-03
 0.6562100612593E-03 -0.7961412020058E-03
 0.9249671164707E-03 -0.9349326141549E-03
 0.1236033696894E-02 -0.1075655013272E-02
 0.1588437861489E-02 -0.1218261569751E-02
 0.1981279878593E-02 -0.1362650335836E-02
 0.2413717162926E-02 -0.1508674787888E-02
 0.2884951383397E-02 -0.1656154788166E-02
 0.3394218379622E-02 -0.1804887095992E-02
 0.3940776259639E-02 -0.1954653822512E-02
 0.4523892180488E-02 -0.2105229500310E-02
 0.5142828517486E-02 -0.2256387423246E-02
 0.5796832736609E-02 -0.2407906656033E-02
 0.6485085901202E-02 -0.2559570113994E-02
 0.7206736263475E-02 -0.2711182995124E-02
 0.7960813955791E-02 -0.2862565868827E-02
 0.8746229106588E-02 -0.3013568624589E-02
 0.9561732058512E-02 -0.3164078302695E-02
 0.1040587250813E-01 -0.3314029696836E-02
 0.1127696041552E-01 -0.3463345429281E-02
 0.1217301471276E-01 -0.3611605246460E-02
 0.1309171460888E-01 -0.3758246496331E-02
 0.1403034976694E-01 -0.3902833144498E-02
 0.1498578111803E-01 -0.4045203562978E-02
 0.1595443465295E-01 -0.4185518010345E-02
 0.1693230886128E-01 -0.4324235485243E-02
 0.1791501553013E-01 -0.4462069984677E-02
 0.1889783705548E-01 -0.4599941695117E-02
 0.1987583093835E-01 -0.4738929556482E-02
 0.2084414851860E-01 -0.4880633692599E-02
 0.2179840176523E-01 -0.5027271926718E-02
 0.2273483721794E-01 -0.5181092194410E-02
 0.2365064107899E-01 -0.5344187074386E-02
 0.2454417654972E-01 -0.5518220311733E-02
 0.2541501239276E-01 -0.5704023732707E-02
 0.2626358234260E-01 -0.5901095881241E-02
-0.1065721369541E-04 -0.1408094075197E-03
 0.2910496045363E-04 -0.2832521928480E-03
 0.1177310514613E-03 -0.4273408179571E-03
 0.2536938873445E-03 -0.5731482670098E-03
 0.4355575436556E-03 -0.7207691992312E-03
 0.6620035708210E-03 -0.8702793400811E-03
 0.9318329751181E-03 -0.1021708893220E-02
 0.1243955891625E-02 -0.1175030250563E-02
 0.1597374826494E-02 -0.1330156134636E-02
 0.1991169332349E-02 -0.1486945933869E-02
 0.2424482173074E-02 -0.1645215388215E-02
 0.2896506639949E-02 -0.1804747002938E-02
 0.3406476163240E-02 -0.1965300378644E-02
 0.3953651932373E-02 -0.2126620688630E-02
 0.4537309237323E-02 -0.2288445959962E-02
 0.5156723345423E-02 -0.2450513801022E-02
 0.5811159278157E-02 -0.2612569035049E-02
 0.6499820409626E-02 -0.2774361983043E-02
 0.7221882421906E-02 -0.2935668692028E-02
 0.7976408500804E-02 -0.3096284299249E-02
 0.8762348215768E-02 -0.3256038873934E-02
 0.9578498662706E-02 -0.3414806880844E-02
 0.1042346466124E-01 -0.3572519701868E-02
 0.1129562079154E-01 -0.3729112324950E-02
 0.1219306126498E-01 -0.3884215385506E-02
 0.1311355203209E-01 -0.4037345743769E-02
 0.1405448127521E-01 -0.4188161844186E-02
 0.1501282013025E-01 -0.4336605383090E-02
 0.1598511607155E-01 -0.4482948365627E-02
 0.1696749950597E-01 -0.4627772094344E-02
 0.1795572297091E-01 -0.4771924319433E-02
 0.1894521509499E-01 -0.4916467660649E-02
 0.1993117836213E-01 -0.5062624535575E-02
 0.2090889536080E-01 -0.5212105482630E-02
 0.2187407307568E-01 -0.5367182176180E-02
 0.2282298077422E-01 -0.5530109959263E-02
 0.2375270733223E-01 -0.5702935598430E-02
 0.2466134742236E-01 -0.5887235658973E-02
 0.2554800117579E-01 -0.6083761533757E-02
 0.2641247784861E-01 -0.6292015047169E-02
-0.9612343423912E-05 -0.1527278230402E-03
 0.3117331641739E-04 -0.3072916889779E-03
 0.1208365087869E-03 -0.4636841197115E-03
 0.2578674858319E-03 -0.6219423950420E-03
 0.4408295819662E-03 -0.7821172316124E-03
 0.6683893084937E-03 -0.9442378373647E-03
 0.9393242751448E-03 -0.1108288835154E-02
 0.1252518658189E-02 -0.1274199380723E-02
 0.1606950839765E-02 -0.1441841257894E-02
 0.2001680796749E-02 -0.1611034655810E-02
 0.2435837555266E-02 -0.1781557225683E-02
 0.2908606838797E-02 -0.1953154043398E-02
 0.3419220495971E-02 -0.2125547769912E-02
 0.3966943741587E-02 -0.2298447119241E-02
 0.4551061136953E-02 -0.2471554303273E-02
 0.5170862242230E-02 -0.2644572097966E-02
 0.5825631364554E-02 -0.2817212056032E-02
 0.6514596326501E-02 -0.2989192948327E-02
 0.7236962855927E-02 -0.3160262750051E-02
 0.7991830374282E-02 -0.3330192227250E-02
 0.8778191704440E-02 -0.3498792614759E-02
 0.9594895181448E-02 -0.3665926638645E-02
 0.1044060590773E-01 -0.3831522867012E-02
 0.1131376886587E-01 -0.3995528885034E-02
 0.1221255986042E-01 -0.4157625901352E-02
 0.1313483825285E-01 -0.4317409475762E-02
 0.1407809753273E-01 -0.4474631219061E-02
 0.1503942557028E-01 -0.4629334186058E-02
 0.1601549697771E-01 -0.4781899223100E-02
 0.1700257791571E-01 -0.4933025722519E-02
 0.1799656236477E-01 -0.5083689321932E-02
 0.1899302104295E-01 -0.5235087427228E-02
 0.1998729059789E-01 -0.5388576909982E-02
 0.2097476556811E-01 -0.5545969317194E-02
 0.2195121974721E-01 -0.5709582554635E-02
 0.2291291120168E-01 -0.5881677280956E-02
 0.2385679911641E-01 -0.6064261514773E-02
 0.2478069175342E-01 -0.6258843409241E-02
 0.2568323262721E-01 -0.6466117144137E-02
 0.2656364434784E-01 -0.6685590225747E-02
-0.8441711341150E-05 -0.1646231841900E-03
 0.3349108097118E-04 -0.3312803204187E-03
 0.1243038707580E-03 -0.4999466838203E-03
 0.2624985107047E-03 -0.6706271363545E-03
 0.4466348491941E-03 -0.8433313322242E-03
 0.6753638619262E-03 -0.1018043859347E-02
 0.9474405179734E-03 -0.1194704601166E-02
 0.1261724258159E-02 -0.1373199531977E-02
 0.1617170582678E-02 -0.1553359149598E-02
 0.2012820988143E-02 -0.1734964029642E-02
 0.2447791716025E-02 -0.1917753471554E-02
 0.2921261808531E-02 -0.2101435113418E-02
 0.3432462442190E-02 -0.2285694943666E-02
 0.3980663870565E-02 -0.2470205732888E-02
 0.4565161113570E-02 -0.2654634593617E-02
 0.5185259450474E-02 -0.2838650329559E-02
 0.5840264205665E-02 -0.3021932172141E-02
 0.6529429765130E-02 -0.3204168322235E-02
 0.7251994470754E-02 -0.3385079642673E-02
 0.8007097087683E-02 -0.3564413399497E-02
 0.8793777402289E-02 -0.3741962707781E-02
 0.9610939343050E-02 -0.3917579030599E-02
 0.1045731329478E-01 -0.4091188265458E-02
 0.1133142023925E-01 -0.4262750290295E-02
 0.1223152368546E-01 -0.4431996012514E-02
 0.1315558285529E-01 -0.4598598285315E-02
 0.1410120308825E-01 -0.4762399929224E-02
 0.1506559523463E-01 -0.4923542718144E-02
 0.1604556636896E-01 -0.5082512802513E-02
 0.1703752188373E-01 -0.5240122989778E-02
 0.1803749758402E-01 -0.5397470834116E-02
 0.1904120205391E-01 -0.5555881351071E-02
 0.2004409576597E-01 -0.5716838077048E-02
 0.2104166743206E-01 -0.5882246208862E-02
 0.2202973251720E-01 -0.6054464882343E-02
 0.2300450873087E-01 -0.6235760518957E-02
 0.2396279922981E-01 -0.6428110917617E-02
 0.2490211287381E-01 -0.6632972427331E-02
 0.2582064609475E-01 -0.6850998672045E-02
 0.2671706135745E-01 -0.7081706066554E-02
-0.7148556333440E-05 -0.1764978877964E-03
 0.3605272661088E-04 -0.3552242671698E-03
 0.1281268101323E-03 -0.5361394152259E-03
 0.2675813676277E-03 -0.7192185678309E-03
 0.4529696778353E-03 -0.9044328205060E-03
 0.6829261801039E-03 -0.1091723852996E-02
 0.9561834843789E-03 -0.1280987633148E-02
 0.1271577182406E-02 -0.1472067090279E-02
 0.1628040955867E-02 -0.1664751204266E-02
 0.2024598865743E-02 -0.1858780632413E-02
 0.2460355351570E-02 -0.2053856148992E-02
 0.2934483728031E-02 -0.2249648016425E-02
 0.3446215483186E-02 -0.2445805874143E-02
 0.3994826985041E-02 -0.2641967110020E-02
 0.4579624940066E-02 -0.2837764484382E-02
 0.5199931787670E-02 -0.3032833700257E-02
 0.5855075588356E-02 -0.3226822598670E-02
 0.6544339365624E-02 -0.3419389730213E-02
 0.7266996574264E-02 -0.3610229690124E-02
 0.8022228332507E-02 -0.3799066933737E-02
 0.8809124972072E-02 -0.3985676911875E-02
 0.9626650212239E-02 -0.4169899956824E-02
 0.1047360453709E-01 -0.4351659008127E-02
 0.1134859032189E-01 -0.4530925427741E-02
 0.1224996467966E-01 -0.4707478426905E-02
 0.1317579292497E-01 -0.4881066200489E-02
 0.1412379856490E-01 -0.5051620241061E-02
 0.1509132144172E-01 -0.5219377812439E-02
 0.1607530618177E-01 -0.5384926307819E-02
 0.1707230068585E-01 -0.5549186941405E-02
 0.1807848288601E-01 -0.5713373235929E-02
 0.1908969522741E-01 -0.5878931197988E-02
 0.2010151246745E-01 -0.6047464460858E-02
 0.2110950146066E-01 -0.6220966362925E-02
 0.2210949721845E-01 -0.6401834479892E-02
 0.2309765220864E-01 -0.6592343424326E-02
 0.2407059200215E-01 -0.6794449960250E-02
 0.2502551598060E-01 -0.7009573155793E-02
 0.2596018057967E-01 -0.7238339260017E-02
 0.2687270827963E-01 -0.7480278085585E-02
-0.5735205131819E-05 -0.1883542654492E-03
 0.3885436576603E-04 -0.3791294793297E-03
 0.1323011077281E-03 -0.5722727932707E-03
 0.2731127913220E-03 -0.7677321765762E-03
 0.4598327750906E-03 -0.9654423212588E-03
 0.6910775428974E-03 -0.1165303514459E-02
 0.9655572198195E-03 -0.1367168581247E-02
 0.1282084135544E-02 -0.1570837587850E-02
 0.1639571051411E-02 -0.1776057853309E-02
 0.2037025585959E-02 -0.1982529908621E-02
 0.2473541383122E-02 -0.2189915917599E-02
 0.2948287044107E-02 -0.2397848904911E-02
 0.3460495419648E-02 -0.2605942548864E-02
 0.4009450123323E-02 -0.2813799468395E-02
 0.4594470808530E-02 -0.3021018857511E-02
 0.5214898519768E-02 -0.3227204208000E-02
 0.5870085745650E-02 -0.3431972889175E-02
 0.6559346162736E-02 -0.3634954667349E-02
 0.7281990747175E-02 -0.3835818608773E-02
 0.8037245857485E-02 -0.4034266877003E-02
 0.8824255799672E-02 -0.4230057470725E-02
 0.9642048100304E-02 -0.4423019401014E-02
 0.1048949795590E-01 -0.4613071958462E-02
 0.1136529431156E-01 -0.4800196709373E-02
 0.1226789356570E-01 -0.4984219291868E-02
 0.1319547314578E-01 -0.5164960791257E-02
 0.1414588084338E-01 -0.5342438311236E-02
 0.1511659132444E-01 -0.5516980859504E-02
 0.1610469171832E-01 -0.5689272574533E-02
 0.1710687566234E-01 -0.5860337831304E-02
 0.1811946365299E-01 -0.6031500280411E-02
 0.1913842847041E-01 -0.6204320895881E-02
 0.2015945066880E-01 -0.6380518000741E-02
 0.2117816110405E-01 -0.6562169209981E-02
 0.2219039511122E-01 -0.6751709599371E-02
 0.2319221877591E-01 -0.6951425894720E-02
 0.2418006222896E-01 -0.7163263250498E-02
 0.2515080705460E-01 -0.7388616398870E-02
 0.2610177472854E-01 -0.7628095487936E-02
 0.2703056391197E-01 -0.7881248943009E-02
-0.4203145607937E-05 -0.2001945848819E-03
 0.4189363497420E-04 -0.4030016924448E-03
 0.1368245325014E-03 -0.6083569003962E-03
 0.2790917499494E-03 -0.8161828900996E-03
 0.4672251615396E-03 -0.1026379780911E-02
 0.6998215279741E-03 -0.1238807779575E-02
 0.9755680155507E-03 -0.1453277263087E-02
 0.1293254016883E-02 -0.1669545630605E-02
 0.1651772123196E-02 -0.1887318462336E-02
 0.2050114456720E-02 -0.2106256038984E-02
 0.2487364893785E-02 -0.2325981914207E-02
 0.2962688392191E-02 -0.2546092092900E-02
 0.3475320278792E-02 -0.2766164752236E-02
 0.4024552593073E-02 -0.2985768417911E-02
 0.4609719220046E-02 -0.3204469550999E-02
 0.5230181247435E-02 -0.3421840347847E-02
 0.5885317243126E-02 -0.3637468621153E-02
 0.6574473476434E-02 -0.3850956174899E-02
 0.7297000742552E-02 -0.4061947190433E-02
 0.8052173382690E-02 -0.4270121902920E-02
 0.8839192929605E-02 -0.4475220846510E-02
 0.9657154529899E-02 -0.4677061221781E-02
 0.1050501248204E-01 -0.4875557604915E-02
 0.1138154724526E-01 -0.5070700050485E-02
 0.1228531996107E-01 -0.5262358302669E-02
 0.1321462598500E-01 -0.5450423430104E-02
 0.1416744333542E-01 -0.5634994615325E-02
 0.1514138720834E-01 -0.5816488408534E-02
 0.1613369214470E-01 -0.5995680828743E-02
 0.1714120084335E-01 -0.6173693995512E-02
 0.1816037713291E-01 -0.6351956001030E-02
 0.1918732130566E-01 -0.6532137354873E-02
 0.2021781247713E-01 -0.6716066733018E-02
 0.2124753333978E-01 -0.6905903600151E-02
 0.2227230308649E-01 -0.7104121124530E-02
 0.2328808352395E-01 -0.7313023194519E-02
 0.2429109435091E-01 -0.7534552863780E-02
 0.2527789208899E-01 -0.7770092370726E-02
 0.2624536656269E-01 -0.8020245888228E-02
 0.2719060570903E-01 -0.8284585791866E-02
-0.2553088606551E-05 -0.2120210532387E-03
 0.4516959715123E-04 -0.4268464484919E-03
 0.1416967398175E-03 -0.6444014643617E-03
 0.2855193636834E-03 -0.8645851338219E-03
 0.4751501195899E-03 -0.1087264530565E-02
 0.7091639852876E-03 -0.1312260884639E-02
 0.9862243980061E-03 -0.1539342719107E-02
 0.1305097912537E-02 -0.1768224949067E-02
 0.1664657572493E-02 -0.1998571380929E-02
 0.2063880911396E-02 -0.2230001992806E-02
 0.2501843089400E-02 -0.2462101811106E-02
 0.2977706545273E-02 -0.2694430122779E-02
 0.3490710254052E-02 -0.2926530143636E-02
 0.4040155905117E-02 -0.3157937053110E-02
 0.4625392916336E-02 -0.3388185470108E-02
 0.5245803839434E-02 -0.3616817247784E-02
 0.5900794918289E-02 -0.3843391564421E-02
 0.6589746862030E-02 -0.4067483051582E-02
 0.7312052452253E-02 -0.4288711569593E-02
 0.8067036588861E-02 -0.4506735650603E-02
 0.8853961084876E-02 -0.4721278148908E-02
 0.9671992294246E-02 -0.4932143692566E-02
 0.1052016776442E-01 -0.5139240734341E-02
 0.1139736416776E-01 -0.5342565699869E-02
 0.1230225261846E-01 -0.5542029712154E-02
 0.1323325201838E-01 -0.5737590500924E-02
 0.1418847640711E-01 -0.5929425369521E-02
 0.1516568714656E-01 -0.6118033804029E-02
 0.1616227114724E-01 -0.6304278522688E-02
 0.1717522372751E-01 -0.6489373844863E-02
 0.1820115332220E-01 -0.6674846788142E-02
 0.1923628580974E-01 -0.6862472523217E-02
 0.2027649304428E-01 -0.7054186703746E-02
 0.2131749941631E-01 -0.7252229458861E-02
 0.2235509410997E-01 -0.7459113905001E-02
 0.2338511956187E-01 -0.7677167016788E-02
 0.2440357227000E-01 -0.7908339309521E-02
 0.2540667701949E-01 -0.8154011624120E-02
 0.2639089371926E-01 -0.8414791493812E-02
 0.2735280986209E-01 -0.8690280293494E-02
-0.7850205271589E-06 -0.2238358179322E-03
 0.4868265686999E-04 -0.4506691045516E-03
 0.1469191798487E-03 -0.6804158734010E-03
 0.2923988255167E-03 -0.9129528430446E-03
 0.4836131342251E-03 -0.1148115281108E-02
 0.7191129942160E-03 -0.1385686331694E-02
 0.9975370924078E-03 -0.1625393138346E-02
 0.1317629054454E-02 -0.1866908278517E-02
 0.1678242893730E-02 -0.2109853773327E-02
 0.2078342436384E-02 -0.2353809306413E-02
 0.2516995206573E-02 -0.2598321539679E-02
 0.2993362303710E-02 -0.2842913431686E-02
 0.3506687579692E-02 -0.3087093864450E-02
 0.4056283636912E-02 -0.3330365499577E-02
 0.4641516736657E-02 -0.3572232073131E-02
 0.5261792287952E-02 -0.3812206095628E-02
 0.5916545739719E-02 -0.4049819053040E-02
 0.6605193979123E-02 -0.4284619176905E-02
 0.7327173792308E-02 -0.4516202507184E-02
 0.8081863026633E-02 -0.4744205980762E-02
 0.8868586608219E-02 -0.4968334378173E-02
 0.9686585439061E-02 -0.5188378748828E-02
 0.1053498420152E-01 -0.5404239702322E-02
 0.1141276022135E-01 -0.5615917553107E-02
 0.1231869958182E-01 -0.5823361706070E-02
 0.1325135015932E-01 -0.6026592852382E-02
 0.1420896768588E-01 -0.6225862071554E-02
 0.1518946530548E-01 -0.6421746812517E-02
 0.1619038739063E-01 -0.6615191028240E-02
 0.1720888579379E-01 -0.6807495582805E-02
 0.1824171549275E-01 -0.7000281061689E-02
 0.1928522708867E-01 -0.7195422921004E-02
 0.2033538089325E-01 -0.7394961258162E-02
 0.2138793490881E-01 -0.7601216739633E-02
 0.2243863689288E-01 -0.7816745329166E-02
 0.2348319726150E-01 -0.8043903718817E-02
 0.2451737828330E-01 -0.8284659526856E-02
 0.2553706658855E-01 -0.8540402799694E-02
 0.2653829235050E-01 -0.8811753160511E-02
 0.2751715006170E-01 -0.9098345526326E-02
 0.1101752639304E-05 -0.2356409711177E-03
 0.5243449053276E-04 -0.4744748537197E-03
 0.1524950235102E-03 -0.7164092182091E-03
 0.2997353395716E-03 -0.9612995236083E-03
 0.4926218506484E-03 -0.1208950196140E-02
 0.7296788381934E-03 -0.1459106967084E-02
 0.1009519006444E-02 -0.1711455938217E-02
 0.1330862803928E-02 -0.1965627438345E-02
 0.1692545650440E-02 -0.2221201697894E-02
 0.2093518535286E-02 -0.2477718164473E-02
 0.2532842464041E-02 -0.2734685375865E-02
 0.3009678435213E-02 -0.2991590443662E-02
 0.3523276462529E-02 -0.3247908639825E-02
 0.4072961360075E-02 -0.3503111028820E-02
 0.4658117545847E-02 -0.3756671503868E-02
 0.5278174642311E-02 -0.4008074294830E-02
 0.5932598752140E-02 -0.4256824171793E-02
 0.6620844554353E-02 -0.4502443737487E-02
 0.7342394690540E-02 -0.4744505668024E-02
 0.8096682137128E-02 -0.4982625317713E-02
 0.8883097524665E-02 -0.5216488847364E-02
 0.9700959376842E-02 -0.5445872508081E-02
 0.1054948311748E-01 -0.5670667070061E-02
 0.1142775089380E-01 -0.5890873925884E-02
 0.1233466851553E-01 -0.6106477331516E-02
 0.1326891807703E-01 -0.6317556897316E-02
 0.1422890257329E-01 -0.6524432780864E-02
 0.1521269257302E-01 -0.6727755083031E-02
 0.1621799521543E-01 -0.6928543261805E-02
 0.1724212326990E-01 -0.7128178958781E-02
 0.1828198099581E-01 -0.7328371095028E-02
 0.1933404406054E-01 -0.7531091458265E-02
 0.2039435860219E-01 -0.7738482771152E-02
 0.2145871021844E-01 -0.7952947000810E-02
 0.2252279614155E-01 -0.8177086724711E-02
 0.2358218426532E-01 -0.8413295583956E-02
 0.2463239297146E-01 -0.8663568067476E-02
 0.2566896430482E-01 -0.8929313721717E-02
 0.2668749725479E-01 -0.9211172505142E-02
 0.2768359779965E-01 -0.9508816839408E-02
 0.3108568245852E-05 -0.2474385532205E-03
 0.5642798709637E-04 -0.4982687393216E-03
 0.1584290980444E-03 -0.7523903182443E-03
 0.3075360643494E-03 -0.1009638285344E-02
 0.5021860300424E-03 -0.1269786923573E-02
 0.7408739701625E-03 -0.1532545001234E-02
 0.1022185197954E-02 -0.1797557763814E-02
 0.1344816613055E-02 -0.2064413304499E-02
 0.1707585423772E-02 -0.2332650048428E-02
 0.2109430660719E-02 -0.2601767307425E-02
 0.2549407977124E-02 -0.2871235811957E-02
 0.3026679573759E-02 -0.3140507404814E-02
 0.3540502968867E-02 -0.3409024576885E-02
 0.4090216520033E-02 -0.3676227820035E-02
 0.4675224112091E-02 -0.3941562318472E-02
 0.5294980890852E-02 -0.4204485159233E-02
 0.5948984968993E-02 -0.4464475423211E-02
 0.6636730291946E-02 -0.4721030872543E-02
 0.7357747023118E-02 -0.4973701252975E-02
 0.8111525223360E-02 -0.5222080278590E-02
 0.8897523557273E-02 -0.5465834821188E-02
 0.9715140956697E-02 -0.5704724933013E-02
 0.1056368689560E-01 -0.5938629308008E-02
 0.1144235222392E-01 -0.6167547315109E-02
 0.1235016698846E-01 -0.6391494331901E-02
 0.1328595256269E-01 -0.6610604535271E-02
 0.1424826469160E-01 -0.6825262136926E-02
 0.1523533707748E-01 -0.7036184260032E-02
 0.1624504521074E-01 -0.7244459876820E-02
 0.1727486772697E-01 -0.7451545507615E-02
 0.1832186183001E-01 -0.7659233249853E-02
 0.1938262993033E-01 -0.7869587599510E-02
 0.2045330310606E-01 -0.8084852672363E-02
 0.2152969062187E-01 -0.8307513237217E-02
 0.2260743230524E-01 -0.8540222977986E-02
 0.2368194495042E-01 -0.8785420250513E-02
 0.2474849448395E-01 -0.9045136366121E-02
 0.2580227169925E-01 -0.9320810506016E-02
 0.2683844120618E-01 -0.9613110834251E-02
 0.2785212185271E-01 -0.9921750680426E-02
 0.5237376387686E-05 -0.2592305579922E-03
 0.6066719975028E-04 -0.5220556723406E-03
 0.1647278349578E-03 -0.7883677539076E-03
 0.3158100669300E-03 -0.1057981885704E-02
 0.5123175133120E-03 -0.1330642643314E-02
 0.7527129827863E-03 -0.1606022051431E-02
 0.1035552844754E-02 -0.1883724517440E-02
 0.1359509986658E-02 -0.2163295819153E-02
 0.1723383760664E-02 -0.2444232539350E-02
 0.2126102145726E-02 -0.2725993989285E-02
 0.2566716672225E-02 -0.3008013485440E-02
 0.3044392119438E-02 -0.3289708282579E-02
 0.3558394913625E-02 -0.3570489034637E-02
 0.4108078319504E-02 -0.3849766801698E-02
 0.4692866990589E-02 -0.4126959300671E-02
 0.5312242851242E-02 -0.4401497704911E-02
 0.5965737276503E-02 -0.4672836500303E-02
 0.6652884799383E-02 -0.4940449433261E-02
 0.7373264570525E-02 -0.5203863752415E-02
 0.8126425445974E-02 -0.5462651430278E-02
 0.8911896172744E-02 -0.5716459287712E-02
 0.9729158570152E-02 -0.5965029631202E-02
 0.1057761915415E-01 -0.6208226638420E-02
 0.1145658105579E-01 -0.6446044300016E-02
 0.1236520281252E-01 -0.6678525122011E-02
 0.1330244995386E-01 -0.6905853214875E-02
 0.1426703639013E-01 -0.7128471517651E-02
 0.1525736476322E-01 -0.7347158238482E-02
 0.1627148483564E-01 -0.7563065604251E-02
 0.1730704670959E-01 -0.7777718949205E-02
 0.1836126522743E-01 -0.7992988393215E-02
 0.1943087266580E-01 -0.8211027744597E-02
 0.2051208599010E-01 -0.8434181735672E-02
 0.2160073631941E-01 -0.8665020035921E-02
 0.2269240135076E-01 -0.8906252540726E-02
 0.2378233996347E-01 -0.9160370582253E-02
 0.2486555793706E-01 -0.9429452495190E-02
 0.2593688772265E-01 -0.9714977204365E-02
 0.2699105446761E-01 -0.1001764869215E-01
 0.2802268802953E-01 -0.1033722411843E-01
 0.7490715278757E-05 -0.2710189396845E-03
 0.6515730830817E-04 -0.5458404544534E-03
 0.1713992309568E-03 -0.8243499096827E-03
 0.3245682900838E-03 -0.1106342792081E-02
 0.5230301961396E-03 -0.1391534143693E-02
 0.7652125879353E-03 -0.1679559225233E-02
 0.1049641222087E-02 -0.1969981441892E-02
 0.1374964450954E-02 -0.2262304068104E-02
 0.1739964128734E-02 -0.2555981773357E-02
 0.2143558142571E-02 -0.2850434033537E-02
 0.2584795209952E-02 -0.3145057222652E-02
 0.3062844148528E-02 -0.3439234797891E-02
 0.3576981761602E-02 -0.3732346646322E-02
 0.4126577616217E-02 -0.4023775666533E-02
 0.4711078423766E-02 -0.4312913472509E-02
 0.5329994079851E-02 -0.4599166660640E-02
 0.5982890359584E-02 -0.4881966301637E-02
 0.6669343538039E-02 -0.5160763008513E-02
 0.7388983002018E-02 -0.5435061989960E-02
 0.8141417851532E-02 -0.5704413360065E-02
 0.8926248664230E-02 -0.5968443066623E-02
 0.9743042299419E-02 -0.6226874013400E-02
 0.1059130497052E-01 -0.6479553257659E-02
 0.1147045534774E-01 -0.6726465843555E-02
 0.1237978444228E-01 -0.6967677183686E-02
 0.1331840662619E-01 -0.7203416437670E-02
 0.1428519932359E-01 -0.7434179661657E-02
 0.1527874004117E-01 -0.7660799908286E-02
 0.1629725911581E-01 -0.7884486113026E-02
 0.1733858443855E-01 -0.8106826146147E-02
 0.1840009430948E-01 -0.8329762920398E-02
 0.1947865554396E-01 -0.8555536275119E-02
 0.2057057386402E-01 -0.8786591105645E-02
 0.2167170259039E-01 -0.9025584549118E-02
 0.2277755469086E-01 -0.9275288335529E-02
 0.2388322597107E-01 -0.9538255512873E-02
 0.2498345509317E-01 -0.9816621962811E-02
 0.2607270849007E-01 -0.1011191656973E-01
 0.2714526473007E-01 -0.1042488662178E-01
 0.2819525943612E-01 -0.1075533566313E-01
 0.9871691881384E-05 -0.2828056203392E-03
 0.6990459010679E-04 -0.5696277977776E-03
 0.1784528176940E-03 -0.8603450078571E-03
 0.3338235254274E-03 -0.1154733225998E-02
 0.5343400049662E-03 -0.1452477868303E-02
 0.7783915906754E-03 -0.1753177159646E-02
 0.1064471667786E-02 -0.2056353141133E-02
 0.1391203503443E-02 -0.2361466273208E-02
 0.1757351846536E-02 -0.2667929197744E-02
 0.2161825531834E-02 -0.2975121747600E-02
 0.2603671874239E-02 -0.3282403907540E-02
 0.3082065286033E-02 -0.3589126245894E-02
 0.3596294488364E-02 -0.3894639090888E-02
 0.4145746778157E-02 -0.4198298593427E-02
 0.4729892197620E-02 -0.4499471767103E-02
 0.5348269736641E-02 -0.4797542092602E-02
 0.6000480583450E-02 -0.5091918509912E-02
 0.6686143730497E-02 -0.5382029460205E-02
 0.7404939818538E-02 -0.5667358618766E-02
 0.8156539361712E-02 -0.5947434138583E-02
 0.8940616198050E-02 -0.6221860246207E-02
 0.9756824032827E-02 -0.6490338713887E-02
 0.1060477107564E-01 -0.6752696751150E-02
 0.1148399445353E-01 -0.7008906714757E-02
 0.1239392134695E-01 -0.7259052509224E-02
 0.1333381945412E-01 -0.7503403235745E-02
 0.1430273499092E-01 -0.7742502191014E-02
 0.1529942638395E-01 -0.7977230728094E-02
 0.1632231125925E-01 -0.8208847632892E-02
 0.1736940239699E-01 -0.8438996763074E-02
 0.1843824857928E-01 -0.8669688426719E-02
 0.1952585747786E-01 -0.8903245205389E-02
 0.2062862845496E-01 -0.9142211891320E-02
 0.2174243960487E-01 -0.9389335999962E-02
 0.2286273870749E-01 -0.9647457156241E-02
 0.2398445494286E-01 -0.9919199338120E-02
 0.2510205350464E-01 -0.1020676690307E-01
 0.2620962641590E-01 -0.1051174915760E-01
 0.2730099637140E-01 -0.1083494420642E-01
 0.2836979598943E-01 -0.1117620429630E-01
 0.1238396802568E-04 -0.2945925003207E-03
 0.7491640158934E-04 -0.5934223543980E-03
 0.1858996458423E-03 -0.8963611618489E-03
 0.3435904026596E-03 -0.1203165240266E-02
 0.5462648892955E-03 -0.1513490012537E-02
 0.7922708790848E-03 -0.1826896129660E-02
 0.1080067562817E-02 -0.2142863692613E-02
 0.1408252578330E-02 -0.2460809901046E-02
 0.1775574030347E-02 -0.2780105203935E-02
 0.2180932849852E-02 -0.3100090009955E-02
 0.2623376482301E-02 -0.3420088555212E-02
 0.3102086601976E-02 -0.3739419556412E-02
 0.3616365468043E-02 -0.4057405142016E-02
 0.4165619568900E-02 -0.4373376287354E-02
 0.4749343531295E-02 -0.4686677062266E-02
 0.5367106486301E-02 -0.4996669434844E-02
 0.6018545914383E-02 -0.5302741622771E-02
 0.6703324309964E-02 -0.5604300958531E-02
 0.7421174340812E-02 -0.5900810166088E-02
 0.8171828811154E-02 -0.6191775379650E-02
 0.8955035913115E-02 -0.6476778265900E-02
 0.9770537637895E-02 -0.6755497704842E-02
 0.1061804611203E-01 -0.7027738250594E-02
 0.1149721947479E-01 -0.7293455701663E-02
 0.1240762446260E-01 -0.7552747884342E-02
 0.1334868636236E-01 -0.7805918539656E-02
 0.1431962537689E-01 -0.8053552078154E-02
 0.1531938703696E-01 -0.8296571302158E-02
 0.1634658340243E-01 -0.8536277646344E-02
 0.1739942006240E-01 -0.8774364070333E-02
 0.1847562457881E-01 -0.9012902609724E-02
 0.1957235353300E-01 -0.9254295161042E-02
 0.2068610692550E-01 -0.9501186194372E-02
 0.2181279251038E-01 -0.9756416735149E-02
 0.2294779461800E-01 -0.1002290072776E-01
 0.2408587386228E-01 -0.1030334277664E-01
 0.2522121618381E-01 -0.1060002714212E-01
 0.2634752998561E-01 -0.1091461441298E-01
 0.2745817047479E-01 -0.1124796120966E-01
 0.2854625481402E-01 -0.1159997071000E-01
 0.1503175152465E-04 -0.3063814698745E-03
 0.8020116860059E-04 -0.6172287456770E-03
 0.1937522791997E-03 -0.9324064262090E-03
 0.3538853873065E-03 -0.1251650787706E-02
 0.5588248184820E-03 -0.1574586604241E-02
 0.8068734128755E-03 -0.1900736130746E-02
 0.1096454304282E-02 -0.2229536720242E-02
 0.1426138998199E-02 -0.2560361715802E-02
 0.1794659521675E-02 -0.2892539151691E-02
 0.2200910192271E-02 -0.3225370259693E-02
 0.2643940267035E-02 -0.3558144263279E-02
 0.3122940477317E-02 -0.3890149205418E-02
 0.3637228328652E-02 -0.4220680539348E-02
 0.4186230998974E-02 -0.4549045810735E-02
 0.4769468931710E-02 -0.4874567972699E-02
 0.5386542363993E-02 -0.5196589243176E-02
 0.6037125805233E-02 -0.5514478669459E-02
 0.6720925835091E-02 -0.5827623662787E-02
 0.7437727664125E-02 -0.6135466680291E-02
 0.8187326953852E-02 -0.6437491856493E-02
 0.8969546991337E-02 -0.6733257506137E-02
 0.9784219108302E-02 -0.7022417866090E-02
 0.1063116086900E-01 -0.7304751992106E-02
 0.1151015359353E-01 -0.7580195168797E-02
 0.1242090662679E-01 -0.7848854458228E-02
 0.1336300686026E-01 -0.8111062776107E-02
 0.1433585357390E-01 -0.8367439286963E-02
 0.1533858570210E-01 -0.8618941079490E-02
 0.1637001731478E-01 -0.8866904656828E-02
 0.1742855557470E-01 -0.9113064785654E-02
 0.1851211645012E-01 -0.9359549179894E-02
 0.1961801530713E-01 -0.9608835344889E-02
 0.2074286200686E-01 -0.9863667108764E-02
 0.2188260128183E-01 -0.1012698223405E-01
 0.2303255805089E-01 -0.1040177570296E-01
 0.2418732409281E-01 -0.1069084294034E-01
 0.2534080087499E-01 -0.1099656013858E-01
 0.2648630307792E-01 -0.1132067059140E-01
 0.2761670434856E-01 -0.1166409750386E-01
 0.2872459008794E-01 -0.1202679728042E-01
 0.1781979257907E-04 -0.3181744234146E-03
 0.8576838685212E-04 -0.6410515981856E-03
 0.2020248021174E-03 -0.9684888582471E-03
 0.3647267925670E-03 -0.1300201807444E-02
 0.5720417911794E-03 -0.1635783608467E-02
 0.8222242217578E-03 -0.1974716992062E-02
 0.1113659284717E-02 -0.2316395504603E-02
 0.1444891928854E-02 -0.2660147875737E-02
 0.1814638815628E-02 -0.3005259443382E-02
 0.2221789117156E-02 -0.3350992542994E-02
 0.2665395758581E-02 -0.3696602227635E-02
 0.3144660469352E-02 -0.4041347199337E-02
 0.3658917807649E-02 -0.4384497941816E-02
 0.4207617178476E-02 -0.4725340506882E-02
 0.4790306050569E-02 -0.5063178744739E-02
 0.5406616644639E-02 -0.5397337062247E-02
 0.6056261085627E-02 -0.5727167051076E-02
 0.6738990410796E-02 -0.6052037535614E-02
 0.7454642620631E-02 -0.6371371520161E-02
 0.8203076478994E-02 -0.6684631267925E-02
 0.8984190740020E-02 -0.6991351034377E-02
 0.9797906726200E-02 -0.7291158715729E-02
 0.1064414853753E-01 -0.7583805038594E-02
 0.1152282243005E-01 -0.7869200781372E-02
 0.1243378304527E-01 -0.8147457482816E-02
 0.1337678261619E-01 -0.8418931638601E-02
 0.1435140445234E-01 -0.8684270593603E-02
 0.1535698727840E-01 -0.8944458244696E-02
 0.1639255516721E-01 -0.9200858168065E-02
 0.1745672647305E-01 -0.9455239155932E-02
 0.1854761656758E-01 -0.9709778051001E-02
 0.1966271138087E-01 -0.9967023831806E-02
 0.2079874220260E-01 -0.1022981910583E-01
 0.2195170064348E-01 -0.1050120156195E-01
 0.2311685870061E-01 -0.1078425415948E-01
 0.2428864083932E-01 -0.1108187385456E-01
 0.2546065944780E-01 -0.1139654151771E-01
 0.2662582444586E-01 -0.1173009531401E-01
 0.2777651125198E-01 -0.1208353367069E-01
 0.2890475314250E-01 -0.1245686874856E-01
 0.2075338558496E-04 -0.3299732764585E-03
 0.9162863275180E-04 -0.6648955852855E-03
 0.2107328403591E-03 -0.1004616588596E-02
 0.3761348049700E-03 -0.1348830323337E-02
 0.5859398563715E-03 -0.1697097046903E-02
 0.8383504113398E-03 -0.2048858505834E-02
 0.1131711874147E-02 -0.2403463109551E-02
 0.1464542332377E-02 -0.2760194045128E-02
 0.1835543983831E-02 -0.3118293611988E-02
 0.2243602540094E-02 -0.3476985571201E-02
 0.2687776656404E-02 -0.3835491767702E-02
 0.3167281166953E-02 -0.4193043066805E-02
 0.3681469597215E-02 -0.4548886886580E-02
 0.4229815159566E-02 -0.4902289927226E-02
 0.4811893531512E-02 -0.5252539152827E-02
 0.5427369702661E-02 -0.5598943291716E-02
 0.6075993843024E-02 -0.5940838376354E-02
 0.6757561600427E-02 -0.6277576147928E-02
 0.7471963733729E-02 -0.6608561128495E-02
 0.8219122020018E-02 -0.6933233980494E-02
 0.8999010669187E-02 -0.7251104316762E-02
 0.9811641221990E-02 -0.7561772094009E-02
 0.1065704496626E-01 -0.7864956941153E-02
 0.1153525440660E-01 -0.8160541152929E-02
 0.1244627177067E-01 -0.8448635959473E-02
 0.1339001805100E-01 -0.8729615750449E-02
 0.1436626535761E-01 -0.9004149287465E-02
 0.1537455863652E-01 -0.9273239481884E-02
 0.1641414033978E-01 -0.9538268537104E-02
 0.1748385047362E-01 -0.9801030923187E-02
 0.1858201620753E-01 -0.1006374543595E-01
 0.1970630779617E-01 -0.1032902780031E-01
 0.2085359200465E-01 -0.1059981839382E-01
 0.2201991998472E-01 -0.1087925783693E-01
 0.2320051995845E-01 -0.1117052414531E-01
 0.2438965257258E-01 -0.1147662705424E-01
 0.2558063725055E-01 -0.1180016570112E-01
 0.2676596716624E-01 -0.1214308623219E-01
 0.2793750010718E-01 -0.1250647172091E-01
 0.2908669256990E-01 -0.1289039302795E-01
 0.2383837665153E-04 -0.3417799855636E-03
 0.9779358530470E-04 -0.6887654750879E-03
 0.2198935963969E-03 -0.1040797901695E-02
 0.3881315248620E-03 -0.1397548555468E-02
 0.6005451466899E-03 -0.1758543132446E-02
 0.8552811766935E-03 -0.2123180572382E-02
 0.1150643404349E-02 -0.2490762523267E-02
 0.1485122917216E-02 -0.2860525518069E-02
 0.1857408590222E-02 -0.3231668417445E-02
 0.2266384619311E-02 -0.3603376783336E-02
 0.2711117689673E-02 -0.3974840352182E-02
 0.3190838033315E-02 -0.4345263847203E-02
 0.3704920176783E-02 -0.4713873741163E-02
 0.4252862766205E-02 -0.5079919748124E-02
 0.4834270844594E-02 -0.5442674381576E-02
 0.5448842859104E-02 -0.5801433033318E-02
 0.6096367291171E-02 -0.6155518272560E-02
 0.6776684325407E-02 -0.6504266451734E-02
 0.7489737160183E-02 -0.6847064764504E-02
 0.8235510152022E-02 -0.7183332718319E-02
 0.9014052558473E-02 -0.7512554864035E-02
 0.9825465925775E-02 -0.7834301765680E-02
 0.1066988891238E-01 -0.8148259300971E-02
 0.1154748111088E-01 -0.8454277373906E-02
 0.1245839418738E-01 -0.8752462146306E-02
 0.1340272094586E-01 -0.9043200168801E-02
 0.1438042683100E-01 -0.9327174696316E-02
 0.1539126942681E-01 -0.9605399551265E-02
 0.1643471827137E-01 -0.9879266636645E-02
 0.1750984629408E-01 -0.1015058710697E-01
 0.1861520626326E-01 -0.1042161377796E-01
 0.1974866857051E-01 -0.1069502362920E-01
 0.2090725212681E-01 -0.1097385317946E-01
 0.2208708326776E-01 -0.1126134863712E-01
 0.2328335850713E-01 -0.1156079019831E-01
 0.2449018039362E-01 -0.1187531217906E-01
 0.2570057238996E-01 -0.1220764655116E-01
 0.2690659801555E-01 -0.1255986171560E-01
 0.2809957514981E-01 -0.1293313584269E-01
 0.2927035428841E-01 -0.1332760204432E-01
 0.2708117731128E-04 -0.3535965718186E-03
 0.1042760602001E-03 -0.7126661862608E-03
 0.2295259007693E-03 -0.1077041328792E-02
 0.4007410235436E-03 -0.1446369048404E-02
 0.6158859256685E-03 -0.1820138423532E-02
 0.8730478248416E-03 -0.2197703366095E-02
 0.1170487156135E-02 -0.2578316819666E-02
 0.1506668085814E-02 -0.2961167360646E-02
 0.1880267600112E-02 -0.3345409958715E-02
 0.2290170631239E-02 -0.3730192421620E-02
 0.2735454466619E-02 -0.4114673635493E-02
 0.3215367237102E-02 -0.4498034088081E-02
 0.3729306633906E-02 -0.4879481663149E-02
 0.4276798412363E-02 -0.5258251694103E-02
 0.4857478109277E-02 -0.5633604912993E-02
 0.5471078217150E-02 -0.6004825941245E-02
 0.6117425626659E-02 -0.6371226196846E-02
 0.6796404752599E-02 -0.6732128549105E-02
 0.7508010619653E-02 -0.7086904226340E-02
 0.8252289376568E-02 -0.7434952234875E-02
 0.9029364511979E-02 -0.7775731848888E-02
 0.9839426908273E-02 -0.8108782980798E-02
 0.1068272228493E-01 -0.8433755274374E-02
 0.1155953765669E-01 -0.8750462466096E-02
 0.1247017550080E-01 -0.9059000973134E-02
 0.1341490306412E-01 -0.9359763778589E-02
 0.1439388335678E-01 -0.9653441586220E-02
 0.1540709292734E-01 -0.9941050730781E-02
 0.1645423736279E-01 -0.1022398338124E-01
 0.1753463454224E-01 -0.1050405766089E-01
 0.1864707802871E-01 -0.1078355157917E-01
 0.1978965627481E-01 -0.1106519692717E-01
 0.2095955978560E-01 -0.1135212390659E-01
 0.2215300895627E-01 -0.1164768643148E-01
 0.2336518390488E-01 -0.1195527393069E-01
 0.2459003735981E-01 -0.1227815766464E-01
 0.2582029495738E-01 -0.1261921813197E-01
 0.2704757679460E-01 -0.1298066167020E-01
 0.2826263554602E-01 -0.1336377328948E-01
 0.2945568160223E-01 -0.1376875272368E-01
 0.3048878506480E-04 -0.3654251485180E-03
 0.1110900575230E-03 -0.7366028533199E-03
 0.2396502815280E-03 -0.1113355756293E-02
 0.4139894192229E-03 -0.1495304820214E-02
 0.6319926508141E-03 -0.1881900003112E-02
 0.8916838075097E-03 -0.2272447527860E-02
 0.1191278350489E-02 -0.2666149346100E-02
 0.1529213880276E-02 -0.3062144577956E-02
 0.1904157282939E-02 -0.3459543808794E-02
 0.2314996837125E-02 -0.3857457628397E-02
 0.2760823313691E-02 -0.4255015514879E-02
 0.3240905473139E-02 -0.4651375863512E-02
 0.3754666474857E-02 -0.5045730581885E-02
 0.4301660910142E-02 -0.5437303484671E-02
 0.4881555907317E-02 -0.5825346438891E-02
 0.5494118487161E-02 -0.6209136098892E-02
 0.6139213874305E-02 -0.6587975274276E-02
 0.6816770169559E-02 -0.6961175486855E-02
 0.7526833311110E-02 -0.7328093596581E-02
 0.8269510092538E-02 -0.7688109002926E-02
 0.9044996998877E-02 -0.8040655734252E-02
 0.9853573108169E-02 -0.8385242036686E-02
 0.1069559037681E-01 -0.8721479066672E-02
 0.1157146303774E-01 -0.9049140811393E-02
 0.1248164522712E-01 -0.9368309414845E-02
 0.1342658078477E-01 -0.9679378629051E-02
 0.1440663413525E-01 -0.9983039490541E-02
 0.1542200693534E-01 -0.1028030217866E-01
 0.1647264994224E-01 -0.1057254917512E-01
 0.1755813868410E-01 -0.1086159506378E-01
 0.1867752407239E-01 -0.1114973319147E-01
 0.1982913270188E-01 -0.1143974256657E-01
 0.2101034905797E-01 -0.1173484355128E-01
 0.2221750999335E-01 -0.1203849912244E-01
 0.2344579818379E-01 -0.1235421477572E-01
 0.2468902779306E-01 -0.1268541163503E-01
 0.2593962622059E-01 -0.1303513569823E-01
 0.2718875562406E-01 -0.1340574860238E-01
 0.2842657500539E-01 -0.1379865552952E-01
 0.2964261529588E-01 -0.1421412825718E-01
 0.3406881155580E-04 -0.3772679536367E-03
 0.1182508247428E-03 -0.7605809027275E-03
 0.2502890538875E-03 -0.1149750551369E-02
 0.4279049737212E-03 -0.1544369534294E-02
 0.6488980536484E-03 -0.1943845683800E-02
 0.9112247642247E-03 -0.2347434384242E-02
 0.1213054142588E-02 -0.2754283935862E-02
 0.1552797924324E-02 -0.3163482302409E-02
 0.1929115106541E-02 -0.3574095167050E-02
 0.2340900338364E-02 -0.3985196556900E-02
 0.2787261102258E-02 -0.4395888198914E-02
 0.3267489770428E-02 -0.4805308802494E-02
 0.3781037422735E-02 -0.5212637189790E-02
 0.4327489265559E-02 -0.5617088790773E-02
 0.4906545083086E-02 -0.6017909782955E-02
 0.5518006798465E-02 -0.6414371904759E-02
 0.6161777718126E-02 -0.6805772143481E-02
 0.6837828843867E-02 -0.7191413055795E-02
 0.7546255811636E-02 -0.7570638987379E-02
 0.8287224547809E-02 -0.7942810896885E-02
 0.9061002873702E-02 -0.8307337884133E-02
 0.9867956438995E-02 -0.8663695809662E-02
 0.1070854207772E-01 -0.9011455380029E-02
 0.1158330046645E-01 -0.9350347516065E-02
 0.1249283767551E-01 -0.9680435779801E-02
 0.1343777573960E-01 -0.1000210916421E-01
 0.1441868387579E-01 -0.1031605191349E-01
 0.1543599469904E-01 -0.1062325915604E-01
 0.1648991329378E-01 -0.1092509321457E-01
 0.1758028609647E-01 -0.1122335377315E-01
 0.1870643921105E-01 -0.1152033849350E-01
 0.1986695963666E-01 -0.1181886464381E-01
 0.2105945132487E-01 -0.1212223789721E-01
 0.2228039383084E-01 -0.1243403062782E-01
 0.2352499545185E-01 -0.1275787082713E-01
 0.2478694654549E-01 -0.1309734292755E-01
 0.2605837774373E-01 -0.1345567684106E-01
 0.2732997816575E-01 -0.1383540885560E-01
 0.2859128134087E-01 -0.1423807958108E-01
 0.2983109371344E-01 -0.1466403956539E-01
 0.3782951931225E-04 -0.3891273877322E-03
 0.1257749366360E-03 -0.7846061403110E-03
 0.2614664317424E-03 -0.1186235704355E-02
 0.4425182105689E-03 -0.1593577691211E-02
 0.6666372354754E-03 -0.2005994232459E-02
 0.9317085722002E-03 -0.2422686181047E-02
 0.1235853612896E-02 -0.2842745126118E-02
 0.1577459353867E-02 -0.3265205975825E-02
 0.1955179613837E-02 -0.3689088992513E-02
 0.2367918910404E-02 -0.4113432450033E-02
 0.2814805051915E-02 -0.4537312231524E-02
 0.3295157275981E-02 -0.4959850060913E-02
 0.3808457191066E-02 -0.5380214865468E-02
 0.4354322449446E-02 -0.5797617111018E-02
 0.4932486518346E-02 -0.6211300729680E-02
 0.5542786484502E-02 -0.6620535850889E-02
 0.6185163304191E-02 -0.7024616678575E-02
 0.6859629852581E-02 -0.7422839447597E-02
 0.7566329943527E-02 -0.7814538121679E-02
 0.8305486757522E-02 -0.8199056686484E-02
 0.9077437362081E-02 -0.8575779957378E-02
 0.9882631861268E-02 -0.8944151037386E-02
 0.1072163005396E-01 -0.9303698575570E-02
 0.1159509768356E-01 -0.9654107448994E-02
 0.1250379240858E-01 -0.9995418628635E-02
 0.1344851544090E-01 -0.1032801103823E-01
 0.1443004359749E-01 -0.1065255507341E-01
 0.1544904587878E-01 -0.1097002174814E-01
 0.1650599073937E-01 -0.1128174225648E-01
 0.1760100919544E-01 -0.1158948912609E-01
 0.1873372157268E-01 -0.1189555201482E-01
 0.1990299971206E-01 -0.1220277590654E-01
 0.2110669577146E-01 -0.1251454531390E-01
 0.2234146245734E-01 -0.1283454100929E-01
 0.2360256141340E-01 -0.1316651926417E-01
 0.2488357809677E-01 -0.1351424172619E-01
 0.2617635026866E-01 -0.1388114224587E-01
 0.2747107856485E-01 -0.1426995345095E-01
 0.2875663573517E-01 -0.1468236894174E-01
 0.3002105254527E-01 -0.1511882634557E-01
 0.4177986862948E-04 -0.4010060591133E-03
 0.1336803963113E-03 -0.8086848573344E-03
 0.2732086678845E-03 -0.1222822003744E-02
 0.4578620636862E-03 -0.1642944867586E-02
 0.6852477901827E-03 -0.2068365654858E-02
 0.9531754165992E-03 -0.2498226388057E-02
 0.1259717771727E-02 -0.2931558456950E-02
 0.1603238755991E-02 -0.3367341623193E-02
 0.1982390305653E-02 -0.3804550241721E-02
 0.2396090843077E-02 -0.4242187840185E-02
 0.2843492542203E-02 -0.4679306657689E-02
 0.3323945049730E-02 -0.5115014459868E-02
 0.3836963270948E-02 -0.5548473791465E-02
 0.4382199183552E-02 -0.5978893873710E-02
 0.4959420922677E-02 -0.6405520112500E-02
 0.5568500882759E-02 -0.6827624595454E-02
 0.6209417056082E-02 -0.7244502041118E-02
 0.6882222920988E-02 -0.7655445277995E-02
 0.7587108646444E-02 -0.8059780317001E-02
 0.8324352422665E-02 -0.8456835968562E-02
 0.9094358041971E-02 -0.8845973773922E-02
 0.9897657446090E-02 -0.9226604106314E-02
 0.1073491091737E-01 -0.9598212370981E-02
 0.1160690725801E-01 -0.9960434843281E-02
 0.1251455469953E-01 -0.1031328628202E-01
 0.1345883391923E-01 -0.1065713054398E-01
 0.1444073146230E-01 -0.1099261728431E-01
 0.1546115757340E-01 -0.1132068425286E-01
 0.1652085282881E-01 -0.1164262009235E-01
 0.1762024672220E-01 -0.1196015699901E-01
 0.1875927386657E-01 -0.1227556289276E-01
 0.1993711751305E-01 -0.1259169811103E-01
 0.2115191015874E-01 -0.1291201758420E-01
 0.2240051269892E-01 -0.1324030778135E-01
 0.2367827314724E-01 -0.1358045808531E-01
 0.2497869589855E-01 -0.1393642161410E-01
 0.2629333286496E-01 -0.1431185795787E-01
 0.2761188073364E-01 -0.1470972051287E-01
 0.2892251246300E-01 -0.1513187618470E-01
 0.3021242520455E-01 -0.1557885987315E-01
 0.4592957564194E-04 -0.4129068361409E-03
 0.1419867578442E-03 -0.8328239494793E-03
 0.2855442206527E-03 -0.1259521227075E-02
 0.4739720490221E-03 -0.1692487968018E-02
 0.7047699390661E-03 -0.2130981482377E-02
 0.9756678577298E-03 -0.2574079986036E-02
 0.1284689545315E-02 -0.3020750725447E-02
 0.1630178076449E-02 -0.3469916049018E-02
 0.2010787482586E-02 -0.3920503993708E-02
 0.2425454733870E-02 -0.4371484599288E-02
 0.2873360873647E-02 -0.4821889001560E-02
 0.3353889806584E-02 -0.5270814397573E-02
 0.3866592663766E-02 -0.5717420805145E-02
 0.4411157670674E-02 -0.6160920229254E-02
 0.4987388566181E-02 -0.6600563546493E-02
 0.5595193074955E-02 -0.7035628630394E-02
 0.6234585428433E-02 -0.7465414273408E-02
 0.6905658197198E-02 -0.7889213092884E-02
 0.7608645783349E-02 -0.8306345888509E-02
 0.8343878780657E-02 -0.8716128449028E-02
 0.9111824755717E-02 -0.9117900456153E-02
 0.9913094369311E-02 -0.9511040032855E-02
 0.1074844532619E-01 -0.9894988643716E-02
 0.1161878682248E-01 -0.1026933190859E-01
 0.1252517593196E-01 -0.1063405523773E-01
 0.1346877231568E-01 -0.1098950284399E-01
 0.1445077358028E-01 -0.1133629702943E-01
 0.1547233534158E-01 -0.1167533315195E-01
 0.1653447855043E-01 -0.1200784550254E-01
 0.1763794507279E-01 -0.1233551185966E-01
 0.1878300470792E-01 -0.1266056315630E-01
 0.1996918071863E-01 -0.1298586066921E-01
 0.2119492157432E-01 -0.1331491901132E-01
 0.2245733638678E-01 -0.1365162550735E-01
 0.2375189858924E-01 -0.1400000613510E-01
 0.2507206123353E-01 -0.1436421990229E-01
 0.2640910141680E-01 -0.1474817587386E-01
 0.2775219683650E-01 -0.1515507585080E-01
 0.2908877771391E-01 -0.1558698364248E-01
 0.3040514220764E-01 -0.1604454382340E-01
 0.5028918418122E-04 -0.4248329098359E-03
 0.1507152776565E-03 -0.8570310622795E-03
 0.2985039590872E-03 -0.1296346377685E-02
 0.4908864759729E-03 -0.1742225542133E-02
 0.7252466992853E-03 -0.2193865140208E-02
 0.9992309222761E-03 -0.2650273848402E-02
 0.1310813777152E-02 -0.3110350346296E-02
 0.1658320537195E-02 -0.3572957153662E-02
 0.2040412095937E-02 -0.4036975712765E-02
 0.2456049292684E-02 -0.4501344150267E-02
 0.2904447044628E-02 -0.4965075435926E-02
 0.3385027679059E-02 -0.5427259988437E-02
 0.3897381638462E-02 -0.5887059517607E-02
 0.4441235351822E-02 -0.6343693155514E-02
 0.5016429039844E-02 -0.6796421522103E-02
 0.5622905653551E-02 -0.7244532360588E-02
 0.6260714683526E-02 -0.7687332355523E-02
 0.6929986044855E-02 -0.8124117391561E-02
 0.7630995958155E-02 -0.8554206123270E-02
 0.8364124460227E-02 -0.8976903850031E-02
 0.9129899518454E-02 -0.9391530248820E-02
 0.9929006894414E-02 -0.9797432174905E-02
 0.1076229806857E-01 -0.1019400701402E-01
 0.1163079928891E-01 -0.1058078826946E-01
 0.1253571398332E-01 -0.1095772945616E-01
 0.1347837947049E-01 -0.1132515110876E-01
 0.1446020483618E-01 -0.1168364197925E-01
 0.1548259428504E-01 -0.1203404606486E-01
 0.1654685666086E-01 -0.1237753123842E-01
 0.1765405981816E-01 -0.1271570590802E-01
 0.1880483021054E-01 -0.1305074718490E-01
 0.1999906158380E-01 -0.1338550058995E-01
 0.2123555757236E-01 -0.1372352697407E-01
 0.2251172092846E-01 -0.1406880702320E-01
 0.2382319639918E-01 -0.1442550494275E-01
 0.2516342243221E-01 -0.1479799993113E-01
 0.2652341748325E-01 -0.1519047632888E-01
 0.2789182624960E-01 -0.1560641573580E-01
 0.2925528905941E-01 -0.1604810640083E-01
 0.3059913137125E-01 -0.1651631753520E-01
 0.5487015335845E-04 -0.4367878675561E-03
 0.1598890970963E-03 -0.8813147599088E-03
 0.3121214067485E-03 -0.1333311955412E-02
 0.5086466932016E-03 -0.1792178139811E-02
 0.7467240727140E-03 -0.2257042348310E-02
 0.1023912196675E-02 -0.2726837140412E-02
 0.1338137214515E-02 -0.3200387707576E-02
 0.1687710526768E-02 -0.3676494219293E-02
 0.2071305564455E-02 -0.4153991455220E-02
 0.2487913109690E-02 -0.4631787598710E-02
 0.2936787491175E-02 -0.5108880850184E-02
 0.3417393943618E-02 -0.5584359080431E-02
 0.3929365453111E-02 -0.6057390291154E-02
 0.4472468627479E-02 -0.6527205401366E-02
 0.5046580978686E-02 -0.6993079315194E-02
 0.5651680448668E-02 -0.7454313975139E-02
 0.6287850625037E-02 -0.7910228027379E-02
 0.6955256788992E-02 -0.8360124384471E-02
 0.7654214282013E-02 -0.8803322954582E-02
 0.8385149280095E-02 -0.9239121478450E-02
 0.9148646365454E-02 -0.9666821956575E-02
 0.9945462289879E-02 -0.1008574151171E-01
 0.1077653807734E-01 -0.1049523394052E-01
 0.1164301299466E-01 -0.1089477985326E-01
 0.1254623354256E-01 -0.1128429902461E-01
 0.1348771245624E-01 -0.1166408495517E-01
 0.1446906968070E-01 -0.1203468722422E-01
 0.1549196012801E-01 -0.1239688982928E-01
 0.1655798705419E-01 -0.1275178204725E-01
 0.1766855731482E-01 -0.1310088718999E-01
 0.1882467571875E-01 -0.1344631009692E-01
 0.2002663858826E-01 -0.1379086134516E-01
 0.2127364746381E-01 -0.1413813144598E-01
 0.2256344994698E-01 -0.1449218370052E-01
 0.2389191574165E-01 -0.1485731968701E-01
 0.2525251380544E-01 -0.1523815255816E-01
 0.2663602669704E-01 -0.1563916987310E-01
 0.2803055397167E-01 -0.1606416883004E-01
 0.2942189436356E-01 -0.1651569442443E-01
 0.3079431741681E-01 -0.1699465841212E-01
 0.5968496401191E-04 -0.4487757807020E-03
 0.1695334626207E-03 -0.9056847248259E-03
 0.3264330319688E-03 -0.1370434273887E-02
 0.5272973754388E-03 -0.1842368721685E-02
 0.7692512591162E-03 -0.2320541575375E-02
 0.1049761924128E-02 -0.2803801758549E-02
 0.1366708480605E-02 -0.3290895547229E-02
 0.1718393464474E-02 -0.3780558195271E-02
 0.2103509559599E-02 -0.4271578056462E-02
 0.2521084391187E-02 -0.4762835829509E-02
 0.2970417796807E-02 -0.5253318872019E-02
 0.3451022719717E-02 -0.5742117217907E-02
 0.3962578051175E-02 -0.6228410155586E-02
 0.4504892554152E-02 -0.6711445362822E-02
 0.5077881759284E-02 -0.7190516822650E-02
 0.5681558226966E-02 -0.7664945235674E-02
 0.6316038299990E-02 -0.8134065517058E-02
 0.6981520425293E-02 -0.8597191643721E-02
 0.7678356097392E-02 -0.9053648512364E-02
 0.8407013999262E-02 -0.9502729649893E-02
 0.9168131144588E-02 -0.9943722212010E-02
 0.9962530685397E-02 -0.1037591572387E-01
 0.1079123837839E-01 -0.1079862157921E-01
 0.1165550177968E-01 -0.1121126749697E-01
 0.1255680636119E-01 -0.1161373848711E-01
 0.1349683705510E-01 -0.1200629848755E-01
 0.1447742288804E-01 -0.1238945303864E-01
 0.1550047030086E-01 -0.1276391803523E-01
 0.1656788219082E-01 -0.1313069207390E-01
 0.1768141644531E-01 -0.1349119702377E-01
 0.1884247774433E-01 -0.1384744541509E-01
 0.2005179835066E-01 -0.1420219102180E-01
 0.2130902388891E-01 -0.1455903386400E-01
 0.2261230414553E-01 -0.1492210517360E-01
 0.2395779614806E-01 -0.1529583976377E-01
 0.2533905445001E-01 -0.1568509736385E-01
 0.2674665684524E-01 -0.1609469880876E-01
 0.2816814864900E-01 -0.1652879785162E-01
 0.2958843036610E-01 -0.1699023441527E-01
 0.3099062124325E-01 -0.1748008410923E-01
 0.6474724825825E-04 -0.4608013100226E-03
 0.1796759936641E-03 -0.9301520011405E-03
 0.3414785990115E-03 -0.1407731850518E-02
 0.5468868680051E-03 -0.1892823166867E-02
 0.7928809118048E-03 -0.2384394605705E-02
 0.1076833125899E-02 -0.2881202890829E-02
 0.1396578057570E-02 -0.3381909456238E-02
 0.1750415670277E-02 -0.3885182120003E-02
 0.2137065798930E-02 -0.4389763472665E-02
 0.2555600710895E-02 -0.4894509786595E-02
 0.3005372426898E-02 -0.5398402110336E-02
 0.3485946701819E-02 -0.5900537872132E-02
 0.3997051797083E-02 -0.6400113045247E-02
 0.4538540583780E-02 -0.6896397338020E-02
 0.5110367240635E-02 -0.7388708838983E-02
 0.5712578431372E-02 -0.7876391770932E-02
 0.6345321736309E-02 -0.8358801843304E-02
 0.7008826357159E-02 -0.8835268397774E-02
 0.7703476719864E-02 -0.9305125389357E-02
 0.8429780072881E-02 -0.9767665901308E-02
 0.9188421300591E-02 -0.1022216560551E-01
 0.9980284904984E-02 -0.1066788920770E-01
 0.1080647600116E-01 -0.1110410764712E-01
 0.1166834501301E-01 -0.1153019662516E-01
 0.1256751144616E-01 -0.1194600630573E-01
 0.1350582818008E-01 -0.1235176952301E-01
 0.1448533027553E-01 -0.1274794387268E-01
 0.1550817502591E-01 -0.1313516982454E-01
 0.1657656859644E-01 -0.1351434356406E-01
 0.1769263052732E-01 -0.1388676877436E-01
 0.1885818619450E-01 -0.1425434415456E-01
 0.2007443796214E-01 -0.1461974202028E-01
 0.2134152491232E-01 -0.1498654773305E-01
 0.2265806273756E-01 -0.1535894105817E-01
 0.2402056790242E-01 -0.1574148164348E-01
 0.2542274747106E-01 -0.1613928642982E-01
 0.2685501628905E-01 -0.1655754149118E-01
 0.2830436104849E-01 -0.1700080408664E-01
 0.2975472205216E-01 -0.1747225462340E-01
 0.3118796023422E-01 -0.1797315789564E-01
 0.7007194593146E-04 -0.4728698315592E-03
 0.1903470020141E-03 -0.9547292782302E-03
 0.3573015773606E-03 -0.1445225848668E-02
 0.5674675726048E-03 -0.1943570827157E-02
 0.8176694014699E-03 -0.2448637123868E-02
 0.1105181694104E-02 -0.2959079545577E-02
 0.1427798210861E-02 -0.3473468287867E-02
 0.1783824156423E-02 -0.3990401381386E-02
 0.2172015751228E-02 -0.4508576893687E-02
 0.2591498669292E-02 -0.5026830458172E-02
 0.3041684370353E-02 -0.5544142038878E-02
 0.3522196798594E-02 -0.6059622246520E-02
 0.4032817118186E-02 -0.6572489541566E-02
 0.4573444207667E-02 -0.7082041213590E-02
 0.5144071406710E-02 -0.7587624683992E-02
 0.5744778818975E-02 -0.8088612635088E-02
 0.6375743574690E-02 -0.8584386286757E-02
 0.7037223023255E-02 -0.9074294891676E-02
 0.7729631066800E-02 -0.9557685861028E-02
 0.8453509291809E-02 -0.1003385603630E-01
 0.9209585540080E-02 -0.1050207351706E-01
 0.9998800178253E-02 -0.1096158165017E-01
 0.1082233176526E-01 -0.1141161369340E-01
 0.1168162749479E-01 -0.1185149516859E-01
 0.1257843513094E-01 -0.1228104238046E-01
 0.1351477018302E-01 -0.1270045667533E-01
 0.1449286932848E-01 -0.1311014498493E-01
 0.1551513834176E-01 -0.1351066609560E-01
 0.1658408835129E-01 -0.1390280272716E-01
 0.1770220928202E-01 -0.1428772354602E-01
 0.1887176673560E-01 -0.1466719061445E-01
 0.2009446751292E-01 -0.1504376729779E-01
 0.2137099630508E-01 -0.1542099569899E-01
 0.2270050493768E-01 -0.1580307915343E-01
 0.2407995219740E-01 -0.1619468829572E-01
 0.2550327851914E-01 -0.1660120477310E-01
 0.2696079117598E-01 -0.1702821326577E-01
 0.2843892096780E-01 -0.1748072832481E-01
 0.2992058043198E-01 -0.1796232583602E-01
 0.3138624680731E-01 -0.1847449014199E-01
 0.7567549516058E-04 -0.4849875896600E-03
 0.2015798810098E-03 -0.9794312412071E-03
 0.3739496370043E-03 -0.1482940629141E-02
 0.5890964095018E-03 -0.1994645223575E-02
 0.8436771308528E-03 -0.2513309459646E-02
 0.1134866509564E-02 -0.3037475247769E-02
 0.1460422923668E-02 -0.3565614741440E-02
 0.1818666427861E-02 -0.4096254168338E-02
 0.2208400359776E-02 -0.4628049078772E-02
 0.2628813585896E-02 -0.5159819132620E-02
 0.3079384829806E-02 -0.5690549212639E-02
 0.3559801833949E-02 -0.6219369488265E-02
 0.4069902218098E-02 -0.6745527104475E-02
 0.4609632677035E-02 -0.7268352729401E-02
 0.5179026086588E-02 -0.7787228504190E-02
 0.5778195173429E-02 -0.8301560640318E-02
 0.6407344768143E-02 -0.8810760740560E-02
 0.7066757582456E-02 -0.9314202736075E-02
 0.7756873329993E-02 -0.9811252207580E-02
 0.8478263449641E-02 -0.1030121438936E-01
 0.9231693504808E-02 -0.1078335428655E-01
 0.1001815383825E-01 -0.1125689806360E-01
 0.1083889003041E-01 -0.1172104495120E-01
 0.1169543929896E-01 -0.1217507318172E-01
 0.1258967106836E-01 -0.1261876737969E-01
 0.1352375707537E-01 -0.1305229835148E-01
 0.1450012974618E-01 -0.1347602107556E-01
 0.1552143908500E-01 -0.1389040778165E-01
 0.1659050061243E-01 -0.1429611773354E-01
 0.1771018096041E-01 -0.1469416806903E-01
 0.1888320348909E-01 -0.1508616044621E-01
 0.2011181315805E-01 -0.1547451902813E-01
 0.2139729456413E-01 -0.1586270927097E-01
 0.2273941232052E-01 -0.1625492663896E-01
 0.2413566216389E-01 -0.1665593205240E-01
 0.2558031506567E-01 -0.1707137470296E-01
 0.2706364319712E-01 -0.1750727171748E-01
 0.2857153473627E-01 -0.1796915621354E-01
 0.3008580157066E-01 -0.1846106674592E-01
 0.3158538883199E-01 -0.1898474449092E-01
 0.8157606382784E-04 -0.4971618830126E-03
 0.2134115739493E-03 -0.1004274991458E-02
 0.3914752320044E-03 -0.1520904400063E-02
 0.6118353415587E-03 -0.2046084844727E-02
 0.8709688645518E-03 -0.2578457406999E-02
 0.1165949529030E-02 -0.3116438757631E-02
 0.1494507769604E-02 -0.3658395906818E-02
 0.1854990207087E-02 -0.4202781824029E-02
 0.2246259689082E-02 -0.4748212543576E-02
 0.2667579120479E-02 -0.5293497464167E-02
 0.3118502847605E-02 -0.5837633258378E-02
 0.3598788189190E-02 -0.6379776640595E-02
 0.4108332733872E-02 -0.6919210010188E-02
 0.4647132667447E-02 -0.7455303412582E-02
 0.5215260616166E-02 -0.7987479202363E-02
 0.5812860954793E-02 -0.8515182271614E-02
 0.6440164213512E-02 -0.9037859592032E-02
 0.7097475524329E-02 -0.9554914730426E-02
 0.7785256566677E-02 -0.1006573644722E-01
 0.8504103920343E-02 -0.1056964343195E-01
 0.9254815346939E-02 -0.1106590264960E-01
 0.1003842491161E-01 -0.1155372800158E-01
 0.1085623832796E-01 -0.1203228927702E-01
 0.1170987548622E-01 -0.1250082144218E-01
 0.1260132008417E-01 -0.1295908093191E-01
 0.1353289260501E-01 -0.1340721046895E-01
 0.1450721385078E-01 -0.1384551347612E-01
 0.1552717176144E-01 -0.1427437249484E-01
 0.1659588308259E-01 -0.1469431486191E-01
 0.1771659451217E-01 -0.1510619050930E-01
 0.1889250190467E-01 -0.1551141643329E-01
 0.2012642051229E-01 -0.1591224482078E-01
 0.2142029037632E-01 -0.1631202606163E-01
 0.2277457161838E-01 -0.1671490889481E-01
 0.2418740412696E-01 -0.1712571533855E-01
 0.2565350544191E-01 -0.1755035837667E-01
 0.2716320643511E-01 -0.1799532041255E-01
 0.2870188124312E-01 -0.1846672201054E-01
 0.3025016447479E-01 -0.1896914715271E-01
 0.3178528953175E-01 -0.1950464175307E-01
 0.8779383218511E-04 -0.5094012933946E-03
 0.2258831416798E-03 -0.1029280560942E-02
 0.4099362934004E-03 -0.1559150002353E-02
 0.6357519737845E-03 -0.2097934092632E-02
 0.8996140785724E-03 -0.2644133166145E-02
 0.1198495842002E-02 -0.3196024863462E-02
 0.1530109725820E-02 -0.3751863829048E-02
 0.1892843092019E-02 -0.4310029175031E-02
 0.2285632511638E-02 -0.4869101694647E-02
 0.2707826847250E-02 -0.5427887472073E-02
 0.3159064897584E-02 -0.5985402794606E-02
 0.3639179420614E-02 -0.6540838525671E-02
 0.4148131374172E-02 -0.7093519222459E-02
 0.4685967925877E-02 -0.7642860447407E-02
 0.5252801480844E-02 -0.8188330303776E-02
 0.5848806925922E-02 -0.8729417536750E-02
 0.6474238352837E-02 -0.9265609535361E-02
 0.7129420240940E-02 -0.9796344610023E-02
 0.7814832241870E-02 -0.1032103998262E-01
 0.8531091175829E-02 -0.1083903327738E-01
 0.9279021231301E-02 -0.1134959905332E-01
 0.1005969362091E-01 -0.1185194463078E-01
 0.1087446688773E-01 -0.1234521591483E-01
 0.1172503569423E-01 -0.1282860983402E-01
 0.1261348989051E-01 -0.1330185954601E-01
 0.1354229018098E-01 -0.1376508382664E-01
 0.1451423684445E-01 -0.1421853689151E-01
 0.1553244728961E-01 -0.1466251058840E-01
 0.1660033341373E-01 -0.1509739389713E-01
 0.1772152180614E-01 -0.1552385533555E-01
 0.1889969186494E-01 -0.1594310313847E-01
 0.2013825850440E-01 -0.1635718267295E-01
 0.2143987276366E-01 -0.1676928574949E-01
 0.2280577831426E-01 -0.1718346721519E-01
 0.2423487954526E-01 -0.1760457065617E-01
 0.2572247816268E-01 -0.1803876009848E-01
 0.2725908380227E-01 -0.1849301296021E-01
 0.2882960674556E-01 -0.1897411289820E-01
 0.3041342814718E-01 -0.1948729088836E-01
 0.3198584837431E-01 -0.2003496302771E-01
 0.9435134019064E-04 -0.5217159685581E-03
 0.2390404573644E-03 -0.1054471551796E-02
 0.4293970635365E-03 -0.1597715884319E-02
 0.6609202552027E-03 -0.2150244447986E-02
 0.9296873511241E-03 -0.2710396496058E-02
 0.1232573720836E-02 -0.3276295355154E-02
 0.1567286960836E-02 -0.3846076229120E-02
 0.1932272196622E-02 -0.4418045014840E-02
 0.2326555900673E-02 -0.4990753144461E-02
 0.2749585862312E-02 -0.5563011770810E-02
 0.3201094534409E-02 -0.6133865650616E-02
 0.3680995952975E-02 -0.6702548006190E-02
 0.4189317645084E-02 -0.7268432730000E-02
 0.4726159011148E-02 -0.7830987104635E-02
 0.5291672051947E-02 -0.8389730480173E-02
 0.5886060868243E-02 -0.8944200577272E-02
 0.6509600855476E-02 -0.9493930253298E-02
 0.7162632666888E-02 -0.1003839777476E-01
 0.7845649822678E-02 -0.1057705434654E-01
 0.8559284335582E-02 -0.1110926240680E-01
 0.9304380845826E-02 -0.1163431031977E-01
 0.1008204086677E-01 -0.1215140528078E-01
 0.1089366811139E-01 -0.1265967587092E-01
 0.1174102363677E-01 -0.1315828747349E-01
 0.1262629466874E-01 -0.1364695640045E-01
 0.1355207263076E-01 -0.1412578345855E-01
 0.1452132687374E-01 -0.1459497821686E-01
 0.1553739355186E-01 -0.1505474335414E-01
 0.1660397046499E-01 -0.1550532568362E-01
 0.1772505982433E-01 -0.1594720032510E-01
 0.1890483097769E-01 -0.1638134366028E-01
 0.2014732373052E-01 -0.1680955804410E-01
 0.2145595408914E-01 -0.1723482830727E-01
 0.2283284139646E-01 -0.1766105914757E-01
 0.2427778820149E-01 -0.1809306379999E-01
 0.2578684229019E-01 -0.1853723262706E-01
 0.2735084405621E-01 -0.1900106201371E-01
 0.2895431932025E-01 -0.1949207935280E-01
 0.3057532840058E-01 -0.2001628402127E-01
 0.3218696608974E-01 -0.2057655659105E-01
 0.1012739152512E-03 -0.5341179769221E-03
 0.2529350494364E-03 -0.1079875921402E-02
 0.4499290754558E-03 -0.1636647266639E-02
 0.6874212494310E-03 -0.2203075806416E-02
 0.9612687199078E-03 -0.2777315949917E-02
 0.1268254556095E-02 -0.3357319952997E-02
 0.1606098465349E-02 -0.3941097047413E-02
 0.1973323624906E-02 -0.4526882293210E-02
 0.2369064663903E-02 -0.5113205634753E-02
 0.2792882243988E-02 -0.5698893323558E-02
 0.3244611904873E-02 -0.6283028527202E-02
 0.3724254639100E-02 -0.6864895603242E-02
 0.4231907441872E-02 -0.7443925146628E-02
 0.4767722896995E-02 -0.8019642329869E-02
 0.5331892180602E-02 -0.8591623118118E-02
 0.5924647148849E-02 -0.9159459197699E-02
 0.6546282145210E-02 -0.9722733879149E-02
 0.7197150758293E-02 -0.1028097064791E-01
 0.7877756206405E-02 -0.1083366041416E-01
 0.8588740545897E-02 -0.1138019668528E-01
 0.9330962738053E-02 -0.1191988840883E-01
 0.1010554753212E-01 -0.1245194988836E-01
 0.1091393586221E-01 -0.1297549996238E-01
 0.1175794641082E-01 -0.1348968026926E-01
 0.1263985444901E-01 -0.1399419830439E-01
 0.1356237174256E-01 -0.1448914486616E-01
 0.1452862487175E-01 -0.1497469189908E-01
 0.1554215573069E-01 -0.1545095737709E-01
 0.1660693538576E-01 -0.1591804538455E-01
 0.1772733277821E-01 -0.1637622875942E-01
 0.1890800797014E-01 -0.1682623102183E-01
 0.2015364517264E-01 -0.1726957503308E-01
 0.2146847572283E-01 -0.1770898593782E-01
 0.2285558894613E-01 -0.1814815242528E-01
 0.2431583206219E-01 -0.1859179087192E-01
 0.2584618777580E-01 -0.1904647777576E-01
 0.2743801772483E-01 -0.1952024310173E-01
 0.2907558056788E-01 -0.2002144171743E-01
 0.3073556890782E-01 -0.2055697995259E-01
 0.3238855136729E-01 -0.2113033644271E-01
 0.1085902047594E-03 -0.5466217569862E-03
 0.2676251425930E-03 -0.1105526973166E-02
 0.4716123360762E-03 -0.1675997607097E-02
 0.7153440269912E-03 -0.2256498140142E-02
 0.9944440600743E-03 -0.2844970394452E-02
 0.1305612749785E-02 -0.3439177457396E-02
 0.1646603631316E-02 -0.4036997167593E-02
 0.2016041921783E-02 -0.4636598491078E-02
 0.2413190798148E-02 -0.5236500195408E-02
 0.2837738576878E-02 -0.5835555514389E-02
 0.3289633357029E-02 -0.6432897079908E-02
 0.3768968441108E-02 -0.7027869652824E-02
 0.4275912776819E-02 -0.7619967974274E-02
 0.4810672718057E-02 -0.8208781125773E-02
 0.5373477934980E-02 -0.8793946818952E-02
 0.5964586425804E-02 -0.9375115471367E-02
 0.6584309055160E-02 -0.9951925688021E-02
 0.7233009084362E-02 -0.1052395142446E-01
 0.7911195241363E-02 -0.1109072917312E-01
 0.8619514427470E-02 -0.1165169011157E-01
 0.9358833690669E-02 -0.1220617109909E-01
 0.1013029379011E-01 -0.1275340155217E-01
 0.1093536471593E-01 -0.1329249917584E-01
 0.1177591371396E-01 -0.1382259099750E-01
 0.1265429434244E-01 -0.1434338537768E-01
 0.1357332759884E-01 -0.1485497316469E-01
 0.1453628413465E-01 -0.1535749838421E-01
 0.1554689634209E-01 -0.1585100210678E-01
 0.1660939240457E-01 -0.1633544902525E-01
 0.1772849402747E-01 -0.1681090489230E-01
 0.1890934612093E-01 -0.1727782275154E-01
 0.2015728937251E-01 -0.1773741065310E-01
 0.2147741473166E-01 -0.1819207814559E-01
 0.2287387536677E-01 -0.1864522233227E-01
 0.2434872108708E-01 -0.1910137957163E-01
 0.2590008770503E-01 -0.1956725218787E-01
 0.2752009420584E-01 -0.2005140522783E-01
 0.2919289864856E-01 -0.2056310440794E-01
 0.3089380865157E-01 -0.2111031819128E-01
 0.3259053279628E-01 -0.2169729530016E-01
 0.1163328420083E-03 -0.5592447044979E-03
 0.2831769387556E-03 -0.1131464591364E-02
 0.4945367347598E-03 -0.1715830412521E-02
 0.7447866453176E-03 -0.2310593470952E-02
 0.1029305402451E-02 -0.2913450715763E-02
 0.1344725457069E-02 -0.3521956923139E-02
 0.1688861657678E-02 -0.4133855028557E-02
 0.2060469372736E-02 -0.4747255794860E-02
 0.2458962829325E-02 -0.5360680055491E-02
 0.2884173393821E-02 -0.5973021948676E-02
 0.3336170989162E-02 -0.6583475714046E-02
 0.3815146063119E-02 -0.7191456155640E-02
 0.4321341462616E-02 -0.7796529534777E-02
 0.4855017470382E-02 -0.8398354571594E-02
 0.5416441287696E-02 -0.8996635497969E-02
 0.6005895296856E-02 -0.9591085901286E-02
 0.6623704417564E-02 -0.1018140429287E-01
 0.7270238343857E-02 -0.1076722026779E-01
 0.7946007161766E-02 -0.1134812187859E-01
 0.8651657425699E-02 -0.1192358488239E-01
 0.9388057987491E-02 -0.1249298190571E-01
 0.1015635828789E-01 -0.1305556624038E-01
 0.1095804906784E-01 -0.1361046408821E-01
 0.1179503689156E-01 -0.1415679833893E-01
 0.1266974356806E-01 -0.1469428957956E-01
 0.1358508766187E-01 -0.1522304094230E-01
 0.1454446960321E-01 -0.1574318110603E-01
 0.1555179493286E-01 -0.1625468573968E-01
 0.1661152926920E-01 -0.1675738803245E-01
 0.1772872770659E-01 -0.1725114698769E-01
 0.1890900658737E-01 -0.1773613249213E-01
 0.2015836586957E-01 -0.1821320554004E-01
 0.2148279140547E-01 -0.1868440272404E-01
 0.2288758998331E-01 -0.1915274488039E-01
 0.2437618085527E-01 -0.1962248647072E-01
 0.2594810135337E-01 -0.2010037086092E-01
 0.2759651963639E-01 -0.2059547763395E-01
 0.2930571929367E-01 -0.2111807431609E-01
 0.3104964629031E-01 -0.2167733128336E-01
 0.3279287495844E-01 -0.2227858788199E-01
 0.1245395839968E-03 -0.5720065456903E-03
 0.2996694656664E-03 -0.1157739058095E-02
 0.5188119336962E-03 -0.1756231744187E-02
 0.7758721234093E-03 -0.2365481380062E-02
 0.1065973791034E-02 -0.2982902553401E-02
 0.1385702937457E-02 -0.3605821947685E-02
 0.1732969670096E-02 -0.4231846880579E-02
 0.2106691777944E-02 -0.4859041714711E-02
 0.2506458790520E-02 -0.5485945916631E-02
 0.2932260676218E-02 -0.6111510565762E-02
 0.3384297856011E-02 -0.6735004660623E-02
 0.3862861975619E-02 -0.7355922949900E-02
 0.4368271026382E-02 -0.7973910450460E-02
 0.4900838853904E-02 -0.8588700957083E-02
 0.5460868887249E-02 -0.9200069699693E-02
 0.6048665948976E-02 -0.9807797668534E-02
 0.6664566471991E-02 -0.1041164783994E-01
 0.7308943324791E-02 -0.1101131076052E-01
 0.7982303784465E-02 -0.1160643239735E-01
 0.8685288805913E-02 -0.1219654061953E-01
 0.9418762635865E-02 -0.1278105254549E-01
 0.1018387590047E-01 -0.1335925520812E-01
 0.1098213163483E-01 -0.1393029427923E-01
 0.1181546639333E-01 -0.1449330061960E-01
 0.1268636019772E-01 -0.1504802043703E-01
 0.1359781742965E-01 -0.1559458392715E-01
 0.1455335353494E-01 -0.1613312018242E-01
 0.1555702862543E-01 -0.1666355491319E-01
 0.1661352367540E-01 -0.1718560241271E-01
 0.1772820380882E-01 -0.1769892056098E-01
 0.1890713754135E-01 -0.1820338852635E-01
 0.2015697957282E-01 -0.1869949122005E-01
 0.2148463925000E-01 -0.1918883316577E-01
 0.2289666606770E-01 -0.1967396326802E-01
 0.2439803065122E-01 -0.2015872895719E-01
 0.2598996391038E-01 -0.2064979731135E-01
 0.2766704868297E-01 -0.2115671710143E-01
 0.2941401677528E-01 -0.2169083608168E-01
 0.3120349886994E-01 -0.2226277817004E-01
 0.3299669112412E-01 -0.2287891644098E-01
 0.1332533517199E-03 -0.5849337554938E-03
 0.3171871597413E-03 -0.1184405902719E-02
 0.5445455609538E-03 -0.1797281657185E-02
 0.8087063932659E-03 -0.2421251977069E-02
 0.1104533607459E-02 -0.3053405828787E-02
 0.1428598123927E-02 -0.3690822594612E-02
 0.1778947989586E-02 -0.4330977922096E-02
 0.2154700798832E-02 -0.4971906995000E-02
 0.2555647533889E-02 -0.5612188595849E-02
 0.2981952312868E-02 -0.6250849086972E-02
 0.3433953947559E-02 -0.6887246216158E-02
 0.3912048430357E-02 -0.7520964497411E-02
 0.4416629401631E-02 -0.8151734378172E-02
 0.4948063410312E-02 -0.8779369403067E-02
 0.5506688559081E-02 -0.9403719473624E-02
 0.6092830123646E-02 -0.1002463645615E-01
 0.6706833626427E-02 -0.1064195169209E-01
 0.7349072076939E-02 -0.1125542148827E-01
 0.8020046043844E-02 -0.1186475577164E-01
 0.8720385871986E-02 -0.1246954198701E-01
 0.9450944960259E-02 -0.1306925065944E-01
 0.1021286770516E-01 -0.1366321289282E-01
 0.1100766100485E-01 -0.1425060558063E-01
 0.1183728205796E-01 -0.1483058081569E-01
 0.1270425892378E-01 -0.1540292529982E-01
 0.1361166957948E-01 -0.1596781316662E-01
 0.1456312852348E-01 -0.1652539281592E-01
 0.1556282937264E-01 -0.1707556004802E-01
 0.1661564185304E-01 -0.1761792934501E-01
 0.1772721020165E-01 -0.1815197166591E-01
 0.1890402404843E-01 -0.1867727827210E-01
 0.2015337126926E-01 -0.1919393960108E-01
 0.2148309156187E-01 -0.1970307624058E-01
 0.2290104414785E-01 -0.2020666738759E-01
 0.2441392222972E-01 -0.2070800974949E-01
 0.2602496118141E-01 -0.2121354015365E-01
 0.2773059174924E-01 -0.2173318749092E-01
 0.2951641121400E-01 -0.2227944710056E-01
 0.3135392406111E-01 -0.2286462707980E-01
 0.3320039586464E-01 -0.2349646274068E-01
 0.1425247251044E-03 -0.5980577587742E-03
 0.3358315896784E-03 -0.1211536426213E-02
 0.5718687128340E-03 -0.1839089991833E-02
 0.8434213755587E-03 -0.2478040053945E-02
 0.1145096269701E-02 -0.3125100571503E-02
 0.1473492967664E-02 -0.3777086485099E-02
 0.1826849821924E-02 -0.4431352244587E-02
 0.2204526436978E-02 -0.5085927673831E-02
 0.2606542502360E-02 -0.5739456021195E-02
 0.3033251069441E-02 -0.6391059428324E-02
 0.3485135915744E-02 -0.7040198913714E-02
 0.3962699302787E-02 -0.7686558223862E-02
 0.4466410107248E-02 -0.8329959179816E-02
 0.4996686134262E-02 -0.8970298920937E-02
 0.5553898302748E-02 -0.9607504902596E-02
 0.6138390277894E-02 -0.1024150265464E-01
 0.6750514341713E-02 -0.1087219524555E-01
 0.7390640816181E-02 -0.1149940920215E-01
 0.8059259910762E-02 -0.1212292433852E-01
 0.8756986569748E-02 -0.1274239528753E-01
 0.9484657243324E-02 -0.1335735531859E-01
 0.1024340275713E-01 -0.1396719062010E-01
 0.1103472552607E-01 -0.1457112200289E-01
 0.1186059423068E-01 -0.1516833729967E-01
 0.1272357508139E-01 -0.1575868015563E-01
 0.1362680764416E-01 -0.1634238765672E-01
 0.1457398928163E-01 -0.1691964945984E-01
 0.1556942488290E-01 -0.1749035588827E-01
 0.1661814355346E-01 -0.1805404687914E-01
 0.1772603241963E-01 -0.1861002908437E-01
 0.1889996201099E-01 -0.1915761937754E-01
 0.2014781739478E-01 -0.1969650725022E-01
 0.2147835551683E-01 -0.2022728711206E-01
 0.2290079053471E-01 -0.2075127102564E-01
 0.2442369797822E-01 -0.2127104258483E-01
 0.2605265151998E-01 -0.2179261156031E-01
 0.2778644230498E-01 -0.2232614340090E-01
 0.2961209631600E-01 -0.2288532142421E-01
 0.3150025483342E-01 -0.2348439716880E-01
 0.3340400194695E-01 -0.2413302482877E-01
 0.1524133475306E-03 -0.6114175349239E-03
 0.3557216982104E-03 -0.1239218446536E-02
 0.6009312961823E-03 -0.1881790048105E-02
 0.8801625484616E-03 -0.2536005546447E-02
 0.1187778999282E-02 -0.3198148391109E-02
 0.1520468647815E-02 -0.3864756490506E-02
 0.1876723587143E-02 -0.4533082734479E-02
 0.2256192165398E-02 -0.5201183481321E-02
 0.2659150287830E-02 -0.5867796391545E-02
 0.3086153205096E-02 -0.6532161759354E-02
 0.3537834439507E-02 -0.7193858488214E-02
 0.4014802970388E-02 -0.7852678280136E-02
 0.4517601476036E-02 -0.8508539247520E-02
 0.5046696955489E-02 -0.9161424928977E-02
 0.5602490995576E-02 -0.9811342269040E-02
 0.6185343546214E-02 -0.1045829243637E-01
 0.6795611466738E-02 -0.1110225293613E-01
 0.7433659839506E-02 -0.1174312451876E-01
 0.8099965198166E-02 -0.1238076259873E-01
 0.8795122603162E-02 -0.1301489668367E-01
 0.9519945669055E-02 -0.1364513249989E-01
 0.1027554443556E-01 -0.1427092298413E-01
 0.1106340863132E-01 -0.1489154646175E-01
 0.1188550955507E-01 -0.1550624218752E-01
 0.1274444218209E-01 -0.1611492865892E-01
 0.1364339619364E-01 -0.1671792692026E-01
 0.1458613582038E-01 -0.1731549274786E-01
 0.1557705433732E-01 -0.1790753974616E-01
 0.1662130869254E-01 -0.1849356494567E-01
 0.1772498798516E-01 -0.1907274247742E-01
 0.1889529457948E-01 -0.1964414091941E-01
 0.2014065950801E-01 -0.2020705792992E-01
 0.2147072046179E-01 -0.2076153503982E-01
 0.2289606199762E-01 -0.2130812738559E-01
 0.2442727797764E-01 -0.2184852926968E-01
 0.2607262513899E-01 -0.2238807910733E-01
 0.2783385422723E-01 -0.2293696478313E-01
 0.2970014788181E-01 -0.2351004047967E-01
 0.3164175266832E-01 -0.2412383342346E-01
 0.3360732602660E-01 -0.2479044439737E-01
 0.1629903128854E-03 -0.6250618913731E-03
 0.3769979434613E-03 -0.1267561070185E-02
 0.6319053614183E-03 -0.1925544566140E-02
 0.9190899120653E-03 -0.2595338671268E-02
 0.1232703748935E-02 -0.3272735485577E-02
 0.1569603615502E-02 -0.3953991630023E-02
 0.1928611009451E-02 -0.4636290613663E-02
 0.2309713471844E-02 -0.5317756813738E-02
 0.2713469668574E-02 -0.5997257099638E-02
 0.3140647895355E-02 -0.6674173619819E-02
 0.3592033902123E-02 -0.7348217266998E-02
 0.4068342136110E-02 -0.8019295210733E-02
 0.4570186544191E-02 -0.8687425427100E-02
 0.5098080635557E-02 -0.9352679403345E-02
 0.5652454250793E-02 -0.1001514440858E-01
 0.6233681520602E-02 -0.1067489828878E-01
 0.6842121904150E-02 -0.1133199492602E-01
 0.7478133044349E-02 -0.1198641272431E-01
 0.8142174910211E-02 -0.1263808808670E-01
 0.8834818600971E-02 -0.1328683306781E-01
 0.9556849302872E-02 -0.1393233588328E-01
 0.1030934922931E-01 -0.1457412850121E-01
 0.1109378740539E-01 -0.1521156122158E-01
 0.1191212928271E-01 -0.1584394149724E-01
 0.1276698992448E-01 -0.1647128189917E-01
 0.1366159852222E-01 -0.1709401021255E-01
 0.1459977082548E-01 -0.1771247584802E-01
 0.1558596554340E-01 -0.1832664853161E-01
 0.1662543452671E-01 -0.1893602032574E-01
 0.1772442416928E-01 -0.1953967423037E-01
 0.1889041162795E-01 -0.2013647075648E-01
 0.2013230744705E-01 -0.2072534412245E-01
 0.2146056747446E-01 -0.2130577872001E-01
 0.2288712416467E-01 -0.2187750069143E-01
 0.2442468608156E-01 -0.2244113431334E-01
 0.2608453084376E-01 -0.2300105449891E-01
 0.2787204968464E-01 -0.2356716400715E-01
 0.2977952034790E-01 -0.2415539214826E-01
 0.3177752740288E-01 -0.2478488175727E-01
 0.3381008249170E-01 -0.2547079694330E-01
 0.1743413788879E-03 -0.6390526240135E-03
 0.3998276577387E-03 -0.1296701157214E-02
 0.6649889610243E-03 -0.1970553479497E-02
 0.9603785600246E-03 -0.2656266078761E-02
 0.1279995343946E-02 -0.3349075736804E-02
 0.1620970971017E-02 -0.4044967503412E-02
 0.1982544835589E-02 -0.4741104397375E-02
 0.2365096272276E-02 -0.5435731236939E-02
 0.2769490651535E-02 -0.6127883343852E-02
 0.3196716716555E-02 -0.6817108854428E-02
 0.3647712146234E-02 -0.7503263466018E-02
 0.4123293728662E-02 -0.8186375583789E-02
 0.4624143011299E-02 -0.8866564939480E-02
 0.5150816728062E-02 -0.9543991053206E-02
 0.5703770332379E-02 -0.1021882111056E-01
 0.6283390079870E-02 -0.1089120961857E-01
 0.6890036315052E-02 -0.1156128788920E-01
 0.7524057471521E-02 -0.1222911470851E-01
 0.8185894593986E-02 -0.1289471240114E-01
 0.8876091261921E-02 -0.1355798311796E-01
 0.9595399027670E-02 -0.1421870785141E-01
 0.1034486545898E-01 -0.1487651047775E-01
 0.1112593106793E-01 -0.1553082856917E-01
 0.1194054746707E-01 -0.1618105557043E-01
 0.1279134203789E-01 -0.1682731849049E-01
 0.1368157408616E-01 -0.1747017613594E-01
 0.1461509665378E-01 -0.1811010133458E-01
 0.1559641150617E-01 -0.1874715640544E-01
 0.1663083194531E-01 -0.1938087229042E-01
 0.1772471445817E-01 -0.2001029183424E-01
 0.1888574747837E-01 -0.2063412287730E-01
 0.2012324048081E-01 -0.2125098721279E-01
 0.2144837750750E-01 -0.2185983777210E-01
 0.2287437072837E-01 -0.2245953030971E-01
 0.2441608150752E-01 -0.2304944934626E-01
 0.2608811141935E-01 -0.2363267163135E-01
 0.2790024036877E-01 -0.2421839434416E-01
 0.2984902815025E-01 -0.2482339635726E-01
 0.3190649038999E-01 -0.2546975163824E-01
 0.3401188517460E-01 -0.2617645280071E-01
 0.1865713698870E-03 -0.6534689807138E-03
 0.4244120316603E-03 -0.1326812218424E-02
 0.7004105038054E-03 -0.2017064018049E-02
 0.1004218506200E-02 -0.2719058124617E-02
 0.1329778517428E-02 -0.3427413647269E-02
 0.1674635037210E-02 -0.4137875956088E-02
 0.2038546179913E-02 -0.4847658068747E-02
 0.2422335240517E-02 -0.5555189425564E-02
 0.2827193564586E-02 -0.6259716395182E-02
 0.3254333223149E-02 -0.6960976355135E-02
 0.3704840325352E-02 -0.7658980386233E-02
 0.4179628889925E-02 -0.8353881574996E-02
 0.4679443276246E-02 -0.9045901287481E-02
 0.5204879605463E-02 -0.9735285501937E-02
 0.5756416129484E-02 -0.1042227954232E-01
 0.6334449272052E-02 -0.1110711339978E-01
 0.6939338867858E-02 -0.1178999586653E-01
 0.7571422877451E-02 -0.1247106799938E-01
 0.8231121698172E-02 -0.1315044236897E-01
 0.8918948479857E-02 -0.1382811851236E-01
 0.9635616434600E-02 -0.1450398066089E-01
 0.1038213193495E-01 -0.1517775805229E-01
 0.1115989937606E-01 -0.1584899166617E-01
 0.1197084905359E-01 -0.1651717969638E-01
 0.1281761398004E-01 -0.1718258492340E-01
 0.1370347572139E-01 -0.1784592262028E-01
 0.1463231198336E-01 -0.1850782057061E-01
 0.1560864644187E-01 -0.1916847310997E-01
 0.1663782086634E-01 -0.1982749905895E-01
 0.1772625361251E-01 -0.2048396109344E-01
 0.1888177654140E-01 -0.2113648519830E-01
 0.2011400574070E-01 -0.2178345687433E-01
 0.2143473687855E-01 -0.2242336055716E-01
 0.2285834221230E-01 -0.2305418642022E-01
 0.2440179531301E-01 -0.2367394358465E-01
 0.2608325176146E-01 -0.2428405060793E-01
 0.2791766166563E-01 -0.2489244854728E-01
 0.2990733201617E-01 -0.2551634591711E-01
 0.3202730034502E-01 -0.2618098790098E-01
 0.3421222836691E-01 -0.2691015977894E-01
 0.1998103296723E-03 -0.6684140956423E-03
 0.4509952771069E-03 -0.1358116851145E-02
 0.7384334508279E-03 -0.2065383926103E-02
 0.1050813219592E-02 -0.2784037274068E-02
 0.1382173441743E-02 -0.3508026697834E-02
 0.1730647022810E-02 -0.4232923581043E-02
 0.2096621555238E-02 -0.4956088273061E-02
 0.2481412148949E-02 -0.5676210495240E-02
 0.2886548278005E-02 -0.6392791551181E-02
 0.3313462676162E-02 -0.7105778672914E-02
 0.3763382895646E-02 -0.7815345585853E-02
 0.4237313085048E-02 -0.8521770590164E-02
 0.4736054580628E-02 -0.9225374241540E-02
 0.5260238582997E-02 -0.9926485578168E-02
 0.5810363221711E-02 -0.1062542481338E-01
 0.6386833283341E-02 -0.1132249499693E-01
 0.6990007067327E-02 -0.1201798134077E-01
 0.7620211373255E-02 -0.1271210807355E-01
 0.8277844974688E-02 -0.1340508154583E-01
 0.8963388479876E-02 -0.1409700553630E-01
 0.9677512694163E-02 -0.1478787804517E-01
 0.1042117657471E-01 -0.1547754769247E-01
 0.1119574097321E-01 -0.1616567587939E-01
 0.1200310789966E-01 -0.1685188526202E-01
 0.1284591053257E-01 -0.1753659654059E-01
 0.1372744669525E-01 -0.1822070769164E-01
 0.1465160817759E-01 -0.1890503411072E-01
 0.1562292129057E-01 -0.1958994360689E-01
 0.1664672476222E-01 -0.2027519587496E-01
 0.1772945125530E-01 -0.2095994119886E-01
 0.1887900658522E-01 -0.2164280918138E-01
 0.2010521316205E-01 -0.2232205136939E-01
 0.2142033857856E-01 -0.2299579006219E-01
 0.2283974206304E-01 -0.2366121766969E-01
 0.2438237064280E-01 -0.2431489803852E-01
 0.2607004169781E-01 -0.2495624054560E-01
 0.2792362806825E-01 -0.2559124507431E-01
 0.2995293574689E-01 -0.2623685605903E-01
 0.3213829544682E-01 -0.2692156402358E-01
 0.3441044449165E-01 -0.2767514888386E-01
 0.2142223099665E-03 -0.6840244868848E-03
 0.4798767012695E-03 -0.1390904406839E-02
 0.7793609368062E-03 -0.2115898770057E-02
 0.1100376009170E-02 -0.2851587414194E-02
 0.1437289255820E-02 -0.3591226387832E-02
 0.1789039701595E-02 -0.4330328487279E-02
 0.2156759684204E-02 -0.5066530265890E-02
 0.2542294311241E-02 -0.5798866626589E-02
 0.2947513601831E-02 -0.6527135718854E-02
 0.3374061934499E-02 -0.7251510434438E-02
 0.3823297737926E-02 -0.7972329941707E-02
 0.4296306312241E-02 -0.8689994812419E-02
 0.4793939229555E-02 -0.9404919761291E-02
 0.5316858106238E-02 -0.1011751154354E-01
 0.5865578001180E-02 -0.1082816047539E-01
 0.6440510461072E-02 -0.1153723892786E-01
 0.7042011634446E-02 -0.1224510626528E-01
 0.7670397104263E-02 -0.1295206964713E-01
 0.8326043896992E-02 -0.1365843173190E-01
 0.9009398934874E-02 -0.1436440673110E-01
 0.9721087371283E-02 -0.1507011685998E-01
 0.1046201494245E-01 -0.1577554470327E-01
 0.1123349165529E-01 -0.1648049007741E-01
 0.1203738471275E-01 -0.1718472084551E-01
 0.1287632330627E-01 -0.1788883849359E-01
 0.1375361763250E-01 -0.1859395034341E-01
 0.1467316543152E-01 -0.1930109241594E-01
 0.1563947881915E-01 -0.2001084831681E-01
 0.1665786441405E-01 -0.2072317404012E-01
 0.1773472404365E-01 -0.2143738113429E-01
 0.1887796951068E-01 -0.2215220100167E-01
 0.2009752632803E-01 -0.2286587891552E-01
 0.2140597774070E-01 -0.2357632826222E-01
 0.2281944705288E-01 -0.2428009020915E-01
 0.2435860376944E-01 -0.2497231853777E-01
 0.2604885515930E-01 -0.2565013011773E-01
 0.2791761974002E-01 -0.2631678837012E-01
 0.2998420355879E-01 -0.2698791634667E-01
 0.3223740576739E-01 -0.2769500302025E-01
 0.3460563187283E-01 -0.2847527710511E-01
 0.2300182321772E-03 -0.7004844517178E-03
 0.5114266335267E-03 -0.1425556528737E-02
 0.8235394204220E-03 -0.2169094525292E-02
 0.1153122992237E-02 -0.2922163408660E-02
 0.1495215073841E-02 -0.3677356825938E-02
 0.1849821194359E-02 -0.4430314698956E-02
 0.2218928320646E-02 -0.5179112464651E-02
 0.2604933299228E-02 -0.5923219030656E-02
 0.3010036965672E-02 -0.6662764725979E-02
 0.3436079578107E-02 -0.7398156674721E-02
 0.3884536459443E-02 -0.8129896716335E-02
 0.4356563452720E-02 -0.8858500797396E-02
 0.4853054926820E-02 -0.9584469986404E-02
 0.5374698038952E-02 -0.1030828140405E-01
 0.5922021889870E-02 -0.1103038912138E-01
 0.6495443432916E-02 -0.1175122974954E-01
 0.7095316484507E-02 -0.1247123325471E-01
 0.7721946022221E-02 -0.1319078818844E-01
 0.8375688147681E-02 -0.1391029478717E-01
 0.9056956107403E-02 -0.1463008291837E-01
 0.9766327215908E-02 -0.1535040914795E-01
 0.1050464873271E-01 -0.1607140515124E-01
 0.1127317257647E-01 -0.1679302831335E-01
 0.1207372494006E-01 -0.1751521368986E-01
 0.1290892820978E-01 -0.1823876715467E-01
 0.1378210339365E-01 -0.1896503205581E-01
 0.1469714880201E-01 -0.1969529753295E-01
 0.1565854843565E-01 -0.2043040475288E-01
 0.1667155102859E-01 -0.2117056189117E-01
 0.1774248653911E-01 -0.2191531870391E-01
 0.1887920961407E-01 -0.2266361605503E-01
 0.2009164874210E-01 -0.2341384273012E-01
 0.2139253955190E-01 -0.2416390266721E-01
 0.2279850792177E-01 -0.2490992185858E-01
 0.2433158028319E-01 -0.2564582689286E-01
 0.2602044487274E-01 -0.2636631481575E-01
 0.2789941267155E-01 -0.2707108478825E-01
 0.2999941631105E-01 -0.2777293657268E-01
 0.3232204388405E-01 -0.2850553935514E-01
 0.3479653689071E-01 -0.2931523045000E-01
 0.2474752223061E-03 -0.7180485527363E-03
 0.5461073125082E-03 -0.1462584735709E-02
 0.8713595428818E-03 -0.2225586703250E-02
 0.1209260805971E-02 -0.2996299318985E-02
 0.1556008034765E-02 -0.3766789135825E-02
 0.1912968159410E-02 -0.4533103473191E-02
 0.2283071404757E-02 -0.5293949520971E-02
 0.2669264107835E-02 -0.6049313317685E-02
 0.3074054461463E-02 -0.6799680417900E-02
 0.3499456298201E-02 -0.7545691120989E-02
 0.3947044887681E-02 -0.8288000643754E-02
 0.4418034761835E-02 -0.9027229110037E-02
 0.4913355220669E-02 -0.9763953274613E-02
 0.5433714046156E-02 -0.1049871126945E-01
 0.5979651648236E-02 -0.1123201303629E-01
 0.6551589321867E-02 -0.1196435300727E-01
 0.7149878809374E-02 -0.1269622686827E-01
 0.7774815764158E-02 -0.1342810157973E-01
 0.8426737193565E-02 -0.1416047468147E-01
 0.9106024028203E-02 -0.1489379555089E-01
 0.9813204923546E-02 -0.1562846458121E-01
 0.1054906417800E-01 -0.1636477814320E-01
 0.1131478837542E-01 -0.1710287178209E-01
 0.1211215660944E-01 -0.1784287138753E-01
 0.1294378291617E-01 -0.1858581177990E-01
 0.1381299998307E-01 -0.1933329876423E-01
 0.1472370424045E-01 -0.2008690557771E-01
 0.1568034087415E-01 -0.2084777045008E-01
 0.1668807892540E-01 -0.2161640771923E-01
 0.1775314102895E-01 -0.2239268238619E-01
 0.1888326955923E-01 -0.2317585745369E-01
 0.2008830545262E-01 -0.2396463129333E-01
 0.2138097833442E-01 -0.2475713828037E-01
 0.2277813564924E-01 -0.2554941630840E-01
 0.2430269731104E-01 -0.2633453151858E-01
 0.2598604636399E-01 -0.2710490666073E-01
 0.2786926607487E-01 -0.2785598201960E-01
 0.2999689824024E-01 -0.2859576423243E-01
 0.3238897765598E-01 -0.2935833586071E-01
 0.3498136041436E-01 -0.3020082170790E-01
 0.2669665490849E-03 -0.7370779743490E-03
 0.5844997703467E-03 -0.1502686764181E-02
 0.9232506766821E-03 -0.2286156880197E-02
 0.1268966562938E-02 -0.3074612032160E-02
 0.1619678319976E-02 -0.3859909245766E-02
 0.1978419069041E-02 -0.4638900973625E-02
 0.2349106982732E-02 -0.5411134033134E-02
 0.2735204947772E-02 -0.6177174409678E-02
 0.3139491325229E-02 -0.6937867631274E-02
 0.3564125584445E-02 -0.7694074483605E-02
 0.4010763763499E-02 -0.8446587059256E-02
 0.4480666499238E-02 -0.9196114006409E-02
 0.4974790054316E-02 -0.9943294274196E-02
 0.5493858065779E-02 -0.1068871573467E-01
 0.6038419769883E-02 -0.1143293486107E-01
 0.6608900055647E-02 -0.1217649619798E-01
 0.7205649270202E-02 -0.1291995492590E-01
 0.7828955655680E-02 -0.1366385186439E-01
 0.8479139975086E-02 -0.1440877972757E-01
 0.9156553732373E-02 -0.1515530936821E-01
 0.9861677861689E-02 -0.1590399328492E-01
 0.1059523035001E-01 -0.1665530844732E-01
 0.1135832518449E-01 -0.1740959097613E-01
 0.1215268810501E-01 -0.1816718361849E-01
 0.1298092435653E-01 -0.1892937621528E-01
 0.1384638157325E-01 -0.1969806307440E-01
 0.1475295476584E-01 -0.2047512987048E-01
 0.1570504293450E-01 -0.2126204710095E-01
 0.1670771804641E-01 -0.2205968461646E-01
 0.1776706665860E-01 -0.2286829616516E-01
 0.1889067450449E-01 -0.2368757910330E-01
 0.2008822039913E-01 -0.2451671537754E-01
 0.2137228738173E-01 -0.2535433869883E-01
 0.2275966914919E-01 -0.2619680527172E-01
 0.2427365879384E-01 -0.2703688575106E-01
 0.2594747510554E-01 -0.2786527455136E-01
 0.2782817754704E-01 -0.2867288298819E-01
 0.2997526680433E-01 -0.2946062503218E-01
 0.3243420627373E-01 -0.3025976864429E-01
 0.3515743522708E-01 -0.3113944060306E-01
 0.2890095051281E-03 -0.7581017019049E-03
 0.6273368822734E-03 -0.1546832572372E-02
 0.9796625820557E-03 -0.2351795722556E-02
 0.1332357057587E-02 -0.3157794035143E-02
 0.1686172001474E-02 -0.3957096107635E-02
 0.2046068752390E-02 -0.4747882298385E-02
 0.2416926377622E-02 -0.5530727311284E-02
 0.2802657843204E-02 -0.6306801234031E-02
 0.3206262945164E-02 -0.7077291216061E-02
 0.3630014751686E-02 -0.7843252883022E-02
 0.4075629658334E-02 -0.8605591173387E-02
 0.4544401717531E-02 -0.9365083248908E-02
 0.5037306439608E-02 -0.1012241411582E-01
 0.5555078888480E-02 -0.1087820836992E-01
 0.6098274984455E-02 -0.1163305836102E-01
 0.6667322797343E-02 -0.1238754984341E-01
 0.7262572336439E-02 -0.1314228995854E-01
 0.7884306890541E-02 -0.1389788719186E-01
 0.8532834779804E-02 -0.1465502514422E-01
 0.9208482622292E-02 -0.1541439557354E-01
 0.9911686796888E-02 -0.1617670933559E-01
 0.1064309734185E-01 -0.1694263977546E-01
 0.1140374848728E-01 -0.1771274830322E-01
 0.1219530586342E-01 -0.1848762411707E-01
 0.1302036628762E-01 -0.1926884078309E-01
 0.1388229776796E-01 -0.2005860691357E-01
 0.1478499695976E-01 -0.2085914502740E-01
 0.1573281249975E-01 -0.2167228632576E-01
 0.1673070658026E-01 -0.2249929777991E-01
 0.1778460833135E-01 -0.2334088801637E-01
 0.1890191506687E-01 -0.2419729450165E-01
 0.2009209030046E-01 -0.2506835404635E-01
 0.2136746030581E-01 -0.2595348081335E-01
 0.2274452228667E-01 -0.2684980970801E-01
 0.2424642840174E-01 -0.2775055415424E-01
 0.2590718437401E-01 -0.2864571724745E-01
 0.2777820150313E-01 -0.2952226689981E-01
 0.2993388746430E-01 -0.3037188678676E-01
 0.3245290255893E-01 -0.3121778025013E-01
 0.3532068293832E-01 -0.3214075666136E-01
 0.3143447223686E-03 -0.7819244562670E-03
 0.6755395347156E-03 -0.1596397724676E-02
 0.1041022205742E-02 -0.2423746159543E-02
 0.1399444668428E-02 -0.3246584102860E-02
 0.1755354437957E-02 -0.4058687819192E-02
 0.2115765789933E-02 -0.4860172957473E-02
 0.2486394961130E-02 -0.5652749751796E-02
 0.2871510149172E-02 -0.6438161408689E-02
 0.3274276434121E-02 -0.7217893242945E-02
 0.3697046294941E-02 -0.7993156456466E-02
 0.4141576092098E-02 -0.8764937480009E-02
 0.4609181181492E-02 -0.9534058010413E-02
 0.5100849224414E-02 -0.1030123065128E-01
 0.5617322816463E-02 -0.1106710222286E-01
 0.6159162840777E-02 -0.1183228917829E-01
 0.6726800472294E-02 -0.1259740852767E-01
 0.7320586753719E-02 -0.1336311061723E-01
 0.7940802888064E-02 -0.1413006375331E-01
 0.8587749331713E-02 -0.1489903573077E-01
 0.9261734002012E-02 -0.1567083535876E-01
 0.9963154625192E-02 -0.1644633483928E-01
 0.1069259425757E-01 -0.1722641863537E-01
 0.1145100070407E-01 -0.1801190093255E-01
 0.1223997189484E-01 -0.1880365242050E-01
 0.1306209693075E-01 -0.1960356375977E-01
 0.1392077121490E-01 -0.2041418401958E-01
 0.1481989797285E-01 -0.2123809147865E-01
 0.1576377406286E-01 -0.2207749659915E-01
 0.1675724399928E-01 -0.2293409376974E-01
 0.1780606588655E-01 -0.2380910145572E-01
 0.1891743008090E-01 -0.2470339081225E-01
 0.2010055642893E-01 -0.2561761020570E-01
 0.2136744580626E-01 -0.2655222535989E-01
 0.2273411242942E-01 -0.2750562879186E-01
 0.2422312795981E-01 -0.2847231797116E-01
 0.2586823003955E-01 -0.2944310185088E-01
 0.2772278520648E-01 -0.3040293775700E-01
 0.2987364668912E-01 -0.3133344361981E-01
 0.3243958091379E-01 -0.3224224258337E-01
 0.3546469824723E-01 -0.3321784314045E-01
 0.3440725941341E-03 -0.8098283787555E-03
 0.7302430866819E-03 -0.1653372099579E-02
 0.1107644879587E-02 -0.2503525361574E-02
 0.1470080983329E-02 -0.3341697921266E-02
 0.1827000029529E-02 -0.4164936600277E-02
 0.2187314181382E-02 -0.4975830392991E-02
 0.2557354624054E-02 -0.5777171239434E-02
 0.2941637126776E-02 -0.6571186254198E-02
 0.3343432785065E-02 -0.7359590616527E-02
 0.3765139560593E-02 -0.8143698236373E-02
 0.4208534842354E-02 -0.8924539359097E-02
 0.4674944406706E-02 -0.9702952901017E-02
 0.5165361945206E-02 -0.1047965875926E-01
 0.5680534394713E-02 -0.1125531034451E-01
 0.6221026365769E-02 -0.1203053557285E-01
 0.6787272389609E-02 -0.1280597189532E-01
 0.7379626145027E-02 -0.1358230302409E-01
 0.7998369852191E-02 -0.1436024766732E-01
 0.8643801166288E-02 -0.1514064860316E-01
 0.9316216894191E-02 -0.1592442380729E-01
 0.1001598517243E-01 -0.1671260479743E-01
 0.1074362694657E-01 -0.1750629905579E-01
 0.1149999834240E-01 -0.1830660401476E-01
 0.1228662098620E-01 -0.1911471524969E-01
 0.1310607667580E-01 -0.1993288213341E-01
 0.1396179572039E-01 -0.2076402201206E-01
 0.1485769328579E-01 -0.2161108032392E-01
 0.1579801501813E-01 -0.2247665138387E-01
 0.1678748479102E-01 -0.2336287176758E-01
 0.1783168402188E-01 -0.2427151005437E-01
 0.1893759025084E-01 -0.2520414789893E-01
 0.2011417626887E-01 -0.2616237641403E-01
 0.2137309816649E-01 -0.2714794634882E-01
 0.2272977720898E-01 -0.2816096104358E-01
 0.2420588420879E-01 -0.2919805610857E-01
 0.2583407231912E-01 -0.3025256592197E-01
 0.2766698463203E-01 -0.3131096177346E-01
 0.2979815911511E-01 -0.3234733893757E-01
 0.3238886328381E-01 -0.3334509298432E-01
 0.3557923254707E-01 -0.3438900444226E-01
 0.3798973073473E-03 -0.8439782642522E-03
 0.7927730590856E-03 -0.1720682442255E-02
 0.1179567473439E-02 -0.2592864781433E-02
 0.1543901193617E-02 -0.3443697370280E-02
 0.1900797312500E-02 -0.4275963581026E-02
 0.2260478945506E-02 -0.5094827977649E-02
 0.2629628013705E-02 -0.5903901555198E-02
 0.3012905756341E-02 -0.6705766836891E-02
 0.3413629548727E-02 -0.7502273272278E-02
 0.3834212734545E-02 -0.8294773438887E-02
 0.4276437440253E-02 -0.9084298981802E-02
 0.4741630819309E-02 -0.9871676199793E-02
 0.5230787773098E-02 -0.1065761080054E-01
 0.5744657226041E-02 -0.1144274642110E-01
 0.6283806813521E-02 -0.1222770923789E-01
 0.6848674975473E-02 -0.1301314569824E-01
 0.7439619765834E-02 -0.1379976215270E-01
 0.8056927566832E-02 -0.1458831688355E-01
 0.8700898386588E-02 -0.1537971602036E-01
 0.9371826331031E-02 -0.1617497428075E-01
 0.1007006223427E-01 -0.1697527317749E-01
 0.1079607544497E-01 -0.1778194885961E-01
 0.1155062847189E-01 -0.1859641474438E-01
 0.1233515735981E-01 -0.1942024750809E-01
 0.1315223584605E-01 -0.2025611140312E-01
 0.1400533509037E-01 -0.2110732395846E-01
 0.1489838555941E-01 -0.2197719870153E-01
 0.1583558303084E-01 -0.2286869890484E-01
 0.1682153313942E-01 -0.2378439729023E-01
 0.1786164337247E-01 -0.2472663512022E-01
 0.1896268364412E-01 -0.2569776207806E-01
 0.2013339804021E-01 -0.2670041027666E-01
 0.2138512658130E-01 -0.2773778417812E-01
 0.2273268510529E-01 -0.2881205908899E-01
 0.2419665572122E-01 -0.2992281211481E-01
 0.2580816984758E-01 -0.3106746542168E-01
 0.2761725423004E-01 -0.3223845408661E-01
 0.2971538983509E-01 -0.3341098825478E-01
 0.3229765936735E-01 -0.3453947504049E-01
 0.3564781600320E-01 -0.3568073324967E-01
 0.4245802534031E-03 -0.8883180837917E-03
 0.8644473210303E-03 -0.1802649038329E-02
 0.1256267958159E-02 -0.2693409557382E-02
 0.1620313227588E-02 -0.3552804635691E-02
 0.1976374564575E-02 -0.4391740048031E-02
 0.2334991968733E-02 -0.5217036739346E-02
 0.2703025781160E-02 -0.6032782401056E-02
 0.3085179501132E-02 -0.6841751710442E-02
 0.3484763907078E-02 -0.7645802845899E-02
 0.3904185112090E-02 -0.8446259300669E-02
 0.4345216773895E-02 -0.9244107453224E-02
 0.4809180992088E-02 -0.1004013024123E-01
 0.5297070504221E-02 -0.1083499712981E-01
 0.5809634826511E-02 -0.1162932539953E-01
 0.6347444460782E-02 -0.1242372605220E-01
 0.6910942574711E-02 -0.1321884272553E-01
 0.7500493370032E-02 -0.1401539303792E-01
 0.8116390382575E-02 -0.1481416285343E-01
 0.8758940809728E-02 -0.1561610791351E-01
 0.9428444313867E-02 -0.1642232283016E-01
 0.1012524912202E-01 -0.1723412015662E-01
 0.1084979106061E-01 -0.1805305800255E-01
 0.1160274404024E-01 -0.1888089742355E-01
 0.1238545031203E-01 -0.1971967209698E-01
 0.1320047244353E-01 -0.2057254321959E-01
 0.1405132295896E-01 -0.2144326845996E-01
 0.1494194493558E-01 -0.2233551498804E-01
 0.1587648486305E-01 -0.2325257302576E-01
 0.1685943864683E-01 -0.2419741807462E-01
 0.1789605304301E-01 -0.2517296515805E-01
 0.1899290366293E-01 -0.2618237312994E-01
 0.2015854069230E-01 -0.2722937501500E-01
 0.2140405191144E-01 -0.2831872090625E-01
 0.2274373512199E-01 -0.2945483489962E-01
 0.2419708638887E-01 -0.3064089040910E-01
 0.2579347036393E-01 -0.3187972346642E-01
 0.2758030437318E-01 -0.3317294459634E-01
 0.2963908410289E-01 -0.3451224678075E-01
 0.3217039485319E-01 -0.3583560559254E-01
 0.3564459730980E-01 -0.3713211743605E-01
 0.4828044284425E-03 -0.9508416795984E-03
 0.9458391248905E-03 -0.1905354828303E-02
 0.1336311259855E-02 -0.2805823814931E-02
 0.1698630224151E-02 -0.3668826432571E-02
 0.2053317730315E-02 -0.4512096378488E-02
 0.2410559747314E-02 -0.5342191940180E-02
 0.2777358904469E-02 -0.6163590644094E-02
 0.3158322410106E-02 -0.6978943399832E-02
 0.3556736703902E-02 -0.7790013198706E-02
 0.3974979418144E-02 -0.8598015334087E-02
 0.4414808884306E-02 -0.9403845474874E-02
 0.4877537970774E-02 -0.1020821212759E-01
 0.5364155646583E-02 -0.1101172688614E-01
 0.5875411573242E-02 -0.1181496434544E-01
 0.6411879507385E-02 -0.1261850703914E-01
 0.6974008378750E-02 -0.1342298391606E-01
 0.7562170248485E-02 -0.1422911213289E-01
 0.8176668446694E-02 -0.1503769232158E-01
 0.8817821549744E-02 -0.1584971439017E-01
 0.9485941777049E-02 -0.1666633259485E-01
 0.1018138940808E-01 -0.1748896111227E-01
 0.1090459331040E-01 -0.1831935104706E-01
 0.1165615731954E-01 -0.1915963120547E-01
 0.1243732813004E-01 -0.2001239844539E-01
 0.1325064993513E-01 -0.2088144042253E-01
 0.1409966412039E-01 -0.2177100853670E-01
 0.1498831137139E-01 -0.2268508462689E-01
 0.1592068714679E-01 -0.2362720642918E-01
 0.1690119361772E-01 -0.2460068360813E-01
 0.1793494358126E-01 -0.2560897952651E-01
 0.1902834210296E-01 -0.2665609052585E-01
 0.2018977681344E-01 -0.2774689268228E-01
 0.2143018758321E-01 -0.2888765166886E-01
 0.2276345124543E-01 -0.3008506830184E-01
 0.2420833910644E-01 -0.3134595788714E-01
 0.2579220420912E-01 -0.3268026500995E-01
 0.2756076016476E-01 -0.3409896425185E-01
 0.2958748220439E-01 -0.3562312942156E-01
 0.3203006843225E-01 -0.3722680610877E-01
 0.3553222186214E-01 -0.3879932808699E-01
 0.5627610297065E-03 -0.1050614258279E-02
 0.1034393953407E-02 -0.2034872071634E-02
 0.1417477986162E-02 -0.2928127021765E-02
 0.1778381031718E-02 -0.3791761295525E-02
 0.2131083618703E-02 -0.4636484019370E-02
 0.2486922408523E-02 -0.5469947632336E-02
 0.2852436230410E-02 -0.6296022068602E-02
 0.3232208543911E-02 -0.7117102554166E-02
 0.3629455273344E-02 -0.7934710381463E-02
 0.4046524533113E-02 -0.8749884416935E-02
 0.4485154640909E-02 -0.9563384118375E-02
 0.4946648580804E-02 -0.1037581448203E-01
 0.5431991447298E-02 -0.1118770866949E-01
 0.5941933601857E-02 -0.1199958308805E-01
 0.6477052932197E-02 -0.1281197901480E-01
 0.7037805326309E-02 -0.1362549906154E-01
 0.7624572269134E-02 -0.1444084813675E-01
 0.8237669024346E-02 -0.1525882842048E-01
 0.8877428743617E-02 -0.1608044742066E-01
 0.9544181463536E-02 -0.1690689639208E-01
 0.1023830991890E-01 -0.1773965534412E-01
 0.1096026723141E-01 -0.1858060548826E-01
 0.1171062976337E-01 -0.1943222158287E-01
 0.1249056871178E-01 -0.2029781635876E-01
 0.1330259510827E-01 -0.2118202607579E-01
 0.1415023790903E-01 -0.2208966694711E-01
 0.1503739940451E-01 -0.2302495459110E-01
 0.1596811963300E-01 -0.2399154382634E-01
 0.1694673191319E-01 -0.2499296667305E-01
 0.1797826096376E-01 -0.2603317397096E-01
 0.1906898028286E-01 -0.2711701800888E-01
 0.2022714131619E-01 -0.2825057737369E-01
 0.2146359072943E-01 -0.2944152245926E-01
 0.2279204847564E-01 -0.3069845664192E-01
 0.2423058061464E-01 -0.3203185643582E-01
 0.2580637803800E-01 -0.3345795681698E-01
 0.2755939785484E-01 -0.3500301923307E-01
 0.2957332209368E-01 -0.3670003406688E-01
 0.3193467266006E-01 -0.3865377195032E-01
 0.3527403278528E-01 -0.4073818999532E-01
 0.1072639748610E-01 -0.9172320500242E-02
-0.1735772099502E-02 -0.1440404724205E-01
-0.1113802440871E-01 -0.2061704792042E-01
-0.1777482203298E-01 -0.2777657781846E-01
-0.2190280041636E-01 -0.3582489541012E-01
-0.2375376673662E-01 -0.4468564158535E-01
-0.2354337097226E-01 -0.5427133813140E-01
-0.2146855953400E-01 -0.6449012869730E-01
-0.1770445002685E-01 -0.7525263155272E-01
-0.1240089939114E-01 -0.8647827938976E-01
-0.5683074836248E-02 -0.9809955156951E-01
 0.2341616539474E-02 -0.1100609185366E+00
 0.1157567149246E-01 -0.1223126148411E+00
 0.2192763328906E-01 -0.1348042457954E+00
 0.3331344807024E-01 -0.1474816609301E+00
 0.4566245380896E-01 -0.1602868062693E+00
 0.5892386130174E-01 -0.1731541146734E+00
 0.7304803453507E-01 -0.1860173187127E+00
 0.8800037324248E-01 -0.1988146243987E+00
 0.1146237097397E-01 -0.9629965679025E-02
-0.4066476038676E-03 -0.1502670268967E-01
-0.9213200969859E-02 -0.2147741312354E-01
-0.1526538740950E-01 -0.2893931557459E-01
-0.1882910198432E-01 -0.3734775621545E-01
-0.2014323883241E-01 -0.4662266190776E-01
-0.1942731901510E-01 -0.5667433582759E-01
-0.1688048829951E-01 -0.6740914952214E-01
-0.1267906202575E-01 -0.7873552280745E-01
-0.6973646741442E-02 -0.9057029965810E-01
 0.1101017742962E-03 -0.1028430972419E+00
 0.8464591211745E-02 -0.1154953467099E+00
 0.1799226473777E-01 -0.1284745398764E+00
 0.2860177626696E-01 -0.1417283845106E+00
 0.4020960074251E-01 -0.1552018586821E+00
 0.5274528831569E-01 -0.1688357614475E+00
 0.6615511679571E-01 -0.1825634141488E+00
 0.8039032399493E-01 -0.1963116252240E+00
 0.9539982182888E-01 -0.2099839672329E+00
 0.1225472088079E-01 -0.1008831297112E-01
 0.1017824379536E-02 -0.1564696489088E-01
-0.7163400462240E-02 -0.2233885050757E-01
-0.1260614099301E-01 -0.3010768209550E-01
-0.1558436567933E-01 -0.3888197751961E-01
-0.1634262867857E-01 -0.4857733082751E-01
-0.1510376698398E-01 -0.5910135438855E-01
-0.1206890904195E-01 -0.7035833665268E-01
-0.7415535642995E-02 -0.8225472732979E-01
-0.1294955246939E-02 -0.9470518403094E-01
 0.6166735466251E-02 -0.1076368533160E+00
 0.1486180689789E-01 -0.1209885245721E+00
 0.2469279185665E-01 -0.1347052142519E+00
 0.3556866506232E-01 -0.1487326286253E+00
 0.4740630001181E-01 -0.1630138958119E+00
 0.6013465687337E-01 -0.1774874821087E+00
 0.7369683020406E-01 -0.1920832722931E+00
 0.8803771015439E-01 -0.2067188724167E+00
 0.1030951733059E+00 -0.2212979408388E+00
 0.1310118744976E-01 -0.1054860306865E-01
 0.2536067009072E-02 -0.1626818681594E-01
-0.4989076895753E-02 -0.2320214176688E-01
-0.9797367930983E-02 -0.3128104926153E-01
-0.1216867372853E-01 -0.4042526189251E-01
-0.1235204466454E-01 -0.5054562367365E-01
-0.1057297121300E-01 -0.6154665946917E-01
-0.7034219281355E-02 -0.7333044443444E-01
-0.1914253655782E-02 -0.8580154832759E-01
 0.4635002288309E-02 -0.9887270276716E-01
 0.1248706398356E-01 -0.1124688789903E+00
 0.2153409036522E-01 -0.1265264696803E+00
 0.3167874682159E-01 -0.1409881085591E+00
 0.4283028889091E-01 -0.1557972643379E+00
 0.5490562638381E-01 -0.1708947396569E+00
 0.6783253160148E-01 -0.1862162011354E+00
 0.8154973450311E-01 -0.2016881597094E+00
 0.9599651975202E-01 -0.2172270631239E+00
 0.1111057966792E+00 -0.2327420077911E+00
 0.1400019096375E-01 -0.1101177287053E-01
 0.4146349963218E-02 -0.1689167783439E-01
-0.2691560262288E-02 -0.2406808047495E-01
-0.6840055611786E-02 -0.3245866074659E-01
-0.8582928615188E-02 -0.4197530278993E-01
-0.8172418681912E-02 -0.5252356212768E-01
-0.5835968582513E-02 -0.6400460844112E-01
-0.1777538399161E-02 -0.7631819464046E-01
 0.3823681890233E-02 -0.8936706987348E-01
 0.1081528922812E-01 -0.1030622034548E+00
 0.1907046473517E-01 -0.1173265830791E+00
 0.2848124761059E-01 -0.1320943491414E+00
 0.3895038742752E-01 -0.1473057756014E+00
 0.5038726772145E-01 -0.1629019909906E+00
 0.6270851646661E-01 -0.1788214110637E+00
 0.7584025721608E-01 -0.1949973031637E+00
 0.8971738446384E-01 -0.2113551254083E+00
 0.1042755455701E+00 -0.2278133071294E+00
 0.1194464010313E+00 -0.2442878502202E+00
 0.1495036546987E-01 -0.1147829881199E-01
 0.5846827496894E-02 -0.1751822688809E-01
-0.2726760543042E-03 -0.2493693656465E-01
-0.3735903151473E-02 -0.3363967149691E-01
-0.4828779363158E-02 -0.4352975830948E-01
-0.3805459127031E-02 -0.5450720026777E-01
-0.8945609461168E-03 -0.6646958638079E-01
 0.3699259649469E-02 -0.7931426865300E-01
 0.9796400768810E-02 -0.9294220515914E-01
 0.1724414604328E-01 -0.1072627052433E+00
 0.2591539709085E-01 -0.1221968914592E+00
 0.3570203933431E-01 -0.1376767416767E+00
 0.4650681584780E-01 -0.1536402156005E+00
 0.5823909052938E-01 -0.1700261665254E+00
 0.7081501805271E-01 -0.1867709149083E+00
 0.8415917778012E-01 -0.2038063174566E+00
 0.9820369048807E-01 -0.2210583193129E+00
 0.1128824220112E+00 -0.2384488018468E+00
 0.1281280623532E+00 -0.2559004783126E+00
 0.1595039803658E-01 -0.1194851929114E-01
 0.7635488887995E-02 -0.1814827483395E-01
 0.2265308069755E-02 -0.2580868654579E-01
-0.4872503923302E-03 -0.3482305000632E-01
-0.9086230961120E-03 -0.4508623565697E-01
 0.7463371011884E-03 -0.5649258167302E-01
 0.4248637665524E-02 -0.6893596837908E-01
 0.9393468007264E-02 -0.8231128490136E-01
 0.1600116130852E-01 -0.9651771123915E-01
 0.2391887612898E-01 -0.1114629566187E+00
 0.3301929267496E-01 -0.1270663531766E+00
 0.4319410266494E-01 -0.1432577903317E+00
 0.5434595829504E-01 -0.1599730086099E+00
 0.6638411890698E-01 -0.1771487881599E+00
 0.7922429164761E-01 -0.1947198472349E+00
 0.9278992453911E-01 -0.2126174982655E+00
 0.1070115091453E+00 -0.2307691427016E+00
 0.1218226335339E+00 -0.2491006210455E+00
 0.1371584449381E+00 -0.2675408697694E+00
 0.1699894277325E-01 -0.1242269784431E-01
 0.9510127096913E-02 -0.1878207973754E-01
 0.4919723049474E-02 -0.2668310354374E-01
 0.2902990342354E-02 -0.3600763320921E-01
 0.3174461961755E-02 -0.4664228946733E-01
 0.5479733094125E-02 -0.5847575378312E-01
 0.9590237771237E-02 -0.7139814395289E-01
 0.1530156970474E-01 -0.8530185115861E-01
 0.2243436559005E-01 -0.1000842799209E+00
 0.3083586269199E-01 -0.1156515729272E+00
 0.4037858672800E-01 -0.1319213234483E+00
 0.5095400886239E-01 -0.1488214082980E+00
 0.6246464126264E-01 -0.1662854858676E+00
 0.7481964709818E-01 -0.1842485380396E+00
 0.8793446984370E-01 -0.2026441669501E+00
 0.1017319737624E+00 -0.2214037966743E+00
 0.1161420712207E+00 -0.2404568133309E+00
 0.1310992466643E+00 -0.2597331005003E+00
 0.1465420685383E+00 -0.2791672782234E+00
 0.1809456742834E-01 -0.1290106209605E-01
 0.1146830221584E-01 -0.1941978652937E-01
 0.7687497441897E-02 -0.2755982793399E-01
 0.6431353962829E-02 -0.3719215933059E-01
 0.7416734099849E-02 -0.4819543394694E-01
 0.1039075524068E-01 -0.6045276982024E-01
 0.1512605918731E-01 -0.7385052888625E-01
 0.2141920608134E-01 -0.8827859328787E-01
 0.2909151524134E-01 -0.1036325916025E+00
 0.3799051875308E-01 -0.1198171174358E+00
 0.4798866884448E-01 -0.1367480643077E+00
 0.5897721429395E-01 -0.1543513751829E+00
 0.7085852653205E-01 -0.1725587817379E+00
 0.8354176210809E-01 -0.1913037427794E+00
 0.9694237984209E-01 -0.2105191504610E+00
 0.1109832387711E+00 -0.2301369840664E+00
 0.1255945793530E+00 -0.2500888646647E+00
 0.1407126951731E+00 -0.2703085906778E+00
 0.1562802438082E+00 -0.2907359087539E+00
 0.1923572068100E-01 -0.1338382204733E-01
 0.1350731819778E-01 -0.2006147191429E-01
 0.1056515808819E-01 -0.2843841631375E-01
 0.1009384226984E-01 -0.3837530774430E-01
 0.1181381457101E-01 -0.4974317088014E-01
 0.1547471609106E-01 -0.6241971658299E-01
 0.2085114657056E-01 -0.7628760334684E-01
 0.2774118541932E-01 -0.9123421357891E-01
 0.3596721627995E-01 -0.1071533990311E+00
 0.4537729186856E-01 -0.1239482111734E+00
 0.5584388881772E-01 -0.1415328731559E+00
 0.6725806144583E-01 -0.1598314685336E+00
 0.7952208596863E-01 -0.1787739493427E+00
 0.9254526076255E-01 -0.1982924876545E+00
 0.1062433851836E+00 -0.2183195679843E+00
 0.1205398704592E+00 -0.2387879958870E+00
 0.1353660485496E+00 -0.2596316976225E+00
 0.1506607245696E+00 -0.2807881467489E+00
 0.1663710988518E+00 -0.3022016524245E+00
 0.2042071779932E-01 -0.1387118277094E-01
 0.1562421681348E-01 -0.2070717467988E-01
 0.1354884155124E-01 -0.2931838042126E-01
 0.1388595005600E-01 -0.3955573668074E-01
 0.1636071976333E-01 -0.5128302451207E-01
 0.2072624410830E-01 -0.6437275098178E-01
 0.2675979196769E-01 -0.7870395773391E-01
 0.3426149698970E-01 -0.9416155205260E-01
 0.4305518522401E-01 -0.1106376074749E+00
 0.5298966282300E-01 -0.1280336309395E+00
 0.6393754562132E-01 -0.1462621929553E+00
 0.7578974978700E-01 -0.1652455779632E+00
 0.8844853934978E-01 -0.1849120787679E+00
 0.1018235399797E+00 -0.2051927597629E+00
 0.1158312306547E+00 -0.2260198984429E+00
 0.1303960873677E+00 -0.2473272623862E+00
 0.1454511660458E+00 -0.2690510333590E+00
 0.1609383164028E+00 -0.2911320615376E+00
 0.1768095580088E+00 -0.3135186695219E+00
 0.2164772475746E-01 -0.1436334857005E-01
 0.1781576313183E-01 -0.2135691279137E-01
 0.1663428888352E-01 -0.3019921291678E-01
 0.1780266931074E-01 -0.4073211247687E-01
 0.2105187054462E-01 -0.5281257263883E-01
 0.2613929307198E-01 -0.6630813590763E-01
 0.3284554122190E-01 -0.8109433841260E-01
 0.4097331352016E-01 -0.9705364700422E-01
 0.5034824778362E-01 -0.1140763530250E+00
 0.6082014017954E-01 -0.1320624057297E+00
 0.7226187500465E-01 -0.1509227252010E+00
 0.8456431015778E-01 -0.1705778349016E+00
 0.9762980745104E-01 -0.1909544517690E+00
 0.1113685246331E+00 -0.2119826491811E+00
 0.1256979531744E+00 -0.2335946068740E+00
 0.1405440921473E+00 -0.2557250844590E+00
 0.1558422399125E+00 -0.2783123855163E+00
 0.1715376873694E+00 -0.3013004053866E+00
 0.1875874087431E+00 -0.3246409653334E+00
 0.2291475845668E-01 -0.1486052910956E-01
 0.2007845386189E-01 -0.2201070051125E-01
 0.1981686622684E-01 -0.3108041455894E-01
 0.2183852119838E-01 -0.4190314424798E-01
 0.2588113164718E-01 -0.5432948791673E-01
 0.3170718413674E-01 -0.6822228988241E-01
 0.3910123517420E-01 -0.8345370902040E-01
 0.4786902940863E-01 -0.9990381129861E-01
 0.5783837267759E-01 -0.1174610961687E+00
 0.6886028790514E-01 -0.1360239286112E+00
 0.8080806775018E-01 -0.1555015611102E+00
 0.9357260918460E-01 -0.1758127668426E+00
 0.1070564988093E+00 -0.1968827289452E+00
 0.1211706373542E+00 -0.2186405857715E+00
 0.1358338433416E+00 -0.2410184496689E+00
 0.1509740407375E+00 -0.2639520187229E+00
 0.1665291908284E+00 -0.2873815216048E+00
 0.1824483129647E+00 -0.3112535427371E+00
 0.1986933609561E+00 -0.3355229073579E+00
 0.2421968496261E-01 -0.1536294146890E-01
 0.2240851998473E-01 -0.2266855916406E-01
 0.2309157508545E-01 -0.3196151419638E-01
 0.2598757380760E-01 -0.4306761197266E-01
 0.3084183445684E-01 -0.5583157361469E-01
 0.3742263049195E-01 -0.7011183163760E-01
 0.4551903366027E-01 -0.8577730618900E-01
 0.5494028235587E-01 -0.1027057018513E+00
 0.6551668963899E-01 -0.1207837073527E+00
 0.7710073830572E-01 -0.1399080605391E+00
 0.8956627554776E-01 -0.1599863067799E+00
 0.1028043460683E+00 -0.1809354496281E+00
 0.1167178969418E+00 -0.2026791390170E+00
 0.1312187794449E+00 -0.2251455787897E+00
 0.1462274283725E+00 -0.2482667777037E+00
 0.1616740389310E+00 -0.2719792521974E+00
 0.1774995714639E+00 -0.2962249099477E+00
 0.1936569719363E+00 -0.3209526456364E+00
 0.2101131142899E+00 -0.3461198044104E+00
 0.2556022262303E-01 -0.1587081206419E-01
 0.2480193611822E-01 -0.2333052683791E-01
 0.2645306961960E-01 -0.3284208776478E-01
 0.3024346681712E-01 -0.4422439469624E-01
 0.3592680691871E-01 -0.5731680103798E-01
 0.4327776982609E-01 -0.7197362766783E-01
 0.5209044825236E-01 -0.8806069896178E-01
 0.6217798468406E-01 -0.1054533930612E+00
 0.7337351800239E-01 -0.1240365567780E+00
 0.8553121669281E-01 -0.1437052393052E+00
 0.9852563064801E-01 -0.1643652153038E+00
 0.1122480667971E+00 -0.1859316689285E+00
 0.1266019704531E+00 -0.2083266784707E+00
 0.1415003411496E+00 -0.2314774651723E+00
 0.1568654900425E+00 -0.2553158430878E+00
 0.1726301770417E+00 -0.2797789744142E+00
 0.1887386246828E+00 -0.3048101616945E+00
 0.2051478306310E+00 -0.3303602142883E+00
 0.2218294724000E+00 -0.3563885266537E+00
 0.2693395192719E-01 -0.1638437969348E-01
 0.2725444042949E-01 -0.2399666885658E-01
 0.2989568682387E-01 -0.3372177839372E-01
 0.3459945073586E-01 -0.4537250091784E-01
 0.4112841962916E-01 -0.5878335058922E-01
 0.4926421473847E-01 -0.7380484482442E-01
 0.5880639479775E-01 -0.9029985437046E-01
 0.6957237631168E-01 -0.1081414572988E+00
 0.8139841887581E-01 -0.1272126121940E+00
 0.9414059189647E-01 -0.1474065977471E+00
 0.1076742943716E+00 -0.1686273297097E+00
 0.1218912113045E+00 -0.1907880938784E+00
 0.1366954211952E+00 -0.2138093234893E+00
 0.1520012554541E+00 -0.2376171681692E+00
 0.1677331309428E+00 -0.2621431123275E+00
 0.1838266163592E+00 -0.2873247514836E+00
 0.2002293967078E+00 -0.3131064721968E+00
 0.2169025883735E+00 -0.3394405956921E+00
 0.2338225217300E+00 -0.3662881123322E+00
 0.2833832193011E-01 -0.1690389600956E-01
 0.2976154803830E-01 -0.2466708469754E-01
 0.3341346692067E-01 -0.3460031208880E-01
 0.3904841339391E-01 -0.4651109390463E-01
 0.4643861686367E-01 -0.6022964718871E-01
 0.5537308655924E-01 -0.7560299656275E-01
 0.6565722857856E-01 -0.9249119571074E-01
 0.7711306025104E-01 -0.1107650369397E+00
 0.8958023046214E-01 -0.1303055270309E+00
 0.1029169114325E+00 -0.1510040711375E+00
 0.1169994928585E+00 -0.1727626138550E+00
 0.1317201516267E+00 -0.1954924369662E+00
 0.1469837281791E+00 -0.2191122253748E+00
 0.1627060528670E+00 -0.2435469352483E+00
 0.1788138468011E+00 -0.2687275532302E+00
 0.1952456863437E+00 -0.2945918677248E+00
 0.2119528660317E+00 -0.3210850229788E+00
 0.2289006436636E+00 -0.3481604514492E+00
 0.2460698348820E+00 -0.3757803070695E+00
 0.2977066574369E-01 -0.1742962862842E-01
 0.3231857927526E-01 -0.2534191778194E-01
 0.3700019270075E-01 -0.3547751683156E-01
 0.4358292831935E-01 -0.4763952131241E-01
 0.5184897171937E-01 -0.6165440106087E-01
 0.6159507507837E-01 -0.7736599557313E-01
 0.7263280686793E-01 -0.9463166802561E-01
 0.8478906678669E-01 -0.1133199241802E+00
 0.9790713328047E-01 -0.1333097366263E+00
 0.1118474678991E+00 -0.1544905126521E+00
 0.1264875856517E+00 -0.1767620908482E+00
 0.1417202648237E+00 -0.2000336200060E+00
 0.1574512283637E+00 -0.2242219093091E+00
 0.1735979550543E+00 -0.2492505750352E+00
 0.1900896391165E+00 -0.2750499149779E+00
 0.2068680229077E+00 -0.3015576530150E+00
 0.2238881134309E+00 -0.3287193595030E+00
 0.2411193003872E+00 -0.3564891877682E+00
 0.2585467130095E+00 -0.3848300482330E+00
 0.3122821390243E-01 -0.1796186269086E-01
 0.3492068412036E-01 -0.2602136319785E-01
 0.4064942326324E-01 -0.3635333903380E-01
 0.4819529592181E-01 -0.4875734159992E-01
 0.5735073288413E-01 -0.6305664474324E-01
 0.6792048926835E-01 -0.7909220197064E-01
 0.7972254243411E-01 -0.9671879833109E-01
 0.9258890916673E-01 -0.1158026345991E+00
 0.1063667081174E+00 -0.1362205470006E+00
 0.1209188600283E+00 -0.1578597999136E+00
 0.1361241315953E+00 -0.1806179706336E+00
 0.1518760065550E+00 -0.2044019266785E+00
 0.1680812019367E+00 -0.2291264561741E+00
 0.1846589769914E+00 -0.2547136727405E+00
 0.2015411401638E+00 -0.2810929809911E+00
 0.2186727224097E+00 -0.3082017759099E+00
 0.2360125102448E+00 -0.3359857260384E+00
 0.2535339939027E+00 -0.3643993321469E+00
 0.2712264505938E+00 -0.3934058834589E+00
 0.3270811175803E-01 -0.1850090339973E-01
 0.3756287323384E-01 -0.2670567645470E-01
 0.4435453599067E-01 -0.3722786107367E-01
 0.5287759394678E-01 -0.4986435161324E-01
 0.6293488139027E-01 -0.6443577132661E-01
 0.7433931858718E-01 -0.8078047265347E-01
 0.8691546821935E-01 -0.9875075673243E-01
 0.1005006511505E+00 -0.1182104810384E+00
 0.1149460066851E+00 -0.1390342229956E+00
 0.1301170675315E+00 -0.1611069394286E+00
 0.1458939698837E+00 -0.1843237733080E+00
 0.1621710013890E+00 -0.2085891477389E+00
 0.1788559760006E+00 -0.2338156728795E+00
 0.1958700490512E+00 -0.2599237887167E+00
 0.2131477590106E+00 -0.2868417982507E+00
 0.2306375169221E+00 -0.3145065051734E+00
 0.2483019272109E+00 -0.3428633593073E+00
 0.2661185362139E+00 -0.3718668580764E+00
 0.2840806181156E+00 -0.4014803255836E+00
 0.3420743897303E-01 -0.1904707890874E-01
 0.4024005239738E-01 -0.2739518256183E-01
 0.4810877262831E-01 -0.3810131903058E-01
 0.5762173234130E-01 -0.5096061417559E-01
 0.6859219192849E-01 -0.6579157240449E-01
 0.8084129900409E-01 -0.8243020990680E-01
 0.9420030701603E-01 -0.1007264160837E+00
 0.1085119800077E+00 -0.1205416450099E+00
 0.1236316284168E+00 -0.1417480725094E+00
 0.1394275330312E+00 -0.1642281651562E+00
 0.1557813094051E+00 -0.1878744439008E+00
 0.1725881428175E+00 -0.2125887141516E+00
 0.1897570394519E+00 -0.2382812460776E+00
 0.2072111516431E+00 -0.2648706347990E+00
 0.2248878410217E+00 -0.2922838777534E+00
 0.2427389631874E+00 -0.3204569347960E+00
 0.2607309561390E+00 -0.3493347370220E+00
 0.2788453726585E+00 -0.3788714541544E+00
 0.2970793554489E+00 -0.4090301409296E+00
 0.3572323068948E-01 -0.1960074351155E-01
 0.4294705971411E-01 -0.2809028542129E-01
 0.5190528866975E-01 -0.3897412060666E-01
 0.6241951162405E-01 -0.5204648561176E-01
 0.7431329771895E-01 -0.6712427555042E-01
 0.8741598264866E-01 -0.8404140892268E-01
 0.1015655449354E+00 -0.1026454096857E+00
 0.1166102836372E+00 -0.1227952449206E+00
 0.1324098019025E+00 -0.1443605258937E+00
 0.1488352493578E+00 -0.1672210300126E+00
 0.1657698243580E+00 -0.1912664571509E+00
 0.1831097005745E+00 -0.2163958164236E+00
 0.2007651662183E+00 -0.2425168773210E+00
 0.2186614591283E+00 -0.2695462263603E+00
 0.2367388372028E+00 -0.2974093640896E+00
 0.2549526412902E+00 -0.3260411708813E+00
 0.2732731402313E+00 -0.3553857803584E+00
 0.2916858441798E+00 -0.3853967375261E+00
 0.3101916674000E+00 -0.4160365607400E+00
 0.3725250066879E-01 -0.2016228133273E-01
 0.4567870609302E-01 -0.2879147782224E-01
 0.5573720675596E-01 -0.3984686358013E-01
 0.6726268557787E-01 -0.5312264356545E-01
 0.8008875979281E-01 -0.6843458164564E-01
 0.9405281189724E-01 -0.8561470448073E-01
 0.1089995093674E+00 -0.1045081871546E+00
 0.1247827323074E+00 -0.1249714011072E+00
 0.1412664711764E+00 -0.1468712103311E+00
 0.1583248520274E+00 -0.1700844899416E+00
 0.1758427554478E+00 -0.1944979117092E+00
 0.1937174339562E+00 -0.2200075093600E+00
 0.2118605448679E+00 -0.2465183986916E+00
 0.2301994903390E+00 -0.2739450089631E+00
 0.2486774800939E+00 -0.3022111729841E+00
 0.2672533593430E+00 -0.3312504794279E+00
 0.2859012088229E+00 -0.3610060102518E+00
 0.3046104509997E+00 -0.3914304147858E+00
 0.3233857109623E+00 -0.4224854384038E+00
 0.3879226676091E-01 -0.2073211074447E-01
 0.4842981964204E-01 -0.2949935234903E-01
 0.5959767491111E-01 -0.4072035516828E-01
 0.7214302920281E-01 -0.5419011551310E-01
 0.8590914165418E-01 -0.6972370243840E-01
 0.1007411988228E+00 -0.8715141710689E-01
 0.1164904522366E+00 -0.1063160686843E+00
 0.1330163656171E+00 -0.1270712977905E+00
 0.1501873871601E+00 -0.1492810191851E+00
 0.1678807168058E+00 -0.1728189804297E+00
 0.1859830160600E+00 -0.1975686135408E+00
 0.2043927099218E+00 -0.2234228019297E+00
 0.2230229126935E+00 -0.2502838685206E+00
 0.2418032631331E+00 -0.2780639591721E+00
 0.2606799631057E+00 -0.3066850963629E+00
 0.2796153607269E+00 -0.3360793947052E+00
 0.2985873133388E+00 -0.3661886578252E+00
 0.3175891148015E+00 -0.3969643925714E+00
 0.3366290805775E+00 -0.4283673616415E+00
 0.4033957836561E-01 -0.2131068948389E-01
 0.5119529344627E-01 -0.3021461321534E-01
 0.6347992894365E-01 -0.4159563234777E-01
 0.7705241111386E-01 -0.5525030801599E-01
 0.9176508836754E-01 -0.7099339832617E-01
 0.1074706089212E+00 -0.8865359861552E-01
 0.1240266373341E+00 -0.1080712975030E+00
 0.1412981833136E+00 -0.1290972416458E+00
 0.1591582027247E+00 -0.1515921759444E+00
 0.1774870606022E+00 -0.1754264850604E+00
 0.1961733013681E+00 -0.2004801481608E+00
 0.2151166235874E+00 -0.2266427319690E+00
 0.2342316914914E+00 -0.2538136470478E+00
 0.2534504498574E+00 -0.2819026595085E+00
 0.2727221199777E+00 -0.3108298750519E+00
 0.2920125307425E+00 -0.3405257885232E+00
 0.3113032618415E+00 -0.3709307294319E+00
 0.3305914389523E+00 -0.4019948381038E+00
 0.3498890903656E+00 -0.4336777068889E+00
 0.4189154372941E-01 -0.2189851970106E-01
 0.5397013313835E-01 -0.3093808820250E-01
 0.6737735423020E-01 -0.4247398222662E-01
 0.8198286462465E-01 -0.5630503569191E-01
 0.9764740352960E-01 -0.7224601518477E-01
 0.1142306419792E+00 -0.9012407566911E-01
 0.1315964241625E+00 -0.1097770889607E+00
 0.1496152321142E+00 -0.1310527152542E+00
 0.1681645633425E+00 -0.1538082909146E+00
 0.1871280375662E+00 -0.1779105942517E+00
 0.2063961921919E+00 -0.2032359399582E+00
 0.2258701128784E+00 -0.2296704241966E+00
 0.2454661167844E+00 -0.2571104507884E+00
 0.2651185255294E+00 -0.2854633465980E+00
 0.2847795964553E+00 -0.3146472383724E+00
 0.3044185954202E+00 -0.3445908997317E+00
 0.3240207461873E+00 -0.3752330256050E+00
 0.3435869616638E+00 -0.4065221873556E+00
 0.3631330471845E+00 -0.4384166334397E+00
 0.4344536432514E-01 -0.2249615581739E-01
 0.5674951650814E-01 -0.3167074415285E-01
 0.7128356308839E-01 -0.4335696655502E-01
 0.8692667669980E-01 -0.5735655461682E-01
 0.1035471454300E+00 -0.7348452552229E-01
 0.1210111327665E+00 -0.9156649711904E-01
 0.1391883716964E+00 -0.1114376824056E+00
 0.1579547120643E+00 -0.1329424319049E+00
 0.1771922164597E+00 -0.1559344173869E+00
 0.1967878526171E+00 -0.1802765611473E+00
 0.2166342744478E+00 -0.2058413058107E+00
 0.2366340863223E+00 -0.2325111389457E+00
 0.2567053771630E+00 -0.2601793930979E+00
 0.2767849227663E+00 -0.2887509398795E+00
 0.2968280253795E+00 -0.3181419175140E+00
 0.3168073209164E+00 -0.3482793298092E+00
 0.3367115675815E+00 -0.3791001179851E+00
 0.3565454050939E+00 -0.4105511031513E+00
 0.3763285140970E+00 -0.4425890193322E+00
 0.4499836364869E-01 -0.2310421040511E-01
 0.5952884383703E-01 -0.3241370041981E-01
 0.7519245939789E-01 -0.4424644395576E-01
 0.9187646085583E-01 -0.5840759287881E-01
 0.1094557042127E+00 -0.7471256577598E-01
 0.1278022303122E+00 -0.9298537602639E-01
 0.1467913188642E+00 -0.1130583858709E+00
 0.1663040582811E+00 -0.1347723810129E+00
 0.1862270953745E+00 -0.1579770960162E+00
 0.2064508489075E+00 -0.1825313431911E+00
 0.2268702320465E+00 -0.2083034917355E+00
 0.2473895236925E+00 -0.2351723009901E+00
 0.2679287257241E+00 -0.2630280012915E+00
 0.2884271580921E+00 -0.2917730423997E+00
 0.3088431729105E+00 -0.3213216254274E+00
 0.3291526848245E+00 -0.3515989982980E+00
 0.3493478362316E+00 -0.3825402784847E+00
 0.3694369014853E+00 -0.4140903782603E+00
 0.3894435510464E+00 -0.4462043361806E+00
 0.4654802527701E-01 -0.2372336382753E-01
 0.6230380434650E-01 -0.3316824722407E-01
 0.7909832446069E-01 -0.4514459814243E-01
 0.9682525478441E-01 -0.5946138792208E-01
 0.1153649060051E+00 -0.7593448070926E-01
 0.1345945055526E+00 -0.9438613851872E-01
 0.1543944941550E+00 -0.1146456267620E+00
 0.1746510520482E+00 -0.1365498782053E+00
 0.1952554322384E+00 -0.1599444022014E+00
 0.2161016236522E+00 -0.1846836448883E+00
 0.2370869666596E+00 -0.2106317088188E+00
 0.2581176010525E+00 -0.2376635254716E+00
 0.2791156124052E+00 -0.2656662279667E+00
 0.3000229748653E+00 -0.2945399316492E+00
 0.3208010969661E+00 -0.3241970209533E+00
 0.3414290559072E+00 -0.3545610750158E+00
 0.3619021766841E+00 -0.3855653758710E+00
 0.3822322239505E+00 -0.4171527944231E+00
 0.4024469572964E+00 -0.4492764703735E+00
 0.4809202883554E-01 -0.2435437335722E-01
 0.6507043942788E-01 -0.3393586380485E-01
 0.8299589793335E-01 -0.4605396630371E-01
 0.1017666106614E+00 -0.6052172412540E-01
 0.1212671070123E+00 -0.7715536752083E-01
 0.1413790462736E+00 -0.9577517113098E-01
 0.1619876100432E+00 -0.1162069991127E+00
 0.1829839145380E+00 -0.1382836095214E+00
 0.2042638518353E+00 -0.1618459848861E+00
 0.2257251230828E+00 -0.1867439494427E+00
 0.2472676947897E+00 -0.2128371558991E+00
 0.2687997906567E+00 -0.2399966287834E+00
 0.2902457878241E+00 -0.2681064452436E+00
 0.3115504536455E+00 -0.2970645301612E+00
 0.3326782690751E+00 -0.3267816477954E+00
 0.3536113343026E+00 -0.3571798804347E+00
 0.3743478920509E+00 -0.3881907326901E+00
 0.3949029755793E+00 -0.4197549301855E+00
 0.4153084743256E+00 -0.4518234731606E+00
 0.4962828617631E-01 -0.2499808247468E-01
 0.6782520707424E-01 -0.3471823735506E-01
 0.8688046004058E-01 -0.4697746914554E-01
 0.1066946857340E+00 -0.6159297276740E-01
 0.1271552862400E+00 -0.7838112245231E-01
 0.1481475489212E+00 -0.9715986992247E-01
 0.1695609526272E+00 -0.1177513110352E+00
 0.1912913943944E+00 -0.1399836735208E+00
 0.2132394583215E+00 -0.1636931007037E+00
 0.2353067298262E+00 -0.1887245435191E+00
 0.2573960366110E+00 -0.2149330340729E+00
 0.2794179511283E+00 -0.2421856309978E+00
 0.3012993944623E+00 -0.2703634305951E+00
 0.3229881055595E+00 -0.2993623666859E+00
 0.3444516745031E+00 -0.3290918607051E+00
 0.3656750664847E+00 -0.3594727675918E+00
 0.3866591017215E+00 -0.3904349572505E+00
 0.4074217506498E+00 -0.4219169398528E+00
 0.4279989545073E+00 -0.4538672635088E+00
 0.5115498829546E-01 -0.2565543470308E-01
 0.7056506598064E-01 -0.3551728789160E-01
 0.9074793995715E-01 -0.4791844894570E-01
 0.1116043628238E+00 -0.6268014205522E-01
 0.1330231697626E+00 -0.7961849873563E-01
 0.1548924422827E+00 -0.9854870102789E-01
 0.1771055025833E+00 -0.1192886423867E+00
 0.1995628855989E+00 -0.1416616312209E+00
 0.2221699511853E+00 -0.1654986528983E+00
 0.2448323785029E+00 -0.1906395439674E+00
 0.2674561316378E+00 -0.2169345616282E+00
 0.2899544416744E+00 -0.2442467590899E+00
 0.3122570765796E+00 -0.2724543551074E+00
 0.3343149762400E+00 -0.3014515405986E+00
 0.3560989131947E+00 -0.3311467524009E+00
 0.3775965525774E+00 -0.3614599982440E+00
 0.3988108664269E+00 -0.3923197627059E+00
 0.4197622840142E+00 -0.4236623211601E+00
 0.4404905125673E+00 -0.4554333653869E+00
 0.5267064016054E-01 -0.2632748214095E-01
 0.7328754181860E-01 -0.3633518733679E-01
 0.9459500106143E-01 -0.4888070276227E-01
 0.1164913420149E+00 -0.6378892368587E-01
 0.1388653205971E+00 -0.8087516172757E-01
 0.1616069721757E+00 -0.9995125769663E-01
 0.1846130138192E+00 -0.1208303967661E+00
 0.2077885013425E+00 -0.1433305469109E+00
 0.2310436975591E+00 -0.1672772169867E+00
 0.2542886302266E+00 -0.1925049076008E+00
 0.2774327174793E+00 -0.2188589705136E+00
 0.3003922036924E+00 -0.2461984338926E+00
 0.3231000597287E+00 -0.2743987614419E+00
 0.3455107179263E+00 -0.3033526826832E+00
 0.3675982649339E+00 -0.3329680794497E+00
 0.3893529156047E+00 -0.3631646138157E+00
 0.4107792804096E+00 -0.3938697730942E+00
 0.4318995845942E+00 -0.4250176715475E+00
 0.4527567117364E+00 -0.4565506803921E+00
 0.5417410993710E-01 -0.2701539905007E-01
 0.7599082125354E-01 -0.3717438490447E-01
 0.9841916310361E-01 -0.4986852563096E-01
 0.1213522729864E+00 -0.6492575396785E-01
 0.1446772685634E+00 -0.8215976178612E-01
 0.1682853228027E+00 -0.1013783359886E+00
 0.1920761236721E+00 -0.1223893705206E+00
 0.2159591733228E+00 -0.1450050420089E+00
 0.2398498238686E+00 -0.1690450736439E+00
 0.2636627612072E+00 -0.1943384417475E+00
 0.2873112184921E+00 -0.2207254986526E+00
 0.3107148477246E+00 -0.2480612529720E+00
 0.3338102275098E+00 -0.2762185446739E+00
 0.3565556433693E+00 -0.3050889301497E+00
 0.3789287135392E+00 -0.3345802084778E+00
 0.4009221067250E+00 -0.3646123199814E+00
 0.4225414852827E+00 -0.3951123259834E+00
 0.4438099978847E+00 -0.4260124249458E+00
 0.4647727119775E+00 -0.4572512217353E+00
 0.5566466972793E-01 -0.2772048966108E-01
 0.7867384023353E-01 -0.3803762533619E-01
 0.1022189211925E+00 -0.5088675092175E-01
 0.1261848838350E+00 -0.6609787789801E-01
 0.1504556345479E+00 -0.8348201458135E-01
 0.1749227309067E+00 -0.1028420190664E+00
 0.1994884556128E+00 -0.1239798290542E+00
 0.2240667449132E+00 -0.1467013524515E+00
 0.2485783052992E+00 -0.1708202393340E+00
 0.2729428566699E+00 -0.1961598055157E+00
 0.2970778513072E+00 -0.2225553669622E+00
 0.3209067725138E+00 -0.2498579573513E+00
 0.3443702446782E+00 -0.2779379294832E+00
 0.3674308313996E+00 -0.3066859226881E+00
 0.3900700134523E+00 -0.3360101083471E+00
 0.4122829373239E+00 -0.3658314156558E+00
 0.4340757100170E+00 -0.3960772900901E+00
 0.4554713198984E+00 -0.4266785744283E+00
 0.4765155309265E+00 -0.4575698256095E+00
 0.5714203119044E-01 -0.2844418687579E-01
 0.8133637509983E-01 -0.3892795688461E-01
 0.1059938714632E+00 -0.5194078673652E-01
 0.1309881114911E+00 -0.6731342083831E-01
 0.1561982449085E+00 -0.8485279389206E-01
 0.1815155772802E+00 -0.1043557752033E+00
 0.2068446859817E+00 -0.1256175937520E+00
 0.2321040151173E+00 -0.1484373911806E+00
 0.2572199938622E+00 -0.1726224930591E+00
 0.2821178341976E+00 -0.1979904952330E+00
 0.3067196553547E+00 -0.2243717275976E+00
 0.3309532099882E+00 -0.2516133599177E+00
 0.3547636130643E+00 -0.2795834112047E+00
 0.3781181625832E+00 -0.3081718029944E+00
 0.4010026558110E+00 -0.3372873989349E+00
 0.4234149526579E+00 -0.3668528031552E+00
 0.4453611060202E+00 -0.3967968984055E+00
 0.4668627258355E+00 -0.4270503230961E+00
 0.4879641729493E+00 -0.4575438030364E+00
 0.5860638351709E-01 -0.2918804209506E-01
 0.8397916782631E-01 -0.3984871954641E-01
 0.1097448964762E+00 -0.5303666046654E-01
 0.1357623012371E+00 -0.6858148346757E-01
 0.1619043182817E+00 -0.8628426112970E-01
 0.1880615537697E+00 -0.1059345918763E+00
 0.2141406911138E+00 -0.1273201666004E+00
 0.2400648664396E+00 -0.1502328453735E+00
 0.2657667352701E+00 -0.1744734301268E+00
 0.2911775638094E+00 -0.1998538449021E+00
 0.3162246335084E+00 -0.2261996101993E+00
 0.3408404024819E+00 -0.2533542540413E+00
 0.3649748899226E+00 -0.2811836658454E+00
 0.3886005665921E+00 -0.3095771966539E+00
 0.4117080479860E+00 -0.3384445271201E+00
 0.4342984363293E+00 -0.3677102053597E+00
 0.4563776086005E+00 -0.3973057194652E+00
 0.4779647336315E+00 -0.4271635902043E+00
 0.4991000034673E+00 -0.4572123489445E+00
 0.6005838903222E-01 -0.2995362498231E-01
 0.8660403382828E-01 -0.4080348564511E-01
 0.1134743371946E+00 -0.5418102534853E-01
 0.1405093681435E+00 -0.6991226519262E-01
 0.1675745761641E+00 -0.8778999765017E-01
 0.1945597362473E+00 -0.1075951136961E+00
 0.2213735765372E+00 -0.1291068617915E+00
 0.2479442489144E+00 -0.1521092745974E+00
 0.2742113201966E+00 -0.1763965017796E+00
 0.3001128056109E+00 -0.2017749988031E+00
 0.3255816964614E+00 -0.2280658213935E+00
 0.3505555829232E+00 -0.2551092399008E+00
 0.3749897288526E+00 -0.2827693538409E+00
 0.3988621174847E+00 -0.3109350682545E+00
 0.4221686682967E+00 -0.3395168209555E+00
 0.4449142714074E+00 -0.3684409026593E+00
 0.4671052765112E+00 -0.3976410271066E+00
 0.4887585359715E+00 -0.4270552970914E+00
 0.5099068252800E+00 -0.4566151180876E+00
 0.6149910707421E-01 -0.3074239968799E-01
 0.8921406067180E-01 -0.4179568217184E-01
 0.1171863299079E+00 -0.5538134903042E-01
 0.1452330141345E+00 -0.7131724862075E-01
 0.1732114367961E+00 -0.8938514861920E-01
 0.2010107622575E+00 -0.1093558250947E+00
 0.2285417993480E+00 -0.1309990191094E+00
 0.2557382436106E+00 -0.1540902620276E+00
 0.2825475193553E+00 -0.1784170907827E+00
 0.3089152336345E+00 -0.2037809158551E+00
 0.3347806916986E+00 -0.2299988620180E+00
 0.3600870385244E+00 -0.2569085304840E+00
 0.3847950464913E+00 -0.2843728064875E+00
 0.4088883285487E+00 -0.3122804738461E+00
 0.4323684283327E+00 -0.3405423376248E+00
 0.4552446588518E+00 -0.3690860063912E+00
 0.4775236771456E+00 -0.3978459434639E+00
 0.4992238637382E+00 -0.4267627569907E+00
 0.5203707589106E+00 -0.4557877689999E+00
-0.1395621364173E-01 -0.1144967217401E-01
-0.4018545484710E-01 -0.2122415108909E-01
-0.5727358181533E-01 -0.2339916764665E-01
-0.6634808191909E-01 -0.2044730401888E-01
-0.6852455056241E-01 -0.1370825816767E-01
-0.6487032580170E-01 -0.3740313566715E-02
-0.5603405473583E-01  0.8346468501362E-02
-0.4242645028741E-01  0.2149420288074E-01
-0.2442082857400E-01  0.3516562466871E-01
-0.2299300429884E-02  0.4896753338264E-01
 0.2371227667738E-01  0.6248559871611E-01
 0.5339578835005E-01  0.7523280410554E-01
 0.8649875811114E-01  0.8681921232629E-01
 0.1227323323829E+00  0.9679290738651E-01
 0.1617374140244E+00  0.1045347847741E+00
 0.2030585837524E+00  0.1094985824697E+00
 0.2462157987867E+00  0.1119035452944E+00
 0.2896472196593E+00  0.1066031879453E+00
 0.3291685949578E+00  0.8881338959664E-01
-0.1209708178050E-01 -0.8660742821753E-02
-0.3916775282310E-01 -0.1722514753857E-01
-0.5716658096378E-01 -0.2140182538147E-01
-0.6689260057146E-01 -0.2099370558142E-01
-0.6967347422023E-01 -0.1679706609505E-01
-0.6669048553850E-01 -0.9246279235092E-02
-0.5871221697075E-01  0.6701988831438E-03
-0.4612617859573E-01  0.1185663311891E-01
-0.2926143797359E-01  0.2370005571947E-01
-0.8385779998503E-02  0.3579415623917E-01
 0.1628580181638E-01  0.4774417602717E-01
 0.4455440536599E-01  0.5909646587474E-01
 0.7619633680253E-01  0.6948800436203E-01
 0.1109567635535E+00  0.7850284801849E-01
 0.1485224265708E+00  0.8556637975470E-01
 0.1884908002663E+00  0.9017620623205E-01
 0.2304184796787E+00  0.9252583618463E-01
 0.2728555121692E+00  0.8782816274604E-01
 0.3118751517947E+00  0.7146983059025E-01
-0.1055687360589E-01 -0.7185932605131E-02
-0.3769596572121E-01 -0.1471728974663E-01
-0.5634546502555E-01 -0.1966753172742E-01
-0.6680764804847E-01 -0.2118845135714E-01
-0.7031576551573E-01 -0.1921586161659E-01
-0.6811064232961E-01 -0.1394303187700E-01
-0.6102255845096E-01 -0.6196769902910E-02
-0.4945267575644E-01  0.2994042208000E-02
-0.3371832129459E-01  0.1299067394608E-01
-0.1408217732377E-01  0.2336857637188E-01
 0.9248227316354E-02  0.3374218358524E-01
 0.3608985531969E-01  0.4368603801237E-01
 0.6624329651520E-01  0.5286288907809E-01
 0.9948545857924E-01  0.6089035778234E-01
 0.1355449377221E+00  0.6724051520930E-01
 0.1740699696774E+00  0.7144645146649E-01
 0.2146616256222E+00  0.7367519291266E-01
 0.2559908069162E+00  0.6946443391834E-01
 0.2943825738843E+00  0.5439897127119E-01
-0.9230997711608E-02 -0.6387471576676E-02
-0.3603908883622E-01 -0.1315601725194E-01
-0.5500142784722E-01 -0.1842287375168E-01
-0.6612843003792E-01 -0.2124820798640E-01
-0.7042164141344E-01 -0.2112611670850E-01
-0.6906435019244E-01 -0.1792897273793E-01
-0.6290220924237E-01 -0.1227941538466E-01
-0.5235567069724E-01 -0.5080237018923E-02
-0.3774798015359E-01  0.3055772835156E-02
-0.1934607537000E-01  0.1170326496191E-01
 0.2644048753904E-02  0.2048458021793E-01
 0.2805040416143E-01  0.2899794215274E-01
 0.5669308171695E-01  0.3692916953546E-01
 0.8837675972451E-01  0.4392809087097E-01
 0.1228684597722E+00  0.4951122882611E-01
 0.1598646700601E+00  0.5324609807163E-01
 0.1990146529887E+00  0.5527570572234E-01
 0.2391169084159E+00  0.5144358659156E-01
 0.2767446185254E+00  0.3753755947634E-01
-0.8039368822290E-02 -0.5975120745747E-02
-0.3429460422334E-01 -0.1221843695644E-01
-0.5329854658871E-01 -0.1761822478432E-01
-0.6493622356177E-01 -0.2133706903599E-01
-0.6999028468171E-01 -0.2268727030915E-01
-0.6950951553413E-01 -0.2131837913062E-01
-0.6429642836295E-01 -0.1763651655189E-01
-0.5478210730538E-01 -0.1238110755973E-01
-0.4130117845476E-01 -0.6098343104904E-02
-0.2412968015203E-01  0.8092540569377E-03
-0.3477282033126E-02  0.7979825429845E-02
 0.2048966685834E-01  0.1503487568064E-01
 0.4760530045523E-01  0.2168146924719E-01
 0.7769736485853E-01  0.2759957653106E-01
 0.1105670040026E+00  0.3234845991686E-01
 0.1459554199651E+00  0.3552975413563E-01
 0.1835597606409E+00  0.3726852518062E-01
 0.2223106800909E+00  0.3369931052117E-01
 0.2590298345719E+00  0.2081412286833E-01
-0.6923911854506E-02 -0.5800563335836E-02
-0.3249995445110E-01 -0.1169614398449E-01
-0.5134355796272E-01 -0.1716517174920E-01
-0.6332204591304E-01 -0.2151834525357E-01
-0.6905171912018E-01 -0.2403097189902E-01
-0.6942797757523E-01 -0.2423041987892E-01
-0.6516486536186E-01 -0.2234764822732E-01
-0.5668371254802E-01 -0.1894785628780E-01
-0.4432762768775E-01 -0.1448264548902E-01
-0.2838181958494E-01 -0.9309859424267E-02
-0.9062267810231E-02 -0.3763746178779E-02
 0.1346575019580E-01  0.1804315343866E-02
 0.3904498919349E-01  0.7122847267566E-02
 0.6752097460803E-01  0.1190051723712E-01
 0.9872383319548E-01  0.1573770573525E-01
 0.1324345647874E+00  0.1827053061071E-01
 0.1683946971454E+00  0.1961199438207E-01
 0.2056695414500E+00  0.1617707386442E-01
 0.2413328312694E+00  0.4163649740652E-02
-0.5844526021761E-02 -0.5778366379443E-02
-0.3066707562426E-01 -0.1145325648917E-01
-0.4920364040224E-01 -0.1697748328809E-01
-0.6136431585332E-01 -0.2180418709330E-01
-0.6765321958784E-01 -0.2524259598209E-01
-0.6882484992183E-01 -0.2677235766187E-01
-0.6548444603159E-01 -0.2650135698143E-01
-0.5802226402226E-01 -0.2483728831252E-01
-0.4678104082621E-01 -0.2212493196577E-01
-0.3205144714937E-01 -0.1866141319813E-01
-0.1405553087175E-01 -0.1474174360834E-01
 0.7039735699430E-02 -0.1068421103882E-01
 0.3108115498915E-01 -0.6736568200800E-02
 0.5792672797039E-01 -0.3161817735950E-02
 0.8742983758179E-01 -0.3196508367067E-03
 0.1194052695171E+00  0.1460883440359E-02
 0.1536330931936E+00  0.2285498166344E-02
 0.1893137907057E+00 -0.1157297420580E-02
 0.2237793754029E+00 -0.1245778315921E-01
-0.4773847753361E-02 -0.5856051555730E-02
-0.2879733960582E-01 -0.1139839256877E-01
-0.4692043701734E-01 -0.1698259023118E-01
-0.5912494469917E-01 -0.2218220183030E-01
-0.6584613372789E-01 -0.2637087565949E-01
-0.6772232383632E-01 -0.2902776226788E-01
-0.6524956771802E-01 -0.3018284361993E-01
-0.5877260075326E-01 -0.3011524753734E-01
-0.4862323349951E-01 -0.2906610984521E-01
-0.3509148278756E-01 -0.2726403796633E-01
-0.1840284272690E-01 -0.2495620106357E-01
 0.1273306275001E-02 -0.2242186902252E-01
 0.2378467892445E-01 -0.1988175416717E-01
 0.4899705268403E-01 -0.1756992310712E-01
 0.7678126350533E-01 -0.1580685025098E-01
 0.1069792647544E+00 -0.1488650535373E-01
 0.1394024201173E+00 -0.1470712619811E-01
 0.1733849453174E+00 -0.1830997601354E-01
 0.2065247169764E+00 -0.2906166704060E-01
-0.3693546904341E-02 -0.5999905705252E-02
-0.2688809956801E-01 -0.1146870477820E-01
-0.4451967913842E-01 -0.1712229158319E-01
-0.5665091380722E-01 -0.2263002357458E-01
-0.6367892010893E-01 -0.2743934627135E-01
-0.6615212468392E-01 -0.3105601468745E-01
-0.6446914896947E-01 -0.3346521976085E-01
-0.5892331519745E-01 -0.3484800357662E-01
-0.4982673284205E-01 -0.3535463612325E-01
-0.3746213091216E-01 -0.3514560339365E-01
-0.2205437323365E-01 -0.3441619854962E-01
-0.3774178104537E-02 -0.3340251606851E-01
 0.1722560031429E-01 -0.3229509116618E-01
 0.4081490389630E-01 -0.3129805043369E-01
 0.6687668282406E-01 -0.3069305212882E-01
 0.9527340732419E-01 -0.3073887637221E-01
 0.1258399436967E+00 -0.3133563066527E-01
 0.1580407300139E+00 -0.3525434003858E-01
 0.1897467548802E+00 -0.4562038458362E-01
-0.2591747010883E-02 -0.6187623397831E-02
-0.2493573712716E-01 -0.1162024327382E-01
-0.4201735609749E-01 -0.1735090837834E-01
-0.5397731718639E-01 -0.2312261269140E-01
-0.6119427405362E-01 -0.2845561326504E-01
-0.6414976921980E-01 -0.3289611173054E-01
-0.6316238967555E-01 -0.3640631316852E-01
-0.5847538344195E-01 -0.3909574637940E-01
-0.5037570525324E-01 -0.4104065433652E-01
-0.3913316514694E-01 -0.4233968316071E-01
-0.2496756809867E-01 -0.4313683642618E-01
-0.8048710756485E-02 -0.4362356665922E-01
 0.1147003740016E-01 -0.4395828256252E-01
 0.3346050311861E-01 -0.4431446230002E-01
 0.5781331228381E-01 -0.4493539639188E-01
 0.8440529352506E-01 -0.4604479360210E-01
 0.1130872113138E+00 -0.4754351426603E-01
 0.1434478078048E+00 -0.5192966453158E-01
 0.1736360550259E+00 -0.6206561074143E-01
-0.1461234985342E-02 -0.6404165521949E-02
-0.2293709153107E-01 -0.1182195280086E-01
-0.3942366033364E-01 -0.1763301881836E-01
-0.5113035969567E-01 -0.2363581021348E-01
-0.5842853587567E-01 -0.2941785239740E-01
-0.6175093571517E-01 -0.3457149693802E-01
-0.6135484149639E-01 -0.3904896132010E-01
-0.5743973674545E-01 -0.4290911114767E-01
-0.5026544196306E-01 -0.4617125448750E-01
-0.4008499710720E-01 -0.4888166165807E-01
-0.2710925372450E-01 -0.5113715894292E-01
-0.1150433900662E-01 -0.5308580968124E-01
 0.6577100191109E-02 -0.5485365025302E-01
 0.2700784211233E-01 -0.5658364332391E-01
 0.4968292111713E-01 -0.5848160765490E-01
 0.7448827047498E-01 -0.6073673695542E-01
 0.1012836968638E+00 -0.6325029573116E-01
 0.1297734013330E+00 -0.6824317817707E-01
 0.1583847319558E+00 -0.7829111774378E-01
-0.2982009975264E-03 -0.6639289717858E-02
-0.2089010785499E-01 -0.1205179800502E-01
-0.3674552357692E-01 -0.1794142392289E-01
-0.4812989378585E-01 -0.2414795281044E-01
-0.5541220791501E-01 -0.3031913392865E-01
-0.5898952002539E-01 -0.3609447794434E-01
-0.5907539475237E-01 -0.4142300468378E-01
-0.5583467347809E-01 -0.4632811924549E-01
-0.4950097477723E-01 -0.5078747179453E-01
-0.4030866749960E-01 -0.5480540870214E-01
-0.2845680521958E-01 -0.5843776077406E-01
-0.1410521427124E-01 -0.6179254540442E-01
 0.2596154385410E-02 -0.6496484670711E-01
 0.2152128584619E-01 -0.6806830907971E-01
 0.4256764385428E-01 -0.7127291549142E-01
 0.6562622155843E-01 -0.7473461466132E-01
 0.9056018173023E-01 -0.7835551435169E-01
 0.1171767974008E+00 -0.8407479619037E-01
 0.1441757529804E+00 -0.9415882713152E-01
 0.8986621505922E-03 -0.6886007793491E-02
-0.1879409468031E-01 -0.1229418597361E-01
-0.3398826185593E-01 -0.1825547490964E-01
-0.4499144341952E-01 -0.2464049641560E-01
-0.5217093916496E-01 -0.3115021551223E-01
-0.5589684597329E-01 -0.3746981227379E-01
-0.5635425748630E-01 -0.4354783171900E-01
-0.5368361617168E-01 -0.4938264840379E-01
-0.4809537628943E-01 -0.5492288303632E-01
-0.3980509590707E-01 -0.6014096303394E-01
-0.2899843321273E-01 -0.6505866533710E-01
-0.1582682818919E-01 -0.6974849700328E-01
-0.4352718754320E-03 -0.7427720848062E-01
 0.1705261331607E-01 -0.7873123699041E-01
 0.3653603806020E-01 -0.8324715720891E-01
 0.5790847212628E-01 -0.8794990279682E-01
 0.8103231032144E-01 -0.9274389516849E-01
 0.1058014348424E+00 -0.9928360680911E-01
 0.1311736831137E+00 -0.1095068590987E+00
 0.2128814207079E-02 -0.7139587397454E-02
-0.1664978133031E-01 -0.1253820813328E-01
-0.3115664706717E-01 -0.1855974571692E-01
-0.4172777531539E-01 -0.2509814261481E-01
-0.4872664336071E-01 -0.3190131366820E-01
-0.5250160029456E-01 -0.3869745815059E-01
-0.5322177908666E-01 -0.4543489131004E-01
-0.5101341034505E-01 -0.5209370262355E-01
-0.4606812616709E-01 -0.5860337833246E-01
-0.3858394674213E-01 -0.6491323465371E-01
-0.2873277805000E-01 -0.7101776693822E-01
-0.1665640947474E-01 -0.7695884667189E-01
-0.2492731603839E-02 -0.8277802968433E-01
 0.1363881761096E-01 -0.8853707905012E-01
 0.3163973138377E-01 -0.9434211191470E-01
 0.5140510914993E-01 -0.1002902557695E+00
 0.7279455864361E-01 -0.1062911854811E+00
 0.9576791390921E-01 -0.1137151798140E+00
 0.1195173936830E+00 -0.1241584447504E+00
 0.3390353913779E-02 -0.7396888273851E-02
-0.1445927150038E-01 -0.1277641905874E-01
-0.2825560476296E-01 -0.1884299528600E-01
-0.3835010341104E-01 -0.2550872633769E-01
-0.4509859004767E-01 -0.3256320757001E-01
-0.4883019210198E-01 -0.3977462402168E-01
-0.4970792138811E-01 -0.4708992565879E-01
-0.4785319008854E-01 -0.5447500102093E-01
-0.4344376444010E-01 -0.6184766651373E-01
-0.3666241421042E-01 -0.6914149779361E-01
-0.2766805645674E-01 -0.7632981967093E-01
-0.1659256258724E-01 -0.8342849039028E-01
-0.3565112774021E-02 -0.9045687807597E-01
 0.1130098472424E-01 -0.9745432919990E-01
 0.2791106523550E-01 -0.1044992392264E+00
 0.4616300237498E-01 -0.1116647600061E+00
 0.6591464525193E-01 -0.1188704051428E+00
 0.8716780476862E-01 -0.1272089544818E+00
 0.1093147889334E+00 -0.1379306434682E+00
 0.4680391091197E-02 -0.7655917742015E-02
-0.1222594343812E-01 -0.1300397993299E-01
-0.2529066569173E-01 -0.1909736886912E-01
-0.3486900876876E-01 -0.2586299700736E-01
-0.4130439817253E-01 -0.3312791112367E-01
-0.4490733980709E-01 -0.4069727119514E-01
-0.4584219393634E-01 -0.4851486152616E-01
-0.4423375551280E-01 -0.5653462499467E-01
-0.4025094176018E-01 -0.6466819029500E-01
-0.3406416859183E-01 -0.7283940345456E-01
-0.2582104271440E-01 -0.8100576978040E-01
-0.1564433052153E-01 -0.8916131386567E-01
-0.3653857947230E-02 -0.9730574371179E-01
 0.1004465847579E-01 -0.1054573241423E+00
 0.2536231606103E-01 -0.1136681496437E+00
 0.4220307483700E-01 -0.1219902633640E+00
 0.6042829072931E-01 -0.1303591296971E+00
 0.8005752442914E-01 -0.1396051586975E+00
 0.1006389177423E+00 -0.1506420502883E+00
 0.5995351081058E-02 -0.7915527116359E-02
-0.9954318054510E-02 -0.1321809096338E-01
-0.2226825649138E-01 -0.1931778298111E-01
-0.3129513803441E-01 -0.2615437773309E-01
-0.3736090637108E-01 -0.3358905561988E-01
-0.4075674950835E-01 -0.4146120969261E-01
-0.4165389345927E-01 -0.4970938243187E-01
-0.4018736271197E-01 -0.5827662541710E-01
-0.3652189417682E-01 -0.6707229569078E-01
-0.3081865183064E-01 -0.7601535871485E-01
-0.2321621407595E-01 -0.8505224288016E-01
-0.1383005277104E-01 -0.9415910831585E-01
-0.2771302288639E-02 -0.1033183173461E+00
 0.9861977406814E-02 -0.1125274230482E+00
 0.2398776594878E-01 -0.1218113697398E+00
 0.3951999094930E-01 -0.1312004520266E+00
 0.5633487360422E-01 -0.1406489437230E+00
 0.7445062667889E-01 -0.1507529028064E+00
 0.9352343310020E-01 -0.1621176364643E+00
 0.7331252635742E-02 -0.8175335567312E-02
-0.7649920236609E-02 -0.1341757673285E-01
-0.1919588797659E-01 -0.1950155901549E-01
-0.2763976747688E-01 -0.2637865984840E-01
-0.3328490867370E-01 -0.3394210242104E-01
-0.3640181658661E-01 -0.4206286217265E-01
-0.3717251964455E-01 -0.5067221281140E-01
-0.3574781104139E-01 -0.5970255828157E-01
-0.3229230310709E-01 -0.6906363349065E-01
-0.2696084575568E-01 -0.7867332557635E-01
-0.1988543953959E-01 -0.8847126222863E-01
-0.1117668520622E-01 -0.9841992574667E-01
-0.9389411262702E-03 -0.1084873393997E+00
 0.1073539361777E-01 -0.1186511278239E+00
 0.2376939586548E-01 -0.1289066074694E+00
 0.3808903827696E-01 -0.1392566000517E+00
 0.5359611045418E-01 -0.1496658461755E+00
 0.7030713781033E-01 -0.1605202071422E+00
 0.8795196983388E-01 -0.1721950331479E+00
 0.8684098962749E-02 -0.8435315794503E-02
-0.5319114879312E-02 -0.1360339221512E-01
-0.1608246280853E-01 -0.1964772156722E-01
-0.2391515787496E-01 -0.2653386485045E-01
-0.2909381562100E-01 -0.3418439022288E-01
-0.3186629609414E-01 -0.4249976688858E-01
-0.3242826296593E-01 -0.5140208631445E-01
-0.3095066184301E-01 -0.6081292874577E-01
-0.2760138921219E-01 -0.7064384913564E-01
-0.2253146277556E-01 -0.8081431372591E-01
-0.1586844646996E-01 -0.9126082514203E-01
-0.7720424142021E-02 -0.1019366408979E+00
 0.1812640275307E-02 -0.1127999475047E+00
 0.1264047216418E-01 -0.1238120502172E+00
 0.2468568227170E-01 -0.1349392850398E+00
 0.3788124069278E-01 -0.1461495250001E+00
 0.5216001236759E-01 -0.1573993245378E+00
 0.6752021080174E-01 -0.1688526772429E+00
 0.8382434410365E-01 -0.1807118608583E+00
 0.6580021954097E-01 -0.3295822527591E-01
 0.9743561513979E-01 -0.4528829926889E-01
 0.1292796571819E+00 -0.6040731532589E-01
 0.1610749779644E+00 -0.7807385637107E-01
 0.1926518014417E+00 -0.9799852007361E-01
 0.2238815714466E+00 -0.1198772477378E+00
 0.2546307322735E+00 -0.1434180638537E+00
 0.2847929095768E+00 -0.1683409118037E+00
 0.3143030144102E+00 -0.1943838774019E+00
 0.3431088537836E+00 -0.2213103202536E+00
 0.3711550111822E+00 -0.2489089608165E+00
 0.3983882270522E+00 -0.2769966403482E+00
 0.4247779938771E+00 -0.3054243860060E+00
 0.4503113034867E+00 -0.3340748140877E+00
 0.4749801313272E+00 -0.3628547006651E+00
 0.4987837534486E+00 -0.3916943902130E+00
 0.5217539001978E+00 -0.4205610855243E+00
 0.5436129288942E+00 -0.4493107076796E+00
 0.5640228786304E+00 -0.4777119173964E+00
 0.6883368147434E-01 -0.3443513434571E-01
 0.1033618814088E+00 -0.4792796113392E-01
 0.1381014823739E+00 -0.6447626617310E-01
 0.1727318060687E+00 -0.8377970882719E-01
 0.2070597464779E+00 -0.1054787881136E+00
 0.2409366061217E+00 -0.1291971065618E+00
 0.2741800296942E+00 -0.1545791168296E+00
 0.3066420442262E+00 -0.1812848596697E+00
 0.3382439094256E+00 -0.2090032737965E+00
 0.3689342697169E+00 -0.2374633352034E+00
 0.3986620714405E+00 -0.2664302343037E+00
 0.4273767056415E+00 -0.2957054220150E+00
 0.4550547373089E+00 -0.3251347211929E+00
 0.4816848510241E+00 -0.3546023492498E+00
 0.5072494436805E+00 -0.3840213493309E+00
 0.5317413605599E+00 -0.4133379047410E+00
 0.5552272676361E+00 -0.4425520453649E+00
 0.5771615546873E+00 -0.4714363650589E+00
 0.5968718767081E+00 -0.4995508450875E+00
 0.7204202354236E-01 -0.3600798237991E-01
 0.1096174884630E+00 -0.5078068310965E-01
 0.1473730465522E+00 -0.6890299739927E-01
 0.1849169781552E+00 -0.8999233980486E-01
 0.2220300975625E+00 -0.1136058086876E+00
 0.2585429878626E+00 -0.1392833001217E+00
 0.2942243284980E+00 -0.1665874214226E+00
 0.3288922964674E+00 -0.1951046941749E+00
 0.3624649533836E+00 -0.2244713478986E+00
 0.3949003938837E+00 -0.2543838631599E+00
 0.4261587049647E+00 -0.2845882583729E+00
 0.4561975863990E+00 -0.3148764369688E+00
 0.4850052878004E+00 -0.3450968228245E+00
 0.5125765993005E+00 -0.3751429769385E+00
 0.5388897719463E+00 -0.4049403177560E+00
 0.5639363806599E+00 -0.4344529007135E+00
 0.5878157623069E+00 -0.4637080512535E+00
 0.6097369334037E+00 -0.4923957645001E+00
 0.6286717431663E+00 -0.5199360141959E+00
 0.7544319582831E-01 -0.3769310817400E-01
 0.1162284598383E+00 -0.5388613838339E-01
 0.1571165233407E+00 -0.7374693922182E-01
 0.1976365964502E+00 -0.9678847638554E-01
 0.2375444536386E+00 -0.1224678562275E+00
 0.2766518718097E+00 -0.1502281533798E+00
 0.3146819819644E+00 -0.1795287488077E+00
 0.3514308120597E+00 -0.2098687611791E+00
 0.3868259011075E+00 -0.2408311489462E+00
 0.4208442809272E+00 -0.2720851822933E+00
 0.4534642212230E+00 -0.3033648107251E+00
 0.4846573367408E+00 -0.3344599967177E+00
 0.5144275296414E+00 -0.3652300395959E+00
 0.5427787522143E+00 -0.3955843442800E+00
 0.5696877550870E+00 -0.4254644459179E+00
 0.5951445431210E+00 -0.4548541060550E+00
 0.6192724829288E+00 -0.4838066509830E+00
 0.6410512462183E+00 -0.5119578215420E+00
 0.6591370120272E+00 -0.5386860559152E+00
 0.7906084340645E-01 -0.3950996294308E-01
 0.1232256949466E+00 -0.5728985399602E-01
 0.1673553192683E+00 -0.7907835374397E-01
 0.2108938470157E+00 -0.1042562511165E+00
 0.2535765871944E+00 -0.1321625445601E+00
 0.2952023537155E+00 -0.1621291496933E+00
 0.3354570803186E+00 -0.1934883516266E+00
 0.3741308120718E+00 -0.2256389430979E+00
 0.4111749882869E+00 -0.2581141109042E+00
 0.4465951756196E+00 -0.2905651929680E+00
 0.4803943502734E+00 -0.3227240602214E+00
 0.5125627001832E+00 -0.3543880075079E+00
 0.5431220547977E+00 -0.3854360688528E+00
 0.5720862419506E+00 -0.4157998449542E+00
 0.5994301856700E+00 -0.4454412325338E+00
 0.6251391958658E+00 -0.4743679246335E+00
 0.6493485806288E+00 -0.5026640564462E+00
 0.6708406827280E+00 -0.5299482558875E+00
 0.6880152938760E+00 -0.5556376322205E+00
 0.8292485292126E-01 -0.4148183400612E-01
 0.1306453782595E+00 -0.6104621636365E-01
 0.1781138609810E+00 -0.8497939153023E-01
 0.2246872094184E+00 -0.1124958970802E+00
 0.2700900128247E+00 -0.1427963644598E+00
 0.3141191866928E+00 -0.1750870313899E+00
 0.3564382103853E+00 -0.2085476694785E+00
 0.3968517790271E+00 -0.2424664244286E+00
 0.4353504169274E+00 -0.2763356565596E+00
 0.4719769295420E+00 -0.3098026827053E+00
 0.5067641279022E+00 -0.3426103618789E+00
 0.5397236983404E+00 -0.3745743533099E+00
 0.5708954123109E+00 -0.4056031196556E+00
 0.6003012802259E+00 -0.4356573023527E+00
 0.6279120494825E+00 -0.4647243285247E+00
 0.6537038492042E+00 -0.4928416858515E+00
 0.6778132007768E+00 -0.5201306113249E+00
 0.6988660138713E+00 -0.5462262512011E+00
 0.7150745194130E+00 -0.5706594427393E+00
 0.8707236803927E-01 -0.4363719609403E-01
 0.1385292888523E+00 -0.6522057428969E-01
 0.1894166371453E+00 -0.9154617157086E-01
 0.2390083273514E+00 -0.1216205006462E+00
 0.2870352671602E+00 -0.1544838056886E+00
 0.3333105833508E+00 -0.1892030304438E+00
 0.3774976838280E+00 -0.2247800421144E+00
 0.4194403642455E+00 -0.2603868056248E+00
 0.4591826769972E+00 -0.2954907681907E+00
 0.4968112890416E+00 -0.3297542981298E+00
 0.5323917413293E+00 -0.3629473826199E+00
 0.5659578533336E+00 -0.3949166700111E+00
 0.5975649183252E+00 -0.4256103685091E+00
 0.6272393560356E+00 -0.4550252153319E+00
 0.6549440229508E+00 -0.4831795389373E+00
 0.6806412361237E+00 -0.5101463667346E+00
 0.7044590438409E+00 -0.5360885013598E+00
 0.7249130755477E+00 -0.5606875685278E+00
 0.7401012858207E+00 -0.5836565576250E+00
 0.9154911786624E-01 -0.4601116254171E-01
 0.1469250022522E+00 -0.6989187622985E-01
 0.2012867651808E+00 -0.9889113505437E-01
 0.2538392685417E+00 -0.1317568037839E+00
 0.3043468886733E+00 -0.1673458310534E+00
 0.3526662261296E+00 -0.2045750414565E+00
 0.3984914981975E+00 -0.2422453958707E+00
 0.4417323051773E+00 -0.2794146917919E+00
 0.4824979199022E+00 -0.3155497749534E+00
 0.5209221430197E+00 -0.3503524056576E+00
 0.5571031982285E+00 -0.3836384167810E+00
 0.5910950658431E+00 -0.4152989952608E+00
 0.6229637933132E+00 -0.4453323014827E+00
 0.6527347299967E+00 -0.4737776902953E+00
 0.6803582835263E+00 -0.5006890362746E+00
 0.7057783807231E+00 -0.5261792125504E+00
 0.7291058461650E+00 -0.5504547030292E+00
 0.7487943639690E+00 -0.5732686128422E+00
 0.7629029183525E+00 -0.5945766383648E+00
 0.9641108865743E-01 -0.4864740977686E-01
 0.1558859438224E+00 -0.7515600654466E-01
 0.2137439271534E+00 -0.1071458830920E+00
 0.2691490605145E+00 -0.1430457713499E+00
 0.3219400758664E+00 -0.1815073886933E+00
 0.3720557097807E+00 -0.2212924301292E+00
 0.4192603456656E+00 -0.2609838273541E+00
 0.4635556016277E+00 -0.2995379707071E+00
 0.5051224633083E+00 -0.3364547363144E+00
 0.5441405836643E+00 -0.3715041750332E+00
 0.5807374129830E+00 -0.4045680365490E+00
 0.6149824812118E+00 -0.4355953313626E+00
 0.6469457781426E+00 -0.4646432528578E+00
 0.6766448414694E+00 -0.4917989953738E+00
 0.7040125643430E+00 -0.5171552331766E+00
 0.7289700983944E+00 -0.5408670720527E+00
 0.7516031831755E+00 -0.5631843984271E+00
 0.7703518401376E+00 -0.5839509432630E+00
 0.7833111973425E+00 -0.6034148915543E+00
 0.1017266284309E+00 -0.5160082745303E-01
 0.1654711964217E+00 -0.8113022567643E-01
 0.2268014501282E+00 -0.1164646116618E+00
 0.2848893445396E+00 -0.1556426841941E+00
 0.3397071545099E+00 -0.1970934757977E+00
 0.3913278207435E+00 -0.2394291209012E+00
 0.4396321126191E+00 -0.2810081346545E+00
 0.4847351974868E+00 -0.3207122550839E+00
 0.5268883868802E+00 -0.3581170741874E+00
 0.5663104677487E+00 -0.3930924232379E+00
 0.6031512109909E+00 -0.4256053584339E+00
 0.6374887808832E+00 -0.4556742273093E+00
 0.6693887905323E+00 -0.4834222571439E+00
 0.6988534696527E+00 -0.5089879189045E+00
 0.7257929519755E+00 -0.5325043420215E+00
 0.7501015600203E+00 -0.5541693182583E+00
 0.7718331736575E+00 -0.5742739340922E+00
 0.7894605136384E+00 -0.5927647513485E+00
 0.8011871415789E+00 -0.6102182282198E+00
 0.1075791220908E+00 -0.5494132013810E-01
 0.1757448683527E+00 -0.8795926887570E-01
 0.2404621379524E+00 -0.1270282844960E+00
 0.3009889458006E+00 -0.1697162853337E+00
 0.3575141206635E+00 -0.2142230355042E+00
 0.4103112598634E+00 -0.2590345778239E+00
 0.4594263679768E+00 -0.3022956250090E+00
 0.5050992750256E+00 -0.3428563608842E+00
 0.5476399235684E+00 -0.3804173703028E+00
 0.5872939349969E+00 -0.4149787726780E+00
 0.6242236619771E+00 -0.4466090236439E+00
 0.6585074314943E+00 -0.4754041880078E+00
 0.6901973679063E+00 -0.5015579333611E+00
 0.7192726821622E+00 -0.5252616277629E+00
 0.7456156496156E+00 -0.5466890983869E+00
 0.7690902490562E+00 -0.5660797316786E+00
 0.7897131859288E+00 -0.5837624230090E+00
 0.8060326349403E+00 -0.5997909181499E+00
 0.8164268246616E+00 -0.6150884397246E+00
 0.1140704428941E+00 -0.5875948825646E-01
 0.1867746606337E+00 -0.9582400025575E-01
 0.2547122305940E+00 -0.1390496339729E+00
 0.3173471651260E+00 -0.1854460975539E+00
 0.3751978304645E+00 -0.2329996329944E+00
 0.4288177082124E+00 -0.2801224489804E+00
 0.4784613232016E+00 -0.3247801253248E+00
 0.5244869738441E+00 -0.3658502528059E+00
 0.5672399940972E+00 -0.4032083767375E+00
 0.6069761317922E+00 -0.4370093755300E+00
 0.6438591678261E+00 -0.4674335222796E+00
 0.6779585861390E+00 -0.4946593223221E+00
 0.7093038307486E+00 -0.5189528724992E+00
 0.7378436571718E+00 -0.5405585724699E+00
 0.7634278697966E+00 -0.5596902027449E+00
 0.7858874443860E+00 -0.5766267736192E+00
 0.8051985677529E+00 -0.5917314301503E+00
 0.8200224547734E+00 -0.6051611938328E+00
 0.8289684557865E+00 -0.6181841771019E+00
 0.1213254949386E+00 -0.6317553054848E-01
 0.1986289495707E+00 -0.1049541370401E+00
 0.2695125079647E+00 -0.1527788875352E+00
 0.3338257473410E+00 -0.2030162538278E+00
 0.3925649911199E+00 -0.2534974757783E+00
 0.4466484725071E+00 -0.3026572554174E+00
 0.4965634746519E+00 -0.3483462149363E+00
 0.5427567617156E+00 -0.3895374634962E+00
 0.5855757953483E+00 -0.4263219617479E+00
 0.6252683204320E+00 -0.4590226850172E+00
 0.6619889422129E+00 -0.4879358695036E+00
 0.6957896075402E+00 -0.5133244214773E+00
 0.7266682765521E+00 -0.5355270505049E+00
 0.7545365082583E+00 -0.5548401423409E+00
 0.7792079443438E+00 -0.5715161527311E+00
 0.8004792500134E+00 -0.5858717979291E+00
 0.8182853552293E+00 -0.5983021467967E+00
 0.8314315346663E+00 -0.6090558998988E+00
 0.8388010313835E+00 -0.6197212590547E+00
 0.1294982973347E+00 -0.6835398864223E-01
 0.2113709761101E+00 -0.1156476622140E+00
 0.2847849335044E+00 -0.1685094397489E+00
 0.3502399598802E+00 -0.2226026193985E+00
 0.4093950995222E+00 -0.2757410993152E+00
 0.4636060642799E+00 -0.3265410622315E+00
 0.5135792136358E+00 -0.3728293475556E+00
 0.5597937243497E+00 -0.4137339386838E+00
 0.6025620433256E+00 -0.4495793988878E+00
 0.6421088576093E+00 -0.4808575051586E+00
 0.6785709771894E+00 -0.5079812759423E+00
 0.7119744708935E+00 -0.5312988955080E+00
 0.7422775914428E+00 -0.5512201501500E+00
 0.7693491786418E+00 -0.5680909999193E+00
 0.7929646169342E+00 -0.5822012293047E+00
 0.8128870547950E+00 -0.5939047236876E+00
 0.8290127935701E+00 -0.6036293085623E+00
 0.8403144714463E+00 -0.6116982117179E+00
 0.8459747981172E+00 -0.6199704394151E+00
 0.1387802701042E+00 -0.7452985171770E-01
 0.2250471216470E+00 -0.1283017332440E+00
 0.3003923662154E+00 -0.1865805781942E+00
 0.3663506788082E+00 -0.2443471332735E+00
 0.4254511569101E+00 -0.2996777588883E+00
 0.4795112496578E+00 -0.3516058665090E+00
 0.5293857349442E+00 -0.3980270417617E+00
 0.5755130730001E+00 -0.4382434103569E+00
 0.6181409886082E+00 -0.4728016705010E+00
 0.6574624599535E+00 -0.5023588051614E+00
 0.6935891321685E+00 -0.5274470607906E+00
 0.7265124183701E+00 -0.5484998033119E+00
 0.7561435624545E+00 -0.5659930996185E+00
 0.7823053293888E+00 -0.5803181028323E+00
 0.8047353587640E+00 -0.5918013423409E+00
 0.8231671627271E+00 -0.6008366316118E+00
 0.8374652973999E+00 -0.6078909056881E+00
 0.8467845869780E+00 -0.6133435956362E+00
 0.8506134408305E+00 -0.6192510534203E+00
 0.1494114276443E+00 -0.8205925656688E-01
 0.2396624558956E+00 -0.1434636760051E+00
 0.3161077799972E+00 -0.2073685291747E+00
 0.3818636381814E+00 -0.2683075090371E+00
 0.4405036356883E+00 -0.3251470726932E+00
 0.4942227293473E+00 -0.3776237491518E+00
 0.5438952480417E+00 -0.4237255999476E+00
 0.5898579241700E+00 -0.4628725217516E+00
 0.6322803190746E+00 -0.4958146061308E+00
 0.6713191820525E+00 -0.5233800895570E+00
 0.7070520791490E+00 -0.5462257932958E+00
 0.7394259255264E+00 -0.5648650176249E+00
 0.7682998883582E+00 -0.5798291134363E+00
 0.7934510258708E+00 -0.5915481266912E+00
 0.8145834851756E+00 -0.6003873629575E+00
 0.8314091934334E+00 -0.6067887720101E+00
 0.8437731300043E+00 -0.6112727287492E+00
 0.8510184500963E+00 -0.6142623162879E+00
 0.8529270267979E+00 -0.6179177781894E+00
 0.1616950529157E+00 -0.9152784827729E-01
 0.2551253437187E+00 -0.1619211556222E+00
 0.3315716472736E+00 -0.2312327234215E+00
 0.3964513907600E+00 -0.2943680225770E+00
 0.4543729183640E+00 -0.3518664201801E+00
 0.5076449142277E+00 -0.4043594167168E+00
 0.5570473769538E+00 -0.4497270917818E+00
 0.6027941172266E+00 -0.4874343694452E+00
 0.6449719914752E+00 -0.5184463342456E+00
 0.6836946162216E+00 -0.5437847739131E+00
 0.7189920279709E+00 -0.5642303456077E+00
 0.7507573846639E+00 -0.5803572891081E+00
 0.7787977404387E+00 -0.5927335974404E+00
 0.8028500846905E+00 -0.6018227250931E+00
 0.8225939302456E+00 -0.6080355262440E+00
 0.8377327145720E+00 -0.6118780293723E+00
 0.8481105426592E+00 -0.6139469756921E+00
 0.8532569255648E+00 -0.6147127594102E+00
 0.8532224649824E+00 -0.6163356233660E+00
 0.1760024148427E+00 -0.1040471886995E+00
 0.2711199880042E+00 -0.1848293138966E+00
 0.3462437916056E+00 -0.2583458474978E+00
 0.4098483315270E+00 -0.3220749273430E+00
 0.4669596738092E+00 -0.3795429050127E+00
 0.5197073890319E+00 -0.4316270683733E+00
 0.5687971770077E+00 -0.4758523497453E+00
 0.6143080520375E+00 -0.5117347849347E+00
 0.6562354486156E+00 -0.5405217274589E+00
 0.6946309903454E+00 -0.5634532329288E+00
 0.7294616145348E+00 -0.5814029594384E+00
 0.7605637421717E+00 -0.5949675372230E+00
 0.7876998193024E+00 -0.6047316605345E+00
 0.8105783690682E+00 -0.6111908108299E+00
 0.8288675052256E+00 -0.6148158265497E+00
 0.8422815830732E+00 -0.6161984573156E+00
 0.8506898016702E+00 -0.6160466841539E+00
 0.8537982872593E+00 -0.6149035005615E+00
 0.8519041427958E+00 -0.6148367550709E+00
 0.1927653675765E+00 -0.1220309812001E+00
 0.2866785834997E+00 -0.2140793506114E+00
 0.3595724707240E+00 -0.2877214218071E+00
 0.4219855510309E+00 -0.3509273523488E+00
 0.4781944370397E+00 -0.4080030810813E+00
 0.5303397911005E+00 -0.4593012268094E+00
 0.5791070272321E+00 -0.5019100466500E+00
 0.6244162339558E+00 -0.5355450575126E+00
 0.6661249317958E+00 -0.5618695579914E+00
 0.7041949810860E+00 -0.5823018203999E+00
 0.7385268805088E+00 -0.5977244130954E+00
 0.7689090971482E+00 -0.6087135874553E+00
 0.7950744283489E+00 -0.6158608612430E+00
 0.8167166470620E+00 -0.6197020461837E+00
 0.8335135782418E+00 -0.6207751228527E+00
 0.8452157448609E+00 -0.6198028452729E+00
 0.8517500427621E+00 -0.6176348378964E+00
 0.8529802741168E+00 -0.6149557144203E+00
 0.8494457397675E+00 -0.6136499318105E+00
 0.1077396699413E+00 -0.2055609906241E+00
 0.1131568698950E+00 -0.1982904546645E+00
 0.1200637811039E+00 -0.1894888671576E+00
 0.1284768554209E+00 -0.1792602995254E+00
 0.1384147543850E+00 -0.1677546813173E+00
 0.1498637519066E+00 -0.1551452720843E+00
 0.1627753063944E+00 -0.1416220479561E+00
 0.1770613617628E+00 -0.1273858302287E+00
 0.1925931178904E+00 -0.1126403412990E+00
 0.2092025476255E+00 -0.9758246242322E-01
 0.2266874060771E+00 -0.8239134432927E-01
 0.2448201388743E+00 -0.6721723166795E-01
 0.2633609135192E+00 -0.5217112400031E-01
 0.2820743904689E+00 -0.3731679275470E-01
 0.3007487219321E+00 -0.2266711959424E-01
 0.3192135257215E+00 -0.8186943501890E-02
 0.3373518346055E+00  0.6195974798357E-02
 0.3551003990671E+00  0.2057209296604E-01
 0.3724368984524E+00  0.3502696600701E-01
 0.1152257761352E+00 -0.2187249881161E+00
 0.1205735713482E+00 -0.2125474367545E+00
 0.1273424321714E+00 -0.2048711230005E+00
 0.1355882302902E+00 -0.1957150820595E+00
 0.1453444264685E+00 -0.1851922756363E+00
 0.1566222742299E+00 -0.1734584299296E+00
 0.1693999386250E+00 -0.1606972467482E+00
 0.1836155560545E+00 -0.1471117318843E+00
 0.1991624723882E+00 -0.1329160001251E+00
 0.2158875615117E+00 -0.1183254301149E+00
 0.2335931244844E+00 -0.1035451170238E+00
 0.2520432712509E+00 -0.8875715187181E-01
 0.2709756528325E+00 -0.7410768880717E-01
 0.2901190793605E+00 -0.5969526833282E-01
 0.3092165475701E+00 -0.4556255432651E-01
 0.3280511297925E+00 -0.3169436345988E-01
 0.3464688954730E+00 -0.1802502300207E-01
 0.3643905263752E+00 -0.4456509524294E-02
 0.3818031610002E+00  0.9114862508650E-02
 0.1229597337614E+00 -0.2322038451783E+00
 0.1282127833085E+00 -0.2272261327762E+00
 0.1347610799423E+00 -0.2207472918085E+00
 0.1427119659026E+00 -0.2127709910279E+00
 0.1521277922604E+00 -0.2033668787494E+00
 0.1630447494914E+00 -0.1926599840326E+00
 0.1754695420430E+00 -0.1808141486694E+00
 0.1893710106762E+00 -0.1680224853167E+00
 0.2046728609036E+00 -0.1544989371285E+00
 0.2212483878555E+00 -0.1404687600161E+00
 0.2389183321309E+00 -0.1261569829691E+00
 0.2574530602662E+00 -0.1117748690444E+00
 0.2765805721875E+00 -0.9750496520590E-01
 0.2960019108050E+00 -0.8348593585772E-01
 0.3154151074106E+00 -0.6979922383470E-01
 0.3345471002981E+00 -0.5646076046986E-01
 0.3531891510583E+00 -0.4342207209226E-01
 0.3712249210739E+00 -0.3058472082959E-01
 0.3886378055034E+00 -0.1782815052120E-01
 0.1309586563581E+00 -0.2459031175439E+00
 0.1360655247990E+00 -0.2421971208691E+00
 0.1423290944057E+00 -0.2369984151037E+00
 0.1498829587578E+00 -0.2302983177602E+00
 0.1588181048770E+00 -0.2221370321875E+00
 0.1691973187399E+00 -0.2126041679594E+00
 0.1810561326280E+00 -0.2018333349362E+00
 0.1943965142787E+00 -0.1899950816132E+00
 0.2091784880438E+00 -0.1772901271798E+00
 0.2253121632983E+00 -0.1639412823963E+00
 0.2426515122735E+00 -0.1501830803106E+00
 0.2609913808600E+00 -0.1362486511459E+00
 0.2800695961448E+00 -0.1223539359339E+00
 0.2995765664744E+00 -0.1086799354811E+00
 0.3191751537338E+00 -0.9535457491506E-01
 0.3385332213871E+00 -0.8243719810727E-01
 0.3573684009123E+00 -0.6991078581225E-01
 0.3754966814211E+00 -0.5768864299981E-01
 0.3928638888543E+00 -0.4563962579028E-01
 0.1392417639926E+00 -0.2597350075197E+00
 0.1441507546242E+00 -0.2573349670395E+00
 0.1500737168858E+00 -0.2534730521998E+00
 0.1571534200581E+00 -0.2481297517633E+00
 0.1654988748008E+00 -0.2413194439330E+00
 0.1751948477272E+00 -0.2330977198273E+00
 0.1863029032098E+00 -0.2235620361876E+00
 0.1988567867695E+00 -0.2128498277041E+00
 0.2128545932270E+00 -0.2011350486510E+00
 0.2282495946665E+00 -0.1886230568188E+00
 0.2449411127974E+00 -0.1755429769731E+00
 0.2627667735825E+00 -0.1621368071942E+00
 0.2814979257626E+00 -0.1486448084341E+00
 0.3008407768191E+00 -0.1352871577222E+00
 0.3204468986962E+00 -0.1222425710829E+00
 0.3399379706442E+00 -0.1096259508041E+00
 0.3589499657676E+00 -0.9746968512854E-01
 0.3771971199992E+00 -0.8571725775925E-01
 0.3945382224093E+00 -0.7423983037459E-01
 0.1478483254562E+00 -0.2736357116819E+00
 0.1525338926151E+00 -0.2725536469370E+00
 0.1580947307013E+00 -0.2700662711344E+00
 0.1646701689901E+00 -0.2661435562036E+00
 0.1723767078988E+00 -0.2607777556929E+00
 0.1813128759831E+00 -0.2539927613403E+00
 0.1915598035355E+00 -0.2458485702453E+00
 0.2031777148312E+00 -0.2364431870462E+00
 0.2161993265278E+00 -0.2259129331697E+00
 0.2306210463013E+00 -0.2144310635322E+00
 0.2463927843825E+00 -0.2022040908488E+00
 0.2634072465889E+00 -0.1894649261810E+00
 0.2814899109118E+00 -0.1764619122714E+00
 0.3003916227926E+00 -0.1634429374362E+00
 0.3197870357061E+00 -0.1506341522625E+00
 0.3392842607076E+00 -0.1382136488409E+00
 0.3584543310496E+00 -0.1262825008428E+00
 0.3768924202164E+00 -0.1148406168262E+00
 0.3943139140588E+00 -0.1037838383573E+00
 0.1568118996943E+00 -0.2875457902741E+00
 0.1612727986438E+00 -0.2877764870507E+00
 0.1664786844024E+00 -0.2866833968066E+00
 0.1725575688033E+00 -0.2842276544544E+00
 0.1796245367186E+00 -0.2803836140285E+00
 0.1877833798228E+00 -0.2751479523093E+00
 0.1971265820502E+00 -0.2685455532107E+00
 0.2077327749280E+00 -0.2606336264249E+00
 0.2196616914901E+00 -0.2515047113023E+00
 0.2329468327497E+00 -0.2412886049667E+00
 0.2475860680011E+00 -0.2301527563490E+00
 0.2635304224204E+00 -0.2183003152071E+00
 0.2806714673718E+00 -0.2059647343427E+00
 0.2988281462481E+00 -0.1933995849481E+00
 0.3177347579013E+00 -0.1808620552815E+00
 0.3370336505922E+00 -0.1685885752997E+00
 0.3562798833598E+00 -0.1567615869839E+00
 0.3749731860164E+00 -0.1454691223185E+00
 0.3926472702922E+00 -0.1346700497301E+00
 0.1661619634052E+00 -0.3014103851757E+00
 0.1704207970235E+00 -0.3029370200620E+00
 0.1753053426764E+00 -0.3032430533744E+00
 0.1809281349851E+00 -0.3022835323101E+00
 0.1873965502007E+00 -0.3000200627179E+00
 0.1948124812438E+00 -0.2964283879251E+00
 0.2032718969876E+00 -0.2915041145254E+00
 0.2128630746080E+00 -0.2852674110071E+00
 0.2236631079581E+00 -0.2777671915307E+00
 0.2357325211887E+00 -0.2690849272937E+00
 0.2491078473154E+00 -0.2593378966005E+00
 0.2637919981981E+00 -0.2486813606637E+00
 0.2797422262438E+00 -0.2373088138996E+00
 0.2968555216565E+00 -0.2254490507685E+00
 0.3149515147558E+00 -0.2133582564675E+00
 0.3337535996181E+00 -0.2013045790687E+00
 0.3528708799443E+00 -0.1895416135622E+00
 0.3717883367976E+00 -0.1782660245884E+00
 0.3898919296218E+00 -0.1675553497100E+00
 0.1759269890623E+00 -0.3151827501952E+00
 0.1800329806363E+00 -0.3179865024723E+00
 0.1846578009253E+00 -0.3196894124415E+00
 0.1898972051302E+00 -0.3202436416505E+00
 0.1958472397935E+00 -0.3196034408869E+00
 0.2026029415623E+00 -0.3177308179799E+00
 0.2102576440108E+00 -0.3146002442994E+00
 0.2189017778784E+00 -0.3102028381892E+00
 0.2286206475398E+00 -0.3045504020158E+00
 0.2394908767179E+00 -0.2976795319389E+00
 0.2515752495309E+00 -0.2896558408464E+00
 0.2649156158661E+00 -0.2805781447807E+00
 0.2795234122728E+00 -0.2705822360978E+00
 0.2953671769029E+00 -0.2598435608609E+00
 0.3123561963681E+00 -0.2485776527972E+00
 0.3303191146931E+00 -0.2370364037618E+00
 0.3489758668280E+00 -0.2254968142369E+00
 0.3679014288865E+00 -0.2142360793658E+00
 0.3864785930555E+00 -0.2034794444100E+00
 0.1861329857620E+00 -0.3288229856827E+00
 0.1901631642212E+00 -0.3328914766189E+00
 0.1946181623799E+00 -0.3359898527150E+00
 0.1995776173639E+00 -0.3380703713171E+00
 0.2051248997867E+00 -0.3390847752034E+00
 0.2113455111324E+00 -0.3389881947290E+00
 0.2183263173878E+00 -0.3377426258878E+00
 0.2261547513125E+00 -0.3353201642793E+00
 0.2349175072714E+00 -0.3317062372831E+00
 0.2446984172975E+00 -0.3269030389759E+00
 0.2555752335458E+00 -0.3209333061638E+00
 0.2676149963945E+00 -0.3138444960686E+00
 0.2808675496906E+00 -0.3057133329718E+00
 0.2953565562598E+00 -0.2966505619833E+00
 0.3110670148992E+00 -0.2868055431628E+00
 0.3279276391386E+00 -0.2763699480012E+00
 0.3457852691999E+00 -0.2655791037968E+00
 0.3643653867677E+00 -0.2547077624635E+00
 0.3832068867844E+00 -0.2440532195858E+00
 0.1968056171581E+00 -0.3423009001269E+00
 0.2008680855730E+00 -0.3476391665514E+00
 0.2052742552988E+00 -0.3521436095348E+00
 0.2100895091096E+00 -0.3557689115876E+00
 0.2153848855026E+00 -0.3584680220880E+00
 0.2212355953813E+00 -0.3601946855808E+00
 0.2277203516708E+00 -0.3609058620755E+00
 0.2349209031936E+00 -0.3605640688955E+00
 0.2429214009686E+00 -0.3591397744634E+00
 0.2518073425092E+00 -0.3566139950210E+00
 0.2616638767315E+00 -0.3529812372715E+00
 0.2725732311968E+00 -0.3482529155807E+00
 0.2846109489473E+00 -0.3424613591748E+00
 0.2978404809681E+00 -0.3356645149074E+00
 0.3123054318926E+00 -0.3279514442058E+00
 0.3280183228788E+00 -0.3194487154567E+00
 0.3449438711097E+00 -0.3103278089350E+00
 0.3629731930288E+00 -0.3008138890532E+00
 0.3818800989613E+00 -0.2911965910556E+00
 0.2079525417853E+00 -0.3555735576369E+00
 0.2121720556120E+00 -0.3621924476337E+00
 0.2166666392086E+00 -0.3681151483370E+00
 0.2214897305999E+00 -0.3733004185633E+00
 0.2267013027878E+00 -0.3777049530591E+00
 0.2323667148102E+00 -0.3812849353013E+00
 0.2385562580041E+00 -0.3839976691644E+00
 0.2453450050655E+00 -0.3858032438422E+00
 0.2528127070170E+00 -0.3866662918629E+00
 0.2610435638036E+00 -0.3865579442276E+00
 0.2701257327088E+00 -0.3854581079638E+00
 0.2801504460568E+00 -0.3833582099119E+00
 0.2912105914894E+00 -0.3802645790593E+00
 0.3033985647447E+00 -0.3762026901656E+00
 0.3168031341082E+00 -0.3712225831160E+00
 0.3315049518427E+00 -0.3654059422461E+00
 0.3475702591401E+00 -0.3588756746351E+00
 0.3650423651069E+00 -0.3518095756067E+00
 0.3839319819309E+00 -0.3444620926271E+00
 0.2195630887041E+00 -0.3685831635667E+00
 0.2240661987914E+00 -0.3764848135188E+00
 0.2287875780138E+00 -0.3838258854646E+00
 0.2337709788711E+00 -0.3905702769382E+00
 0.2390668945314E+00 -0.3966799653153E+00
 0.2447318147005E+00 -0.4021158976498E+00
 0.2508280370847E+00 -0.4068390525731E+00
 0.2574238069604E+00 -0.4108115998669E+00
 0.2645936312834E+00 -0.4139981752092E+00
 0.2724186689945E+00 -0.4163673351873E+00
 0.2809871375081E+00 -0.4178932874069E+00
 0.2903947030301E+00 -0.4185580179358E+00
 0.3007448466643E+00 -0.4183539744307E+00
 0.3121492290775E+00 -0.4172875191009E+00
 0.3247281304365E+00 -0.4153834558245E+00
 0.3386111587045E+00 -0.4126910855362E+00
 0.3539386928659E+00 -0.4092924864795E+00
 0.3708652315798E+00 -0.4053141274257E+00
 0.3895681654489E+00 -0.4009433325815E+00
 0.2316179622501E+00 -0.3812685756670E+00
 0.2365275915111E+00 -0.3904424204220E+00
 0.2416097681836E+00 -0.3991863003129E+00
 0.2469005391960E+00 -0.4074697916237E+00
 0.2524424930172E+00 -0.4152608825353E+00
 0.2582843936476E+00 -0.4225264258994E+00
 0.2644812451268E+00 -0.4292327877143E+00
 0.2710946711169E+00 -0.4353466151907E+00
 0.2781935309632E+00 -0.4408357170563E+00
 0.2858547308289E+00 -0.4456700884863E+00
 0.2941642229389E+00 -0.4498231386635E+00
 0.3032182208126E+00 -0.4532732002279E+00
 0.3131247001344E+00 -0.4560054232943E+00
 0.3240053137795E+00 -0.4580141872155E+00
 0.3359979420284E+00 -0.4593062047640E+00
 0.3492602526761E+00 -0.4599045454187E+00
 0.3639748944415E+00 -0.4598538533791E+00
 0.3803573638767E+00 -0.4592269956777E+00
 0.3986673944187E+00 -0.4581328576352E+00
 0.2440930848980E+00 -0.3935703184232E+00
 0.2495266864229E+00 -0.4039932951666E+00
 0.2550973606741E+00 -0.4141092447005E+00
 0.2608350583360E+00 -0.4238934803082E+00
 0.2667758460200E+00 -0.4333200743774E+00
 0.2729618362015E+00 -0.4423620230812E+00
 0.2794414495923E+00 -0.4509915875278E+00
 0.2862699603904E+00 -0.4591807442035E+00
 0.2935102926562E+00 -0.4669017233129E+00
 0.3012340602421E+00 -0.4741276413451E+00
 0.3095228693754E+00 -0.4808332507427E+00
 0.3184699331280E+00 -0.4869958396422E+00
 0.3281820841269E+00 -0.4925963206716E+00
 0.3387823213540E+00 -0.4976205498037E+00
 0.3504130957344E+00 -0.5020609111703E+00
 0.3632406308731E+00 -0.5059181831872E+00
 0.3774606867922E+00 -0.5092036468186E+00
 0.3933061594467E+00 -0.5119412710947E+00
 0.4110567820267E+00 -0.5141697255662E+00
 0.2569609055851E+00 -0.4054325962179E+00
 0.2630296813692E+00 -0.4170706224686E+00
 0.2692093671877E+00 -0.4285145263219E+00
 0.2755250430791E+00 -0.4397449767433E+00
 0.2820073541754E+00 -0.4507416736079E+00
 0.2886926339577E+00 -0.4614833134250E+00
 0.2956232859545E+00 -0.4719476924817E+00
 0.3028484063600E+00 -0.4821118902469E+00
 0.3104246389685E+00 -0.4919525039149E+00
 0.3184172683857E+00 -0.5014459217747E+00
 0.3269015744952E+00 -0.5105686311643E+00
 0.3359644899946E+00 -0.5192975578112E+00
 0.3457066238402E+00 -0.5276104275605E+00
 0.3562447370235E+00 -0.5354861272085E+00
 0.3677147818158E+00 -0.5429050145907E+00
 0.3802756378809E+00 -0.5498490836528E+00
 0.3941136770480E+00 -0.5563018234345E+00
 0.4094482980131E+00 -0.5622475494808E+00
 0.4265385344128E+00 -0.5676699787388E+00
 0.2701909492225E+00 -0.4168043069304E+00
 0.2769993932506E+00 -0.4296141307528E+00
 0.2839008409454E+00 -0.4423306965067E+00
 0.2909163711515E+00 -0.4549392637178E+00
 0.2980719970322E+00 -0.4674242818783E+00
 0.3053988831641E+00 -0.4797692068252E+00
 0.3129337626193E+00 -0.4919564120376E+00
 0.3207195474421E+00 -0.5039671452017E+00
 0.3288061306591E+00 -0.5157814971119E+00
 0.3372513855134E+00 -0.5273783594242E+00
 0.3461223755770E+00 -0.5387353507476E+00
 0.3554967963395E+00 -0.5498286876231E+00
 0.3654646732572E+00 -0.5606329679708E+00
 0.3761303405872E+00 -0.5711208185947E+00
 0.3876147157683E+00 -0.5812623336577E+00
 0.4000578587486E+00 -0.5910241958487E+00
 0.4136217700137E+00 -0.6003683277991E+00
 0.4284933362647E+00 -0.6092498628388E+00
 0.4448874864152E+00 -0.6176141550021E+00
 0.2837502305096E+00 -0.4276397650204E+00
 0.2913958438957E+00 -0.4415709749249E+00
 0.2991236339598E+00 -0.4554961055317E+00
 0.3069512342486E+00 -0.4694039252070E+00
 0.3149005135892E+00 -0.4832824320392E+00
 0.3229978030665E+00 -0.4971185490611E+00
 0.3312742724757E+00 -0.5108978784179E+00
 0.3397664493405E+00 -0.5246044696383E+00
 0.3485168763251E+00 -0.5382205679877E+00
 0.3575749057306E+00 -0.5517263148598E+00
 0.3669976311766E+00 -0.5650993736515E+00
 0.3768509551520E+00 -0.5783144522400E+00
 0.3872107850124E+00 -0.5913426875419E+00
 0.3981643365096E+00 -0.6041508491262E+00
 0.4098114991297E+00 -0.6167003080346E+00
 0.4222661779158E+00 -0.6289457047963E+00
 0.4356574636810E+00 -0.6408332349449E+00
 0.4501304061985E+00 -0.6522984432349E+00
 0.4658459574244E+00 -0.6632633181166E+00
 0.2976036783635E+00 -0.4378993184866E+00
 0.3061768462473E+00 -0.4528964875548E+00
 0.3148271593394E+00 -0.4679597810396E+00
 0.3235690906924E+00 -0.4830801491881E+00
 0.3324205768389E+00 -0.4982477012102E+00
 0.3414031913896E+00 -0.5134512991818E+00
 0.3505424208324E+00 -0.5286781869221E+00
 0.3598680307638E+00 -0.5439136116657E+00
 0.3694145129299E+00 -0.5591404056112E+00
 0.3792216036107E+00 -0.5743384997584E+00
 0.3893348619695E+00 -0.5894843448949E+00
 0.3998062921621E+00 -0.6045502152318E+00
 0.4106949842324E+00 -0.6195033702115E+00
 0.4220677346799E+00 -0.6343050509110E+00
 0.4339995864295E+00 -0.6489092912970E+00
 0.4465741965171E+00 -0.6632615337772E+00
 0.4598838930206E+00 -0.6772970567717E+00
 0.4740291836413E+00 -0.6909392498944E+00
 0.4891172969769E+00 -0.7040978308359E+00
 0.3117145952250E+00 -0.4475499330546E+00
 0.3212986388952E+00 -0.4635549394893E+00
 0.3309592245107E+00 -0.4796823437441E+00
 0.3407077115251E+00 -0.4959237731718E+00
 0.3505580691010E+00 -0.5122698460686E+00
 0.3605269548934E+00 -0.5287096844788E+00
 0.3706338494012E+00 -0.5452304512152E+00
 0.3809012299686E+00 -0.5618168711703E+00
 0.3913547696903E+00 -0.5784507067137E+00
 0.4020235458415E+00 -0.5951101632415E+00
 0.4129402399567E+00 -0.6117692052486E+00
 0.4241413075113E+00 -0.6283967669678E+00
 0.4356670894460E+00 -0.6449558460673E+00
 0.4475618309473E+00 -0.6614024757907E+00
 0.4598735657007E+00 -0.6776845824387E+00
 0.4726538176944E+00 -0.6937407545595E+00
 0.4859570679679E+00 -0.7094989830345E+00
 0.4998399359508E+00 -0.7248754960873E+00
 0.5143600081208E+00 -0.7397739412896E+00
 0.3260444760457E+00 -0.4565645938763E+00
 0.3367152277686E+00 -0.4735180036515E+00
 0.3474649092673E+00 -0.4906334941563E+00
 0.3583015917464E+00 -0.5079017452282E+00
 0.3692350135104E+00 -0.5253121765870E+00
 0.3802765404607E+00 -0.5428524026548E+00
 0.3914391381394E+00 -0.5605077139761E+00
 0.4027373362977E+00 -0.5782605477011E+00
 0.4141871685917E+00 -0.5960899205732E+00
 0.4258060696186E+00 -0.6139708055622E+00
 0.4376127101642E+00 -0.6318734392801E+00
 0.4496267499491E+00 -0.6497625527850E+00
 0.4618684864805E+00 -0.6675965243594E+00
 0.4743583805414E+00 -0.6853264603621E+00
 0.4871164461400E+00 -0.7028952204016E+00
 0.5001615101121E+00 -0.7202364170568E+00
 0.5135103836677E+00 -0.7372734405609E+00
 0.5271770758088E+00 -0.7539185851287E+00
 0.5411723951284E+00 -0.7700724103976E+00
 0.3405514007821E+00 -0.4649189332597E+00
 0.3523748718972E+00 -0.4827577496638E+00
 0.3642811378831E+00 -0.5007812820477E+00
 0.3762745909553E+00 -0.5189775769531E+00
 0.3883602512505E+00 -0.5373331019879E+00
 0.4005436036105E+00 -0.5558321688043E+00
 0.4128304049710E+00 -0.5744563975575E+00
 0.4252264429603E+00 -0.5931841871989E+00
 0.4377372284349E+00 -0.6119901683891E+00
 0.4503676054887E+00 -0.6308446250062E+00
 0.4631212626894E+00 -0.6497128773868E+00
 0.4760001301017E+00 -0.6685546263168E+00
 0.4890036494643E+00 -0.6873232617970E+00
 0.5021279116285E+00 -0.7059651447637E+00
 0.5153646688483E+00 -0.7244188726794E+00
 0.5287002537393E+00 -0.7426145397373E+00
 0.5421144798366E+00 -0.7604729947221E+00
 0.5555796643724E+00 -0.7779050732941E+00
 0.5690600883983E+00 -0.7948106714851E+00
 0.3551926174527E+00 -0.4725947645740E+00
 0.3682249683670E+00 -0.4912535734553E+00
 0.3813439397980E+00 -0.5101024302840E+00
 0.3945496464484E+00 -0.5291250450362E+00
 0.4078416915532E+00 -0.5483031742932E+00
 0.4212188909784E+00 -0.5676160412376E+00
 0.4346789315066E+00 -0.5870398237082E+00
 0.4482179449098E+00 -0.6065471745291E+00
 0.4618299840516E+00 -0.6261067525034E+00
 0.4755063894003E+00 -0.6456827534692E+00
 0.4892350356020E+00 -0.6652344389649E+00
 0.5029994493440E+00 -0.6847156657604E+00
 0.5167777926847E+00 -0.7040744227954E+00
 0.5305417113020E+00 -0.7232523822911E+00
 0.5442550555997E+00 -0.7421844674832E+00
 0.5578724950423E+00 -0.7607984277711E+00
 0.5713380577181E+00 -0.7790143887821E+00
 0.5845836306509E+00 -0.7967443011957E+00
 0.5975272785336E+00 -0.8138911437349E+00
 0.3699254874181E+00 -0.4795812020377E+00
 0.3842136643582E+00 -0.4989943245527E+00
 0.3985907536494E+00 -0.5185854767921E+00
 0.4130517882605E+00 -0.5383323438833E+00
 0.4275900464634E+00 -0.5582102352508E+00
 0.4421966942844E+00 -0.5781915335268E+00
 0.4568603264239E+00 -0.5982452497803E+00
 0.4715663915846E+00 -0.6183366439412E+00
 0.4862964961397E+00 -0.6384268874638E+00
 0.5010275832342E+00 -0.6584727590752E+00
 0.5157309855806E+00 -0.6784263740572E+00
 0.5303713507121E+00 -0.6982349535118E+00
 0.5449054375458E+00 -0.7178406427312E+00
 0.5592807822027E+00 -0.7371803868170E+00
 0.5734342275718E+00 -0.7561858660126E+00
 0.5872903015326E+00 -0.7747834812937E+00
 0.6007594088350E+00 -0.7928943617140E+00
 0.6137357455453E+00 -0.8104343461617E+00
 0.6260947864480E+00 -0.8273139247099E+00
 0.3847077278305E+00 -0.4858745966794E+00
 0.4002900687466E+00 -0.5059781289504E+00
 0.4159606185005E+00 -0.5262304734682E+00
 0.4317083045241E+00 -0.5466016432027E+00
 0.4475189519321E+00 -0.5670588061483E+00
 0.4633748974262E+00 -0.5875658033642E+00
 0.4792544584148E+00 -0.6080828213295E+00
 0.4951312547780E+00 -0.6285661645732E+00
 0.5109733913680E+00 -0.6489681005729E+00
 0.5267425119654E+00 -0.6692367673195E+00
 0.5423927349996E+00 -0.6893161458563E+00
 0.5578694795020E+00 -0.7091461072755E+00
 0.5731081861441E+00 -0.7286625475477E+00
 0.5880329309312E+00 -0.7477976251674E+00
 0.6025549146254E+00 -0.7664801166868E+00
 0.6165707846972E+00 -0.7846359044878E+00
 0.6299607030083E+00 -0.8021886107388E+00
 0.6425860326461E+00 -0.8190603946729E+00
 0.6542865432610E+00 -0.8351729286489E+00
 0.3994977069768E+00 -0.4914784747406E+00
 0.4164045863768E+00 -0.5122122889492E+00
 0.4333945542163E+00 -0.5330488339313E+00
 0.4504491567228E+00 -0.5539488590675E+00
 0.4675453958531E+00 -0.5748697468456E+00
 0.4846553895606E+00 -0.5957651575281E+00
 0.5017458233758E+00 -0.6165848806915E+00
 0.5187772166500E+00 -0.6372748177436E+00
 0.5357030357521E+00 -0.6577770592224E+00
 0.5524686850293E+00 -0.6780300457641E+00
 0.5690104022530E+00 -0.6979688163454E+00
 0.5852540806942E+00 -0.7175253559540E+00
 0.6011140343504E+00 -0.7366290605803E+00
 0.6164917140067E+00 -0.7552073433034E+00
 0.6312743662019E+00 -0.7731864143680E+00
 0.6453335991617E+00 -0.7904922842255E+00
 0.6585237748883E+00 -0.8070520641016E+00
 0.6706800814175E+00 -0.8227956640461E+00
 0.6816160903997E+00 -0.8376579628645E+00
 0.4142547094544E+00 -0.4964033683615E+00
 0.4325092153994E+00 -0.5177130364722E+00
 0.4508358889779E+00 -0.5390629916323E+00
 0.4692073167458E+00 -0.5604031830420E+00
 0.4875900384325E+00 -0.5816796093765E+00
 0.5059443443653E+00 -0.6028341776435E+00
 0.5242237629917E+00 -0.6238048150629E+00
 0.5423743137701E+00 -0.6445257286213E+00
 0.5603335963734E+00 -0.6649277675175E+00
 0.5780297745672E+00 -0.6849388767583E+00
 0.5953805021578E+00 -0.7044846468759E+00
 0.6122918308784E+00 -0.7234889730590E+00
 0.6286571354753E+00 -0.7418748423784E+00
 0.6443560885623E+00 -0.7595652746804E+00
 0.6592537155836E+00 -0.7764844560026E+00
 0.6731995564936E+00 -0.7925591292324E+00
 0.6860269450246E+00 -0.8077203545588E+00
 0.6975523499072E+00 -0.8219058339012E+00
 0.7075744548858E+00 -0.8350631144973E+00
 0.4289390211226E+00 -0.5006662704435E+00
 0.4485575173126E+00 -0.5225046050249E+00
 0.4682300980289E+00 -0.5443050655080E+00
 0.4879184431672E+00 -0.5660052987229E+00
 0.5075766995836E+00 -0.5875383501954E+00
 0.5271515052219E+00 -0.6088328710924E+00
 0.5465815495124E+00 -0.6298135972253E+00
 0.5657968384749E+00 -0.6504019651462E+00
 0.5847177918872E+00 -0.6705168174264E+00
 0.6032542650226E+00 -0.6900751891097E+00
 0.6213045647448E+00 -0.7089931831351E+00
 0.6387545180357E+00 -0.7271869467573E+00
 0.6554766491522E+00 -0.7445737606117E+00
 0.6713295303008E+00 -0.7610732513502E+00
 0.6861573939650E+00 -0.7766087413304E+00
 0.6997901383010E+00 -0.7911087604481E+00
 0.7120439294409E+00 -0.8045087765929E+00
 0.7227226897605E+00 -0.8167532964617E+00
 0.7316207328986E+00 -0.8277987872679E+00
 0.4435115734455E+00 -0.5042889140790E+00
 0.4645037172275E+00 -0.5266160161486E+00
 0.4855233252826E+00 -0.5488121228821E+00
 0.5065187900377E+00 -0.5708010702927E+00
 0.5274296470445E+00 -0.5925013888038E+00
 0.5481868779391E+00 -0.6138270542729E+00
 0.5687125416904E+00 -0.6346884698948E+00
 0.5889190493442E+00 -0.6549935302028E+00
 0.6087082834741E+00 -0.6746487311618E+00
 0.6279706911364E+00 -0.6935603320669E+00
 0.6465844382231E+00 -0.7116355841523E+00
 0.6644146939793E+00 -0.7287840354080E+00
 0.6813131125715E+00 -0.7449189080026E+00
 0.6971175955424E+00 -0.7599585255936E+00
 0.7116524625560E+00 -0.7738277408843E+00
 0.7247292490236E+00 -0.7864592734422E+00
 0.7361485206400E+00 -0.7977948118435E+00
 0.7457034710840E+00 -0.8077856439470E+00
 0.7531869400358E+00 -0.8163925232266E+00
 0.4579322763460E+00 -0.5072923831120E+00
 0.4802992024442E+00 -0.5300706169113E+00
 0.5026569981881E+00 -0.5526105995949E+00
 0.5249379399324E+00 -0.5748207995684E+00
 0.5470645252075E+00 -0.5966036835637E+00
 0.5689500135949E+00 -0.6178572781123E+00
 0.5904980604819E+00 -0.6384768135996E+00
 0.6116019631106E+00 -0.6583563289982E+00
 0.6321438023378E+00 -0.6773902432570E+00
 0.6519936372046E+00 -0.6954749299329E+00
 0.6710088442611E+00 -0.7125103257455E+00
 0.6890336620282E+00 -0.7284015822479E+00
 0.7058989908134E+00 -0.7430607390753E+00
 0.7214225063694E+00 -0.7564083543694E+00
 0.7354091791394E+00 -0.7683749623359E+00
 0.7476523637456E+00 -0.7789021190135E+00
 0.7579358022853E+00 -0.7879425919776E+00
 0.7660372376657E+00 -0.7954588775819E+00
 0.7717355183716E+00 -0.8014181950087E+00
 0.4721557168670E+00 -0.5096835949672E+00
 0.4958836638171E+00 -0.5328594574796E+00
 0.5195543996788E+00 -0.5556765400549E+00
 0.5430809646218E+00 -0.5780263694405E+00
 0.5663664490185E+00 -0.5997939439592E+00
 0.5893045677652E+00 -0.6208604282629E+00
 0.6117791436048E+00 -0.6411056095265E+00
 0.6336632597382E+00 -0.6604101034437E+00
 0.6548184307432E+00 -0.6786574042720E+00
 0.6750939517505E+00 -0.6957358712590E+00
 0.6943264950155E+00 -0.7115407083782E+00
 0.7123399752384E+00 -0.7259759510206E+00
 0.7289456750323E+00 -0.7389564242289E+00
 0.7439425950193E+00 -0.7504095777578E+00
 0.7571179546022E+00 -0.7602770181028E+00
 0.7682477125807E+00 -0.7685154125941E+00
 0.7770968458405E+00 -0.7750961854048E+00
 0.7834190062359E+00 -0.7800028540583E+00
 0.7869540233964E+00 -0.7832240329402E+00
 0.4861315987215E+00 -0.5114553077066E+00
 0.5111856855472E+00 -0.5349419337088E+00
 0.5361214290358E+00 -0.5579372384546E+00
 0.5608296021544E+00 -0.5803143106091E+00
 0.5851920274879E+00 -0.6019396640533E+00
 0.6090817480592E+00 -0.6226773773649E+00
 0.6323621288719E+00 -0.6423924355258E+00
 0.6548858552332E+00 -0.6609535015064E+00
 0.6764941805355E+00 -0.6782353690957E+00
 0.6970165363788E+00 -0.6941212709059E+00
 0.7162705100933E+00 -0.7085051355935E+00
 0.7340621355805E+00 -0.7212938141300E+00
 0.7501863883387E+00 -0.7324092371280E+00
 0.7644276886638E+00 -0.7417904144370E+00
 0.7765600565122E+00 -0.7493951355322E+00
 0.7863462354581E+00 -0.7552011650961E+00
 0.7935345052643E+00 -0.7592066175233E+00
 0.7978503664058E+00 -0.7614291476302E+00
 0.7989781745595E+00 -0.7619032835818E+00
 0.4998123879586E+00 -0.5126101736111E+00
 0.5261377517205E+00 -0.5362946198130E+00
 0.5522688957421E+00 -0.5593454379881E+00
 0.5780718588357E+00 -0.5816158758052E+00
 0.6034062696871E+00 -0.6029534983772E+00
 0.6281243913140E+00 -0.6232059739961E+00
 0.6520695566580E+00 -0.6422251960574E+00
 0.6750749914587E+00 -0.6598704252216E+00
 0.6969632559341E+00 -0.6760109344214E+00
 0.7175462830139E+00 -0.6905284521718E+00
 0.7366259039547E+00 -0.7033195305006E+00
 0.7539947044830E+00 -0.7142978691220E+00
 0.7694369875347E+00 -0.7233965791926E+00
 0.7827294804593E+00 -0.7305703776851E+00
 0.7936411396825E+00 -0.7357977690842E+00
 0.8019308717954E+00 -0.7390834283516E+00
 0.8073408624276E+00 -0.7404613818517E+00
 0.8095814179357E+00 -0.7400003337508E+00
 0.8082979040937E+00 -0.7378148723825E+00
 0.5131500179722E+00 -0.5131574298731E+00
 0.5406691490856E+00 -0.5369050805624E+00
 0.5679017276611E+00 -0.5598704359983E+00
 0.5946878538263E+00 -0.5818856827747E+00
 0.6208654562014E+00 -0.6027798408842E+00
 0.6462672118265E+00 -0.6223860755719E+00
 0.6707180407008E+00 -0.6405462148092E+00
 0.6940338478217E+00 -0.6571138353334E+00
 0.7160213671590E+00 -0.6719567948437E+00
 0.7364788409820E+00 -0.6849595945094E+00
 0.7551972642810E+00 -0.6960257295117E+00
 0.7719619489243E+00 -0.7050800499107E+00
 0.7865541304907E+00 -0.7120711765931E+00
 0.7987522019275E+00 -0.7169741340728E+00
 0.8083318917482E+00 -0.7197936061592E+00
 0.8150642023699E+00 -0.7205687022399E+00
 0.8187091886072E+00 -0.7193810504603E+00
 0.8190019688139E+00 -0.7163700124670E+00
 0.8156277731939E+00 -0.7117621261561E+00
 0.5260956369893E+00 -0.5131156740437E+00
 0.5547048113056E+00 -0.5367777299183E+00
 0.5829171444445E+00 -0.5595070148680E+00
 0.6105477652965E+00 -0.5811138581662E+00
 0.6374152676934E+00 -0.6014104754935E+00
 0.6633352917031E+00 -0.6202191769431E+00
 0.6881170485200E+00 -0.6373763408245E+00
 0.7115622709749E+00 -0.6527348991409E+00
 0.7334657912793E+00 -0.6661664420349E+00
 0.7536170562119E+00 -0.6775634749005E+00
 0.7718021791930E+00 -0.6868418268588E+00
 0.7878063149659E+00 -0.6939432265071E+00
 0.8014161607311E+00 -0.6988381958764E+00
 0.8124223601648E+00 -0.7015296661727E+00
 0.8206215464665E+00 -0.7020581362166E+00
 0.8258178537069E+00 -0.7005099225291E+00
 0.8278240313454E+00 -0.6970314109277E+00
 0.8264641458505E+00 -0.6918546480603E+00
 0.8215814306446E+00 -0.6853441512540E+00
 0.5385952668159E+00 -0.5125080618363E+00
 0.5681560742170E+00 -0.5359241996172E+00
 0.5971910960731E+00 -0.5582609348298E+00
 0.6254950163117E+00 -0.5793068500173E+00
 0.6528715168123E+00 -0.5988615875068E+00
 0.6791229497349E+00 -0.6167426274614E+00
 0.7040462489496E+00 -0.6327875746770E+00
 0.7274329093744E+00 -0.6468552180231E+00
 0.7490706433924E+00 -0.6588274765261E+00
 0.7687457120787E+00 -0.6686119135859E+00
 0.7862457112922E+00 -0.6761446700434E+00
 0.8013627417801E+00 -0.6813938700737E+00
 0.8138970112788E+00 -0.6843638585493E+00
 0.8236610713298E+00 -0.6851009898432E+00
 0.8304852922099E+00 -0.6837022096429E+00
 0.8342260860692E+00 -0.6803284900743E+00
 0.8347807376138E+00 -0.6752264786816E+00
 0.8321170624901E+00 -0.6687638757645E+00
 0.8263381501310E+00 -0.6614875682474E+00
 0.5505836318988E+00 -0.5113585112116E+00
 0.5809073466029E+00 -0.5343554736190E+00
 0.6105596309810E+00 -0.5561363003245E+00
 0.6393238557974E+00 -0.5764711883139E+00
 0.6669954743451E+00 -0.5951550379207E+00
 0.6933674140374E+00 -0.6120103533995E+00
 0.7182282731849E+00 -0.6268841164929E+00
 0.7413643287511E+00 -0.6396487044720E+00
 0.7625620510737E+00 -0.6502044428464E+00
 0.7816110574930E+00 -0.6584830395521E+00
 0.7983074850454E+00 -0.6644516278677E+00
 0.8124580095603E+00 -0.6681176492141E+00
 0.8238849067672E+00 -0.6695351299672E+00
 0.8324329654660E+00 -0.6688132410135E+00
 0.8379798898231E+00 -0.6661284293720E+00
 0.8404535700366E+00 -0.6617418915662E+00
 0.8398628694323E+00 -0.6560246006773E+00
 0.8363562958976E+00 -0.6494921312663E+00
 0.8303348343767E+00 -0.6428508046498E+00
 0.5620205357352E+00 -0.5097424100306E+00
 0.5928875929394E+00 -0.5321773770636E+00
 0.6229243551550E+00 -0.5532719192704E+00
 0.6519205416171E+00 -0.5727837927511E+00
 0.6796662138639E+00 -0.5905210177249E+00
 0.7059470236335E+00 -0.6063203772483E+00
 0.7305478528591E+00 -0.6200456485219E+00
 0.7532555155171E+00 -0.6315899995416E+00
 0.7738618367715E+00 -0.6408799900416E+00
 0.7921670186214E+00 -0.6478801272671E+00
 0.8079837130174E+00 -0.6525980155980E+00
 0.8211422501622E+00 -0.6550904307121E+00
 0.8314978102415E+00 -0.6554708220721E+00
 0.8389409001224E+00 -0.6539188497551E+00
 0.8434135367176E+00 -0.6506925695626E+00
 0.8449352622969E+00 -0.6461435833171E+00
 0.8436463078908E+00 -0.6407343982553E+00
 0.8398792755891E+00 -0.6350538189375E+00
 0.8342846087944E+00 -0.6298176934070E+00
 0.5728798702369E+00 -0.5077587991411E+00
 0.6040334623115E+00 -0.5295336175691E+00
 0.6342141931117E+00 -0.5498333031775E+00
 0.6632167346445E+00 -0.5684550864442E+00
 0.6908208606540E+00 -0.5852291062882E+00
 0.7168097918709E+00 -0.6000115062857E+00
 0.7409705806051E+00 -0.6126875128453E+00
 0.7630974801209E+00 -0.6231762878289E+00
 0.7829951227455E+00 -0.6314358882919E+00
 0.8004824789317E+00 -0.6374683483579E+00
 0.8153978558678E+00 -0.6413250842868E+00
 0.8276055978409E+00 -0.6431128526790E+00
 0.8370054604839E+00 -0.6430004349589E+00
 0.8435461626101E+00 -0.6412260630870E+00
 0.8472453485802E+00 -0.6381051928896E+00
 0.8482191449330E+00 -0.6340372602613E+00
 0.8467250499448E+00 -0.6295076683804E+00
 0.8432219219371E+00 -0.6250759644057E+00
 0.8384396996450E+00 -0.6213257099292E+00
</DataArray>
</PointData>
   <DataArray type="Float64" Name="Load" NumberOfComponents="1"    ComponentName0="Load" format="ascii">
 0.1157274703978E+01
 0.1183907205008E+01
 0.1177301639242E+01
 0.1192420642813E+01
 0.1194391614778E+01
 0.1188478454599E+01
 0.1174448911548E+01
 0.1153498952577E+01
 0.1126405900337E+01
 0.1093844067951E+01
 0.1056310520072E+01
 0.1014157271384E+01
 0.9676008718395E+00
 0.9167360920715E+00
 0.8615468595069E+00
 0.8019163283317E+00
 0.7376358348067E+00
 0.6684165492868E+00
 0.5938926546151E+00
 0.5136325167191E+00
 0.4271386663690E+00
 0.3338413403561E+00
 0.2330669442045E+00
 0.1239306643572E+00
 0.5295948428027E-02
 0.1236507239640E+00
 0.2626746185810E+00
 0.4106164638501E+00
 0.5657106704954E+00
 0.7258970711886E+00
 0.8889115987313E+00
 0.1052134476581E+01
 0.1212209577747E+01
 0.1366014165933E+01
 0.1513338025946E+01
 0.1655691174445E+01
 0.1801486831604E+01
 0.1943324376080E+01
 0.2197783047359E+01
 0.2154689967606E+01
 0.3871573805165E+01
 0.1002226183650E+01
 0.1110270934256E+01
 0.1099652836574E+01
 0.1099520089846E+01
 0.1098011790062E+01
 0.1089548666324E+01
 0.1074792602517E+01
 0.1053913862311E+01
 0.1027466281862E+01
 0.9959135942451E+00
 0.9596450136289E+00
 0.9189440092027E+00
 0.8739898322543E+00
 0.8248603320953E+00
 0.7715380659397E+00
 0.7139172621180E+00
 0.6518111327768E+00
 0.5849605351863E+00
 0.5130404095024E+00
 0.4356661382533E+00
 0.3523981334855E+00
 0.2627353778110E+00
 0.1660949983921E+00
 0.6184259197083E-01
 0.5056742587676E-01
 0.1711532774105E+00
 0.2994882624664E+00
 0.4345011512823E+00
 0.5746417303586E+00
 0.7179812291191E+00
 0.8622256641443E+00
 0.1004696565976E+01
 0.1142516871474E+01
 0.1273098580245E+01
 0.1394220798260E+01
 0.1504839101160E+01
 0.1599735722522E+01
 0.1684657671263E+01
 0.1704628617452E+01
 0.1446878549999E+01
 0.2395365890574E+01
 0.8869317886136E+00
 0.1004437718843E+01
 0.1016669642319E+01
 0.1009756867485E+01
 0.1003926701408E+01
 0.9934175855221E+00
 0.9776572619501E+00
 0.9566685256767E+00
 0.9306721539262E+00
 0.8999798770198E+00
 0.8648695143132E+00
 0.8255587545189E+00
 0.7821876735355E+00
 0.7348152204317E+00
 0.6834202062699E+00
 0.6279054518209E+00
 0.5681031027049E+00
 0.5037824754632E+00
 0.4346564319791E+00
 0.3603883540126E+00
 0.2805996234958E+00
 0.1948714425954E+00
 0.1027667284161E+00
 0.4772479577917E-02
 0.1018998513300E+00
 0.2140994228880E+00
 0.3321501121722E+00
 0.4550048059112E+00
 0.5812353597502E+00
 0.7090100043345E+00
 0.8360774818283E+00
 0.9598483353598E+00
 0.1077627613392E+01
 0.1186528509293E+01
 0.1283118749628E+01
 0.1362227951988E+01
 0.1415918182553E+01
 0.1429724416368E+01
 0.1308319407226E+01
 0.1137947212575E+01
 0.2018134591964E+01
 0.7881434814353E+00
 0.8976752883535E+00
 0.9252708126728E+00
 0.9206243346688E+00
 0.9117090642543E+00
 0.8994366894690E+00
 0.8827420922177E+00
 0.8615338933748E+00
 0.8358730012207E+00
 0.8059325301309E+00
 0.7719004118717E+00
 0.7339329301152E+00
 0.6921331502463E+00
 0.6465408027963E+00
 0.5971297466181E+00
 0.5438095362317E+00
 0.4864292737758E+00
 0.4247848700261E+00
 0.3586256913413E+00
 0.2876635365993E+00
 0.2115853416958E+00
 0.1300750266657E+00
 0.4296642539996E-01
 0.5070539690316E-01
 0.1493850336564E+00
 0.2532762221432E+00
 0.3614704035960E+00
 0.4729187023533E+00
 0.5862684885284E+00
 0.6997771064849E+00
 0.8112861411516E+00
 0.9183159544830E+00
 0.1018159456063E+01
 0.1107570766669E+01
 0.1181941743766E+01
 0.1234125433359E+01
 0.1253483638443E+01
 0.1212495087588E+01
 0.1070628776109E+01
 0.1067937451321E+01
 0.1901827135374E+01
 0.6977994871590E+00
 0.7951880118227E+00
 0.8304585366482E+00
 0.8304826594008E+00
 0.8207785737713E+00
 0.8071857217543E+00
 0.7897315958222E+00
 0.7683020715038E+00
 0.7429154491058E+00
 0.7136581946840E+00
 0.6806482965952E+00
 0.6439916098533E+00
 0.6037583757869E+00
 0.5599706047966E+00
 0.5125969993529E+00
 0.4615527747635E+00
 0.4067025335530E+00
 0.3478673557093E+00
 0.2848325588021E+00
 0.2173606146481E+00
 0.1452171976722E+00
 0.6827714248589E-01
 0.1601686918483E-01
 0.1018438642129E+00
 0.1936163775854E+00
 0.2893706317281E+00
 0.3881662773263E+00
 0.4889546618375E+00
 0.5904436613930E+00
 0.6909858989791E+00
 0.7885433204581E+00
 0.8807393700124E+00
 0.9648348627363E+00
 0.1037298023566E+01
 0.1092912767942E+01
 0.1124013216884E+01
 0.1118555909478E+01
 0.1056599713754E+01
 0.9607807989322E+00
 0.1106193554437E+01
 0.1869831399665E+01
 0.6124180573877E+00
 0.6973655794129E+00
 0.7352931293820E+00
 0.7395952455958E+00
 0.7305929310854E+00
 0.7163524753236E+00
 0.6983607804460E+00
 0.6767782851482E+00
 0.6516534087377E+00
 0.6230433803205E+00
 0.5910214443189E+00
 0.5556561272317E+00
 0.5169913282963E+00
 0.4750341438080E+00
 0.4297489440596E+00
 0.3810563534668E+00
 0.3288358658820E+00
 0.2729336692023E+00
 0.2131737700843E+00
 0.1493834544647E+00
 0.8149378734935E-01
 0.1278590531475E-01
 0.6934594231118E-01
 0.1502457363605E+00
 0.2351257181748E+00
 0.3229867248357E+00
 0.4128711720730E+00
 0.5037462794649E+00
 0.5943845840998E+00
 0.6832470577744E+00
 0.7684344695417E+00
 0.8476907831696E+00
 0.9183067429990E+00
 0.9766866771207E+00
 0.1017680048279E+01
 0.1034149838470E+01
 0.1016735047521E+01
 0.9629055675980E+00
 0.9378554052119E+00
 0.1185221420645E+01
 0.1872339573093E+01
 0.5302686032891E+00
 0.6036578952210E+00
 0.6412590836967E+00
 0.6486448735107E+00
 0.6409716885399E+00
 0.6266861934789E+00
 0.6084225343510E+00
 0.5867905678305E+00
 0.5619516805810E+00
 0.5339792218075E+00
 0.5029293254964E+00
 0.4688475657613E+00
 0.4317593604089E+00
 0.3916608958778E+00
 0.3485141322163E+00
 0.3022461731962E+00
 0.2527530209864E+00
 0.1999112334897E+00
 0.1436039729086E+00
 0.8383238980217E-01
 0.2257947451055E-01
 0.5044826487853E-01
 0.1212680915141E+00
 0.1962892513439E+00
 0.2743913926285E+00
 0.3546577632492E+00
 0.4361427880374E+00
 0.5178513658571E+00
 0.5986354001230E+00
 0.6770814805265E+00
 0.7514513767774E+00
 0.8196517923352E+00
 0.8791171036797E+00
 0.9264824496785E+00
 0.9572409141594E+00
 0.9659962099785E+00
 0.9492875498150E+00
 0.9220623805210E+00
 0.9689292327395E+00
 0.1276526791804E+01
 0.1892227243085E+01
 0.4504020037255E+00
 0.5134171113920E+00
 0.5489990673827E+00
 0.5582310498117E+00
 0.5519637340938E+00
 0.5380370197897E+00
 0.5197583335454E+00
 0.4981975648610E+00
 0.4736912592327E+00
 0.4463667557050E+00
 0.4162879316015E+00
 0.3834923358096E+00
 0.3479956310561E+00
 0.3097884106499E+00
 0.2688340918854E+00
 0.2250710080918E+00
 0.1784223361554E+00
 0.1288300624494E+00
 0.7640958117497E-01
 0.2380107863986E-01
 0.4366050571333E-01
 0.1052400278181E+00
 0.1712206371575E+00
 0.2403424056026E+00
 0.3118437751798E+00
 0.3848548154907E+00
 0.4584698373497E+00
 0.5317553639851E+00
 0.6036626449954E+00
 0.6729249666639E+00
 0.7379944846896E+00
 0.7970006356444E+00
 0.8476620751196E+00
 0.8871309148310E+00
 0.9120531531154E+00
 0.9198013244813E+00
 0.9139258879099E+00
 0.9223045574687E+00
 0.1031052007808E+01
 0.1369362569460E+01
 0.1922564387801E+01
 0.3722571216981E+00
 0.4260836409942E+00
 0.4587415195172E+00
 0.4687804154116E+00
 0.4637128774957E+00
 0.4503506610878E+00
 0.4322633478430E+00
 0.4108939197539E+00
 0.3867782218435E+00
 0.3601260934038E+00
 0.3310301472367E+00
 0.2995344292171E+00
 0.2656548603344E+00
 0.2293847545451E+00
 0.1906995712370E+00
 0.1495713372376E+00
 0.1060220717381E+00
 0.6042613709080E-01
 0.1906616269766E-01
 0.4717672166715E-01
 0.1008279217246E+00
 0.1586192673758E+00
 0.2194404909986E+00
 0.2827472734429E+00
 0.3478694125929E+00
 0.4139932184299E+00
 0.4802778651924E+00
 0.5458754322130E+00
 0.6098588537403E+00
 0.6711323480340E+00
 0.7283738495617E+00
 0.7800050409412E+00
 0.8241697010224E+00
 0.8587833493059E+00
 0.8820453077664E+00
 0.8946226460955E+00
 0.9064639703974E+00
 0.9526090420342E+00
 0.1109777974188E+01
 0.1460170899976E+01
 0.1960153227493E+01
 0.2954818862277E+00
 0.3412153080978E+00
 0.3705269013547E+00
 0.3805799386574E+00
 0.3763942580902E+00
 0.3636526596749E+00
 0.3458975200319E+00
 0.3248254458722E+00
 0.3011628611606E+00
 0.2752192277382E+00
 0.2471335912350E+00
 0.2169720426760E+00
 0.1847665501626E+00
 0.1505367618139E+00
 0.1143255507507E+00
 0.7633502351430E-01
 0.3794667379821E-01
 0.2180646188771E-01
 0.5970938579249E-01
 0.1067947126436E+00
 0.1572914694428E+00
 0.2105396203418E+00
 0.2661908281321E+00
 0.3238182726184E+00
 0.3828144107196E+00
 0.4424377571056E+00
 0.5019344566397E+00
 0.5605649562875E+00
 0.6175468823104E+00
 0.6719815089223E+00
 0.7228110512083E+00
 0.7688191916268E+00
 0.8086980880021E+00
 0.8413143107977E+00
 0.8666498931967E+00
 0.8886408369929E+00
 0.9220385233584E+00
 0.1003854526746E+01
 0.1196675733378E+01
 0.1548148837193E+01
 0.2003323423904E+01
 0.2198466406770E+00
 0.2584877812613E+00
 0.2843410019344E+00
 0.2938501536086E+00
 0.2902178273584E+00
 0.2780616392182E+00
 0.2607225567751E+00
 0.2400388111360E+00
 0.2169010970819E+00
 0.1917282862327E+00
 0.1647272113333E+00
 0.1360190839401E+00
 0.1057196051746E+00
 0.7407731871921E-01
 0.4218320239250E-01
 0.2069633506112E-01
 0.4300311567177E-01
 0.8064669036284E-01
 0.1220799076540E+00
 0.1661441673174E+00
 0.2125689488110E+00
 0.2611771467526E+00
 0.3117254278462E+00
 0.3638424292515E+00
 0.4169873842493E+00
 0.4705070543537E+00
 0.5237540223965E+00
 0.5761182335934E+00
 0.6269845444609E+00
 0.6756777300587E+00
 0.7214423141446E+00
 0.7634860845058E+00
 0.8011441111801E+00
 0.8343462683391E+00
 0.8648892143496E+00
 0.8995198451133E+00
 0.9558567360387E+00
 0.1069095316669E+01
 0.1287061481508E+01
 0.1633481862458E+01
 0.2051091071545E+01
 0.1452079470639E+00
 0.1777270773479E+00
 0.2002518592443E+00
 0.2088854211743E+00
 0.2055407289754E+00
 0.1939140406568E+00
 0.1770648471549E+00
 0.1568938342209E+00
 0.1344406448379E+00
 0.1102752868440E+00
 0.8479553438457E-01
 0.5856543584190E-01
 0.3363769837141E-01
 0.2346896360025E-01
 0.4426457586842E-01
 0.7519140501383E-01
 0.1093752054740E+00
 0.1457832901921E+00
 0.1841898430392E+00
 0.2245294300663E+00
 0.2667463662489E+00
 0.3107311784402E+00
 0.3562821952227E+00
 0.4030802826752E+00
 0.4506621639650E+00
 0.4984774786068E+00
 0.5460022877746E+00
 0.5927751785938E+00
 0.6383694321582E+00
 0.6823584351823E+00
 0.7243231235338E+00
 0.7639440313799E+00
 0.8012576676984E+00
 0.8372854203566E+00
 0.8754901246798E+00
 0.9247145446633E+00
 0.1003623897756E+01
 0.1143345189305E+01
 0.1378430231754E+01
 0.1716653581748E+01
 0.2102805224969E+01
 0.7156260037294E-01
 0.9918880055823E-01
 0.1188498917588E+00
 0.1265780453984E+00
 0.1234682173673E+00
 0.1125142960010E+00
 0.9654366764939E-01
 0.7761783997854E-01
 0.5733481662948E-01
 0.3800662708076E-01
 0.2715771261872E-01
 0.3695435043984E-01
 0.5928367251307E-01
 0.8586761391899E-01
 0.1146495388356E+00
 0.1450960861923E+00
 0.1770594434765E+00
 0.2105163900681E+00
 0.2454839623952E+00
 0.2819769192282E+00
 0.3199754164865E+00
 0.3593980569965E+00
 0.4000815426081E+00
 0.4417670792343E+00
 0.4840803436794E+00
 0.5265867245871E+00
 0.5689005354376E+00
 0.6107259647592E+00
 0.6518438377154E+00
 0.6920983727426E+00
 0.7314342470093E+00
 0.7700360054724E+00
 0.8086604572078E+00
 0.8493676742652E+00
 0.8970041032419E+00
 0.9617065852643E+00
 0.1061737545159E+01
 0.1223160757143E+01
 0.1469500703222E+01
 0.1798184033274E+01
 0.2157987810006E+01
 0.8408429163799E-02
 0.2890500973407E-01
 0.4600336585279E-01
 0.5342207925795E-01
 0.5207168790594E-01
 0.4533310812164E-01
 0.3824501510774E-01
 0.3764782306675E-01
 0.4741173143645E-01
 0.6457585616177E-01
 0.8565696534644E-01
 0.1089705321429E+00
 0.1337952194898E+00
 0.1598179450860E+00
 0.1869119609511E+00
 0.2150452003719E+00
 0.2442367034206E+00
 0.2745301156867E+00
 0.3059742074182E+00
 0.3386035486889E+00
 0.3724179890882E+00
 0.4073646783024E+00
 0.4433261839464E+00
 0.4801141296945E+00
 0.5174537201438E+00
 0.5550371619678E+00
 0.5926296399044E+00
 0.6301155672911E+00
 0.6674997386300E+00
 0.7049152217374E+00
 0.7426889267474E+00
 0.7815212096790E+00
 0.8228688911371E+00
 0.8697105609352E+00
 0.9279178025673E+00
 0.1008165210049E+01
 0.1127314362904E+01
 0.1306219800309E+01
 0.1559664319920E+01
 0.1878538545528E+01
 0.2216256647092E+01
 0.7497165966923E-01
 0.6302272100263E-01
 0.5807284926673E-01
 0.5922856572463E-01
 0.6439568879710E-01
 0.7325259897676E-01
 0.8594253535750E-01
 0.1020272550326E+00
 0.1207119724257E+00
 0.1412558505334E+00
 0.1631220049984E+00
 0.1859669724412E+00
 0.2095909858525E+00
 0.2338938009556E+00
 0.2588432341771E+00
 0.2844534150868E+00
 0.3107687116150E+00
 0.3378492846980E+00
 0.3657578446163E+00
 0.3945449605849E+00
 0.4242335035944E+00
 0.4548064769180E+00
 0.4862015273189E+00
 0.5183102807940E+00
 0.5509666664002E+00
 0.5839990181930E+00
 0.6173339307347E+00
 0.6510482041701E+00
 0.6853838359046E+00
 0.7207755870189E+00
 0.7579410555158E+00
 0.7980885369001E+00
 0.8433200715323E+00
 0.8973658854342E+00
 0.9667441055274E+00
 0.1062036696301E+01
 0.1198119842795E+01
 0.1390977658928E+01
 0.1648672344166E+01
 0.1958102934874E+01
 0.2277286671060E+01
 0.1466338182370E+00
 0.1369018443318E+00
 0.1314842784156E+00
 0.1319705706658E+00
 0.1380987845476E+00
 0.1489504763443E+00
 0.1634827744822E+00
 0.1807084527338E+00
 0.1998016466699E+00
 0.2201427726488E+00
 0.2413053147868E+00
 0.2630167230736E+00
 0.2851184911996E+00
 0.3075345150884E+00
 0.3302480037535E+00
 0.3532845570866E+00
 0.3766989004405E+00
 0.4005625160928E+00
 0.4249523923783E+00
 0.4499390504681E+00
 0.4755748814085E+00
 0.5018868497273E+00
 0.5288763709402E+00
 0.5565234503689E+00
 0.5847784417185E+00
 0.6136134194639E+00
 0.6431248987916E+00
 0.6735916730465E+00
 0.7055026333799E+00
 0.7396013294707E+00
 0.7769941643815E+00
 0.8193714510007E+00
 0.8693990119535E+00
 0.9313679627476E+00
 0.1012087948048E+01
 0.1121575509622E+01
 0.1272459032236E+01
 0.1476415389113E+01
 0.1736457046777E+01
 0.2037180831522E+01
 0.2340789208017E+01
 0.2178938237448E+00
 0.2114750484100E+00
 0.2081891791828E+00
 0.2099251429543E+00
 0.2168844381016E+00
 0.2283311036922E+00
 0.2432049783434E+00
 0.2604737243822E+00
 0.2792898163923E+00
 0.2990267877439E+00
 0.3192552936261E+00
 0.3397008034898E+00
 0.3602038592088E+00
 0.3806891437574E+00
 0.4011428795784E+00
 0.4215962364127E+00
 0.4421124755966E+00
 0.4627754309329E+00
 0.4836796334040E+00
 0.5049206839202E+00
 0.5265870840044E+00
 0.5487572117551E+00
 0.5715037996432E+00
 0.5949022194425E+00
 0.6190254628366E+00
 0.6439953279884E+00
 0.6700847794149E+00
 0.6977816055724E+00
 0.7278275584874E+00
 0.7612761701176E+00
 0.7996109974304E+00
 0.8449635461086E+00
 0.9004649296432E+00
 0.9707733895922E+00
 0.1062686379632E+01
 0.1185335892865E+01
 0.1349064141374E+01
 0.1561867327900E+01
 0.1823028814312E+01
 0.2115990312450E+01
 0.2406497348882E+01
 0.2886924096430E+00
 0.2855734228421E+00
 0.2847643300324E+00
 0.2881216600481E+00
 0.2960463479586E+00
 0.3079970321813E+00
 0.3230289494196E+00
 0.3401615107785E+00
 0.3585615637611E+00
 0.3775981077919E+00
 0.3968302429120E+00
 0.4159717806387E+00
 0.4348547950000E+00
 0.4533998260072E+00
 0.4715934439969E+00
 0.4894716025617E+00
 0.5071069258476E+00
 0.5245978949929E+00
 0.5420602661516E+00
 0.5596196663109E+00
 0.5774066363649E+00
 0.5955573795601E+00
 0.6142222083943E+00
 0.6335774555692E+00
 0.6538235333834E+00
 0.6752363849307E+00
 0.6982700231481E+00
 0.7236256403793E+00
 0.7523000960488E+00
 0.7856524546829E+00
 0.8255233303377E+00
 0.8744338439903E+00
 0.9358745818080E+00
 0.1014690315742E+01
 0.1117426324838E+01
 0.1252142460788E+01
 0.1426993626019E+01
 0.1646910182278E+01
 0.1908425863098E+01
 0.2194640527091E+01
 0.2474146713233E+01
 0.3590502550619E+00
 0.3590687193368E+00
 0.3607665572346E+00
 0.3658680453298E+00
 0.3748632886111E+00
 0.3873653964804E+00
 0.4025572095304E+00
 0.4195337541368E+00
 0.4374932805298E+00
 0.4558087527722E+00
 0.4740307040054E+00
 0.4918615946514E+00
 0.5091244346083E+00
 0.5257350732000E+00
 0.5416803947933E+00
 0.5570018431633E+00
 0.5717829782945E+00
 0.5861394498236E+00
 0.6002117394774E+00
 0.6141599067514E+00
 0.6281615984016E+00
 0.6424161343711E+00
 0.6571563955232E+00
 0.6726639371245E+00
 0.6892700173025E+00
 0.7074076547747E+00
 0.7277146506218E+00
 0.7511074988614E+00
 0.7788368777430E+00
 0.8125579146971E+00
 0.8544416036258E+00
 0.9073409068631E+00
 0.9750012344654E+00
 0.1062297173524E+01
 0.1175346046086E+01
 0.1321051491591E+01
 0.1505553813900E+01
 0.1731273124537E+01
 0.1992750921174E+01
 0.2273060404315E+01
 0.2543374180924E+01
 0.4289988107824E+00
 0.4319722416674E+00
 0.4361270433671E+00
 0.4430192119312E+00
 0.4531651369007E+00
 0.4662901590963E+00
 0.4816907891170E+00
 0.4985399095843E+00
 0.5160744301866E+00
 0.5336780564190E+00
 0.5508974439385E+00
 0.5674264767902E+00
 0.5830806668927E+00
 0.5977722090231E+00
 0.6114893019346E+00
 0.6242801710910E+00
 0.6362411092235E+00
 0.6475073711174E+00
 0.6582472941059E+00
 0.6686591292654E+00
 0.6789717928994E+00
 0.6894519123978E+00
 0.7004187125281E+00
 0.7122619800776E+00
 0.7254459670343E+00
 0.7405622863029E+00
 0.7584335030111E+00
 0.7801909555908E+00
 0.8073346687189E+00
 0.8418022446345E+00
 0.8860639729455E+00
 0.9432450181858E+00
 0.1017248852000E+01
 0.1112851888451E+01
 0.1235627403873E+01
 0.1391308417229E+01
 0.1584243576665E+01
 0.1814775816973E+01
 0.2076140460821E+01
 0.2351374422377E+01
 0.2612923024332E+01
 0.4985688707697E+00
 0.5043181478960E+00
 0.5108510412327E+00
 0.5195429003722E+00
 0.5308959063450E+00
 0.5447109356103E+00
 0.5603778470861E+00
 0.5771414336538E+00
 0.5942792211540E+00
 0.6111902882234E+00
 0.6274219300550E+00
 0.6426629267615E+00
 0.6567237575129E+00
 0.6695147859187E+00
 0.6810270892114E+00
 0.6913172819196E+00
 0.7004962555153E+00
 0.7087211276624E+00
 0.7161907870207E+00
 0.7231447398633E+00
 0.7298663918067E+00
 0.7366927203338E+00
 0.7440317796387E+00
 0.7523832095417E+00
 0.7623449089399E+00
 0.7746668891340E+00
 0.7903553239275E+00
 0.8107532034988E+00
 0.8376019993808E+00
 0.8731043353320E+00
 0.9199956486843E+00
 0.9816148522290E+00
 0.1061938501090E+01
 0.1165547760794E+01
 0.1297404812992E+01
 0.1462117729953E+01
 0.1662449699797E+01
 0.1897151503895E+01
 0.2158239133489E+01
 0.2430219302512E+01
 0.2681683136960E+01
 0.5677935683979E+00
 0.5761574881318E+00
 0.5849865590308E+00
 0.5954730771642E+00
 0.6080777884915E+00
 0.6226465981194E+00
 0.6386417921317E+00
 0.6553707435587E+00
 0.6721504044846E+00
 0.6883979847419E+00
 0.7036652297907E+00
 0.7176392942602E+00
 0.7301283970652E+00
 0.7410432413615E+00
 0.7503795999466E+00
 0.7582041826611E+00
 0.7646442637068E+00
 0.7698808041895E+00
 0.7741454575755E+00
 0.7777213628599E+00
 0.7809487691709E+00
 0.7842370515891E+00
 0.7880845184166E+00
 0.7931012007143E+00
 0.8000181886989E+00
 0.8097424826779E+00
 0.8234612454175E+00
 0.8427241191462E+00
 0.8695040643429E+00
 0.9062495017608E+00
 0.9559269348084E+00
 0.1022035674443E+01
 0.1108555529109E+01
 0.1219803676346E+01
 0.1360105162355E+01
 0.1533010583906E+01
 0.1739935795051E+01
 0.1978276817632E+01
 0.2239641190227E+01
 0.2507729207562E+01
 0.2761182101154E+01
 0.6367053759564E+00
 0.6475499705642E+00
 0.6586042453682E+00
 0.6708809654161E+00
 0.6847806084656E+00
 0.7001691260723E+00
 0.7165616413906E+00
 0.7333175068000E+00
 0.7497899765851E+00
 0.7654156224315E+00
 0.7797536023604E+00
 0.7924926145588E+00
 0.8034413763582E+00
 0.8125131817916E+00
 0.8197103644941E+00
 0.8251113825568E+00
 0.8288614869831E+00
 0.8311671181761E+00
 0.8322944030868E+00
 0.8325718362856E+00
 0.8323980922603E+00
 0.8322561571340E+00
 0.8327351854944E+00
 0.8345553540658E+00
 0.8385797674321E+00
 0.8458702840459E+00
 0.8577916224911E+00
 0.8760941755473E+00
 0.9029716844267E+00
 0.9410992678921E+00
 0.9936429936710E+00
 0.1064216991866E+01
 0.1156750365329E+01
 0.1275252980520E+01
 0.1423412451555E+01
 0.1603812960957E+01
 0.1816700089538E+01
 0.2058478859018E+01
 0.2320210255491E+01
 0.2586770566709E+01
 0.2841111730971E+01
 0.7053343444682E+00
 0.7185454102473E+00
 0.7317621230684E+00
 0.7458232290813E+00
 0.7610559276036E+00
 0.7773260547794E+00
 0.7941840471778E+00
 0.8110305185824E+00
 0.8272508296758E+00
 0.8423010524427E+00
 0.8557500014427E+00
 0.8672907634471E+00
 0.8767352466901E+00
 0.8840016262636E+00
 0.8891006908424E+00
 0.8921242460544E+00
 0.8932369350538E+00
 0.8926719858176E+00
 0.8907312213887E+00
 0.8877895761115E+00
 0.8843049651313E+00
 0.8808343462183E+00
 0.8780574182332E+00
 0.8768033521676E+00
 0.8780651734569E+00
 0.8830564889921E+00
 0.8933150393576E+00
 0.9107849036316E+00
 0.9378690067269E+00
 0.9774502889436E+00
 0.1032865813439E+01
 0.1107806839960E+01
 0.1206112731815E+01
 0.1331463329998E+01
 0.1486931121381E+01
 0.1674225373591E+01
 0.1892610689460E+01
 0.2137685251425E+01
 0.2400293876084E+01
 0.2666641703266E+01
 0.2921401618368E+01
 0.7737093260503E+00
 0.7891915884821E+00
 0.8045176383330E+00
 0.8203587111502E+00
 0.8369596704756E+00
 0.8541700426389E+00
 0.8715602603910E+00
 0.8885619360348E+00
 0.9045878115668E+00
 0.9191128252200E+00
 0.9317170846242E+00
 0.9421005707844E+00
 0.9500809426143E+00
 0.9555835116195E+00
 0.9586293821457E+00
 0.9593252062717E+00
 0.9578562249600E+00
 0.9544834192987E+00
 0.9495450470154E+00
 0.9434629487377E+00
 0.9367543687675E+00
 0.9300497993408E+00
 0.9241183527179E+00
 0.9198962101761E+00
 0.9185033936592E+00
 0.9213012886058E+00
 0.9299952158787E+00
 0.9467150457253E+00
 0.9740609541194E+00
 0.1015105875404E+01
 0.1073333173040E+01
 0.1152481960938E+01
 0.1256276476392E+01
 0.1388061234770E+01
 0.1550329088491E+01
 0.1744011457120E+01
 0.1967545456679E+01
 0.2215905788849E+01
 0.2479938270587E+01
 0.2746835200579E+01
 0.3002182326715E+01
 0.8418581227962E+00
 0.8595340487514E+00
 0.8769266476288E+00
 0.8945464149263E+00
 0.9125496173538E+00
 0.9307564686168E+00
 0.9487441919292E+00
 0.9659658869883E+00
 0.9818567935933E+00
 0.9959095767940E+00
 0.1007716794033E+01
 0.1016987511831E+01
 0.1023547538715E+01
 0.1027331497733E+01
 0.1028372592143E+01
 0.1026793684433E+01
 0.1022801586660E+01
 0.1016685646590E+01
 0.1008820817108E+01
 0.9996757162044E+00
 0.9898263170975E+00
 0.9799754624274E+00
 0.9709797783163E+00
 0.9638797088965E+00
 0.9599186018483E+00
 0.9606009102447E+00
 0.9677933762516E+00
 0.9838032480188E+00
 0.1011416168895E+01
 0.1053878929030E+01
 0.1114800965310E+01
 0.1197948326515E+01
 0.1306916989024E+01
 0.1444724247382E+01
 0.1613328441520E+01
 0.1812976136274E+01
 0.2041409940306E+01
 0.2293136366647E+01
 0.2559071162730E+01
 0.2827105110065E+01
 0.3083482137879E+01
 0.9098075943812E+00
 0.9296161640611E+00
 0.9490430236837E+00
 0.9684445215388E+00
 0.9878840412309E+00
 0.1007142034013E+01
 0.1025791222978E+01
 0.1043297575300E+01
 0.1059114041836E+01
 0.1072749589144E+01
 0.1083810030429E+01
 0.1092015442314E+01
 0.1097202018371E+01
 0.1099315763142E+01
 0.1098403655195E+01
 0.1094605971550E+01
 0.1088151820331E+01
 0.1079359173049E+01
 0.1068639468744E+01
 0.1056507401087E+01
 0.1043596419105E+01
 0.1030679831468E+01
 0.1018699164891E+01
 0.1008795679816E+01
 0.1002331713220E+01
 0.1000949448885E+01
 0.1006670353435E+01
 0.1021970400337E+01
 0.1049809461131E+01
 0.1093594188003E+01
 0.1157044603481E+01
 0.1243940751512E+01
 0.1357747768904E+01
 0.1501174280863E+01
 0.1675694610973E+01
 0.1880957318585E+01
 0.2114125450082E+01
 0.2369347079946E+01
 0.2637612131252E+01
 0.2907315986201E+01
 0.3165268873122E+01
 0.9775837480981E+00
 0.9994792960201E+00
 0.1020918566984E+01
 0.1042109921646E+01
 0.1063020948466E+01
 0.1083383914573E+01
 0.1102757441460E+01
 0.1120612681539E+01
 0.1136415781629E+01
 0.1149690477265E+01
 0.1160056415462E+01
 0.1167246400908E+01
 0.1171109098879E+01
 0.1171603850721E+01
 0.1168792961976E+01
 0.1162835151799E+01
 0.1153982290852E+01
 0.1142580874330E+01
 0.1129078159686E+01
 0.1114033664447E+01
 0.1098136441012E+01
 0.1082227721746E+01
 0.1067330656660E+01
 0.1054683235772E+01
 0.1045761858409E+01
 0.1042340582858E+01
 0.1046588526428E+01
 0.1061141730202E+01
 0.1089123898342E+01
 0.1134089972180E+01
 0.1199859835338E+01
 0.1290221946184E+01
 0.1408516971940E+01
 0.1557171284895E+01
 0.1737228177893E+01
 0.1947818229451E+01
 0.2185620079806E+01
 0.2444496232911E+01
 0.2715492477366E+01
 0.2987381236403E+01
 0.3247485013266E+01
 0.1045211814898E+01
 0.1069162983544E+01
 0.1092603069915E+01
 0.1115598027890E+01
 0.1138017667390E+01
 0.1159539247291E+01
 0.1179699150475E+01
 0.1197966963219E+01
 0.1213817903280E+01
 0.1226788980251E+01
 0.1236514138631E+01
 0.1242740488637E+01
 0.1245331131760E+01
 0.1244260589115E+01
 0.1239607911762E+01
 0.1231551102365E+01
 0.1220364996880E+01
 0.1206424159707E+01
 0.1190210552590E+01
 0.1172326737318E+01
 0.1153514909146E+01
 0.1134681062195E+01
 0.1116926073021E+01
 0.1101579987223E+01
 0.1090227816832E+01
 0.1084769214184E+01
 0.1087513633630E+01
 0.1101248704822E+01
 0.1129252614290E+01
 0.1175219560366E+01
 0.1243063158531E+01
 0.1336581324243E+01
 0.1459004097082E+01
 0.1612507798283E+01
 0.1797758385563E+01
 0.2013440909877E+01
 0.2255826285902E+01
 0.2518538846250E+01
 0.2792655641118E+01
 0.3067236380065E+01
 0.3330060902822E+01
 0.1112716314628E+01
 0.1138705121421E+01
 0.1164144431173E+01
 0.1188962709297E+01
 0.1212930597447E+01
 0.1235664767186E+01
 0.1256672481102E+01
 0.1275415903210E+01
 0.1291375666752E+01
 0.1304100715838E+01
 0.1313239745129E+01
 0.1318555675748E+01
 0.1319927922420E+01
 0.1317347927995E+01
 0.1310912773858E+01
 0.1300820397637E+01
 0.1287368538807E+01
 0.1270959027672E+01
 0.1252106983510E+01
 0.1231455726950E+01
 0.1209797576570E+01
 0.1188099541132E+01
 0.1167535746719E+01
 0.1149523079273E+01
 0.1135749249592E+01
 0.1128232879240E+01
 0.1129416314898E+01
 0.1142230604478E+01
 0.1170100220772E+01
 0.1216852114053E+01
 0.1286491793452E+01
 0.1382833523921E+01
 0.1509016733473E+01
 0.1667004129318E+01
 0.1857137580980E+01
 0.2077721434376E+01
 0.2324680051346E+01
 0.2591429978536E+01
 0.2869053460572E+01
 0.3146826689179E+01
 0.3412922282524E+01
 0.1180121116806E+01
 0.1208142139264E+01
 0.1235588816191E+01
 0.1262256331430E+01
 0.1287815106357E+01
 0.1311816602673E+01
 0.1333733148608E+01
 0.1353014475832E+01
 0.1369143500582E+01
 0.1381680013999E+01
 0.1390287996244E+01
 0.1394747680898E+01
 0.1394956625202E+01
 0.1390924852719E+01
 0.1382768631793E+01
 0.1370706297884E+01
 0.1355058170613E+01
 0.1336252202184E+01
 0.1314834704922E+01
 0.1291486988710E+01
 0.1267047943955E+01
 0.1242541292633E+01
 0.1219209387036E+01
 0.1198550235710E+01
 0.1182347917828E+01
 0.1172733117927E+01
 0.1172273578094E+01
 0.1184035980340E+01
 0.1211584067030E+01
 0.1258873440844E+01
 0.1330003563613E+01
 0.1428817030043E+01
 0.1558387761714E+01
 0.1720504408527E+01
 0.1915236913126E+01
 0.2140566721970E+01
 0.2392120477333E+01
 0.2663125686446E+01
 0.2944642855388E+01
 0.3226101978180E+01
 0.3495994976349E+01
 0.1247449495809E+01
 0.1277509164995E+01
 0.1306980822461E+01
 0.1335529835058E+01
 0.1362725489886E+01
 0.1388050136239E+01
 0.1410936257314E+01
 0.1430816935470E+01
 0.1447174797361E+01
 0.1459579726844E+01
 0.1467711692657E+01
 0.1471369805394E+01
 0.1470471589125E+01
 0.1465047246851E+01
 0.1455233272705E+01
 0.1441268679676E+01
 0.1423495788700E+01
 0.1402367199517E+01
 0.1378458051278E+01
 0.1352484410782E+01
 0.1325327682182E+01
 0.1298063472452E+01
 0.1271996819226E+01
 0.1248700664358E+01
 0.1230048744757E+01
 0.1218276664679E+01
 0.1216070060600E+01
 0.1226623878015E+01
 0.1253635243777E+01
 0.1301186512853E+01
 0.1373476607374E+01
 0.1474392802975E+01
 0.1606972833880E+01
 0.1772873217985E+01
 0.1971942856985E+01
 0.2201892096442E+01
 0.2458089114620E+01
 0.2733582757743E+01
 0.3019383383156E+01
 0.3305014551449E+01
 0.3579207782092E+01
 0.1314724186257E+01
 0.1346840180468E+01
 0.1378363652216E+01
 0.1408832848773E+01
 0.1437714987474E+01
 0.1464419928033E+01
 0.1488336160535E+01
 0.1508876643933E+01
 0.1525521730519E+01
 0.1537851045912E+01
 0.1545561496298E+01
 0.1548472761527E+01
 0.1546524196000E+01
 0.1539767746463E+01
 0.1528361067705E+01
 0.1512563955405E+01
 0.1492739906309E+01
 0.1469364375250E+01
 0.1443038577330E+01
 0.1414509662557E+01
 0.1384697008175E+01
 0.1354722775723E+01
 0.1325948653534E+01
 0.1300015878957E+01
 0.1278880779740E+01
 0.1264876525101E+01
 0.1260799158940E+01
 0.1269964914988E+01
 0.1296199441708E+01
 0.1343711875382E+01
 0.1416809076185E+01
 0.1519443066710E+01
 0.1654648243761E+01
 0.1823992842908E+01
 0.2027154491121E+01
 0.2261619397495E+01
 0.2522529198851E+01
 0.2802758114051E+01
 0.3093235770257E+01
 0.3383518706009E+01
 0.3662494521376E+01
 0.1381967439035E+01
 0.1416168174922E+01
 0.1449779295586E+01
 0.1482213834799E+01
 0.1512835851443E+01
 0.1540979702824E+01
 0.1565986382018E+01
 0.1587245950086E+01
 0.1604235112315E+01
 0.1616543351826E+01
 0.1623885779485E+01
 0.1626104526543E+01
 0.1623162724684E+01
 0.1615135621750E+01
 0.1602202880167E+01
 0.1584645019869E+01
 0.1562845652144E+01
 0.1537300990391E+01
 0.1508635208293E+01
 0.1477622445630E+01
 0.1445215052637E+01
 0.1412575934941E+01
 0.1381116922360E+01
 0.1352540476781E+01
 0.1328878105523E+01
 0.1312552983331E+01
 0.1306464078737E+01
 0.1314042275632E+01
 0.1339237743804E+01
 0.1386388041547E+01
 0.1459918923607E+01
 0.1563870348467E+01
 0.1701309240989E+01
 0.1873761135579E+01
 0.2080781433179E+01
 0.2319675543608E+01
 0.2585384959543E+01
 0.2870608302526E+01
 0.3166161249263E+01
 0.3461571071099E+01
 0.3745795642126E+01
 0.1449201079603E+01
 0.1485525289576E+01
 0.1521268707385E+01
 0.1555720238299E+01
 0.1588139428129E+01
 0.1617782349257E+01
 0.1643939540745E+01
 0.1665976057683E+01
 0.1683364223189E+01
 0.1695704020262E+01
 0.1702730418746E+01
 0.1704310133033E+01
 0.1700432145900E+01
 0.1691196584506E+01
 0.1676805895214E+01
 0.1657561112645E+01
 0.1633864678129E+01
 0.1606231178536E+01
 0.1575304281641E+01
 0.1541880626039E+01
 0.1506940098131E+01
 0.1471680077450E+01
 0.1437555566687E+01
 0.1406322756224E+01
 0.1380080577308E+01
 0.1361334434998E+01
 0.1353078708066E+01
 0.1358852536907E+01
 0.1382727275002E+01
 0.1429171802990E+01
 0.1502743709911E+01
 0.1607596668214E+01
 0.1746868635805E+01
 0.1922089764179E+01
 0.2132742132707E+01
 0.2375991253359E+01
 0.2646600842922E+01
 0.2937088939796E+01
 0.3238121186005E+01
 0.3539131065939E+01
 0.3829059313410E+01
 0.1516446572160E+01
 0.1554942967948E+01
 0.1592871998386E+01
 0.1629398666003E+01
 0.1663676282342E+01
 0.1694879970194E+01
 0.1722247327104E+01
 0.1745116939566E+01
 0.1762956680713E+01
 0.1775378261904E+01
 0.1782138619525E+01
 0.1783131489584E+01
 0.1778373948206E+01
 0.1767992627964E+01
 0.1752213482008E+01
 0.1731357712075E+01
 0.1705845095491E+01
 0.1676205935849E+01
 0.1643099604083E+01
 0.1607340372312E+01
 0.1569929812533E+01
 0.1532093067555E+01
 0.1495320896954E+01
 0.1461415300084E+01
 0.1432534521223E+01
 0.1411258177127E+01
 0.1400668452225E+01
 0.1404406472752E+01
 0.1426661869782E+01
 0.1472038629591E+01
 0.1545240602032E+01
 0.1650563053682E+01
 0.1791255852489E+01
 0.1968902979280E+01
 0.2182962646202E+01
 0.2430500104154E+01
 0.2706120932011E+01
 0.3002154397026E+01
 0.3309077105924E+01
 0.3616161598603E+01
 0.3912242494502E+01
 0.1583725089276E+01
 0.1624452106909E+01
 0.1664628629562E+01
 0.1703295074171E+01
 0.1739496336224E+01
 0.1772323947209E+01
 0.1800960486709E+01
 0.1824717248757E+01
 0.1843058293466E+01
 0.1855608936675E+01
 0.1862150707083E+01
 0.1862607162035E+01
 0.1857025920686E+01
 0.1845561820024E+01
 0.1828465005589E+01
 0.1806076373748E+01
 0.1778831348635E+01
 0.1747273040325E+01
 0.1712072427759E+01
 0.1674056201571E+01
 0.1634241378926E+01
 0.1593873733963E+01
 0.1554471929603E+01
 0.1517875427454E+01
 0.1486293298095E+01
 0.1462371065572E+01
 0.1449270946715E+01
 0.1450729761038E+01
 0.1471052687850E+01
 0.1514983090450E+01
 0.1587386494490E+01
 0.1692729286402E+01
 0.1834416302357E+01
 0.2014136726786E+01
 0.2231375694359E+01
 0.2483137735414E+01
 0.2763888391055E+01
 0.3065757503916E+01
 0.3378990772393E+01
 0.3692629686010E+01
 0.3995311781172E+01
 0.1651057590793E+01
 0.1694083215745E+01
 0.1736577618728E+01
 0.1777454975724E+01
 0.1815649032380E+01
 0.1850165029613E+01
 0.1880128823825E+01
 0.1904824240824E+01
 0.1923712917154E+01
 0.1936436362632E+01
 0.1942803906880E+01
 0.1942772141273E+01
 0.1936421920520E+01
 0.1923938079896E+01
 0.1905595619853E+01
 0.1881754546246E+01
 0.1852864060438E+01
 0.1819476934625E+01
 0.1782271380347E+01
 0.1742080968599E+01
 0.1699931557041E+01
 0.1657082017845E+01
 0.1615070635164E+01
 0.1575765551323E+01
 0.1541417772075E+01
 0.1514730083466E+01
 0.1498936697597E+01
 0.1497863649319E+01
 0.1515928841282E+01
 0.1558019364770E+01
 0.1629178320293E+01
 0.1734073940867E+01
 0.1876311123914E+01
 0.2057738139045E+01
 0.2277920030069E+01
 0.2533841243181E+01
 0.2819845000935E+01
 0.3127849315972E+01
 0.3447824321219E+01
 0.3768507038763E+01
 0.4078244222637E+01
 0.1718464912842E+01
 0.1763866588042E+01
 0.1808757765572E+01
 0.1851923672543E+01
 0.1892183526458E+01
 0.1928453452621E+01
 0.1959801229132E+01
 0.1985483713318E+01
 0.2004962320516E+01
 0.2017898129158E+01
 0.2024132126198E+01
 0.2023657611219E+01
 0.2016591640743E+01
 0.2003150954708E+01
 0.1983636059039E+01
 0.1958425382043E+01
 0.1927979867044E+01
 0.1892858590428E+01
 0.1853742366665E+01
 0.1811465814880E+01
 0.1767056692502E+01
 0.1721779057111E+01
 0.1677182112956E+01
 0.1635153457060E+01
 0.1597976700327E+01
 0.1568402839323E+01
 0.1549729671611E+01
 0.1545865606326E+01
 0.1561338064450E+01
 0.1601181876464E+01
 0.1670633584749E+01
 0.1774594743755E+01
 0.1916917306193E+01
 0.2099665408499E+01
 0.2322540117449E+01
 0.2582548773448E+01
 0.2873930797076E+01
 0.3188378940612E+01
 0.3515540429081E+01
 0.3843770643974E+01
 0.4161028145600E+01
 0.1785967869244E+01
 0.1833832485875E+01
 0.1881207891738E+01
 0.1926746504772E+01
 0.1969148895077E+01
 0.2007239064327E+01
 0.2040025705853E+01
 0.2066739931588E+01
 0.2086846026561E+01
 0.2100028876939E+01
 0.2106165696865E+01
 0.2105290674447E+01
 0.2097560333134E+01
 0.2083225348568E+01
 0.2062612377757E+01
 0.2036117491126E+01
 0.2004211187391E+01
 0.1967455297387E+01
 0.1926528382912E+01
 0.1882260017111E+01
 0.1835672612056E+01
 0.1788027144143E+01
 0.1740874629417E+01
 0.1696112439442E+01
 0.1656046983353E+01
 0.1623467937643E+01
 0.1601727783538E+01
 0.1594809911935E+01
 0.1607347384071E+01
 0.1644526012611E+01
 0.1711791082059E+01
 0.1814309208873E+01
 0.1956228141762E+01
 0.2139887977490E+01
 0.2365186042727E+01
 0.2629199223534E+01
 0.2926083702768E+01
 0.3247293287734E+01
 0.3582102364508E+01
 0.3918403201416E+01
 0.4243663891945E+01
 0.1853587368031E+01
 0.1904011344893E+01
 0.1953967108305E+01
 0.2001969131922E+01
 0.2046594375247E+01
 0.2086571478711E+01
 0.2120849413107E+01
 0.2148635562442E+01
 0.2169401154189E+01
 0.2182860074037E+01
 0.2188931112837E+01
 0.2187694073425E+01
 0.2179348528105E+01
 0.2164181249160E+01
 0.2142545687267E+01
 0.2114854687112E+01
 0.2081585978750E+01
 0.2043300428933E+01
 0.2000669296292E+01
 0.1954510787910E+01
 0.1905834457095E+01
 0.1855889608526E+01
 0.1806219570622E+01
 0.1758721348004E+01
 0.1715713825534E+01
 0.1680015272498E+01
 0.1655023333244E+01
 0.1644788240810E+01
 0.1654043847553E+01
 0.1688128986728E+01
 0.1752711858766E+01
 0.1853255615371E+01
 0.1994254079968E+01
 0.2178387116296E+01
 0.2405813729626E+01
 0.2673732124740E+01
 0.2976239230607E+01
 0.3304536818004E+01
 0.3647474006314E+01
 0.3992393536285E+01
 0.4326164610382E+01
 0.1921344545496E+01
 0.1974434002787E+01
 0.2027075112459E+01
 0.2077637844993E+01
 0.2124569630348E+01
 0.2166500245021E+01
 0.2202318712532E+01
 0.2231211598621E+01
 0.2252662241359E+01
 0.2266419768393E+01
 0.2272450742706E+01
 0.2270885887308E+01
 0.2261971731145E+01
 0.2246033430849E+01
 0.2223451866048E+01
 0.2194655702733E+01
 0.2160127453819E+01
 0.2120423159090E+01
 0.2076201562702E+01
 0.2028262999908E+01
 0.1977596425055E+01
 0.1925430592793E+01
 0.1873291275628E+01
 0.1823064506367E+01
 0.1777070771375E+01
 0.1738146210483E+01
 0.1709723360981E+01
 0.1695910211286E+01
 0.1701535284261E+01
 0.1732090824516E+01
 0.1793480405374E+01
 0.1891494315375E+01
 0.2031023970414E+01
 0.2215156878073E+01
 0.2444385438835E+01
 0.2716087670016E+01
 0.3024330197395E+01
 0.3360051219364E+01
 0.3711619757178E+01
 0.4065736924274E+01
 0.4408557039663E+01
 0.1989260920964E+01
 0.2045131956578E+01
 0.2100572519790E+01
 0.2153799915066E+01
 0.2203125045391E+01
 0.2247075032827E+01
 0.2284479214639E+01
 0.2314507268994E+01
 0.2336661044707E+01
 0.2350732312818E+01
 0.2356742514856E+01
 0.2354879203658E+01
 0.2345440096557E+01
 0.2328791135820E+01
 0.2305341246567E+01
 0.2275533876539E+01
 0.2239853760831E+01
 0.2198848131038E+01
 0.2153157882291E+01
 0.2103558831809E+01
 0.2051011415828E+01
 0.1996714716577E+01
 0.1942166744099E+01
 0.1889231497169E+01
 0.1840219607761E+01
 0.1797973653047E+01
 0.1765949911861E+01
 0.1748303892458E+01
 0.1749951095551E+01
 0.1776535471759E+01
 0.1834206082236E+01
 0.1929109387429E+01
 0.2066586724721E+01
 0.2250205464933E+01
 0.2480870580589E+01
 0.2756206900173E+01
 0.3070286448360E+01
 0.3413774998242E+01
 0.3774504341988E+01
 0.4138435327474E+01
 0.4490882292326E+01
 0.2057358576160E+01
 0.2116137655595E+01
 0.2174501240793E+01
 0.2230503986335E+01
 0.2282312056849E+01
 0.2328345834522E+01
 0.2367375823872E+01
 0.2398559932396E+01
 0.2421426314248E+01
 0.2435818063091E+01
 0.2441819578486E+01
 0.2439681770858E+01
 0.2429758086294E+01
 0.2412457742599E+01
 0.2388218288441E+01
 0.2357496821405E+01
 0.2320777637252E+01
 0.2278595087704E+01
 0.2231566802514E+01
 0.2180437345063E+01
 0.2126130590391E+01
 0.2069806634482E+01
 0.2012925221193E+01
 0.1957316813025E+01
 0.1905270130232E+01
 0.1859621974510E+01
 0.1823840205373E+01
 0.1802116266268E+01
 0.1799443072387E+01
 0.1821612026894E+01
 0.1875024789864E+01
 0.1966210659784E+01
 0.2101013438164E+01
 0.2283557058428E+01
 0.2515246889946E+01
 0.2794032079499E+01
 0.3114034600310E+01
 0.3465642986338E+01
 0.3836092498174E+01
 0.4210497556747E+01
 0.4573196660781E+01
 0.2125660363581E+01
 0.2187484837474E+01
 0.2248904910209E+01
 0.2307800520793E+01
 0.2362183520325E+01
 0.2410363183741E+01
 0.2451052777005E+01
 0.2483404947957E+01
 0.2506983536453E+01
 0.2521693044460E+01
 0.2527689938362E+01
 0.2525295631525E+01
 0.2514924116135E+01
 0.2497030425334E+01
 0.2472081241994E+01
 0.2440546078921E+01
 0.2402906040859E+01
 0.2359678467566E+01
 0.2311452271013E+01
 0.2258933992247E+01
 0.2203002841104E+01
 0.2144770484869E+01
 0.2085647654072E+01
 0.2027419364484E+01
 0.1972339760813E+01
 0.1923226820404E+01
 0.1883546692927E+01
 0.1857513627538E+01
 0.1850186225255E+01
 0.1867496087105E+01
 0.1916100881617E+01
 0.2002936119129E+01
 0.2134400010715E+01
 0.2315254171931E+01
 0.2547502019679E+01
 0.2829507290951E+01
 0.3155497803828E+01
 0.3515585749911E+01
 0.3896348551392E+01
 0.4281939358641E+01
 0.4655572438765E+01
 0.2194190148728E+01
 0.2259208913481E+01
 0.2323829375365E+01
 0.2385742297000E+01
 0.2442794111633E+01
 0.2493178377405E+01
 0.2535553656073E+01
 0.2569075499356E+01
 0.2593354622020E+01
 0.2608368563477E+01
 0.2614356041538E+01
 0.2611716716216E+01
 0.2600930168830E+01
 0.2582499783129E+01
 0.2556921780417E+01
 0.2524676736340E+01
 0.2486239733011E+01
 0.2442106938391E+01
 0.2392833108734E+01
 0.2339080025054E+01
 0.2281674138644E+01
 0.2221669191137E+01
 0.2160415977558E+01
 0.2099641798029E+01
 0.2041552965774E+01
 0.1988934710523E+01
 0.1945236945478E+01
 0.1914681864313E+01
 0.1902379571922E+01
 0.1914391160185E+01
 0.1957629284198E+01
 0.2039454694391E+01
 0.2166870291022E+01
 0.2345360576602E+01
 0.2577635603374E+01
 0.2862579270546E+01
 0.3194595498230E+01
 0.3563528849986E+01
 0.3955235825249E+01
 0.4352783370003E+01
 0.4738098678496E+01
 0.2262973094143E+01
 0.2331347418552E+01
 0.2399323263992E+01
 0.2464384984371E+01
 0.2524200780300E+01
 0.2576843717166E+01
 0.2620921390460E+01
 0.2655602389822E+01
 0.2680557560498E+01
 0.2695850794492E+01
 0.2701814352861E+01
 0.2698934441120E+01
 0.2687761423773E+01
 0.2668849493687E+01
 0.2642724658613E+01
 0.2609877067296E+01
 0.2570772877954E+01
 0.2525882934960E+01
 0.2475722471098E+01
 0.2420901870810E+01
 0.2362186824766E+01
 0.2300563683683E+01
 0.2237312294591E+01
 0.2174089685424E+01
 0.2113040528788E+01
 0.2056902495436E+01
 0.2009093413599E+01
 0.1973826655960E+01
 0.1956246918021E+01
 0.1962530178030E+01
 0.1999837869463E+01
 0.2075969480634E+01
 0.2198579845938E+01
 0.2373964941837E+01
 0.2605661940183E+01
 0.2893198602402E+01
 0.3231243235640E+01
 0.3609392018702E+01
 0.4012715988885E+01
 0.4423059065404E+01
 0.4820882024489E+01
 0.2332035991158E+01
 0.2403940533164E+01
 0.2475438636518E+01
 0.2543787790428E+01
 0.2606463240674E+01
 0.2661412742402E+01
 0.2707198210026E+01
 0.2743013764017E+01
 0.2768605996001E+01
 0.2784140295270E+01
 0.2790054874379E+01
 0.2786931264806E+01
 0.2775395857021E+01
 0.2756055942813E+01
 0.2729467347229E+01
 0.2696128141239E+01
 0.2656492599257E+01
 0.2611002137899E+01
 0.2560127230248E+01
 0.2504420406344E+01
 0.2444578775169E+01
 0.2381511961709E+01
 0.2316417864681E+01
 0.2250870490657E+01
 0.2186938577974E+01
 0.2127296557300E+01
 0.2075312944863E+01
 0.2035173471582E+01
 0.2012037515664E+01
 0.2012177005412E+01
 0.2042989988334E+01
 0.2112721347218E+01
 0.2229720353603E+01
 0.2401185244413E+01
 0.2631613373546E+01
 0.2921321298619E+01
 0.3265352509208E+01
 0.3653088131068E+01
 0.4068748232518E+01
 0.4492802590857E+01
 0.4904047404087E+01
 0.2401407651330E+01
 0.2477031695348E+01
 0.2552231744697E+01
 0.2624014199179E+01
 0.2689644510000E+01
 0.2746940454911E+01
 0.2794425544339E+01
 0.2831334752404E+01
 0.2857508724641E+01
 0.2873231459456E+01
 0.2879060623379E+01
 0.2875682224458E+01
 0.2863803836249E+01
 0.2844087857139E+01
 0.2817119671013E+01
 0.2783403431940E+01
 0.2743378524648E+01
 0.2697452925567E+01
 0.2646047310837E+01
 0.2589650161768E+01
 0.2528882464459E+01
 0.2464568025160E+01
 0.2397811927181E+01
 0.2330092335653E+01
 0.2263387380090E+01
 0.2200291758629E+01
 0.2144106052505E+01
 0.2098967355275E+01
 0.2070026583715E+01
 0.2063627930581E+01
 0.2087387165068E+01
 0.2149992958749E+01
 0.2260524708008E+01
 0.2427174108825E+01
 0.2655544566026E+01
 0.2946910923785E+01
 0.3296830640965E+01
 0.3694521967111E+01
 0.4123288329902E+01
 0.4562056584529E+01
 0.4987738636439E+01
 0.2471119368914E+01
 0.2550668324624E+01
 0.2629763922166E+01
 0.2705132821673E+01
 0.2773811503688E+01
 0.2833483535138E+01
 0.2882643863307E+01
 0.2920587036150E+01
 0.2947269119705E+01
 0.2963111921851E+01
 0.2968807094330E+01
 0.2965154484243E+01
 0.2952947748588E+01
 0.2932905981660E+01
 0.2905643495683E+01
 0.2871668471165E+01
 0.2831402366862E+01
 0.2785215847859E+01
 0.2733475029100E+01
 0.2676598504356E+01
 0.2615123982961E+01
 0.2549780724635E+01
 0.2481570403126E+01
 0.2411862601422E+01
 0.2342529927985E+01
 0.2276070151524E+01
 0.2215695932753E+01
 0.2165472481967E+01
 0.2130515664386E+01
 0.2117213109876E+01
 0.2133371930937E+01
 0.2188113215021E+01
 0.2291272905778E+01
 0.2452125244421E+01
 0.2677537901695E+01
 0.2969941456475E+01
 0.3325580777506E+01
 0.3733588708418E+01
 0.4176287628121E+01
 0.4630870149338E+01
 0.5072118949852E+01
 0.2541205469314E+01
 0.2624902674059E+01
 0.2708102618922E+01
 0.2787218354062E+01
 0.2859035658512E+01
 0.2921100497258E+01
 0.2971892391233E+01
 0.3010788258630E+01
 0.3037884410899E+01
 0.3053761845024E+01
 0.3059261634287E+01
 0.3055306824075E+01
 0.3042781585975E+01
 0.3022462721477E+01
 0.2994992376497E+01
 0.2960880454150E+01
 0.2920527440476E+01
 0.2874263015354E+01
 0.2822394322306E+01
 0.2765264683431E+01
 0.2703321880123E+01
 0.2637192397437E+01
 0.2567764336193E+01
 0.2496286215835E+01
 0.2424510161033E+01
 0.2354819273757E+01
 0.2290317043962E+01
 0.2234971287336E+01
 0.2193832618272E+01
 0.2173297778454E+01
 0.2181330632719E+01
 0.2227461991460E+01
 0.2322298687347E+01
 0.2476281087359E+01
 0.2697710236211E+01
 0.2990401078132E+01
 0.3351501962780E+01
 0.3770171901775E+01
 0.4227691765481E+01
 0.4699298948983E+01
 0.5157371064481E+01
 0.2611703966035E+01
 0.2699792853129E+01
 0.2787322632506E+01
 0.2870352691614E+01
 0.2945393619488E+01
 0.3009851809640E+01
 0.3062208723090E+01
 0.3101951326232E+01
 0.3129344880817E+01
 0.3145153171756E+01
 0.3150382834980E+01
 0.3146089186969E+01
 0.3133250618114E+01
 0.3112701887722E+01
 0.3085111317408E+01
 0.3050987954204E+01
 0.3010708280405E+01
 0.2964557577732E+01
 0.2912780050590E+01
 0.2855638925875E+01
 0.2793486030703E+01
 0.2726837490634E+01
 0.2656458275018E+01
 0.2583463826766E+01
 0.2509471007264E+01
 0.2436730203036E+01
 0.2368213394658E+01
 0.2307763291153E+01
 0.2260331351175E+01
 0.2232283301008E+01
 0.2231696279822E+01
 0.2268475254259E+01
 0.2353997069621E+01
 0.2499941923920E+01
 0.2716221430504E+01
 0.3008297354070E+01
 0.3374489521620E+01
 0.3804140798290E+01
 0.4277439181214E+01
 0.4767406001362E+01
 0.5243697052239E+01
 0.2682657347083E+01
 0.2775404047767E+01
 0.2867507554015E+01
 0.2954626188329E+01
 0.3032967940658E+01
 0.3099799897466E+01
 0.3153628242272E+01
 0.3194083495121E+01
 0.3221632880325E+01
 0.3237248750316E+01
 0.3242119850159E+01
 0.3237442190729E+01
 0.3224291052504E+01
 0.3203558438818E+01
 0.3175936522664E+01
 0.3141930618740E+01
 0.3101890224750E+01
 0.3056053144631E+01
 0.3004597215000E+01
 0.2947701417052E+01
 0.2885616349719E+01
 0.2818740988032E+01
 0.2747708403746E+01
 0.2673489655246E+01
 0.2597552026202E+01
 0.2521995128670E+01
 0.2449636276766E+01
 0.2384163328075E+01
 0.2330390972513E+01
 0.2294607763855E+01
 0.2284951152212E+01
 0.2311650319159E+01
 0.2386832643899E+01
 0.2523476568752E+01
 0.2733284987597E+01
 0.3023664231672E+01
 0.3394435879326E+01
 0.3835346523995E+01
 0.4325458776044E+01
 0.4835263333413E+01
 0.5331317333819E+01
 0.2754113527757E+01
 0.2851809993192E+01
 0.2948751487460E+01
 0.3040139096875E+01
 0.3121847799313E+01
 0.3191009002417E+01
 0.3246183312004E+01
 0.3287185231610E+01
 0.3314721673268E+01
 0.3330001363940E+01
 0.3334411684524E+01
 0.3329296659276E+01
 0.3315829741798E+01
 0.3294958280322E+01
 0.3267395206563E+01
 0.3233638914985E+01
 0.3194009033084E+01
 0.3148693223253E+01
 0.3097800169607E+01
 0.3041421248766E+01
 0.2979701441477E+01
 0.2912916729354E+01
 0.2841560509895E+01
 0.2766449114388E+01
 0.2688886728385E+01
 0.2610804498085E+01
 0.2534841473241E+01
 0.2464499179662E+01
 0.2404414344053E+01
 0.2360746042747E+01
 0.2341629096311E+01
 0.2357551197337E+01
 0.2421348659473E+01
 0.2547334820267E+01
 0.2749181328112E+01
 0.3036571646943E+01
 0.3411232419251E+01
 0.3863616705153E+01
 0.4371665881371E+01
 0.4902955206907E+01
 0.5420468623306E+01
 0.2826127009692E+01
 0.2929094766700E+01
 0.3031161108920E+01
 0.3127003221297E+01
 0.3212129709567E+01
 0.3283544856564E+01
 0.3339902199054E+01
 0.3381248828468E+01
 0.3408574123344E+01
 0.3423352703079E+01
 0.3427186509830E+01
 0.3421573238677E+01
 0.3407784008469E+01
 0.3386818196341E+01
 0.3359405536952E+01
 0.3326034003856E+01
 0.3286990621985E+01
 0.3242410758013E+01
 0.3192331916646E+01
 0.3136755427029E+01
 0.3075717279228E+01
 0.3009365721131E+01
 0.2938047889739E+01
 0.2862416290404E+01
 0.2783599656300E+01
 0.2703343800317E+01
 0.2624085966064E+01
 0.2549108584721E+01
 0.2482825941892E+01
 0.2431209223755E+01
 0.2402317360501E+01
 0.2406813879509E+01
 0.2458176804177E+01
 0.2572061814794E+01
 0.2764274201200E+01
 0.3047138658196E+01
 0.3424773394317E+01
 0.3888748257744E+01
 0.4415954606338E+01
 0.4970583547241E+01
 0.5511400024463E+01
 0.2898760301447E+01
 0.3007354969428E+01
 0.3114858115654E+01
 0.3215343766562E+01
 0.3303918139684E+01
 0.3377474023104E+01
 0.3434807571776E+01
 0.3476256635416E+01
 0.3503141102836E+01
 0.3517232173274E+01
 0.3520360902433E+01
 0.3514181984589E+01
 0.3500061461196E+01
 0.3479045772943E+01
 0.3451876558922E+01
 0.3419027574851E+01
 0.3380750737304E+01
 0.3337127578631E+01
 0.3288123278254E+01
 0.3233647721009E+01
 0.3173625685612E+01
 0.3108074199301E+01
 0.3037188941361E+01
 0.2961451024594E+01
 0.2881802950369E+01
 0.2799789687465E+01
 0.2717623812286E+01
 0.2638335251401E+01
 0.2566068607480E+01
 0.2506542919828E+01
 0.2467657513067E+01
 0.2460151141157E+01
 0.2498047369822E+01
 0.2598314245336E+01
 0.2779030683895E+01
 0.3055551110355E+01
 0.3434963526043E+01
 0.3910498815819E+01
 0.4458182796462E+01
 0.5038274834201E+01
 0.5604364970292E+01
 0.2972085679603E+01
 0.3086702425308E+01
 0.3199982193247E+01
 0.3305301454051E+01
 0.3397326032290E+01
 0.3472862877740E+01
 0.3530914576315E+01
 0.3572178967298E+01
 0.3598359746671E+01
 0.3611555706763E+01
 0.3613839198585E+01
 0.3607022134901E+01
 0.3592560029622E+01
 0.3571539552683E+01
 0.3544708351598E+01
 0.3512521910446E+01
 0.3475194848754E+01
 0.3432754060285E+01
 0.3385092267201E+01
 0.3332027695090E+01
 0.3273372976120E+01
 0.3209011826086E+01
 0.3138984846466E+01
 0.3063596010923E+01
 0.2983592818257E+01
 0.2900305839662E+01
 0.2815701556845E+01
 0.2732524172510E+01
 0.2654599392993E+01
 0.2587324579896E+01
 0.2538345446312E+01
 0.2518356807647E+01
 0.2541799730223E+01
 0.2626878545061E+01
 0.2794045379421E+01
 0.3062084964364E+01
 0.3441731526977E+01
 0.3928580119318E+01
 0.4498144993557E+01
 0.5106185032765E+01
 0.5699603828811E+01
 0.3046187384187E+01
 0.3167267516963E+01
 0.3286694580341E+01
 0.3397034860486E+01
 0.3492475053047E+01
 0.3569775995460E+01
 0.3628228268838E+01
 0.3668971514298E+01
 0.3694151417038E+01
 0.3706224461239E+01
 0.3707512848245E+01
 0.3699981933551E+01
 0.3685168064337E+01
 0.3664189247698E+01
 0.3637792227281E+01
 0.3606409972022E+01
 0.3570218041892E+01
 0.3529188753633E+01
 0.3483143396778E+01
 0.3431809646763E+01
 0.3374888472022E+01
 0.3312129713290E+01
 0.3243417020503E+01
 0.3168873576116E+01
 0.3089045558634E+01
 0.3005038200474E+01
 0.2918552768857E+01
 0.2832015766744E+01
 0.2748883935466E+01
 0.2674159130502E+01
 0.2615129745514E+01
 0.2582308762138E+01
 0.2590392481569E+01
 0.2658690679303E+01
 0.2810069113708E+01
 0.3067136419455E+01
 0.3445050820864E+01
 0.3942660177256E+01
 0.4535532221908E+01
 0.5174488871521E+01
 0.5797293242233E+01
 0.3121164398433E+01
 0.3249203341808E+01
 0.3375182391576E+01
 0.3490722988351E+01
 0.3589495426941E+01
 0.3668273766855E+01
 0.3726740284686E+01
 0.3766572225461E+01
 0.3790419421255E+01
 0.3801123485365E+01
 0.3801259857451E+01
 0.3792938593410E+01
 0.3777764585035E+01
 0.3756876091415E+01
 0.3731011053268E+01
 0.3700575590626E+01
 0.3665704995388E+01
 0.3626318077859E+01
 0.3582167028530E+01
 0.3532891555380E+01
 0.3478082996016E+01
 0.3417358396094E+01
 0.3350444467985E+01
 0.3277282291641E+01
 0.3198213296469E+01
 0.3114109735384E+01
 0.3026391826054E+01
 0.2937138904334E+01
 0.2849389302309E+01
 0.2767672737833E+01
 0.2698808057745E+01
 0.2652970244511E+01
 0.2644912772235E+01
 0.2694857222800E+01
 0.2828042674430E+01
 0.3071260043376E+01
 0.3444969105005E+01
 0.3952377986200E+01
 0.4569900688162E+01
 0.5243336327622E+01
 0.5897355659455E+01
 0.3197134031981E+01
 0.3332690861389E+01
 0.3465663949568E+01
 0.3586568023339E+01
 0.3688525162197E+01
 0.3768409019726E+01
 0.3826424622520E+01
 0.3864897672565E+01
 0.3887046580109E+01
 0.3896120489373E+01
 0.3894944466653E+01
 0.3885758542323E+01
 0.3870219817309E+01
 0.3849473469820E+01
 0.3824239842402E+01
 0.3794893917309E+01
 0.3761530208985E+01
 0.3724016253398E+01
 0.3682038945666E+01
 0.3635154241182E+01
 0.3582847563426E+01
 0.3524605986614E+01
 0.3460001291798E+01
 0.3388793686159E+01
 0.3311119714062E+01
 0.3227615000666E+01
 0.3139407211211E+01
 0.3048203009725E+01
 0.2956575360056E+01
 0.2868504523348E+01
 0.2790221053830E+01
 0.2731388815230E+01
 0.2706584172432E+01
 0.2736676950978E+01
 0.2849135917460E+01
 0.3075216702601E+01
 0.3441645842097E+01
 0.3957379463555E+01
 0.4600631251689E+01
 0.5313030032055E+01
 0.5998274843404E+01
 0.3274239025488E+01
 0.3417956271068E+01
 0.3558413992698E+01
 0.3684825773492E+01
 0.3789744752453E+01
 0.3870266917611E+01
 0.3927284361009E+01
 0.3963897562533E+01
 0.3983957659213E+01
 0.3991135855221E+01
 0.3988494384184E+01
 0.3978381749293E+01
 0.3962486758380E+01
 0.3941946112537E+01
 0.3917453135357E+01
 0.3889347692369E+01
 0.3857683949634E+01
 0.3822281782460E+01
 0.3782768267291E+01
 0.3738621616017E+01
 0.3689226810571E+01
 0.3633945464645E+01
 0.3572198261078E+01
 0.3503568125754E+01
 0.3427989795562E+01
 0.3345862708276E+01
 0.3258015097488E+01
 0.3165759905294E+01
 0.3071160946222E+01
 0.2977571797012E+01
 0.2890509936829E+01
 0.2818937694984E+01
 0.2776981873065E+01
 0.2785821175602E+01
 0.2874885252490E+01
 0.3080068553969E+01
 0.3435387142523E+01
 0.3957337128513E+01
 0.4627266242880E+01
 0.5382712255964E+01
 0.6108557702239E+01
 0.3352645556049E+01
 0.3505258135715E+01
 0.3653733090799E+01
 0.3785752894329E+01
 0.3893301036084E+01
 0.3973869080712E+01
 0.4029240626978E+01
 0.4063431765408E+01
 0.4080985743445E+01
 0.4085998293379E+01
 0.4081744979691E+01
 0.4070653420852E+01
 0.4054419200023E+01
 0.4034153147823E+01
 0.4010511664123E+01
 0.3983795956008E+01
 0.3954021318732E+01
 0.3920965090943E+01
 0.3884201863460E+01
 0.3843140152506E+01
 0.3797072002850E+01
 0.3745240034552E+01
 0.3686919781248E+01
 0.3621523273177E+01
 0.3548790475378E+01
 0.3468890388706E+01
 0.3382351426139E+01
 0.3290078964899E+01
 0.3193590998501E+01
 0.3095542554676E+01
 0.3000613507877E+01
 0.2916863047042E+01
 0.2857661618114E+01
 0.2844076898442E+01
 0.2907077643385E+01
 0.3087179165132E+01
 0.3426721356141E+01
 0.3951826075630E+01
 0.4649432289773E+01
 0.5450871008197E+01
 0.6238166156626E+01
 0.3432557476009E+01
 0.3594901808168E+01
 0.3751961476624E+01
 0.3889612556030E+01
 0.3999304594909E+01
 0.4079166830259E+01
 0.4132126168571E+01
 0.4163266443900E+01
 0.4177871064668E+01
 0.4180445549112E+01
 0.4174440950632E+01
 0.4162325943644E+01
 0.4145773513507E+01
 0.4125849461116E+01
 0.4103163093287E+01
 0.4077973994865E+01
 0.4050261200730E+01
 0.4019766233483E+01
 0.3986020535422E+01
 0.3948373245586E+01
 0.3906033284592E+01
 0.3858132958449E+01
 0.3803810949234E+01
 0.3742317907362E+01
 0.3673210653168E+01
 0.3596439940979E+01
 0.3512242329128E+01
 0.3421111935415E+01
 0.3323995889947E+01
 0.3222790780905E+01
 0.3121223369204E+01
 0.3026246887465E+01
 0.2950142980468E+01
 0.2913370319162E+01
 0.2947836983539E+01
 0.3098391045168E+01
 0.3416569140959E+01
 0.3940709087409E+01
 0.4665939488615E+01
 0.5520269476088E+01
 0.6373907983853E+01
 0.3514225983564E+01
 0.3687270987432E+01
 0.3853522307965E+01
 0.3996724585683E+01
 0.4107887991918E+01
 0.4186113237657E+01
 0.4235775462279E+01
 0.4263182953494E+01
 0.4274387215698E+01
 0.4274266123102E+01
 0.4266392416693E+01
 0.4253229071627E+01
 0.4236393330528E+01
 0.4216885741248E+01
 0.4195258614184E+01
 0.4171727869561E+01
 0.4146240233769E+01
 0.4118509877914E+01
 0.4088036586423E+01
 0.4054122872094E+01
 0.4015906748119E+01
 0.3972420990877E+01
 0.3922677696388E+01
 0.3865778226976E+01
 0.3801111951974E+01
 0.3728429649534E+01
 0.3647692232080E+01
 0.3558989357462E+01
 0.3462685190764E+01
 0.3359873018906E+01
 0.3253225509313E+01
 0.3148393775164E+01
 0.3056221511639E+01
 0.2995989156353E+01
 0.2999761106404E+01
 0.3116088259840E+01
 0.3406319608020E+01
 0.3923878258513E+01
 0.4676218168978E+01
 0.5590325234465E+01
 0.6517480186499E+01
 0.3597963004122E+01
 0.3782838345113E+01
 0.3958919052851E+01
 0.4107439162789E+01
 0.4219158572638E+01
 0.4294604872291E+01
 0.4339962785072E+01
 0.4362914376900E+01
 0.4370275129024E+01
 0.4367228962610E+01
 0.4357398953565E+01
 0.4343187389331E+01
 0.4326119779693E+01
 0.4307110913440E+01
 0.4286646974524E+01
 0.4264899367650E+01
 0.4241787922611E+01
 0.4217009740225E+01
 0.4190046722672E+01
 0.4160170181268E+01
 0.4126462125133E+01
 0.4087868837857E+01
 0.4043287948818E+01
 0.3991685914429E+01
 0.3932304196279E+01
 0.3864717994678E+01
 0.3788637472707E+01
 0.3703766261877E+01
 0.3609888932882E+01
 0.3507270708349E+01
 0.3397452627990E+01
 0.3284607513852E+01
 0.3177791185181E+01
 0.3094479237663E+01
 0.3065922090363E+01
 0.3143334052636E+01
 0.3398000752457E+01
 0.3901544633165E+01
 0.4679333612411E+01
 0.5660105530611E+01
 0.6670451365073E+01
 0.3684160530048E+01
 0.3882191870809E+01
 0.4068751672957E+01
 0.4222131140658E+01
 0.4333178033513E+01
 0.4404460772831E+01
 0.4444388644726E+01
 0.4462139833127E+01
 0.4465242425925E+01
 0.4459085150295E+01
 0.4447252029943E+01
 0.4432022779652E+01
 0.4414793737505E+01
 0.4396374131130E+01
 0.4377176234416E+01
 0.4357327539235E+01
 0.4336727919195E+01
 0.4315069507320E+01
 0.4291832465699E+01
 0.4266275256542E+01
 0.4237441843296E+01
 0.4204207549906E+01
 0.4165369404614E+01
 0.4119775219005E+01
 0.4066541498962E+01
 0.4005098139227E+01
 0.3934938179390E+01
 0.3855409918341E+01
 0.3765739172424E+01
 0.3665363262816E+01
 0.3554647278259E+01
 0.3436146279569E+01
 0.3316800960110E+01
 0.3211622500274E+01
 0.3149901412528E+01
 0.3184004937313E+01
 0.3394535179174E+01
 0.3874374073405E+01
 0.4673985228554E+01
 0.5728542200122E+01
 0.6834573297160E+01
 0.3773317890011E+01
 0.3986070521711E+01
 0.4183734939525E+01
 0.4341186974014E+01
 0.4449932295962E+01
 0.4515395703209E+01
 0.4548665062141E+01
 0.4560479945230E+01
 0.4558964337432E+01
 0.4549570832779E+01
 0.4535738269792E+01
 0.4519557412475E+01
 0.4502258414316E+01
 0.4484527007162E+01
 0.4466695729985E+01
 0.4448850451913E+01
 0.4430879557277E+01
 0.4412484043520E+01
 0.4393160839613E+01
 0.4372177087304E+01
 0.4348560197251E+01
 0.4321132968229E+01
 0.4288607397064E+01
 0.4249730268979E+01
 0.4203518800929E+01
 0.4149293105673E+01
 0.4086370979297E+01
 0.4013788274183E+01
 0.3930251514020E+01
 0.3834399233670E+01
 0.3725419183487E+01
 0.3604165211231E+01
 0.3475190038191E+01
 0.3350388364070E+01
 0.3255801138722E+01
 0.3242933195858E+01
 0.3400054802182E+01
 0.3843761180448E+01
 0.4658651964568E+01
 0.5794285139892E+01
 0.7011926575888E+01
 0.3866080956243E+01
 0.4095413070765E+01
 0.4304717663730E+01
 0.4464979122048E+01
 0.4569287925763E+01
 0.4626987193427E+01
 0.4652300866557E+01
 0.4657494599909E+01
 0.4651086811848E+01
 0.4638411636184E+01
 0.4622643619714E+01
 0.4605617270757E+01
 0.4588362272556E+01
 0.4571426080723E+01
 0.4555058249105E+01
 0.4539307185166E+01
 0.4524059685310E+01
 0.4509040954181E+01
 0.4493785427542E+01
 0.4477593838567E+01
 0.4459502683615E+01
 0.4438304227204E+01
 0.4412642831118E+01
 0.4381182641390E+01
 0.4342868997451E+01
 0.4296951936144E+01
 0.4242623025283E+01
 0.4178659813535E+01
 0.4103307633571E+01
 0.4014466917645E+01
 0.3910198125564E+01
 0.3789646579857E+01
 0.3654797863127E+01
 0.3513846746622E+01
 0.3388216143121E+01
 0.3326037165023E+01
 0.3420288897013E+01
 0.3812315840056E+01
 0.4631751524217E+01
 0.5855523181501E+01
 0.7205053490223E+01
 0.3963299819208E+01
 0.4211425709390E+01
 0.4432699653715E+01
 0.4593819573642E+01
 0.4690930367122E+01
 0.4738636744960E+01
 0.4754689092301E+01
 0.4752684463681E+01
 0.4741232411403E+01
 0.4725328732469E+01
 0.4707758427009E+01
 0.4690036169292E+01
 0.4672962220674E+01
 0.4656935465586E+01
 0.4642122372335E+01
 0.4628540030768E+01
 0.4616084788004E+01
 0.4604522531369E+01
 0.4593447851650E+01
 0.4582223466502E+01
 0.4569925488181E+01
 0.4555342215823E+01
 0.4537070042572E+01
 0.4513709064008E+01
 0.4484160640901E+01
 0.4447647008400E+01
 0.4403287734977E+01
 0.4349665497329E+01
 0.4284639846259E+01
 0.4205466011976E+01
 0.4109184545729E+01
 0.3993319287418E+01
 0.3857246436552E+01
 0.3705029574810E+01
 0.3552142209948E+01
 0.3440409703326E+01
 0.3463027507025E+01
 0.3784606173926E+01
 0.4591933398247E+01
 0.5909746819962E+01
 0.7417119337087E+01
 0.4066115850464E+01
 0.4335676347315E+01
 0.4568839078344E+01
 0.4727879099069E+01
 0.4814278689571E+01
 0.4849527497629E+01
 0.4855099886837E+01
 0.4845497993285E+01
 0.4829009510488E+01
 0.4810046631428E+01
 0.4790883385271E+01
 0.4772660196323E+01
 0.4755927015810E+01
 0.4740929622559E+01
 0.4727754932688E+01
 0.4716396867536E+01
 0.4706773392501E+01
 0.4698708124762E+01
 0.4691879771986E+01
 0.4685744785263E+01
 0.4679455157891E+01
 0.4671827900502E+01
 0.4661434382740E+01
 0.4646829062666E+01
 0.4626896176379E+01
 0.4600872698981E+01
 0.4567862691226E+01
 0.4526323515275E+01
 0.4473818893444E+01
 0.4407082273667E+01
 0.4322300948058E+01
 0.4215571684159E+01
 0.4083796440521E+01
 0.3926728810818E+01
 0.3752783513409E+01
 0.3594318247303E+01
 0.3538624519503E+01
 0.3768249816097E+01
 0.4538674219077E+01
 0.5953445980328E+01
 0.7652143045993E+01
 0.4176097005665E+01
 0.4470226691730E+01
 0.4714434382752E+01
 0.4867051117318E+01
 0.4938372389708E+01
 0.4958584271468E+01
 0.4952683917636E+01
 0.4935345671822E+01
 0.4914025081984E+01
 0.4892302667474E+01
 0.4871836262465E+01
 0.4853352498429E+01
 0.4837140818657E+01
 0.4823296220053E+01
 0.4811833573899E+01
 0.4802733706697E+01
 0.4795948786271E+01
 0.4791377027867E+01
 0.4788805582412E+01
 0.4787819211307E+01
 0.4787688607449E+01
 0.4787300469643E+01
 0.4785229317625E+01
 0.4780002329897E+01
 0.4770510677646E+01
 0.4756045680701E+01
 0.4735750305104E+01
 0.4708027726122E+01
 0.4670246263194E+01
 0.4618767468301E+01
 0.4549148109205E+01
 0.4456364137017E+01
 0.4335184730137E+01
 0.4181226236444E+01
 0.3995214008398E+01
 0.3797034397178E+01
 0.3660463563541E+01
 0.3775447982689E+01
 0.4473476204560E+01
 0.5981758653751E+01
 0.7915340721022E+01
 0.4295455127431E+01
 0.4617816590074E+01
 0.4870847285268E+01
 0.5010727933147E+01
 0.5061730380407E+01
 0.5064447986286E+01
 0.5046492521286E+01
 0.5021622567149E+01
 0.4995900950324E+01
 0.4971857978471E+01
 0.4950459214476E+01
 0.4931998253440E+01
 0.4916506785635E+01
 0.4903938992045E+01
 0.4894249329676E+01
 0.4887417338694E+01
 0.4883441997515E+01
 0.4882311894675E+01
 0.4883945942342E+01
 0.4888093425948E+01
 0.4894193624418E+01
 0.4901255172190E+01
 0.4907892600399E+01
 0.4912625290558E+01
 0.4914370800979E+01
 0.4912507001456E+01
 0.4906261757721E+01
 0.4894050513293E+01
 0.4873152075578E+01
 0.4839726664443E+01
 0.4788970412866E+01
 0.4715149417009E+01
 0.4611457292157E+01
 0.4469966328300E+01
 0.4283849867528E+01
 0.4058356104285E+01
 0.3845237720840E+01
 0.3825000043889E+01
 0.4402204197134E+01
 0.5988175033722E+01
 0.8213661650428E+01
 0.4427408290179E+01
 0.4782116344854E+01
 0.5039296924142E+01
 0.5157443304406E+01
 0.5182195785498E+01
 0.5165485467684E+01
 0.5135520506313E+01
 0.5103738912334E+01
 0.5074293036026E+01
 0.5048509648579E+01
 0.5026626418227E+01
 0.5008509666041E+01
 0.4993950593501E+01
 0.4982780521655E+01
 0.4974909169089E+01
 0.4970328032158E+01
 0.4969094998480E+01
 0.4971302709711E+01
 0.4977022342932E+01
 0.4986203369152E+01
 0.4998510264236E+01
 0.5013140828865E+01
 0.5028800963698E+01
 0.5044026123753E+01
 0.5057773569019E+01
 0.5069526196947E+01
 0.5078624959777E+01
 0.5083550932437E+01
 0.5081599468346E+01
 0.5068914664635E+01
 0.5040634931788E+01
 0.4990810301493E+01
 0.4911816756598E+01
 0.4793208049019E+01
 0.4621725442568E+01
 0.4387621723217E+01
 0.4112746482063E+01
 0.3944675213052E+01
 0.4339463588564E+01
 0.5964666378178E+01
 0.8556685827783E+01
 0.4576811784017E+01
 0.4968052498751E+01
 0.5220379104275E+01
 0.5304325613100E+01
 0.5296812440694E+01
 0.5259865300316E+01
 0.5218773005204E+01
 0.5181156553345E+01
 0.5148912964572E+01
 0.5122103463794E+01
 0.5100251659465E+01
 0.5082830784398E+01
 0.5069423761386E+01
 0.5059764855382E+01
 0.5053738428151E+01
 0.5051362202850E+01
 0.5052764036798E+01
 0.5058151247178E+01
 0.5067762854106E+01
 0.5081780098127E+01
 0.5100153792099E+01
 0.5122357096258E+01
 0.5147262480533E+01
 0.5173456984989E+01
 0.5199944256145E+01
 0.5226307680350E+01
 0.5251997418484E+01
 0.5275589046307E+01
 0.5294496050061E+01
 0.5305042398384E+01
 0.5302628163486E+01
 0.5281624821890E+01
 0.5234503796014E+01
 0.5149712302564E+01
 0.5009655097301E+01
 0.4792006559928E+01
 0.4484596120317E+01
 0.4173504028105E+01
 0.4316336409448E+01
 0.5903346316985E+01
 0.8958292787019E+01
 0.4751314632825E+01
 0.5182158300072E+01
 0.5413005168186E+01
 0.5446328739032E+01
 0.5401846097107E+01
 0.5345729899587E+01
 0.5295346565458E+01
 0.5253428774817E+01
 0.5219551345484E+01
 0.5192546352135E+01
 0.5171295491856E+01
 0.5154941897161E+01
 0.5142906610688E+01
 0.5134859834590E+01
 0.5130683024173E+01
 0.5130434940902E+01
 0.5134322946649E+01
 0.5142675834210E+01
 0.5155909059316E+01
 0.5174458158862E+01
 0.5198620302156E+01
 0.5228251873754E+01
 0.5262505333106E+01
 0.5300081339813E+01
 0.5340032155718E+01
 0.5381999720306E+01
 0.5425485198609E+01
 0.5469147468975E+01
 0.5510612578252E+01
 0.5546592815146E+01
 0.5573071870222E+01
 0.5585270818897E+01
 0.5576731324243E+01
 0.5536514203822E+01
 0.5445497203660E+01
 0.5274109751786E+01
 0.4980637927996E+01
 0.4562900989625E+01
 0.4392792737744E+01
 0.5802776377368E+01
 0.9440223674706E+01
 0.4963615719104E+01
 0.5432683463802E+01
 0.5612126878731E+01
 0.5575362556363E+01
 0.5493174527506E+01
 0.5421451607960E+01
 0.5364502233889E+01
 0.5320245256555E+01
 0.5286100511233E+01
 0.5259817512086E+01
 0.5239771682333E+01
 0.5224863246220E+01
 0.5214410758744E+01
 0.5208059069570E+01
 0.5205711395812E+01
 0.5207482329181E+01
 0.5213666331505E+01
 0.5224716185910E+01
 0.5241223986300E+01
 0.5263887217852E+01
 0.5293397063092E+01
 0.5330120161030E+01
 0.5373661311112E+01
 0.5422953062120E+01
 0.5477102505487E+01
 0.5535706831390E+01
 0.5598169893687E+01
 0.5663161830437E+01
 0.5728608920312E+01
 0.5791844868246E+01
 0.5849755994953E+01
 0.5898878154754E+01
 0.5934704947003E+01
 0.5948782093197E+01
 0.5923783756693E+01
 0.5829545148000E+01
 0.5611579626476E+01
 0.5173554317615E+01
 0.4674654102783E+01
 0.5687294013231E+01
 0.1004103053133E+02
 0.5236228574166E+01
 0.5728355675873E+01
 0.5804005354330E+01
 0.5680049977911E+01
 0.5567336386789E+01
 0.5485823170490E+01
 0.5425731413332E+01
 0.5381485294679E+01
 0.5348570669456E+01
 0.5323978729865E+01
 0.5305752153248E+01
 0.5292657890411E+01
 0.5283981002763E+01
 0.5279383461633E+01
 0.5278816086553E+01
 0.5282463446444E+01
 0.5290712474476E+01
 0.5304137988614E+01
 0.5323500333885E+01
 0.5349747232744E+01
 0.5383980848757E+01
 0.5427207554470E+01
 0.5479741540767E+01
 0.5540981257342E+01
 0.5610121862058E+01
 0.5686507198059E+01
 0.5769146168773E+01
 0.5856562297330E+01
 0.5947067902815E+01
 0.6038900860052E+01
 0.6130186049992E+01
 0.6219118939051E+01
 0.6303784929244E+01
 0.6379780801849E+01
 0.6435622335534E+01
 0.6446357697560E+01
 0.6367887315122E+01
 0.6059138048339E+01
 0.5331467188003E+01
 0.5660207817962E+01
 0.1084247434306E+02
 0.5612683009375E+01
 0.6071151163761E+01
 0.5957254497965E+01
 0.5748737510825E+01
 0.5622933911053E+01
 0.5537911998891E+01
 0.5478927278156E+01
 0.5437237088017E+01
 0.5407105876554E+01
 0.5385181845306E+01
 0.5369370019796E+01
 0.5358433636196E+01
 0.5351696455756E+01
 0.5348882242108E+01
 0.5350014929153E+01
 0.5355361998482E+01
 0.5365405852715E+01
 0.5380837058833E+01
 0.5402567891760E+01
 0.5431765882474E+01
 0.5469908995847E+01
 0.5518726408141E+01
 0.5579600984262E+01
 0.5652869368266E+01
 0.5737933404686E+01
 0.5833478960185E+01
 0.5937573643069E+01
 0.6048328429966E+01
 0.6164540259295E+01
 0.6285710933742E+01
 0.6411631177889E+01
 0.6542343275943E+01
 0.6678735178608E+01
 0.6821297981180E+01
 0.6968058087257E+01
 0.7107526364479E+01
 0.7213279540085E+01
 0.7218782400063E+01
 0.6600161324228E+01
 0.6030826842098E+01
 0.1206433017852E+02
 0.6188273733430E+01
 0.6421085083897E+01
 0.6013525515733E+01
 0.5781692016934E+01
 0.5658814315895E+01
 0.5577523518908E+01
 0.5524468308289E+01
 0.5487791942827E+01
 0.5462004967980E+01
 0.5443668199225E+01
 0.5430822099835E+01
 0.5422343253730E+01
 0.5417670984955E+01
 0.5416633372681E+01
 0.5419351741746E+01
 0.5426187461373E+01
 0.5437719015134E+01
 0.5454742824390E+01
 0.5478299537118E+01
 0.5509733086981E+01
 0.5550806646255E+01
 0.5603905296106E+01
 0.5671886974164E+01
 0.5757003507498E+01
 0.5859219564449E+01
 0.5975743152809E+01
 0.6102747332830E+01
 0.6237559314421E+01
 0.6379602873137E+01
 0.6530102033067E+01
 0.6691118193810E+01
 0.6864797533769E+01
 0.7053999353644E+01
 0.7264466457870E+01
 0.7504486813602E+01
 0.7788801590863E+01
 0.8107046990549E+01
 0.8514491718483E+01
 0.8692397744390E+01
 0.7517846247729E+01
 0.1447742984295E+02
 0.7216952196069E+01
 0.6503794929668E+01
 0.5959943097740E+01
 0.5787488184401E+01
 0.5672522317782E+01
 0.5606433760007E+01
 0.5562848624945E+01
 0.5533771091455E+01
 0.5513690304049E+01
 0.5499776631452E+01
 0.5490365763042E+01
 0.5484584210356E+01
 0.5482052534592E+01
 0.5482743366450E+01
 0.5486896446625E+01
 0.5494975729772E+01
 0.5507653699057E+01
 0.5525820637209E+01
 0.5550616385602E+01
 0.5583507957199E+01
 0.5626432112930E+01
 0.5682131374140E+01
 0.5754969304042E+01
 0.5851222766694E+01
 0.5972468289023E+01
 0.6112533142193E+01
 0.6264192804982E+01
 0.6423560379046E+01
 0.6590931754510E+01
 0.6769824146343E+01
 0.6965371542627E+01
 0.7182646868192E+01
 0.7424764551603E+01
 0.7699102703628E+01
 0.8030031888059E+01
 0.8449098462072E+01
 0.9025493790575E+01
 0.9738340175318E+01
 0.1127353802840E+02
 0.1125689919701E+02
 0.2188811402983E+02
 0.3658517723589E+00
 0.4723923746731E+00
 0.5809069893276E+00
 0.6868161947382E+00
 0.7874337432434E+00
 0.8805749225636E+00
 0.9649437857280E+00
 0.1040124084871E+01
 0.1106112013460E+01
 0.1163095236586E+01
 0.1211422320599E+01
 0.1251532086091E+01
 0.1283799788778E+01
 0.1308419118474E+01
 0.1325413823357E+01
 0.1334691229514E+01
 0.1335748134292E+01
 0.1328484913813E+01
 0.1314803745814E+01
 0.1297403694814E+01
 0.3667251931970E+00
 0.4832168516325E+00
 0.5995851841759E+00
 0.7124091820125E+00
 0.8191188520488E+00
 0.9179340648543E+00
 0.1007810706040E+01
 0.1088288357626E+01
 0.1159285999872E+01
 0.1220979639496E+01
 0.1273721230700E+01
 0.1317967206994E+01
 0.1354140748750E+01
 0.1382532214573E+01
 0.1403300398419E+01
 0.1416416197662E+01
 0.1421294813640E+01
 0.1417691490575E+01
 0.1404170627021E+01
 0.1378240786378E+01
 0.3669397352934E+00
 0.4941784771270E+00
 0.6187519480182E+00
 0.7385259577183E+00
 0.8514354052135E+00
 0.9559872560538E+00
 0.1051309781685E+01
 0.1136994540602E+01
 0.1212953909905E+01
 0.1279356393144E+01
 0.1336563524430E+01
 0.1385050338730E+01
 0.1425279696023E+01
 0.1457602314871E+01
 0.1482209908900E+01
 0.1499004742007E+01
 0.1507350920322E+01
 0.1506252123144E+01
 0.1493804943676E+01
 0.1470057807795E+01
 0.3670994484472E+00
 0.5049939770494E+00
 0.6381399454622E+00
 0.7650414326611E+00
 0.8842307809560E+00
 0.9945460686917E+00
 0.1095286984574E+01
 0.1186125328332E+01
 0.1267006690222E+01
 0.1338113466985E+01
 0.1399820443690E+01
 0.1452619266883E+01
 0.1496996707112E+01
 0.1533324011165E+01
 0.1561771190999E+01
 0.1582170135403E+01
 0.1593774012618E+01
 0.1595494591262E+01
 0.1586291074891E+01
 0.1566983197989E+01
 0.3673568315102E+00
 0.5157949095722E+00
 0.6576269646933E+00
 0.7918094480445E+00
 0.9173560772305E+00
 0.1033453137260E+01
 0.1139591998386E+01
 0.1235546191305E+01
 0.1321317098638E+01
 0.1397117268006E+01
 0.1463340154621E+01
 0.1520490033313E+01
 0.1569062977932E+01
 0.1609427539713E+01
 0.1641725355502E+01
 0.1665742977579E+01
 0.1680791566782E+01
 0.1686080338065E+01
 0.1681194663659E+01
 0.1667223785525E+01
 0.3678085549561E+00
 0.5266371562210E+00
 0.6771773439904E+00
 0.8187135088265E+00
 0.9506717484313E+00
 0.1072561577429E+01
 0.1184078656222E+01
 0.1285115304411E+01
 0.1375743977996E+01
 0.1456218525800E+01
 0.1526955329075E+01
 0.1588468797515E+01
 0.1641256514050E+01
 0.1685680155590E+01
 0.1721868739043E+01
 0.1749632977007E+01
 0.1768458966878E+01
 0.1777881788185E+01
 0.1777916874343E+01
 0.1769717469877E+01
 0.3685192408492E+00
 0.5375585674574E+00
 0.6967608698949E+00
 0.8456645352477E+00
 0.9840525331625E+00
 0.1111732334442E+01
 0.1228603280025E+01
 0.1334686976684E+01
 0.1430137326476E+01
 0.1515257193388E+01
 0.1590489433926E+01
 0.1656358761888E+01
 0.1713364291295E+01
 0.1761868404616E+01
 0.1802016737483E+01
 0.1833698400497E+01
 0.1856602812926E+01
 0.1870552555345E+01
 0.1875849053601E+01
 0.1873662108133E+01
 0.3695381375801E+00
 0.5485803290411E+00
 0.7163486015359E+00
 0.8725844048054E+00
 0.1017386052612E+01
 0.1150833952227E+01
 0.1273024996792E+01
 0.1384113867059E+01
 0.1484342112100E+01
 0.1574066947030E+01
 0.1653761183315E+01
 0.1723962730963E+01
 0.1785177574730E+01
 0.1837782277548E+01
 0.1881964971147E+01
 0.1917719449114E+01
 0.1944931719330E+01
 0.1963659340596E+01
 0.1974402544031E+01
 0.1978341827997E+01
 0.3709050749615E+00
 0.5597134680664E+00
 0.7359096783961E+00
 0.8994012748470E+00
 0.1050568657051E+01
 0.1189742122646E+01
 0.1317206566628E+01
 0.1433249006218E+01
 0.1538201313497E+01
 0.1632478610047E+01
 0.1716587246013E+01
 0.1791083022423E+01
 0.1856486707373E+01
 0.1913202388947E+01
 0.1961477582437E+01
 0.2001419248325E+01
 0.2033089532445E+01
 0.2056734659582E+01
 0.2072996951698E+01
 0.2083067017630E+01
 0.3726538015178E+00
 0.5709620831174E+00
 0.7554114478917E+00
 0.9260470022161E+00
 0.1083503244640E+01
 0.1228338777716E+01
 0.1361015019969E+01
 0.1481947391033E+01
 0.1591558135775E+01
 0.1690322391163E+01
 0.1778783506583E+01
 0.1857520544154E+01
 0.1927077102346E+01
 0.1987895209004E+01
 0.2040290833767E+01
 0.2084482484159E+01
 0.2120685209066E+01
 0.2149295622530E+01
 0.2171057605158E+01
 0.2187165857188E+01
 0.3748138499901E+00
 0.5823256879735E+00
 0.7748200746646E+00
 0.9524563488993E+00
 0.1116098157308E+01
 0.1266511744834E+01
 0.1404322275379E+01
 0.1530067407881E+01
 0.1644257830763E+01
 0.1747429576212E+01
 0.1840165980081E+01
 0.1923074426224E+01
 0.1996728147895E+01
 0.2061614133248E+01
 0.2118120240054E+01
 0.2166569972820E+01
 0.2207309207565E+01
 0.2240854129439E+01
 0.2268019048918E+01
 0.2289989860761E+01
 0.3774117150998E+00
 0.5938008378069E+00
 0.7941013630605E+00
 0.9785668990288E+00
 0.1148266815346E+01
 0.1304154710093E+01
 0.1447005724043E+01
 0.1577471956165E+01
 0.1696149084638E+01
 0.1803633802129E+01
 0.1900551648785E+01
 0.1987542472172E+01
 0.2065214209386E+01
 0.2134102841313E+01
 0.2194667881407E+01
 0.2247329160685E+01
 0.2292543811131E+01
 0.2330923113252E+01
 0.2363328365242E+01
 0.2390917521348E+01
 0.3804716148135E+00
 0.6053823544522E+00
 0.8132216179077E+00
 0.1004319403035E+01
 0.1179927834778E+01
 0.1341167501655E+01
 0.1488948892513E+01
 0.1624029480366E+01
 0.1747085251844E+01
 0.1858772289519E+01
 0.1959759619255E+01
 0.2050722522275E+01
 0.2132306965170E+01
 0.2205099614764E+01
 0.2269629136805E+01
 0.2326402360961E+01
 0.2375970747382E+01
 0.2419021283396E+01
 0.2456444902864E+01
 0.2489354782615E+01
 0.3840160429393E+00
 0.6170643196132E+00
 0.8321485348788E+00
 0.1029658384717E+01
 0.1211005481827E+01
 0.1377456621970E+01
 0.1530042205661E+01
 0.1669614980500E+01
 0.1796925539220E+01
 0.1912687130538E+01
 0.2017612577740E+01
 0.2112414380333E+01
 0.2197778334978E+01
 0.2274341764521E+01
 0.2342698639955E+01
 0.2403433509637E+01
 0.2457177557320E+01
 0.2504677816267E+01
 0.2546841904666E+01
 0.2584730255896E+01
 0.3880661652868E+00
 0.6288408837941E+00
 0.8508520397878E+00
 0.1054532833471E+01
 0.1241430261393E+01
 0.1412935868257E+01
 0.1570183746762E+01
 0.1714110948167E+01
 0.1845536110613E+01
 0.1965226578839E+01
 0.2073938384088E+01
 0.2172421969620E+01
 0.2261403534441E+01
 0.2341569818526E+01
 0.2413575511239E+01
 0.2478073979879E+01
 0.2535763471885E+01
 0.2587438199737E+01
 0.2634013252030E+01
 0.2676496122815E+01
 0.3926421397453E+00
 0.6407069961436E+00
 0.8693051450295E+00
 0.1078897017705E+01
 0.1271139678233E+01
 0.1447527114507E+01
 0.1609280134910E+01
 0.1757408383867E+01
 0.1892791275328E+01
 0.2016246468276E+01
 0.2128571847589E+01
 0.2230555662553E+01
 0.2322964165733E+01
 0.2406531478034E+01
 0.2481968084524E+01
 0.2549987825952E+01
 0.2611345043623E+01
 0.2666870662818E+01
 0.2717481164808E+01
 0.2764135237033E+01
 0.3977633793241E+00
 0.6526590619059E+00
 0.8874847820578E+00
 0.1102711329967E+01
 0.1300079057821E+01
 0.1481161143705E+01
 0.1647247422142E+01
 0.1799407807197E+01
 0.1938574662417E+01
 0.2065611626846E+01
 0.2181356496524E+01
 0.2286634550806E+01
 0.2382251115899E+01
 0.2468985189437E+01
 0.2547598078372E+01
 0.2618856416822E+01
 0.2683561226035E+01
 0.2742571832722E+01
 0.2796802470600E+01
 0.2847168863956E+01
 0.4034487729203E+00
 0.6646955597699E+00
 0.9053726233397E+00
 0.1125943160170E+01
 0.1328202415798E+01
 0.1513778524109E+01
 0.1684012013930E+01
 0.1840020267503E+01
 0.1982780377962E+01
 0.2113197256309E+01
 0.2232146277883E+01
 0.2340488570062E+01
 0.2439067185902E+01
 0.2528703293844E+01
 0.2610204205060E+01
 0.2684382404195E+01
 0.2752077620949E+01
 0.2814171170388E+01
 0.2871573272942E+01
 0.2925162946722E+01
 0.4097168987867E+00
 0.6768176515943E+00
 0.9229559194639E+00
 0.1148567811193E+01
 0.1355473385332E+01
 0.1545330541268E+01
 0.1719511630151E+01
 0.1879168373887E+01
 0.2025314157613E+01
 0.2158890275180E+01
 0.2280807169517E+01
 0.2391960456698E+01
 0.2493229440789E+01
 0.2585474769995E+01
 0.2669545245672E+01
 0.2746293020641E+01
 0.2816589864692E+01
 0.2881334296646E+01
 0.2941432265881E+01
 0.2997732548659E+01
 0.4165862173441E+00
 0.6890297736262E+00
 0.9402283225471E+00
 0.1170569410751E+01
 0.1381866143731E+01
 0.1575780120779E+01
 0.1753696238310E+01
 0.1916787272129E+01
 0.2066094434244E+01
 0.2202590534682E+01
 0.2327218606208E+01
 0.2440907437916E+01
 0.2544571193495E+01
 0.2639107500260E+01
 0.2725402534051E+01
 0.2804342661789E+01
 0.2876826154564E+01
 0.2943765339527E+01
 0.3006062927681E+01
 0.3064544593083E+01
 0.4240752698822E+00
 0.7013402418637E+00
 0.9571907301593E+00
 0.1191941852098E+01
 0.1407366369261E+01
 0.1605102772262E+01
 0.1786528989121E+01
 0.1952825596258E+01
 0.2105053343108E+01
 0.2244211922868E+01
 0.2371274728814E+01
 0.2487202662816E+01
 0.2592943633762E+01
 0.2689430079779E+01
 0.2777581882450E+01
 0.2858314812430E+01
 0.2932549013010E+01
 0.3001208405072E+01
 0.3065194786321E+01
 0.3125318863691E+01
 0.4322028860691E+00
 0.7137618722563E+00
 0.9738521434507E+00
 0.1212689748185E+01
 0.1431972204956E+01
 0.1633287525903E+01
 0.1817987121999E+01
 0.1987246359004E+01
 0.2142137625350E+01
 0.2283683314899E+01
 0.2412885413648E+01
 0.2530736334298E+01
 0.2638217069366E+01
 0.2736293148580E+01
 0.2825914951223E+01
 0.2908023352691E+01
 0.2983556375596E+01
 0.3053448181417E+01
 0.3118603258358E+01
 0.3179826064734E+01
 0.4409884083111E+00
 0.7263126255316E+00
 0.9902305468038E+00
 0.1232829401990E+01
 0.1455695227224E+01
 0.1660337855499E+01
 0.1848062831656E+01
 0.2020027770144E+01
 0.2177309417145E+01
 0.2320949355796E+01
 0.2451977068757E+01
 0.2571416530712E+01
 0.2680281773388E+01
 0.2779570249778E+01
 0.2870260081642E+01
 0.2953313296184E+01
 0.3029682094107E+01
 0.3100309955075E+01
 0.3166108418294E+01
 0.3227885915971E+01
 0.4504519447692E+00
 0.7390162898523E+00
 0.1006353821178E+01
 0.1252389801671E+01
 0.1478561423443E+01
 0.1686272588414E+01
 0.1876764093517E+01
 0.2051163978867E+01
 0.2210546920065E+01
 0.2355971071850E+01
 0.2488493194873E+01
 0.2609169717278E+01
 0.2719048440499E+01
 0.2819158221349E+01
 0.2910502609877E+01
 0.2994060995879E+01
 0.3070795966793E+01
 0.3141659303735E+01
 0.3207574398392E+01
 0.3269366304580E+01
 0.4606146629979E+00
 0.7519032123759E+00
 0.1022260701888E+01
 0.1271413647502E+01
 0.1500612180519E+01
 0.1711126800112E+01
 0.1904115442838E+01
 0.2080665734046E+01
 0.2241844947636E+01
 0.2388726308529E+01
 0.2522394712661E+01
 0.2643940952299E+01
 0.2754448259290E+01
 0.2854977129498E+01
 0.2946554671572E+01
 0.3030173841013E+01
 0.3106803331000E+01
 0.3177401593570E+01
 0.3242908847943E+01
 0.3304182299208E+01
 0.4714991262314E+00
 0.7650110821187E+00
 0.1038001782207E+01
 0.1289958407233E+01
 0.1521905274951E+01
 0.1734952678461E+01
 0.1930158689521E+01
 0.2108560943995E+01
 0.2271215332521E+01
 0.2419209985188E+01
 0.2553660053782E+01
 0.2675693791719E+01
 0.2786432606520E+01
 0.2886969746599E+01
 0.2978354494146E+01
 0.3061589433908E+01
 0.3137644206722E+01
 0.3207481115403E+01
 0.3272061801131E+01
 0.3332294063606E+01
 0.4831296968168E+00
 0.7783857957182E+00
 0.1053640597929E+01
 0.1308097435499E+01
 0.1542515896651E+01
 0.1757820386077E+01
 0.1954953593828E+01
 0.2134895160282E+01
 0.2298687221893E+01
 0.2447434200683E+01
 0.2582285057776E+01
 0.2704409939430E+01
 0.2814972409527E+01
 0.2915100609634E+01
 0.3005865191021E+01
 0.3088274230092E+01
 0.3163291926415E+01
 0.3231879739108E+01
 0.3295023993068E+01
 0.3353703853443E+01
 0.4955330107409E+00
 0.7920824027878E+00
 0.1069254793075E+01
 0.1325921151659E+01
 0.1562537691959E+01
 0.1779818896816E+01
 0.1978578472295E+01
 0.2159731952624E+01
 0.2324307232606E+01
 0.2473428173248E+01
 0.2608282673965E+01
 0.2730088656302E+01
 0.2840057194744E+01
 0.2939354668593E+01
 0.3029073043969E+01
 0.3110221581873E+01
 0.3183751127636E+01
 0.3250614984096E+01
 0.3311824661740E+01
 0.3368452063174E+01
 0.5087385246899E+00
 0.8061661491739E+00
 0.1084937389825E+01
 0.1343538300638E+01
 0.1582083844740E+01
 0.1801056817515E+01
 0.2001130737934E+01
 0.2183153176233E+01
 0.2348139473067E+01
 0.2497238037196E+01
 0.2631682513449E+01
 0.2752745993798E+01
 0.2861693896424E+01
 0.2959735587793E+01
 0.3047985307403E+01
 0.3127449177416E+01
 0.3199055017801E+01
 0.3263737327588E+01
 0.3322528767301E+01
 0.3376612132880E+01
 0.5227791724904E+00
 0.8207136550242E+00
 0.1100798215486E+01
 0.1361077351385E+01
 0.1601288241948E+01
 0.1821663227343E+01
 0.2022727391974E+01
 0.2205259137736E+01
 0.2370265437655E+01
 0.2518926517573E+01
 0.2652530300929E+01
 0.2772413932298E+01
 0.2879905520148E+01
 0.2976263779989E+01
 0.3062627575465E+01
 0.3139995881175E+01
 0.3209261897772E+01
 0.3271326485717E+01
 0.3327233011790E+01
 0.3378283872370E+01
 0.5376920897882E+00
 0.8358141996369E+00
 0.1116965473900E+01
 0.1378688023215E+01
 0.1620306701266E+01
 0.1841788491993E+01
 0.2043505402718E+01
 0.2226168579002E+01
 0.2390783691949E+01
 0.2538572424173E+01
 0.2670887216530E+01
 0.2789139474827E+01
 0.2894729755452E+01
 0.2988974265156E+01
 0.3073040756583E+01
 0.3147917976544E+01
 0.3214451011530E+01
 0.3273486933077E+01
 0.3326059860675E+01
 0.3373584068382E+01
 0.5535194550650E+00
 0.8515711833018E+00
 0.1133587568897E+01
 0.1396543065785E+01
 0.1639318377974E+01
 0.1861605145251E+01
 0.2063622032018E+01
 0.2246018508425E+01
 0.2409809360830E+01
 0.2556269989118E+01
 0.2686829204724E+01
 0.2802983858636E+01
 0.2906217774521E+01
 0.2997914596572E+01
 0.3079277807396E+01
 0.3151284850578E+01
 0.3214717780350E+01
 0.3270343509571E+01
 0.3319152991214E+01
 0.3362640367710E+01
 0.5703093883245E+00
 0.8681037213530E+00
 0.1150835196993E+01
 0.1414840333270E+01
 0.1658527375302E+01
 0.1881308822553E+01
 0.2083255049264E+01
 0.2264963777136E+01
 0.2427473288223E+01
 0.2572127921228E+01
 0.2700446191018E+01
 0.2814021965539E+01
 0.2914433464042E+01
 0.3003143168467E+01
 0.3081400425774E+01
 0.3150174064956E+01
 0.3210168256953E+01
 0.3262037231142E+01
 0.3306678361992E+01
 0.3345601488956E+01
 0.5881168307057E+00
 0.8855483620911E+00
 0.1168903796312E+01
 0.1433805290591E+01
 0.1678164664639E+01
 0.1901119291935E+01
 0.2102602810894E+01
 0.2283176315867E+01
 0.2443920726554E+01
 0.2586268000954E+01
 0.2711841067066E+01
 0.2822341973637E+01
 0.2919453434315E+01
 0.3004728490620E+01
 0.3079476148799E+01
 0.3144665792683E+01
 0.3200912217765E+01
 0.3248720489340E+01
 0.3288826580054E+01
 0.3322657349010E+01
 0.6070043652483E+00
 0.9040609289364E+00
 0.1188016579160E+01
 0.1453694243092E+01
 0.1698490559619E+01
 0.1921281716994E+01
 0.2121884266272E+01
 0.2300844019276E+01
 0.2459309460873E+01
 0.2598823035362E+01
 0.2721128216643E+01
 0.2828045153009E+01
 0.2921368216543E+01
 0.3002750431615E+01
 0.3073576959652E+01
 0.3134836647810E+01
 0.3187053742223E+01
 0.3230549698610E+01
 0.3265814081743E+01
 0.3294053906910E+01
 0.6270425537292E+00
 0.9238183147667E+00
 0.1208428286256E+01
 0.1474798607390E+01
 0.1719797822171E+01
 0.1942068104138E+01
 0.2141338749854E+01
 0.2318169100949E+01
 0.2473807099165E+01
 0.2609933776030E+01
 0.2728431074252E+01
 0.2831245230822E+01
 0.2920284536840E+01
 0.2997304968626E+01
 0.3063781802845E+01
 0.3120754149012E+01
 0.3168676468221E+01
 0.3207672002594E+01
 0.3237883860329E+01
 0.3260117205297E+01
 0.6483094184725E+00
 0.9450199371324E+00
 0.1230430821002E+01
 0.1497450946707E+01
 0.1742415888399E+01
 0.1963778988446E+01
 0.2161225738129E+01
 0.2335366015895E+01
 0.2487587457074E+01
 0.2619744553515E+01
 0.2733878163657E+01
 0.2832066536618E+01
 0.2916327441816E+01
 0.2988512731398E+01
 0.3050189220294E+01
 0.3102476213358E+01
 0.3145820524842E+01
 0.3180192818667E+01
 0.3205303712305E+01
 0.3221308540192E+01
 0.6708865911262E+00
 0.9678902743802E+00
 0.1254361701938E+01
 0.1522034994328E+01
 0.1766715119293E+01
 0.1986745100292E+01
 0.2181824849133E+01
 0.2352658794299E+01
 0.2500825616474E+01
 0.2628397366275E+01
 0.2737597051425E+01
 0.2830639423817E+01
 0.2909640931294E+01
 0.2976527318004E+01
 0.3032942290452E+01
 0.3080083428810E+01
 0.3118448595097E+01
 0.3148094827086E+01
 0.3168328811373E+01
 0.3178341653654E+01
 0.6948498143607E+00
 0.9926730139864E+00
 0.1280634520613E+01
 0.1548996159993E+01
 0.1793106937042E+01
 0.2011330966573E+01
 0.2203437704003E+01
 0.2370276667605E+01
 0.2513691115024E+01
 0.2636024771184E+01
 0.2739706320203E+01
 0.2827091405335E+01
 0.2900382996919E+01
 0.2961544052772E+01
 0.3012246073238E+01
 0.3053755418169E+01
 0.3086537389738E+01
 0.3110992515501E+01
 0.3126984332741E+01
 0.3132443278596E+01
 0.7201615126540E+00
 0.1019758232618E+01
 0.1309809694787E+01
 0.1578815214096E+01
 0.1822039726141E+01
 0.2037955663626E+01
 0.2226388705401E+01
 0.2388444317837E+01
 0.2526339938613E+01
 0.2642742225312E+01
 0.2740306616450E+01
 0.2821534459658E+01
 0.2888708634614E+01
 0.2943797484445E+01
 0.2988404388527E+01
 0.3023766607718E+01
 0.3050366706041E+01
 0.3068472093508E+01
 0.3079707512444E+01
 0.3086867724251E+01
 0.6575983091636E+00
 0.2569743607648E+00
 0.1442717688645E+00
 0.3018265628870E+00
 0.3484825431279E+00
 0.3434122729635E+00
 0.3408721160494E+00
 0.3553556155438E+00
 0.3711865793609E+00
 0.3797804431059E+00
 0.3801016012680E+00
 0.3721028279356E+00
 0.3547874878184E+00
 0.3269539301167E+00
 0.2888475344984E+00
 0.2402369605785E+00
 0.1798891016520E+00
 0.1153602062177E+00
 0.5487299069487E-01
 0.7051614002946E-02
 0.5553796995031E+00
 0.3920897612462E+00
 0.5002594963977E-01
 0.1460369856063E+00
 0.2336387942059E+00
 0.2692287458227E+00
 0.2871073723710E+00
 0.3054465911391E+00
 0.3224571034731E+00
 0.3336982874787E+00
 0.3379874107356E+00
 0.3347656242096E+00
 0.3233059586640E+00
 0.3025442239090E+00
 0.2717102384206E+00
 0.2304415666649E+00
 0.1797775783633E+00
 0.1220165447849E+00
 0.6061957213279E-01
 0.6311906682949E-02
 0.4848657795536E+00
 0.4031811439127E+00
 0.1853514779493E+00
 0.4522715836094E-02
 0.1166885824392E+00
 0.1810215216463E+00
 0.2197466368321E+00
 0.2470542942991E+00
 0.2678346722213E+00
 0.2824292033703E+00
 0.2908262152725E+00
 0.2926615539801E+00
 0.2872764017809E+00
 0.2736694973952E+00
 0.2508006303312E+00
 0.2181242882170E+00
 0.1762143651561E+00
 0.1247905472956E+00
 0.6454487644363E-01
 0.4743968334650E-02
 0.4405045351365E+00
 0.3951535122672E+00
 0.2634942850373E+00
 0.1167396803929E+00
 0.4127304266511E-02
 0.8543133553161E-01
 0.1412105937146E+00
 0.1791069351607E+00
 0.2058918997557E+00
 0.2249823783017E+00
 0.2379050836494E+00
 0.2449396699136E+00
 0.2457145182792E+00
 0.2393950263524E+00
 0.2248437916428E+00
 0.2011642504575E+00
 0.1684540010469E+00
 0.1242926653551E+00
 0.6737306680117E-01
 0.3035701058734E-02
 0.4122232153487E+00
 0.3855463560790E+00
 0.3115078159760E+00
 0.2077932471444E+00
 0.1018519034154E+00
 0.1278618828273E-01
 0.5503043685842E-01
 0.1025091593679E+00
 0.1361192620875E+00
 0.1605693188825E+00
 0.1784695773894E+00
 0.1908320112617E+00
 0.1977477172939E+00
 0.1986845947122E+00
 0.1925255491241E+00
 0.1781318764171E+00
 0.1551916627707E+00
 0.1196523245079E+00
 0.6846653692371E-01
 0.5598716029663E-02
 0.3942776688043E+00
 0.3789625236277E+00
 0.3435393741641E+00
 0.2771946088408E+00
 0.1924594684924E+00
 0.1075280903319E+00
 0.3522072886080E-01
 0.1927243345274E-01
 0.5906888308213E-01
 0.8897808354412E-01
 0.1120144467289E+00
 0.1297032136614E+00
 0.1426073183561E+00
 0.1505790898523E+00
 0.1526586863265E+00
 0.1476138293880E+00
 0.1348947374149E+00
 0.1092485042744E+00
 0.6606537735549E-01
 0.9093081521302E-02
 0.3830765625750E+00
 0.3761798231538E+00
 0.3672098505289E+00
 0.3312202255448E+00
 0.2696835180120E+00
 0.1961807398417E+00
 0.1256195531901E+00
 0.6817582189900E-01
 0.2392471004378E-01
 0.1069704532658E-01
 0.3849091437853E-01
 0.6120409899419E-01
 0.7972790413101E-01
 0.9429395644337E-01
 0.1041975299532E+00
 0.1082669344631E+00
 0.1058899420043E+00
 0.9102949892796E-01
 0.5764132977190E-01
 0.8923828858852E-02
 0.3763073860422E+00
 0.3768636064680E+00
 0.3866151707342E+00
 0.3747293742196E+00
 0.3354188177891E+00
 0.2770301703204E+00
 0.2134554286707E+00
 0.1571315030980E+00
 0.1110669933701E+00
 0.7335345955502E-01
 0.4180450231306E-01
 0.1500882688802E-01
 0.9385430951172E-02
 0.2943954233549E-01
 0.4638959824314E-01
 0.5895336992735E-01
 0.6657615185228E-01
 0.6282703541590E-01
 0.4036225988488E-01
 0.2911629043950E-02
 0.3724301928215E+00
 0.3803714772216E+00
 0.4039633226284E+00
 0.4111703125425E+00
 0.3919196930966E+00
 0.3500068694703E+00
 0.2969290847424E+00
 0.2454208028308E+00
 0.2004417600969E+00
 0.1616740862569E+00
 0.1277993044720E+00
 0.9767087633565E-01
 0.7034842446953E-01
 0.4518039907235E-01
 0.2250165039973E-01
 0.6165186790454E-02
 0.1634612214049E-01
 0.2302487749889E-01
 0.1229526397866E-01
 0.1875513942317E-01
 0.3703955303250E+00
 0.3860284972094E+00
 0.4204151737269E+00
 0.4428997830776E+00
 0.4412533782117E+00
 0.4157817226316E+00
 0.3752350959997E+00
 0.3314365422743E+00
 0.2903076937970E+00
 0.2527942082076E+00
 0.2184628971689E+00
 0.1866904369103E+00
 0.1567620904567E+00
 0.1279599239905E+00
 0.1002172062789E+00
 0.7402784716148E-01
 0.4952282538076E-01
 0.3286701237465E-01
 0.3316133533039E-01
 0.5204317799484E-01
 0.3694769447284E+00
 0.3932186814834E+00
 0.4365371237424E+00
 0.4714846557573E+00
 0.4851233542654E+00
 0.4753150208660E+00
 0.4482353968347E+00
 0.4141877383716E+00
 0.3792708917006E+00
 0.3452646967971E+00
 0.3124798222204E+00
 0.2808302980676E+00
 0.2499314208989E+00
 0.2191541256542E+00
 0.1882897057636E+00
 0.1575584989793E+00
 0.1267700564826E+00
 0.1015006443104E+00
 0.9199370214005E-01
 0.1018951159640E+00
 0.3691674382490E+00
 0.4014105046211E+00
 0.4525528691293E+00
 0.4979338294350E+00
 0.5248476144053E+00
 0.5295985970287E+00
 0.5161816060384E+00
 0.4931761231655E+00
 0.4663242695524E+00
 0.4378337318441E+00
 0.4085534298392E+00
 0.3788677579773E+00
 0.3487550627904E+00
 0.3177698757250E+00
 0.2856547582219E+00
 0.2524070167675E+00
 0.2175416364476E+00
 0.1857726536072E+00
 0.1678040896783E+00
 0.1693890358223E+00
 0.3691130544448E+00
 0.4101580523329E+00
 0.4684881232011E+00
 0.5228651612423E+00
 0.5613960697910E+00
 0.5795229446376E+00
 0.5795084274406E+00
 0.5682448585917E+00
 0.5508050213310E+00
 0.5294963119123E+00
 0.5054935302071E+00
 0.4795436497045E+00
 0.4519739748878E+00
 0.4225875589529E+00
 0.3911717461579E+00
 0.3575670424949E+00
 0.3210030164047E+00
 0.2850554591670E+00
 0.2603920973451E+00
 0.2546402708174E+00
 0.3690690434279E+00
 0.4190938924629E+00
 0.4842561287278E+00
 0.5466231894279E+00
 0.5954450762691E+00
 0.6258183723973E+00
 0.6386949497392E+00
 0.6394410062939E+00
 0.6323155337537E+00
 0.6194888147577E+00
 0.6022714645945E+00
 0.5816498820100E+00
 0.5582543210730E+00
 0.5321773246769E+00
 0.5033523615422E+00
 0.4715694685022E+00
 0.4358214973612E+00
 0.3982845227826E+00
 0.3689347304850E+00
 0.3568262686106E+00
 0.3688703648626E+00
 0.4279201200537E+00
 0.4997093438985E+00
 0.5693617739855E+00
 0.6274318905328E+00
 0.6690373598732E+00
 0.6941784146020E+00
 0.7069057410741E+00
 0.7106359722362E+00
 0.7072500263400E+00
 0.6980375183237E+00
 0.6840970395615E+00
 0.6662880950999E+00
 0.6450043970608E+00
 0.6204319322949E+00
 0.5924794886436E+00
 0.5600510522102E+00
 0.5237414865696E+00
 0.4919382802660E+00
 0.4743389134884E+00
 0.3684119313529E+00
 0.4364001953212E+00
 0.5146712716585E+00
 0.5911018095453E+00
 0.6576027794895E+00
 0.7095585903539E+00
 0.7463050679961E+00
 0.7707931159091E+00
 0.7856420871026E+00
 0.7923633427342E+00
 0.7921062082628E+00
 0.7859556231709E+00
 0.7748934212986E+00
 0.7595749262330E+00
 0.7405135361140E+00
 0.7179675357014E+00
 0.6910970254435E+00
 0.6589884555098E+00
 0.6273429662803E+00
 0.6050131844260E+00
 0.3676359206699E+00
 0.4443539499041E+00
 0.5289550318146E+00
 0.6117712697418E+00
 0.6860524300972E+00
 0.7476019104586E+00
 0.7953065307434E+00
 0.8312143612745E+00
 0.8572343617316E+00
 0.8744882155756E+00
 0.8839094969292E+00
 0.8864570710082E+00
 0.8830964189050E+00
 0.8746188578444E+00
 0.8618360644940E+00
 0.8455219151836E+00
 0.8256749175899E+00
 0.8006546427387E+00
 0.7724821506201E+00
 0.7464620626590E+00
 0.3665288735723E+00
 0.4516517800452E+00
 0.5423759594845E+00
 0.6312270423465E+00
 0.7127563004620E+00
 0.7832476347477E+00
 0.8412938488620E+00
 0.8882054276266E+00
 0.9252838155542E+00
 0.9532889272057E+00
 0.9729163581728E+00
 0.9849276807501E+00
 0.9901343161533E+00
 0.9892580211322E+00
 0.9831719051473E+00
 0.9730818473507E+00
 0.9600976454450E+00
 0.9437820294585E+00
 0.9236369259690E+00
 0.8963371927939E+00
 0.3651199767519E+00
 0.4582467072774E+00
 0.5547194448981E+00
 0.6492751955056E+00
 0.7375961494470E+00
 0.8164541430357E+00
 0.8842629052219E+00
 0.9417182662320E+00
 0.9896037368838E+00
 0.1028377051243E+01
 0.1058533036395E+01
 0.1080637580898E+01
 0.1095282622262E+01
 0.1102942348987E+01
 0.1104178331772E+01
 0.1100030942471E+01
 0.1092305899842E+01
 0.1081900334067E+01
 0.1072608160167E+01
 0.1052705636792E+01
 0.3637019325251E+00
 0.4638969246006E+00
 0.5657294114284E+00
 0.6657168367196E+00
 0.7603746023484E+00
 0.8470508608769E+00
 0.9241099593001E+00
 0.9916430859123E+00
 0.1049957627923E+01
 0.1099296432338E+01
 0.1140033340309E+01
 0.1172619833236E+01
 0.1197481996867E+01
 0.1214856077468E+01
 0.1224867323447E+01
 0.1227763015172E+01
 0.1224428721021E+01
 0.1215654533650E+01
 0.1206164070744E+01
 0.1204012846978E+01
 0.7546295641306E+00
 0.1063358220131E+01
 0.1361788372196E+01
 0.1636150103169E+01
 0.1881312069537E+01
 0.2095658999240E+01
 0.2279238137117E+01
 0.2433935874893E+01
 0.2562767563088E+01
 0.2669024192754E+01
 0.2755814227670E+01
 0.2825945049899E+01
 0.2881930680243E+01
 0.2925893993909E+01
 0.2959557196570E+01
 0.2984403533205E+01
 0.3002060414119E+01
 0.3013195333567E+01
 0.3021119008335E+01
 0.3033074723750E+01
 0.7955889602695E+00
 0.1122813979614E+01
 0.1435321410396E+01
 0.1718915368602E+01
 0.1967552484958E+01
 0.2179739439726E+01
 0.2356191671431E+01
 0.2499862312959E+01
 0.2615027868086E+01
 0.2706045591825E+01
 0.2776788386857E+01
 0.2830599176029E+01
 0.2870399064520E+01
 0.2898651795342E+01
 0.2917468910964E+01
 0.2928968771398E+01
 0.2935716085795E+01
 0.2938240705415E+01
 0.2939645126628E+01
 0.2935969846361E+01
 0.8392071680070E+00
 0.1187654555735E+01
 0.1514850842943E+01
 0.1806252612689E+01
 0.2055793731813E+01
 0.2262578943478E+01
 0.2428361465145E+01
 0.2557360588595E+01
 0.2655418238822E+01
 0.2728190186383E+01
 0.2780403555708E+01
 0.2815975036707E+01
 0.2838269044182E+01
 0.2850099278608E+01
 0.2853901422869E+01
 0.2852057226641E+01
 0.2846940135658E+01
 0.2837679849339E+01
 0.2825235827372E+01
 0.2811629335858E+01
 0.8866366808364E+00
 0.1258619700038E+01
 0.1600844593917E+01
 0.1898330690026E+01
 0.2145630337615E+01
 0.2343103888821E+01
 0.2494030860613E+01
 0.2604344384025E+01
 0.2681806346276E+01
 0.2733523804894E+01
 0.2765092161092E+01
 0.2780957088446E+01
 0.2784835489672E+01
 0.2779712358444E+01
 0.2768034817859E+01
 0.2751956807599E+01
 0.2733148744902E+01
 0.2709233131212E+01
 0.2683673504704E+01
 0.2666070777430E+01
 0.9387374334323E+00
 0.1336959465432E+01
 0.1693998963254E+01
 0.1995161883903E+01
 0.2236293804828E+01
 0.2419776428301E+01
 0.2551092812205E+01
 0.2638470575231E+01
 0.2691953527310E+01
 0.2720150870227E+01
 0.2729422030409E+01
 0.2724585811036E+01
 0.2709510250098E+01
 0.2687087280564E+01
 0.2659483720243E+01
 0.2628410939577E+01
 0.2594785412284E+01
 0.2555976344617E+01
 0.2519498380251E+01
 0.2500538972474E+01
 0.9964871048943E+00
 0.1424019838197E+01
 0.1795081758491E+01
 0.2096565677412E+01
 0.2326610590021E+01
 0.2490585579975E+01
 0.2597032506451E+01
 0.2657158384821E+01
 0.2683580278166E+01
 0.2686303918755E+01
 0.2672210137647E+01
 0.2646233734335E+01
 0.2612130716797E+01
 0.2572440019653E+01
 0.2528865553051E+01
 0.2482633472413E+01
 0.2434120051074E+01
 0.2381191426288E+01
 0.2335534394354E+01
 0.2316801118663E+01
 0.1061034765542E+01
 0.1521309124536E+01
 0.1904810603200E+01
 0.2202072139811E+01
 0.2414928807828E+01
 0.2553001357152E+01
 0.2628938506855E+01
 0.2657658214189E+01
 0.2654479398050E+01
 0.2630483947562E+01
 0.2592683963620E+01
 0.2545793373888E+01
 0.2493168730962E+01
 0.2436771960882E+01
 0.2377736781113E+01
 0.2316836900331E+01
 0.2254035449707E+01
 0.2188087510830E+01
 0.2134659805558E+01
 0.2117110079360E+01
 0.1133758903809E+01
 0.1630516196470E+01
 0.2023790614870E+01
 0.2310800440964E+01
 0.2499011839780E+01
 0.2603928863905E+01
 0.2643544123841E+01
 0.2637171506439E+01
 0.2602678278887E+01
 0.2551632914819E+01
 0.2490643470041E+01
 0.2423811620769E+01
 0.2353808879136E+01
 0.2281836939907E+01
 0.2208400334509E+01
 0.2133851048786E+01
 0.2057775682361E+01
 0.1980074255303E+01
 0.1920081601154E+01
 0.1904235727756E+01
 0.1216328811636E+01
 0.1753533895540E+01
 0.2152430024094E+01
 0.2421312465955E+01
 0.2575910489031E+01
 0.2639676373140E+01
 0.2637319173127E+01
 0.2593031139929E+01
 0.2526645718398E+01
 0.2449318302958E+01
 0.2366594869116E+01
 0.2281555984395E+01
 0.2195933462631E+01
 0.2110037809398E+01
 0.2023722855029E+01
 0.1936943079784E+01
 0.1848900547410E+01
 0.1760854357569E+01
 0.1695429876135E+01
 0.1681433442288E+01
 0.1310783518123E+01
 0.1892479258005E+01
 0.2290818459576E+01
 0.2531417592873E+01
 0.2641818373587E+01
 0.2655960794563E+01
 0.2606638215568E+01
 0.2522954298025E+01
 0.2425534038725E+01
 0.2323906283052E+01
 0.2221833893564E+01
 0.2121009882878E+01
 0.2022043167283E+01
 0.1924292760795E+01
 0.1826983113647E+01
 0.1729700770898E+01
 0.1631244607928E+01
 0.1534446063349E+01
 0.1464760953387E+01
 0.1452457772208E+01
 0.1419638734410E+01
 0.2049707795586E+01
 0.2438539133665E+01
 0.2637906199233E+01
 0.2691918283971E+01
 0.2647987718947E+01
 0.2548060643736E+01
 0.2425374333862E+01
 0.2299433524384E+01
 0.2176688601850E+01
 0.2058452819323E+01
 0.1944792820860E+01
 0.1835125840327E+01
 0.1727883813838E+01
 0.1621729730421E+01
 0.1515926957470E+01
 0.1408864386491E+01
 0.1305161757100E+01
 0.1232547395008E+01
 0.1221601395394E+01
 0.1546037765973E+01
 0.2227810744933E+01
 0.2594368492611E+01
 0.2736181034768E+01
 0.2720245042108E+01
 0.2610668552512E+01
 0.2458763685438E+01
 0.2299837706428E+01
 0.2149588062885E+01
 0.2009911849726E+01
 0.1879245633847E+01
 0.1756007808524E+01
 0.1638489038853E+01
 0.1524296465027E+01
 0.1411641701213E+01
 0.1299532850747E+01
 0.1185968866690E+01
 0.1077567191483E+01
 0.1003665045788E+01
 0.9937538800721E+00
 0.1693972365453E+01
 0.2429568852717E+01
 0.2755778778395E+01
 0.2819748634470E+01
 0.2719630289438E+01
 0.2539076878431E+01
 0.2337157769945E+01
 0.2147401447644E+01
 0.1978478259413E+01
 0.1826650937503E+01
 0.1687505785629E+01
 0.1558042041763E+01
 0.1435584133650E+01
 0.1317064177666E+01
 0.1200391004165E+01
 0.1084422353625E+01
 0.9668310850309E+00
 0.8564230783358E+00
 0.7833711240994E+00
 0.7744662359737E+00
 0.1868618195660E+01
 0.2657797685927E+01
 0.2918083354030E+01
 0.2879536763675E+01
 0.2681883746488E+01
 0.2429293402906E+01
 0.2183649798267E+01
 0.1970866503404E+01
 0.1789642097131E+01
 0.1630501790911E+01
 0.1486765076498E+01
 0.1354376838854E+01
 0.1229853278332E+01
 0.1109624299858E+01
 0.9915001954389E+00
 0.8743565470489E+00
 0.7556696977684E+00
 0.6465961297473E+00
 0.5772519993353E+00
 0.5699967008846E+00
 0.2076865953639E+01
 0.2914919404738E+01
 0.3072906832240E+01
 0.2903062675585E+01
 0.2598554096931E+01
 0.2279805204701E+01
 0.2001319294893E+01
 0.1774546616353E+01
 0.1587137690733E+01
 0.1425189721010E+01
 0.1280588661895E+01
 0.1148464735388E+01
 0.1024607123978E+01
 0.9051722516243E+00
 0.7881800247382E+00
 0.6727853656176E+00
 0.5564822423573E+00
 0.4529110058965E+00
 0.3910979384586E+00
 0.3872875496304E+00
 0.2328198442999E+01
 0.3201798679569E+01
 0.3205340624675E+01
 0.2873720673150E+01
 0.2463013627773E+01
 0.2093401828985E+01
 0.1795852063836E+01
 0.1563199759498E+01
 0.1374854067863E+01
 0.1214344988373E+01
 0.1072536147725E+01
 0.9436731349769E+00
 0.8228953910730E+00
 0.7064857068733E+00
 0.5931379791217E+00
 0.4826395373388E+00
 0.3728090307418E+00
 0.2798917887271E+00
 0.2306239229501E+00
 0.2337672878614E+00
 0.2636243148924E+01
 0.3514489983719E+01
 0.3288356835396E+01
 0.2771582941848E+01
 0.2275067128926E+01
 0.1878632517519E+01
 0.1573238465530E+01
 0.1340623571154E+01
 0.1156252041955E+01
 0.1001665356117E+01
 0.8662650257153E+00
 0.7431910154291E+00
 0.6273049025391E+00
 0.5157123771747E+00
 0.4083681982367E+00
 0.3060959381020E+00
 0.2074024313397E+00
 0.1313256969994E+00
 0.1008875176464E+00
 0.1167641474650E+00
 0.3021302462950E+01
 0.3833400846635E+01
 0.3272686168353E+01
 0.2579925345544E+01
 0.2050174165492E+01
 0.1645091084928E+01
 0.1336559945686E+01
 0.1109303450571E+01
 0.9349581994119E+00
 0.7914191691237E+00
 0.6655141259417E+00
 0.5497381580454E+00
 0.4396868660009E+00
 0.3341600838639E+00
 0.2349732713817E+00
 0.1443093426724E+00
 0.6184419351636E-01
 0.9678546972157E-02
 0.5287380557216E-02
 0.4212310932080E-01
 0.3517006755858E+01
 0.4087182961012E+01
 0.3063710129756E+01
 0.2327904762297E+01
 0.1810388306195E+01
 0.1395419199647E+01
 0.1085360111044E+01
 0.8716443744953E+00
 0.7163250496555E+00
 0.5886747455061E+00
 0.4735497347228E+00
 0.3650787469245E+00
 0.2609485705253E+00
 0.1622455499702E+00
 0.7289661589753E-01
 0.2777988598787E-02
 0.6394159597367E-01
 0.8520871726405E-01
 0.5680127475615E-01
 0.1202007269695E-01
 0.4124869796722E+01
 0.3847190396936E+01
 0.2698017744735E+01
 0.2076797533377E+01
 0.1562089403044E+01
 0.1125377233454E+01
 0.8158825811409E+00
 0.6344831797419E+00
 0.5085754848404E+00
 0.3980533149555E+00
 0.2921610254842E+00
 0.1896356266746E+00
 0.9112108970860E-01
 0.3748026129130E-03
 0.7910537084110E-01
 0.1379842243676E+00
 0.1701643187013E+00
 0.1541223500711E+00
 0.9167496806150E-01
 0.1704087588971E-01
 0.1229280774970E+01
 0.1071076303962E+01
 0.9219224841224E+00
 0.7770480895373E+00
 0.6374841475243E+00
 0.5069555241799E+00
 0.3888629045512E+00
 0.2861067631041E+00
 0.2008400706383E+00
 0.1342811369207E+00
 0.8653568453411E-01
 0.5648110446627E-01
 0.4178179859171E-01
 0.3903767033999E-01
 0.4397110320248E-01
 0.5197643606336E-01
 0.5903573950207E-01
 0.6257284806520E-01
 0.6208193454786E-01
 0.5896926961332E-01
 0.1316734554076E+01
 0.1177722966792E+01
 0.1023600469867E+01
 0.8722821550666E+00
 0.7264036103896E+00
 0.5885260523173E+00
 0.4619170687533E+00
 0.3498329748128E+00
 0.2550963551342E+00
 0.1797377498742E+00
 0.1246965604939E+00
 0.8958381403233E-01
 0.7255299471180E-01
 0.7027815788563E-01
 0.7807072391173E-01
 0.9042402871289E-01
 0.1020169368411E+00
 0.1089058485693E+00
 0.1095256967314E+00
 0.1056989017338E+00
 0.1406411251762E+01
 0.1277064032840E+01
 0.1130663557347E+01
 0.9784861859377E+00
 0.8283322844051E+00
 0.6840508103778E+00
 0.5491644777758E+00
 0.4272796200769E+00
 0.3218274023160E+00
 0.2356881424153E+00
 0.1707971419110E+00
 0.1277763891338E+00
 0.1056334346736E+00
 0.1015455085272E+00
 0.1107918564998E+00
 0.1271311891596E+00
 0.1438091149791E+00
 0.1550486668816E+00
 0.1576682630821E+00
 0.1520438487915E+00
 0.1502390648537E+01
 0.1379554182094E+01
 0.1240894378169E+01
 0.1092895262052E+01
 0.9422014369677E+00
 0.7938809092099E+00
 0.6520603911304E+00
 0.5207623424848E+00
 0.4039773932231E+00
 0.3054098988997E+00
 0.2280815127802E+00
 0.1738719310949E+00
 0.1430518269442E+00
 0.1338425875456E+00
 0.1420650937603E+00
 0.1611718916312E+00
 0.1830348129544E+00
 0.1996237439536E+00
 0.2052488434222E+00
 0.1981378788512E+00
 0.1603560607669E+01
 0.1486939420550E+01
 0.1356262437209E+01
 0.1214686396901E+01
 0.1067084773392E+01
 0.9180722981960E+00
 0.7719458175922E+00
 0.6329396551207E+00
 0.5053955044684E+00
 0.3936510946010E+00
 0.3017251814802E+00
 0.2328549797452E+00
 0.1889280889382E+00
 0.1698406028825E+00
 0.1728184289589E+00
 0.1919249731175E+00
 0.2182618205528E+00
 0.2413979140723E+00
 0.2522375671927E+00
 0.2460665537437E+00
 0.1708918690338E+01
 0.1599021817480E+01
 0.1476831989780E+01
 0.1343371427408E+01
 0.1201746056076E+01
 0.1055588654665E+01
 0.9086922200938E+00
 0.7650579997585E+00
 0.6289810813269E+00
 0.5050316690450E+00
 0.3978658505385E+00
 0.3118595108655E+00
 0.2505646881465E+00
 0.2159854756187E+00
 0.2076613622507E+00
 0.2216339322116E+00
 0.2497072065159E+00
 0.2798442406640E+00
 0.2988901371322E+00
 0.2977086045445E+00
 0.1817481910323E+01
 0.1715144932619E+01
 0.1602123472892E+01
 0.1478158664302E+01
 0.1344924518445E+01
 0.1204933025754E+01
 0.1061146571506E+01
 0.9169231556132E+00
 0.7760727039425E+00
 0.6428917743367E+00
 0.5221059637327E+00
 0.4186699344945E+00
 0.3373837816244E+00
 0.2822773184824E+00
 0.2556903518516E+00
 0.2569621539895E+00
 0.2808036327497E+00
 0.3159193053880E+00
 0.3456934502514E+00
 0.3539699982918E+00
 0.1928231206892E+01
 0.1834354034882E+01
 0.1731227042586E+01
 0.1617916570292E+01
 0.1495062328951E+01
 0.1364178708929E+01
 0.1227327905171E+01
 0.1087036994902E+01
 0.9463324736557E+00
 0.8088078185097E+00
 0.6786647678121E+00
 0.5606811332395E+00
 0.4600547414084E+00
 0.3820576446279E+00
 0.3313987107315E+00
 0.3111184047751E+00
 0.3207658719415E+00
 0.3536728947309E+00
 0.3938450648733E+00
 0.4172417826696E+00
 0.2040149367203E+01
 0.1955562910571E+01
 0.1862996614096E+01
 0.1761247850716E+01
 0.1650300017890E+01
 0.1530908329866E+01
 0.1404356878464E+01
 0.1272373289557E+01
 0.1137143394565E+01
 0.1001377438317E+01
 0.8683922184394E+00
 0.7421789229064E+00
 0.6274240496695E+00
 0.5294375436681E+00
 0.4539113172733E+00
 0.4063624625879E+00
 0.3909575992644E+00
 0.4081545680984E+00
 0.4498711610186E+00
 0.4914662053748E+00
 0.2152258625493E+01
 0.2077675313753E+01
 0.1996221966717E+01
 0.1906681888493E+01
 0.1808688533601E+01
 0.1702496889773E+01
 0.1588820795561E+01
 0.1468761046058E+01
 0.1343805192560E+01
 0.1215875888406E+01
 0.1087409043044E+01
 0.9614469187306E+00
 0.8417316979151E+00
 0.7327802909390E+00
 0.6399072388163E+00
 0.5691272269959E+00
 0.5267831704500E+00
 0.5184896117269E+00
 0.5464189671193E+00
 0.5993909387556E+00
 0.2263649028661E+01
 0.2199649887066E+01
 0.2129724947396E+01
 0.2052796058893E+01
 0.1968363196604E+01
 0.1876397210000E+01
 0.1777245878391E+01
 0.1671585543088E+01
 0.1560419254568E+01
 0.1445113580783E+01
 0.1327466513547E+01
 0.1209801401305E+01
 0.1095084409342E+01
 0.9870650063478E+00
 0.8904400675047E+00
 0.8110423159067E+00
 0.7560480673156E+00
 0.7341970447361E+00
 0.7559317951592E+00
 0.8339656307469E+00
 0.2373443649860E+01
 0.2320438731373E+01
 0.2262306900156E+01
 0.2198182344127E+01
 0.2127561650463E+01
 0.2050279737954E+01
 0.1966468326566E+01
 0.1876532533784E+01
 0.1781155699907E+01
 0.1681333602234E+01
 0.1578437730138E+01
 0.1474309099573E+01
 0.1371387684453E+01
 0.1272888111364E+01
 0.1183041495320E+01
 0.1107440190840E+01
 0.1053559579342E+01
 0.1031620036377E+01
 0.1056252235164E+01
 0.1150964392629E+01
 0.2480785657374E+01
 0.2438943041798E+01
 0.2392663937061E+01
 0.2341305666040E+01
 0.2284427018433E+01
 0.2221814316145E+01
 0.2153475214683E+01
 0.2079634235881E+01
 0.2000743352389E+01
 0.1917512817788E+01
 0.1830965260962E+01
 0.1742516933164E+01
 0.1654092897381E+01
 0.1568288033677E+01
 0.1488594216762E+01
 0.1419728864648E+01
 0.1368127122392E+01
 0.1342711668470E+01
 0.1356173958310E+01
 0.1426591042918E+01
 0.2584871420335E+01
 0.2554091838611E+01
 0.2519484429795E+01
 0.2480601655418E+01
 0.2437087098167E+01
 0.2388723221908E+01
 0.2335445216270E+01
 0.2277347903214E+01
 0.2214698392208E+01
 0.2147960544207E+01
 0.2077834848967E+01
 0.2005317131031E+01
 0.1931780729484E+01
 0.1859089199547E+01
 0.1789750226123E+01
 0.1727126257217E+01
 0.1675721168290E+01
 0.1641557200872E+01
 0.1632558105951E+01
 0.1658687164099E+01
 0.2684962451292E+01
 0.2664895438728E+01
 0.2641537702462E+01
 0.2614592366437E+01
 0.2583782624201E+01
 0.2548902218691E+01
 0.2509837123416E+01
 0.2466576882198E+01
 0.2419225554621E+01
 0.2368017422663E+01
 0.2313340223545E+01
 0.2255767640625E+01
 0.2196102417479E+01
 0.2135431251020E+01
 0.2075191977945E+01
 0.2017251227359E+01
 0.1963984221723E+01
 0.1918327003262E+01
 0.1883743977662E+01
 0.1864069121036E+01
 0.2780387612362E+01
 0.2770462682914E+01
 0.2757709620491E+01
 0.2741936229038E+01
 0.2722925275315E+01
 0.2700478252664E+01
 0.2674436881766E+01
 0.2644693718280E+01
 0.2611198686710E+01
 0.2573965163593E+01
 0.2533077171587E+01
 0.2488697830509E+01
 0.2441077961328E+01
 0.2390562180898E+01
 0.2337587381354E+01
 0.2282664553391E+01
 0.2226328592082E+01
 0.2169037370275E+01
 0.2111011362703E+01
 0.2052006895432E+01
 0.2870543926661E+01
 0.2870004796875E+01
 0.2867015434086E+01
 0.2861448275040E+01
 0.2853120562469E+01
 0.2841828668251E+01
 0.2827365424622E+01
 0.2809527133779E+01
 0.2788114568590E+01
 0.2762930223083E+01
 0.2733772469251E+01
 0.2700425939240E+01
 0.2662646117478E+01
 0.2620134514184E+01
 0.2572498656284E+01
 0.2519188301569E+01
 0.2459396713222E+01
 0.2391914612377E+01
 0.2314931693848E+01
 0.2225817707135E+01
 0.2954897712035E+01
 0.2962835194097E+01
 0.2968603320950E+01
 0.2972107359320E+01
 0.2973174997187E+01
 0.2971582151517E+01
 0.2967065181304E+01
 0.2959323560579E+01
 0.2948015745548E+01
 0.2932749658695E+01
 0.2913068080697E+01
 0.2888428266667E+01
 0.2858174196098E+01
 0.2821498945457E+01
 0.2777393699324E+01
 0.2724578995111E+01
 0.2661412646205E+01
 0.2585766671882E+01
 0.2494852666525E+01
 0.2384978257491E+01
 0.3032985562831E+01
 0.3048367589156E+01
 0.3061752943270E+01
 0.3073055783831E+01
 0.3082094190929E+01
 0.3088609988503E+01
 0.3092276813357E+01
 0.3092699251170E+01
 0.3089405072620E+01
 0.3081831703335E+01
 0.3069307313669E+01
 0.3051026367022E+01
 0.3026019117626E+01
 0.2993114433702E+01
 0.2950895530529E+01
 0.2897648780071E+01
 0.2831306662388E+01
 0.2749385566896E+01
 0.2648917081113E+01
 0.2526285991253E+01
 0.3104414558344E+01
 0.3126112831299E+01
 0.3145870762576E+01
 0.3163593681252E+01
 0.3179074442668E+01
 0.3192010585468E+01
 0.3202010122852E+01
 0.3208588785828E+01
 0.3211160706915E+01
 0.3209023754493E+01
 0.3201340239961E+01
 0.3187113486491E+01
 0.3165160796820E+01
 0.3134083753821E+01
 0.3092237642513E+01
 0.3037703288365E+01
 0.2968267097253E+01
 0.2881420124055E+01
 0.2774396988624E+01
 0.2644341708087E+01
 0.3168859184620E+01
 0.3195671789928E+01
 0.3220480462338E+01
 0.3243167108081E+01
 0.3263487343321E+01
 0.3281087806107E+01
 0.3295511605991E+01
 0.3306195620130E+01
 0.3312461800467E+01
 0.3313503961353E+01
 0.3308371131609E+01
 0.3295948444081E+01
 0.3274936687362E+01
 0.3243832090779E+01
 0.3200908724235E+01
 0.3144207216104E+01
 0.3071535734196E+01
 0.2980493609906E+01
 0.2868539306248E+01
 0.2733180257828E+01
 0.3226054885210E+01
 0.3256726223989E+01
 0.3285210685594E+01
 0.3311352968783E+01
 0.3334862272101E+01
 0.3355330697866E+01
 0.3372240249403E+01
 0.3384962010731E+01
 0.3392749976786E+01
 0.3394731292778E+01
 0.3389894268952E+01
 0.3377075355830E+01
 0.3354946252138E+01
 0.3322002433101E+01
 0.3276554589564E+01
 0.3216724684152E+01
 0.3140448400085E+01
 0.3045484532418E+01
 0.2929427576458E+01
 0.2789641257853E+01
 0.3275803627855E+01
 0.3309047484505E+01
 0.3339803217749E+01
 0.3367866763685E+01
 0.3392893409763E+01
 0.3414419100070E+01
 0.3431870631980E+01
 0.3444568211528E+01
 0.3451723149811E+01
 0.3452432792974E+01
 0.3445674257481E+01
 0.3430298166882E+01
 0.3405023274621E+01
 0.3368432503350E+01
 0.3318970385087E+01
 0.3254940926845E+01
 0.3174502964709E+01
 0.3075656132600E+01
 0.2956195864587E+01
 0.2813614617853E+01
 0.3317969092924E+01
 0.3352489746548E+01
 0.3384105168754E+01
 0.3412552190305E+01
 0.3437425191605E+01
 0.3458203183185E+01
 0.3474264746059E+01
 0.3484894888644E+01
 0.3489287233627E+01
 0.3486544078628E+01
 0.3475676117209E+01
 0.3455602988351E+01
 0.3425155247893E+01
 0.3383077678975E+01
 0.3328032904473E+01
 0.3258602809032E+01
 0.3173283278333E+01
 0.3070465071000E+01
 0.2948397678615E+01
 0.2805161252011E+01
 0.3352473417201E+01
 0.3386983986804E+01
 0.3418061141225E+01
 0.3445370716017E+01
 0.3468438287327E+01
 0.3486685263254E+01
 0.3499449658246E+01
 0.3505997376985E+01
 0.3505528664253E+01
 0.3497182946104E+01
 0.3480044139994E+01
 0.3453147661903E+01
 0.3415489681925E+01
 0.3366038528919E+01
 0.3303747377079E+01
 0.3227566388673E+01
 0.3136451392220E+01
 0.3029366727951E+01
 0.2905285324031E+01
 0.2763190795829E+01
 0.3379294297241E+01
 0.3412533830716E+01
 0.3441707384910E+01
 0.3466393340031E+01
 0.3486038483027E+01
 0.3500006069478E+01
 0.3507602359539E+01
 0.3508091282691E+01
 0.3500703948455E+01
 0.3484647142196E+01
 0.3459113207496E+01
 0.3423292664030E+01
 0.3376390323123E+01
 0.3317645395178E+01
 0.3246356081065E+01
 0.3161909383854E+01
 0.3063817334426E+01
 0.2951760345359E+01
 0.2825633072026E+01
 0.2685576118932E+01
 0.3398461743482E+01
 0.3429212436898E+01
 0.3455167656488E+01
 0.3475794090054E+01
 0.3490447369171E+01
 0.3498433283654E+01
 0.3499037854747E+01
 0.3491542735539E+01
 0.3475235537020E+01
 0.3449420149788E+01
 0.3413429595218E+01
 0.3366642706385E+01
 0.3308505547187E+01
 0.3238558753124E+01
 0.3156472954950E+01
 0.3062096303180E+01
 0.2955520776420E+01
 0.2837175742728E+01
 0.2707950185637E+01
 0.2569320595453E+01
 0.3410054610608E+01
 0.3437160378061E+01
 0.3458650344467E+01
 0.3473844534764E+01
 0.3481993910596E+01
 0.3482351297737E+01
 0.3474199307592E+01
 0.3456861889236E+01
 0.3429712280742E+01
 0.3392182857782E+01
 0.3343778959791E+01
 0.3284097380059E+01
 0.3212849959080E+01
 0.3129893313170E+01
 0.3035267260649E+01
 0.2929247388962E+01
 0.2812422419258E+01
 0.2685817270662E+01
 0.2551103618862E+01
 0.2410942141647E+01
 0.3414197576717E+01
 0.3436585139159E+01
 0.3452446510639E+01
 0.3460907803656E+01
 0.3461104413572E+01
 0.3452248907622E+01
 0.3433646268748E+01
 0.3404695022649E+01
 0.3364889053990E+01
 0.3313824730805E+01
 0.3251213857470E+01
 0.3176901545797E+01
 0.3090887809298E+01
 0.2993351994690E+01
 0.2884679953928E+01
 0.2765495534277E+01
 0.2636701843515E+01
 0.2499548927380E+01
 0.2355786597573E+01
 0.2208122708872E+01
 0.3411060154921E+01
 0.3427762784861E+01
 0.3436924906357E+01
 0.3437423493940E+01
 0.3428278105299E+01
 0.3408688615780E+01
 0.3378021694477E+01
 0.3335793359376E+01
 0.3281661211952E+01
 0.3215427581664E+01
 0.3137050920506E+01
 0.3046661699380E+01
 0.2944578668921E+01
 0.2831320673191E+01
 0.2707607643174E+01
 0.2574341098669E+01
 0.2432548861381E+01
 0.2283267801634E+01
 0.2127312315994E+01
 0.1964920339544E+01
 0.3400860724385E+01
 0.3411035541433E+01
 0.3412505160167E+01
 0.3403853869547E+01
 0.3384010218366E+01
 0.3352213271140E+01
 0.3307949054991E+01
 0.3250906636767E+01
 0.3180959395032E+01
 0.3098165478379E+01
 0.3002779551204E+01
 0.2895268221505E+01
 0.2776321416084E+01
 0.2646850363800E+01
 0.2507958218767E+01
 0.2360859521667E+01
 0.2206703326329E+01
 0.2046211655462E+01
 0.1878923041651E+01
 0.1701246734706E+01
 0.3383856425280E+01
 0.3386768177321E+01
 0.3379582676510E+01
 0.3360586794789E+01
 0.3328687961097E+01
 0.3283249746250E+01
 0.3223955214415E+01
 0.3150732259014E+01
 0.3063727055685E+01
 0.2963306811704E+01
 0.2850076676992E+01
 0.2724898826059E+01
 0.2588903424474E+01
 0.2443479844200E+01
 0.2290231060909E+01
 0.2130861184389E+01
 0.1966941314356E+01
 0.1799439764110E+01
 0.1627833949606E+01
 0.1448440832793E+01
 0.3360344928024E+01
 0.3355329478818E+01
 0.3338512369485E+01
 0.3307940991897E+01
 0.3262633661879E+01
 0.3202198736490E+01
 0.3126605959861E+01
 0.3036085696399E+01
 0.2931104262703E+01
 0.2812377793869E+01
 0.2680899542002E+01
 0.2537965769849E+01
 0.2385190322358E+01
 0.2224499720747E+01
 0.2058098507288E+01
 0.1888390119939E+01
 0.1717828706707E+01
 0.1548685322552E+01
 0.1382689667256E+01
 0.1221678746658E+01
 0.3330726226300E+01
 0.3317168278543E+01
 0.3289683688139E+01
 0.3246249114511E+01
 0.3186201736129E+01
 0.3109538744603E+01
 0.3016596950315E+01
 0.2907946465475E+01
 0.2784389329474E+01
 0.2646995015727E+01
 0.2497141298037E+01
 0.2336545882916E+01
 0.2167286869664E+01
 0.1991815637583E+01
 0.1812972535291E+01
 0.1634029599655E+01
 0.1458824075309E+01
 0.1292115419865E+01
 0.1140589832984E+01
 0.1014199565333E+01
 0.3295513937379E+01
 0.3272801370835E+01
 0.3233502784143E+01
 0.3175868065593E+01
 0.3099839653550E+01
 0.3005943215903E+01
 0.2894914852975E+01
 0.2767649017969E+01
 0.2625249869966E+01
 0.2469100578953E+01
 0.2300911277684E+01
 0.2122749971646E+01
 0.1937069953069E+01
 0.1746754921895E+01
 0.1555219492938E+01
 0.1366641916376E+01
 0.1186483050963E+01
 0.1022636420713E+01
 0.8877702160166E+00
 0.8035867248183E+00
 0.3255351584248E+01
 0.3222784608254E+01
 0.3170349673583E+01
 0.3097174043719E+01
 0.3004155298810E+01
 0.2892406182276E+01
 0.2763003136880E+01
 0.2617073135662E+01
 0.2455954502509E+01
 0.2281278597012E+01
 0.2095004551589E+01
 0.1899438911611E+01
 0.1697268060636E+01
 0.1491637988911E+01
 0.1286339730003E+01
 0.1086208052360E+01
 0.8979481561429E+00
 0.7317787889993E+00
 0.6047260539255E+00
 0.5481349699212E+00
 0.3211012015469E+01
 0.3167611824502E+01
 0.3100471084320E+01
 0.3010587906597E+01
 0.2900083403735E+01
 0.2770543966597E+01
 0.2623141810784E+01
 0.2459146559870E+01
 0.2280101177339E+01
 0.2087867283284E+01
 0.1884636582183E+01
 0.1672952809897E+01
 0.1455777662242E+01
 0.1236643639976E+01
 0.1019963605114E+01
 0.8116166993508E+00
 0.6200039014328E+00
 0.4579344815048E+00
 0.3459445343543E+00
 0.3193650672968E+00
 0.3163481080048E+01
 0.3107715494673E+01
 0.3024116339631E+01
 0.2916977001110E+01
 0.2789657994844E+01
 0.2643355453379E+01
 0.2479206298846E+01
 0.2298677049069E+01
 0.2103599511489E+01
 0.1896165559586E+01
 0.1678942607088E+01
 0.1454939458313E+01
 0.1227750226242E+01
 0.1001819118049E+01
 0.7828887285532E+00
 0.5787134735535E+00
 0.4001374760734E+00
 0.2625824243444E+00
 0.1881579953318E+00
 0.2061162265456E+00
 0.3114184125306E+01
 0.3042615930171E+01
 0.2940583172506E+01
 0.2817990750296E+01
 0.2675656533452E+01
 0.2514312927271E+01
 0.2335371227299E+01
 0.2140704702324E+01
 0.1932595094604E+01
 0.1713729119085E+01
 0.1487256173762E+01
 0.1256907882178E+01
 0.1027199144651E+01
 0.8037348006022E+00
 0.5936423582499E+00
 0.4061247322261E+00
 0.2530324155907E+00
 0.1491599017084E+00
 0.1112958806366E+00
 0.1524927737063E+00
 0.3061337269741E+01
 0.2965649148646E+01
 0.2851417161490E+01
 0.2716708568372E+01
 0.2561378676858E+01
 0.2387155348207E+01
 0.2196093595805E+01
 0.1990626998562E+01
 0.1773572110960E+01
 0.1548190640710E+01
 0.1318275375416E+01
 0.1088277291129E+01
 0.8634802729109E+00
 0.6502210740085E+00
 0.4561264555458E+00
 0.2902761767539E+00
 0.1630623619193E+00
 0.8518886666452E-01
 0.6464343986820E-01
 0.9684394470787E-01
</DataArray>
<CellData Tensors="'E_Centroid','S_Centroid'">
<DataArray type="Float64" Name="E_Centroid" NumberOfComponents="4" ComponentName0="E11" ComponentName1="E22" ComponentName2="E33" ComponentName3="E12" format="ascii">
-0.3629232865474E-03  0.2578157018692E-02  0.0000000000000E+00  0.4935478959283E-03
-0.6593833671888E-03  0.2453711833147E-02  0.0000000000000E+00 -0.9028954954152E-04
-0.6102144686977E-03  0.2470557419194E-02  0.0000000000000E+00 -0.1903617202108E-04
-0.6260400665590E-03  0.2496963823606E-02  0.0000000000000E+00 -0.1255632956335E-04
-0.6253483558234E-03  0.2502242423669E-02  0.0000000000000E+00  0.7260396240466E-07
-0.6225423045492E-03  0.2489661125215E-02  0.0000000000000E+00  0.9709340473486E-05
-0.6150798693354E-03  0.2460347313981E-02  0.0000000000000E+00  0.1793585195727E-04
-0.6041042109915E-03  0.2416461873920E-02  0.0000000000000E+00  0.2493359026446E-04
-0.5898971856454E-03  0.2359716710451E-02  0.0000000000000E+00  0.3102449086114E-04
-0.5728377878606E-03  0.2291507209158E-02  0.0000000000000E+00  0.3643848260950E-04
-0.5531782500561E-03  0.2212880061165E-02  0.0000000000000E+00  0.4137175971818E-04
-0.5311037897138E-03  0.2124572126272E-02  0.0000000000000E+00  0.4599008268560E-04
-0.5067270597966E-03  0.2027037559323E-02  0.0000000000000E+00  0.5043855197374E-04
-0.4800976461561E-03  0.1920474926317E-02  0.0000000000000E+00  0.5484610877203E-04
-0.4512071103496E-03  0.1804850570828E-02  0.0000000000000E+00  0.5932838731917E-04
-0.4199942384664E-03  0.1679919726179E-02  0.0000000000000E+00  0.6398913664649E-04
-0.3863504657875E-03  0.1545244786133E-02  0.0000000000000E+00  0.6892370929026E-04
-0.3501239746512E-03  0.1400221050963E-02  0.0000000000000E+00  0.7421394799577E-04
-0.3111243097709E-03  0.1244081418593E-02  0.0000000000000E+00  0.7993769215196E-04
-0.2691256680258E-03  0.1075921492654E-02  0.0000000000000E+00  0.8616527526268E-04
-0.2238683462939E-03  0.8946985722158E-03  0.0000000000000E+00  0.9296774671421E-04
-0.1750549208548E-03  0.6992184119223E-03  0.0000000000000E+00  0.1004305932514E-03
-0.1223306205197E-03  0.4880712242006E-03  0.0000000000000E+00  0.1086655500069E-03
-0.6529344813816E-04  0.2593623815662E-03  0.0000000000000E+00  0.1179997165851E-03
-0.3525876802662E-05  0.1057510306217E-04  0.0000000000000E+00  0.1296067882394E-03
 0.6321763511533E-04 -0.2600591053398E-03  0.0000000000000E+00  0.1463623478576E-03
 0.1347621271728E-03 -0.5521410110848E-03  0.0000000000000E+00  0.1722401562788E-03
 0.2104625990584E-03 -0.8632463701351E-03  0.0000000000000E+00  0.2109259494551E-03
 0.2893211004573E-03 -0.1189724891090E-02  0.0000000000000E+00  0.2651131578354E-03
 0.3701147129910E-03 -0.1527355652491E-02  0.0000000000000E+00  0.3365823281066E-03
 0.4514328404916E-03 -0.1871543691988E-02  0.0000000000000E+00  0.4266590646320E-03
 0.5316081154992E-03 -0.2216994667792E-02  0.0000000000000E+00  0.5365590343856E-03
 0.6088765491467E-03 -0.2556679674893E-02  0.0000000000000E+00  0.6657882772027E-03
 0.6818211568315E-03 -0.2883910264169E-02  0.0000000000000E+00  0.8101236610579E-03
 0.7506184333508E-03 -0.3198055423327E-02  0.0000000000000E+00  0.9658047605294E-03
 0.8136421496130E-03 -0.3503863561531E-02  0.0000000000000E+00  0.1135260575427E-02
 0.8819506265705E-03 -0.3814593518923E-02  0.0000000000000E+00  0.1330158311160E-02
 0.9093029787388E-03 -0.4142366201517E-02  0.0000000000000E+00  0.1586665270270E-02
 0.1145054718714E-02 -0.4608098014913E-02  0.0000000000000E+00  0.1918819517907E-02
 0.2328505514800E-03 -0.5050897378381E-02  0.0000000000000E+00  0.3229138853738E-02
 0.4473582582443E-02 -0.6208764751191E-02  0.0000000000000E+00  0.3560250052951E-02
-0.2722879164716E-03  0.2257612227811E-02  0.0000000000000E+00  0.3997889984994E-03
-0.5685357138355E-03  0.2334498323016E-02  0.0000000000000E+00  0.4943079303660E-04
-0.5834133598896E-03  0.2298645248365E-02  0.0000000000000E+00 -0.5302618046610E-04
-0.5773462241374E-03  0.2302373673080E-02  0.0000000000000E+00 -0.1740015172038E-04
-0.5778314570125E-03  0.2298363018128E-02  0.0000000000000E+00  0.6465005931957E-05
-0.5726762633054E-03  0.2281116117925E-02  0.0000000000000E+00  0.3180494199901E-04
-0.5647116309633E-03  0.2250361588962E-02  0.0000000000000E+00  0.5388809914080E-04
-0.5535098958986E-03  0.2206801059102E-02  0.0000000000000E+00  0.7344059627239E-04
-0.5394727722687E-03  0.2151520264427E-02  0.0000000000000E+00  0.9079099828726E-04
-0.5228086725590E-03  0.2085513672000E-02  0.0000000000000E+00  0.1064364297095E-03
-0.5037208199927E-03  0.2009597059989E-02  0.0000000000000E+00  0.1208277569021E-03
-0.4823510350364E-03  0.1924368696673E-02  0.0000000000000E+00  0.1343832418643E-03
-0.4587895067912E-03  0.1830206555122E-02  0.0000000000000E+00  0.1474836281052E-03
-0.4330736995460E-03  0.1727275925710E-02  0.0000000000000E+00  0.1604762473520E-03
-0.4051916978411E-03  0.1615542118690E-02  0.0000000000000E+00  0.1736774134370E-03
-0.3750857906693E-03  0.1494785092602E-02  0.0000000000000E+00  0.1873747893880E-03
-0.3426560424833E-03  0.1364614945070E-02  0.0000000000000E+00  0.2018277831451E-03
-0.3077646165172E-03  0.1224490196946E-02  0.0000000000000E+00  0.2172693669555E-03
-0.2702402406225E-03  0.1073730543195E-02  0.0000000000000E+00  0.2339110010822E-03
-0.2298812835547E-03  0.9115303319926E-03  0.0000000000000E+00  0.2519475394412E-03
-0.1864599731015E-03  0.7369669253951E-03  0.0000000000000E+00  0.2715780267454E-03
-0.1397195562028E-03  0.5489866792740E-03  0.0000000000000E+00  0.2930401410943E-03
-0.8938355929708E-04  0.3463481346725E-03  0.0000000000000E+00  0.3167525603656E-03
-0.3529327932308E-04  0.1275943464333E-03  0.0000000000000E+00  0.3436302466298E-03
 0.2244258070791E-04 -0.1085741180138E-03  0.0000000000000E+00  0.3749941317132E-03
 0.8352099526920E-04 -0.3625888845979E-03  0.0000000000000E+00  0.4124090702453E-03
 0.1475652972391E-03 -0.6335371576489E-03  0.0000000000000E+00  0.4576782026472E-03
 0.2140722125377E-03 -0.9191546284134E-03  0.0000000000000E+00  0.5125528515558E-03
 0.2823084316345E-03 -0.1216142374008E-02  0.0000000000000E+00  0.5783751810113E-03
 0.3512644149143E-03 -0.1520458291065E-02  0.0000000000000E+00  0.6559555351684E-03
 0.4196212773128E-03 -0.1827372009372E-02  0.0000000000000E+00  0.7455923035742E-03
 0.4859312394805E-03 -0.2131299454831E-02  0.0000000000000E+00  0.8467163941936E-03
 0.5490460967583E-03 -0.2425976420663E-02  0.0000000000000E+00  0.9574377275180E-03
 0.6080895389409E-03 -0.2705666703773E-02  0.0000000000000E+00  0.1075714903703E-02
 0.6610159042266E-03 -0.2966290335614E-02  0.0000000000000E+00  0.1201757942220E-02
 0.7072359696229E-03 -0.3205682167836E-02  0.0000000000000E+00  0.1338533608244E-02
 0.7338099733124E-03 -0.3419501159724E-02  0.0000000000000E+00  0.1504514842754E-02
 0.7654648683778E-03 -0.3605730853356E-02  0.0000000000000E+00  0.1687304705184E-02
 0.6476203379008E-03 -0.3728671941261E-02  0.0000000000000E+00  0.2165365009073E-02
 0.2752575310608E-03 -0.3326687970863E-02  0.0000000000000E+00  0.2002857573361E-02
 0.3279807631222E-02 -0.3358270493994E-02  0.0000000000000E+00  0.3603183575372E-03
-0.2099223451619E-03  0.2015897602948E-02  0.0000000000000E+00  0.2645413588537E-03
-0.4796181572760E-03  0.2134787897910E-02  0.0000000000000E+00  0.9096632293121E-04
-0.5375798235788E-03  0.2126390839308E-02  0.0000000000000E+00 -0.2928931211630E-04
-0.5353599913031E-03  0.2110972928592E-02  0.0000000000000E+00 -0.1622955690129E-04
-0.5321356488232E-03  0.2098873650728E-02  0.0000000000000E+00  0.2041009325725E-04
-0.5261437088902E-03  0.2077184495181E-02  0.0000000000000E+00  0.5640701545851E-04
-0.5171410257855E-03  0.2044668713665E-02  0.0000000000000E+00  0.9046765135525E-04
-0.5055535781673E-03  0.2001097253245E-02  0.0000000000000E+00  0.1211644691415E-03
-0.4914483295561E-03  0.1946965215853E-02  0.0000000000000E+00  0.1488918928295E-03
-0.4750078533888E-03  0.1882912788213E-02  0.0000000000000E+00  0.1741551510563E-03
-0.4563639199245E-03  0.1809531178618E-02  0.0000000000000E+00  0.1975653492393E-03
-0.4356223138767E-03  0.1727281930936E-02  0.0000000000000E+00  0.2197203726122E-03
-0.4128473514669E-03  0.1636464530856E-02  0.0000000000000E+00  0.2411896264233E-03
-0.3880620612196E-03  0.1537207694707E-02  0.0000000000000E+00  0.2625039872185E-03
-0.3612480023960E-03  0.1429471906245E-02  0.0000000000000E+00  0.2841536119991E-03
-0.3323474610250E-03  0.1313058084369E-02  0.0000000000000E+00  0.3065868106644E-03
-0.3012659815022E-03  0.1187618874508E-02  0.0000000000000E+00  0.3302093048829E-03
-0.2678767306849E-03  0.1052674890024E-02  0.0000000000000E+00  0.3553857666495E-03
-0.2320248626205E-03  0.9076273220150E-03  0.0000000000000E+00  0.3824445366482E-03
-0.1935325724794E-03  0.7517714629121E-03  0.0000000000000E+00  0.4116882437664E-03
-0.1522063558037E-03  0.5843096761061E-03  0.0000000000000E+00  0.4434211757740E-03
-0.1078460380770E-03  0.4043478931757E-03  0.0000000000000E+00  0.4780147232267E-03
-0.6030152488057E-04  0.2108972775401E-03  0.0000000000000E+00  0.5160918269633E-03
-0.9646842449723E-05  0.3012190871645E-05  0.0000000000000E+00  0.5586969117775E-03
 0.4370112213581E-04 -0.2197629284528E-03  0.0000000000000E+00  0.6068443464182E-03
 0.9916602273113E-04 -0.4570279818607E-03  0.0000000000000E+00  0.6610669966347E-03
 0.1562550223849E-03 -0.7074632053725E-03  0.0000000000000E+00  0.7216327855345E-03
 0.2145316144950E-03 -0.9688249586767E-03  0.0000000000000E+00  0.7887437106175E-03
 0.2734335189508E-03 -0.1238002325583E-02  0.0000000000000E+00  0.8624415777770E-03
 0.3321291056983E-03 -0.1511073479640E-02  0.0000000000000E+00  0.9424098257188E-03
 0.3894968741148E-03 -0.1783282492722E-02  0.0000000000000E+00  0.1027700381791E-02
 0.4443780457581E-03 -0.2049073838086E-02  0.0000000000000E+00  0.1116369053720E-02
 0.4959122657754E-03 -0.2302442548696E-02  0.0000000000000E+00  0.1205776662149E-02
 0.5428492134998E-03 -0.2537169620298E-02  0.0000000000000E+00  0.1294265333462E-02
 0.5828979646810E-03 -0.2746379251596E-02  0.0000000000000E+00  0.1381524298055E-02
 0.6103931150496E-03 -0.2921131943670E-02  0.0000000000000E+00  0.1470564115849E-02
 0.6198193010069E-03 -0.3045631445819E-02  0.0000000000000E+00  0.1556878099336E-02
 0.5943631708052E-03 -0.3095329867388E-02  0.0000000000000E+00  0.1664824601221E-02
 0.4177258961805E-03 -0.2910194435567E-02  0.0000000000000E+00  0.1703790881377E-02
 0.5536638493565E-03 -0.2411820845588E-02  0.0000000000000E+00  0.6026753637755E-03
 0.3109847824247E-02 -0.2470787236386E-02  0.0000000000000E+00 -0.9841304369187E-03
-0.1663738123339E-03  0.1802861842491E-02  0.0000000000000E+00  0.1419418218508E-03
-0.4037499610853E-03  0.1923982027366E-02  0.0000000000000E+00  0.8616490627962E-04
-0.4840209560033E-03  0.1938718531386E-02  0.0000000000000E+00 -0.2644981617526E-05
-0.4928721641191E-03  0.1921440987885E-02  0.0000000000000E+00 -0.1262813784415E-05
-0.4889688055359E-03  0.1902250662621E-02  0.0000000000000E+00  0.3875295507792E-04
-0.4819087423362E-03  0.1876965462150E-02  0.0000000000000E+00  0.8394644606362E-04
-0.4720919891788E-03  0.1842711430296E-02  0.0000000000000E+00  0.1277305822179E-03
-0.4599513775580E-03  0.1798974707284E-02  0.0000000000000E+00  0.1683321110793E-03
-0.4456515733635E-03  0.1745794031764E-02  0.0000000000000E+00  0.2055116938344E-03
-0.4293041665619E-03  0.1683518190536E-02  0.0000000000000E+00  0.2397418750811E-03
-0.4110087078310E-03  0.1612540231538E-02  0.0000000000000E+00  0.2716782858480E-03
-0.3908360763744E-03  0.1533194946518E-02  0.0000000000000E+00  0.3020400258459E-03
-0.3688278495399E-03  0.1445706537447E-02  0.0000000000000E+00  0.3315394727336E-03
-0.3449917590756E-03  0.1350166913843E-02  0.0000000000000E+00  0.3608579528534E-03
-0.3193011185471E-03  0.1246529858923E-02  0.0000000000000E+00  0.3906329281419E-03
-0.2916956680019E-03  0.1134614266877E-02  0.0000000000000E+00  0.4214513643969E-03
-0.2620836661406E-03  0.1014112097993E-02  0.0000000000000E+00  0.4538459796843E-03
-0.2303463271922E-03  0.8846030226325E-03  0.0000000000000E+00  0.4882945091882E-03
-0.1963428041894E-03  0.7455669917778E-03  0.0000000000000E+00  0.5252239908533E-03
-0.1599178216872E-03  0.5964000969038E-03  0.0000000000000E+00  0.5650237062347E-03
-0.1209141300108E-03  0.4364338349313E-03  0.0000000000000E+00  0.6080771330694E-03
-0.7919937132789E-04  0.2649524240440E-03  0.0000000000000E+00  0.6548409456838E-03
-0.3475239030881E-04  0.8125350908215E-04  0.0000000000000E+00  0.7059919610403E-03
 0.1217665054426E-04 -0.1151468662538E-03  0.0000000000000E+00  0.7624343241242E-03
 0.6100446672280E-04 -0.3241079165414E-03  0.0000000000000E+00  0.8247019224267E-03
 0.1110374983715E-03 -0.5446898418823E-03  0.0000000000000E+00  0.8924600011476E-03
 0.1617389741468E-03 -0.7752770502277E-03  0.0000000000000E+00  0.9648086886759E-03
 0.2127219299115E-03 -0.1013593557444E-02  0.0000000000000E+00  0.1040678929465E-02
 0.2635527549184E-03 -0.1256632364576E-02  0.0000000000000E+00  0.1118890810526E-02
 0.3135787910678E-03 -0.1500574216717E-02  0.0000000000000E+00  0.1197933787986E-02
 0.3619194568140E-03 -0.1740734190297E-02  0.0000000000000E+00  0.1275601171565E-02
 0.4076925764507E-03 -0.1971647275053E-02  0.0000000000000E+00  0.1348759238310E-02
 0.4500923765685E-03 -0.2187247130154E-02  0.0000000000000E+00  0.1413892504559E-02
 0.4877542451626E-03 -0.2380515908323E-02  0.0000000000000E+00  0.1468118661248E-02
 0.5175322218880E-03 -0.2542262511692E-02  0.0000000000000E+00  0.1509210010406E-02
 0.5340162874924E-03 -0.2658564922887E-02  0.0000000000000E+00  0.1531684429753E-02
 0.5303556134829E-03 -0.2707914276058E-02  0.0000000000000E+00  0.1523157733996E-02
 0.4826706287771E-03 -0.2638474266767E-02  0.0000000000000E+00  0.1449682972011E-02
 0.4083559106782E-03 -0.2340878221556E-02  0.0000000000000E+00  0.1019488328996E-02
 0.9081492172272E-03 -0.1985325622116E-02  0.0000000000000E+00 -0.4169818412597E-03
 0.3088964345470E-02 -0.2153806097017E-02  0.0000000000000E+00 -0.1592467127344E-02
-0.1345675377695E-03  0.1603375278651E-02  0.0000000000000E+00  0.3798078756700E-04
-0.3406504800529E-03  0.1715186374100E-02  0.0000000000000E+00  0.6176307855703E-04
-0.4298015486627E-03  0.1743134604919E-02  0.0000000000000E+00  0.1596869089275E-04
-0.4491763821633E-03  0.1730241927110E-02  0.0000000000000E+00  0.1994534310994E-04
-0.4472526862275E-03  0.1707786612762E-02  0.0000000000000E+00  0.6162606388898E-04
-0.4396559379223E-03  0.1679631964229E-02  0.0000000000000E+00  0.1136629748983E-03
-0.4291575108940E-03  0.1643980259809E-02  0.0000000000000E+00  0.1657455174713E-03
-0.4164721133206E-03  0.1600070485918E-02  0.0000000000000E+00  0.2150114528356E-03
-0.4018977978931E-03  0.1547746962392E-02  0.0000000000000E+00  0.2607712646905E-03
-0.3855625698014E-03  0.1487135478413E-02  0.0000000000000E+00  0.3032954690967E-03
-0.3675468495300E-03  0.1418470912212E-02  0.0000000000000E+00  0.3432325074646E-03
-0.3479011251103E-03  0.1341978437148E-02  0.0000000000000E+00  0.3813652342922E-03
-0.3266480585260E-03  0.1257814616508E-02  0.0000000000000E+00  0.4185104576987E-03
-0.3037816073972E-03  0.1166037089195E-02  0.0000000000000E+00  0.4554689267999E-03
-0.2792661217499E-03  0.1066592693627E-02  0.0000000000000E+00  0.4930004699879E-03
-0.2530370281400E-03  0.9593164434188E-03  0.0000000000000E+00  0.5318094757391E-03
-0.2250028404330E-03  0.8439369377967E-03  0.0000000000000E+00  0.5725364466180E-03
-0.1950499630516E-03  0.7200898502171E-03  0.0000000000000E+00  0.6157536236795E-03
-0.1630488092222E-03  0.5873311367648E-03  0.0000000000000E+00  0.6619673509652E-03
-0.1288644054283E-03  0.4451562028457E-03  0.0000000000000E+00  0.7116303147811E-03
-0.9237562111961E-04  0.2930276634226E-03  0.0000000000000E+00  0.7651728787548E-03
-0.5351713466190E-04  0.1304156102815E-03  0.0000000000000E+00  0.8230717507605E-03
-0.1237471000590E-04 -0.4310375906416E-04  0.0000000000000E+00  0.8859289044113E-03
 0.3068812519025E-04 -0.2276320558820E-03  0.0000000000000E+00  0.9543584697938E-03
 0.7501819095421E-04 -0.4226061748163E-03  0.0000000000000E+00  0.1028355136260E-02
 0.1199008156518E-03 -0.6267325876232E-03  0.0000000000000E+00  0.1106829986501E-02
 0.1648128454447E-03 -0.8381935815076E-03  0.0000000000000E+00  0.1187940269792E-02
 0.2094273915910E-03 -0.1054676963928E-02  0.0000000000000E+00  0.1269542983885E-02
 0.2534328357064E-03 -0.1273248392362E-02  0.0000000000000E+00  0.1349323369376E-02
 0.2963664277832E-03 -0.1490201213381E-02  0.0000000000000E+00  0.1424587883307E-02
 0.3376074665027E-03 -0.1700978925179E-02  0.0000000000000E+00  0.1491908568719E-02
 0.3765170342366E-03 -0.1900214322216E-02  0.0000000000000E+00  0.1546987662198E-02
 0.4123939925937E-03 -0.2081699151244E-02  0.0000000000000E+00  0.1585032073264E-02
 0.4438347307434E-03 -0.2237746085643E-02  0.0000000000000E+00  0.1601195824066E-02
 0.4678894691103E-03 -0.2357558599667E-02  0.0000000000000E+00  0.1589013516245E-02
 0.4803868686073E-03 -0.2425165505512E-02  0.0000000000000E+00  0.1535196988214E-02
 0.4757749897873E-03 -0.2414837977796E-02  0.0000000000000E+00  0.1410971936017E-02
 0.4536226698004E-03 -0.2278413387240E-02  0.0000000000000E+00  0.1121585976152E-02
 0.5312505849152E-03 -0.1993884424615E-02  0.0000000000000E+00  0.3671284587528E-03
 0.1241181112328E-02 -0.1806940658036E-02  0.0000000000000E+00 -0.1075684413047E-02
 0.3108944755303E-02 -0.2035702978687E-02  0.0000000000000E+00 -0.1907648971470E-02
-0.1103597579366E-03  0.1411512796818E-02  0.0000000000000E+00 -0.4898521514090E-04
-0.2881273763630E-03  0.1510908511866E-02  0.0000000000000E+00  0.3029282424252E-04
-0.3781979359397E-03  0.1544943487230E-02  0.0000000000000E+00  0.2654509895945E-04
-0.4052673231508E-03  0.1537350621840E-02  0.0000000000000E+00  0.4223250306906E-04
-0.4064265025962E-03  0.1514519404573E-02  0.0000000000000E+00  0.8751515146727E-04
-0.3990220931376E-03  0.1484648282726E-02  0.0000000000000E+00  0.1451015329583E-03
-0.3880496690844E-03  0.1448004372131E-02  0.0000000000000E+00  0.2042989657043E-03
-0.3748817099895E-03  0.1404050254277E-02  0.0000000000000E+00  0.2612111897027E-03
-0.3600131837292E-03  0.1352569462983E-02  0.0000000000000E+00  0.3147189854827E-03
-0.3436438692707E-03  0.1293567456996E-02  0.0000000000000E+00  0.3648754005237E-03
-0.3258646101666E-03  0.1227162570926E-02  0.0000000000000E+00  0.4122677105683E-03
-0.3067185851605E-03  0.1153493524587E-02  0.0000000000000E+00  0.4577050734353E-03
-0.2862167100711E-03  0.1072660124963E-02  0.0000000000000E+00  0.5020748835423E-03
-0.2643417626601E-03  0.9846905346362E-03  0.0000000000000E+00  0.5462702770453E-03
-0.2410494481303E-03  0.8895258243194E-03  0.0000000000000E+00  0.5911504706318E-03
-0.2162696585143E-03  0.7870161639721E-03  0.0000000000000E+00  0.6375172271786E-03
-0.1899089553690E-03  0.6769245143428E-03  0.0000000000000E+00  0.6861002480378E-03
-0.1618560359790E-03  0.5589394897662E-03  0.0000000000000E+00  0.7375479171151E-03
-0.1319893018924E-03  0.4326897416819E-03  0.0000000000000E+00  0.7924259639353E-03
-0.1001906242594E-03  0.2977669862024E-03  0.0000000000000E+00  0.8512258769082E-03
-0.6637095636350E-04  0.1537629093278E-03  0.0000000000000E+00  0.9143883246908E-03
-0.3052098766360E-04  0.3277449102859E-06  0.0000000000000E+00  0.9823454914532E-03
 0.7198913427681E-05 -0.1627139938253E-03  0.0000000000000E+00  0.1055530936402E-02
 0.4636891459650E-04 -0.3351623352389E-03  0.0000000000000E+00  0.1134191324355E-02
 0.8633427154756E-04 -0.5161594522130E-03  0.0000000000000E+00  0.1217775100482E-02
 0.1264229630834E-03 -0.7041857907029E-03  0.0000000000000E+00  0.1304524710323E-02
 0.1661717491894E-03 -0.8972991622373E-03  0.0000000000000E+00  0.1391802040624E-02
 0.2053375110586E-03 -0.1093172703965E-02  0.0000000000000E+00  0.1476533289116E-02
 0.2437431165017E-03 -0.1288947301402E-02  0.0000000000000E+00  0.1555359464497E-02
 0.2811319276209E-03 -0.1481051908712E-02  0.0000000000000E+00  0.1624456014015E-02
 0.3171522415587E-03 -0.1665099314811E-02  0.0000000000000E+00  0.1679218534864E-02
 0.3514286771241E-03 -0.1835850300749E-02  0.0000000000000E+00  0.1714122934556E-02
 0.3834612641160E-03 -0.1987042604864E-02  0.0000000000000E+00  0.1722831732800E-02
 0.4121498548888E-03 -0.2110638378957E-02  0.0000000000000E+00  0.1697904098804E-02
 0.4355311522765E-03 -0.2195367062530E-02  0.0000000000000E+00  0.1628184341420E-02
 0.4517035972620E-03 -0.2225086071450E-02  0.0000000000000E+00  0.1492492866797E-02
 0.4622739778519E-03 -0.2175962512576E-02  0.0000000000000E+00  0.1244148280964E-02
 0.4970998310126E-03 -0.2021971329933E-02  0.0000000000000E+00  0.7636197262146E-03
 0.7176893801550E-03 -0.1804493146282E-02  0.0000000000000E+00 -0.1652370378138E-03
 0.1530476973345E-02 -0.1751622485976E-02  0.0000000000000E+00 -0.1486059280186E-02
 0.3141622925301E-02 -0.2005531598921E-02  0.0000000000000E+00 -0.2084111363907E-02
-0.9130377321899E-04  0.1224533975225E-02  0.0000000000000E+00 -0.1215698771288E-03
-0.2440399660975E-03  0.1311260807076E-02  0.0000000000000E+00 -0.2329175472813E-05
-0.3304802919952E-03  0.1346935504440E-02  0.0000000000000E+00  0.3125343143827E-04
-0.3622064289438E-03  0.1343714243288E-02  0.0000000000000E+00  0.6324746792120E-04
-0.3664293893868E-03  0.1322030349290E-02  0.0000000000000E+00  0.1147385250216E-03
-0.3597317153113E-03  0.1291562632331E-02  0.0000000000000E+00  0.1776635297884E-03
-0.3485344411151E-03  0.1254409784462E-02  0.0000000000000E+00  0.2431290344693E-03
-0.3349759418721E-03  0.1210606659587E-02  0.0000000000000E+00  0.3068508800373E-03
-0.3198308942805E-03  0.1160020074113E-02  0.0000000000000E+00  0.3673561479341E-03
-0.3034105967986E-03  0.1102618127662E-02  0.0000000000000E+00  0.4245042253049E-03
-0.2858447325505E-03  0.1038450538446E-02  0.0000000000000E+00  0.4788014696025E-03
-0.2671841092231E-03  0.9675943079375E-03  0.0000000000000E+00  0.5310562628874E-03
-0.2474358327466E-03  0.8901058522227E-03  0.0000000000000E+00  0.5822011211045E-03
-0.2265751940284E-03  0.8059902325181E-03  0.0000000000000E+00  0.6331984604072E-03
-0.2045502135350E-03  0.7151850507472E-03  0.0000000000000E+00  0.6849865017851E-03
-0.1812844544261E-03  0.6175553426859E-03  0.0000000000000E+00  0.7384458599908E-03
-0.1566804611721E-03  0.5128964249429E-03  0.0000000000000E+00  0.7943778368908E-03
-0.1306261670074E-03  0.4009466422493E-03  0.0000000000000E+00  0.8534891375312E-03
-0.1030040399617E-03  0.2814032643961E-03  0.0000000000000E+00  0.9163850835234E-03
-0.7370774594886E-04  0.1539494423057E-03  0.0000000000000E+00  0.9835709785514E-03
-0.4267226218091E-04  0.1829901391110E-04  0.0000000000000E+00  0.1055461299184E-02
-0.9926750848266E-05 -0.1257336233270E-03  0.0000000000000E+00  0.1132389060203E-02
 0.2432863295018E-04 -0.2781154808705E-03  0.0000000000000E+00  0.1214557831399E-02
 0.5966637778843E-04 -0.4384185510237E-03  0.0000000000000E+00  0.1301812741876E-02
 0.9548038008361E-04 -0.6055872089599E-03  0.0000000000000E+00  0.1393073153705E-02
 0.1311865312010E-03 -0.7779692023601E-03  0.0000000000000E+00  0.1485981763250E-02
 0.1664197710377E-03 -0.9535632873915E-03  0.0000000000000E+00  0.1577209567217E-02
 0.2010495303377E-03 -0.1130061979537E-02  0.0000000000000E+00  0.1662862255182E-02
 0.2350550826783E-03 -0.1304703260208E-02  0.0000000000000E+00  0.1738627187883E-02
 0.2684046561989E-03 -0.1474082400001E-02  0.0000000000000E+00  0.1799620337634E-02
 0.3010339137055E-03 -0.1634023875412E-02  0.0000000000000E+00  0.1840103051518E-02
 0.3328792058745E-03 -0.1779486650663E-02  0.0000000000000E+00  0.1853284123624E-02
 0.3637963856788E-03 -0.1904327395311E-02  0.0000000000000E+00  0.1831118933931E-02
 0.3933607980901E-03 -0.2000627073461E-02  0.0000000000000E+00  0.1763410215999E-02
 0.4211915580733E-03 -0.2057640285829E-02  0.0000000000000E+00  0.1634597200213E-02
 0.4490116923092E-03 -0.2061041743666E-02  0.0000000000000E+00  0.1416394432546E-02
 0.4886355553740E-03 -0.1994327429836E-02  0.0000000000000E+00  0.1051417786599E-02
 0.5930116746466E-03 -0.1856027396566E-02  0.0000000000000E+00  0.4284044907516E-03
 0.9276375675242E-03 -0.1718437355365E-02  0.0000000000000E+00 -0.5680872736963E-03
 0.1777146004465E-02 -0.1760455697280E-02  0.0000000000000E+00 -0.1735026962637E-02
 0.3180149207464E-02 -0.2020854121335E-02  0.0000000000000E+00 -0.2185266659964E-02
-0.7589296671890E-04  0.1041018352571E-02  0.0000000000000E+00 -0.1821288782000E-03
-0.2066498269347E-03  0.1115810585429E-02  0.0000000000000E+00 -0.3330206632841E-04
-0.2869557551129E-03  0.1150471953876E-02  0.0000000000000E+00  0.3223789550105E-04
-0.3207480539643E-03  0.1150268066029E-02  0.0000000000000E+00  0.8223338905308E-04
-0.3274236841083E-03  0.1130297330347E-02  0.0000000000000E+00  0.1420600580117E-03
-0.3216388906165E-03  0.1100068422022E-02  0.0000000000000E+00  0.2106942017699E-03
-0.3104262315169E-03  0.1062893337508E-02  0.0000000000000E+00  0.2819382968218E-03
-0.2965799975571E-03  0.1019471501878E-02  0.0000000000000E+00  0.3518020316566E-03
-0.2811961536812E-03  0.9698725373807E-03  0.0000000000000E+00  0.4186430399263E-03
-0.2647287222321E-03  0.9140964980026E-03  0.0000000000000E+00  0.4821762689358E-03
-0.2473688516460E-03  0.8521687348971E-03  0.0000000000000E+00  0.5428324861129E-03
-0.2291895491880E-03  0.7841301097131E-03  0.0000000000000E+00  0.6014054825952E-03
-0.2102022899880E-03  0.7100079131180E-03  0.0000000000000E+00  0.6588548090265E-03
-0.1903790233332E-03  0.6297915248718E-03  0.0000000000000E+00  0.7161936959823E-03
-0.1696614690984E-03  0.5434181259384E-03  0.0000000000000E+00  0.7744217845067E-03
-0.1479663166837E-03  0.4507677924066E-03  0.0000000000000E+00  0.8344818789543E-03
-0.1251900743080E-03  0.3516663270924E-03  0.0000000000000E+00  0.8972305696117E-03
-0.1012166103710E-03  0.2458983294117E-03  0.0000000000000E+00  0.9634160045408E-03
-0.7592781279026E-04  0.1332247275437E-03  0.0000000000000E+00  0.1033664069234E-02
-0.4922243316458E-04  0.1341317315758E-04  0.0000000000000E+00  0.1108469909478E-02
-0.2104823357035E-04 -0.1137116643134E-03  0.0000000000000E+00  0.1188189007604E-02
 0.8547938780995E-05 -0.2481935916456E-03  0.0000000000000E+00  0.1273013549670E-02
 0.3935963935173E-04 -0.3898335413781E-03  0.0000000000000E+00  0.1362880778412E-02
 0.7099215044154E-04 -0.5380398398762E-03  0.0000000000000E+00  0.1457226478850E-02
 0.1029261563898E-03 -0.6916349830407E-03  0.0000000000000E+00  0.1554469753092E-02
 0.1346995162768E-03 -0.8489057922134E-03  0.0000000000000E+00  0.1651712294185E-02
 0.1660776541944E-03 -0.1007848203778E-02  0.0000000000000E+00  0.1745014686058E-02
 0.1970721589424E-03 -0.1166213393693E-02  0.0000000000000E+00  0.1829753071215E-02
 0.2278441484282E-03 -0.1321368407142E-02  0.0000000000000E+00  0.1900750270309E-02
 0.2586087320759E-03 -0.1470111307795E-02  0.0000000000000E+00  0.1952142780983E-02
 0.2896163004218E-03 -0.1608529913258E-02  0.0000000000000E+00  0.1977112623586E-02
 0.3211817890535E-03 -0.1731878758623E-02  0.0000000000000E+00  0.1967608846323E-02
 0.3536859899224E-03 -0.1834355207372E-02  0.0000000000000E+00  0.1913879471794E-02
 0.3876886839741E-03 -0.1908630483935E-02  0.0000000000000E+00  0.1803183419016E-02
 0.4248705149602E-03 -0.1945345478275E-02  0.0000000000000E+00  0.1616314712089E-02
 0.4714508858272E-03 -0.1933712077652E-02  0.0000000000000E+00  0.1320327364170E-02
 0.5489681297085E-03 -0.1866795030222E-02  0.0000000000000E+00  0.8568238216425E-03
 0.7226178811788E-03 -0.1761916621106E-02  0.0000000000000E+00  0.1409058865731E-03
 0.1140270654799E-02 -0.1698809412855E-02  0.0000000000000E+00 -0.8582606085130E-03
 0.1988561045794E-02 -0.1804845221982E-02  0.0000000000000E+00 -0.1879259890439E-02
 0.3222813060294E-02 -0.2062900087834E-02  0.0000000000000E+00 -0.2240237655185E-02
-0.6315706328838E-04  0.8601627387895E-03  0.0000000000000E+00 -0.2325894576494E-03
-0.1746101209652E-03  0.9240533105137E-03  0.0000000000000E+00 -0.6134356701635E-04
-0.2474935127069E-03  0.9561682447720E-03  0.0000000000000E+00  0.3116595675854E-04
-0.2813352559152E-03  0.9577071305710E-03  0.0000000000000E+00  0.9918736052702E-04
-0.2896185134276E-03  0.9394700100495E-03  0.0000000000000E+00  0.1687325341367E-03
-0.2846943302187E-03  0.9099980229852E-03  0.0000000000000E+00  0.2436168990514E-03
-0.2735892185254E-03  0.8732187257252E-03  0.0000000000000E+00  0.3204171851553E-03
-0.2595459171246E-03  0.8304143705892E-03  0.0000000000000E+00  0.3959115535047E-03
-0.2439680498335E-03  0.7819190010411E-03  0.0000000000000E+00  0.4685120046375E-03
-0.2274694652817E-03  0.7278187485055E-03  0.0000000000000E+00  0.5378641022381E-03
-0.2103191172334E-03  0.6681519731063E-03  0.0000000000000E+00  0.6043448307230E-03
-0.1926244912218E-03  0.6029474289684E-03  0.0000000000000E+00  0.6687316554482E-03
-0.1744091307117E-03  0.5322175210452E-03  0.0000000000000E+00  0.7320002134691E-03
-0.1556457827530E-03  0.4559437432092E-03  0.0000000000000E+00  0.7952006647543E-03
-0.1362713984151E-03  0.3740663145690E-03  0.0000000000000E+00  0.8593794845308E-03
-0.1161953476449E-03  0.2864807797786E-03  0.0000000000000E+00  0.9255270691906E-03
-0.9530603693282E-04  0.1930415698848E-03  0.0000000000000E+00  0.9945405435863E-03
-0.7347967712473E-04  0.9357572007705E-04  0.0000000000000E+00  0.1067193947131E-02
-0.5059220744766E-04 -0.1209806124558E-04  0.0000000000000E+00  0.1144116120441E-02
-0.2653932661800E-04 -0.1241364853889E-03  0.0000000000000E+00  0.1225770445239E-02
-0.1268293106677E-05 -0.2426186665320E-03  0.0000000000000E+00  0.1312426407438E-02
 0.2517809094757E-04 -0.3674722168816E-03  0.0000000000000E+00  0.1404106569344E-02
 0.5261760687483E-04 -0.4983733151063E-03  0.0000000000000E+00  0.1500464339295E-02
 0.8072176874777E-04 -0.6346221363072E-03  0.0000000000000E+00  0.1600534471743E-02
 0.1090878790661E-03 -0.7749803204961E-03  0.0000000000000E+00  0.1702270398141E-02
 0.1374025578216E-03 -0.9177311945966E-03  0.0000000000000E+00  0.1802285472328E-02
 0.1655892923815E-03 -0.1060916888410E-02  0.0000000000000E+00  0.1896097116589E-02
 0.1938299516313E-03 -0.1202387605909E-02  0.0000000000000E+00  0.1978431863955E-02
 0.2224934705989E-03 -0.1339675989746E-02  0.0000000000000E+00  0.2043335322524E-02
 0.2520659160460E-03 -0.1469823675253E-02  0.0000000000000E+00  0.2084051402888E-02
 0.2831452458845E-03 -0.1589240928338E-02  0.0000000000000E+00  0.2092758701803E-02
 0.3164966240460E-03 -0.1693589080585E-02  0.0000000000000E+00  0.2060218477206E-02
 0.3531721267902E-03 -0.1777631149588E-02  0.0000000000000E+00  0.1975129493962E-02
 0.3949377362924E-03 -0.1835034289012E-02  0.0000000000000E+00  0.1822674459543E-02
 0.4458138594540E-03 -0.1858496474716E-02  0.0000000000000E+00  0.1581196777185E-02
 0.5165320101539E-03 -0.1841712610354E-02  0.0000000000000E+00  0.1216412602763E-02
 0.6357923669294E-03 -0.1786785547293E-02  0.0000000000000E+00  0.6766796951229E-03
 0.8716480990923E-03 -0.1722222470897E-02  0.0000000000000E+00 -0.9113586012063E-04
 0.1345813635612E-02 -0.1722014156749E-02  0.0000000000000E+00 -0.1057893988478E-02
 0.2172519038289E-02 -0.1870260631526E-02  0.0000000000000E+00 -0.1954224106877E-02
 0.3269364273344E-02 -0.2122247319083E-02  0.0000000000000E+00 -0.2264109452644E-02
-0.5244477700167E-04  0.6814782129069E-03  0.0000000000000E+00 -0.2744959032893E-03
-0.1468871366099E-03  0.7355327949352E-03  0.0000000000000E+00 -0.8593247384862E-04
-0.2117805437931E-03  0.7642552437129E-03  0.0000000000000E+00  0.2923146702091E-04
-0.2441765877423E-03  0.7664881104767E-03  0.0000000000000E+00  0.1144127434079E-03
-0.2531899900222E-03  0.7497357176208E-03  0.0000000000000E+00  0.1943785497892E-03
-0.2489003371019E-03  0.7212788838677E-03  0.0000000000000E+00  0.2759925379804E-03
-0.2379297110389E-03  0.6852103967825E-03  0.0000000000000E+00  0.3582772847585E-03
-0.2237503124178E-03  0.6432397331531E-03  0.0000000000000E+00  0.4390183749079E-03
-0.2080193968900E-03  0.5959707209893E-03  0.0000000000000E+00  0.5168794966094E-03
-0.1915103937719E-03  0.5436098156693E-03  0.0000000000000E+00  0.5915252671476E-03
-0.1745794073660E-03  0.4862376219786E-03  0.0000000000000E+00  0.6633120228119E-03
-0.1573774940574E-03  0.4238915950911E-03  0.0000000000000E+00  0.7330084024166E-03
-0.1399467764712E-03  0.3565825417585E-03  0.0000000000000E+00  0.8016016388806E-03
-0.1222645509768E-03  0.2842916948377E-03  0.0000000000000E+00  0.8701692640662E-03
-0.1042644324008E-03  0.2069658467597E-03  0.0000000000000E+00  0.9397930121766E-03
-0.8584798487346E-04  0.1245165017114E-03  0.0000000000000E+00  0.1011498471344E-02
-0.6689333007900E-04  0.3682476682244E-04  0.0000000000000E+00  0.1086210321354E-02
-0.4726512400872E-04 -0.5624408613435E-04  0.0000000000000E+00  0.1164714613357E-02
-0.2682735794265E-04 -0.1548203042802E-03  0.0000000000000E+00  0.1247627553292E-02
-0.5463506759590E-05 -0.2589953876176E-03  0.0000000000000E+00  0.1335362519883E-02
 0.1689396137577E-04 -0.3687689241865E-03  0.0000000000000E+00  0.1428082633033E-02
 0.4022750077698E-04 -0.4839789386975E-03  0.0000000000000E+00  0.1525623432891E-02
 0.6440609723737E-04 -0.6042153838773E-03  0.0000000000000E+00  0.1627350708272E-02
 0.8919509392796E-04 -0.7287179357597E-03  0.0000000000000E+00  0.1731916562084E-02
 0.1143322576939E-03 -0.8562374479608E-03  0.0000000000000E+00  0.1836846305992E-02
 0.1396746760703E-03 -0.9851010379783E-03  0.0000000000000E+00  0.1938314118506E-02
 0.1653274549461E-03 -0.1113440012409E-02  0.0000000000000E+00  0.2031354430259E-02
 0.1916682091587E-03 -0.1239242659746E-02  0.0000000000000E+00  0.2110117984479E-02
 0.2192983566298E-03 -0.1360244933062E-02  0.0000000000000E+00  0.2167959623642E-02
 0.2489990138745E-03 -0.1473774664048E-02  0.0000000000000E+00  0.2197324952747E-02
 0.2817488272105E-03 -0.1576626303261E-02  0.0000000000000E+00  0.2189489999881E-02
 0.3188256677648E-03 -0.1664977598759E-02  0.0000000000000E+00  0.2134165210002E-02
 0.3620565532266E-03 -0.1734352539238E-02  0.0000000000000E+00  0.2018780012243E-02
 0.4145301582539E-03 -0.1779719534251E-02  0.0000000000000E+00  0.1827079679345E-02
 0.4826119645340E-03 -0.1796228514509E-02  0.0000000000000E+00  0.1536400023531E-02
 0.5808377048374E-03 -0.1782150110772E-02  0.0000000000000E+00  0.1114270902892E-02
 0.7418965501950E-03 -0.1746617586456E-02  0.0000000000000E+00  0.5202991113954E-03
 0.1030246579602E-02 -0.1722829735699E-02  0.0000000000000E+00 -0.2690118900905E-03
 0.1540393975879E-02 -0.1773206014105E-02  0.0000000000000E+00 -0.1187140819328E-02
 0.2335633470935E-02 -0.1948908735433E-02  0.0000000000000E+00 -0.1982150412834E-02
 0.3319916990030E-02 -0.2193643560997E-02  0.0000000000000E+00 -0.2265573421321E-02
-0.4330254002262E-04  0.5046462983901E-03  0.0000000000000E+00 -0.3090865624447E-03
-0.1226840289487E-03  0.5498627369191E-03  0.0000000000000E+00 -0.1069343743783E-03
-0.1794442900310E-03  0.5747661478758E-03  0.0000000000000E+00  0.2725508550581E-04
-0.2093224236355E-03  0.5768826769243E-03  0.0000000000000E+00  0.1283021494758E-03
-0.2182554772807E-03  0.5612582720513E-03  0.0000000000000E+00  0.2188626551570E-03
-0.2142765934764E-03  0.5338901141043E-03  0.0000000000000E+00  0.3075230182701E-03
-0.2033835675787E-03  0.4987410222393E-03  0.0000000000000E+00  0.3952750335821E-03
-0.1890908211175E-03  0.4577831251702E-03  0.0000000000000E+00  0.4809677264331E-03
-0.1732357464008E-03  0.4118572900174E-03  0.0000000000000E+00  0.5636558766462E-03
-0.1567357716590E-03  0.3613041536907E-03  0.0000000000000E+00  0.6431086539910E-03
-0.1400361620126E-03  0.3062668080046E-03  0.0000000000000E+00  0.7197009388921E-03
-0.1233370650530E-03  0.2468081085760E-03  0.0000000000000E+00  0.7942064594981E-03
-0.1067040385983E-03  0.1829488557715E-03  0.0000000000000E+00  0.8676248469283E-03
-0.9012197287507E-04  0.1146770170460E-03  0.0000000000000E+00  0.9410553559192E-03
-0.7352227804826E-04  0.4194927955560E-04  0.0000000000000E+00  0.1015606293497E-02
-0.5679806726044E-04 -0.3530650786073E-04  0.0000000000000E+00  0.1092328284415E-02
-0.3981482784764E-04 -0.1171846882513E-03  0.0000000000000E+00  0.1172162515352E-02
-0.2242148294422E-04 -0.2037863285332E-03  0.0000000000000E+00  0.1255895126319E-02
-0.4463603600235E-05 -0.2951980793830E-03  0.0000000000000E+00  0.1344116585754E-02
 0.1419731819177E-04 -0.3914577380029E-03  0.0000000000000E+00  0.1437175970080E-02
 0.3365805048175E-04 -0.4925030541466E-03  0.0000000000000E+00  0.1535116290323E-02
 0.5394614890220E-04 -0.5981086267319E-03  0.0000000000000E+00  0.1637578209047E-02
 0.7500522308293E-04 -0.7078132015140E-03  0.0000000000000E+00  0.1743646019184E-02
 0.9671723206642E-04 -0.8208368172829E-03  0.0000000000000E+00  0.1851613952119E-02
 0.1189797385095E-03 -0.9359612386415E-03  0.0000000000000E+00  0.1958618358060E-02
 0.1418381307550E-03 -0.1051597010607E-02  0.0000000000000E+00  0.2060441514137E-02
 0.1655990756091E-03 -0.1166002282778E-02  0.0000000000000E+00  0.2151691400950E-02
 0.1908581361627E-03 -0.1277339765439E-02  0.0000000000000E+00  0.2226013585878E-02
 0.2184712479724E-03 -0.1383585246716E-02  0.0000000000000E+00  0.2276158733048E-02
 0.2495363609804E-03 -0.1482394347409E-02  0.0000000000000E+00  0.2293876151097E-02
 0.2854407680566E-03 -0.1571004157325E-02  0.0000000000000E+00  0.2269664451856E-02
 0.3280184456334E-03 -0.1646203557018E-02  0.0000000000000E+00  0.2192373050499E-02
 0.3799227239772E-03 -0.1704423955110E-02  0.0000000000000E+00  0.2048521469660E-02
 0.4455653956261E-03 -0.1742117735952E-02  0.0000000000000E+00  0.1821141683283E-02
 0.5334031935388E-03 -0.1756978938812E-02  0.0000000000000E+00  0.1487986949707E-02
 0.6606679871279E-03 -0.1751314743215E-02  0.0000000000000E+00  0.1020748975588E-02
 0.8611485393277E-03 -0.1738875226424E-02  0.0000000000000E+00  0.3918547060472E-03
 0.1192018017545E-02 -0.1752990148901E-02  0.0000000000000E+00 -0.3980308582161E-03
 0.1723128336572E-02 -0.1843009476586E-02  0.0000000000000E+00 -0.1262349414049E-02
 0.2483113578809E-02 -0.2036370168823E-02  0.0000000000000E+00 -0.1977228229572E-02
 0.3374621658316E-02 -0.2273891036478E-02  0.0000000000000E+00 -0.2250093323138E-02
-0.3540409212698E-04  0.3294456417412E-03  0.0000000000000E+00 -0.3373620391619E-03
-0.1013804167405E-03  0.3667210205158E-03  0.0000000000000E+00 -0.1244101767571E-03
-0.1501099379651E-03  0.3876338088301E-03  0.0000000000000E+00  0.2578545551415E-04
-0.1767231719145E-03  0.3890307664130E-03  0.0000000000000E+00  0.1412401557832E-03
-0.1848728217106E-03  0.3741567746451E-03  0.0000000000000E+00  0.2421937484946E-03
-0.1808394935868E-03  0.3478314403003E-03  0.0000000000000E+00  0.3380294755099E-03
-0.1699037564135E-03  0.3137169395215E-03  0.0000000000000E+00  0.4312217521363E-03
-0.1554814188099E-03  0.2739060398408E-03  0.0000000000000E+00  0.5216219799543E-03
-0.1395138052491E-03  0.2294250105256E-03  0.0000000000000E+00  0.6087532959250E-03
-0.1230363679717E-03  0.1807457618730E-03  0.0000000000000E+00  0.6925600532072E-03
-0.1065788513259E-03  0.1280851580478E-03  0.0000000000000E+00  0.7734754455928E-03
-0.9039239508517E-04  0.7154366054894E-04  0.0000000000000E+00  0.8522959762563E-03
-0.7456896335108E-04  0.1116148906378E-04  0.0000000000000E+00  0.9300384391055E-03
-0.5910315387331E-04 -0.5306064522223E-04  0.0000000000000E+00  0.1007821497462E-02
-0.4392484829047E-04 -0.1211532868871E-03  0.0000000000000E+00  0.1086774014647E-02
-0.2891781571153E-04 -0.1931721000583E-03  0.0000000000000E+00  0.1167963712035E-02
-0.1393236809598E-04 -0.2691892304782E-03  0.0000000000000E+00  0.1252339260169E-02
 0.1202708117806E-05 -0.3492769929068E-03  0.0000000000000E+00  0.1340677125869E-02
 0.1666701578298E-04 -0.4334864022475E-03  0.0000000000000E+00  0.1433531721988E-02
 0.3263097766484E-04 -0.5218136537704E-03  0.0000000000000E+00  0.1531177661863E-02
 0.4923459263986E-04 -0.6141524915580E-03  0.0000000000000E+00  0.1633530254116E-02
 0.6656855380446E-04 -0.7102389153140E-03  0.0000000000000E+00  0.1740035169113E-02
 0.8467116396657E-04 -0.8095917824618E-03  0.0000000000000E+00  0.1849508465225E-02
 0.1035597943500E-03 -0.9114465173588E-03  0.0000000000000E+00  0.1959915421629E-02
 0.1233075555316E-03 -0.1014650837296E-02  0.0000000000000E+00  0.2068043508505E-02
 0.1441627858638E-03 -0.1117732228756E-02  0.0000000000000E+00  0.2169329428062E-02
 0.1666502940191E-03 -0.1219108466694E-02  0.0000000000000E+00  0.2258009495545E-02
 0.1916021915387E-03 -0.1317149418360E-02  0.0000000000000E+00  0.2327293143437E-02
 0.2201473128389E-03 -0.1410104243029E-02  0.0000000000000E+00  0.2369414147626E-02
 0.2537177114715E-03 -0.1495994058640E-02  0.0000000000000E+00  0.2375534500513E-02
 0.2941277663579E-03 -0.1572548289542E-02  0.0000000000000E+00  0.2335519992688E-02
 0.3437863940569E-03 -0.1637237695331E-02  0.0000000000000E+00  0.2237583538189E-02
 0.4061696245521E-03 -0.1687489034919E-02  0.0000000000000E+00  0.2067731410593E-02
 0.4869037241208E-03 -0.1721293310589E-02  0.0000000000000E+00  0.1809000065971E-02
 0.5960993225700E-03 -0.1738722554896E-02  0.0000000000000E+00  0.1440751763114E-02
 0.7524767016682E-03 -0.1745245279042E-02  0.0000000000000E+00  0.9402085170800E-03
 0.9886967399522E-03 -0.1757024998049E-02  0.0000000000000E+00  0.2921722085972E-03
 0.1353025766932E-02 -0.1804753557507E-02  0.0000000000000E+00 -0.4847991017372E-03
 0.1894551466238E-02 -0.1925424870261E-02  0.0000000000000E+00 -0.1296163044791E-02
 0.2618948945602E-02 -0.2129998035185E-02  0.0000000000000E+00 -0.1948741213932E-02
 0.3433566275339E-02 -0.2360897138013E-02  0.0000000000000E+00 -0.2221338131473E-02
-0.2850800084039E-04  0.1557125133703E-03  0.0000000000000E+00 -0.3601385119867E-03
-0.8248739521056E-04  0.1858381402519E-03  0.0000000000000E+00 -0.1385155251742E-03
-0.1234255213207E-03  0.2027419903284E-03  0.0000000000000E+00  0.2517959665876E-04
-0.1462696532984E-03  0.2029822154437E-03  0.0000000000000E+00  0.1535650736405E-03
-0.1530491666288E-03  0.1885031754449E-03  0.0000000000000E+00  0.2644593280720E-03
-0.1485918107195E-03  0.1631043568495E-03  0.0000000000000E+00  0.3674241294880E-03
-0.1374504970953E-03  0.1300651846700E-03  0.0000000000000E+00  0.4659834533279E-03
-0.1228474770254E-03  0.9149016121990E-04  0.0000000000000E+00  0.5608672110728E-03
-0.1067594542188E-03  0.4853471737879E-04  0.0000000000000E+00  0.6520917131720E-03
-0.9030890605151E-04  0.1787718643280E-05  0.0000000000000E+00  0.7398267388766E-03
-0.7410015217701E-04 -0.4845682012750E-04  0.0000000000000E+00  0.8245996044065E-03
-0.5843388676238E-04 -0.1020530953395E-03  0.0000000000000E+00  0.9072486135092E-03
-0.4342952708583E-04 -0.1589344315020E-03  0.0000000000000E+00  0.9888151349242E-03
-0.2909244131269E-04 -0.2190825891017E-03  0.0000000000000E+00  0.1070437603914E-02
-0.1535110058425E-04 -0.2825130926136E-03  0.0000000000000E+00  0.1153261799293E-02
-0.2078731212718E-05 -0.3492653200023E-03  0.0000000000000E+00  0.1238366718506E-02
 0.1089226433065E-04 -0.4193918226007E-03  0.0000000000000E+00  0.1326701545584E-02
 0.2375778953442E-04 -0.4929413342769E-03  0.0000000000000E+00  0.1419025585216E-02
 0.3672945901378E-04 -0.5699374857055E-03  0.0000000000000E+00  0.1515849788728E-02
 0.5001936526425E-04 -0.6503471205087E-03  0.0000000000000E+00  0.1617368205862E-02
 0.6382386808926E-04 -0.7340373248117E-03  0.0000000000000E+00  0.1723366300082E-02
 0.7831283616863E-04 -0.8207284797314E-03  0.0000000000000E+00  0.1833100792021E-02
 0.9363627473755E-04 -0.9099472347350E-03  0.0000000000000E+00  0.1945137905725E-02
 0.1099624037834E-03 -0.1000974367779E-02  0.0000000000000E+00  0.2057145589069E-02
 0.1275526607687E-03 -0.1092753095778E-02  0.0000000000000E+00  0.2165603044844E-02
 0.1468702047671E-03 -0.1183956196049E-02  0.0000000000000E+00  0.2265647261741E-02
 0.1686713721366E-03 -0.1273189239721E-02  0.0000000000000E+00  0.2351196832167E-02
 0.1940396292046E-03 -0.1359057797551E-02  0.0000000000000E+00  0.2415093264615E-02
 0.2243906646364E-03 -0.1440113552432E-02  0.0000000000000E+00  0.2449141331892E-02
 0.2615016637804E-03 -0.1514774488817E-02  0.0000000000000E+00  0.2444029588746E-02
 0.3076203233258E-03 -0.1581299232628E-02  0.0000000000000E+00  0.2389147538407E-02
 0.3657230495156E-03 -0.1637882387950E-02  0.0000000000000E+00  0.2272311338629E-02
 0.4400537604708E-03 -0.1682973731569E-02  0.0000000000000E+00  0.2079407870667E-02
 0.5372591657303E-03 -0.1716042942195E-02  0.0000000000000E+00  0.1794110711304E-02
 0.6685761027134E-03 -0.1739198085535E-02  0.0000000000000E+00  0.1398237834650E-02
 0.8531072089438E-03 -0.1760101909633E-02  0.0000000000000E+00  0.8750365636595E-03
 0.1120880131575E-02 -0.1795592983955E-02  0.0000000000000E+00  0.2201024740087E-03
 0.1510987304615E-02 -0.1872310023120E-02  0.0000000000000E+00 -0.5358796286527E-03
 0.2055795022053E-02 -0.2016541735674E-02  0.0000000000000E+00 -0.1298160372334E-02
 0.2746166893131E-02 -0.2228123121759E-02  0.0000000000000E+00 -0.1902922948830E-02
 0.3496754736205E-02 -0.2453210363342E-02  0.0000000000000E+00 -0.2181897443346E-02
-0.2243110601692E-04 -0.1668142866945E-04  0.0000000000000E+00 -0.3780879786110E-03
-0.6561467830108E-04  0.6986041489900E-05  0.0000000000000E+00 -0.1494470236764E-03
-0.9907125888566E-04  0.1995255664386E-04  0.0000000000000E+00  0.2566193402695E-04
-0.1178198104843E-03  0.1872668494346E-04  0.0000000000000E+00  0.1655586536389E-03
-0.1227521145736E-03  0.4327461477907E-05  0.0000000000000E+00  0.2857841729628E-03
-0.1175189438844E-03 -0.2029785710683E-04  0.0000000000000E+00  0.3956842508812E-03
-0.1059844725598E-03 -0.5227646800259E-04  0.0000000000000E+00  0.4994749612331E-03
-0.9112131338980E-04 -0.8956821463136E-04  0.0000000000000E+00  0.5986158796938E-03
-0.7488561904027E-04 -0.1309406834541E-03  0.0000000000000E+00  0.6936030297065E-03
-0.5845528582740E-04 -0.1757086044576E-03  0.0000000000000E+00  0.7848610608174E-03
-0.4249590782011E-04 -0.2235036338724E-03  0.0000000000000E+00  0.8730403645306E-03
-0.2735350875151E-04 -0.2741309774397E-03  0.0000000000000E+00  0.9590393795856E-03
-0.1317419756272E-04 -0.3274928744679E-03  0.0000000000000E+00  0.1043932904049E-02
 0.2590057725238E-07 -0.3835501182146E-03  0.0000000000000E+00  0.1128881515782E-02
 0.1232021516218E-04 -0.4423016941676E-03  0.0000000000000E+00  0.1215046303080E-02
 0.2384759395196E-04 -0.5037713014778E-03  0.0000000000000E+00  0.1303513689375E-02
 0.3479645200639E-04 -0.5679947484485E-03  0.0000000000000E+00  0.1395228418915E-02
 0.4539199727124E-04 -0.6350025305914E-03  0.0000000000000E+00  0.1490927438794E-02
 0.5588459478065E-04 -0.7047992181621E-03  0.0000000000000E+00  0.1591073725174E-02
 0.6653731099032E-04 -0.7773343329700E-03  0.0000000000000E+00  0.1695778462955E-02
 0.7761487245248E-04 -0.8524647254420E-03  0.0000000000000E+00  0.1804699810474E-02
 0.8938032432418E-04 -0.9299160271601E-03  0.0000000000000E+00  0.1916916410860E-02
 0.1021096226441E-03 -0.1009246896349E-02  0.0000000000000E+00  0.2030766744010E-02
 0.1161343931921E-03 -0.1089809005448E-02  0.0000000000000E+00  0.2143654795508E-02
 0.1319146115895E-03 -0.1170665926821E-02  0.0000000000000E+00  0.2251792366488E-02
 0.1501376055502E-03 -0.1250659540467E-02  0.0000000000000E+00  0.2350062295158E-02
 0.1718015599395E-03 -0.1328606959488E-02  0.0000000000000E+00  0.2432118866958E-02
 0.1982522250221E-03 -0.1403373428559E-02  0.0000000000000E+00  0.2490503148688E-02
 0.2312011735536E-03 -0.1473836897344E-02  0.0000000000000E+00  0.2516678617010E-02
 0.2727744667142E-03 -0.1538835464737E-02  0.0000000000000E+00  0.2500976060775E-02
 0.3256461528255E-03 -0.1597178674315E-02  0.0000000000000E+00  0.2432468615311E-02
 0.3933277903171E-03 -0.1647797073603E-02  0.0000000000000E+00  0.2298812117547E-02
 0.4807344784627E-03 -0.1690136034895E-02  0.0000000000000E+00  0.2086131238684E-02
 0.5952860485171E-03 -0.1724996221982E-02  0.0000000000000E+00  0.1779232893610E-02
 0.7488083209374E-03 -0.1756090087549E-02  0.0000000000000E+00  0.1362875260476E-02
 0.9598841372817E-03 -0.1792372633170E-02  0.0000000000000E+00  0.8261739216685E-03
 0.1255031096330E-02 -0.1850124002329E-02  0.0000000000000E+00  0.1734586260541E-03
 0.1664691910208E-02 -0.1951423295783E-02  0.0000000000000E+00 -0.5572104558366E-03
 0.2208170581340E-02 -0.2113754226391E-02  0.0000000000000E+00 -0.1275540596631E-02
 0.2867063463415E-02 -0.2329640484608E-02  0.0000000000000E+00 -0.1844058541424E-02
 0.3564111345701E-02 -0.2549775762650E-02  0.0000000000000E+00 -0.2133674435773E-02
-0.1703137351834E-04 -0.1878421153144E-03  0.0000000000000E+00 -0.3917684243219E-03
-0.5044666938088E-04 -0.1700310804893E-03  0.0000000000000E+00 -0.1574132756292E-03
-0.7676132232230E-04 -0.1608801312721E-03  0.0000000000000E+00  0.2736626568641E-04
-0.9121583704921E-04 -0.1637856062293E-03  0.0000000000000E+00  0.1774482073099E-03
-0.9392020021571E-04 -0.1783748724494E-03  0.0000000000000E+00  0.3063057526028E-03
-0.8758888474542E-04 -0.2023944857673E-03  0.0000000000000E+00  0.4228311145070E-03
-0.7546270261504E-04 -0.2333664280366E-03  0.0000000000000E+00  0.5316517520641E-03
-0.6023861151930E-04 -0.2693630153775E-03  0.0000000000000E+00  0.6348066567182E-03
-0.4381022961397E-04 -0.3091187090278E-03  0.0000000000000E+00  0.7332335014667E-03
-0.2738169251516E-04 -0.3518745285105E-03  0.0000000000000E+00  0.8276230813033E-03
-0.1166493485801E-04 -0.3971949203765E-03  0.0000000000000E+00  0.9187697265932E-03
 0.2954992988226E-05 -0.4448359017746E-03  0.0000000000000E+00  0.1007648179549E-02
 0.1630762617457E-04 -0.4946662579449E-03  0.0000000000000E+00  0.1095375937743E-02
 0.2836711943481E-04 -0.5466237403323E-03  0.0000000000000E+00  0.1183139466767E-02
 0.3920990293066E-04 -0.6006900606503E-03  0.0000000000000E+00  0.1272115233017E-02
 0.4898876015429E-04 -0.6568742804812E-03  0.0000000000000E+00  0.1363395016901E-02
 0.5791596973088E-04 -0.7151985408100E-03  0.0000000000000E+00  0.1457916094267E-02
 0.6625062859245E-04 -0.7756805125550E-03  0.0000000000000E+00  0.1556390089960E-02
 0.7428833260792E-04 -0.8383139022126E-03  0.0000000000000E+00  0.1659230249080E-02
 0.8235177372762E-04 -0.9030424272949E-03  0.0000000000000E+00  0.1766466021569E-02
 0.9078477911056E-04 -0.9697279066436E-03  0.0000000000000E+00  0.1877634729452E-02
 0.9995557930692E-04 -0.1038119868038E-02  0.0000000000000E+00  0.1991651552205E-02
 0.1102778468998E-03 -0.1107829946765E-02  0.0000000000000E+00  0.2106651940188E-02
 0.1222566590354E-03 -0.1178302322603E-02  0.0000000000000E+00  0.2219810365603E-02
 0.1365584585628E-03 -0.1248741662709E-02  0.0000000000000E+00  0.2327112101994E-02
 0.1541017493670E-03 -0.1318178659340E-02  0.0000000000000E+00  0.2423231053696E-02
 0.1761339492174E-03 -0.1385661441139E-02  0.0000000000000E+00  0.2501610020983E-02
 0.2042701682679E-03 -0.1450334099913E-02  0.0000000000000E+00  0.2554556027376E-02
 0.2405217721901E-03 -0.1511418538847E-02  0.0000000000000E+00  0.2573277491664E-02
 0.2873598526277E-03 -0.1568187108534E-02  0.0000000000000E+00  0.2547861260926E-02
 0.3478651465140E-03 -0.1620006205983E-02  0.0000000000000E+00  0.2467219034870E-02
 0.4260309630719E-03 -0.1666526546042E-02  0.0000000000000E+00  0.2319063673456E-02
 0.5273176485345E-03 -0.1708116835758E-02  0.0000000000000E+00  0.2090053962385E-02
 0.6596495874803E-03 -0.1746705077373E-02  0.0000000000000E+00  0.1766468859701E-02
 0.8349511946087E-03 -0.1787156979203E-02  0.0000000000000E+00  0.1336171934947E-02
 0.1070617489576E-02 -0.1838962527547E-02  0.0000000000000E+00  0.7935704140085E-03
 0.1389262385866E-02 -0.1917052483707E-02  0.0000000000000E+00  0.1496104619357E-03
 0.1813600792439E-02 -0.2038992492289E-02  0.0000000000000E+00 -0.5539166624594E-03
 0.2352965291031E-02 -0.2215277944953E-02  0.0000000000000E+00 -0.1233705271276E-02
 0.2983387087885E-02 -0.2433781425931E-02  0.0000000000000E+00 -0.1775145070095E-02
 0.3635493721316E-02 -0.2649797027597E-02  0.0000000000000E+00 -0.2078120024010E-02
-0.1219649637296E-04 -0.3578608673358E-03  0.0000000000000E+00 -0.4016465319202E-03
-0.3672495391394E-04 -0.3453839458995E-03  0.0000000000000E+00 -0.1626193850397E-03
-0.5624214812740E-04 -0.3399017039703E-03  0.0000000000000E+00  0.3036519918349E-04
-0.6629486959194E-04 -0.3446297565471E-03  0.0000000000000E+00  0.1894135696211E-03
-0.6647163833519E-04 -0.3596353924657E-03  0.0000000000000E+00  0.3261604444856E-03
-0.5875404122054E-04 -0.3832184262954E-03  0.0000000000000E+00  0.4489141988988E-03
-0.4583641685774E-04 -0.4132636772557E-03  0.0000000000000E+00  0.5625015667281E-03
-0.3013579791490E-04 -0.4479822262330E-03  0.0000000000000E+00  0.6694024705191E-03
-0.1345443764182E-04 -0.4861095873663E-03  0.0000000000000E+00  0.7709447272921E-03
 0.3002302748974E-05 -0.5268351065460E-03  0.0000000000000E+00  0.8680823267723E-03
 0.1849125760803E-04 -0.5696656814928E-03  0.0000000000000E+00  0.9617663787698E-03
 0.3259598728871E-04 -0.6143106303841E-03  0.0000000000000E+00  0.1053061053949E-02
 0.4512527140718E-04 -0.6606049103011E-03  0.0000000000000E+00  0.1143135433873E-02
 0.5604549234868E-04 -0.7084624559223E-03  0.0000000000000E+00  0.1233206430791E-02
 0.6543775192232E-04 -0.7578477524333E-03  0.0000000000000E+00  0.1324467276458E-02
 0.7347093425841E-04 -0.8087566941616E-03  0.0000000000000E+00  0.1418014603716E-02
 0.8038431723369E-04 -0.8612010130863E-03  0.0000000000000E+00  0.1514776975829E-02
 0.8647535294128E-04 -0.9151909392074E-03  0.0000000000000E+00  0.1615439830094E-02
 0.9209095946150E-04 -0.9707172126882E-03  0.0000000000000E+00  0.1720367465979E-02
 0.9762131266211E-04 -0.1027728532134E-02  0.0000000000000E+00  0.1829511738849E-02
 0.1034987327966E-03 -0.1086105488311E-02  0.0000000000000E+00  0.1942298832636E-02
 0.1102067421114E-03 -0.1145637909943E-02  0.0000000000000E+00  0.2057497933572E-02
 0.1183062603274E-03 -0.1206008350531E-02  0.0000000000000E+00  0.2173068001372E-02
 0.1284836381750E-03 -0.1266771582637E-02  0.0000000000000E+00  0.2285989025361E-02
 0.1416176489729E-03 -0.1327290420233E-02  0.0000000000000E+00  0.2392060390995E-02
 0.1588627935755E-03 -0.1386800303460E-02  0.0000000000000E+00  0.2485791749448E-02
 0.1817203219941E-03 -0.1444595733984E-02  0.0000000000000E+00  0.2560466335905E-02
 0.2120780668562E-03 -0.1500113965839E-02  0.0000000000000E+00  0.2608221790777E-02
 0.2522460902190E-03 -0.1552932221755E-02  0.0000000000000E+00  0.2620094658381E-02
 0.3050294494546E-03 -0.1602761926069E-02  0.0000000000000E+00  0.2586036142533E-02
 0.3738848856215E-03 -0.1649517301328E-02  0.0000000000000E+00  0.2494939139779E-02
 0.4632183864321E-03 -0.1693529844469E-02  0.0000000000000E+00  0.2334759952004E-02
 0.5788939149938E-03 -0.1735987350460E-02  0.0000000000000E+00  0.2092913756929E-02
 0.7290771630872E-03 -0.1779715479202E-02  0.0000000000000E+00  0.1757336199767E-02
 0.9253792230818E-03 -0.1830310563651E-02  0.0000000000000E+00  0.1318912567584E-02
 0.1183560580266E-02 -0.1897210359429E-02  0.0000000000000E+00  0.7765408093446E-03
 0.1522277161331E-02 -0.1993551907286E-02  0.0000000000000E+00  0.1458391715541E-03
 0.1957581543587E-02 -0.2132731005165E-02  0.0000000000000E+00 -0.5303146824647E-03
 0.2491346204312E-02 -0.2319845957910E-02  0.0000000000000E+00 -0.1176718499200E-02
 0.3096476584901E-02 -0.2539974489726E-02  0.0000000000000E+00 -0.1698290220688E-02
 0.3710708400541E-02 -0.2752651511713E-02  0.0000000000000E+00 -0.2016377436027E-02
-0.7836115691505E-05 -0.5268192014294E-03  0.0000000000000E+00 -0.4081149308370E-03
-0.2423538450960E-04 -0.5192236529956E-03  0.0000000000000E+00 -0.1652588850855E-03
-0.3728934959179E-04 -0.5172540201548E-03  0.0000000000000E+00  0.3469069345846E-04
-0.4289545347467E-04 -0.5238966539188E-03  0.0000000000000E+00  0.2015953202126E-03
-0.4031119239552E-04 -0.5395062367459E-03  0.0000000000000E+00  0.3454764717654E-03
-0.3095379901020E-04 -0.5628154907056E-03  0.0000000000000E+00  0.4739999038894E-03
-0.1705028881220E-04 -0.5920302923004E-03  0.0000000000000E+00  0.5920368350452E-03
-0.7482834077956E-06 -0.6255107458904E-03  0.0000000000000E+00  0.7023876474099E-03
 0.1625883039466E-04 -0.6620182378839E-03  0.0000000000000E+00  0.8067135827323E-03
 0.3278457997739E-04 -0.7007101538968E-03  0.0000000000000E+00  0.9062187806204E-03
 0.4806879310203E-04 -0.7410466155720E-03  0.0000000000000E+00  0.1002016847891E-02
 0.6167192928388E-04 -0.7826946468848E-03  0.0000000000000E+00  0.1095271119857E-02
 0.7338653648949E-04 -0.8254566608261E-03  0.0000000000000E+00  0.1187210201745E-02
 0.8317393047380E-04 -0.8692231732442E-03  0.0000000000000E+00  0.1279086358081E-02
 0.9112205634131E-04 -0.9139422263304E-03  0.0000000000000E+00  0.1372111957670E-02
 0.9741831994711E-04 -0.9595984145589E-03  0.0000000000000E+00  0.1467389314293E-02
 0.1023321672813E-03 -0.1006196447309E-02  0.0000000000000E+00  0.1565838641687E-02
 0.1062036719277E-03 -0.1053744370226E-02  0.0000000000000E+00  0.1668120239655E-02
 0.1094366736006E-03 -0.1102237413045E-02  0.0000000000000E+00  0.1774552519324E-02
 0.1124958064488E-03 -0.1151639150458E-02  0.0000000000000E+00  0.1885016455762E-02
 0.1159099182333E-03 -0.1201861245187E-02  0.0000000000000E+00  0.1998839393331E-02
 0.1202861362373E-03 -0.1252748028971E-02  0.0000000000000E+00  0.2114664131383E-02
 0.1263401393536E-03 -0.1304068099756E-02  0.0000000000000E+00  0.2230300885925E-02
 0.1349453836390E-03 -0.1355501709117E-02  0.0000000000000E+00  0.2342570381036E-02
 0.1471969495624E-03 -0.1406583521008E-02  0.0000000000000E+00  0.2447126270358E-02
 0.1644881199311E-03 -0.1456766159201E-02  0.0000000000000E+00  0.2538357821289E-02
 0.1885759810062E-03 -0.1505601924530E-02  0.0000000000000E+00  0.2609439277324E-02
 0.2216209966063E-03 -0.1552830787612E-02  0.0000000000000E+00  0.2652401006491E-02
 0.2662262251057E-03 -0.1598390434410E-02  0.0000000000000E+00  0.2658186153754E-02
 0.3255133266109E-03 -0.1642427351591E-02  0.0000000000000E+00  0.2616709750097E-02
 0.4032758117851E-03 -0.1685381518214E-02  0.0000000000000E+00  0.2516970527630E-02
 0.5042536665026E-03 -0.1728207823110E-02  0.0000000000000E+00  0.2347316405585E-02
 0.6345694945790E-03 -0.1772790090182E-02  0.0000000000000E+00  0.2096063912487E-02
 0.8023912907386E-03 -0.1822619949339E-02  0.0000000000000E+00  0.1752855486987E-02
 0.1018695431401E-02 -0.1883657974352E-02  0.0000000000000E+00  0.1311340374602E-02
 0.1297348407358E-02 -0.1964865037117E-02  0.0000000000000E+00  0.7740256609152E-03
 0.1653214114692E-02 -0.2077392416095E-02  0.0000000000000E+00  0.1595368995313E-03
 0.2096738749192E-02 -0.2230941412873E-02  0.0000000000000E+00 -0.4899990363800E-03
 0.2624318358607E-02 -0.2426516406058E-02  0.0000000000000E+00 -0.1107676294587E-02
 0.3207358498361E-02 -0.2647738060266E-02  0.0000000000000E+00 -0.1614953166333E-02
 0.3789523874455E-02 -0.2857828265264E-02  0.0000000000000E+00 -0.1949364487724E-02
-0.3876387768748E-05 -0.6947918459193E-03  0.0000000000000E+00 -0.4115054240409E-03
-0.1279845803233E-04 -0.6916858170797E-03  0.0000000000000E+00 -0.1655097943579E-03
-0.1970424000941E-04 -0.6930734441661E-03  0.0000000000000E+00  0.4034837836962E-04
-0.2086128065949E-04 -0.7016865782412E-03  0.0000000000000E+00  0.2141026760620E-03
-0.1533536352456E-04 -0.7180547858689E-03  0.0000000000000E+00  0.3643708875188E-03
-0.4117205116437E-05 -0.7412428819743E-03  0.0000000000000E+00  0.4981638175854E-03
 0.1095747137345E-04 -0.7697326663262E-03  0.0000000000000E+00  0.6202883205106E-03
 0.2799058763394E-04 -0.8020323737498E-03  0.0000000000000E+00  0.7337647548350E-03
 0.4540596572960E-04 -0.8369458772080E-03  0.0000000000000E+00  0.8405314478001E-03
 0.6205119291344E-04 -0.8736151873789E-03  0.0000000000000E+00  0.9420232622004E-03
 0.7716175413745E-04 -0.9114644820649E-03  0.0000000000000E+00  0.1039516218943E-02
 0.9028338090807E-04 -0.9501241115691E-03  0.0000000000000E+00  0.1134279229788E-02
 0.1011975022222E-03 -0.9893665246162E-03  0.0000000000000E+00  0.1227607088067E-02
 0.1098636570229E-03 -0.1029060221892E-02  0.0000000000000E+00  0.1320792298540E-02
 0.1163792143297E-03 -0.1069138243729E-02  0.0000000000000E+00  0.1415069422620E-02
 0.1209527176182E-03 -0.1109576096120E-02  0.0000000000000E+00  0.1511548381137E-02
 0.1238869222745E-03 -0.1150374917615E-02  0.0000000000000E+00  0.1611142805564E-02
 0.1255685173331E-03 -0.1191545609712E-02  0.0000000000000E+00  0.1714490603022E-02
 0.1264632939075E-03 -0.1233094792646E-02  0.0000000000000E+00  0.1821869326005E-02
 0.1271163818337E-03 -0.1275009813546E-02  0.0000000000000E+00  0.1933097927855E-02
 0.1281598502336E-03 -0.1317244156968E-02  0.0000000000000E+00  0.2047419255669E-02
 0.1303310681554E-03 -0.1359708727596E-02  0.0000000000000E+00  0.2163370873898E-02
 0.1345061565229E-03 -0.1402270677173E-02  0.0000000000000E+00  0.2278642722705E-02
 0.1417497137176E-03 -0.1444747699909E-02  0.0000000000000E+00  0.2389931338454E-02
 0.1533753792765E-03 -0.1486856947642E-02  0.0000000000000E+00  0.2492784065618E-02
 0.1710161294502E-03 -0.1528277415667E-02  0.0000000000000E+00  0.2581512528621E-02
 0.1966845307108E-03 -0.1568826926956E-02  0.0000000000000E+00  0.2649230704042E-02
 0.2328105042655E-03 -0.1608553209719E-02  0.0000000000000E+00  0.2687920404949E-02
 0.2822804410396E-03 -0.1647753748796E-02  0.0000000000000E+00  0.2688503624932E-02
 0.3485102507790E-03 -0.1686998269957E-02  0.0000000000000E+00  0.2640947217589E-02
 0.4355853292189E-03 -0.1727220033105E-02  0.0000000000000E+00  0.2534458632057E-02
 0.5484972512712E-03 -0.1769928003127E-02  0.0000000000000E+00  0.2357884256289E-02
 0.6934890460495E-03 -0.1817571866432E-02  0.0000000000000E+00  0.2100514278171E-02
 0.8785272146014E-03 -0.1874092819122E-02  0.0000000000000E+00  0.1753639816464E-02
 0.1113722141948E-02 -0.1945516367648E-02  0.0000000000000E+00  0.1313311720647E-02
 0.1410932057398E-02 -0.2040045028727E-02  0.0000000000000E+00  0.7847716427798E-03
 0.1781525657304E-02 -0.2166813836885E-02  0.0000000000000E+00  0.1883103014314E-03
 0.2231313690241E-02 -0.2332364794126E-02  0.0000000000000E+00 -0.4359425845400E-03
 0.2752716859973E-02 -0.2534568153890E-02  0.0000000000000E+00 -0.1029026507564E-02
 0.3316792523674E-02 -0.2756567002169E-02  0.0000000000000E+00 -0.1526134090522E-02
 0.3871704313231E-02 -0.2964831952758E-02  0.0000000000000E+00 -0.1877743810689E-02
-0.2561110881514E-06 -0.8618486412883E-03  0.0000000000000E+00 -0.4120992213669E-03
-0.2262062378979E-05 -0.8628937330869E-03  0.0000000000000E+00 -0.1635329619292E-03
-0.3310442178468E-05 -0.8674902141741E-03  0.0000000000000E+00  0.4732751075615E-04
-0.4319539892005E-07 -0.8781049078749E-03  0.0000000000000E+00  0.2270204382783E-03
 0.8563798903500E-05 -0.8953594260142E-03  0.0000000000000E+00  0.3829488983701E-03
 0.2183453698437E-04 -0.9185673619820E-03  0.0000000000000E+00  0.5214856134012E-03
 0.3825452898534E-04 -0.9464418608930E-03  0.0000000000000E+00  0.6473000340977E-03
 0.5615004915932E-04 -0.9776310717401E-03  0.0000000000000E+00  0.7635515123456E-03
 0.7406343749758E-04 -0.1010991227100E-02  0.0000000000000E+00  0.8724030057886E-03
 0.9088694877421E-04 -0.1045662205136E-02  0.0000000000000E+00  0.9754973280891E-03
 0.1058624762227E-03 -0.1081042431143E-02  0.0000000000000E+00  0.1074268475576E-02
 0.1185290526426E-03 -0.1116731836619E-02  0.0000000000000E+00  0.1170094361871E-02
 0.1286623886237E-03 -0.1152476429614E-02  0.0000000000000E+00  0.1264341220719E-02
 0.1362239424335E-03 -0.1188124917697E-02  0.0000000000000E+00  0.1358346403906E-02
 0.1413233931034E-03 -0.1223597337379E-02  0.0000000000000E+00  0.1453370144527E-02
 0.1441931623467E-03 -0.1258862593543E-02  0.0000000000000E+00  0.1550532763378E-02
 0.1451723669215E-03 -0.1293921704202E-02  0.0000000000000E+00  0.1650744262762E-02
 0.1446979701830E-03 -0.1328793171016E-02  0.0000000000000E+00  0.1754624353619E-02
 0.1433021186089E-03 -0.1363501263245E-02  0.0000000000000E+00  0.1862416420086E-02
 0.1416155135119E-03 -0.1398064929372E-02  0.0000000000000E+00  0.1973887987424E-02
 0.1403788374477E-03 -0.1432488667739E-02  0.0000000000000E+00  0.2088213303419E-02
 0.1404647769997E-03 -0.1466759982105E-02  0.0000000000000E+00  0.2203846907384E-02
 0.1429139155988E-03 -0.1500854653873E-02  0.0000000000000E+00  0.2318387258142E-02
 0.1489844073155E-03 -0.1534737101389E-02  0.0000000000000E+00  0.2428441362611E-02
 0.1602091335705E-03 -0.1568314788727E-02  0.0000000000000E+00  0.2529488702204E-02
 0.1784599819538E-03 -0.1601499271514E-02  0.0000000000000E+00  0.2615804547415E-02
 0.2060025628693E-03 -0.1634378191375E-02  0.0000000000000E+00  0.2680488989096E-02
 0.2455304642166E-03 -0.1667307940868E-02  0.0000000000000E+00  0.2715529836408E-02
 0.3002005914289E-03 -0.1700939996153E-02  0.0000000000000E+00  0.2711892714209E-02
 0.3736972996339E-03 -0.1736249076758E-02  0.0000000000000E+00  0.2659671005628E-02
 0.4703502769068E-03 -0.1774621816148E-02  0.0000000000000E+00  0.2548360126132E-02
 0.5953218058429E-03 -0.1818045812734E-02  0.0000000000000E+00  0.2367371144348E-02
 0.7548508356406E-03 -0.1869408811639E-02  0.0000000000000E+00  0.2106976646884E-02
 0.9565395657282E-03 -0.1932910782248E-02  0.0000000000000E+00  0.1759980016551E-02
 0.1209479460167E-02 -0.2014411732827E-02  0.0000000000000E+00  0.1324415624863E-02
 0.1523521495945E-02 -0.2121185923171E-02  0.0000000000000E+00  0.8074660284960E-03
 0.1906877274966E-02 -0.2260439382764E-02  0.0000000000000E+00  0.2299883547442E-03
 0.2361632176066E-02 -0.2436020427946E-02  0.0000000000000E+00 -0.3705135865065E-03
 0.2877240733877E-02 -0.2643584716104E-02  0.0000000000000E+00 -0.9428898755935E-03
 0.3425283457694E-02 -0.2865716472434E-02  0.0000000000000E+00 -0.1432645393694E-02
 0.3956904220528E-02 -0.3073002604824E-02  0.0000000000000E+00 -0.1801804097317E-02
 0.3076093484815E-05 -0.1028055655308E-02  0.0000000000000E+00 -0.4101347885602E-03
 0.7504082959035E-05 -0.1032960972378E-02  0.0000000000000E+00 -0.1594716571807E-03
 0.1204920587060E-04 -0.1040628288021E-02  0.0000000000000E+00  0.5560779036335E-04
 0.1969987456829E-04 -0.1053259290100E-02  0.0000000000000E+00  0.2404149093011E-03
 0.3149597734882E-04 -0.1071506251296E-02  0.0000000000000E+00  0.4013044432368E-03
 0.4698589284285E-04 -0.1094863420062E-02  0.0000000000000E+00  0.5440458440828E-03
 0.6491359495216E-04 -0.1122233433510E-02  0.0000000000000E+00  0.6731253057180E-03
 0.8380204419358E-04 -0.1152391688630E-02  0.0000000000000E+00  0.7917779808006E-03
 0.1023082726211E-03 -0.1184251383910E-02  0.0000000000000E+00  0.9023448365566E-03
 0.1193758451682E-03 -0.1216960316738E-02  0.0000000000000E+00  0.1006652838928E-02
 0.1342617963266E-03 -0.1249900301220E-02  0.0000000000000E+00  0.1106286539958E-02
 0.1465058544274E-03 -0.1282647290714E-02  0.0000000000000E+00  0.1202733784718E-02
 0.1558834492882E-03 -0.1314925003239E-02  0.0000000000000E+00  0.1297436098369E-02
 0.1623618928237E-03 -0.1346565203292E-02  0.0000000000000E+00  0.1391779832293E-02
 0.1660662589561E-03 -0.1377477365957E-02  0.0000000000000E+00  0.1487054575681E-02
 0.1672556393231E-03 -0.1407626481558E-02  0.0000000000000E+00  0.1584394489265E-02
 0.1663084147423E-03 -0.1437016828924E-02  0.0000000000000E+00  0.1684709860438E-02
 0.1637150937687E-03 -0.1465678889198E-02  0.0000000000000E+00  0.1788607598357E-02
 0.1600779180003E-03 -0.1493660131888E-02  0.0000000000000E+00  0.1896304958022E-02
 0.1561172700986E-03 -0.1521017829882E-02  0.0000000000000E+00  0.2007529983559E-02
 0.1526865875152E-03 -0.1547815148042E-02  0.0000000000000E+00  0.2121405350399E-02
 0.1507975004050E-03 -0.1574124268908E-02  0.0000000000000E+00  0.2236325433441E-02
 0.1516575613516E-03 -0.1600037416182E-02  0.0000000000000E+00  0.2349826005839E-02
 0.1567194245531E-03 -0.1625672546747E-02  0.0000000000000E+00  0.2458458543940E-02
 0.1677344824806E-03 -0.1651132682349E-02  0.0000000000000E+00  0.2557671910954E-02
 0.1868112563742E-03 -0.1676565383143E-02  0.0000000000000E+00  0.2641744560196E-02
 0.2164642015914E-03 -0.1702329302093E-02  0.0000000000000E+00  0.2703806296876E-02
 0.2596426977272E-03 -0.1729086752723E-02  0.0000000000000E+00  0.2735900684045E-02
 0.3197591048206E-03 -0.1757833091483E-02  0.0000000000000E+00  0.2729093435778E-02
 0.4007385639521E-03 -0.1789924953218E-02  0.0000000000000E+00  0.2673664933492E-02
 0.5071075340320E-03 -0.1827157991415E-02  0.0000000000000E+00  0.2559454065206E-02
 0.6441237022933E-03 -0.1871921928218E-02  0.0000000000000E+00  0.2376465357588E-02
 0.8179159907624E-03 -0.1927423953395E-02  0.0000000000000E+00  0.2115911217459E-02
 0.1035599294391E-02 -0.1997962886740E-02  0.0000000000000E+00  0.1771917370683E-02
 0.1305164623045E-02 -0.2089065640252E-02  0.0000000000000E+00  0.1344074551808E-02
 0.1634517847051E-02 -0.2206996504743E-02  0.0000000000000E+00  0.8407917899625E-03
 0.2029123043143E-02 -0.2357174298363E-02  0.0000000000000E+00  0.2827208027177E-03
 0.2487941877456E-02 -0.2541218342726E-02  0.0000000000000E+00 -0.2958712996360E-03
 0.2998771667275E-02 -0.2753048240653E-02  0.0000000000000E+00 -0.8502201699953E-03
 0.3532731960130E-02 -0.2975645520874E-02  0.0000000000000E+00 -0.1337507360564E-02
 0.4045551368919E-02 -0.3178259612236E-02  0.0000000000000E+00 -0.1719170170257E-02
 0.6162699172401E-05 -0.1193472040711E-02  0.0000000000000E+00 -0.4058048112980E-03
 0.1661124710136E-04 -0.1201972440483E-02  0.0000000000000E+00 -0.1534494990332E-03
 0.2651155543789E-04 -0.1212571726374E-02  0.0000000000000E+00  0.6516788961153E-04
 0.3849492475851E-04 -0.1227209759985E-02  0.0000000000000E+00  0.2543397004837E-03
 0.5356217367653E-04 -0.1246524452795E-02  0.0000000000000E+00  0.4195200262901E-03
 0.7141391678808E-04 -0.1270135554042E-02  0.0000000000000E+00  0.5659196622729E-03
 0.9099743409029E-04 -0.1297097275312E-02  0.0000000000000E+00  0.6978163789476E-03
 0.1110043035075E-03 -0.1326297332020E-02  0.0000000000000E+00  0.8184736316795E-03
 0.1301989341388E-03 -0.1356706663945E-02  0.0000000000000E+00  0.9303706021708E-03
 0.1475796249180E-03 -0.1387488311483E-02  0.0000000000000E+00  0.1035495289124E-02
 0.1624253972919E-03 -0.1418015498490E-02  0.0000000000000E+00  0.1135573605385E-02
 0.1742833319220E-03 -0.1447846631582E-02  0.0000000000000E+00  0.1232202296078E-02
 0.1829339261617E-03 -0.1476687779265E-02  0.0000000000000E+00  0.1326900721695E-02
 0.1883544299880E-03 -0.1504357191605E-02  0.0000000000000E+00  0.1421107819139E-02
 0.1906885409267E-03 -0.1530756681470E-02  0.0000000000000E+00  0.1516146239622E-02
 0.1902248186640E-03 -0.1555850251634E-02  0.0000000000000E+00  0.1613167870409E-02
 0.1873836081781E-03 -0.1579648799185E-02  0.0000000000000E+00  0.1713087954268E-02
 0.1827117705013E-03 -0.1602198834562E-02  0.0000000000000E+00  0.1816506967297E-02
 0.1768846185634E-03 -0.1623575894629E-02  0.0000000000000E+00  0.1923625173596E-02
 0.1707152411826E-03 -0.1643881211376E-02  0.0000000000000E+00  0.2034144152914E-02
 0.1651725816288E-03 -0.1663242750160E-02  0.0000000000000E+00  0.2147152879262E-02
 0.1614092177890E-03 -0.1681823524097E-02  0.0000000000000E+00  0.2261008829725E-02
 0.1608004290010E-03 -0.1699837740844E-02  0.0000000000000E+00  0.2373213714088E-02
 0.1649925211509E-03 -0.1717561172567E-02  0.0000000000000E+00  0.2480296679255E-02
 0.1759528412699E-03 -0.1735294893114E-02  0.0000000000000E+00  0.2577711826249E-02
 0.1960223158403E-03 -0.1753422902821E-02  0.0000000000000E+00  0.2659778251639E-02
 0.2279578714787E-03 -0.1772572649488E-02  0.0000000000000E+00  0.2719695782668E-02
 0.2749544655481E-03 -0.1793705723457E-02  0.0000000000000E+00  0.2749607994059E-02
 0.3406626899234E-03 -0.1818146934727E-02  0.0000000000000E+00  0.2740727942339E-02
 0.4292196722684E-03 -0.1847607484004E-02  0.0000000000000E+00  0.2683568427206E-02
 0.5453028314139E-03 -0.1884244855299E-02  0.0000000000000E+00  0.2568343705496E-02
 0.6941983147941E-03 -0.1930776302044E-02  0.0000000000000E+00  0.2385646468276E-02
 0.8818395063166E-03 -0.1990622641176E-02  0.0000000000000E+00  0.2127544646999E-02
 0.1114771606994E-02 -0.2068053655596E-02  0.0000000000000E+00  0.1789263763906E-02
 0.1399855850069E-02 -0.2168150877993E-02  0.0000000000000E+00  0.1371531108428E-02
 0.1743189022405E-02 -0.2296153812330E-02  0.0000000000000E+00  0.8833866153028E-03
 0.2147812491768E-02 -0.2455868940910E-02  0.0000000000000E+00  0.3446462396728E-03
 0.2610393848115E-02 -0.2647103915298E-02  0.0000000000000E+00 -0.2136965108669E-03
 0.3116843365715E-02 -0.2862440628349E-02  0.0000000000000E+00 -0.7534340074839E-03
 0.3641661994945E-02 -0.3085500315099E-02  0.0000000000000E+00 -0.1237869217003E-02
 0.4131533568385E-02 -0.3284039548822E-02  0.0000000000000E+00 -0.1650327379547E-02
 0.9044526645279E-05 -0.1358159792696E-02  0.0000000000000E+00 -0.3993026720092E-03
 0.2515904614487E-04 -0.1370026781993E-02  0.0000000000000E+00 -0.1455887260199E-03
 0.4020478009596E-04 -0.1383433541517E-02  0.0000000000000E+00  0.7596898119422E-04
 0.5646849551596E-04 -0.1400064194837E-02  0.0000000000000E+00  0.2688243050509E-03
 0.7487236097648E-04 -0.1420509334833E-02  0.0000000000000E+00  0.4376582540621E-03
 0.9521127235032E-04 -0.1444469606407E-02  0.0000000000000E+00  0.5871723685986E-03
 0.1165879491133E-03 -0.1471117114695E-02  0.0000000000000E+00  0.7214257746526E-03
 0.1378353112190E-03 -0.1499436053487E-02  0.0000000000000E+00  0.8436758503917E-03
 0.1578155816322E-03 -0.1528453093418E-02  0.0000000000000E+00  0.9565071035334E-03
 0.1755826404248E-03 -0.1557351454664E-02  0.0000000000000E+00  0.1062047223123E-02
 0.1904425788877E-03 -0.1585502520296E-02  0.0000000000000E+00  0.1162153518814E-02
 0.2019556148655E-03 -0.1612453231259E-02  0.0000000000000E+00  0.1258529213892E-02
 0.2099123694258E-03 -0.1637896785575E-02  0.0000000000000E+00  0.1352772938283E-02
 0.2143040800761E-03 -0.1661641625014E-02  0.0000000000000E+00  0.1446379207997E-02
 0.2152962973666E-03 -0.1683585006966E-02  0.0000000000000E+00  0.1540707323198E-02
 0.2132097546511E-03 -0.1703692902776E-02  0.0000000000000E+00  0.1636931026922E-02
 0.2085092008955E-03 -0.1721985977269E-02  0.0000000000000E+00  0.1735975685397E-02
 0.2018001874083E-03 -0.1738530333778E-02  0.0000000000000E+00  0.1838442368380E-02
 0.1938333698273E-03 -0.1753433643304E-02  0.0000000000000E+00  0.1944524186414E-02
 0.1855166282555E-03 -0.1766845592057E-02  0.0000000000000E+00  0.2053909870619E-02
 0.1779360315787E-03 -0.1778963604787E-02  0.0000000000000E+00  0.2165672876198E-02
 0.1723858688504E-03 -0.1790045912186E-02  0.0000000000000E+00  0.2278156907097E-02
 0.1704086610010E-03 -0.1800432273676E-02  0.0000000000000E+00  0.2388857530543E-02
 0.1738423496338E-03 -0.1810558456181E-02  0.0000000000000E+00  0.2494313483739E-02
 0.1848666102838E-03 -0.1820923927465E-02  0.0000000000000E+00  0.2590018128608E-02
 0.2060495330584E-03 -0.1832147356963E-02  0.0000000000000E+00  0.2670366162470E-02
 0.2403831462757E-03 -0.1845120435531E-02  0.0000000000000E+00  0.2728664051488E-02
 0.2912969261863E-03 -0.1861094942532E-02  0.0000000000000E+00  0.2757193838280E-02
 0.3626622162351E-03 -0.1881708411735E-02  0.0000000000000E+00  0.2747353999033E-02
 0.4588005828289E-03 -0.1908997786769E-02  0.0000000000000E+00  0.2689921081353E-02
 0.5844991702880E-03 -0.1945436112428E-02  0.0000000000000E+00  0.2575496218272E-02
 0.7450164434054E-03 -0.1993999915283E-02  0.0000000000000E+00  0.2395228615173E-02
 0.9460261966874E-03 -0.2058234250610E-02  0.0000000000000E+00  0.2141930866370E-02
 0.1193453998950E-02 -0.2142282989136E-02  0.0000000000000E+00  0.1811694473486E-02
 0.1493048784885E-02 -0.2250715623094E-02  0.0000000000000E+00  0.1405998578055E-02
 0.1849237049941E-02 -0.2387773567039E-02  0.0000000000000E+00  0.9340183224907E-03
 0.2263039528443E-02 -0.2555847617059E-02  0.0000000000000E+00  0.4143157305862E-03
 0.2729103492889E-02 -0.2753240345046E-02  0.0000000000000E+00 -0.1254642926640E-03
 0.3233059272429E-02 -0.2971783090308E-02  0.0000000000000E+00 -0.6528803150060E-03
 0.3747645122726E-02 -0.3194639975683E-02  0.0000000000000E+00 -0.1137473717595E-02
 0.4240078565627E-02 -0.3396415169778E-02  0.0000000000000E+00 -0.1579515068547E-02
 0.1175237981135E-04 -0.1522182821003E-02  0.0000000000000E+00 -0.3907626570293E-03
 0.3323405134392E-04 -0.1537236374809E-02  0.0000000000000E+00 -0.1359778090036E-03
 0.5324524403101E-04 -0.1553354827197E-02  0.0000000000000E+00  0.8799599052960E-04
 0.7374208066359E-04 -0.1571976281770E-02  0.0000000000000E+00  0.2839159148252E-03
 0.9553949242583E-04 -0.1593619659816E-02  0.0000000000000E+00  0.4558018393189E-03
 0.1184800043217E-03 -0.1618030363004E-02  0.0000000000000E+00  0.6078965754653E-03
 0.1417805117194E-03 -0.1644468804051E-02  0.0000000000000E+00  0.7440410526034E-03
 0.1643894861096E-03 -0.1671999769226E-02  0.0000000000000E+00  0.8674629254040E-03
 0.1852560543832E-03 -0.1699701689570E-02  0.0000000000000E+00  0.9808256745700E-03
 0.2034884964580E-03 -0.1726780876831E-02  0.0000000000000E+00  0.1086377738374E-02
 0.2184234475305E-03 -0.1752612310520E-02  0.0000000000000E+00  0.1186097832123E-02
 0.2296390956340E-03 -0.1776736955826E-02  0.0000000000000E+00  0.1281792335119E-02
 0.2369407858227E-03 -0.1798839769031E-02  0.0000000000000E+00  0.1375139679340E-02
 0.2403375929522E-03 -0.1818723099045E-02  0.0000000000000E+00  0.1467692373431E-02
 0.2400200170722E-03 -0.1836282731095E-02  0.0000000000000E+00  0.1560849733940E-02
 0.2363434839322E-03 -0.1851489393600E-02  0.0000000000000E+00  0.1655811567212E-02
 0.2298192769703E-03 -0.1864376294553E-02  0.0000000000000E+00  0.1753518821295E-02
 0.2211135067213E-03 -0.1875032075135E-02  0.0000000000000E+00  0.1854580594616E-02
 0.2110538047140E-03 -0.1883599721389E-02  0.0000000000000E+00  0.1959193101138E-02
 0.2006441392070E-03 -0.1890280712300E-02  0.0000000000000E+00  0.2067046133877E-02
 0.1910884413766E-03 -0.1895345190940E-02  0.0000000000000E+00  0.2177215835747E-02
 0.1838225900067E-03 -0.1899149415581E-02  0.0000000000000E+00  0.2288054888630E-02
 0.1805550797373E-03 -0.1902160604413E-02  0.0000000000000E+00  0.2397079796053E-02
 0.1833128760281E-03 -0.1904975053443E-02  0.0000000000000E+00  0.2500869476907E-02
 0.1944839871642E-03 -0.1908289436221E-02  0.0000000000000E+00  0.2594988793360E-02
 0.2168582615331E-03 -0.1912953922215E-02  0.0000000000000E+00  0.2673940653593E-02
 0.2536555156731E-03 -0.1920118610305E-02  0.0000000000000E+00  0.2731171383495E-02
 0.3085291510972E-03 -0.1931315326938E-02  0.0000000000000E+00  0.2759134703991E-02
 0.3855551304756E-03 -0.1948477147429E-02  0.0000000000000E+00  0.2749444495948E-02
 0.4892150559120E-03 -0.1973938890223E-02  0.0000000000000E+00  0.2693160461090E-02
 0.6243710132601E-03 -0.2010446774662E-02  0.0000000000000E+00  0.2581265995986E-02
 0.7962097380285E-03 -0.2061177655113E-02  0.0000000000000E+00  0.2405416616722E-02
 0.1010100772898E-02 -0.2129729237734E-02  0.0000000000000E+00  0.2159044450238E-02
 0.1271328511657E-02 -0.2220050900596E-02  0.0000000000000E+00  0.1838877259387E-02
 0.1584568440516E-02 -0.2336167557006E-02  0.0000000000000E+00  0.1446805263891E-02
 0.1952746942974E-02 -0.2481378521532E-02  0.0000000000000E+00  0.9917376588282E-03
 0.2375124524712E-02 -0.2656834594601E-02  0.0000000000000E+00  0.4907115823677E-03
 0.2844957065047E-02 -0.2859660584995E-02  0.0000000000000E+00 -0.3202937928763E-04
 0.3347045298621E-02 -0.3081076135839E-02  0.0000000000000E+00 -0.5486746591868E-03
 0.3856781337313E-02 -0.3304800384208E-02  0.0000000000000E+00 -0.1037376081556E-02
 0.4346697097474E-02 -0.3512062947974E-02  0.0000000000000E+00 -0.1494599403310E-02
 0.1431495184124E-04 -0.1685599559738E-02  0.0000000000000E+00 -0.3803058768822E-03
 0.4091293300225E-04 -0.1703688495980E-02  0.0000000000000E+00 -0.1246969699833E-03
 0.6573649192149E-04 -0.1722437905668E-02  0.0000000000000E+00  0.1012275179295E-03
 0.9042527800678E-04 -0.1743049269273E-02  0.0000000000000E+00  0.2996459193423E-03
 0.1156662159011E-03 -0.1765952321069E-02  0.0000000000000E+00  0.4740135424920E-03
 0.1413121938758E-03 -0.1790908123526E-02  0.0000000000000E+00  0.6281646467874E-03
 0.1666589927849E-03 -0.1817239790874E-02  0.0000000000000E+00  0.7657301639533E-03
 0.1907468452196E-03 -0.1844077489771E-02  0.0000000000000E+00  0.8898932990022E-03
 0.2126003198571E-03 -0.1870546297014E-02  0.0000000000000E+00  0.1003376274587E-02
 0.2313795013651E-03 -0.1895877048514E-02  0.0000000000000E+00  0.1108532127081E-02
 0.2464537664828E-03 -0.1919452700275E-02  0.0000000000000E+00  0.1207451513098E-02
 0.2574232866895E-03 -0.1940813226252E-02  0.0000000000000E+00  0.1302040140019E-02
 0.2641123096904E-03 -0.1959639848009E-02  0.0000000000000E+00  0.1394056046076E-02
 0.2665513980854E-03 -0.1975732576867E-02  0.0000000000000E+00  0.1485111570345E-02
 0.2649589562803E-03 -0.1988988835962E-02  0.0000000000000E+00  0.1576649097658E-02
 0.2597274205397E-03 -0.1999386799776E-02  0.0000000000000E+00  0.1669898635134E-02
 0.2514164063962E-03 -0.2006974699937E-02  0.0000000000000E+00  0.1765822286847E-02
 0.2407539461824E-03 -0.2011866126465E-02  0.0000000000000E+00  0.1865044837366E-02
 0.2286455856647E-03 -0.2014241762509E-02  0.0000000000000E+00  0.1967776093178E-02
 0.2161918080061E-03 -0.2014357148087E-02  0.0000000000000E+00  0.2073720945783E-02
 0.2047141432143E-03 -0.2012557081511E-02  0.0000000000000E+00  0.2181976329317E-02
 0.1957888819857E-03 -0.2009297134403E-02  0.0000000000000E+00  0.2290926219438E-02
 0.1912881969215E-03 -0.2005172233469E-02  0.0000000000000E+00  0.2398134301130E-02
 0.1934245391936E-03 -0.2000938024077E-02  0.0000000000000E+00  0.2500248996762E-02
 0.2047894776251E-03 -0.1997485505334E-02  0.0000000000000E+00  0.2592937183717E-02
 0.2283886079052E-03 -0.1995891542308E-02  0.0000000000000E+00  0.2670840267846E-02
 0.2676618581913E-03 -0.1997557258225E-02  0.0000000000000E+00  0.2727574282977E-02
 0.3264760926946E-03 -0.2004283094205E-02  0.0000000000000E+00  0.2755792718669E-02
 0.4090969209075E-03 -0.2018279887420E-02  0.0000000000000E+00  0.2747347169784E-02
 0.5201446830981E-03 -0.2042153404721E-02  0.0000000000000E+00  0.2693589027244E-02
 0.6645281086547E-03 -0.2078884578024E-02  0.0000000000000E+00  0.2585865448293E-02
 0.8473296666207E-03 -0.2131800621633E-02  0.0000000000000E+00  0.2416273558532E-02
 0.1073588174593E-02 -0.2204496483764E-02  0.0000000000000E+00  0.2178731173403E-02
 0.1347946992742E-02 -0.2300682134165E-02  0.0000000000000E+00  0.1870382400082E-02
 0.1674072238060E-02 -0.2423832665455E-02  0.0000000000000E+00  0.1493227656543E-02
 0.2053543035779E-02 -0.2576376702128E-02  0.0000000000000E+00  0.1055602841355E-02
 0.2484166728946E-02 -0.2758399622304E-02  0.0000000000000E+00  0.5727989284971E-03
 0.2958026503737E-02 -0.2966098823423E-02  0.0000000000000E+00  0.6594252666596E-04
 0.3459787403714E-02 -0.3190282015439E-02  0.0000000000000E+00 -0.4419437502138E-03
 0.3966956178849E-02 -0.3416214247894E-02  0.0000000000000E+00 -0.9336210099674E-03
 0.4454469540671E-02 -0.3627464162370E-02  0.0000000000000E+00 -0.1403601566245E-02
 0.1675762372429E-04 -0.1848466863436E-02  0.0000000000000E+00 -0.3680329694585E-03
 0.4826431400190E-04 -0.1869466403307E-02  0.0000000000000E+00 -0.1118131291832E-03
 0.7777311224820E-04 -0.1890780678613E-02  0.0000000000000E+00  0.1156463767911E-03
 0.1066210455973E-03 -0.1913383976584E-02  0.0000000000000E+00  0.3160431624815E-03
 0.1353520729741E-03 -0.1937604109705E-02  0.0000000000000E+00  0.4923518667523E-03
 0.1637995969272E-03 -0.1963194455976E-02  0.0000000000000E+00  0.6480465546789E-03
 0.1913082806392E-03 -0.1989518863057E-02  0.0000000000000E+00  0.7865618460246E-03
 0.2169885211379E-03 -0.2015758723065E-02  0.0000000000000E+00  0.9110289715943E-03
 0.2399288620009E-03 -0.2041080060949E-02  0.0000000000000E+00  0.1024214177695E-02
 0.2593376547653E-03 -0.2064738589250E-02  0.0000000000000E+00  0.1128561873238E-02
 0.2746182037112E-03 -0.2086128731090E-02  0.0000000000000E+00  0.1226266108610E-02
 0.2853959479768E-03 -0.2104793954000E-02  0.0000000000000E+00  0.1319327920960E-02
 0.2915177884179E-03 -0.2120416062367E-02  0.0000000000000E+00  0.1409584208875E-02
 0.2930391822429E-03 -0.2132796441597E-02  0.0000000000000E+00  0.1498708435976E-02
 0.2902092018436E-03 -0.2141837216088E-02  0.0000000000000E+00  0.1588188720842E-02
 0.2834593696768E-03 -0.2147526539273E-02  0.0000000000000E+00  0.1679289202392E-02
 0.2733990691202E-03 -0.2149929812913E-02  0.0000000000000E+00  0.1772998651870E-02
 0.2608190976749E-03 -0.2149187432567E-02  0.0000000000000E+00  0.1869965211304E-02
 0.2467031661001E-03 -0.2145519363793E-02  0.0000000000000E+00  0.1970422773503E-02
 0.2322478598307E-03 -0.2139236435406E-02  0.0000000000000E+00  0.2074105260094E-02
 0.2188910987398E-03 -0.2130758777322E-02  0.0000000000000E+00  0.2180148183597E-02
 0.2083474258861E-03 -0.2120641129206E-02  0.0000000000000E+00  0.2286988519659E-02
 0.2026494581875E-03 -0.2109604841489E-02  0.0000000000000E+00  0.2392262423701E-02
 0.2041907750134E-03 -0.2098562167802E-02  0.0000000000000E+00  0.2492715804840E-02
 0.2157610942091E-03 -0.2088594049969E-02  0.0000000000000E+00  0.2584146324928E-02
 0.2405753394654E-03 -0.2080997860289E-02  0.0000000000000E+00  0.2661361885765E-02
 0.2822858092095E-03 -0.2077417171470E-02  0.0000000000000E+00  0.2718174854262E-02
 0.3449629350708E-03 -0.2079908834312E-02  0.0000000000000E+00  0.2747461855548E-02
 0.4330487399991E-03 -0.2090943795461E-02  0.0000000000000E+00  0.2741327718253E-02
 0.5512847720776E-03 -0.2113373708304E-02  0.0000000000000E+00  0.2691414953266E-02
 0.7046050261812E-03 -0.2150380620823E-02  0.0000000000000E+00  0.2589405292914E-02
 0.8979664811102E-03 -0.2205401563492E-02  0.0000000000000E+00  0.2427763260773E-02
 0.1136066369631E-02 -0.2281988414819E-02  0.0000000000000E+00  0.2200756565031E-02
 0.1422926064754E-02 -0.2383586839061E-02  0.0000000000000E+00  0.1905739950637E-02
 0.1761276138582E-02 -0.2513136624088E-02  0.0000000000000E+00  0.1544568179834E-02
 0.2151509142445E-02 -0.2672276103530E-02  0.0000000000000E+00  0.1124753239567E-02
 0.2590205675470E-02 -0.2860187807289E-02  0.0000000000000E+00  0.6597575416513E-03
 0.3068572210057E-02 -0.3072325680540E-02  0.0000000000000E+00  0.1676770406115E-03
 0.3571384062684E-02 -0.3299428667409E-02  0.0000000000000E+00 -0.3324597041137E-03
 0.4077684954553E-02 -0.3527948440361E-02  0.0000000000000E+00 -0.8264386207439E-03
 0.4563762202513E-02 -0.3742610978631E-02  0.0000000000000E+00 -0.1308208818432E-02
 0.1910304127212E-04 -0.2010840247167E-02  0.0000000000000E+00 -0.3540262315100E-03
 0.5535005214424E-04 -0.2034649700609E-02  0.0000000000000E+00 -0.9738070510211E-04
 0.8944196821052E-04 -0.2058477083552E-02  0.0000000000000E+00  0.1312402032998E-03
 0.1224263082431E-03 -0.2083078666899E-02  0.0000000000000E+00  0.3331354618389E-03
 0.1546933877219E-03 -0.2108671165736E-02  0.0000000000000E+00  0.5108721722932E-03
 0.1860331648346E-03 -0.2134981525588E-02  0.0000000000000E+00  0.6676101392401E-03
 0.2158137624143E-03 -0.2161395624194E-02  0.0000000000000E+00  0.8066051052900E-03
 0.2431963888226E-03 -0.2187133191055E-02  0.0000000000000E+00  0.9309345881840E-03
 0.2673224774560E-03 -0.2211395341180E-02  0.0000000000000E+00  0.1043399006429E-02
 0.2874445583225E-03 -0.2233462283774E-02  0.0000000000000E+00  0.1146523820395E-02
 0.3030002910247E-03 -0.2252742690760E-02  0.0000000000000E+00  0.1242599091129E-02
 0.3136430503109E-03 -0.2268787550694E-02  0.0000000000000E+00  0.1333717272571E-02
 0.3192457339989E-03 -0.2281283345797E-02  0.0000000000000E+00  0.1421792978688E-02
 0.3198918355409E-03 -0.2290036444670E-02  0.0000000000000E+00  0.1508561580951E-02
 0.3158636333074E-03 -0.2294956631394E-02  0.0000000000000E+00  0.1595559150888E-02
 0.3076335374875E-03 -0.2296044368664E-02  0.0000000000000E+00  0.1684087560495E-02
 0.2958617515493E-03 -0.2293384009977E-02  0.0000000000000E+00  0.1775167530789E-02
 0.2814021552164E-03 -0.2287144046117E-02  0.0000000000000E+00  0.1869478053253E-02
 0.2653161983802E-03 -0.2277584522542E-02  0.0000000000000E+00  0.1967287397456E-02
 0.2488953480669E-03 -0.2265071778549E-02  0.0000000000000E+00  0.2068372134663E-02
 0.2336918106798E-03 -0.2250100753593E-02  0.0000000000000E+00  0.2171923639614E-02
 0.2215553077723E-03 -0.2233323868182E-02  0.0000000000000E+00  0.2276452836423E-02
 0.2146748094910E-03 -0.2215586191893E-02  0.0000000000000E+00  0.2379692587129E-02
 0.2156199428107E-03 -0.2197952426098E-02  0.0000000000000E+00  0.2478512893215E-02
 0.2273726480854E-03 -0.2181687746836E-02  0.0000000000000E+00  0.2568869246922E-02
 0.2533505259934E-03 -0.2168302694655E-02  0.0000000000000E+00  0.2645761859763E-02
 0.2974106988925E-03 -0.2159673851215E-02  0.0000000000000E+00  0.2703223087594E-02
 0.3638181995056E-03 -0.2158101953950E-02  0.0000000000000E+00  0.2734371875595E-02
 0.4571804179282E-03 -0.2166301132741E-02  0.0000000000000E+00  0.2731576066984E-02
 0.5823467670407E-03 -0.2187346417691E-02  0.0000000000000E+00  0.2686761504870E-02
 0.7442622046516E-03 -0.2224592801172E-02  0.0000000000000E+00  0.2591907670515E-02
 0.9477475342223E-03 -0.2281555947337E-02  0.0000000000000E+00  0.2439767166254E-02
 0.1197161301856E-02 -0.2361717995354E-02  0.0000000000000E+00  0.2224824395406E-02
 0.1495935264134E-02 -0.2468251805948E-02  0.0000000000000E+00  0.1944457652394E-02
 0.1845947237077E-02 -0.2603590184339E-02  0.0000000000000E+00  0.1600157018473E-02
 0.2246549739809E-02 -0.2768666011607E-02  0.0000000000000E+00  0.1198427618864E-02
 0.2693299420796E-02 -0.2961895980124E-02  0.0000000000000E+00  0.7508477535209E-03
 0.3176751046361E-02 -0.3178174829402E-02  0.0000000000000E+00  0.2726871055460E-03
 0.3681853909263E-02 -0.3408293223089E-02  0.0000000000000E+00 -0.2203168255044E-03
 0.4188749477246E-02 -0.3639534732117E-02  0.0000000000000E+00 -0.7162450556474E-03
 0.4674776293857E-02 -0.3857378667796E-02  0.0000000000000E+00 -0.1209373350484E-02
 0.2137157516900E-04 -0.2172774001870E-02  0.0000000000000E+00 -0.3383514737344E-03
 0.6222630491442E-04 -0.2199314726642E-02  0.0000000000000E+00 -0.8144237812581E-04
 0.1008232450063E-03 -0.2225617410032E-02  0.0000000000000E+00  0.1480019162625E-03
 0.1379325325773E-03 -0.2252228983374E-02  0.0000000000000E+00  0.3509507511046E-03
 0.1737832727193E-03 -0.2279248524553E-02  0.0000000000000E+00  0.5296276462817E-03
 0.2081026959304E-03 -0.2306361484234E-02  0.0000000000000E+00  0.6869214147111E-03
 0.2402608878915E-03 -0.2332959938876E-02  0.0000000000000E+00  0.8259288680761E-03
 0.2694527057818E-03 -0.2358290431059E-02  0.0000000000000E+00  0.9496766921624E-03
 0.2948620370482E-03 -0.2381583458548E-02  0.0000000000000E+00  0.1060993870408E-02
 0.3157812709208E-03 -0.2402142910656E-02  0.0000000000000E+00  0.1162479374225E-02
 0.3316823264299E-03 -0.2419393961104E-02  0.0000000000000E+00  0.1256513191895E-02
 0.3422486900768E-03 -0.2432898756422E-02  0.0000000000000E+00  0.1345275548177E-02
 0.3473822363552E-03 -0.2442352323922E-02  0.0000000000000E+00  0.1430757346578E-02
 0.3471973688942E-03 -0.2447569484920E-02  0.0000000000000E+00  0.1514756165394E-02
 0.3420118642246E-03 -0.2448470493627E-02  0.0000000000000E+00  0.1598857748269E-02
 0.3323405259236E-03 -0.2445070213748E-02  0.0000000000000E+00  0.1684404859267E-02
 0.3188950317744E-03 -0.2437473344529E-02  0.0000000000000E+00  0.1772455070722E-02
 0.3025921323764E-03 -0.2425877188989E-02  0.0000000000000E+00  0.1863725358447E-02
 0.2845699279808E-03 -0.2410581896872E-02  0.0000000000000E+00  0.1958528266390E-02
 0.2662127694138E-03 -0.2392008571298E-02  0.0000000000000E+00  0.2056696137226E-02
 0.2491841989221E-03 -0.2370725302513E-02  0.0000000000000E+00  0.2157492824412E-02
 0.2354651881756E-03 -0.2347479447428E-02  0.0000000000000E+00  0.2259523265712E-02
 0.2273961822394E-03 -0.2323235776665E-02  0.0000000000000E+00  0.2360640139133E-02
 0.2277171356284E-03 -0.2299205989288E-02  0.0000000000000E+00  0.2457862754413E-02
 0.2395958768954E-03 -0.2276832622013E-02  0.0000000000000E+00  0.2547329818592E-02
 0.2666459506233E-03 -0.2257831102733E-02  0.0000000000000E+00  0.2624257646270E-02
 0.3129221646231E-03 -0.2244300999394E-02  0.0000000000000E+00  0.2682919608681E-02
 0.3828763968751E-03 -0.2238774474067E-02  0.0000000000000E+00  0.2716692620743E-02
 0.4812728572534E-03 -0.2244193104790E-02  0.0000000000000E+00  0.2718212733565E-02
 0.6130598962191E-03 -0.2263835807116E-02  0.0000000000000E+00  0.2679676001791E-02
 0.7831860686414E-03 -0.2301208012900E-02  0.0000000000000E+00  0.2593318010297E-02
 0.9963350134853E-03 -0.2359881783805E-02  0.0000000000000E+00  0.2452098526362E-02
 0.1256540900213E-02 -0.2443254877828E-02  0.0000000000000E+00  0.2250591733968E-02
 0.1566688619768E-02 -0.2554231855085E-02  0.0000000000000E+00  0.1986031250807E-02
 0.1927888770746E-02 -0.2694776666923E-02  0.0000000000000E+00  0.1659359878484E-02
 0.2338588621912E-02 -0.2865198847560E-02  0.0000000000000E+00  0.1275936941959E-02
 0.2793493110601E-02 -0.3063272444689E-02  0.0000000000000E+00  0.8454457381260E-03
 0.3282659257053E-02 -0.3283467979822E-02  0.0000000000000E+00  0.3805653915824E-03
 0.3791198507851E-02 -0.3516647753830E-02  0.0000000000000E+00 -0.1057334491553E-03
 0.4300065448635E-02 -0.3750679000395E-02  0.0000000000000E+00 -0.6034657896759E-03
 0.4787537058336E-02 -0.3971656571993E-02  0.0000000000000E+00 -0.1107624702127E-02
 0.2358169777823E-04 -0.2334321268204E-02  0.0000000000000E+00 -0.3210596357081E-03
 0.6894441310270E-04 -0.2363534899648E-02  0.0000000000000E+00 -0.6402983147271E-04
 0.1119913572499E-03 -0.2392288592313E-02  0.0000000000000E+00  0.1659299878083E-03
 0.1532262794424E-03 -0.2420927951629E-02  0.0000000000000E+00  0.3695179276010E-03
 0.1927117247960E-03 -0.2449429801811E-02  0.0000000000000E+00  0.5486700801768E-03
 0.2300966098909E-03 -0.2477425989003E-02  0.0000000000000E+00  0.7060448502808E-03
 0.2647348267371E-03 -0.2504301457133E-02  0.0000000000000E+00  0.8446017096449E-03
 0.2958397963128E-03 -0.2529319420915E-02  0.0000000000000E+00  0.9673230791574E-03
 0.3226282513573E-03 -0.2551734430657E-02  0.0000000000000E+00  0.1077064570224E-02
 0.3444281479003E-03 -0.2570873050196E-02  0.0000000000000E+00  0.1176493721479E-02
 0.3607452568730E-03 -0.2586178851777E-02  0.0000000000000E+00  0.1268075713591E-02
 0.3712949896888E-03 -0.2597228468265E-02  0.0000000000000E+00  0.1354075279379E-02
 0.3760108708687E-03 -0.2603729127824E-02  0.0000000000000E+00  0.1436557988687E-02
 0.3750408338494E-03 -0.2605507416305E-02  0.0000000000000E+00  0.1517383456464E-02
 0.3687401922870E-03 -0.2602496691615E-02  0.0000000000000E+00  0.1598188265920E-02
 0.3576673405264E-03 -0.2594728045965E-02  0.0000000000000E+00  0.1680358685892E-02
 0.3425856790247E-03 -0.2582327516032E-02  0.0000000000000E+00  0.1764993520060E-02
 0.3244740918888E-03 -0.2565521362233E-02  0.0000000000000E+00  0.1852854343321E-02
 0.3045455938193E-03 -0.2544649109403E-02  0.0000000000000E+00  0.1944307306749E-02
 0.2842746745709E-03 -0.2520184949621E-02  0.0000000000000E+00  0.2039252982214E-02
 0.2654324569059E-03 -0.2492767389236E-02  0.0000000000000E+00  0.2137043506837E-02
 0.2501264319576E-03 -0.2463234799670E-02  0.0000000000000E+00  0.2236396907418E-02
 0.2408429138592E-03 -0.2432666418417E-02  0.0000000000000E+00  0.2335307605619E-02
 0.2404858946232E-03 -0.2402414319327E-02  0.0000000000000E+00  0.2430968056806E-02
 0.2524024360887E-03 -0.2374090502640E-02  0.0000000000000E+00  0.2519724000942E-02
 0.2803953299887E-03 -0.2349606240045E-02  0.0000000000000E+00  0.2597029841910E-02
 0.3287105007959E-03 -0.2331273715969E-02  0.0000000000000E+00  0.2657418768714E-02
 0.4019803251109E-03 -0.2321844413900E-02  0.0000000000000E+00  0.2694538500367E-02
 0.5051199728225E-03 -0.2324473149103E-02  0.0000000000000E+00  0.2701295093016E-02
 0.6431722734030E-03 -0.2342626520207E-02  0.0000000000000E+00  0.2670138183128E-02
 0.8210886501998E-03 -0.2379943551500E-02  0.0000000000000E+00  0.2593515473942E-02
 0.1043423266511E-02 -0.2440038785737E-02  0.0000000000000E+00  0.2464514284477E-02
 0.1313909727356E-02 -0.2526221305659E-02  0.0000000000000E+00  0.2277680070051E-02
 0.1634936117760E-02 -0.2641142163739E-02  0.0000000000000E+00  0.2029952736043E-02
 0.2006931330926E-02 -0.2786340357983E-02  0.0000000000000E+00  0.1721575775295E-02
 0.2427559490155E-02 -0.2961580409995E-02  0.0000000000000E+00  0.1356659405493E-02
 0.2890814220441E-02 -0.3164098433908E-02  0.0000000000000E+00  0.9430120530656E-03
 0.3386355744484E-02 -0.3388030882205E-02  0.0000000000000E+00  0.4909412074910E-03
 0.3899421999784E-02 -0.3624294900244E-02  0.0000000000000E+00  0.1102638335819E-04
 0.4411591599057E-02 -0.3861181012772E-02  0.0000000000000E+00 -0.4884566057844E-03
 0.4902002683525E-02 -0.4085331949874E-02  0.0000000000000E+00 -0.1003319872633E-02
 0.2575028369461E-04 -0.2495534093966E-02  0.0000000000000E+00 -0.3021881174573E-03
 0.7555163378247E-04 -0.2527381026553E-02  0.0000000000000E+00 -0.4516441332819E-04
 0.1230157345233E-03 -0.2558574505272E-02  0.0000000000000E+00  0.1850286092589E-03
 0.1683897281269E-03 -0.2589266061187E-02  0.0000000000000E+00  0.3888675147743E-03
 0.2115657830205E-03 -0.2619307021444E-02  0.0000000000000E+00  0.5680505216257E-03
 0.2521018217941E-03 -0.2648265876036E-02  0.0000000000000E+00  0.7250436487569E-03
 0.2893202118593E-03 -0.2675509267408E-02  0.0000000000000E+00  0.8626916728499E-03
 0.3224397868226E-03 -0.2700308297252E-02  0.0000000000000E+00  0.9839422701698E-03
 0.3507014554584E-03 -0.2721936777228E-02  0.0000000000000E+00  0.1091678903619E-02
 0.3734646813434E-03 -0.2739742956644E-02  0.0000000000000E+00  0.1188635116683E-02
 0.3902685572631E-03 -0.2753190507116E-02  0.0000000000000E+00  0.1277357880919E-02
 0.4008619979273E-03 -0.2761873657790E-02  0.0000000000000E+00  0.1360193617764E-02
 0.4052126128399E-03 -0.2765515314050E-02  0.0000000000000E+00  0.1439280792194E-02
 0.4035042565672E-03 -0.2763956977978E-02  0.0000000000000E+00  0.1516540417537E-02
 0.3961315692264E-03 -0.2757147551562E-02  0.0000000000000E+00  0.1593660479616E-02
 0.3836974210681E-03 -0.2745135902697E-02  0.0000000000000E+00  0.1672072721138E-02
 0.3670167759392E-03 -0.2728069987543E-02  0.0000000000000E+00  0.1752920906187E-02
 0.3471293943614E-03 -0.2706204603876E-02  0.0000000000000E+00  0.1837017154375E-02
 0.3253208398008E-03 -0.2679917192518E-02  0.0000000000000E+00  0.1924789835964E-02
 0.3031522778653E-03 -0.2649732473279E-02  0.0000000000000E+00  0.2016219396874E-02
 0.2824978903322E-03 -0.2616355617371E-02  0.0000000000000E+00  0.2110761124154E-02
 0.2655861997200E-03 -0.2580710986197E-02  0.0000000000000E+00  0.2207264128773E-02
 0.2550431048680E-03 -0.2543985922314E-02  0.0000000000000E+00  0.2303885283068E-02
 0.2539298297342E-03 -0.2507665181183E-02  0.0000000000000E+00  0.2398012677050E-02
 0.2657657591414E-03 -0.2473521426039E-02  0.0000000000000E+00  0.2486221457018E-02
 0.2945363562091E-03 -0.2443652112747E-02  0.0000000000000E+00  0.2564224545391E-02
 0.3446727718745E-03 -0.2420571508160E-02  0.0000000000000E+00  0.2626831978062E-02
 0.4209830629211E-03 -0.2407238888026E-02  0.0000000000000E+00  0.2667973055291E-02
 0.5285302629782E-03 -0.2407009827505E-02  0.0000000000000E+00  0.2680823427664E-02
 0.6724516108739E-03 -0.2423525797440E-02  0.0000000000000E+00  0.2658067875891E-02
 0.8577068788116E-03 -0.2460548034854E-02  0.0000000000000E+00  0.2592322056069E-02
 0.1088736121494E-02 -0.2521727208419E-02  0.0000000000000E+00  0.2476724721402E-02
 0.1369003960268E-02 -0.2610288240961E-02  0.0000000000000E+00  0.2305683872014E-02
 0.1700456754808E-02 -0.2728651343182E-02  0.0000000000000E+00  0.2075714805246E-02
 0.2082925351884E-02 -0.2877977769122E-02  0.0000000000000E+00  0.1786235265117E-02
 0.2513399505407E-02 -0.3057559913175E-02  0.0000000000000E+00  0.1440030402438E-02
 0.2985273434654E-02 -0.3264181535785E-02  0.0000000000000E+00  0.1043068364341E-02
 0.3487875705651E-02 -0.3491703549863E-02  0.0000000000000E+00  0.6034699013387E-03
 0.4006528837439E-02 -0.3731071312755E-02  0.0000000000000E+00  0.1296975659164E-03
 0.4523298784862E-02 -0.3970890623548E-02  0.0000000000000E+00 -0.3715084797257E-03
 0.5018095373302E-02 -0.4198294543076E-02  0.0000000000000E+00 -0.8967304012140E-03
 0.2789286038434E-04 -0.2656463479254E-02  0.0000000000000E+00 -0.2817619215267E-03
 0.8209175631074E-04 -0.2690921548664E-02  0.0000000000000E+00 -0.2485774735825E-04
 0.1339615056792E-03 -0.2724556202535E-02  0.0000000000000E+00  0.2053077462277E-03
 0.1835011681159E-03 -0.2757331323896E-02  0.0000000000000E+00  0.4090321372689E-03
 0.2304297222981E-03 -0.2788970446734E-02  0.0000000000000E+00  0.5878197685017E-03
 0.2742036819009E-03 -0.2818970827381E-02  0.0000000000000E+00  0.7439799529231E-03
 0.3141009377526E-03 -0.2846671500693E-02  0.0000000000000E+00  0.8802660884300E-03
 0.3493343643332E-03 -0.2871343972712E-02  0.0000000000000E+00  0.9996030176730E-03
 0.3791613840863E-03 -0.2892277179495E-02  0.0000000000000E+00  0.1104905999320E-02
 0.4029693075671E-03 -0.2908840253896E-02  0.0000000000000E+00  0.1198974174885E-02
 0.4203300646604E-03 -0.2920518619088E-02  0.0000000000000E+00  0.1284434177224E-02
 0.4310275416662E-03 -0.2926927085724E-02  0.0000000000000E+00  0.1363711753456E-02
 0.4350657040835E-03 -0.2927807576927E-02  0.0000000000000E+00  0.1439016361749E-02
 0.4326665263242E-03 -0.2923019512895E-02  0.0000000000000E+00  0.1512329292837E-02
 0.4242655274590E-03 -0.2912529581652E-02  0.0000000000000E+00  0.1585389838069E-02
 0.4105106299508E-03 -0.2896405686363E-02  0.0000000000000E+00  0.1659676447104E-02
 0.3922677976975E-03 -0.2874817874741E-02  0.0000000000000E+00  0.1736380802987E-02
 0.3706359004634E-03 -0.2848048508721E-02  0.0000000000000E+00  0.1816370710606E-02
 0.3469700735282E-03 -0.2816510783346E-02  0.0000000000000E+00  0.1900144509705E-02
 0.3229140044874E-03 -0.2780776541767E-02  0.0000000000000E+00  0.1987773218488E-02
 0.3004396805515E-03 -0.2741612910071E-02  0.0000000000000E+00  0.2078829088659E-02
 0.2818904474378E-03 -0.2700024182176E-02  0.0000000000000E+00  0.2172309152324E-02
 0.2700248636244E-03 -0.2657298395298E-02  0.0000000000000E+00  0.2266552191558E-02
 0.2680541020721E-03 -0.2615044310518E-02  0.0000000000000E+00  0.2359163114854E-02
 0.2796627460518E-03 -0.2575185647187E-02  0.0000000000000E+00  0.2446967542550E-02
 0.3090125239064E-03 -0.2539995880763E-02  0.0000000000000E+00  0.2525956061156E-02
 0.3607146566281E-03 -0.2512180790646E-02  0.0000000000000E+00  0.2591231283995E-02
 0.4397496335400E-03 -0.2494896623720E-02  0.0000000000000E+00  0.2637013579792E-02
 0.5513279972731E-03 -0.2491689067426E-02  0.0000000000000E+00  0.2656746722276E-02
 0.7006855297098E-03 -0.2506365010254E-02  0.0000000000000E+00  0.2643331945915E-02
 0.8928015469135E-03 -0.2542801667183E-02  0.0000000000000E+00  0.2589510339569E-02
 0.1132024088342E-02 -0.2604686243018E-02  0.0000000000000E+00  0.2488401132479E-02
 0.1421586686563E-02 -0.2695171422470E-02  0.0000000000000E+00  0.2334176583933E-02
 0.1763052419498E-02 -0.2816475229263E-02  0.0000000000000E+00  0.2122813054615E-02
 0.2155734738370E-02 -0.2969429935364E-02  0.0000000000000E+00  0.1852797071444E-02
 0.2596044908509E-02 -0.3152922285386E-02  0.0000000000000E+00  0.1525531822515E-02
 0.3076866197808E-02 -0.3363352498212E-02  0.0000000000000E+00  0.1145182155501E-02
 0.3587236483283E-02 -0.3594343781586E-02  0.0000000000000E+00  0.7178312847320E-03
 0.4112519348632E-02 -0.3836841630281E-02  0.0000000000000E+00  0.2500310305746E-03
 0.4635156576658E-02 -0.4079686581542E-02  0.0000000000000E+00 -0.2528625736704E-03
 0.5135721076346E-02 -0.4310437136431E-02  0.0000000000000E+00 -0.7880882360591E-03
 0.3002381868068E-04 -0.2817159424722E-02  0.0000000000000E+00 -0.2597946282041E-03
 0.8860562700197E-04 -0.2854222779456E-02  0.0000000000000E+00 -0.3112281202680E-05
 0.1448901051567E-03 -0.2890312174986E-02  0.0000000000000E+00  0.2267831254008E-03
 0.1986354696926E-03 -0.2925209407459E-02  0.0000000000000E+00  0.4300468602003E-03
 0.2493852864097E-03 -0.2958508535934E-02  0.0000000000000E+00  0.6080287424103E-03
 0.2964859884486E-03 -0.2989629185414E-02  0.0000000000000E+00  0.7629149953172E-03
 0.3391600333453E-03 -0.3017875079182E-02  0.0000000000000E+00  0.8973914016343E-03
 0.3766045916763E-03 -0.3042511882995E-02  0.0000000000000E+00  0.1014373851883E-02
 0.4080869819679E-03 -0.3062840257188E-02  0.0000000000000E+00  0.1116815695308E-02
 0.4330192340347E-03 -0.3078249745923E-02  0.0000000000000E+00  0.1207583196848E-02
 0.4510058244185E-03 -0.3088249261544E-02  0.0000000000000E+00  0.1289381699025E-02
 0.4618670886842E-03 -0.3092477150677E-02  0.0000000000000E+00  0.1364714342772E-02
 0.4656455333327E-03 -0.3090697610001E-02  0.0000000000000E+00  0.1435859534764E-02
 0.4626033014534E-03 -0.3082790849930E-02  0.0000000000000E+00  0.1504857208926E-02
 0.4532181268084E-03 -0.3068743391933E-02  0.0000000000000E+00  0.1573497144705E-02
 0.4381832611245E-03 -0.3048643146793E-02  0.0000000000000E+00  0.1643304907148E-02
 0.4184147091562E-03 -0.3022682021684E-02  0.0000000000000E+00  0.1715522175773E-02
 0.3950681852047E-03 -0.2991168433102E-02  0.0000000000000E+00  0.1791076652358E-02
 0.3695648275934E-03 -0.2954548496351E-02  0.0000000000000E+00  0.1870543407208E-02
 0.3436260273329E-03 -0.2913436974695E-02  0.0000000000000E+00  0.1954093662174E-02
 0.3193156215198E-03 -0.2868657336620E-02  0.0000000000000E+00  0.2041429295928E-02
 0.2990848810887E-03 -0.2821286783032E-02  0.0000000000000E+00  0.2131710872376E-02
 0.2858174853665E-03 -0.2772705656698E-02  0.0000000000000E+00  0.2223477275004E-02
 0.2828668177966E-03 -0.2724637137783E-02  0.0000000000000E+00  0.2314570160252E-02
 0.2940753382104E-03 -0.2679145661933E-02  0.0000000000000E+00  0.2402085532531E-02
 0.3237748163591E-03 -0.2638670129891E-02  0.0000000000000E+00  0.2482309787875E-02
 0.3767521241588E-03 -0.2606097302681E-02  0.0000000000000E+00  0.2550653029545E-02
 0.4581584795932E-03 -0.2584770342817E-02  0.0000000000000E+00  0.2601635644711E-02
 0.5733542162092E-03 -0.2578416228873E-02  0.0000000000000E+00  0.2628968080989E-02
 0.7276817335676E-03 -0.2591001023245E-02  0.0000000000000E+00  0.2625750478911E-02
 0.9261562789256E-03 -0.2626516423128E-02  0.0000000000000E+00  0.2584810014534E-02
 0.1173061832344E-02 -0.2688692556861E-02  0.0000000000000E+00  0.2499181818450E-02
 0.1471443885699E-02 -0.2780627990428E-02  0.0000000000000E+00  0.2362714728621E-02
 0.1822542891271E-02 -0.2904371771389E-02  0.0000000000000E+00  0.2170746620336E-02
 0.2225232030684E-02 -0.3060476330693E-02  0.0000000000000E+00  0.1920743925479E-02
 0.2675428355998E-02 -0.3247482829587E-02  0.0000000000000E+00  0.1612682841514E-02
 0.3165574021563E-02 -0.3461463238457E-02  0.0000000000000E+00  0.1248957025350E-02
 0.3684440253748E-02 -0.3695827229815E-02  0.0000000000000E+00  0.8337289287169E-03
 0.4217386566609E-02 -0.3941492355388E-02  0.0000000000000E+00  0.3717986551962E-03
 0.4747129242432E-02 -0.4187465858255E-02  0.0000000000000E+00 -0.1327256384616E-03
 0.5254780607182E-02 -0.4421657204086E-02  0.0000000000000E+00 -0.6776079014736E-03
 0.3215658707319E-04 -0.2977670981004E-02  0.0000000000000E+00 -0.2362892010472E-03
 0.9513159887955E-04 -0.3017349111408E-02  0.0000000000000E+00  0.2007823488425E-04
 0.1558598099934E-03 -0.3055918580716E-02  0.0000000000000E+00  0.2494761846820E-03
 0.2138645270257E-03 -0.3092983763572E-02  0.0000000000000E+00  0.4519494263526E-03
 0.2685119391302E-03 -0.3128007912949E-02  0.0000000000000E+00  0.6287287598226E-03
 0.3190310441399E-03 -0.3160327783072E-02  0.0000000000000E+00  0.7819091878992E-03
 0.3645795782845E-03 -0.3189205460620E-02  0.0000000000000E+00  0.9141329872036E-03
 0.4043307486202E-03 -0.3213895698789E-02  0.0000000000000E+00  0.1028322646333E-02
 0.4375562176270E-03 -0.3233708280349E-02  0.0000000000000E+00  0.1127477945963E-02
 0.4636902509001E-03 -0.3248053139368E-02  0.0000000000000E+00  0.1214535519398E-02
 0.4823699089210E-03 -0.3256464622664E-02  0.0000000000000E+00  0.1292279528989E-02
 0.4934535772386E-03 -0.3258607628753E-02  0.0000000000000E+00  0.1363288951689E-02
 0.4970244816094E-03 -0.3254271854776E-02  0.0000000000000E+00  0.1429908916943E-02
 0.4933868802102E-03 -0.3243361070893E-02  0.0000000000000E+00  0.1494235808312E-02
 0.4830618660801E-03 -0.3225883496033E-02  0.0000000000000E+00  0.1558108290277E-02
 0.4667880125215E-03 -0.3201947740548E-02  0.0000000000000E+00  0.1623098541253E-02
 0.4455300221093E-03 -0.3171766946035E-02  0.0000000000000E+00  0.1690499331355E-02
 0.4204977064044E-03 -0.3135673558658E-02  0.0000000000000E+00  0.1761301429322E-02
 0.3931740663837E-03 -0.3094143141178E-02  0.0000000000000E+00  0.1836162292773E-02
 0.3653527379949E-03 -0.3047828420331E-02  0.0000000000000E+00  0.1915361803231E-02
 0.3391827771199E-03 -0.2997602747003E-02  0.0000000000000E+00  0.1998742884966E-02
 0.3172158157652E-03 -0.2944608295851E-02  0.0000000000000E+00  0.2085643956453E-02
 0.3024525179238E-03 -0.2890308408418E-02  0.0000000000000E+00  0.2174820910987E-02
 0.2983802888573E-03 -0.2836530244061E-02  0.0000000000000E+00  0.2264370880008E-02
 0.3089919381370E-03 -0.2785467931612E-02  0.0000000000000E+00  0.2351679151971E-02
 0.3387832126582E-03 -0.2739714812518E-02  0.0000000000000E+00  0.2433345358280E-02
 0.3927129074121E-03 -0.2702328160244E-02  0.0000000000000E+00  0.2505101655306E-02
 0.4761027185856E-03 -0.2676828749669E-02  0.0000000000000E+00  0.2561777579477E-02
 0.5944675147163E-03 -0.2667117766026E-02  0.0000000000000E+00  0.2597349826631E-02
 0.7532680114568E-03 -0.2677317181031E-02  0.0000000000000E+00  0.2605102276099E-02
 0.9575764442808E-03 -0.2711535961570E-02  0.0000000000000E+00  0.2577913292850E-02
 0.1211645800113E-02 -0.2773558779377E-02  0.0000000000000E+00  0.2508676603622E-02
 0.1518380847195E-02 -0.2866453395601E-02  0.0000000000000E+00  0.2390840409697E-02
 0.1878761565648E-02 -0.2992136601026E-02  0.0000000000000E+00  0.2219017489039E-02
 0.2291294500291E-02 -0.3150929871443E-02  0.0000000000000E+00  0.1989577909985E-02
 0.2751476869436E-02 -0.3341083093561E-02  0.0000000000000E+00  0.1701032048663E-02
 0.3251364986898E-02 -0.3558384783693E-02  0.0000000000000E+00  0.1354025517736E-02
 0.3779474962425E-02 -0.3796045772154E-02  0.0000000000000E+00  0.9508882355604E-03
 0.4321114381941E-02 -0.4044926833493E-02  0.0000000000000E+00  0.4947920630719E-03
 0.4859175301058E-02 -0.4294138242529E-02  0.0000000000000E+00 -0.1128236573095E-04
 0.5375176211841E-02 -0.4531858283258E-02  0.0000000000000E+00 -0.5654983876677E-03
 0.3430378714340E-04 -0.3138046305916E-02  0.0000000000000E+00 -0.2112386969838E-03
 0.1017059274963E-03 -0.3180363212439E-02  0.0000000000000E+00  0.4472831141571E-04
 0.1669262285445E-03 -0.3221449471663E-02  0.0000000000000E+00  0.2734139725751E-03
 0.2292576858830E-03 -0.3260735777005E-02  0.0000000000000E+00  0.4747803831265E-03
 0.2878871379700E-03 -0.3297553382166E-02  0.0000000000000E+00  0.6499716835211E-03
 0.3419197584725E-03 -0.3331151826577E-02  0.0000000000000E+00  0.8010221198377E-03
 0.3904406676278E-03 -0.3360746426616E-02  0.0000000000000E+00  0.9305549107159E-03
 0.4325922089056E-03 -0.3385577063218E-02  0.0000000000000E+00  0.1041516158635E-02
 0.4676459150562E-03 -0.3404960887361E-02  0.0000000000000E+00  0.1136962217988E-02
 0.4950565442453E-03 -0.3418328758119E-02  0.0000000000000E+00  0.1219904857093E-02
 0.5144942270091E-03 -0.3425242721896E-02  0.0000000000000E+00  0.1293208098817E-02
 0.5258572305216E-03 -0.3425397395712E-02  0.0000000000000E+00  0.1359525489485E-02
 0.5292717502196E-03 -0.3418611233190E-02  0.0000000000000E+00  0.1421266412916E-02
 0.5250860535579E-03 -0.3404814263184E-02  0.0000000000000E+00  0.1480580888594E-02
 0.5138655757010E-03 -0.3384038099328E-02  0.0000000000000E+00  0.1539354006711E-02
 0.4963939373257E-03 -0.3356412475123E-02  0.0000000000000E+00  0.1599203063195E-02
 0.4736828269994E-03 -0.3322170764469E-02  0.0000000000000E+00  0.1661471934805E-02
 0.4469929406810E-03 -0.3281666927903E-02  0.0000000000000E+00  0.1727216483728E-02
 0.4178644508768E-03 -0.3235401900125E-02  0.0000000000000E+00  0.1797181003611E-02
 0.3881571638761E-03 -0.3184060707913E-02  0.0000000000000E+00  0.1871761218103E-02
 0.3600980709310E-03 -0.3128559331049E-02  0.0000000000000E+00  0.1950951188274E-02
 0.3363309524549E-03 -0.3070096133482E-02  0.0000000000000E+00  0.2034280164112E-02
 0.3199647299228E-03 -0.3010207283975E-02  0.0000000000000E+00  0.2120736657243E-02
 0.3146121813331E-03 -0.2950812670672E-02  0.0000000000000E+00  0.2208690845617E-02
 0.3244087030185E-03 -0.2894224435961E-02  0.0000000000000E+00  0.2295835329781E-02
 0.3540080574952E-03 -0.2843178992198E-02  0.0000000000000E+00  0.2379099947911E-02
 0.4085378340886E-03 -0.2800893691629E-02  0.0000000000000E+00  0.2454553564962E-02
 0.4934912631636E-03 -0.2771058292692E-02  0.0000000000000E+00  0.2517344846173E-02
 0.6145447221415E-03 -0.2757742675482E-02  0.0000000000000E+00  0.2561718244918E-02
 0.7772922100135E-03 -0.2765224137431E-02  0.0000000000000E+00  0.2581129682291E-02
 0.9868881725387E-03 -0.2797735504509E-02  0.0000000000000E+00  0.2568479323552E-02
 0.1247592147216E-02 -0.2859132163326E-02  0.0000000000000E+00  0.2516470103384E-02
 0.1562219132152E-02 -0.2952478772860E-02  0.0000000000000E+00  0.2418082534915E-02
 0.1931551944155E-02 -0.3079599385352E-02  0.0000000000000E+00  0.2267128857707E-02
 0.2353801073224E-02 -0.3240632961185E-02  0.0000000000000E+00  0.2058815690512E-02
 0.2824110220813E-02 -0.3433587642090E-02  0.0000000000000E+00  0.1790150681109E-02
 0.3334193814616E-02 -0.3654005270543E-02  0.0000000000000E+00  0.1460043246721E-02
 0.3872314674186E-02 -0.3894905522032E-02  0.0000000000000E+00  0.1069053495443E-02
 0.4423676896104E-02 -0.4147061746792E-02  0.0000000000000E+00  0.6188191570061E-03
 0.4971248590122E-02 -0.4399623790687E-02  0.0000000000000E+00  0.1112955968471E-03
 0.5496815888688E-02 -0.4640951333986E-02  0.0000000000000E+00 -0.4519696790922E-03
 0.3647736507911E-04 -0.3298332733957E-02  0.0000000000000E+00 -0.1846268426784E-03
 0.1083631216432E-03 -0.3343326228549E-02  0.0000000000000E+00  0.7086035057951E-04
 0.1781427486450E-03 -0.3386977038029E-02  0.0000000000000E+00  0.2986290430924E-03
 0.2448821583879E-03 -0.3428544958114E-02  0.0000000000000E+00  0.4985831507434E-03
 0.3075866272192E-03 -0.3467228012038E-02  0.0000000000000E+00  0.6718100002327E-03
 0.3652317906526E-03 -0.3502184860843E-02  0.0000000000000E+00  0.8203124982687E-03
 0.4168234218273E-03 -0.3532579953703E-02  0.0000000000000E+00  0.9467196622692E-03
 0.4614673543636E-03 -0.3557635403262E-02  0.0000000000000E+00  0.1054019569173E-02
 0.4984316087594E-03 -0.3576674866397E-02  0.0000000000000E+00  0.1145336899345E-02
 0.5271905197605E-03 -0.3589151314144E-02  0.0000000000000E+00  0.1223764662726E-02
 0.5474483348718E-03 -0.3594657181251E-02  0.0000000000000E+00  0.1292248572094E-02
 0.5591453678695E-03 -0.3592920206028E-02  0.0000000000000E+00  0.1353515663042E-02
 0.5624531837785E-03 -0.3583790941945E-02  0.0000000000000E+00  0.1410036780375E-02
 0.5577659524496E-03 -0.3567228339485E-02  0.0000000000000E+00  0.1464012071248E-02
 0.5456943038614E-03 -0.3543288957692E-02  0.0000000000000E+00  0.1517369660374E-02
 0.5270663860584E-03 -0.3512123824361E-02  0.0000000000000E+00  0.1571769390448E-02
 0.5029388102931E-03 -0.3473985186105E-02  0.0000000000000E+00  0.1628605095596E-02
 0.4746194971286E-03 -0.3429245540429E-02  0.0000000000000E+00  0.1688998522513E-02
 0.4437005703565E-03 -0.3378426554485E-02  0.0000000000000E+00  0.1753783948503E-02
 0.4121013390770E-03 -0.3322239232972E-02  0.0000000000000E+00  0.1823478759165E-02
 0.3821188149824E-03 -0.3261634191250E-02  0.0000000000000E+00  0.1898236838241E-02
 0.3564800783457E-03 -0.3197856400351E-02  0.0000000000000E+00  0.1977789841568E-02
 0.3383929875424E-03 -0.3132503865841E-02  0.0000000000000E+00  0.2061373186653E-02
 0.3315865591660E-03 -0.3067577173635E-02  0.0000000000000E+00  0.2147646549938E-02
 0.3403307239699E-03 -0.3005494149148E-02  0.0000000000000E+00  0.2234627120593E-02
 0.3694313128999E-03 -0.2949122493840E-02  0.0000000000000E+00  0.2319591699322E-02
 0.4241820456018E-03 -0.2901829169462E-02  0.0000000000000E+00  0.2398961009303E-02
 0.5102498519148E-03 -0.2867464828435E-02  0.0000000000000E+00  0.2468214279276E-02
 0.6334815413757E-03 -0.2850263879480E-02  0.0000000000000E+00  0.2521867982356E-02
 0.7996222516345E-03 -0.2854660693703E-02  0.0000000000000E+00  0.2553542812247E-02
 0.1013937548990E-02 -0.2885021856955E-02  0.0000000000000E+00  0.2556137755354E-02
 0.1280735025906E-02 -0.2945293584234E-02  0.0000000000000E+00  0.2522123980100E-02
 0.1602794091238E-02 -0.3038568899210E-02  0.0000000000000E+00  0.2443957074246E-02
 0.1980764829500E-02 -0.3166621011636E-02  0.0000000000000E+00  0.2314582889291E-02
 0.2412629933524E-02 -0.3329454497541E-02  0.0000000000000E+00  0.2127983865336E-02
 0.2893239653435E-02 -0.3524881600401E-02  0.0000000000000E+00  0.1879626751141E-02
 0.3414001772366E-02 -0.3748228234192E-02  0.0000000000000E+00  0.1566683837547E-02
 0.3962919848984E-02 -0.3992325141233E-02  0.0000000000000E+00  0.1187984566581E-02
 0.4525038643933E-02 -0.4247824991854E-02  0.0000000000000E+00  0.7437003486311E-03
 0.5083300007813E-02 -0.4503851963314E-02  0.0000000000000E+00  0.2348435503026E-03
 0.5619616429890E-02 -0.4748856173975E-02  0.0000000000000E+00 -0.3372362094642E-03
 0.3868871149030E-04 -0.3458576856407E-02  0.0000000000000E+00 -0.1564285271191E-03
 0.1151362623318E-03 -0.3506297974224E-02  0.0000000000000E+00  0.9850431978737E-04
 0.1895609567965E-03 -0.3552571834466E-02  0.0000000000000E+00  0.3251593263431E-03
 0.2608034284191E-03 -0.3596489120896E-02  0.0000000000000E+00  0.5234040131463E-03
 0.3276847442831E-03 -0.3637113207728E-02  0.0000000000000E+00  0.6942967985088E-03
 0.3890457192956E-03 -0.3673508718352E-02  0.0000000000000E+00  0.8398379953454E-03
 0.4438070231109E-03 -0.3704786051229E-02  0.0000000000000E+00  0.9626878176501E-03
 0.4910335038872E-03 -0.3730147684053E-02  0.0000000000000E+00  0.1065895970463E-02
 0.5299873970320E-03 -0.3748923854435E-02  0.0000000000000E+00  0.1152668677128E-02
 0.5601626084987E-03 -0.3760591573806E-02  0.0000000000000E+00  0.1226187469261E-02
 0.5812992163612E-03 -0.3764776875107E-02  0.0000000000000E+00  0.1289482217651E-02
 0.5933821768815E-03 -0.3761244338287E-02  0.0000000000000E+00  0.1345352430262E-02
 0.5966310488178E-03 -0.3749880104190E-02  0.0000000000000E+00  0.1396327193629E-02
 0.5914878470107E-03 -0.3730674707069E-02  0.0000000000000E+00  0.1444652493073E-02
 0.5786091510308E-03 -0.3703711077734E-02  0.0000000000000E+00  0.1492295084773E-02
 0.5588668925152E-03 -0.3669161475579E-02  0.0000000000000E+00  0.1540953634102E-02
 0.5333602094591E-03 -0.3627295325532E-02  0.0000000000000E+00  0.1592069538196E-02
 0.5034401603122E-03 -0.3578500253875E-02  0.0000000000000E+00  0.1646829901979E-02
 0.4707450931996E-03 -0.3523313498193E-02  0.0000000000000E+00  0.1706160749988E-02
 0.4372465825603E-03 -0.3462465110222E-02  0.0000000000000E+00  0.1770705505940E-02
 0.4053031331814E-03 -0.3396931661859E-02  0.0000000000000E+00  0.1840785082975E-02
 0.3777156493931E-03 -0.3327994402823E-02  0.0000000000000E+00  0.1916343656136E-02
 0.3577810025247E-03 -0.3257301406493E-02  0.0000000000000E+00  0.1996876485569E-02
 0.3493347909947E-03 -0.3186921163615E-02  0.0000000000000E+00  0.2081348097537E-02
 0.3567730648712E-03 -0.3119364187805E-02  0.0000000000000E+00  0.2168116888654E-02
 0.3850476730766E-03 -0.3057617219947E-02  0.0000000000000E+00  0.2254823363506E-02
 0.4396160931856E-03 -0.3005186214490E-02  0.0000000000000E+00  0.2338256096924E-02
 0.5263219869141E-03 -0.2966074980835E-02  0.0000000000000E+00  0.2414238305530E-02
 0.6511931463230E-03 -0.2944679353951E-02  0.0000000000000E+00  0.2477566220154E-02
 0.8201461908753E-03 -0.2945594467389E-02  0.0000000000000E+00  0.2522023307860E-02
 0.1038589958624E-02 -0.2973333387148E-02  0.0000000000000E+00  0.2540491588419E-02
 0.1310925151070E-02 -0.3031956671666E-02  0.0000000000000E+00  0.2525178325596E-02
 0.1639952779417E-02 -0.3124620475047E-02  0.0000000000000E+00  0.2467966453060E-02
 0.2026255964239E-02 -0.3253091254609E-02  0.0000000000000E+00  0.2360877861050E-02
 0.2467656454473E-02 -0.3417287393106E-02  0.0000000000000E+00  0.2196614191652E-02
 0.2958766607549E-02 -0.3614868519076E-02  0.0000000000000E+00  0.1969059461874E-02
 0.3490716246974E-02 -0.3840970934854E-02  0.0000000000000E+00  0.1673634004904E-02
 0.4051237346069E-02 -0.4088234278839E-02  0.0000000000000E+00  0.1307453126595E-02
 0.4625154963505E-02 -0.4347154228198E-02  0.0000000000000E+00  0.8692647711147E-03
 0.5195279036918E-02 -0.4606761336414E-02  0.0000000000000E+00  0.3591994287774E-03
 0.5743505406615E-02 -0.4855502576037E-02  0.0000000000000E+00 -0.2215190834761E-03
 0.4094877115496E-04 -0.3618824620027E-02  0.0000000000000E+00 -0.1266102100594E-03
 0.1220572994496E-03 -0.3669337143370E-02  0.0000000000000E+00  0.1276974748137E-03
 0.2012310407268E-03 -0.3718303037873E-02  0.0000000000000E+00  0.3530479932124E-03
 0.2770856589557E-03 -0.3764644611926E-02  0.0000000000000E+00  0.5492920549653E-03
 0.3482547493301E-03 -0.3807288853329E-02  0.0000000000000E+00  0.7174856679442E-03
 0.4134392494754E-03 -0.3845203548944E-02  0.0000000000000E+00  0.8596550163949E-03
 0.4714697920178E-03 -0.3877442682238E-02  0.0000000000000E+00  0.9785176358629E-03
 0.5213668760759E-03 -0.3903188241928E-02  0.0000000000000E+00  0.1077205812899E-02
 0.5623858180049E-03 -0.3921778109121E-02  0.0000000000000E+00  0.1159021889436E-02
 0.5940410846336E-03 -0.3932716093229E-02  0.0000000000000E+00  0.1227244218464E-02
 0.6161110673063E-03 -0.3935665649040E-02  0.0000000000000E+00  0.1284989777912E-02
 0.6286284847827E-03 -0.3930432312910E-02  0.0000000000000E+00  0.1335129453970E-02
 0.6318638092187E-03 -0.3916941498585E-02  0.0000000000000E+00  0.1380246812063E-02
 0.6263089409668E-03 -0.3895218019409E-02  0.0000000000000E+00  0.1422628507223E-02
 0.6126670974938E-03 -0.3865372502378E-02  0.0000000000000E+00  0.1464274428726E-02
 0.5918530487104E-03 -0.3827598161973E-02  0.0000000000000E+00  0.1506917112025E-02
 0.5650057504636E-03 -0.3782179597117E-02  0.0000000000000E+00  0.1552041805974E-02
 0.5335149065767E-03 -0.3729515757909E-02  0.0000000000000E+00  0.1600899058298E-02
 0.4990588792578E-03 -0.3670153811987E-02  0.0000000000000E+00  0.1654506947264E-02
 0.4636537243128E-03 -0.3604835370729E-02  0.0000000000000E+00  0.1713637793740E-02
 0.4297103182976E-03 -0.3534553653190E-02  0.0000000000000E+00  0.1778785197031E-02
 0.4000932926095E-03 -0.3460615164179E-02  0.0000000000000E+00  0.1850114441959E-02
 0.3781779885440E-03 -0.3384705533892E-02  0.0000000000000E+00  0.1927392175653E-02
 0.3678963587617E-03 -0.3308947612922E-02  0.0000000000000E+00  0.2009902021675E-02
 0.3737617040084E-03 -0.3235930914668E-02  0.0000000000000E+00  0.2096359605366E-02
 0.4008655941294E-03 -0.3168748420889E-02  0.0000000000000E+00  0.2184786016787E-02
 0.4548269762584E-03 -0.3111034166635E-02  0.0000000000000E+00  0.2272354807341E-02
 0.5416698610412E-03 -0.3066937502126E-02  0.0000000000000E+00  0.2355249051339E-02
 0.6676148415725E-03 -0.3041013320837E-02  0.0000000000000E+00  0.2428556580282E-02
 0.8387724330424E-03 -0.3038022722806E-02  0.0000000000000E+00  0.2486227649409E-02
 0.1060729716299E-02 -0.3062640302533E-02  0.0000000000000E+00  0.2521119420446E-02
 0.1338028785117E-02 -0.3119067398541E-02  0.0000000000000E+00  0.2525152360448E-02
 0.1673552398711E-02 -0.3210561028484E-02  0.0000000000000E+00  0.2489598339796E-02
 0.2067884230633E-02 -0.3338927185533E-02  0.0000000000000E+00  0.2405504986362E-02
 0.2518751591408E-02 -0.3504046841506E-02  0.0000000000000E+00  0.2264238908276E-02
 0.3020581681566E-02 -0.3703468844320E-02  0.0000000000000E+00  0.2058054053443E-02
 0.3564250360245E-02 -0.3932163140304E-02  0.0000000000000E+00  0.1780589055412E-02
 0.4137200538638E-02 -0.4182572559122E-02  0.0000000000000E+00  0.1427239212128E-02
 0.4723972676476E-02 -0.4444996236635E-02  0.0000000000000E+00  0.9953472670352E-03
 0.5307135324345E-02 -0.4708299945607E-02  0.0000000000000E+00  0.4842011674339E-03
 0.5868422936544E-02 -0.4960831515171E-02  0.0000000000000E+00 -0.1050471156444E-03
 0.4326814321517E-04 -0.3779121443417E-02  0.0000000000000E+00 -0.9513023929249E-04
 0.1291573322898E-03 -0.3832501527223E-02  0.0000000000000E+00  0.1584841349384E-03
 0.2132021802577E-03 -0.3884238710505E-02  0.0000000000000E+00  0.3823433222178E-03
 0.2937921019087E-03 -0.3933086547721E-02  0.0000000000000E+00  0.5762990524708E-03
 0.3693691719607E-03 -0.3977833464335E-02  0.0000000000000E+00  0.7414305230112E-03
 0.4384894443933E-03 -0.4017347855173E-02  0.0000000000000E+00  0.8798183857487E-03
 0.4998892863388E-03 -0.4050625677735E-02  0.0000000000000E+00  0.9942645845134E-03
 0.5525425642283E-03 -0.4076828593798E-02  0.0000000000000E+00  0.1088006297094E-02
 0.5956977244448E-03 -0.4095304239154E-02  0.0000000000000E+00  0.1164457844123E-02
 0.6288918688770E-03 -0.4105586896939E-02  0.0000000000000E+00  0.1227003574351E-02
 0.6519450552099E-03 -0.4107381970612E-02  0.0000000000000E+00  0.1278850836538E-02
 0.6649414981594E-03 -0.4100540534129E-02  0.0000000000000E+00  0.1322940566768E-02
 0.6682058654167E-03 -0.4085031207086E-02  0.0000000000000E+00  0.1361906369582E-02
 0.6622821262380E-03 -0.4060915841340E-02  0.0000000000000E+00  0.1398069414931E-02
 0.6479207870435E-03 -0.4028334003636E-02  0.0000000000000E+00  0.1433456045856E-02
 0.6260783304903E-03 -0.3987499393468E-02  0.0000000000000E+00  0.1469826415870E-02
 0.5979305283250E-03 -0.3938709495924E-02  0.0000000000000E+00  0.1508704534107E-02
 0.5649008534925E-03 -0.3882370419669E-02  0.0000000000000E+00  0.1551401025231E-02
 0.5287010133875E-03 -0.3819033190751E-02  0.0000000000000E+00  0.1599024807580E-02
 0.4913832392455E-03 -0.3749442991450E-02  0.0000000000000E+00  0.1652478374712E-02
 0.4554010829388E-03 -0.3674599806008E-02  0.0000000000000E+00  0.1712432050195E-02
 0.4236721897725E-03 -0.3595823727516E-02  0.0000000000000E+00  0.1779279229358E-02
 0.3996391895806E-03 -0.3514824724940E-02  0.0000000000000E+00  0.1853068041653E-02
 0.3873195345787E-03 -0.3433765715604E-02  0.0000000000000E+00  0.1933414321307E-02
 0.3913343488789E-03 -0.3355300788977E-02  0.0000000000000E+00  0.2019406365496E-02
 0.4169082139753E-03 -0.3282615718372E-02  0.0000000000000E+00  0.2109462970453E-02
 0.4698191038212E-03 -0.3219461233462E-02  0.0000000000000E+00  0.2201161136551E-02
 0.5562752604655E-03 -0.3170124458419E-02  0.0000000000000E+00  0.2291062480446E-02
 0.6827027706288E-03 -0.3139317340266E-02  0.0000000000000E+00  0.2374562918013E-02
 0.8554300941871E-03 -0.3131973206643E-02  0.0000000000000E+00  0.2445790182453E-02
 0.1080259941752E-02 -0.3152945062373E-02  0.0000000000000E+00  0.2497577244816E-02
 0.1361927062322E-02 -0.3206603950829E-02  0.0000000000000E+00  0.2521544581969E-02
 0.1703459133962E-02 -0.3296348227817E-02  0.0000000000000E+00  0.2508323896956E-02
 0.2105510214577E-02 -0.3424072058509E-02  0.0000000000000E+00  0.2447944861050E-02
 0.2565780497669E-02 -0.3589669028341E-02  0.0000000000000E+00  0.2330385935715E-02
 0.3078563594685E-02 -0.3790618706101E-02  0.0000000000000E+00  0.2146216716345E-02
 0.3634502407539E-02 -0.4021746113051E-02  0.0000000000000E+00  0.1887248469627E-02
 0.4220729237718E-02 -0.4275288805400E-02  0.0000000000000E+00  0.1547127853498E-02
 0.4821430611519E-02 -0.4541306589797E-02  0.0000000000000E+00  0.1121785848923E-02
 0.5418819930696E-02 -0.4808425756296E-02  0.0000000000000E+00  0.6096850080546E-03
 0.5994322990831E-02 -0.5064796259721E-02  0.0000000000000E+00  0.1194256814774E-04
 0.4565718056727E-04 -0.3939512355765E-02  0.0000000000000E+00 -0.6193910996702E-04
 0.1364668842775E-03 -0.3995848252341E-02  0.0000000000000E+00  0.1909154964273E-03
 0.2255229395315E-03 -0.4050446086445E-02  0.0000000000000E+00  0.4130985563151E-03
 0.3109855219133E-03 -0.4101889081542E-02  0.0000000000000E+00  0.6044793072914E-03
 0.3911001835944E-03 -0.4148824373383E-02  0.0000000000000E+00  0.7661853369039E-03
 0.4642729877375E-03 -0.4190018558882E-02  0.0000000000000E+00  0.9003809305536E-03
 0.5291424272426E-03 -0.4224408673877E-02  0.0000000000000E+00  0.1009980769247E-02
 0.5846345286332E-03 -0.4251137257534E-02  0.0000000000000E+00  0.1098350687466E-02
 0.6299921634444E-03 -0.4269564933697E-02  0.0000000000000E+00  0.1169034079877E-02
 0.6647783253353E-03 -0.4279261146200E-02  0.0000000000000E+00  0.1225531198865E-02
 0.6888590637653E-03 -0.4279978564217E-02  0.0000000000000E+00  0.1271143164579E-02
 0.7023745219115E-03 -0.4271618913474E-02  0.0000000000000E+00  0.1308879226525E-02
 0.7057072692677E-03 -0.4254198243244E-02  0.0000000000000E+00  0.1341417763463E-02
 0.6994557102448E-03 -0.4227818293539E-02  0.0000000000000E+00  0.1371107203468E-02
 0.6844182796562E-03 -0.4192648751687E-02  0.0000000000000E+00  0.1399992396650E-02
 0.6615918865830E-03 -0.4148923157897E-02  0.0000000000000E+00  0.1429853497885E-02
 0.6321858431739E-03 -0.4096949339419E-02  0.0000000000000E+00  0.1462246751489E-02
 0.5976521543764E-03 -0.4037136076652E-02  0.0000000000000E+00  0.1498537992750E-02
 0.5597287714477E-03 -0.3970031801402E-02  0.0000000000000E+00  0.1539924193566E-02
 0.5204952995574E-03 -0.3896376835525E-02  0.0000000000000E+00  0.1587437653032E-02
 0.4824377148206E-03 -0.3817167535141E-02  0.0000000000000E+00  0.1641927771302E-02
 0.4485153528644E-03 -0.3733725326324E-02  0.0000000000000E+00  0.1704021391644E-02
 0.4222262914470E-03 -0.3647770627543E-02  0.0000000000000E+00  0.1774056698323E-02
 0.4076619391566E-03 -0.3561491382828E-02  0.0000000000000E+00  0.1851993654165E-02
 0.4095411415833E-03 -0.3477591048721E-02  0.0000000000000E+00  0.1937308065534E-02
 0.4332141864490E-03 -0.3399333972045E-02  0.0000000000000E+00  0.2028833829771E-02
 0.4846152121544E-03 -0.3330575513085E-02  0.0000000000000E+00  0.2124571351430E-02
 0.5701404869023E-03 -0.3275732346124E-02  0.0000000000000E+00  0.2221482565025E-02
 0.6964347289237E-03 -0.3239671418313E-02  0.0000000000000E+00  0.2315293036814E-02
 0.8700695675366E-03 -0.3227505111486E-02  0.0000000000000E+00  0.2400325931572E-02
 0.1097102746662E-02 -0.3244283050214E-02  0.0000000000000E+00  0.2469399903377E-02
 0.1382515712309E-02 -0.3294576990591E-02  0.0000000000000E+00  0.2513832480788E-02
 0.1729547425224E-02 -0.3381969693445E-02  0.0000000000000E+00  0.2523595606295E-02
 0.2138995162136E-02 -0.3508494739476E-02  0.0000000000000E+00  0.2487663600678E-02
 0.2608601396206E-02 -0.3674110341211E-02  0.0000000000000E+00  0.2394573954092E-02
 0.3132578215132E-02 -0.3876269096548E-02  0.0000000000000E+00  0.2233149543150E-02
 0.3701355213688E-02 -0.4109671895562E-02  0.0000000000000E+00  0.1993311605536E-02
 0.4301729494487E-02 -0.4366340553747E-02  0.0000000000000E+00  0.1666905950254E-02
 0.4917460005274E-02 -0.4636049609898E-02  0.0000000000000E+00  0.1248419701610E-02
 0.5530286355494E-02 -0.4907107271822E-02  0.0000000000000E+00  0.7354845599469E-03
 0.6121174611335E-02 -0.5167363467178E-02  0.0000000000000E+00  0.1292043597619E-03
 0.4812608461459E-04 -0.4100042162085E-02  0.0000000000000E+00 -0.2697963843099E-04
 0.1440161760249E-03 -0.4159434048607E-02  0.0000000000000E+00  0.2250495000528E-03
 0.2382416661049E-03 -0.4216991894382E-02  0.0000000000000E+00  0.4453717710250E-03
 0.3287286390667E-03 -0.4271125713565E-02  0.0000000000000E+00  0.6338894439052E-03
 0.4135199980580E-03 -0.4320337963039E-02  0.0000000000000E+00  0.7918038034956E-03
 0.4908664765659E-03 -0.4363291112778E-02  0.0000000000000E+00  0.9213929766126E-03
 0.5593056507433E-03 -0.4398863086972E-02  0.0000000000000E+00  0.1025714278325E-02
 0.6177156040302E-03 -0.4426179600593E-02  0.0000000000000E+00  0.1108287557365E-02
 0.6653362598085E-03 -0.4444618711346E-02  0.0000000000000E+00  0.1172803581042E-02
 0.7017610522693E-03 -0.4453790821343E-02  0.0000000000000E+00  0.1222889003075E-02
 0.7269074245601E-03 -0.4453502057988E-02  0.0000000000000E+00  0.1261942059696E-02
 0.7409766615646E-03 -0.4443710506149E-02  0.0000000000000E+00  0.1293037976969E-02
 0.7444134201396E-03 -0.4424484195279E-02  0.0000000000000E+00  0.1318893655285E-02
 0.7378731224523E-03 -0.4395967712829E-02  0.0000000000000E+00  0.1341876299503E-02
 0.7222027801593E-03 -0.4358361998445E-02  0.0000000000000E+00  0.1364039967447E-02
 0.6984382981307E-03 -0.4311919631877E-02  0.0000000000000E+00  0.1387175776078E-02
 0.6678189984813E-03 -0.4256956009941E-02  0.0000000000000E+00  0.1412864203823E-02
 0.6318198438047E-03 -0.4193877817224E-02  0.0000000000000E+00  0.1442519892143E-02
 0.5921975236410E-03 -0.4123224111313E-02  0.0000000000000E+00  0.1477423465551E-02
 0.5510497491419E-03 -0.4045721542796E-02  0.0000000000000E+00  0.1518734967262E-02
 0.5108841384648E-03 -0.3962352001030E-02  0.0000000000000E+00  0.1567483475210E-02
 0.4746897919490E-03 -0.3874425460666E-02  0.0000000000000E+00  0.1624532874425E-02
 0.4460077160325E-03 -0.3783658268608E-02  0.0000000000000E+00  0.1690518361098E-02
 0.4289909809640E-03 -0.3692247610906E-02  0.0000000000000E+00  0.1765754653802E-02
 0.4284452547985E-03 -0.3602930263325E-02  0.0000000000000E+00  0.1850119220292E-02
 0.4498384321567E-03 -0.3519034030896E-02  0.0000000000000E+00  0.1942878692533E-02
 0.4992572458529E-03 -0.3444505938478E-02  0.0000000000000E+00  0.2042478363661E-02
 0.5832893126785E-03 -0.3383883193523E-02  0.0000000000000E+00  0.2146305527474E-02
 0.7088111007799E-03 -0.3342185192976E-02  0.0000000000000E+00  0.2250442393267E-02
 0.8826633192801E-03 -0.3324710236660E-02  0.0000000000000E+00  0.2349433298285E-02
 0.1111199754887E-02 -0.3336723577444E-02  0.0000000000000E+00  0.2436102312637E-02
 0.1399705194295E-02 -0.3383030377318E-02  0.0000000000000E+00  0.2501471948671E-02
 0.1751699672298E-02 -0.3467443359258E-02  0.0000000000000E+00  0.2534844768571E-02
 0.2168200308912E-02 -0.3592189710244E-02  0.0000000000000E+00  0.2524108720126E-02
 0.2647064684178E-02 -0.3757347102683E-02  0.0000000000000E+00  0.2456307354073E-02
 0.3182477644376E-02 -0.3960385468628E-02  0.0000000000000E+00  0.2318445494177E-02
 0.3764675406263E-02 -0.4195902925074E-02  0.0000000000000E+00  0.2098473543503E-02
 0.4380093267577E-02 -0.4455693856587E-02  0.0000000000000E+00  0.1786359456855E-02
 0.5011984755322E-02 -0.4729198575720E-02  0.0000000000000E+00  0.1375087735571E-02
 0.5641491420395E-02 -0.5004324286648E-02  0.0000000000000E+00  0.8614305121254E-03
 0.6248963077118E-02 -0.5268514348309E-02  0.0000000000000E+00  0.2464844262130E-03
 0.5068500274548E-04 -0.4260755636651E-02  0.0000000000000E+00  0.9812925884294E-05
 0.1518354051972E-03 -0.4323315541992E-02  0.0000000000000E+00  0.2609507400585E-03
 0.2514069067362E-03 -0.4383942704219E-02  0.0000000000000E+00  0.4792257381104E-03
 0.3470845980202E-03 -0.4440869622025E-02  0.0000000000000E+00  0.6645881519793E-03
 0.4367013028557E-03 -0.4492449911837E-02  0.0000000000000E+00  0.8183389036374E-03
 0.5183467412527E-03 -0.4537239611653E-02  0.0000000000000E+00  0.9429017283243E-03
 0.5904550755372E-03 -0.4574058070390E-02  0.0000000000000E+00  0.1041508412747E-02
 0.6518575090032E-03 -0.4602017651998E-02  0.0000000000000E+00  0.1117859937661E-02
 0.7017950869946E-03 -0.4620519616295E-02  0.0000000000000E+00  0.1175813922243E-02
 0.7398976487955E-03 -0.4629222339291E-02  0.0000000000000E+00  0.1219134355437E-02
 0.7661406168209E-03 -0.4627992558191E-02  0.0000000000000E+00  0.1251319665665E-02
 0.7807924888719E-03 -0.4616851070162E-02  0.0000000000000E+00  0.1275507905631E-02
 0.7843647212562E-03 -0.4595922788271E-02  0.0000000000000E+00  0.1294447080303E-02
 0.7775725781986E-03 -0.4565398227164E-02  0.0000000000000E+00  0.1310513337666E-02
 0.7613123198836E-03 -0.4525510669026E-02  0.0000000000000E+00  0.1325759209147E-02
 0.7366572846318E-03 -0.4476530789426E-02  0.0000000000000E+00  0.1341976263539E-02
 0.7048730364136E-03 -0.4418778580982E-02  0.0000000000000E+00  0.1360759706946E-02
 0.6674516082770E-03 -0.4352653627113E-02  0.0000000000000E+00  0.1383565020455E-02
 0.6261605487791E-03 -0.4278678561405E-02  0.0000000000000E+00  0.1411750436335E-02
 0.5831059733279E-03 -0.4197557240994E-02  0.0000000000000E+00  0.1446599942945E-02
 0.5408058566665E-03 -0.4110245876591E-02  0.0000000000000E+00  0.1489321082814E-02
 0.5022665492977E-03 -0.4018029743948E-02  0.0000000000000E+00  0.1541016545701E-02
 0.4710587731593E-03 -0.3922606011514E-02  0.0000000000000E+00  0.1602623769291E-02
 0.4513841529403E-03 -0.3826164585334E-02  0.0000000000000E+00  0.1674821432460E-02
 0.4481233583045E-03 -0.3731458621649E-02  0.0000000000000E+00  0.1757901995579E-02
 0.4668527907017E-03 -0.3641863237943E-02  0.0000000000000E+00  0.1851582583915E-02
 0.5138071930215E-03 -0.3561403017792E-02  0.0000000000000E+00  0.1954776341045E-02
 0.5957679666295E-03 -0.3494725530490E-02  0.0000000000000E+00  0.2065324291724E-02
 0.7198559250641E-03 -0.3446999090961E-02  0.0000000000000E+00  0.2179697947502E-02
 0.8932069221256E-03 -0.3423714247670E-02  0.0000000000000E+00  0.2292696804185E-02
 0.1122512961637E-02 -0.3430371123766E-02  0.0000000000000E+00  0.2397180610211E-02
 0.1413421235922E-02 -0.3472042250618E-02  0.0000000000000E+00  0.2483896481797E-02
 0.1769806343758E-02 -0.3552818275460E-02  0.0000000000000E+00  0.2541478706486E-02
 0.2192986527700E-02 -0.3675177523385E-02  0.0000000000000E+00  0.2556704682002E-02
 0.2681012190304E-02 -0.3839375687560E-02  0.0000000000000E+00  0.2515070883545E-02
 0.3228099254089E-02 -0.4042947605640E-02  0.0000000000000E+00  0.2401683130675E-02
 0.3824312474396E-02 -0.4280411811008E-02  0.0000000000000E+00  0.2202420807031E-02
 0.4455697781865E-02 -0.4543323175364E-02  0.0000000000000E+00  0.1905270603675E-02
 0.5104921330380E-02 -0.4820735952288E-02  0.0000000000000E+00  0.1501627356393E-02
 0.5752395815278E-02 -0.5100068577694E-02  0.0000000000000E+00  0.9873506303185E-03
 0.6377690922868E-02 -0.5368245736902E-02  0.0000000000000E+00  0.3635210581537E-03
 0.5334412857735E-04 -0.4421697751205E-02  0.0000000000000E+00  0.4851086186733E-04
 0.1599550392665E-03 -0.4487549589570E-02  0.0000000000000E+00  0.2986904230554E-03
 0.2650678491037E-03 -0.4551365322583E-02  0.0000000000000E+00  0.5147277943847E-03
 0.3661174733002E-03 -0.4611194046136E-02  0.0000000000000E+00  0.6966358805797E-03
 0.4607177295627E-03 -0.4665235488515E-02  0.0000000000000E+00  0.8458423791470E-03
 0.5467911987344E-03 -0.4711936942133E-02  0.0000000000000E+00  0.9649505329737E-03
 0.6226666919039E-03 -0.4750060497083E-02  0.0000000000000E+00  0.1057400801016E-02
 0.6871308619543E-03 -0.4778709927679E-02  0.0000000000000E+00  0.1127104368780E-02
 0.7394315318277E-03 -0.4797316919339E-02  0.0000000000000E+00  0.1178106344680E-02
 0.7792424664998E-03 -0.4805596172440E-02  0.0000000000000E+00  0.1214319250504E-02
 0.8066049474692E-03 -0.4803483225868E-02  0.0000000000000E+00  0.1239344275494E-02
 0.8218616862275E-03 -0.4791068631197E-02  0.0000000000000E+00  0.1256378100225E-02
 0.8255962146100E-03 -0.4768539455887E-02  0.0000000000000E+00  0.1268191061896E-02
 0.8185867202463E-03 -0.4736135342169E-02  0.0000000000000E+00  0.1277156934454E-02
 0.8017794131282E-03 -0.4694122963461E-02  0.0000000000000E+00  0.1285314477770E-02
 0.7762833788060E-03 -0.4642790015260E-02  0.0000000000000E+00  0.1294443694852E-02
 0.7433864328594E-03 -0.4582457937830E-02  0.0000000000000E+00  0.1306143493414E-02
 0.7045915040283E-03 -0.4513514015307E-02  0.0000000000000E+00  0.1321900656964E-02
 0.6616687803942E-03 -0.4436457199386E-02  0.0000000000000E+00  0.1343143320713E-02
 0.6167226832938E-03 -0.4351959194297E-02  0.0000000000000E+00  0.1371273847774E-02
 0.5722697890198E-03 -0.4260939026460E-02  0.0000000000000E+00  0.1407675157657E-02
 0.5313206146701E-03 -0.4164643636946E-02  0.0000000000000E+00  0.1453688583662E-02
 0.4974616824594E-03 -0.4064735378649E-02  0.0000000000000E+00  0.1510557175540E-02
 0.4749291970112E-03 -0.3963379635007E-02  0.0000000000000E+00  0.1579331185290E-02
 0.4686659650821E-03 -0.3863328068278E-02  0.0000000000000E+00  0.1660730381075E-02
 0.4843465837632E-03 -0.3767985800973E-02  0.0000000000000E+00  0.1754940068570E-02
 0.5283478870080E-03 -0.3681439484915E-02  0.0000000000000E+00  0.1861365522755E-02
 0.6076461689670E-03 -0.3608435344397E-02  0.0000000000000E+00  0.1978333144123E-02
 0.7296181161044E-03 -0.3554285579441E-02  0.0000000000000E+00  0.2102742197111E-02
 0.9017203631531E-03 -0.3524678165910E-02  0.0000000000000E+00  0.2229689953329E-02
 0.1131025977510E-02 -0.3525366953181E-02  0.0000000000000E+00  0.2352113321117E-02
 0.1423605829223E-02 -0.3561726616786E-02  0.0000000000000E+00  0.2460516285634E-02
 0.1783766545907E-02 -0.3638175994689E-02  0.0000000000000E+00  0.2542877760786E-02
 0.2213214350737E-02 -0.3757505845715E-02  0.0000000000000E+00  0.2584848172389E-02
 0.2710276643866E-02 -0.3920213157581E-02  0.0000000000000E+00  0.2570324022943E-02
 0.3269264741145E-02 -0.4123949890626E-02  0.0000000000000E+00  0.2482421153822E-02
 0.3880097686816E-02 -0.4363181397188E-02  0.0000000000000E+00  0.2304827036992E-02
 0.4528404666224E-02 -0.4629211474742E-02  0.0000000000000E+00  0.2023415266968E-02
 0.5196178455192E-02 -0.4910653759548E-02  0.0000000000000E+00  0.1627873565516E-02
 0.5862964499095E-02 -0.5194344682743E-02  0.0000000000000E+00  0.1113070135155E-02
 0.6507379010245E-02 -0.5466571254068E-02  0.0000000000000E+00  0.4800453345196E-03
 0.5611380797441E-04 -0.4582913942167E-02  0.0000000000000E+00  0.8919401164230E-04
 0.1684061282554E-03 -0.4652193659137E-02  0.0000000000000E+00  0.3383463769708E-03
 0.2792747987632E-03 -0.4719327236647E-02  0.0000000000000E+00  0.5519497119229E-03
 0.3858928191421E-03 -0.4782172714500E-02  0.0000000000000E+00  0.7300944750337E-03
 0.4856443675629E-03 -0.4838769880533E-02  0.0000000000000E+00  0.8743640998075E-03
 0.5762782377659E-03 -0.4887454948859E-02  0.0000000000000E+00  0.9875780116631E-03
 0.6560165651933E-03 -0.4926934938509E-02  0.0000000000000E+00  0.1073422381333E-02
 0.7236051935300E-03 -0.4956311234735E-02  0.0000000000000E+00  0.1136049842544E-02
 0.7783061410892E-03 -0.4975054786019E-02  0.0000000000000E+00  0.1179714755677E-02
 0.8198463338324E-03 -0.4982946429322E-02  0.0000000000000E+00  0.1208489434904E-02
 0.8483422000104E-03 -0.4979999815032E-02  0.0000000000000E+00  0.1226079619075E-02
 0.8642186593251E-03 -0.4966383011453E-02  0.0000000000000E+00  0.1235735106864E-02
 0.8681371846069E-03 -0.4942350878489E-02  0.0000000000000E+00  0.1240238235370E-02
 0.8609422285622E-03 -0.4908195494262E-02  0.0000000000000E+00  0.1241947471519E-02
 0.8436306788660E-03 -0.4864217921467E-02  0.0000000000000E+00  0.1242873979958E-02
 0.8173455603856E-03 -0.4810721673034E-02  0.0000000000000E+00  0.1244772651551E-02
 0.7833927414597E-03 -0.4748026340216E-02  0.0000000000000E+00  0.1249233553222E-02
 0.7432796104820E-03 -0.4676501564222E-02  0.0000000000000E+00  0.1257763671828E-02
 0.6987704722232E-03 -0.4596615215216E-02  0.0000000000000E+00  0.1271851679714E-02
 0.6519576015934E-03 -0.4508997328568E-02  0.0000000000000E+00  0.1293010949975E-02
 0.6053439927214E-03 -0.4414518035131E-02  0.0000000000000E+00  0.1322794761637E-02
 0.5619307056041E-03 -0.4314372002755E-02  0.0000000000000E+00  0.1362780908390E-02
 0.5253054477232E-03 -0.4210170669881E-02  0.0000000000000E+00  0.1414519414090E-02
 0.4997241176480E-03 -0.4104036964967E-02  0.0000000000000E+00  0.1479437918725E-02
 0.4901776376638E-03 -0.3998702214607E-02  0.0000000000000E+00  0.1558694541255E-02
 0.5024270703986E-03 -0.3897582955347E-02  0.0000000000000E+00  0.1652960098302E-02
 0.5429837586412E-03 -0.3804810787984E-02  0.0000000000000E+00  0.1762157322419E-02
 0.6190182040794E-03 -0.3725216954494E-02  0.0000000000000E+00  0.1885132716024E-02
 0.7381728361054E-03 -0.3664250452915E-02  0.0000000000000E+00  0.2019257532497E-02
 0.9082496306438E-03 -0.3627800039272E-02  0.0000000000000E+00  0.2159978367028E-02
 0.1136745669328E-02 -0.3621891067498E-02  0.0000000000000E+00  0.2300362691511E-02
 0.1430218698420E-02 -0.3652235410496E-02  0.0000000000000E+00  0.2430717393727E-02
 0.1793489061395E-02 -0.3723632516684E-02  0.0000000000000E+00  0.2538392124809E-02
 0.2228744361974E-02 -0.3839251062185E-02  0.0000000000000E+00  0.2607903061412E-02
 0.2734681328094E-02 -0.3999898374429E-02  0.0000000000000E+00  0.2621494963229E-02
 0.3305779145618E-02 -0.4203401919521E-02  0.0000000000000E+00  0.2560192571987E-02
 0.3931842786665E-02 -0.4444205032125E-02  0.0000000000000E+00  0.2405348429166E-02
 0.4598058767911E-02 -0.4713350424028E-02  0.0000000000000E+00  0.2140560300402E-02
 0.5285656467177E-02 -0.4998953981010E-02  0.0000000000000E+00  0.1753658195852E-02
 0.5973166861958E-02 -0.5287170681260E-02  0.0000000000000E+00  0.1238412286919E-02
 0.6638067566343E-02 -0.5563522480936E-02  0.0000000000000E+00  0.5957819507388E-03
 0.5900465369539E-04 -0.4744450423084E-02  0.0000000000000E+00  0.1319498921371E-03
 0.1772206452361E-03 -0.4817306262282E-02  0.0000000000000E+00  0.3800031123443E-03
 0.2940797022378E-03 -0.4887897115672E-02  0.0000000000000E+00  0.5909675671759E-03
 0.4064782743315E-03 -0.4953880326171E-02  0.0000000000000E+00  0.7650267470028E-03
 0.5115583279369E-03 -0.5013128559529E-02  0.0000000000000E+00  0.9039513079631E-03
 0.6068876376947E-03 -0.5063864614719E-02  0.0000000000000E+00  0.1010817038989E-02
 0.6905810505476E-03 -0.5104743633680E-02  0.0000000000000E+00  0.1089596235095E-02
 0.7613489491488E-03 -0.5134872446653E-02  0.0000000000000E+00  0.1144716622563E-02
 0.8184769428628E-03 -0.5153771904500E-02  0.0000000000000E+00  0.1180664646179E-02
 0.8617562471833E-03 -0.5161300391756E-02  0.0000000000000E+00  0.1201683490333E-02
 0.8913892481356E-03 -0.5157560169854E-02  0.0000000000000E+00  0.1211584138092E-02
 0.9078921160896E-03 -0.5142805322481E-02  0.0000000000000E+00  0.1213662393454E-02
 0.9120107302604E-03 -0.5117364489666E-02  0.0000000000000E+00  0.1210700483050E-02
 0.9046593993259E-03 -0.5081585573648E-02  0.0000000000000E+00  0.1205026887394E-02
 0.8868864292334E-03 -0.5035804954053E-02  0.0000000000000E+00  0.1198609718748E-02
 0.8598668503554E-03 -0.4980340632203E-02  0.0000000000000E+00  0.1193163677790E-02
 0.8249201877026E-03 -0.4915506929992E-02  0.0000000000000E+00  0.1190255955617E-02
 0.7835516195873E-03 -0.4841650406207E-02  0.0000000000000E+00  0.1191401109819E-02
 0.7375107821753E-03 -0.4759200379571E-02  0.0000000000000E+00  0.1198137338818E-02
 0.6888670464412E-03 -0.4668735632315E-02  0.0000000000000E+00  0.1212079856131E-02
 0.6400972614491E-03 -0.4571065580855E-02  0.0000000000000E+00  0.1234945304196E-02
 0.5941789062454E-03 -0.4467318476801E-02  0.0000000000000E+00  0.1268543631899E-02
 0.5546855746235E-03 -0.4359038367786E-02  0.0000000000000E+00  0.1314731025514E-02
 0.5258770326383E-03 -0.4248287154763E-02  0.0000000000000E+00  0.1375316288300E-02
 0.5127770405683E-03 -0.4137756008116E-02  0.0000000000000E+00  0.1451905343430E-02
 0.5212197793054E-03 -0.4030852899346E-02  0.0000000000000E+00  0.1545671115533E-02
 0.5578415249372E-03 -0.3931735395344E-02  0.0000000000000E+00  0.1657079767821E-02
 0.6300040218887E-03 -0.3845303786585E-02  0.0000000000000E+00  0.1785535370903E-02
 0.7456230185768E-03 -0.3777134143769E-02  0.0000000000000E+00  0.1928931030835E-02
 0.9128685922934E-03 -0.3733316793946E-02  0.0000000000000E+00  0.2083123334168E-02
 0.1139704225214E-02 -0.3720164513199E-02  0.0000000000000E+00  0.2241376339166E-02
 0.1433239280349E-02 -0.3743761063929E-02  0.0000000000000E+00  0.2393860925872E-02
 0.1798893904879E-02 -0.3809340836409E-02  0.0000000000000E+00  0.2527338586270E-02
 0.2239438001932E-02 -0.3920520488950E-02  0.0000000000000E+00  0.2625195038942E-02
 0.2754039942820E-02 -0.4078493631898E-02  0.0000000000000E+00  0.2667974102645E-02
 0.3337429830624E-02 -0.4281329480874E-02  0.0000000000000E+00  0.2634498371587E-02
 0.3979338438251E-02 -0.4523487049919E-02  0.0000000000000E+00  0.2503618812310E-02
 0.4664486610098E-02 -0.4795740696478E-02  0.0000000000000E+00  0.2256460726511E-02
 0.5373246320884E-02 -0.5085649005946E-02  0.0000000000000E+00  0.1878809195262E-02
 0.6082976642293E-02 -0.5378578979937E-02  0.0000000000000E+00  0.1363199108342E-02
 0.6769817198796E-02 -0.5659150156278E-02  0.0000000000000E+00  0.7104501890530E-03
 0.6202767159996E-04 -0.4906354550075E-02  0.0000000000000E+00  0.1768738892577E-03
 0.1864318632288E-03 -0.4982947452713E-02  0.0000000000000E+00  0.4237519399520E-03
 0.3095367286861E-03 -0.5057145383759E-02  0.0000000000000E+00  0.6318616062464E-03
 0.4279442342610E-03 -0.5126393096224E-02  0.0000000000000E+00  0.8014959661722E-03
 0.5385393656747E-03 -0.5188387691332E-02  0.0000000000000E+00  0.9346477222062E-03
 0.6387010230516E-03 -0.5241236257893E-02  0.0000000000000E+00  0.1034693550984E-02
 0.7264370159195E-03 -0.5283546447796E-02  0.0000000000000E+00  0.1105936254494E-02
 0.8004294757430E-03 -0.5314440248329E-02  0.0000000000000E+00  0.1153114932615E-02
 0.8599992364894E-03 -0.5333501074024E-02  0.0000000000000E+00  0.1180971922731E-02
 0.9050150243024E-03 -0.5340678013121E-02  0.0000000000000E+00  0.1193931875435E-02
 0.9357776325515E-03 -0.5336173689912E-02  0.0000000000000E+00  0.1195910252550E-02
 0.9529046133602E-03 -0.5320337435294E-02  0.0000000000000E+00  0.1190239822163E-02
 0.9572333098724E-03 -0.5293577967851E-02  0.0000000000000E+00  0.1179688581739E-02
 0.9497516987938E-03 -0.5256302436269E-02  0.0000000000000E+00  0.1166538474331E-02
 0.9315602313436E-03 -0.5208883362615E-02  0.0000000000000E+00  0.1152697431000E-02
 0.9038638724360E-03 -0.5151651774996E-02  0.0000000000000E+00  0.1139823371946E-02
 0.8679912195961E-03 -0.5084913205679E-02  0.0000000000000E+00  0.1129445131995E-02
 0.8254383668444E-03 -0.5008985648087E-02  0.0000000000000E+00  0.1123070723493E-02
 0.7779312794695E-03 -0.4924252406393E-02  0.0000000000000E+00  0.1122275249091E-02
 0.7275054178598E-03 -0.4831231453410E-02  0.0000000000000E+00  0.1128764792528E-02
 0.6765986032458E-03 -0.4730659673581E-02  0.0000000000000E+00  0.1144410345130E-02
 0.6281501627689E-03 -0.4623584667546E-02  0.0000000000000E+00  0.1171247484571E-02
 0.5857036262261E-03 -0.4511466341654E-02  0.0000000000000E+00  0.1211435396874E-02
 0.5535058512424E-03 -0.4396286429853E-02  0.0000000000000E+00  0.1267165510641E-02
 0.5365968246632E-03 -0.4280675162004E-02  0.0000000000000E+00  0.1340499040149E-02
 0.5408687003820E-03 -0.4168010499190E-02  0.0000000000000E+00  0.1433126410770E-02
 0.5730707953473E-03 -0.4062454912558E-02  0.0000000000000E+00  0.1546083305560E-02
 0.6407503515617E-03 -0.3968959041450E-02  0.0000000000000E+00  0.1679371062073E-02
 0.7521010348641E-03 -0.3893213055274E-02  0.0000000000000E+00  0.1831459794968E-02
 0.9156811714859E-03 -0.3841506278358E-02  0.0000000000000E+00  0.1998685916671E-02
 0.1139961670190E-02 -0.3820452071585E-02  0.0000000000000E+00  0.2174589373833E-02
 0.1432669264261E-02 -0.3836539635940E-02  0.0000000000000E+00  0.2349282620198E-02
 0.1799914456666E-02 -0.3895494168534E-02  0.0000000000000E+00  0.2508997255001E-02
 0.2245158846043E-02 -0.4001455278209E-02  0.0000000000000E+00  0.2636005921719E-02
 0.2768156718820E-02 -0.4156086882724E-02  0.0000000000000E+00  0.2709106978008E-02
 0.3363985435004E-02 -0.4357775955474E-02  0.0000000000000E+00  0.2704800563918E-02
 0.4022352409099E-02 -0.4601043490357E-02  0.0000000000000E+00  0.2599244248152E-02
 0.4727494470330E-02 -0.4876392384124E-02  0.0000000000000E+00  0.2370856707456E-02
 0.5458828234712E-02 -0.5170762128725E-02  0.0000000000000E+00  0.2003149903961E-02
 0.6192371612396E-02 -0.5468617133616E-02  0.0000000000000E+00  0.1487252209729E-02
 0.6902709915870E-02 -0.5753525432537E-02  0.0000000000000E+00  0.8237650492446E-03
 0.6519440156733E-04 -0.5068675249210E-02  0.0000000000000E+00  0.2240695434499E-03
 0.1960747782769E-03 -0.5149179402034E-02  0.0000000000000E+00  0.4696911497159E-03
 0.3257029241205E-03 -0.5227144876411E-02  0.0000000000000E+00  0.6747161018839E-03
 0.4503646035806E-03 -0.5299789375004E-02  0.0000000000000E+00  0.8395652576680E-03
 0.5666705683830E-03 -0.5364624593138E-02  0.0000000000000E+00  0.9664924761237E-03
 0.6718023548056E-03 -0.5419639741215E-02  0.0000000000000E+00  0.1059225156082E-02
 0.7636620678221E-03 -0.5463400810826E-02  0.0000000000000E+00  0.1122445624499E-02
 0.8409129836164E-03 -0.5495056839479E-02  0.0000000000000E+00  0.1161243502474E-02
 0.9029253417278E-03 -0.5514268743980E-02  0.0000000000000E+00  0.1180641652641E-02
 0.9496609127507E-03 -0.5521091371283E-02  0.0000000000000E+00  0.1185255931904E-02
 0.9815330969487E-03 -0.5515840761196E-02  0.0000000000000E+00  0.1179103627146E-02
 0.9992720704792E-03 -0.5498971429210E-02  0.0000000000000E+00  0.1165543138699E-02
 0.1003814259953E-02 -0.5470978717310E-02  0.0000000000000E+00  0.1147311867279E-02
 0.9962252954849E-03 -0.5432332410793E-02  0.0000000000000E+00  0.1126626680536E-02
 0.9776584467481E-03 -0.5383441852454E-02  0.0000000000000E+00  0.1105316511658E-02
 0.9493463862955E-03 -0.5324649490611E-02  0.0000000000000E+00  0.1084964444091E-02
 0.9126220190497E-03 -0.5256248470625E-02  0.0000000000000E+00  0.1067044104647E-02
 0.8689653073820E-03 -0.5178522749757E-02  0.0000000000000E+00  0.1053041435634E-02
 0.8200693771462E-03 -0.5091802244498E-02  0.0000000000000E+00  0.1044554266436E-02
 0.7679245862555E-03 -0.4996534694960E-02  0.0000000000000E+00  0.1043366800955E-02
 0.7149165956860E-03 -0.4893372758088E-02  0.0000000000000E+00  0.1051493318486E-02
 0.6639316304873E-03 -0.4783269185893E-02  0.0000000000000E+00  0.1071186183425E-02
 0.6184666071609E-03 -0.4667582843826E-02  0.0000000000000E+00  0.1104901883536E-02
 0.5827377653811E-03 -0.4548195693801E-02  0.0000000000000E+00  0.1155213321292E-02
 0.5617833232900E-03 -0.4427655326052E-02  0.0000000000000E+00  0.1224642089880E-02
 0.5615363100281E-03 -0.4309286737346E-02  0.0000000000000E+00  0.1315409739232E-02
 0.5888445666657E-03 -0.4197233978079E-02  0.0000000000000E+00  0.1429147007234E-02
 0.6514317997200E-03 -0.4096476222271E-02  0.0000000000000E+00  0.1566493738033E-02
 0.7577704838398E-03 -0.4012800886516E-02  0.0000000000000E+00  0.1726556958749E-02
 0.9168238181536E-03 -0.3952689482215E-02  0.0000000000000E+00  0.1906231769971E-02
 0.1137608853185E-02 -0.3923065338644E-02  0.0000000000000E+00  0.2099427164780E-02
 0.1428535739407E-02 -0.3930854538395E-02  0.0000000000000E+00  0.2296292797225E-02
 0.1796500244120E-02 -0.3982329915402E-02  0.0000000000000E+00  0.2482608370477E-02
 0.2245774429449E-02 -0.4082234099414E-02  0.0000000000000E+00  0.2639567625379E-02
 0.2776826833709E-02 -0.4232794639187E-02  0.0000000000000E+00  0.2744186519769E-02
 0.3385194804539E-02 -0.4432804186649E-02  0.0000000000000E+00  0.2770514434861E-02
 0.4060627451412E-02 -0.4676903075375E-02  0.0000000000000E+00  0.2691796987636E-02
 0.4786866031670E-02 -0.4955325531022E-02  0.0000000000000E+00  0.2483470180389E-02
 0.5542269948989E-02 -0.5254328115522E-02  0.0000000000000E+00  0.2126498247293E-02
 0.6301333012229E-02 -0.5557348717329E-02  0.0000000000000E+00  0.1610393642902E-02
 0.7036850134193E-02 -0.5846741189919E-02  0.0000000000000E+00  0.9354385163953E-03
 0.6851707660840E-04 -0.5231463515693E-02  0.0000000000000E+00  0.2736489382251E-03
 0.2061865897797E-03 -0.5316067061904E-02  0.0000000000000E+00  0.5179262554171E-03
 0.3426389534018E-03 -0.5397971586646E-02  0.0000000000000E+00  0.7196191940311E-03
 0.4738176429152E-03 -0.5474150338287E-02  0.0000000000000E+00  0.8792968817590E-03
 0.5960391173247E-03 -0.5541918222892E-02  0.0000000000000E+00  0.9995188591488E-03
 0.7062784540322E-03 -0.5599144666168E-02  0.0000000000000E+00  0.1084419516275E-02
 0.8023347667906E-03 -0.5644361598431E-02  0.0000000000000E+00  0.1139115095254E-02
 0.8828644652792E-03 -0.5676759553174E-02  0.0000000000000E+00  0.1169087960509E-02
 0.9473042877845E-03 -0.5696094458567E-02  0.0000000000000E+00  0.1179666724543E-02
 0.9957271356219E-03 -0.5702544031751E-02  0.0000000000000E+00  0.1175666866343E-02
 0.1028675068113E-02 -0.5696552109740E-02  0.0000000000000E+00  0.1161202453995E-02
 0.1047003237471E-02 -0.5678688977004E-02  0.0000000000000E+00  0.1139643496071E-02
 0.1051755277942E-02 -0.5649543295708E-02  0.0000000000000E+00  0.1113677932683E-02
 0.1044078561119E-02 -0.5609650756248E-02  0.0000000000000E+00  0.1085436931942E-02
 0.1025179738945E-02 -0.5559457993756E-02  0.0000000000000E+00  0.1056649936502E-02
 0.9963167821863E-03 -0.5499317106404E-02  0.0000000000000E+00  0.1028805748866E-02
 0.9588219625113E-03 -0.5429505200891E-02  0.0000000000000E+00  0.1003304669399E-02
 0.9141519241961E-03 -0.5350266798995E-02  0.0000000000000E+00  0.9815937381202E-03
 0.8639576753879E-03 -0.5261871236202E-02  0.0000000000000E+00  0.9652778558078E-03
 0.8101731668704E-03 -0.5164686843795E-02  0.0000000000000E+00  0.9562048561256E-03
 0.7551185992797E-03 -0.5059270610745E-02  0.0000000000000E+00  0.9565191858472E-03
 0.7016118503551E-03 -0.4946466425770E-02  0.0000000000000E+00  0.9686787531147E-03
 0.6530861499144E-03 -0.4827515213770E-02  0.0000000000000E+00  0.9954289286841E-03
 0.6137085220397E-03 -0.4704179228249E-02  0.0000000000000E+00  0.1039720003806E-02
 0.5884960224216E-03 -0.4578900896058E-02  0.0000000000000E+00  0.1104536157427E-02
 0.5834033869422E-03 -0.4454927791516E-02  0.0000000000000E+00  0.1192641263090E-02
 0.6053595601868E-03 -0.4336359816523E-02  0.0000000000000E+00  0.1306285279120E-02
 0.6622518887778E-03 -0.4228179396005E-02  0.0000000000000E+00  0.1446788442725E-02
 0.7628280709663E-03 -0.4136249828683E-02  0.0000000000000E+00  0.1613958556097E-02
 0.9164682622972E-03 -0.4067232827053E-02  0.0000000000000E+00  0.1805336919132E-02
 0.1132770926640E-02 -0.4028366122688E-02  0.0000000000000E+00  0.2015309015195E-02
 0.1420895010662E-02 -0.4027040831356E-02  0.0000000000000E+00  0.2234176990109E-02
 0.1788620463741E-02 -0.4070134396140E-02  0.0000000000000E+00  0.2447369339185E-02
 0.2241158719830E-02 -0.4163077646479E-02  0.0000000000000E+00  0.2635055814122E-02
 0.2779837200894E-02 -0.4308765597880E-02  0.0000000000000E+00  0.2772444489669E-02
 0.3400785907264E-02 -0.4506498837423E-02  0.0000000000000E+00  0.2830999747990E-02
 0.4093878816953E-02 -0.4751108410903E-02  0.0000000000000E+00  0.2780808519844E-02
 0.4842359505873E-02 -0.5032570730935E-02  0.0000000000000E+00  0.2594000952148E-02
 0.5623424495109E-02 -0.5336393793386E-02  0.0000000000000E+00  0.2248665671951E-02
 0.6409844624347E-02 -0.5644854200374E-02  0.0000000000000E+00  0.1732446610948E-02
 0.7172365518000E-02 -0.5938913347680E-02  0.0000000000000E+00  0.1045180793533E-02
 0.7200880733592E-04 -0.5394773000185E-02  0.0000000000000E+00  0.3257331948553E-03
 0.2168072536092E-03 -0.5483678940887E-02  0.0000000000000E+00  0.5685703092782E-03
 0.3604099529616E-03 -0.5569705536286E-02  0.0000000000000E+00  0.7666627016378E-03
 0.4983869322726E-03 -0.5649560785901E-02  0.0000000000000E+00  0.9207513665597E-03
 0.6267371370208E-03 -0.5720349736124E-02  0.0000000000000E+00  0.1033752819715E-02
 0.7422195655675E-03 -0.5779820584509E-02  0.0000000000000E+00  0.1110272459801E-02
 0.8425348338566E-03 -0.5826480989679E-02  0.0000000000000E+00  0.1155921016860E-02
 0.9263475711194E-03 -0.5859580430695E-02  0.0000000000000E+00  0.1176619058985E-02
 0.9931814453472E-03 -0.5878990259359E-02  0.0000000000000E+00  0.1178026421549E-02
 0.1043241383930E-02 -0.5885030386763E-02  0.0000000000000E+00  0.1165164710334E-02
 0.1077216096784E-02 -0.5878288157101E-02  0.0000000000000E+00  0.1142236752760E-02
 0.1096099141058E-02 -0.5859460757962E-02  0.0000000000000E+00  0.1112607007279E-02
 0.1101049897315E-02 -0.5829236890398E-02  0.0000000000000E+00  0.1078892344232E-02
 0.1093301572768E-02 -0.5788221181379E-02  0.0000000000000E+00  0.1043115446093E-02
 0.1074114584027E-02 -0.5736897748745E-02  0.0000000000000E+00  0.1006884143314E-02
 0.1044769573763E-02 -0.5675626381472E-02  0.0000000000000E+00  0.9715722406745E-03
 0.1006593068548E-02 -0.5604664464241E-02  0.0000000000000E+00  0.9384874657464E-03
 0.9610111065520E-03 -0.5524211819325E-02  0.0000000000000E+00  0.9090199471505E-03
 0.9096232533076E-03 -0.5434470284631E-02  0.0000000000000E+00  0.8847646261608E-03
 0.8542957165618E-03 -0.5335719977214E-02  0.0000000000000E+00  0.8676167957983E-03
 0.7972698631110E-03 -0.5228411178210E-02  0.0000000000000E+00  0.8598358951039E-03
 0.7412797846358E-03 -0.5113265245002E-02  0.0000000000000E+00  0.8640716612973E-03
 0.6896775264743E-03 -0.4991388437102E-02  0.0000000000000E+00  0.8833470298441E-03
 0.6465614909228E-03 -0.4864403202622E-02  0.0000000000000E+00  0.9209823319391E-03
 0.6169068071518E-03 -0.4734623594914E-02  0.0000000000000E+00  0.9804231367876E-03
 0.6066686074196E-03 -0.4605193865287E-02  0.0000000000000E+00  0.1064983675555E-02
 0.6228363774560E-03 -0.4480141556843E-02  0.0000000000000E+00  0.1177554961877E-02
 0.6734440034164E-03 -0.4364423284130E-02  0.0000000000000E+00  0.1320179046485E-02
 0.7675055457448E-03 -0.4263951723113E-02  0.0000000000000E+00  0.1493431255556E-02
 0.9148245346174E-03 -0.4185550626521E-02  0.0000000000000E+00  0.1695594565543E-02
 0.1125611335701E-02 -0.4136770283122E-02  0.0000000000000E+00  0.1921652880273E-02
 0.1409837145513E-02 -0.4125490252542E-02  0.0000000000000E+00  0.2162197403702E-02
 0.1776268355013E-02 -0.4159248552083E-02  0.0000000000000E+00  0.2402432132323E-02
 0.2231195377822E-02 -0.4244254224188E-02  0.0000000000000E+00  0.2621583265463E-02
 0.2776967759745E-02 -0.4384185244907E-02  0.0000000000000E+00  0.2793042018868E-02
 0.3410464809262E-02 -0.4578969449146E-02  0.0000000000000E+00  0.2885550747907E-02
 0.4121791429076E-02 -0.4823717568999E-02  0.0000000000000E+00  0.2865761609944E-02
 0.4893704260334E-02 -0.5108169922833E-02  0.0000000000000E+00  0.2702122294610E-02
 0.5702127590520E-02 -0.5417018830457E-02  0.0000000000000E+00  0.2369455960387E-02
 0.6517891647808E-02 -0.5731232012354E-02  0.0000000000000E+00  0.1853236107891E-02
 0.7309407874838E-02 -0.6030182338633E-02  0.0000000000000E+00  0.1152701667212E-02
 0.7568379184450E-04 -0.5558660696349E-02  0.0000000000000E+00  0.3804531102445E-03
 0.2279801214756E-03 -0.5652088005379E-02  0.0000000000000E+00  0.6217443009099E-03
 0.3790865121186E-03 -0.5742431773407E-02  0.0000000000000E+00  0.8159419003004E-03
 0.5241624649379E-03 -0.5826110033156E-02  0.0000000000000E+00  0.9639864642766E-03
 0.6588626341571E-03 -0.5900003072676E-02  0.0000000000000E+00  0.1069211189217E-02
 0.7797199466668E-03 -0.5961737168350E-02  0.0000000000000E+00  0.1136765788630E-02
 0.8843433204932E-03 -0.6009808226030E-02  0.0000000000000E+00  0.1172823117723E-02
 0.9714244079536E-03 -0.6043545667728E-02  0.0000000000000E+00  0.1183790735924E-02
 0.1040598066982E-02 -0.6062959956890E-02  0.0000000000000E+00  0.1175684930660E-02
 0.1092225223787E-02 -0.6068534880267E-02  0.0000000000000E+00  0.1153737295404E-02
 0.1127161231111E-02 -0.6061018286702E-02  0.0000000000000E+00  0.1122227731152E-02
 0.1146552483360E-02 -0.6041245805526E-02  0.0000000000000E+00  0.1084494371367E-02
 0.1151682931467E-02 -0.6010012746079E-02  0.0000000000000E+00  0.1043058419194E-02
 0.1143875592745E-02 -0.5967995322680E-02  0.0000000000000E+00  0.9998090806142E-03
 0.1124444759968E-02 -0.5915714955088E-02  0.0000000000000E+00  0.9562089135462E-03
 0.1094690862844E-02 -0.5853536945174E-02  0.0000000000000E+00  0.9134948941393E-03
 0.1055929404003E-02 -0.5781695264944E-02  0.0000000000000E+00  0.8728619795989E-03
 0.1009548467884E-02 -0.5700339977624E-02  0.0000000000000E+00  0.8356243632597E-03
 0.9570868761526E-03 -0.5609598888370E-02  0.0000000000000E+00  0.8033487487062E-03
 0.9003318172996E-03 -0.5509655598458E-02  0.0000000000000E+00  0.7779601208582E-03
 0.8414324841037E-03 -0.5400843199963E-02  0.0000000000000E+00  0.7618157070883E-03
 0.7830236692637E-03 -0.5283747378936E-02  0.0000000000000E+00  0.7577408364262E-03
 0.7283584376239E-03 -0.5159323381210E-02  0.0000000000000E+00  0.7690216275995E-03
 0.6814464726683E-03 -0.5029033802499E-02  0.0000000000000E+00  0.7993375103464E-03
 0.6471989211420E-03 -0.4895040619437E-02  0.0000000000000E+00  0.8525902979675E-03
 0.6315478472829E-03 -0.4760357548146E-02  0.0000000000000E+00  0.9326486338075E-03
 0.6415193936545E-03 -0.4628909077142E-02  0.0000000000000E+00  0.1043062985581E-02
 0.6852721615461E-03 -0.4505592932926E-02  0.0000000000000E+00  0.1186636825963E-02
 0.7720716222424E-03 -0.4396338930426E-02  0.0000000000000E+00  0.1364781243316E-02
 0.9121442043529E-03 -0.4308107483341E-02  0.0000000000000E+00  0.1576623272150E-02
 0.1116336312888E-02 -0.4248751819926E-02  0.0000000000000E+00  0.1817881519570E-02
 0.1395491310256E-02 -0.4226656858685E-02  0.0000000000000E+00  0.2079595581145E-02
 0.1759466545657E-02 -0.4250074588548E-02  0.0000000000000E+00  0.2346901324349E-02
 0.2215781956348E-02 -0.4326086445002E-02  0.0000000000000E+00  0.2598193034366E-02
 0.2767993385624E-02 -0.4459281496738E-02  0.0000000000000E+00  0.2805059073070E-02
 0.3413914719615E-02 -0.4650354209324E-02  0.0000000000000E+00  0.2933384573587E-02
 0.4144016577433E-02 -0.4894805964126E-02  0.0000000000000E+00  0.2946080887549E-02
 0.4940596736242E-02 -0.5182177242090E-02  0.0000000000000E+00  0.2807475732655E-02
 0.5778194461984E-02 -0.5496276594775E-02  0.0000000000000E+00  0.2488663708186E-02
 0.6625459172030E-02 -0.5816599707032E-02  0.0000000000000E+00  0.1972589173522E-02
 0.7448153686601E-02 -0.6120714566723E-02  0.0000000000000E+00  0.1257711660883E-02
 0.7955756598035E-04 -0.5723187750624E-02  0.0000000000000E+00  0.4379499271390E-03
 0.2397526911568E-03 -0.5821372734764E-02  0.0000000000000E+00  0.6775776339285E-03
 0.3987458170132E-03 -0.5916241528112E-02  0.0000000000000E+00  0.8675552287023E-03
 0.5512419018038E-03 -0.6003892919776E-02  0.0000000000000E+00  0.1009055865841E-02
 0.6925205421256E-03 -0.6080965584655E-02  0.0000000000000E+00  0.1105899547960E-02
 0.8188784809935E-03 -0.6144964338074E-02  0.0000000000000E+00  0.1163864709149E-02
 0.9278427313576E-03 -0.6194389266189E-02  0.0000000000000E+00  0.1189761976854E-02
 0.1018155246813E-02 -0.6228674930315E-02  0.0000000000000E+00  0.1190537989059E-02
 0.1089590726101E-02 -0.6247998279661E-02  0.0000000000000E+00  0.1172589782880E-02
 0.1142693415988E-02 -0.6253031139613E-02  0.0000000000000E+00  0.1141359246144E-02
 0.1178507328227E-02 -0.6244700053622E-02  0.0000000000000E+00  0.1101187208530E-02
 0.1198347005310E-02 -0.6223990831632E-02  0.0000000000000E+00  0.1055360568863E-02
 0.1203629902895E-02 -0.6191811592850E-02  0.0000000000000E+00  0.1006277051444E-02
 0.1195772545330E-02 -0.6148912235047E-02  0.0000000000000E+00  0.9556651920614E-03
 0.1176142834951E-02 -0.6095850823093E-02  0.0000000000000E+00  0.9048172201222E-03
 0.1146057796948E-02 -0.6032995740916E-02  0.0000000000000E+00  0.8548105459364E-03
 0.1106816469529E-02 -0.5960553877062E-02  0.0000000000000E+00  0.8067064257731E-03
 0.1059761623672E-02 -0.5878620756335E-02  0.0000000000000E+00  0.7617232744548E-03
 0.1006362137815E-02 -0.5787244110207E-02  0.0000000000000E+00  0.7213801878839E-03
 0.9483150652280E-03 -0.5686503369129E-02  0.0000000000000E+00  0.6876125853690E-03
 0.8876642368332E-03 -0.5576604683399E-02  0.0000000000000E+00  0.6628563000113E-03
 0.8269296963251E-03 -0.5457985654353E-02  0.0000000000000E+00  0.6500934675661E-03
 0.7692475874249E-03 -0.5331434771073E-02  0.0000000000000E+00  0.6528558066183E-03
 0.7185182461234E-03 -0.5198235032455E-02  0.0000000000000E+00  0.6751669977831E-03
 0.6795656250023E-03 -0.5060372396185E-02  0.0000000000000E+00  0.7213754429430E-03
 0.6582731610204E-03 -0.4920701730679E-02  0.0000000000000E+00  0.7959033999220E-03
 0.6616763431776E-03 -0.4783011381053E-02  0.0000000000000E+00  0.9029745124395E-03
 0.6980315522763E-03 -0.4652102947816E-02  0.0000000000000E+00  0.1046189883396E-02
 0.7768338245221E-03 -0.4533884882569E-02  0.0000000000000E+00  0.1227864329290E-02
 0.9087237958684E-03 -0.4435420600050E-02  0.0000000000000E+00  0.1448076703815E-02
 0.1105199887228E-02 -0.4364847224429E-02  0.0000000000000E+00  0.1703430356833E-02
 0.1378031979207E-02 -0.4331063355690E-02  0.0000000000000E+00  0.1985596603904E-02
 0.1738273539063E-02 -0.4343083720579E-02  0.0000000000000E+00  0.2279833062168E-02
 0.2194835275218E-02 -0.4408959291439E-02  0.0000000000000E+00  0.2563851552332E-02
 0.2752686654125E-02 -0.4534331670491E-02  0.0000000000000E+00  0.2807482730709E-02
 0.3410795240507E-02 -0.4720824669480E-02  0.0000000000000E+00  0.2973627738965E-02
 0.4160168122291E-02 -0.4964468636639E-02  0.0000000000000E+00  0.3021121621667E-02
 0.4982695586750E-02 -0.5254659958038E-02  0.0000000000000E+00  0.2909664912674E-02
 0.5851416151460E-02 -0.5574255192773E-02  0.0000000000000E+00  0.2606072561834E-02
 0.6732530361606E-02 -0.5901095393188E-02  0.0000000000000E+00  0.2090334679088E-02
 0.7588804343773E-02 -0.6210703954936E-02  0.0000000000000E+00  0.1359922781381E-02
 0.8364729475323E-04 -0.5888420420981E-02  0.0000000000000E+00  0.4983762900911E-03
 0.2521774896310E-03 -0.5991618370462E-02  0.0000000000000E+00  0.7362087053426E-03
 0.4194729882180E-03 -0.6091233569002E-02  0.0000000000000E+00  0.9216039178875E-03
 0.5797320122614E-03 -0.6183010969550E-02  0.0000000000000E+00  0.1056007633966E-02
 0.7278238804779E-03 -0.6263328722769E-02  0.0000000000000E+00  0.1143809679816E-02
 0.8597993089588E-03 -0.6329572352105E-02  0.0000000000000E+00  0.1191514845884E-02
 0.9731170801208E-03 -0.6380266337621E-02  0.0000000000000E+00  0.1206656179689E-02
 0.1066598120001E-02 -0.6414980548913E-02  0.0000000000000E+00  0.1196774582470E-02
 0.1140190642375E-02 -0.6434089923597E-02  0.0000000000000E+00  0.1168670265656E-02
 0.1194653147335E-02 -0.6438481053758E-02  0.0000000000000E+00  0.1127991040522E-02
 0.1231242314425E-02 -0.6429278392773E-02  0.0000000000000E+00  0.1079117147687E-02
 0.1251456834099E-02 -0.6407629594648E-02  0.0000000000000E+00  0.1025254660841E-02
 0.1256856483067E-02 -0.6374561150373E-02  0.0000000000000E+00  0.9686466055770E-03
 0.1248954519547E-02 -0.6330897977149E-02  0.0000000000000E+00  0.9108315117678E-03
 0.1229171686059E-02 -0.6277233533627E-02  0.0000000000000E+00  0.8529050347540E-03
 0.1198838052042E-02 -0.6213936566151E-02  0.0000000000000E+00  0.7957616389670E-03
 0.1159230597362E-02 -0.6141183260810E-02  0.0000000000000E+00  0.7403074791611E-03
 0.1111639462118E-02 -0.6059010188148E-02  0.0000000000000E+00  0.6876447593076E-03
 0.1057454570910E-02 -0.5967379580858E-02  0.0000000000000E+00  0.6392246890756E-03
 0.9982719962200E-03 -0.5866259841853E-02  0.0000000000000E+00  0.5969725065197E-03
 0.9360173021543E-03 -0.5755721336130E-02  0.0000000000000E+00  0.5633815658142E-03
 0.8730805500635E-03 -0.5636042107667E-02  0.0000000000000E+00  0.5415694827746E-03
 0.8124630580698E-03 -0.5507829005395E-02  0.0000000000000E+00  0.5352926871907E-03
 0.7579348570904E-03 -0.5372166284873E-02  0.0000000000000E+00  0.5489000743059E-03
 0.7142085378450E-03 -0.5230840023047E-02  0.0000000000000E+00  0.5871719215287E-03
 0.6870913988858E-03 -0.5086517130122E-02  0.0000000000000E+00  0.6550775423299E-03
 0.6835975312601E-03 -0.4942814533227E-02  0.0000000000000E+00  0.7575214425491E-03
 0.7120487493447E-03 -0.4804396289594E-02  0.0000000000000E+00  0.8989333335098E-03
 0.7821401502397E-03 -0.4677104292142E-02  0.0000000000000E+00  0.1082597293186E-02
 0.9049082843118E-03 -0.4568061973458E-02  0.0000000000000E+00  0.1309655059686E-02
 0.1092509349234E-02 -0.4485660090648E-02  0.0000000000000E+00  0.1577757312822E-02
 0.1357686037285E-02 -0.4439308189516E-02  0.0000000000000E+00  0.1879415183521E-02
 0.1712791468028E-02 -0.4438825205294E-02  0.0000000000000E+00  0.2200235321422E-02
 0.2168298185918E-02 -0.4493329846425E-02  0.0000000000000E+00  0.2517441871538E-02
 0.2730821691742E-02 -0.4609671157710E-02  0.0000000000000E+00  0.2799194194926E-02
 0.3400741943187E-02 -0.4790591739545E-02  0.0000000000000E+00  0.3005300290523E-02
 0.4169818121135E-02 -0.5032823091484E-02  0.0000000000000E+00  0.3090156230599E-02
 0.5019615847173E-02 -0.5325699494968E-02  0.0000000000000E+00  0.3008248475638E-02
 0.5921555314265E-02 -0.5651058779202E-02  0.0000000000000E+00  0.2721453555319E-02
 0.6839084558667E-02 -0.5984879683322E-02  0.0000000000000E+00  0.2206302669477E-02
 0.7731585965276E-02 -0.6300373683168E-02  0.0000000000000E+00  0.1459048739638E-02
 0.8797212011589E-04 -0.6054431212563E-02  0.0000000000000E+00  0.5618973996964E-03
 0.2653131221061E-03 -0.6162918378987E-02  0.0000000000000E+00  0.7977855817774E-03
 0.4413626533340E-03 -0.6267515763664E-02  0.0000000000000E+00  0.9781914870358E-03
 0.6097503298509E-03 -0.6363573670167E-02  0.0000000000000E+00  0.1104882251964E-02
 0.7648950285396E-03 -0.6447188708475E-02  0.0000000000000E+00  0.1182916497791E-02
 0.9025924434677E-03 -0.6515631748882E-02  0.0000000000000E+00  0.1219638742103E-02
 0.1020251827492E-02 -0.6567477251666E-02  0.0000000000000E+00  0.1223399104962E-02
 0.1116808249933E-02 -0.6602466448061E-02  0.0000000000000E+00  0.1202390578330E-02
 0.1192422839079E-02 -0.6621208358401E-02  0.0000000000000E+00  0.1163835832356E-02
 0.1248103125826E-02 -0.6624833655282E-02  0.0000000000000E+00  0.1113578178496E-02
 0.1285344351965E-02 -0.6614684681252E-02  0.0000000000000E+00  0.1056009340315E-02
 0.1305845775696E-02 -0.6592082161196E-02  0.0000000000000E+00  0.9942197355682E-03
 0.1311317904005E-02 -0.6558175549382E-02  0.0000000000000E+00  0.9302629209419E-03
 0.1303373256695E-02 -0.6513865121261E-02  0.0000000000000E+00  0.8654560794084E-03
 0.1283484003476E-02 -0.6459777753739E-02  0.0000000000000E+00  0.8006711376010E-03
 0.1252989291526E-02 -0.6396279512262E-02  0.0000000000000E+00  0.7365959166452E-03
 0.1213138308236E-02 -0.6323512352181E-02  0.0000000000000E+00  0.6739599098509E-03
 0.1165161350669E-02 -0.6241449930078E-02  0.0000000000000E+00  0.6137283548419E-03
 0.1110360664133E-02 -0.6149964301537E-02  0.0000000000000E+00  0.5572635990536E-03
 0.1050220884821E-02 -0.6048906944280E-02  0.0000000000000E+00  0.5064588825509E-03
 0.9865368290321E-03 -0.5938204693808E-02  0.0000000000000E+00  0.4638421987692E-03
 0.9215537280237E-03 -0.5817965732439E-02  0.0000000000000E+00  0.4326428181984E-03
 0.8581204127850E-03 -0.5688601523317E-02  0.0000000000000E+00  0.4168176308061E-03
 0.7998555700658E-03 -0.5550979367463E-02  0.0000000000000E+00  0.4210172881868E-03
 0.7513355742890E-03 -0.5406662067678E-02  0.0000000000000E+00  0.4504336589514E-03
 0.7182623618245E-03 -0.5258099070804E-02  0.0000000000000E+00  0.5105698750218E-03
 0.7075945575568E-03 -0.5108698767811E-02  0.0000000000000E+00  0.6070115025212E-03
 0.7276814751512E-03 -0.4962942215576E-02  0.0000000000000E+00  0.7450405470737E-03
 0.7883804292932E-03 -0.4826552580207E-02  0.0000000000000E+00  0.9289708620938E-03
 0.9010945752985E-03 -0.4706660036744E-02  0.0000000000000E+00  0.1161118720817E-02
 0.1078631145708E-02 -0.4611865597633E-02  0.0000000000000E+00  0.1440355269273E-02
 0.1334740866210E-02 -0.4552073113460E-02  0.0000000000000E+00  0.1760264385717E-02
 0.1683175353497E-02 -0.4537936537760E-02  0.0000000000000E+00  0.2107070142040E-02
 0.2136148099304E-02 -0.4579738753976E-02  0.0000000000000E+00  0.2457757491557E-02
 0.2702179522869E-02 -0.4685704003865E-02  0.0000000000000E+00  0.2778954488983E-02
 0.3383366520900E-02 -0.4859913146336E-02  0.0000000000000E+00  0.3027296983736E-02
 0.4172491760032E-02 -0.5100012635183E-02  0.0000000000000E+00  0.3152357519754E-02
 0.5050921704751E-02 -0.5395392181804E-02  0.0000000000000E+00  0.3102731292747E-02
 0.5988341226129E-02 -0.5726808854580E-02  0.0000000000000E+00  0.2834563570767E-02
 0.6945095230162E-02 -0.6068138153741E-02  0.0000000000000E+00  0.2320322918973E-02
 0.7876748110256E-02 -0.6389977877098E-02  0.0000000000000E+00  0.1554803577594E-02
 0.9255358165182E-04 -0.6221300235647E-02  0.0000000000000E+00  0.6286923941670E-03
 0.2792255302002E-03 -0.6335376206852E-02  0.0000000000000E+00  0.8624667851110E-03
 0.4645208143056E-03 -0.6445206933713E-02  0.0000000000000E+00  0.1037423061108E-02
 0.6414270722974E-03 -0.6545699957563E-02  0.0000000000000E+00  0.1155710193074E-02
 0.8038671365405E-03 -0.6632647261669E-02  0.0000000000000E+00  0.1223174332561E-02
 0.9473743700716E-03 -0.6703213204931E-02  0.0000000000000E+00  0.1248131769521E-02
 0.1069333691672E-02 -0.6756054558763E-02  0.0000000000000E+00  0.1239855315238E-02
 0.1168837308401E-02 -0.6791126917467E-02  0.0000000000000E+00  0.1207249709946E-02
 0.1246305150157E-02 -0.6809314534256E-02  0.0000000000000E+00  0.1157974546336E-02
 0.1303032579314E-02 -0.6812023987255E-02  0.0000000000000E+00  0.1098050494508E-02
 0.1340780971071E-02 -0.6800835868593E-02  0.0000000000000E+00  0.1031845263533E-02
 0.1361466625308E-02 -0.6777254302455E-02  0.0000000000000E+00  0.9622929940586E-03
 0.1366958424460E-02 -0.6742554933334E-02  0.0000000000000E+00  0.8912193889594E-03
 0.1358969712594E-02 -0.6697712469811E-02  0.0000000000000E+00  0.8196871705051E-03
 0.1339021875515E-02 -0.6643384370393E-02  0.0000000000000E+00  0.7483168395792E-03
 0.1308458701233E-02 -0.6579930622570E-02  0.0000000000000E+00  0.6775659521786E-03
 0.1268495731194E-02 -0.6507455562057E-02  0.0000000000000E+00  0.6079659810687E-03
 0.1220296385749E-02 -0.6425866531256E-02  0.0000000000000E+00  0.5403244205211E-03
 0.1165066897278E-02 -0.6334941617853E-02  0.0000000000000E+00  0.4758933204072E-03
 0.1104170529053E-02 -0.6234410604713E-02  0.0000000000000E+00  0.4165110863698E-03
 0.1039259442349E-02 -0.6124050350546E-02  0.0000000000000E+00  0.3647158060674E-03
 0.9724197572571E-03 -0.6003790277642E-02  0.0000000000000E+00  0.3238221646119E-03
 0.9063306287817E-03 -0.5873834153035E-02  0.0000000000000E+00  0.2979598989153E-03
 0.8444385696718E-03 -0.5734815423539E-02  0.0000000000000E+00  0.2920533718860E-03
 0.7911585386506E-03 -0.5588051149265E-02  0.0000000000000E+00  0.3116797376191E-03
 0.7520565196963E-03 -0.5435743924935E-02  0.0000000000000E+00  0.3628551420889E-03
 0.7339985298786E-03 -0.5281055139107E-02  0.0000000000000E+00  0.4518374155408E-03
 0.7453178395248E-03 -0.5128233685169E-02  0.0000000000000E+00  0.5847749849133E-03
 0.7959872515202E-03 -0.4982824787293E-02  0.0000000000000E+00  0.7670639523148E-03
 0.8977348153408E-03 -0.4851900971790E-02  0.0000000000000E+00  0.1002303918986E-02
 0.1063997071164E-02 -0.4744215082217E-02  0.0000000000000E+00  0.1290767203170E-02
 0.1309553368348E-02 -0.4670131513056E-02  0.0000000000000E+00  0.1627367264578E-02
 0.1649643974967E-02 -0.4641155227913E-02  0.0000000000000E+00  0.1999258270578E-02
 0.2098407562858E-02 -0.4668824015132E-02  0.0000000000000E+00  0.2383497152155E-02
 0.2666555324628E-02 -0.4762916172161E-02  0.0000000000000E+00  0.2745388903396E-02
 0.3358257867000E-02 -0.4929103163141E-02  0.0000000000000E+00  0.3038364994342E-02
 0.4167661591285E-02 -0.5166210726497E-02  0.0000000000000E+00  0.3206777780009E-02
 0.5076117524872E-02 -0.5463849754751E-02  0.0000000000000E+00  0.3192553801388E-02
 0.6051464089331E-02 -0.5801645616412E-02  0.0000000000000E+00  0.2945145070747E-02
 0.7050528665543E-02 -0.6151084994213E-02  0.0000000000000E+00  0.2432223458059E-02
 0.8024561568062E-02 -0.6479803664007E-02  0.0000000000000E+00  0.1646898170495E-02
 0.9741611707443E-04 -0.6389116832380E-02  0.0000000000000E+00  0.6989560372973E-03
 0.2939895039775E-03 -0.6509107364748E-02  0.0000000000000E+00  0.9304222038446E-03
 0.4890670624184E-03 -0.6624439014102E-02  0.0000000000000E+00  0.1099404448786E-02
 0.6749073536697E-03 -0.6729519858932E-02  0.0000000000000E+00  0.1208508879062E-02
 0.8448856536004E-03 -0.6819812272602E-02  0.0000000000000E+00  0.1264512442899E-02
 0.9942685668463E-03 -0.6892387146047E-02  0.0000000000000E+00  0.1276857355881E-02
 0.1120450243753E-02 -0.6946024354661E-02  0.0000000000000E+00  0.1255856536298E-02
 0.1222732417884E-02 -0.6980945030773E-02  0.0000000000000E+00  0.1211186648255E-02
 0.1301847000010E-02 -0.6998355300128E-02  0.0000000000000E+00  0.1150951651488E-02
 0.1359420093983E-02 -0.6999971770068E-02  0.0000000000000E+00  0.1081321719278E-02
 0.1397508112753E-02 -0.6987633487465E-02  0.0000000000000E+00  0.1006596210632E-02
 0.1418260444833E-02 -0.6963036827871E-02  0.0000000000000E+00  0.9295060704902E-03
 0.1423710798469E-02 -0.6927585028364E-02  0.0000000000000E+00  0.8516071943679E-03
 0.1415673638141E-02 -0.6882324749093E-02  0.0000000000000E+00  0.7736733078458E-03
 0.1395716392458E-02 -0.6827940193800E-02  0.0000000000000E+00  0.6960457114935E-03
 0.1365182532407E-02 -0.6764781500557E-02  0.0000000000000E+00  0.6189286153117E-03
 0.1325248012269E-02 -0.6692912197380E-02  0.0000000000000E+00  0.5426347239855E-03
 0.1277002606032E-02 -0.6612170587556E-02  0.0000000000000E+00  0.4677933266191E-03
 0.1221548709289E-02 -0.6522238038859E-02  0.0000000000000E+00  0.3955245445591E-03
 0.1160118932245E-02 -0.6422719174234E-02  0.0000000000000E+00  0.3275882970101E-03
 0.1094211604380E-02 -0.6313235928088E-02  0.0000000000000E+00  0.2665067199779E-03
 0.1025740209953E-02 -0.6193531713988E-02  0.0000000000000E+00  0.2156513867228E-03
 0.9571977602556E-03 -0.6063592039636E-02  0.0000000000000E+00  0.1792939730511E-03
 0.8918383047018E-03 -0.5923801319429E-02  0.0000000000000E+00  0.1625998453096E-03
 0.8338902575290E-03 -0.5775209849745E-02  0.0000000000000E+00  0.1714987608758E-03
 0.7887521560536E-03 -0.5619744723924E-02  0.0000000000000E+00  0.2124906901712E-03
 0.7631576068793E-03 -0.5460281179429E-02  0.0000000000000E+00  0.2924864260538E-03
 0.7653748644273E-03 -0.5300783642221E-02  0.0000000000000E+00  0.4185029585940E-03
 0.8054362542229E-03 -0.5146553329028E-02  0.0000000000000E+00  0.5970596266398E-03
 0.8953393305586E-03 -0.5004529024522E-02  0.0000000000000E+00  0.8331410570382E-03
 0.1049110615457E-02 -0.4883540061293E-02  0.0000000000000E+00  0.1128604849900E-02
 0.1282559929743E-02 -0.4794356965030E-02  0.0000000000000E+00  0.1479972476770E-02
 0.1612492573660E-02 -0.4749331859594E-02  0.0000000000000E+00  0.1875687350995E-02
 0.2055157355305E-02 -0.4761337124619E-02  0.0000000000000E+00  0.2293261525696E-02
 0.2623768229777E-02 -0.4841891809207E-02  0.0000000000000E+00  0.2696970534167E-02
 0.3324984638567E-02 -0.4998545103616E-02  0.0000000000000E+00  0.3037077471479E-02
 0.4154741051774E-02 -0.5231626551141E-02  0.0000000000000E+00  0.3252321930795E-02
 0.5094636194935E-02 -0.5531198956815E-02  0.0000000000000E+00  0.3277077828020E-02
 0.6110567804247E-02 -0.5875728394224E-02  0.0000000000000E+00  0.3052927728135E-02
 0.7155343843332E-02 -0.6233967869497E-02  0.0000000000000E+00  0.2541829830158E-02
 0.8175313866420E-02 -0.6570173221296E-02  0.0000000000000E+00  0.1735032352701E-02
 0.1025876831651E-03 -0.6557981539833E-02  0.0000000000000E+00  0.7729007129130E-03
 0.3096905234710E-03 -0.6684241931312E-02  0.0000000000000E+00  0.1001834108539E-02
 0.5151372356637E-03 -0.6805359599171E-02  0.0000000000000E+00  0.1164240850511E-02
 0.7103537527996E-03 -0.6915176335042E-02  0.0000000000000E+00  0.1263278816233E-02
 0.8881099817598E-03 -0.7008798407839E-02  0.0000000000000E+00  0.1306829531924E-02
 0.1043405908237E-02 -0.7083223072247E-02  0.0000000000000E+00  0.1305641383380E-02
 0.1173689237538E-02 -0.7137404703314E-02  0.0000000000000E+00  0.1271197171406E-02
 0.1278534856875E-02 -0.7171890708241E-02  0.0000000000000E+00  0.1214004178583E-02
 0.1359047943448E-02 -0.7188261568834E-02  0.0000000000000E+00  0.1142608316080E-02
 0.1417232305149E-02 -0.7188579937501E-02  0.0000000000000E+00  0.1063289333147E-02
 0.1455469112853E-02 -0.7174962638071E-02  0.0000000000000E+00  0.9802237150587E-03
 0.1476155847898E-02 -0.7149304964282E-02  0.0000000000000E+00  0.8958855784061E-03
 0.1481495791391E-02 -0.7113136798441E-02  0.0000000000000E+00  0.8115156859609E-03
 0.1473403224789E-02 -0.7067572403253E-02  0.0000000000000E+00  0.7275633018793E-03
 0.1453487316258E-02 -0.7013317759079E-02  0.0000000000000E+00  0.6440632485654E-03
 0.1423085699998E-02 -0.6950709003094E-02  0.0000000000000E+00  0.5609443909319E-03
 0.1383328759952E-02 -0.6879765945927E-02  0.0000000000000E+00  0.4782809904643E-03
 0.1335226218124E-02 -0.6800255932040E-02  0.0000000000000E+00  0.3965043545907E-03
 0.1279769449494E-02 -0.6711762058306E-02  0.0000000000000E+00  0.3165811366363E-03
 0.1218051933685E-02 -0.6613761810979E-02  0.0000000000000E+00  0.2401685259659E-03
 0.1151407883259E-02 -0.6505718958294E-02  0.0000000000000E+00  0.1697453489969E-03
 0.1081565572154E-02 -0.6387185551120E-02  0.0000000000000E+00  0.1087094279361E-03
 0.1010816382325E-02 -0.6257920340615E-02  0.0000000000000E+00  0.6144031793440E-04
 0.9422025170955E-03 -0.6118045687600E-02  0.0000000000000E+00  0.3330705085791E-04
 0.8797412755088E-03 -0.5968326133597E-02  0.0000000000000E+00  0.3055270315327E-04
 0.8286319342227E-03 -0.5810386095316E-02  0.0000000000000E+00  0.6012279784276E-04
 0.7954338197758E-03 -0.5646775675821E-02  0.0000000000000E+00  0.1295498323051E-03
 0.7882961866053E-03 -0.5481120221010E-02  0.0000000000000E+00  0.2467069992193E-03
 0.8172455997711E-03 -0.5318404562881E-02  0.0000000000000E+00  0.4192625538582E-03
 0.8944789820999E-03 -0.5165345714686E-02  0.0000000000000E+00  0.6536756813048E-03
 0.1034553272987E-02 -0.5030755565208E-02  0.0000000000000E+00  0.9535712220197E-03
 0.1254287246824E-02 -0.4925731959446E-02  0.0000000000000E+00  0.1317374582116E-02
 0.1572107552247E-02 -0.4863444564074E-02  0.0000000000000E+00  0.1735224657245E-02
 0.2006552578281E-02 -0.4858162002190E-02  0.0000000000000E+00  0.2185552806261E-02
 0.2573674452836E-02 -0.4923333335605E-02  0.0000000000000E+00  0.2632003496224E-02
 0.3283100196001E-02 -0.5068707730510E-02  0.0000000000000E+00  0.3021802523167E-02
 0.4133077667602E-02 -0.5296512856813E-02  0.0000000000000E+00  0.3287712666667E-02
 0.5105823855372E-02 -0.5597579995560E-02  0.0000000000000E+00  0.3355566415496E-02
 0.6165240161219E-02 -0.5949233843914E-02  0.0000000000000E+00  0.3157633164861E-02
 0.7259495079155E-02 -0.6317074310015E-02  0.0000000000000E+00  0.2648968029525E-02
 0.8329301949483E-02 -0.6661445873649E-02  0.0000000000000E+00  0.1818879971984E-02
 0.1081005102828E-03 -0.6728008477850E-02  0.0000000000000E+00  0.8507588501297E-03
 0.3264270079251E-03 -0.6860927592224E-02  0.0000000000000E+00  0.1076898302141E-02
 0.5428866122926E-03 -0.6988134975443E-02  0.0000000000000E+00  0.1232035099671E-02
 0.7479492894302E-03 -0.7102827362564E-02  0.0000000000000E+00  0.1319998713742E-02
 0.9337152362601E-03 -0.7199727623672E-02  0.0000000000000E+00  0.1349987084602E-02
 0.1094924881549E-02 -0.7275788536197E-02  0.0000000000000E+00  0.1334265674942E-02
 0.1229137593217E-02 -0.7330203628671E-02  0.0000000000000E+00  0.1285629388959E-02
 0.1336278413373E-02 -0.7363918418546E-02  0.0000000000000E+00  0.1215470408807E-02
 0.1417895947369E-02 -0.7378946273719E-02  0.0000000000000E+00  0.1132760697746E-02
 0.1476422455297E-02 -0.7377733127038E-02  0.0000000000000E+00  0.1043834843683E-02
 0.1514593664699E-02 -0.7362691057333E-02  0.0000000000000E+00  0.9526803662703E-03
 0.1535068341934E-02 -0.7335917906221E-02  0.0000000000000E+00  0.8614539456211E-03
 0.1540221798312E-02 -0.7299066319612E-02  0.0000000000000E+00  0.7710329102626E-03
 0.1532064872076E-02 -0.7253311628197E-02  0.0000000000000E+00  0.6815063313792E-03
 0.1512242874454E-02 -0.7199375371571E-02  0.0000000000000E+00  0.5925764647383E-03
 0.1482081495842E-02 -0.7137575170395E-02  0.0000000000000E+00  0.5038765296275E-03
 0.1442659588394E-02 -0.7067884583612E-02  0.0000000000000E+00  0.4152242501629E-03
 0.1394900897080E-02 -0.6989999027890E-02  0.0000000000000E+00  0.3268342615926E-03
 0.1339679376052E-02 -0.6903403152990E-02  0.0000000000000E+00  0.2394986086105E-03
 0.1277941853720E-02 -0.6807447010189E-02  0.0000000000000E+00  0.1547471563848E-03
 0.1210849195283E-02 -0.6701434871596E-02  0.0000000000000E+00  0.7498696281547E-04
 0.1139933032099E-02 -0.6584724206933E-02  0.0000000000000E+00  0.3609564812573E-05
 0.1067268878378E-02 -0.6456840896632E-02  0.0000000000000E+00 -0.5493458874756E-04
 0.9956690071706E-03 -0.6317634833757E-02  0.0000000000000E+00 -0.9511460759382E-04
 0.9289161428531E-03 -0.6167568474772E-02  0.0000000000000E+00 -0.1104200421364E-03
 0.8719788749113E-03 -0.6007938697462E-02  0.0000000000000E+00 -0.9350769032054E-04
 0.8311991037545E-03 -0.5840932687347E-02  0.0000000000000E+00 -0.3626787713065E-04
 0.8145487866744E-03 -0.5669780917689E-02  0.0000000000000E+00  0.6999941889804E-04
 0.8319743942918E-03 -0.5499074100959E-02  0.0000000000000E+00  0.2341176268750E-03
 0.8957866012068E-03 -0.5335207761235E-02  0.0000000000000E+00  0.4640919678053E-03
 0.1020990445734E-02 -0.5186862529869E-02  0.0000000000000E+00  0.7654872122709E-03
 0.1225363738165E-02 -0.5065356570296E-02  0.0000000000000E+00  0.1138939742779E-02
 0.1528983144817E-02 -0.4984614907338E-02  0.0000000000000E+00  0.1576735516775E-02
 0.1952842095470E-02 -0.4960337108164E-02  0.0000000000000E+00  0.2058778469238E-02
 0.2516184467913E-02 -0.5008086212390E-02  0.0000000000000E+00  0.2548606741102E-02
 0.3232150943559E-02 -0.5140166940040E-02  0.0000000000000E+00  0.2990667661007E-02
 0.4101946730476E-02 -0.5361177769403E-02  0.0000000000000E+00  0.3311445379284E-02
 0.5108919802371E-02 -0.5663144081855E-02  0.0000000000000E+00  0.3427153043209E-02
 0.6214997795436E-02 -0.6022349165145E-02  0.0000000000000E+00  0.3258983108994E-02
 0.7362939775478E-02 -0.6400738982964E-02  0.0000000000000E+00  0.2753477744742E-02
 0.8486820558231E-02 -0.6754019538853E-02  0.0000000000000E+00  0.1898063053345E-02
 0.1139920417554E-03 -0.6899328267440E-02  0.0000000000000E+00  0.9327858299874E-03
 0.3443130887569E-03 -0.7039333313160E-02  0.0000000000000E+00  0.1155825362848E-02
 0.5724937681915E-03 -0.7172953680722E-02  0.0000000000000E+00  0.1302885204221E-02
 0.7879008621872E-03 -0.7292648177094E-02  0.0000000000000E+00  0.1378619224110E-02
 0.9818940576216E-03 -0.7392729383987E-02  0.0000000000000E+00  0.1393801196135E-02
 0.1148971484896E-02 -0.7470147499384E-02  0.0000000000000E+00  0.1362460388335E-02
 0.1286879884729E-02 -0.7524416389427E-02  0.0000000000000E+00  0.1298857770443E-02
 0.1395987258774E-02 -0.7556964259695E-02  0.0000000000000E+00  0.1215316104538E-02
 0.1478365320722E-02 -0.7570301886379E-02  0.0000000000000E+00  0.1121199462016E-02
 0.1536928751743E-02 -0.7567295907912E-02  0.0000000000000E+00  0.1022824609220E-02
 0.1574796703771E-02 -0.7550668051614E-02  0.0000000000000E+00  0.9239111119693E-03
 0.1594899669659E-02 -0.7522718297847E-02  0.0000000000000E+00  0.8262306089945E-03
 0.1599784499292E-02 -0.7485214608720E-02  0.0000000000000E+00  0.7302463673550E-03
 0.1591553001215E-02 -0.7439384353516E-02  0.0000000000000E+00  0.6356521227099E-03
 0.1571879591630E-02 -0.7385957076666E-02  0.0000000000000E+00  0.5417934822079E-03
 0.1542071319954E-02 -0.7325227046934E-02  0.0000000000000E+00  0.4479901078764E-03
 0.1503149652191E-02 -0.7257119532197E-02  0.0000000000000E+00  0.3537872254575E-03
 0.1455947047020E-02 -0.7181258165341E-02  0.0000000000000E+00  0.2591656216555E-03
 0.1401214579352E-02 -0.7097030533277E-02  0.0000000000000E+00  0.1647223157595E-03
 0.1339746025336E-02 -0.7003660829136E-02  0.0000000000000E+00  0.7183515602938E-04
 0.1272520889855E-02 -0.6900294615768E-02  0.0000000000000E+00 -0.1718990034799E-04
 0.1200864056205E-02 -0.6786093930061E-02  0.0000000000000E+00 -0.9900177374822E-04
 0.1126622439481E-02 -0.6660348356020E-02  0.0000000000000E+00 -0.1691187230718E-03
 0.1052362003619E-02 -0.6522627962567E-02  0.0000000000000E+00 -0.2218939708462E-03
 0.9816091593944E-03 -0.6373080116379E-02  0.0000000000000E+00 -0.2506021607517E-03
 0.9190715964936E-03 -0.6212652537548E-02  0.0000000000000E+00 -0.2475601697129E-03
 0.8708303628231E-03 -0.6043134129730E-02  0.0000000000000E+00 -0.2041400240480E-03
 0.8446185224461E-03 -0.5867304968584E-02  0.0000000000000E+00 -0.1108636431123E-03
 0.8502197645932E-03 -0.5689279997200E-02  0.0000000000000E+00  0.4223014049709E-04
 0.8999571689208E-03 -0.5515022729523E-02  0.0000000000000E+00  0.2647393697355E-03
 0.1009176614727E-02 -0.5352948174878E-02  0.0000000000000E+00  0.5643233586678E-03
 0.1196531367526E-02 -0.5214456057308E-02  0.0000000000000E+00  0.9441384788147E-03
 0.1483740242406E-02 -0.5114124462191E-02  0.0000000000000E+00  0.1399109617176E-02
 0.1894392044967E-02 -0.5069080560506E-02  0.0000000000000E+00  0.1911261524137E-02
 0.2451285464496E-02 -0.5097168856098E-02  0.0000000000000E+00  0.2444700201554E-02
 0.3171689692436E-02 -0.5213633806231E-02  0.0000000000000E+00  0.2941520442453E-02
 0.4060547376182E-02 -0.5426002814381E-02  0.0000000000000E+00  0.3321731039284E-02
 0.5103031007928E-02 -0.5728051636320E-02  0.0000000000000E+00  0.3490791925016E-02
 0.6259260290637E-02 -0.6095255468391E-02  0.0000000000000E+00  0.3356705794387E-02
 0.7465653368651E-02 -0.6485347526221E-02  0.0000000000000E+00  0.2855247809743E-02
 0.8648143406960E-02 -0.6848328008160E-02  0.0000000000000E+00  0.1972109709113E-02
 0.1203061170010E-03 -0.7072091638223E-02  0.0000000000000E+00  0.1019263475035E-02
 0.3634820600594E-03 -0.7219653865126E-02  0.0000000000000E+00  0.1238841963442E-02
 0.6041652742411E-03 -0.7360030785930E-02  0.0000000000000E+00  0.1376880939947E-02
 0.8304432380524E-03 -0.7484833779403E-02  0.0000000000000E+00  0.1439054915437E-02
 0.1032858445695E-02 -0.7587940593548E-02  0.0000000000000E+00  0.1438032566806E-02
 0.1205698712173E-02 -0.7666358062763E-02  0.0000000000000E+00  0.1389895199243E-02
 0.1346996251494E-02 -0.7720022100777E-02  0.0000000000000E+00  0.1310533594725E-02
 0.1457673325896E-02 -0.7750942588300E-02  0.0000000000000E+00  0.1213232323799E-02
 0.1540414345973E-02 -0.7762197764270E-02  0.0000000000000E+00  0.1107689923698E-02
 0.1598672629089E-02 -0.7757111089062E-02  0.0000000000000E+00  0.1000111317676E-02
 0.1635977349860E-02 -0.7738723682939E-02  0.0000000000000E+00  0.8938550821086E-03
 0.1655537300453E-02 -0.7709532068603E-02  0.0000000000000E+00  0.7902335400683E-03
 0.1660066709683E-02 -0.7671407854830E-02  0.0000000000000E+00  0.6892439107614E-03
 0.1651750079021E-02 -0.7625618647066E-02  0.0000000000000E+00  0.5901511123425E-03
 0.1632282329666E-02 -0.7572893058038E-02  0.0000000000000E+00  0.4919229694331E-03
 0.1602944609769E-02 -0.7513496929788E-02  0.0000000000000E+00  0.3935508205007E-03
 0.1564695362345E-02 -0.7447305839286E-02  0.0000000000000E+00  0.2942941537075E-03
 0.1518271221737E-02 -0.7373873071978E-02  0.0000000000000E+00  0.1938846958288E-03
 0.1464296040854E-02 -0.7292492294465E-02  0.0000000000000E+00  0.9270508672088E-04
 0.1403405433416E-02 -0.7202265496804E-02  0.0000000000000E+00 -0.8043373787264E-05
 0.1336390908793E-02 -0.7102182638188E-02  0.0000000000000E+00 -0.1061857985917E-03
 0.1264361993501E-02 -0.6991212053619E-02  0.0000000000000E+00 -0.1984470869086E-03
 0.1188926021270E-02 -0.6868406575456E-02  0.0000000000000E+00 -0.2803560301659E-03
 0.1112388379117E-02 -0.6733052583844E-02  0.0000000000000E+00 -0.3461996374086E-03
 0.1037999795328E-02 -0.6584973352499E-02  0.0000000000000E+00 -0.3890962568033E-03
 0.9701789943246E-03 -0.6424750067553E-02  0.0000000000000E+00 -0.4010904703568E-03
 0.9147036648441E-03 -0.6253741790271E-02  0.0000000000000E+00 -0.3731099882292E-03
 0.8790044369856E-03 -0.6074224712286E-02  0.0000000000000E+00 -0.2949689341084E-03
 0.8726123864513E-03 -0.5889754432281E-02  0.0000000000000E+00 -0.1556137588977E-03
 0.9077463245856E-03 -0.5705742808202E-02  0.0000000000000E+00  0.5616129031089E-04
 0.9999591854711E-03 -0.5530184551681E-02  0.0000000000000E+00  0.3502360881513E-03
 0.1168657250625E-02 -0.5374387459178E-02  0.0000000000000E+00  0.7325855901869E-03
 0.1437146988985E-02 -0.5253432264613E-02  0.0000000000000E+00  0.1201296264388E-02
 0.1831713591526E-02 -0.5185818934369E-02  0.0000000000000E+00  0.1741259018465E-02
 0.2379069916721E-02 -0.5191809098005E-02  0.0000000000000E+00  0.2317994893793E-02
 0.3101295204885E-02 -0.5289990879623E-02  0.0000000000000E+00  0.2871886240710E-02
 0.4008003667857E-02 -0.5491470258846E-02  0.0000000000000E+00  0.3316428206597E-02
 0.5087103498050E-02 -0.5792477668156E-02  0.0000000000000E+00  0.3545180153750E-02
 0.6297304518607E-02 -0.6168097373228E-02  0.0000000000000E+00  0.3450523487644E-02
 0.7567653008865E-02 -0.6571325599264E-02  0.0000000000000E+00  0.2954293035535E-02
 0.8813494666869E-02 -0.6944821785691E-02  0.0000000000000E+00  0.2040398398566E-02
 0.1270944535588E-03 -0.7246473920507E-02  0.0000000000000E+00  0.1110504303298E-02
 0.3840906906600E-03 -0.7402115381262E-02  0.0000000000000E+00  0.1326192216840E-02
 0.6381414155708E-03 -0.7549612971366E-02  0.0000000000000E+00  0.1454099130921E-02
 0.8758436296751E-03 -0.7679601566106E-02  0.0000000000000E+00  0.1501173925783E-02
 0.1086841466333E-02 -0.7785504909863E-02  0.0000000000000E+00  0.1482374240681E-02
 0.1265265378336E-02 -0.7864469157644E-02  0.0000000000000E+00  0.1416169156874E-02
 0.1409559498230E-02 -0.7916979318970E-02  0.0000000000000E+00  0.1320248909191E-02
 0.1521333020375E-02 -0.7945741884144E-02  0.0000000000000E+00  0.1208868629542E-02
 0.1603982506517E-02 -0.7954477070529E-02  0.0000000000000E+00  0.1091973093751E-02
 0.1661556848854E-02 -0.7946997867000E-02  0.0000000000000E+00  0.9755363491884E-03
 0.1698017849220E-02 -0.7926667954451E-02  0.0000000000000E+00  0.8624481054065E-03
 0.1716854007010E-02 -0.7896168336555E-02  0.0000000000000E+00  0.7534812352886E-03
 0.1720938346783E-02 -0.7857457729775E-02  0.0000000000000E+00  0.6481149115858E-03
 0.1712526758345E-02 -0.7811829181245E-02  0.0000000000000E+00  0.5451547163477E-03
 0.1693324429202E-02 -0.7760000067933E-02  0.0000000000000E+00  0.4431735646803E-03
 0.1664578847378E-02 -0.7702202614086E-02  0.0000000000000E+00  0.3408236606108E-03
 0.1627180151898E-02 -0.7638262116413E-02  0.0000000000000E+00  0.2370688530040E-03
 0.1581765562538E-02 -0.7567664437340E-02  0.0000000000000E+00  0.1313790313319E-03
 0.1528828673787E-02 -0.7489614433681E-02  0.0000000000000E+00  0.2390451548487E-04
 0.1468843298967E-02 -0.7403097836243E-02  0.0000000000000E+00 -0.8435405124457E-04
 0.1402407851330E-02 -0.7306954623816E-02  0.0000000000000E+00 -0.1913832234513E-03
 0.1330409537903E-02 -0.7199963939274E-02  0.0000000000000E+00 -0.2940204441539E-03
 0.1254207089303E-02 -0.7080944625580E-02  0.0000000000000E+00 -0.3878486187533E-03
 0.1175833545311E-02 -0.6948899398850E-02  0.0000000000000E+00 -0.4671412952771E-03
 0.1098247622527E-02 -0.6803323099896E-02  0.0000000000000E+00 -0.5249246445452E-03
 0.1025554183065E-02 -0.6644418283660E-02  0.0000000000000E+00 -0.5530480741279E-03
 0.9631873610959E-03 -0.6473087933184E-02  0.0000000000000E+00 -0.5420843776591E-03
 0.9182115716898E-03 -0.6291054989088E-02  0.0000000000000E+00 -0.4812332771841E-03
 0.8998100860886E-03 -0.6101232783559E-02  0.0000000000000E+00 -0.3584260454347E-03
 0.9199666795012E-03 -0.5908355378020E-02  0.0000000000000E+00 -0.1608737246181E-03
 0.9942803695061E-03 -0.5719823685209E-02  0.0000000000000E+00  0.1236094449555E-03
 0.1142744439678E-02 -0.5546643500778E-02  0.0000000000000E+00  0.5040891167171E-03
 0.1390140931165E-02 -0.5404191671508E-02  0.0000000000000E+00  0.9823516381422E-03
 0.1765495471638E-02 -0.5312219060336E-02  0.0000000000000E+00  0.1546992511759E-02
 0.2299771817391E-02 -0.5293487488682E-02  0.0000000000000E+00  0.2165990474789E-02
 0.3020599799622E-02 -0.5370338123264E-02  0.0000000000000E+00  0.2778924513617E-02
 0.3943372562709E-02 -0.5558200894116E-02  0.0000000000000E+00  0.3292966689272E-02
 0.5059899883723E-02 -0.5856633351357E-02  0.0000000000000E+00  0.3588652490932E-02
 0.6328186420015E-02 -0.6240948292870E-02  0.0000000000000E+00  0.3540070832209E-02
 0.7669024700183E-02 -0.6659079787326E-02  0.0000000000000E+00  0.3050886021501E-02
 0.8982989317949E-02 -0.7043886375939E-02  0.0000000000000E+00  0.2102108609703E-02
 0.1344185624669E-03 -0.7422680711287E-02  0.0000000000000E+00  0.1206856609807E-02
 0.4063246741792E-03 -0.7586982223146E-02  0.0000000000000E+00  0.1418138895167E-02
 0.6747032169363E-03 -0.7741984600577E-02  0.0000000000000E+00  0.1534597057047E-02
 0.9244069465921E-03 -0.7877194035476E-02  0.0000000000000E+00  0.1564784500239E-02
 0.1144098681975E-02 -0.7985571178901E-02  0.0000000000000E+00  0.1526436522168E-02
 0.1327834047384E-02 -0.8064515924476E-02  0.0000000000000E+00  0.1440799067964E-02
 0.1474631196843E-02 -0.8115220425987E-02  0.0000000000000E+00  0.1327530557996E-02
 0.1586943188461E-02 -0.8141219835914E-02  0.0000000000000E+00  0.1201832160857E-02
 0.1668987327267E-02 -0.8146953361646E-02  0.0000000000000E+00  0.1073767862532E-02
 0.1725463504403E-02 -0.8136749963448E-02  0.0000000000000E+00  0.9489331455629E-03
 0.1760782599916E-02 -0.8114290159248E-02  0.0000000000000E+00  0.8296259426890E-03
 0.1778707606847E-02 -0.8082419540085E-02  0.0000000000000E+00  0.7159951295812E-03
 0.1782256583611E-02 -0.8043161932282E-02  0.0000000000000E+00  0.6069516097632E-03
 0.1773742198672E-02 -0.7997817913166E-02  0.0000000000000E+00  0.5008156118321E-03
 0.1754868012454E-02 -0.7947082044806E-02  0.0000000000000E+00  0.3957531797331E-03
 0.1726839704624E-02 -0.7891147798397E-02  0.0000000000000E+00  0.2900713721497E-03
 0.1690474352597E-02 -0.7829790608323E-02  0.0000000000000E+00  0.1824324646499E-03
 0.1646307316819E-02 -0.7762433536335E-02  0.0000000000000E+00  0.7203464849750E-04
 0.1594700411762E-02 -0.7688199928762E-02  0.0000000000000E+00 -0.4122024144476E-04
 0.1535963678078E-02 -0.7605967709184E-02  0.0000000000000E+00 -0.1565556411919E-03
 0.1470499020916E-02 -0.7514435214595E-02  0.0000000000000E+00 -0.2721500979382E-03
 0.1398966134054E-02 -0.7412199858069E-02  0.0000000000000E+00 -0.3849909006144E-03
 0.1322468250073E-02 -0.7297852673283E-02  0.0000000000000E+00 -0.4907598824987E-03
 0.1242757134215E-02 -0.7170116965737E-02  0.0000000000000E+00 -0.5837721783427E-03
 0.1162486866017E-02 -0.7028160082127E-02  0.0000000000000E+00 -0.6570304867183E-03
 0.1085427798127E-02 -0.6871800160957E-02  0.0000000000000E+00 -0.7022748726680E-03
 0.1016634181838E-02 -0.6701464804517E-02  0.0000000000000E+00 -0.7098277999261E-03
 0.9627422388050E-03 -0.6518280804567E-02  0.0000000000000E+00 -0.6683920902934E-03
 0.9324892935319E-03 -0.6324440130337E-02  0.0000000000000E+00 -0.5649961893132E-03
 0.9374814625936E-03 -0.6123870127081E-02  0.0000000000000E+00 -0.3853391822562E-03
 0.9931763297670E-03 -0.5923188685084E-02  0.0000000000000E+00 -0.1148981514692E-03
 0.1119941008320E-02 -0.5732852848354E-02  0.0000000000000E+00  0.2587090478000E-03
 0.1343851971630E-02 -0.5568265741034E-02  0.0000000000000E+00  0.7415001256622E-03
 0.1696641723614E-02 -0.5450222362893E-02  0.0000000000000E+00  0.1326694853870E-02
 0.2213811694469E-02 -0.5403989074882E-02  0.0000000000000E+00  0.1985983094897E-02
 0.2929328076749E-02 -0.5456049391409E-02  0.0000000000000E+00  0.2659388001867E-02
 0.3865658056892E-02 -0.5627006556692E-02  0.0000000000000E+00  0.3248258770967E-02
 0.5019994168766E-02 -0.5920802688585E-02  0.0000000000000E+00  0.3619073827493E-02
 0.6350645677162E-02 -0.6313816788166E-02  0.0000000000000E+00  0.3624703563641E-02
 0.7769906188859E-02 -0.6748891742387E-02  0.0000000000000E+00  0.3145580524037E-02
 0.9156525212323E-02 -0.7145407692040E-02  0.0000000000000E+00  0.2156398667144E-02
 0.1423521966850E-03 -0.7600955186235E-02  0.0000000000000E+00  0.1308710498343E-02
 0.4304055292941E-03 -0.7774565384863E-02  0.0000000000000E+00  0.1514964402577E-02
 0.7141811057060E-03 -0.7937475176352E-02  0.0000000000000E+00  0.1618403394844E-02
 0.9764817608940E-03 -0.8077881414244E-02  0.0000000000000E+00  0.1629617399559E-02
 0.1204909031456E-02 -0.8188290674661E-02  0.0000000000000E+00  0.1569728577386E-02
 0.1393567730127E-02 -0.8266513453032E-02  0.0000000000000E+00  0.1463206437807E-02
 0.1542256557978E-02 -0.8314644677003E-02  0.0000000000000E+00  0.1331834595209E-02
 0.1654456275132E-02 -0.8337197714847E-02  0.0000000000000E+00  0.1191688063447E-02
 0.1735320884235E-02 -0.8339407046047E-02  0.0000000000000E+00  0.1052774708626E-02
 0.1790252046272E-02 -0.8326134014430E-02  0.0000000000000E+00  0.9201318153991E-03
 0.1824117389316E-02 -0.8301358665952E-02  0.0000000000000E+00  0.7953283398794E-03
 0.1840940991980E-02 -0.8268062066809E-02  0.0000000000000E+00  0.6778024613035E-03
 0.1843866304619E-02 -0.8228305231366E-02  0.0000000000000E+00  0.5658506443816E-03
 0.1835244677287E-02 -0.8183375248717E-02  0.0000000000000E+00  0.4572880070626E-03
 0.1816764558719E-02 -0.8133931200387E-02  0.0000000000000E+00  0.3498681526612E-03
 0.1789581442340E-02 -0.8080122950129E-02  0.0000000000000E+00  0.2415526353304E-03
 0.1754435305954E-02 -0.8021677714888E-02  0.0000000000000E+00  0.1307008195286E-03
 0.1711758568125E-02 -0.7957962295532E-02  0.0000000000000E+00  0.1623274462481E-04
 0.1661781482977E-02 -0.7888028245866E-02  0.0000000000000E+00 -0.1022122546248E-03
 0.1604650220624E-02 -0.7810656873154E-02  0.0000000000000E+00 -0.2241041703460E-03
 0.1540568608271E-02 -0.7724416127139E-02  0.0000000000000E+00 -0.3478440735938E-03
 0.1469965493921E-02 -0.7627732257096E-02  0.0000000000000E+00 -0.4706068559367E-03
 0.1393683949625E-02 -0.7518978228855E-02  0.0000000000000E+00 -0.5882187700887E-03
 0.1313188660449E-02 -0.7396606675206E-02  0.0000000000000E+00 -0.6950929512460E-03
 0.1230820774016E-02 -0.7259464198842E-02  0.0000000000000E+00 -0.7842807070702E-03
 0.1150000839733E-02 -0.7106986025218E-02  0.0000000000000E+00 -0.8475060724930E-03
 0.1075372439939E-02 -0.6939113634399E-02  0.0000000000000E+00 -0.8749600845080E-03
 0.1013085766871E-02 -0.6756343783538E-02  0.0000000000000E+00 -0.8549903850130E-03
 0.9713341402619E-03 -0.6560075531816E-02  0.0000000000000E+00 -0.7738723810494E-03
 0.9611949221318E-03 -0.6353302692679E-02  0.0000000000000E+00 -0.6159178182367E-03
 0.9977725872553E-03 -0.6141660276439E-02  0.0000000000000E+00 -0.3643033532637E-03
 0.1101545926298E-02 -0.5934775620897E-02  0.0000000000000E+00 -0.3174482615775E-05
 0.1299625055584E-02 -0.5747739742314E-02  0.0000000000000E+00  0.4782120935009E-03
 0.1626313181486E-02 -0.5602081325264E-02  0.0000000000000E+00  0.1078675888585E-02
 0.2121854027670E-02 -0.5525463240993E-02  0.0000000000000E+00  0.1775093909534E-02
 0.2827343708388E-02 -0.5548847278991E-02  0.0000000000000E+00  0.2509573237260E-02
 0.3773843465880E-02 -0.5698943663316E-02  0.0000000000000E+00  0.3178632749035E-02
 0.4965763420607E-02 -0.5985435977699E-02  0.0000000000000E+00  0.3633657165877E-02
 0.6363043510812E-02 -0.6386592591212E-02  0.0000000000000E+00  0.3703462625365E-02
 0.7870583820851E-02 -0.6841320411022E-02  0.0000000000000E+00  0.3238471070539E-02
 0.9332626170212E-02 -0.7246593441997E-02  0.0000000000000E+00  0.2202824952072E-02
 0.1509893679662E-03 -0.7781590987812E-02  0.0000000000000E+00  0.1416498295082E-02
 0.4566043579377E-03 -0.7965256454986E-02  0.0000000000000E+00  0.1616979104320E-02
 0.7569768640122E-03 -0.8136506947260E-02  0.0000000000000E+00  0.1705514617004E-02
 0.1032484295036E-02 -0.8282020327219E-02  0.0000000000000E+00  0.1695314540344E-02
 0.1269599436815E-02 -0.8393885702329E-02  0.0000000000000E+00  0.1611644016205E-02
 0.1462656036683E-02 -0.8470537154295E-02  0.0000000000000E+00  0.1482704868665E-02
 0.1612494519948E-02 -0.8515212724032E-02  0.0000000000000E+00  0.1332535441871E-02
 0.1723835923767E-02 -0.8533570312567E-02  0.0000000000000E+00  0.1177947417281E-02
 0.1802891275338E-02 -0.8531710729750E-02  0.0000000000000E+00  0.1028659152484E-02
 0.1855806225773E-02 -0.8515029730487E-02  0.0000000000000E+00  0.8889361576511E-03
 0.1887901277368E-02 -0.8487775383508E-02  0.0000000000000E+00  0.7594690533047E-03
 0.1903438646644E-02 -0.8453024925087E-02  0.0000000000000E+00  0.6388995670716E-03
 0.1905661281635E-02 -0.8412842709588E-02  0.0000000000000E+00  0.5248701392756E-03
 0.1896937735261E-02 -0.8368478614987E-02  0.0000000000000E+00  0.4146789078461E-03
 0.1878926536236E-02 -0.8320542983105E-02  0.0000000000000E+00  0.3056687527944E-03
 0.1852724665870E-02 -0.8269137959960E-02  0.0000000000000E+00  0.1954614410720E-03
 0.1818991933351E-02 -0.8213945834964E-02  0.0000000000000E+00  0.8211683218962E-04
 0.1778058303830E-02 -0.8154286000195E-02  0.0000000000000E+00 -0.3572627438025E-04
 0.1730024585748E-02 -0.8089150739464E-02  0.0000000000000E+00 -0.1587031473880E-03
 0.1674874905394E-02 -0.8017239022692E-02  0.0000000000000E+00 -0.2865523246013E-03
 0.1612615155130E-02 -0.7937002822342E-02  0.0000000000000E+00 -0.4179285491743E-03
 0.1543441515904E-02 -0.7846710950863E-02  0.0000000000000E+00 -0.5502331479036E-03
 0.1467933962819E-02 -0.7744531480843E-02  0.0000000000000E+00 -0.6794832846808E-03
 0.1387266939333E-02 -0.7628659384134E-02  0.0000000000000E+00 -0.8002477311614E-03
 0.1303464446777E-02 -0.7497632937457E-02  0.0000000000000E+00 -0.9057012973239E-03
 0.1219587366644E-02 -0.7350513317315E-02  0.0000000000000E+00 -0.9876519879330E-03
 0.1139843808138E-02 -0.7186754101548E-02  0.0000000000000E+00 -0.1036291850654E-02
 0.1069845109662E-02 -0.7006198048157E-02  0.0000000000000E+00 -0.1039778786929E-02
 0.1017144060105E-02 -0.6809389024255E-02  0.0000000000000E+00 -0.9838228684629E-03
 0.9921317242931E-03 -0.6598265322647E-02  0.0000000000000E+00 -0.8515296527885E-03
 0.1009325376993E-02 -0.6377271754246E-02  0.0000000000000E+00 -0.6238889668629E-03
 0.1089003223504E-02 -0.6154891961265E-02  0.0000000000000E+00 -0.2815056465661E-03
 0.1258959107618E-02 -0.5945491612443E-02  0.0000000000000E+00  0.1915208404183E-03
 0.1555807072542E-02 -0.5770898210004E-02  0.0000000000000E+00  0.8006224739767E-03
 0.2024617986751E-02 -0.5660912970606E-02  0.0000000000000E+00  0.1529574968329E-02
 0.2714415641829E-02 -0.5651219784159E-02  0.0000000000000E+00  0.2324712974364E-02
 0.3666572667985E-02 -0.5775658438312E-02  0.0000000000000E+00  0.3079269662004E-02
 0.4895225204288E-02 -0.6051337737403E-02  0.0000000000000E+00  0.3629110478488E-02
 0.6363498863814E-02 -0.6459836914409E-02  0.0000000000000E+00  0.3773805493215E-02
 0.7969548637683E-02 -0.6935509889931E-02  0.0000000000000E+00  0.3334374657833E-02
 0.9526999918416E-02 -0.7355022812343E-02  0.0000000000000E+00  0.2213316066635E-02
 0.1604279943371E-03 -0.7964935788798E-02  0.0000000000000E+00  0.1530742941144E-02
 0.4852387020872E-03 -0.8159497952796E-02  0.0000000000000E+00  0.1724521392388E-02
 0.8035490624258E-03 -0.8339528651564E-02  0.0000000000000E+00  0.1795873887726E-02
 0.1092866946005E-02 -0.8489944100773E-02  0.0000000000000E+00  0.1761392704348E-02
 0.1338491720739E-02 -0.8602497115168E-02  0.0000000000000E+00  0.1651431767917E-02
 0.1535244461285E-02 -0.8676534115783E-02  0.0000000000000E+00  0.1498493000033E-02
 0.1685335324774E-02 -0.8716729131872E-02  0.0000000000000E+00  0.1328945252412E-02
 0.1794967414709E-02 -0.8730064323133E-02  0.0000000000000E+00  0.1160110067397E-02
 0.1871528006112E-02 -0.8723565103269E-02  0.0000000000000E+00  0.1001112967087E-02
 0.1921934668958E-02 -0.8703142891093E-02  0.0000000000000E+00  0.8551990002663E-03
 0.1951941633722E-02 -0.8673264476515E-02  0.0000000000000E+00  0.7220226340306E-03
 0.1966015019660E-02 -0.8637052375205E-02  0.0000000000000E+00  0.5993487320441E-03
 0.1967464586091E-02 -0.8596534273307E-02  0.0000000000000E+00  0.4841361557550E-03
 0.1958651234753E-02 -0.8552896589579E-02  0.0000000000000E+00  0.3731644142401E-03
 0.1941187628703E-02 -0.8506687300888E-02  0.0000000000000E+00  0.2633762320435E-03
 0.1916104189177E-02 -0.8457957626534E-02  0.0000000000000E+00  0.1520665552975E-03
 0.1883978704099E-02 -0.8406349958317E-02  0.0000000000000E+00  0.3700493324257E-04
 0.1845041051907E-02 -0.8351147540412E-02  0.0000000000000E+00 -0.8344976882910E-04
 0.1799267004808E-02 -0.8291298878181E-02  0.0000000000000E+00 -0.2102166054055E-03
 0.1746482875767E-02 -0.8225438229588E-02  0.0000000000000E+00 -0.3433232740380E-03
 0.1686498977737E-02 -0.8151919475040E-02  0.0000000000000E+00 -0.4817092113289E-03
 0.1619278974949E-02 -0.8068871204122E-02  0.0000000000000E+00 -0.6230413490374E-03
 0.1545139021201E-02 -0.7974273559291E-02  0.0000000000000E+00 -0.7635742131877E-03
 0.1464963521941E-02 -0.7866081682849E-02  0.0000000000000E+00 -0.8980894495626E-03
 0.1380460433721E-02 -0.7742544582169E-02  0.0000000000000E+00 -0.1019960913334E-02
 0.1294328544913E-02 -0.7602367265993E-02  0.0000000000000E+00 -0.1121184924720E-02
 0.1210324614297E-02 -0.7444525314863E-02  0.0000000000000E+00 -0.1192098470840E-02
 0.1133477460986E-02 -0.7268197823975E-02  0.0000000000000E+00 -0.1220857812563E-02
 0.1070610081599E-02 -0.7073027299086E-02  0.0000000000000E+00 -0.1192834748929E-02
 0.1031270708269E-02 -0.6859789445553E-02  0.0000000000000E+00 -0.1090173623257E-02
 0.1029141001808E-02 -0.6631537310810E-02  0.0000000000000E+00 -0.8918870164442E-03
 0.1083940612240E-02 -0.6395277232206E-02  0.0000000000000E+00 -0.5750971854258E-03
 0.1223699950562E-02 -0.6164166805768E-02  0.0000000000000E+00 -0.1184405482830E-03
 0.1486924019379E-02 -0.5959755707224E-02  0.0000000000000E+00  0.4911005065725E-03
 0.1923410985356E-02 -0.5813521907488E-02  0.0000000000000E+00  0.1246106880598E-02
 0.2590803174794E-02 -0.5765936358991E-02  0.0000000000000E+00  0.2099836382217E-02
 0.3542750553741E-02 -0.5859026030832E-02  0.0000000000000E+00  0.2944666590976E-02
 0.4806008076530E-02 -0.6119332975463E-02  0.0000000000000E+00  0.3600810419564E-02
 0.6350372126400E-02 -0.6534076100612E-02  0.0000000000000E+00  0.3834762975653E-02
 0.8063066538922E-02 -0.7031075332954E-02  0.0000000000000E+00  0.3424844517856E-02
 0.9757826360426E-02 -0.7479783739761E-02  0.0000000000000E+00  0.2225790447764E-02
 0.1708075216822E-03 -0.8151406039582E-02  0.0000000000000E+00  0.1652001535397E-02
 0.5167047098962E-03 -0.8357799921536E-02  0.0000000000000E+00  0.1837915609522E-02
 0.8544496194135E-03 -0.8547026983050E-02  0.0000000000000E+00  0.1889296089119E-02
 0.1158141741031E-02 -0.8701961702918E-02  0.0000000000000E+00  0.1827154934826E-02
 0.1411910937128E-02 -0.8814172661125E-02  0.0000000000000E+00  0.1688115798655E-02
 0.1611432466651E-02 -0.8884308132880E-02  0.0000000000000E+00  0.1509594992578E-02
 0.1760695180801E-02 -0.8918830583565E-02  0.0000000000000E+00  0.1320273836050E-02
 0.1867653029821E-02 -0.8926232334689E-02  0.0000000000000E+00  0.1137635900116E-02
 0.1940979233453E-02 -0.8914498214165E-02  0.0000000000000E+00  0.9698288791489E-03
 0.1988369567384E-02 -0.8890008166912E-02  0.0000000000000E+00  0.8187952684935E-03
 0.2015973437956E-02 -0.8857377064657E-02  0.0000000000000E+00  0.6829934068909E-03
 0.2028413731845E-02 -0.8819709323425E-02  0.0000000000000E+00  0.5592420950374E-03
 0.2029027232352E-02 -0.8778950014493E-02  0.0000000000000E+00  0.4438011214188E-03
 0.2020139126336E-02 -0.8736193796101E-02  0.0000000000000E+00  0.3329423859653E-03
 0.2003299380765E-02 -0.8691912659280E-02  0.0000000000000E+00  0.2232293745689E-03
 0.1979464306582E-02 -0.8646104781304E-02  0.0000000000000E+00  0.1116515097108E-03
 0.1949129237316E-02 -0.8598379487298E-02  0.0000000000000E+00 -0.4295976045288E-05
 0.1912428462355E-02 -0.8547997571410E-02  0.0000000000000E+00 -0.1265273384109E-03
 0.1869219792374E-02 -0.8493882316418E-02  0.0000000000000E+00 -0.2562504792387E-03
 0.1819178860257E-02 -0.8434624451298E-02  0.0000000000000E+00 -0.3938003107275E-03
 0.1761925514372E-02 -0.8368501409728E-02  0.0000000000000E+00 -0.5384307959740E-03
 0.1697193527406E-02 -0.8293522519712E-02  0.0000000000000E+00 -0.6881128961885E-03
 0.1625037202231E-02 -0.8207500952664E-02  0.0000000000000E+00 -0.8393834003926E-03
 0.1546055190840E-02 -0.8108174965759E-02  0.0000000000000E+00 -0.9872913468018E-03
 0.1461647100507E-02 -0.7993530629621E-02  0.0000000000000E+00 -0.1125482629274E-02
 0.1374156723912E-02 -0.7861945007896E-02  0.0000000000000E+00 -0.1246246654621E-02
 0.1286885709964E-02 -0.7711939734602E-02  0.0000000000000E+00 -0.1340216261529E-02
 0.1204250609204E-02 -0.7542039188179E-02  0.0000000000000E+00 -0.1395752095764E-02
 0.1132269725478E-02 -0.7350961741677E-02  0.0000000000000E+00 -0.1398150436424E-02
 0.1079503209199E-02 -0.7138240067569E-02  0.0000000000000E+00 -0.1328904172364E-02
 0.1058547648967E-02 -0.6905356723213E-02  0.0000000000000E+00 -0.1165367385268E-02
 0.1088173303410E-02 -0.6657508303438E-02  0.0000000000000E+00 -0.8814021932543E-03
 0.1196104019506E-02 -0.6406108239403E-02  0.0000000000000E+00 -0.4500778569821E-03
 0.1422127559994E-02 -0.6171702412213E-02  0.0000000000000E+00  0.1500298354865E-03
 0.1820397762219E-02 -0.5986723130677E-02  0.0000000000000E+00  0.9223004326138E-03
 0.2457654470134E-02 -0.5896206594318E-02  0.0000000000000E+00  0.1830177123080E-02
 0.3401833545811E-02 -0.5951325262722E-02  0.0000000000000E+00  0.2768676832646E-02
 0.4696148142050E-02 -0.6190530524457E-02  0.0000000000000E+00  0.3543331277523E-02
 0.6320241683364E-02 -0.6609312067886E-02  0.0000000000000E+00  0.3883111049504E-02
 0.8155526922894E-02 -0.7131258656464E-02  0.0000000000000E+00  0.3509747375128E-02
 0.9995959098511E-02 -0.7614332357806E-02  0.0000000000000E+00  0.2243644093872E-02
 0.1822948933514E-03 -0.8341517265046E-02  0.0000000000000E+00  0.1780930684683E-02
 0.5514896858377E-03 -0.8560808024688E-02  0.0000000000000E+00  0.1957516133579E-02
 0.9103444315767E-03 -0.8759617421092E-02  0.0000000000000E+00  0.1985495621270E-02
 0.1228902265046E-02 -0.8918464506343E-02  0.0000000000000E+00  0.1891708618838E-02
 0.1490209092522E-02 -0.9028992964615E-02  0.0000000000000E+00  0.1720520865957E-02
 0.1691306984961E-02 -0.9093673681679E-02  0.0000000000000E+00  0.1514897964130E-02
 0.1838465872213E-02 -0.9121173681053E-02  0.0000000000000E+00  0.1305668579949E-02
 0.1941679195381E-02 -0.9121674974090E-02  0.0000000000000E+00  0.1109975572142E-02
 0.2010994456375E-02 -0.9104119493363E-02  0.0000000000000E+00  0.9345150456123E-03
 0.2054862147782E-02 -0.9075272416790E-02  0.0000000000000E+00  0.7796185483605E-03
 0.2079765503459E-02 -0.9039802392524E-02  0.0000000000000E+00  0.6423956190008E-03
 0.2090423644782E-02 -0.9000720322631E-02  0.0000000000000E+00  0.5186678298304E-03
 0.2090154116973E-02 -0.8959838044420E-02  0.0000000000000E+00  0.4039981903018E-03
 0.2081215927057E-02 -0.8918129293311E-02  0.0000000000000E+00  0.2941763104018E-03
 0.2065079277172E-02 -0.8875977327416E-02  0.0000000000000E+00  0.1854182163737E-03
 0.2042619739705E-02 -0.8833326817155E-02  0.0000000000000E+00  0.7443747462740E-04
 0.2014251431088E-02 -0.8789762994124E-02  0.0000000000000E+00 -0.4152227864820E-04
 0.1980019844012E-02 -0.8744540584703E-02  0.0000000000000E+00 -0.1646361445430E-03
 0.1939674709459E-02 -0.8696579532317E-02  0.0000000000000E+00 -0.2964018776750E-03
 0.1892751118352E-02 -0.8644452090332E-02  0.0000000000000E+00 -0.4374773913269E-03
 0.1838686252198E-02 -0.8586384909465E-02  0.0000000000000E+00 -0.5874604937449E-03
 0.1776988642534E-02 -0.8520292757861E-02  0.0000000000000E+00 -0.7446647675230E-03
 0.1707454545477E-02 -0.8443846359972E-02  0.0000000000000E+00 -0.9059532169800E-03
 0.1630404196271E-02 -0.8354594351845E-02  0.0000000000000E+00 -0.1066693749086E-02
 0.1546942320440E-02 -0.8250292546671E-02  0.0000000000000E+00 -0.1220873270857E-02
 0.1459073938015E-02 -0.8129027739965E-02  0.0000000000000E+00 -0.1361176977894E-02
 0.1369654020886E-02 -0.7988905169481E-02  0.0000000000000E+00 -0.1478687883978E-02
 0.1282471850173E-02 -0.7827822112707E-02  0.0000000000000E+00 -0.1562189804877E-02
 0.1202682997387E-02 -0.7643575276849E-02  0.0000000000000E+00 -0.1597194876536E-02
 0.1137731335401E-02 -0.7434405968922E-02  0.0000000000000E+00 -0.1564911456372E-02
 0.1098888609243E-02 -0.7200081885175E-02  0.0000000000000E+00 -0.1441460196606E-02
 0.1103567097552E-02 -0.6943677291174E-02  0.0000000000000E+00 -0.1197843798237E-02
 0.1178557535047E-02 -0.6674292933517E-02  0.0000000000000E+00 -0.8017110835393E-03
 0.1364122723239E-02 -0.6410600695582E-02  0.0000000000000E+00 -0.2226571999034E-03
 0.1718073179534E-02 -0.6184961765984E-02  0.0000000000000E+00  0.5554680986949E-03
 0.2316377185279E-02 -0.6046353907602E-02  0.0000000000000E+00  0.1510123549931E-02
 0.3243313457783E-02 -0.6055845803802E-02  0.0000000000000E+00  0.2543771808402E-02
 0.4562966228383E-02 -0.6266627286605E-02  0.0000000000000E+00  0.3449940297580E-02
 0.6270524223421E-02 -0.6686367557250E-02  0.0000000000000E+00  0.3914780219308E-02
 0.8243808611555E-02 -0.7237660661432E-02  0.0000000000000E+00  0.3593342137148E-02
 0.1024586591127E-01 -0.7758734303856E-02  0.0000000000000E+00  0.2260942862085E-02
 0.1951008056970E-03 -0.8535907637491E-02  0.0000000000000E+00  0.1918291831733E-02
 0.5902006508017E-03 -0.8769312267147E-02  0.0000000000000E+00  0.2083680007929E-02
 0.9720359206696E-03 -0.8978022976874E-02  0.0000000000000E+00  0.2084007527686E-02
 0.1305819528641E-02 -0.9139863709191E-02  0.0000000000000E+00  0.1953870348518E-02
 0.1573734314358E-02 -0.9246975742324E-02  0.0000000000000E+00  0.1747202309460E-02
 0.1774897555640E-02 -0.9304342975368E-02  0.0000000000000E+00  0.1513121355287E-02
 0.1918466840510E-02 -0.9323315371555E-02  0.0000000000000E+00  0.1284214616218E-02
 0.2016769652043E-02 -0.9315916922140E-02  0.0000000000000E+00  0.1076586995027E-02
 0.2081278281493E-02 -0.9291989090932E-02  0.0000000000000E+00  0.8949181354400E-03
 0.2121135161902E-02 -0.9258554344906E-02  0.0000000000000E+00  0.7376068182682E-03
 0.2143070078077E-02 -0.9220215551266E-02  0.0000000000000E+00  0.6002811041347E-03
 0.2151824495854E-02 -0.9179803857217E-02  0.0000000000000E+00  0.4777401406111E-03
 0.2150644951523E-02 -0.9138944232171E-02  0.0000000000000E+00  0.3648741616541E-03
 0.2141692342985E-02 -0.9098460757932E-02  0.0000000000000E+00  0.2570317199466E-03
 0.2126340453191E-02 -0.9058636889257E-02  0.0000000000000E+00  0.1501245741943E-03
 0.2105378789072E-02 -0.9019365378224E-02  0.0000000000000E+00  0.4062868574123E-04
 0.2079143364473E-02 -0.8980218625071E-02  0.0000000000000E+00 -0.7443418754680E-04
 0.2047600130985E-02 -0.8940464413415E-02  0.0000000000000E+00 -0.1974817541746E-03
 0.2010403684285E-02 -0.8899044698197E-02  0.0000000000000E+00 -0.3302979005666E-03
 0.1966962092373E-02 -0.8854542504726E-02  0.0000000000000E+00 -0.4738765063034E-03
 0.1916540704066E-02 -0.8805163817587E-02  0.0000000000000E+00 -0.6281879277176E-03
 0.1858429549439E-02 -0.8748757575213E-02  0.0000000000000E+00 -0.7919274582111E-03
 0.1792172129564E-02 -0.8682880048462E-02  0.0000000000000E+00 -0.9623274684797E-03
 0.1717820157077E-02 -0.8604921385411E-02  0.0000000000000E+00 -0.1135122321694E-02
 0.1636202537733E-02 -0.8512445618983E-02  0.0000000000000E+00 -0.1304702747260E-02
 0.1549011284159E-02 -0.8403296038388E-02  0.0000000000000E+00 -0.1464247078403E-02
 0.1458676393885E-02 -0.8275212622270E-02  0.0000000000000E+00 -0.1605441726943E-02
 0.1368361679709E-02 -0.8125512967417E-02  0.0000000000000E+00 -0.1717718872438E-02
 0.1282322897246E-02 -0.7951103297288E-02  0.0000000000000E+00 -0.1787117849771E-02
 0.1206784658265E-02 -0.7748925486663E-02  0.0000000000000E+00 -0.1794976832887E-02
 0.1151478531471E-02 -0.7516938605913E-02  0.0000000000000E+00 -0.1716709345359E-02
 0.1132054819855E-02 -0.7255829350319E-02  0.0000000000000E+00 -0.1521052172763E-02
 0.1173683921018E-02 -0.6971820956488E-02  0.0000000000000E+00 -0.1170692604483E-02
 0.1316096026032E-02 -0.6680721420962E-02  0.0000000000000E+00 -0.6260564439542E-03
 0.1619655590247E-02 -0.6413456492327E-02  0.0000000000000E+00  0.1435338453232E-03
 0.2169181596165E-02 -0.6221772916628E-02  0.0000000000000E+00  0.1133827449229E-02
 0.3067119980117E-02 -0.6176945706452E-02  0.0000000000000E+00  0.2261179346539E-02
 0.4403728160872E-02 -0.6350000930832E-02  0.0000000000000E+00  0.3311876586466E-02
 0.6197265865024E-02 -0.6766321283247E-02  0.0000000000000E+00  0.3925687745087E-02
 0.8325112391008E-02 -0.7350537032300E-02  0.0000000000000E+00  0.3676711974214E-02
 0.1051010189373E-01 -0.7914765576311E-02  0.0000000000000E+00  0.2275649463464E-02
 0.2094948226343E-03 -0.8735376336692E-02  0.0000000000000E+00  0.2064974784845E-02
 0.6336017216906E-03 -0.8984288059938E-02  0.0000000000000E+00  0.2216747657929E-02
 0.1040494657471E-02 -0.9203092223050E-02  0.0000000000000E+00  0.2184108508787E-02
 0.1389643871541E-02 -0.9366573704383E-02  0.0000000000000E+00  0.2012075805531E-02
 0.1662808759841E-02 -0.9468039701205E-02  0.0000000000000E+00  0.1766394961090E-02
 0.1862149442963E-02 -0.9515892417965E-02  0.0000000000000E+00  0.1502812514502E-02
 0.2000426135741E-02 -0.9524692768850E-02  0.0000000000000E+00  0.1254956769740E-02
 0.2092576382936E-02 -0.9508399341540E-02  0.0000000000000E+00  0.1036962624450E-02
 0.2151488291928E-02 -0.9477617883268E-02  0.0000000000000E+00  0.8508454237535E-03
 0.2186884250920E-02 -0.9439447796045E-02  0.0000000000000E+00  0.6927571708277E-03
 0.2205625507724E-02 -0.9398281675498E-02  0.0000000000000E+00  0.5567479090265E-03
 0.2212389798532E-02 -0.9356676427095E-02  0.0000000000000E+00  0.4366036232909E-03
 0.2210296987149E-02 -0.9316015863090E-02  0.0000000000000E+00  0.3265909958452E-03
 0.2201377705081E-02 -0.9276947698606E-02  0.0000000000000E+00  0.2216757461467E-03
 0.2186893834108E-02 -0.9239647080430E-02  0.0000000000000E+00  0.1175200842275E-03
 0.2167545170596E-02 -0.9203958865810E-02  0.0000000000000E+00  0.1040910609615E-04
 0.2143594767786E-02 -0.9169456237692E-02  0.0000000000000E+00 -0.1028204944011E-03
 0.2114940847802E-02 -0.9135441848544E-02  0.0000000000000E+00 -0.2248043482096E-03
 0.2081159091152E-02 -0.9100908531502E-02  0.0000000000000E+00 -0.3576032060514E-03
 0.2041547864031E-02 -0.9064483851100E-02  0.0000000000000E+00 -0.5025562741514E-03
 0.1995215033944E-02 -0.9024388256414E-02  0.0000000000000E+00 -0.6600343380573E-03
 0.1941241122160E-02 -0.8978438075373E-02  0.0000000000000E+00 -0.8291545244046E-03
 0.1878923243524E-02 -0.8924106555882E-02  0.0000000000000E+00 -0.1007561512091E-02
 0.1808056307606E-02 -0.8858659766156E-02  0.0000000000000E+00 -0.1191399363383E-02
 0.1729217576050E-02 -0.8779513340906E-02  0.0000000000000E+00 -0.1375517272859E-02
 0.1643821446813E-02 -0.8684322006286E-02  0.0000000000000E+00 -0.1553675326981E-02
 0.1553908542571E-02 -0.8570524546212E-02  0.0000000000000E+00 -0.1718310515871E-02
 0.1462037211392E-02 -0.8434926249968E-02  0.0000000000000E+00 -0.1859727454760E-02
 0.1371550595603E-02 -0.8273605052050E-02  0.0000000000000E+00 -0.1964812628654E-02
 0.1287384018136E-02 -0.8082242679180E-02  0.0000000000000E+00 -0.2015480590782E-02
 0.1217554046847E-02 -0.7856962841483E-02  0.0000000000000E+00 -0.1987050351409E-02
 0.1175577826318E-02 -0.7595878733134E-02  0.0000000000000E+00 -0.1846779047332E-02
 0.1184295605314E-02 -0.7301825496129E-02  0.0000000000000E+00 -0.1553213325278E-02
 0.1281719498015E-02 -0.6986690746846E-02  0.0000000000000E+00 -0.1057958617994E-02
 0.1529207288556E-02 -0.6678256464519E-02  0.0000000000000E+00 -0.3145506067894E-03
 0.2019317886038E-02 -0.6429158060081E-02  0.0000000000000E+00  0.6955297255003E-03
 0.2873958329358E-02 -0.6320404343087E-02  0.0000000000000E+00  0.1910723300360E-02
 0.4215557850064E-02 -0.6444055108234E-02  0.0000000000000E+00  0.3118156516556E-02
 0.6095384569770E-02 -0.6850210030022E-02  0.0000000000000E+00  0.3909764655628E-02
 0.8396113149517E-02 -0.7470287411364E-02  0.0000000000000E+00  0.3759972251708E-02
 0.1079154713163E-01 -0.8084378622656E-02  0.0000000000000E+00  0.2286581087641E-02
 0.2258271260888E-03 -0.8940937368348E-02  0.0000000000000E+00  0.2222027926997E-02
 0.6826655694865E-03 -0.9206951013936E-02  0.0000000000000E+00  0.2357008485932E-02
 0.1116897771402E-02 -0.9435817478649E-02  0.0000000000000E+00  0.2284701285167E-02
 0.1481199723541E-02 -0.9598981613856E-02  0.0000000000000E+00  0.2064262179582E-02
 0.1757694198160E-02 -0.9691952924686E-02  0.0000000000000E+00  0.1775959387305E-02
 0.1952888513295E-02 -0.9727720771887E-02  0.0000000000000E+00  0.1482355179368E-02
 0.2083959025431E-02 -0.9724601877820E-02  0.0000000000000E+00  0.1216935608337E-02
 0.2168671560329E-02 -0.9698474510677E-02  0.0000000000000E+00  0.9906655869775E-03
 0.2221234777040E-02 -0.9660470078596E-02  0.0000000000000E+00  0.8021907614023E-03
 0.2251780885992E-02 -0.9617527009341E-02  0.0000000000000E+00  0.6451416392269E-03
 0.2267159986337E-02 -0.9573661411679E-02  0.0000000000000E+00  0.5119488734656E-03
 0.2271890443845E-02 -0.9531057419944E-02  0.0000000000000E+00  0.3954372326159E-03
 0.2268908197600E-02 -0.9490805796833E-02  0.0000000000000E+00  0.2893269168303E-03
 0.2260082735134E-02 -0.9453355023537E-02  0.0000000000000E+00  0.1882763479947E-03
 0.2246550558760E-02 -0.9418766932543E-02  0.0000000000000E+00  0.8776400470903E-04
 0.2228920145197E-02 -0.9386845274094E-02  0.0000000000000E+00 -0.1606111619720E-04
 0.2207388821359E-02 -0.9357179928279E-02  0.0000000000000E+00 -0.1265035930751E-03
 0.2181801426586E-02 -0.9329132701238E-02  0.0000000000000E+00 -0.2463853996410E-03
 0.2151674352637E-02 -0.9301779588601E-02  0.0000000000000E+00 -0.3780283280686E-03
 0.2116217841095E-02 -0.9273831274028E-02  0.0000000000000E+00 -0.5231215321676E-03
 0.2074400800991E-02 -0.9243563533861E-02  0.0000000000000E+00 -0.6824628354336E-03
 0.2025105839159E-02 -0.9208798528886E-02  0.0000000000000E+00 -0.8556330672940E-03
 0.1967390710899E-02 -0.9166961494659E-02  0.0000000000000E+00 -0.1040733131171E-02
 0.1900806086944E-02 -0.9115231415908E-02  0.0000000000000E+00 -0.1234355853161E-02
 0.1825706041887E-02 -0.9050922547396E-02  0.0000000000000E+00 -0.1431853738611E-02
 0.1743272067805E-02 -0.8971562635232E-02  0.0000000000000E+00 -0.1627645257352E-02
 0.1655204969464E-02 -0.8874364680481E-02  0.0000000000000E+00 -0.1815053977499E-02
 0.1563496362054E-02 -0.8755707902789E-02  0.0000000000000E+00 -0.1985471446377E-02
 0.1470590395635E-02 -0.8610935842962E-02  0.0000000000000E+00 -0.2126946075111E-02
 0.1380102544963E-02 -0.8434561861660E-02  0.0000000000000E+00 -0.2222426928163E-02
 0.1298216002167E-02 -0.8220929530954E-02  0.0000000000000E+00 -0.2247811383408E-02
 0.1236009074672E-02 -0.7965505881921E-02  0.0000000000000E+00 -0.2169836260004E-02
 0.1213313182257E-02 -0.7667345554370E-02  0.0000000000000E+00 -0.1944114559352E-02
 0.1265116226345E-02 -0.7333381858764E-02  0.0000000000000E+00 -0.1514467571176E-02
 0.1451731136422E-02 -0.6986251281926E-02  0.0000000000000E+00 -0.8182387514334E-03
 0.1871381097225E-02 -0.6676743779401E-02  0.0000000000000E+00  0.1900665722232E-03
 0.2665708162457E-02 -0.6493910693209E-02  0.0000000000000E+00  0.1480912519701E-02
 0.3995655323972E-02 -0.6553615163213E-02  0.0000000000000E+00  0.2854776753878E-02
 0.5958573105921E-02 -0.6939435901991E-02  0.0000000000000E+00  0.3858031896442E-02
 0.8452571766730E-02 -0.7597430447942E-02  0.0000000000000E+00  0.3842375100453E-02
 0.1109351022733E-01 -0.8270013789897E-02  0.0000000000000E+00  0.2293201857491E-02
 0.2445605062705E-03 -0.9153896499040E-02  0.0000000000000E+00  0.2390697034050E-02
 0.7386451761100E-03 -0.9438830872512E-02  0.0000000000000E+00  0.2504640361132E-02
 0.1202674365660E-02 -0.9677349683444E-02  0.0000000000000E+00  0.2384144226649E-02
 0.1581367157718E-02 -0.9837394380595E-02  0.0000000000000E+00  0.2107716515263E-02
 0.1858540023403E-02 -0.9918260173039E-02  0.0000000000000E+00  0.1773331926990E-02
 0.2046776681066E-02 -0.9938998714190E-02  0.0000000000000E+00  0.1449999633508E-02
 0.2168545490865E-02 -0.9922177262307E-02  0.0000000000000E+00  0.1169242183893E-02
 0.2244541944162E-02 -0.9885404462715E-02  0.0000000000000E+00  0.9373754277245E-03
 0.2290083160924E-02 -0.9839969347912E-02  0.0000000000000E+00  0.7489637620996E-03
 0.2315477238040E-02 -0.9792354189908E-02  0.0000000000000E+00  0.5949233709749E-03
 0.2327396508880E-02 -0.9746017771659E-02  0.0000000000000E+00  0.4660996347065E-03
 0.2330099026027E-02 -0.9702674796381E-02  0.0000000000000E+00  0.3544575344129E-03
 0.2326280912140E-02 -0.9663077124570E-02  0.0000000000000E+00  0.2532769272522E-03
 0.2317622628605E-02 -0.9627456962620E-02  0.0000000000000E+00  0.1570011401420E-03
 0.2305124682834E-02 -0.9595762239689E-02  0.0000000000000E+00  0.6100077866891E-04
 0.2289304956684E-02 -0.9567765395122E-02  0.0000000000000E+00 -0.3864934706002E-04
 0.2270304327855E-02 -0.9543091027184E-02  0.0000000000000E+00 -0.1453447048933E-03
 0.2247930955493E-02 -0.9521186436469E-02  0.0000000000000E+00 -0.2620547689117E-03
 0.2221664964042E-02 -0.9501246163966E-02  0.0000000000000E+00 -0.3913387728466E-03
 0.2190654756157E-02 -0.9482107599136E-02  0.0000000000000E+00 -0.5352340625475E-03
 0.2153753851864E-02 -0.9462149335292E-02  0.0000000000000E+00 -0.6949899161858E-03
 0.2109661795388E-02 -0.9439244179011E-02  0.0000000000000E+00 -0.8706952755439E-03
 0.2057204338087E-02 -0.9410808436901E-02  0.0000000000000E+00 -0.1060954092624E-02
 0.1995700100199E-02 -0.9373972918120E-02  0.0000000000000E+00 -0.1262843943913E-02
 0.1925311477232E-02 -0.9325999490786E-02  0.0000000000000E+00 -0.1472254752130E-02
 0.1847040300936E-02 -0.9264354836326E-02  0.0000000000000E+00 -0.1684325192807E-02
 0.1762310445695E-02 -0.9186110230611E-02  0.0000000000000E+00 -0.1893385179933E-02
 0.1672603697141E-02 -0.9087321365578E-02  0.0000000000000E+00 -0.2092109043626E-02
 0.1579505788832E-02 -0.8962721701540E-02  0.0000000000000E+00 -0.2270000996542E-02
 0.1485325653730E-02 -0.8805802878323E-02  0.0000000000000E+00 -0.2411488839901E-02
 0.1394365222607E-02 -0.8609276978273E-02  0.0000000000000E+00 -0.2493744178418E-02
 0.1315057865659E-02 -0.8366037636528E-02  0.0000000000000E+00 -0.2484072404484E-02
 0.1263646385222E-02 -0.8071157439508E-02  0.0000000000000E+00 -0.2336729642674E-02
 0.1270766574970E-02 -0.7725733252163E-02  0.0000000000000E+00 -0.1989588265056E-02
 0.1393221782434E-02 -0.7345096007843E-02  0.0000000000000E+00 -0.1364665455541E-02
 0.1731646140192E-02 -0.6974533128159E-02  0.0000000000000E+00 -0.3863054126160E-03
 0.2445999152445E-02 -0.6707666411272E-02  0.0000000000000E+00  0.9592332221690E-03
 0.3741722871868E-02 -0.6685659163528E-02  0.0000000000000E+00  0.2503906356914E-02
 0.5779145487673E-02 -0.7036206442546E-02  0.0000000000000E+00  0.3757349675045E-02
 0.8488783695129E-02 -0.7732644867481E-02  0.0000000000000E+00  0.3922078891552E-02
 0.1141996923316E-01 -0.8474723075545E-02  0.0000000000000E+00  0.2295455640742E-02
 0.2663185239458E-03 -0.9375963731985E-02  0.0000000000000E+00  0.2572475223861E-02
 0.8031751115000E-03 -0.9681871983790E-02  0.0000000000000E+00  0.2659603546981E-02
 0.1299556483574E-02 -0.9929002609478E-02  0.0000000000000E+00  0.2479998667348E-02
 0.1691040081719E-02 -0.1008194970517E-01  0.0000000000000E+00  0.2138884322288E-02
 0.1965306826025E-02 -0.1014618233221E-01  0.0000000000000E+00  0.1755491440772E-02
 0.2143257623461E-02 -0.1014861103187E-01  0.0000000000000E+00  0.1403927186136E-02
 0.2253509037035E-02 -0.1011637614829E-01  0.0000000000000E+00  0.1111096191349E-02
 0.2319587677426E-02 -0.1006836588417E-01  0.0000000000000E+00  0.8769432230460E-03
 0.2357560007388E-02 -0.1001550934751E-01  0.0000000000000E+00  0.6913208494936E-03
 0.2377613248474E-02 -0.9963489608269E-02  0.0000000000000E+00  0.5423721186822E-03
 0.2386059067547E-02 -0.9915024355792E-02  0.0000000000000E+00  0.4194854444372E-03
 0.2386794855952E-02 -0.9871271503221E-02  0.0000000000000E+00  0.3139209101868E-03
 0.2382225842043E-02 -0.9832608226038E-02  0.0000000000000E+00  0.2186525777767E-03
 0.2373820399438E-02 -0.9799041249032E-02  0.0000000000000E+00  0.1280157730434E-03
 0.2362436117508E-02 -0.9770409263211E-02  0.0000000000000E+00  0.3735738622496E-04
 0.2348503553078E-02 -0.9746466328577E-02  0.0000000000000E+00 -0.5725423133726E-04
 0.2332118266359E-02 -0.9726891533140E-02  0.0000000000000E+00 -0.1592491731368E-03
 0.2313070410732E-02 -0.9711245403209E-02  0.0000000000000E+00 -0.2716980944958E-03
 0.2290830024402E-02 -0.9698878869298E-02  0.0000000000000E+00 -0.3973648714300E-03
 0.2264515044109E-02 -0.9688804599498E-02  0.0000000000000E+00 -0.5386245963166E-03
 0.2232893348553E-02 -0.9679559176081E-02  0.0000000000000E+00 -0.6971984946829E-03
 0.2194500658960E-02 -0.9669118961412E-02  0.0000000000000E+00 -0.8737312101175E-03
 0.2147938336053E-02 -0.9654935603545E-02  0.0000000000000E+00 -0.1067382303290E-02
 0.2092303348041E-02 -0.9634132077421E-02  0.0000000000000E+00 -0.1275749463424E-02
 0.2027599299266E-02 -0.9603966787341E-02  0.0000000000000E+00 -0.1495283607072E-02
 0.1954708809240E-02 -0.9561912353487E-02  0.0000000000000E+00 -0.1721888658255E-02
 0.1874853582493E-02 -0.9504986941191E-02  0.0000000000000E+00 -0.1950999761281E-02
 0.1789078827441E-02 -0.9429037306577E-02  0.0000000000000E+00 -0.2176741820303E-02
 0.1698178026533E-02 -0.9328338091552E-02  0.0000000000000E+00 -0.2390330783895E-02
 0.1603212226074E-02 -0.9195559637377E-02  0.0000000000000E+00 -0.2578074469263E-02
 0.1506634824292E-02 -0.9022030636210E-02  0.0000000000000E+00 -0.2719090339193E-02
 0.1414158990720E-02 -0.8798315081512E-02  0.0000000000000E+00 -0.2782402429050E-02
 0.1338033364289E-02 -0.8515565337693E-02  0.0000000000000E+00 -0.2722785760584E-02
 0.1303335157817E-02 -0.8168474982172E-02  0.0000000000000E+00 -0.2474827609575E-02
 0.1360624994929E-02 -0.7763001977871E-02  0.0000000000000E+00 -0.1947763891757E-02
 0.1608402130028E-02 -0.7334444725151E-02  0.0000000000000E+00 -0.1034673759994E-02
 0.2220998082973E-02 -0.6975137531021E-02  0.0000000000000E+00  0.3329038225627E-03
 0.3452703653840E-02 -0.6850419904634E-02  0.0000000000000E+00  0.2043114154014E-02
 0.5547897364539E-02 -0.7144223335353E-02  0.0000000000000E+00  0.3588612503089E-02
 0.8496829160745E-02 -0.7876829364437E-02  0.0000000000000E+00  0.3995401354000E-02
 0.1177582366574E-01 -0.8702364437995E-02  0.0000000000000E+00  0.2293766579967E-02
 0.2919599190191E-03 -0.9609421986971E-02  0.0000000000000E+00  0.2769166897618E-02
 0.8784161012067E-03 -0.9938570337925E-02  0.0000000000000E+00  0.2821453863429E-02
 0.1409630262611E-02 -0.1019223129910E-01  0.0000000000000E+00  0.2568652043079E-02
 0.1811044334703E-02 -0.1033246930440E-01  0.0000000000000E+00  0.2153137441999E-02
 0.2077657224834E-02 -0.1037448093294E-01  0.0000000000000E+00  0.1718966745629E-02
 0.2241494597064E-02 -0.1035509597265E-01  0.0000000000000E+00  0.1342366063856E-02
 0.2338001014355E-02 -0.1030597246906E-01  0.0000000000000E+00  0.1041951096856E-02
 0.2393127897681E-02 -0.1024646386051E-01  0.0000000000000E+00  0.8094539573349E-03
 0.2423163400607E-02 -0.1018646932816E-01  0.0000000000000E+00  0.6295959590735E-03
 0.2437826054935E-02 -0.1013050429997E-01  0.0000000000000E+00  0.4878777544925E-03
 0.2442880061233E-02 -0.1008037485959E-01  0.0000000000000E+00  0.3724660999946E-03
 0.2441769586216E-02 -0.1003661249675E-01  0.0000000000000E+00  0.2741243517744E-03
 0.2436566422721E-02 -0.9999198116862E-02  0.0000000000000E+00  0.1856808220876E-03
 0.2428510420205E-02 -0.9967913467258E-02  0.0000000000000E+00  0.1014818103210E-03
 0.2418313751308E-02 -0.9942498597959E-02  0.0000000000000E+00  0.1694051086096E-04
 0.2406325560421E-02 -0.9922705240896E-02  0.0000000000000E+00 -0.7180942874957E-04
 0.2392608735947E-02 -0.9908287972001E-02  0.0000000000000E+00 -0.1681716704316E-03
 0.2376955441140E-02 -0.9898948719997E-02  0.0000000000000E+00 -0.2752643120071E-03
 0.2358854402262E-02 -0.9894234038016E-02  0.0000000000000E+00 -0.3960123354816E-03
 0.2337429723758E-02 -0.9893385006255E-02  0.0000000000000E+00 -0.5331062887894E-03
 0.2311400954176E-02 -0.9895160175304E-02  0.0000000000000E+00 -0.6887528693159E-03
 0.2279165443320E-02 -0.9897702979713E-02  0.0000000000000E+00 -0.8642032187561E-03
 0.2239108492444E-02 -0.9898552015628E-02  0.0000000000000E+00 -0.1059234607096E-02
 0.2190112534716E-02 -0.9894864254490E-02  0.0000000000000E+00 -0.1272003951064E-02
 0.2132054509657E-02 -0.9883941113886E-02  0.0000000000000E+00 -0.1499538259684E-02
 0.2065763462956E-02 -0.9863324812233E-02  0.0000000000000E+00 -0.1738534462754E-02
 0.1992343070112E-02 -0.9830067706469E-02  0.0000000000000E+00 -0.1985607013155E-02
 0.1912488306845E-02 -0.9779928080538E-02  0.0000000000000E+00 -0.2236461460315E-02
 0.1826288765269E-02 -0.9706894327846E-02  0.0000000000000E+00 -0.2484225734248E-02
 0.1733659602351E-02 -0.9603064851791E-02  0.0000000000000E+00 -0.2717415306819E-02
 0.1635323324128E-02 -0.9458731340865E-02  0.0000000000000E+00 -0.2917686793472E-02
 0.1534351975911E-02 -0.9262556837739E-02  0.0000000000000E+00 -0.3056903549237E-02
 0.1438840717523E-02 -0.9002158181619E-02  0.0000000000000E+00 -0.3092402935966E-02
 0.1367399972244E-02 -0.8665751899066E-02  0.0000000000000E+00 -0.2958876060010E-02
 0.1361644154204E-02 -0.8248328874044E-02  0.0000000000000E+00 -0.2557274422372E-02
 0.1512209691504E-02 -0.7770270061241E-02  0.0000000000000E+00 -0.1751711488994E-02
 0.2000426420839E-02 -0.7313910595607E-02  0.0000000000000E+00 -0.4095712880272E-03
 0.3130010459522E-02 -0.7063006520083E-02  0.0000000000000E+00  0.1444852362227E-02
 0.5254128253887E-02 -0.7269859108566E-02  0.0000000000000E+00  0.3324106595812E-02
 0.8465492849716E-02 -0.8031275908657E-02  0.0000000000000E+00  0.4055301932450E-02
 0.1216722978606E-01 -0.8957906971006E-02  0.0000000000000E+00  0.2289137230038E-02
 0.3226968227141E-03 -0.9857387491221E-02  0.0000000000000E+00  0.2982968065587E-02
 0.9672633749353E-03 -0.1021215998005E-01  0.0000000000000E+00  0.2989009931364E-02
 0.1535373237780E-02 -0.1046855419934E-01  0.0000000000000E+00  0.2644754131666E-02
 0.1941988566510E-02 -0.1058822133356E-01  0.0000000000000E+00  0.2144513599146E-02
 0.2194805484022E-02 -0.1060128300783E-01  0.0000000000000E+00  0.1659926887715E-02
 0.2340306464231E-02 -0.1055659221974E-01  0.0000000000000E+00  0.1263779550470E-02
 0.2420996931148E-02 -0.1048956864138E-01  0.0000000000000E+00  0.9616260866194E-03
 0.2464415754030E-02 -0.1041875691078E-01  0.0000000000000E+00  0.7352913860053E-03
 0.2486378219611E-02 -0.1035223516183E-01  0.0000000000000E+00  0.5643279255630E-03
 0.2495761767473E-02 -0.1029299528890E-01  0.0000000000000E+00  0.4319603555746E-03
 0.2497608816488E-02 -0.1024179372597E-01  0.0000000000000E+00  0.3254782500252E-03
 0.2494833339773E-02 -0.1019849225686E-01  0.0000000000000E+00  0.2354044884587E-03
 0.2489143386486E-02 -0.1016267200783E-01  0.0000000000000E+00  0.1546018036230E-03
 0.2481542096434E-02 -0.1013390152286E-01  0.0000000000000E+00  0.7755406095847E-04
 0.2472598713434E-02 -0.1011183918047E-01  0.0000000000000E+00 -0.1664436637405E-06
 0.2462589489685E-02 -0.1009625337930E-01  0.0000000000000E+00 -0.8228720441461E-04
 0.2451558312132E-02 -0.1008699573166E-01  0.0000000000000E+00 -0.1721211107378E-03
 0.2439319811105E-02 -0.1008393696547E-01  0.0000000000000E+00 -0.2727730370340E-03
 0.2425411745402E-02 -0.1008685824962E-01  0.0000000000000E+00 -0.3872733550498E-03
 0.2409006028580E-02 -0.1009528564968E-01  0.0000000000000E+00 -0.5185898471214E-03
 0.2388820301522E-02 -0.1010827342943E-01  0.0000000000000E+00 -0.6694161987157E-03
 0.2363147990504E-02 -0.1012420970461E-01  0.0000000000000E+00 -0.8416626222615E-03
 0.2330168815223E-02 -0.1014078277049E-01  0.0000000000000E+00 -0.1035800422277E-02
 0.2288553184579E-02 -0.1015522809561E-01  0.0000000000000E+00 -0.1250595676431E-02
 0.2238080126471E-02 -0.1016493158264E-01  0.0000000000000E+00 -0.1483663081069E-02
 0.2179593057469E-02 -0.1016755935098E-01  0.0000000000000E+00 -0.1732504955859E-02
 0.2114167277308E-02 -0.1016027565262E-01  0.0000000000000E+00 -0.1994961478742E-02
 0.2042242079656E-02 -0.1013886823002E-01  0.0000000000000E+00 -0.2268400998408E-02
 0.1963308436301E-02 -0.1009722562266E-01  0.0000000000000E+00 -0.2547989805902E-02
 0.1876275335558E-02 -0.1002716434422E-01  0.0000000000000E+00 -0.2824675170195E-02
 0.1780333809783E-02 -0.9918374195026E-02  0.0000000000000E+00 -0.3083111630356E-02
 0.1676159307401E-02 -0.9758228781942E-02  0.0000000000000E+00 -0.3298986966195E-02
 0.1567835099381E-02 -0.9531549566994E-02  0.0000000000000E+00 -0.3434226642826E-02
 0.1467075927835E-02 -0.9220649447766E-02  0.0000000000000E+00 -0.3427467306638E-02
 0.1404319694952E-02 -0.8808913096536E-02  0.0000000000000E+00 -0.3177775536253E-02
 0.1455938810527E-02 -0.8297262474107E-02  0.0000000000000E+00 -0.2527334347043E-02
 0.1798770467427E-02 -0.7746510992100E-02  0.0000000000000E+00 -0.1275563780499E-02
 0.2779512292854E-02 -0.7345735654002E-02  0.0000000000000E+00  0.6767103311423E-03
 0.4886106550060E-02 -0.7424242774575E-02  0.0000000000000E+00  0.2923757400222E-02
 0.8378685793611E-02 -0.8198122302783E-02  0.0000000000000E+00  0.4088491310603E-02
 0.1260204689743E-01 -0.9247944239614E-02  0.0000000000000E+00  0.2283314844431E-02
 0.3602883356694E-03 -0.1012422524201E-01  0.0000000000000E+00  0.3216562103807E-02
 0.1073648823415E-02 -0.1050686267215E-01  0.0000000000000E+00  0.3159750670492E-02
 0.1679645064684E-02 -0.1075935752029E-01  0.0000000000000E+00  0.2700375213544E-02
 0.2084005034407E-02 -0.1084754267343E-01  0.0000000000000E+00  0.2105472870922E-02
 0.2315321083271E-02 -0.1082387050164E-01  0.0000000000000E+00  0.1574424394578E-02
 0.2438115682325E-02 -0.1075081363229E-01  0.0000000000000E+00  0.1167146626515E-02
 0.2501313494682E-02 -0.1066563435391E-01  0.0000000000000E+00  0.8704567890027E-03
 0.2532664825162E-02 -0.1058429458584E-01  0.0000000000000E+00  0.6551975377510E-03
 0.2546696280104E-02 -0.1051222548944E-01  0.0000000000000E+00  0.4962812335628E-03
 0.2551089371773E-02 -0.1045060298915E-01  0.0000000000000E+00  0.3752753725527E-03
 0.2550020991671E-02 -0.1039904761900E-01  0.0000000000000E+00  0.2790343525399E-03
 0.2545821154056E-02 -0.1035674254295E-01  0.0000000000000E+00  0.1981345430576E-03
 0.2539819427508E-02 -0.1032288689164E-01  0.0000000000000E+00  0.1256654620866E-03
 0.2532783568574E-02 -0.1029686008650E-01  0.0000000000000E+00  0.5637735284886E-04
 0.2525147690562E-02 -0.1027826231103E-01  0.0000000000000E+00 -0.1390642876065E-04
 0.2517126103121E-02 -0.1026690022313E-01  0.0000000000000E+00 -0.8870173639558E-04
 0.2508757775619E-02 -0.1026274378150E-01  0.0000000000000E+00 -0.1711650070506E-03
 0.2499899553109E-02 -0.1026585767697E-01  0.0000000000000E+00 -0.2643214248712E-03
 0.2490168540416E-02 -0.1027629417409E-01  0.0000000000000E+00 -0.3712379026007E-03
 0.2478830091398E-02 -0.1029392211230E-01  0.0000000000000E+00 -0.4951004213205E-03
 0.2464656914066E-02 -0.1031817526839E-01  0.0000000000000E+00 -0.6390712736790E-03
 0.2445885978667E-02 -0.1034778270339E-01  0.0000000000000E+00 -0.8057697256950E-03
 0.2420507133171E-02 -0.1038066270085E-01  0.0000000000000E+00 -0.9964567130303E-03
 0.2386975994653E-02 -0.1041417974537E-01  0.0000000000000E+00 -0.1210578997399E-02
 0.2344996052157E-02 -0.1044583827289E-01  0.0000000000000E+00 -0.1446356686203E-02
 0.2295491262962E-02 -0.1047346501171E-01  0.0000000000000E+00 -0.1702100379447E-02
 0.2239597869535E-02 -0.1049439243928E-01  0.0000000000000E+00 -0.1976893288488E-02
 0.2177595416697E-02 -0.1050454204315E-01  0.0000000000000E+00 -0.2269789085518E-02
 0.2108491734369E-02 -0.1049789410201E-01  0.0000000000000E+00 -0.2578025794719E-02
 0.2030358523097E-02 -0.1046630365597E-01  0.0000000000000E+00 -0.2895076834484E-02
 0.1941124933046E-02 -0.1039936430616E-01  0.0000000000000E+00 -0.3208867782952E-02
 0.1839474740790E-02 -0.1028393265897E-01  0.0000000000000E+00 -0.3499648027049E-02
 0.1725946960964E-02 -0.1010312572858E-01  0.0000000000000E+00 -0.3735719358472E-02
 0.1605548320246E-02 -0.9834655586658E-02  0.0000000000000E+00 -0.3863528452012E-02
 0.1496311675507E-02 -0.9451093078342E-02  0.0000000000000E+00 -0.3787983219210E-02
 0.1454354086969E-02 -0.8931099495528E-02  0.0000000000000E+00 -0.3341873194850E-02
 0.1636507887505E-02 -0.8300841181373E-02  0.0000000000000E+00 -0.2263560531556E-02
 0.2414631621252E-02 -0.7731340014092E-02  0.0000000000000E+00 -0.2964832904760E-03
 0.4432543104089E-02 -0.7626988888808E-02  0.0000000000000E+00  0.2330123425808E-02
 0.8213160548122E-02 -0.8381472421801E-02  0.0000000000000E+00  0.4070001015846E-02
 0.1309042675632E-01 -0.9581613855668E-02  0.0000000000000E+00  0.2278893725518E-02
 0.4073680185435E-03 -0.1041623771555E-01  0.0000000000000E+00  0.3473217789415E-02
 0.1202979096352E-02 -0.1082820770163E-01  0.0000000000000E+00  0.3328700767265E-02
 0.1845559079178E-02 -0.1106545770327E-01  0.0000000000000E+00  0.2723763124573E-02
 0.2236315651777E-02 -0.1110725363852E-01  0.0000000000000E+00  0.2026790790593E-02
 0.2436894727910E-02 -0.1103846256593E-01  0.0000000000000E+00  0.1458899844350E-02
 0.2532934251560E-02 -0.1093508551700E-01  0.0000000000000E+00  0.1052342145922E-02
 0.2577655913571E-02 -0.1083258023136E-01  0.0000000000000E+00  0.7694434049826E-03
 0.2597087174855E-02 -0.1074216666982E-01  0.0000000000000E+00  0.5703170242172E-03
 0.2603640728959E-02 -0.1066592223342E-01  0.0000000000000E+00  0.4264570826680E-03
 0.2603516364842E-02 -0.1060303025510E-01  0.0000000000000E+00  0.3186123606988E-03
 0.2599928527726E-02 -0.1055195730168E-01  0.0000000000000E+00  0.2337176312660E-03
 0.2594599516629E-02 -0.1051124014296E-01  0.0000000000000E+00  0.1627189823261E-03
 0.2588483814622E-02 -0.1047973700147E-01  0.0000000000000E+00  0.9912687627822E-04
 0.2582125338996E-02 -0.1045667490878E-01  0.0000000000000E+00  0.3808274683142E-04
 0.2575836216470E-02 -0.1044162561238E-01  0.0000000000000E+00 -0.2425186260949E-04
 0.2569781868003E-02 -0.1043445770294E-01  0.0000000000000E+00 -0.9111200910653E-04
 0.2564010160626E-02 -0.1043527971725E-01  0.0000000000000E+00 -0.1654329960767E-03
 0.2558437872306E-02 -0.1044437168640E-01  0.0000000000000E+00 -0.2500899948180E-03
 0.2552789492909E-02 -0.1046208804044E-01  0.0000000000000E+00 -0.3481046420107E-03
 0.2546471183659E-02 -0.1048869556578E-01  0.0000000000000E+00 -0.4627961774102E-03
 0.2538378982020E-02 -0.1052410007661E-01  0.0000000000000E+00 -0.5977456094916E-03
 0.2526759334845E-02 -0.1056749192153E-01  0.0000000000000E+00 -0.7563188656414E-03
 0.2509438960919E-02 -0.1061712752002E-01  0.0000000000000E+00 -0.9406853485712E-03
 0.2484651563670E-02 -0.1067056429644E-01  0.0000000000000E+00 -0.1151081377257E-02
 0.2452037924601E-02 -0.1072545025545E-01  0.0000000000000E+00 -0.1386373516475E-02
 0.2412661089630E-02 -0.1077978028179E-01  0.0000000000000E+00 -0.1645686510448E-02
 0.2367798309811E-02 -0.1083107294026E-01  0.0000000000000E+00 -0.1929335091695E-02
 0.2317657378895E-02 -0.1087545948315E-01  0.0000000000000E+00 -0.2238005811192E-02
 0.2260881387070E-02 -0.1090720004029E-01  0.0000000000000E+00 -0.2570926758025E-02
 0.2194893150927E-02 -0.1091852920808E-01  0.0000000000000E+00 -0.2924041394816E-02
 0.2116679805036E-02 -0.1089949575653E-01  0.0000000000000E+00 -0.3288597708797E-02
 0.2023473865131E-02 -0.1083732740398E-01  0.0000000000000E+00 -0.3649790661809E-02
 0.1913054158790E-02 -0.1071483124377E-01  0.0000000000000E+00 -0.3983616085808E-02
 0.1784568067889E-02 -0.1050712762879E-01  0.0000000000000E+00 -0.4247712159683E-02
 0.1643862984700E-02 -0.1017847212841E-01  0.0000000000000E+00 -0.4360696113485E-02
 0.1522916198858E-02 -0.9685914666145E-02  0.0000000000000E+00 -0.4163222817574E-02
 0.1540880149066E-02 -0.9009531522703E-02  0.0000000000000E+00 -0.3355822075336E-02
 0.2060914825968E-02 -0.8267001229855E-02  0.0000000000000E+00 -0.1506626596137E-02
 0.3886191874337E-02 -0.7912834961418E-02  0.0000000000000E+00  0.1462569203371E-02
 0.7935339708459E-02 -0.8590105427184E-02  0.0000000000000E+00  0.3953035225906E-02
 0.1364557179485E-01 -0.9972390929729E-02  0.0000000000000E+00  0.2278874304264E-02
 0.4680174757511E-03 -0.1074285909878E-01  0.0000000000000E+00  0.3756836966728E-02
 0.1362762112174E-02 -0.1118339298753E-01  0.0000000000000E+00  0.3486314187718E-02
 0.2036077136815E-02 -0.1138616939645E-01  0.0000000000000E+00  0.2697565172119E-02
 0.2396534778756E-02 -0.1136179148803E-01  0.0000000000000E+00  0.1897869211157E-02
 0.2556110331376E-02 -0.1124007427472E-01  0.0000000000000E+00  0.1311093107586E-02
 0.2622429540253E-02 -0.1110648881071E-01  0.0000000000000E+00  0.9205815401930E-03
 0.2648700956053E-02 -0.1098886584790E-01  0.0000000000000E+00  0.6603587575973E-03
 0.2656940338611E-02 -0.1089156048541E-01  0.0000000000000E+00  0.4822183278814E-03
 0.2656793775010E-02 -0.1081290456888E-01  0.0000000000000E+00  0.3560922236133E-03
 0.2652805495299E-02 -0.1075006216689E-01  0.0000000000000E+00  0.2628857116037E-03
 0.2647189660610E-02 -0.1070040936054E-01  0.0000000000000E+00  0.1901726319939E-03
 0.2641072727129E-02 -0.1066191430672E-01  0.0000000000000E+00  0.1295857336721E-03
 0.2635056777711E-02 -0.1063315893274E-01  0.0000000000000E+00  0.7524032169459E-04
 0.2629483700206E-02 -0.1061326686014E-01  0.0000000000000E+00  0.2278322932589E-04
 0.2624561832426E-02 -0.1060181680113E-01  0.0000000000000E+00 -0.3120770689796E-04
 0.2620422393808E-02 -0.1059876435894E-01  0.0000000000000E+00 -0.8962416342129E-04
 0.2617135008813E-02 -0.1060437497847E-01  0.0000000000000E+00 -0.1551192520462E-03
 0.2614690753200E-02 -0.1061916017186E-01  0.0000000000000E+00 -0.2303467880241E-03
 0.2612944473778E-02 -0.1064379892352E-01  0.0000000000000E+00 -0.3181904435482E-03
 0.2611488201079E-02 -0.1067900263075E-01  0.0000000000000E+00 -0.4219880189240E-03
 0.2609419718187E-02 -0.1072524579438E-01  0.0000000000000E+00 -0.5456420695360E-03
 0.2605086025142E-02 -0.1078232972355E-01  0.0000000000000E+00 -0.6932712278526E-03
 0.2596198584039E-02 -0.1084900106373E-01  0.0000000000000E+00 -0.8680948989171E-03
 0.2580762060343E-02 -0.1092310235860E-01  0.0000000000000E+00 -0.1071307372355E-02
 0.2558355114459E-02 -0.1100244187357E-01  0.0000000000000E+00 -0.1302515852697E-02
 0.2530222158889E-02 -0.1108514415666E-01  0.0000000000000E+00 -0.1561691671568E-02
 0.2497838315783E-02 -0.1116886770011E-01  0.0000000000000E+00 -0.1850342957269E-02
 0.2461406895206E-02 -0.1124998183138E-01  0.0000000000000E+00 -0.2170638793465E-02
 0.2419320897442E-02 -0.1132320398529E-01  0.0000000000000E+00 -0.2523571792691E-02
 0.2368554680391E-02 -0.1138150466802E-01  0.0000000000000E+00 -0.2907334143435E-02
 0.2305498391789E-02 -0.1141595851867E-01  0.0000000000000E+00 -0.3316315971971E-02
 0.2226559744239E-02 -0.1141509809752E-01  0.0000000000000E+00 -0.3740614462354E-02
 0.2127812193665E-02 -0.1136301970887E-01  0.0000000000000E+00 -0.4164529511219E-02
 0.2003997050950E-02 -0.1123485276834E-01  0.0000000000000E+00 -0.4559320142726E-02
 0.1850545782271E-02 -0.1099061068944E-01  0.0000000000000E+00 -0.4863812857623E-02
 0.1675437973665E-02 -0.1057120051186E-01  0.0000000000000E+00 -0.4945083038608E-02
 0.1545191928224E-02 -0.9906922592983E-02  0.0000000000000E+00 -0.4508290859048E-02
 0.1762153393518E-02 -0.9018396758322E-02  0.0000000000000E+00 -0.2968663415085E-02
 0.3251716997666E-02 -0.8343240284689E-02  0.0000000000000E+00  0.2128662281550E-03
 0.7497374223215E-02 -0.8843975148107E-02  0.0000000000000E+00  0.3650220108201E-02
 0.1428468609672E-01 -0.1044192905100E-01  0.0000000000000E+00  0.2284115000147E-02
 0.5488081512516E-03 -0.1111884192886E-01  0.0000000000000E+00  0.4071772449234E-02
 0.1563463287770E-02 -0.1158152569575E-01  0.0000000000000E+00  0.3614327634228E-02
 0.2252988481806E-02 -0.1171736159489E-01  0.0000000000000E+00  0.2596485864716E-02
 0.2559617017578E-02 -0.1160204898835E-01  0.0000000000000E+00  0.1708079841824E-02
 0.2668345772959E-02 -0.1142264531404E-01  0.0000000000000E+00  0.1131489565070E-02
 0.2704122339147E-02 -0.1126214997487E-01  0.0000000000000E+00  0.7748009070500E-03
 0.2713207291859E-02 -0.1113312353588E-01  0.0000000000000E+00  0.5457746995710E-03
 0.2711578439213E-02 -0.1103182344725E-01  0.0000000000000E+00  0.3928920389766E-03
 0.2705827109135E-02 -0.1095288512371E-01  0.0000000000000E+00  0.2866418416046E-03
 0.2698791481277E-02 -0.1089158505596E-01  0.0000000000000E+00  0.2091162730989E-03
 0.2691718437215E-02 -0.1084436722495E-01  0.0000000000000E+00  0.1490913774414E-03
 0.2685188796256E-02 -0.1080875347584E-01  0.0000000000000E+00  0.9917589376232E-04
 0.2679493462805E-02 -0.1078313617919E-01  0.0000000000000E+00  0.5425210707827E-04
 0.2674803827400E-02 -0.1076659551353E-01  0.0000000000000E+00  0.1056894279389E-04
 0.2671246997007E-02 -0.1075875710326E-01  0.0000000000000E+00 -0.3481444056680E-04
 0.2668935721950E-02 -0.1075968925683E-01  0.0000000000000E+00 -0.8439320278333E-04
 0.2667972652569E-02 -0.1076982999800E-01  0.0000000000000E+00 -0.1404835816788E-03
 0.2668433074837E-02 -0.1078993210603E-01  0.0000000000000E+00 -0.2054492208424E-03
 0.2670317152277E-02 -0.1082100978742E-01  0.0000000000000E+00 -0.2819370328522E-03
 0.2673439303646E-02 -0.1086424923483E-01  0.0000000000000E+00 -0.3731590445013E-03
 0.2677182595216E-02 -0.1092078398550E-01  0.0000000000000E+00 -0.4831762108325E-03
 0.2680117497896E-02 -0.1099120745227E-01  0.0000000000000E+00 -0.6167998257220E-03
 0.2679925823452E-02 -0.1107497656828E-01  0.0000000000000E+00 -0.7784508216043E-03
 0.2674387454873E-02 -0.1117036822249E-01  0.0000000000000E+00 -0.9705390471074E-03
 0.2663006457694E-02 -0.1127536523217E-01  0.0000000000000E+00 -0.1193611388004E-02
 0.2647221155878E-02 -0.1138811121108E-01  0.0000000000000E+00 -0.1448587639928E-02
 0.2628715754689E-02 -0.1150625502849E-01  0.0000000000000E+00 -0.1738108143170E-02
 0.2607717703942E-02 -0.1162635860922E-01  0.0000000000000E+00 -0.2065538960576E-02
 0.2582476479840E-02 -0.1174375980306E-01  0.0000000000000E+00 -0.2433225316200E-02
 0.2549729292574E-02 -0.1185254128092E-01  0.0000000000000E+00 -0.2841211308266E-02
 0.2505616352904E-02 -0.1194537371026E-01  0.0000000000000E+00 -0.3286640350579E-02
 0.2446359157527E-02 -0.1201298817253E-01  0.0000000000000E+00 -0.3764037853003E-02
 0.2367550201885E-02 -0.1204239744650E-01  0.0000000000000E+00 -0.4265693150013E-02
 0.2261490783462E-02 -0.1201176065324E-01  0.0000000000000E+00 -0.4777510248778E-02
 0.2116108516866E-02 -0.1188201442866E-01  0.0000000000000E+00 -0.5262603640824E-02
 0.1920472752909E-02 -0.1158788480010E-01  0.0000000000000E+00 -0.5628279840142E-02
 0.1684759944735E-02 -0.1102177160599E-01  0.0000000000000E+00 -0.5639445827529E-02
 0.1586972452562E-02 -0.1007089209752E-01  0.0000000000000E+00 -0.4653427104821E-02
 0.2561693090341E-02 -0.9025795702773E-02  0.0000000000000E+00 -0.1550540362559E-02
 0.6833707650131E-02 -0.9189782586271E-02  0.0000000000000E+00  0.2999925920699E-02
 0.1503022200075E-01 -0.1102910597285E-01  0.0000000000000E+00  0.2283842212726E-02
 0.6607640773245E-03 -0.1156854372926E-01  0.0000000000000E+00  0.4421811617702E-02
 0.1819523693733E-02 -0.1203310981244E-01  0.0000000000000E+00  0.3677336415312E-02
 0.2494545185335E-02 -0.1204745231660E-01  0.0000000000000E+00  0.2384915819047E-02
 0.2716462300410E-02 -0.1181421398706E-01  0.0000000000000E+00  0.1450387647997E-02
 0.2768079277687E-02 -0.1157979891700E-01  0.0000000000000E+00  0.9251803060315E-03
 0.2775740496840E-02 -0.1139962995988E-01  0.0000000000000E+00  0.6196984448430E-03
 0.2770119808040E-02 -0.1126426581328E-01  0.0000000000000E+00  0.4290124931724E-03
 0.2760507152956E-02 -0.1116253543719E-01  0.0000000000000E+00  0.3047290051410E-03
 0.2750533680033E-02 -0.1108574394472E-01  0.0000000000000E+00  0.2197391284988E-03
 0.2741395886609E-02 -0.1102760357490E-01  0.0000000000000E+00  0.1584052739458E-03
 0.2733493408357E-02 -0.1098388101571E-01  0.0000000000000E+00  0.1111949264467E-03
 0.2726944525195E-02 -0.1095181090802E-01  0.0000000000000E+00  0.7193102742212E-04
 0.2721787285474E-02 -0.1092970294686E-01  0.0000000000000E+00  0.3639234137728E-04
 0.2718062427058E-02 -0.1091666216263E-01  0.0000000000000E+00  0.1502014880472E-05
 0.2715841648782E-02 -0.1091240424162E-01  0.0000000000000E+00 -0.3515086105002E-04
 0.2715235363324E-02 -0.1091713557001E-01  0.0000000000000E+00 -0.7562398126881E-04
 0.2716388358751E-02 -0.1093147913608E-01  0.0000000000000E+00 -0.1218510785697E-03
 0.2719464916258E-02 -0.1095643175132E-01  0.0000000000000E+00 -0.1758431561707E-03
 0.2724615181441E-02 -0.1099333991106E-01  0.0000000000000E+00 -0.2399128426629E-03
 0.2731895828998E-02 -0.1104386954817E-01  0.0000000000000E+00 -0.3169806286676E-03
 0.2741051847157E-02 -0.1110987787971E-01  0.0000000000000E+00 -0.4110206691555E-03
 0.2751034945881E-02 -0.1119295490919E-01  0.0000000000000E+00 -0.5273534933775E-03
 0.2759646351229E-02 -0.1129358929083E-01  0.0000000000000E+00 -0.6717214876387E-03
 0.2764482465585E-02 -0.1141075400167E-01  0.0000000000000E+00 -0.8481324426892E-03
 0.2764951625143E-02 -0.1154263607977E-01  0.0000000000000E+00 -0.1058468560913E-02
 0.2762646301526E-02 -0.1168717212013E-01  0.0000000000000E+00 -0.1304846619234E-02
 0.2759388349171E-02 -0.1184168579590E-01  0.0000000000000E+00 -0.1590955934284E-02
 0.2755394123243E-02 -0.1200277857951E-01  0.0000000000000E+00 -0.1920876427240E-02
 0.2748868041916E-02 -0.1216655873576E-01  0.0000000000000E+00 -0.2297641285287E-02
 0.2736544064608E-02 -0.1232863950603E-01  0.0000000000000E+00 -0.2722563020593E-02
 0.2714647141300E-02 -0.1248385324014E-01  0.0000000000000E+00 -0.3195003309218E-02
 0.2679785999176E-02 -0.1262590160423E-01  0.0000000000000E+00 -0.3713098144868E-02
 0.2628263357591E-02 -0.1274611505353E-01  0.0000000000000E+00 -0.4275837569813E-02
 0.2552316775360E-02 -0.1282877651685E-01  0.0000000000000E+00 -0.4882699775629E-02
 0.2435920411568E-02 -0.1284173795714E-01  0.0000000000000E+00 -0.5522638986989E-02
 0.2257225131008E-02 -0.1272505909968E-01  0.0000000000000E+00 -0.6147443097514E-02
 0.1986788308104E-02 -0.1236403457582E-01  0.0000000000000E+00 -0.6624640636063E-02
 0.1631364395992E-02 -0.1152020912200E-01  0.0000000000000E+00 -0.6440460589763E-02
 0.1906986905760E-02 -0.1014345763198E-01  0.0000000000000E+00 -0.3949660135924E-02
 0.5863086090719E-02 -0.9738388723845E-02  0.0000000000000E+00  0.1709675148154E-02
 0.1591233453618E-01 -0.1181337051828E-01  0.0000000000000E+00  0.2224678508687E-02
 0.8231802231915E-03 -0.1213512173201E-01  0.0000000000000E+00  0.4806164050133E-02
 0.2149973026969E-02 -0.1254640076250E-01  0.0000000000000E+00  0.3604971848984E-02
 0.2750218130354E-02 -0.1234937053524E-01  0.0000000000000E+00  0.2017332645982E-02
 0.2852698451072E-02 -0.1198004025234E-01  0.0000000000000E+00  0.1129401136318E-02
 0.2850091134096E-02 -0.1170660652543E-01  0.0000000000000E+00  0.7030451765910E-03
 0.2835595972513E-02 -0.1151713383470E-01  0.0000000000000E+00  0.4611586824705E-03
 0.2818630315073E-02 -0.1138160375752E-01  0.0000000000000E+00  0.3141530125310E-03
 0.2803456290057E-02 -0.1128358963410E-01  0.0000000000000E+00  0.2204371565506E-03
 0.2790852420675E-02 -0.1121155111020E-01  0.0000000000000E+00  0.1571344008356E-03
 0.2780639813910E-02 -0.1115825729097E-01  0.0000000000000E+00  0.1119034390786E-03
 0.2772565060662E-02 -0.1111909459693E-01  0.0000000000000E+00  0.7720910509945E-04
 0.2766389271617E-02 -0.1109120912785E-01  0.0000000000000E+00  0.4827904980251E-04
 0.2761972590979E-02 -0.1107294695960E-01  0.0000000000000E+00  0.2186558521491E-04
 0.2759269785891E-02 -0.1106351215100E-01  0.0000000000000E+00 -0.4388813348882E-05
 0.2758325325198E-02 -0.1106275486145E-01  0.0000000000000E+00 -0.3233667286937E-04
 0.2759262945681E-02 -0.1107104366383E-01  0.0000000000000E+00 -0.6357142006275E-04
 0.2762276148928E-02 -0.1108919517478E-01  0.0000000000000E+00 -0.9961027383948E-04
 0.2767617581292E-02 -0.1111844573239E-01  0.0000000000000E+00 -0.1420591395608E-03
 0.2775581161307E-02 -0.1116045751060E-01  0.0000000000000E+00 -0.1928082529447E-03
 0.2786461318734E-02 -0.1121735012126E-01  0.0000000000000E+00 -0.2543192915558E-03
 0.2800412227778E-02 -0.1129171368088E-01  0.0000000000000E+00 -0.3301538943068E-03
 0.2816949467462E-02 -0.1138632846954E-01  0.0000000000000E+00 -0.4257505040434E-03
 0.2834242410828E-02 -0.1150317644144E-01  0.0000000000000E+00 -0.5481546746254E-03
 0.2849837433753E-02 -0.1164240951058E-01  0.0000000000000E+00 -0.7035100674549E-03
 0.2863034777093E-02 -0.1180250869910E-01  0.0000000000000E+00 -0.8957963927955E-03
 0.2875447585199E-02 -0.1198078242486E-01  0.0000000000000E+00 -0.1128863026274E-02
 0.2888818347351E-02 -0.1217364505831E-01  0.0000000000000E+00 -0.1407328016712E-02
 0.2903220857907E-02 -0.1237743787011E-01  0.0000000000000E+00 -0.1735196281324E-02
 0.2916908390946E-02 -0.1258918642284E-01  0.0000000000000E+00 -0.2115180270903E-02
 0.2926904252020E-02 -0.1280653275800E-01  0.0000000000000E+00 -0.2549047131580E-02
 0.2929841014560E-02 -0.1302708099012E-01  0.0000000000000E+00 -0.3037831928461E-02
 0.2923162847647E-02 -0.1324805476844E-01  0.0000000000000E+00 -0.3582260816619E-02
 0.2904795653409E-02 -0.1346607395618E-01  0.0000000000000E+00 -0.4186052813143E-02
 0.2869209580760E-02 -0.1367390149547E-01  0.0000000000000E+00 -0.4858475436900E-02
 0.2801144150721E-02 -0.1385322966325E-01  0.0000000000000E+00 -0.5611978092808E-02
 0.2673754349230E-02 -0.1396011985822E-01  0.0000000000000E+00 -0.6442262866284E-02
 0.2452449888503E-02 -0.1390840601065E-01  0.0000000000000E+00 -0.7311568588639E-02
 0.2004122551070E-02 -0.1343592289990E-01  0.0000000000000E+00 -0.8053181285007E-02
 0.1488534553839E-02 -0.1198615155220E-01  0.0000000000000E+00 -0.6986114103170E-02
 0.4512141948026E-02 -0.1075427255881E-01  0.0000000000000E+00 -0.7219378748613E-03
 0.1697691625954E-01 -0.1298197545713E-01  0.0000000000000E+00  0.1912838575412E-02
 0.1071116959679E-02 -0.1290290367520E-01  0.0000000000000E+00  0.5203768171605E-02
 0.2575998472991E-02 -0.1311096959205E-01  0.0000000000000E+00  0.3252720407898E-02
 0.2989560186532E-02 -0.1256626019108E-01  0.0000000000000E+00  0.1452902945546E-02
 0.2950023292909E-02 -0.1208335863805E-01  0.0000000000000E+00  0.7754182520456E-03
 0.2911925983510E-02 -0.1180136170928E-01  0.0000000000000E+00  0.4786809222993E-03
 0.2882475860253E-02 -0.1161322045675E-01  0.0000000000000E+00  0.3058243993136E-03
 0.2858305436906E-02 -0.1148517879766E-01  0.0000000000000E+00  0.2061446495482E-03
 0.2840457374526E-02 -0.1139518718055E-01  0.0000000000000E+00  0.1427875743809E-03
 0.2826872228349E-02 -0.1133060284924E-01  0.0000000000000E+00  0.1006730763512E-03
 0.2816660327162E-02 -0.1128382789883E-01  0.0000000000000E+00  0.7075456136149E-04
 0.2809058428873E-02 -0.1125025122937E-01  0.0000000000000E+00  0.4784230132612E-04
 0.2803628207626E-02 -0.1122714246550E-01  0.0000000000000E+00  0.2861698734527E-04
 0.2800126127955E-02 -0.1121301124835E-01  0.0000000000000E+00  0.1084124926160E-04
 0.2798471234957E-02 -0.1120723642750E-01  0.0000000000000E+00 -0.7113787238611E-05
 0.2798708734684E-02 -0.1120984636060E-01  0.0000000000000E+00 -0.2653475618211E-04
 0.2800990360445E-02 -0.1122139361930E-01  0.0000000000000E+00 -0.4854000628535E-04
 0.2805562134322E-02 -0.1124289318339E-01  0.0000000000000E+00 -0.7420970249156E-04
 0.2812759000325E-02 -0.1127580950120E-01  0.0000000000000E+00 -0.1047060885638E-03
 0.2823002764066E-02 -0.1132209095372E-01  0.0000000000000E+00 -0.1414241374404E-03
 0.2836795022478E-02 -0.1138425653439E-01  0.0000000000000E+00 -0.1862253142194E-03
 0.2854684379450E-02 -0.1146555248726E-01  0.0000000000000E+00 -0.2419016896038E-03
 0.2876913974014E-02 -0.1157004217655E-01  0.0000000000000E+00 -0.3133171988988E-03
 0.2902409460296E-02 -0.1170181891201E-01  0.0000000000000E+00 -0.4084148398980E-03
 0.2929010584179E-02 -0.1186313825536E-01  0.0000000000000E+00 -0.5361492633487E-03
 0.2955955723549E-02 -0.1205303439380E-01  0.0000000000000E+00 -0.7040639548243E-03
 0.2984566719469E-02 -0.1226740625678E-01  0.0000000000000E+00 -0.9188247551504E-03
 0.3016035240082E-02 -0.1250073631451E-01  0.0000000000000E+00 -0.1185745671020E-02
 0.3050029299982E-02 -0.1274862911563E-01  0.0000000000000E+00 -0.1507476040905E-02
 0.3084956989227E-02 -0.1300919657848E-01  0.0000000000000E+00 -0.1884940775911E-02
 0.3118518089485E-02 -0.1328273097054E-01  0.0000000000000E+00 -0.2319250577557E-02
 0.3148174253235E-02 -0.1357037301730E-01  0.0000000000000E+00 -0.2812605535254E-02
 0.3172340236249E-02 -0.1387323434019E-01  0.0000000000000E+00 -0.3367741646617E-02
 0.3191286970823E-02 -0.1419325981829E-01  0.0000000000000E+00 -0.3990120540913E-02
 0.3202564944431E-02 -0.1453318671882E-01  0.0000000000000E+00 -0.4694390202831E-02
 0.3198198710266E-02 -0.1489328452801E-01  0.0000000000000E+00 -0.5503447865251E-02
 0.3151528599521E-02 -0.1526253801210E-01  0.0000000000000E+00 -0.6462475385918E-02
 0.3039121559025E-02 -0.1559106984965E-01  0.0000000000000E+00 -0.7576490873019E-02
 0.2764618825228E-02 -0.1577653620560E-01  0.0000000000000E+00 -0.9027982779616E-02
 0.1685762963115E-02 -0.1493008652145E-01  0.0000000000000E+00 -0.1024345223080E-01
 0.2805133879889E-02 -0.1286609256254E-01  0.0000000000000E+00 -0.5038882495567E-02
 0.1833367287947E-01 -0.1504605628553E-01  0.0000000000000E+00  0.7108156103662E-03
 0.1468572491537E-02 -0.1406301510923E-01  0.0000000000000E+00  0.5504163727500E-02
 0.3103885819320E-02 -0.1362241515406E-01  0.0000000000000E+00  0.2315604278092E-02
 0.3141242605090E-02 -0.1260313559483E-01  0.0000000000000E+00  0.7288425261038E-03
 0.2998306484631E-02 -0.1213179258245E-01  0.0000000000000E+00  0.4504377332163E-03
 0.2955166973029E-02 -0.1186025725842E-01  0.0000000000000E+00  0.2569719566368E-03
 0.2914693465608E-02 -0.1168856249973E-01  0.0000000000000E+00  0.1649035585295E-03
 0.2889743176952E-02 -0.1157552777813E-01  0.0000000000000E+00  0.1091619210781E-03
 0.2871674512574E-02 -0.1149793523787E-01  0.0000000000000E+00  0.7484903213201E-04
 0.2858907647040E-02 -0.1144342216397E-01  0.0000000000000E+00  0.5211523824161E-04
 0.2849697753744E-02 -0.1140474632447E-01  0.0000000000000E+00  0.3607239479930E-04
 0.2843180191546E-02 -0.1137769499519E-01  0.0000000000000E+00  0.2375108431005E-04
 0.2838821965736E-02 -0.1135987784192E-01  0.0000000000000E+00  0.1329522568719E-04
 0.2836367990467E-02 -0.1135009461145E-01  0.0000000000000E+00  0.3443074692439E-05
 0.2835747703315E-02 -0.1134797216510E-01  0.0000000000000E+00 -0.6727530635381E-05
 0.2837034733748E-02 -0.1135375793913E-01  0.0000000000000E+00 -0.1795310943892E-04
 0.2840421293370E-02 -0.1136820699224E-01  0.0000000000000E+00 -0.3088259261502E-04
 0.2846207011647E-02 -0.1139253340638E-01  0.0000000000000E+00 -0.4615322552104E-04
 0.2854798506077E-02 -0.1142841258530E-01  0.0000000000000E+00 -0.6446185520659E-04
 0.2866720194295E-02 -0.1147803829607E-01  0.0000000000000E+00 -0.8665759723470E-04
 0.2882634526853E-02 -0.1154425351956E-01  0.0000000000000E+00 -0.1138961101522E-03
 0.2903383763328E-02 -0.1163080598405E-01  0.0000000000000E+00 -0.1479364380087E-03
 0.2929966667354E-02 -0.1174285898461E-01  0.0000000000000E+00 -0.1920889445955E-03
 0.2962592283888E-02 -0.1188725743661E-01  0.0000000000000E+00 -0.2538515985181E-03
 0.3000206009090E-02 -0.1207020534623E-01  0.0000000000000E+00 -0.3455627595728E-03
 0.3042222563928E-02 -0.1229200121578E-01  0.0000000000000E+00 -0.4812495383109E-03
 0.3088986131864E-02 -0.1254558785665E-01  0.0000000000000E+00 -0.6725168419420E-03
 0.3140221821908E-02 -0.1282179515793E-01  0.0000000000000E+00 -0.9247570402528E-03
 0.3194785294616E-02 -0.1311485304876E-01  0.0000000000000E+00 -0.1237183344000E-02
 0.3251386208320E-02 -0.1342420802491E-01  0.0000000000000E+00 -0.1606915131239E-02
 0.3308933781160E-02 -0.1375356603717E-01  0.0000000000000E+00 -0.2032884224037E-02
 0.3366326893767E-02 -0.1410867636903E-01  0.0000000000000E+00 -0.2517934883685E-02
 0.3423121541907E-02 -0.1449505037280E-01  0.0000000000000E+00 -0.3067185751320E-02
 0.3481035417483E-02 -0.1491850685382E-01  0.0000000000000E+00 -0.3685918012301E-02
 0.3542939675876E-02 -0.1539113862798E-01  0.0000000000000E+00 -0.4384424853912E-02
 0.3605033288163E-02 -0.1593559428993E-01  0.0000000000000E+00 -0.5189035746363E-02
 0.3672414537120E-02 -0.1658437655536E-01  0.0000000000000E+00 -0.6146529140105E-02
 0.3678076107734E-02 -0.1735536930385E-01  0.0000000000000E+00 -0.7395753405936E-02
 0.3778374753084E-02 -0.1828190961827E-01  0.0000000000000E+00 -0.8900187475011E-02
 0.3041153920963E-02 -0.1917426161614E-01  0.0000000000000E+00 -0.1231176397410E-01
 0.1168722324704E-02 -0.1743005856215E-01  0.0000000000000E+00 -0.1171328759320E-01
 0.2035372347716E-01 -0.1976587154743E-01  0.0000000000000E+00 -0.3550260773303E-02
 0.2110223698317E-02 -0.1616889339612E-01  0.0000000000000E+00  0.5127731429479E-02
 0.3638714164337E-02 -0.1346835261939E-01  0.0000000000000E+00  0.1828940627368E-03
 0.3075549950321E-02 -0.1251591687248E-01  0.0000000000000E+00  0.2602080749355E-03
 0.3038223393886E-02 -0.1211937106860E-01  0.0000000000000E+00  0.1146956192078E-03
 0.2968165407675E-02 -0.1188509643748E-01  0.0000000000000E+00  0.7055675219558E-04
 0.2936122195657E-02 -0.1174493568145E-01  0.0000000000000E+00  0.4366124344291E-04
 0.2912908351649E-02 -0.1165388774089E-01  0.0000000000000E+00  0.2863089011296E-04
 0.2897882246947E-02 -0.1159283848269E-01  0.0000000000000E+00  0.1927615996961E-04
 0.2887380671669E-02 -0.1155076127790E-01  0.0000000000000E+00  0.1317067286907E-04
 0.2880126731016E-02 -0.1152159166121E-01  0.0000000000000E+00  0.8862067458287E-05
 0.2875210001427E-02 -0.1150186893872E-01  0.0000000000000E+00  0.5517134659710E-05
 0.2872187772971E-02 -0.1148975340956E-01  0.0000000000000E+00  0.2598611493237E-05
 0.2870860579370E-02 -0.1148445068749E-01  0.0000000000000E+00 -0.2606496584678E-06
 0.2871215643617E-02 -0.1148590239885E-01  0.0000000000000E+00 -0.3334419604289E-05
 0.2873378575640E-02 -0.1149461073964E-01  0.0000000000000E+00 -0.6846278617634E-05
 0.2877592059824E-02 -0.1151154784415E-01  0.0000000000000E+00 -0.1099870979013E-04
 0.2884207697490E-02 -0.1153812288749E-01  0.0000000000000E+00 -0.1599432414018E-04
 0.2893689851294E-02 -0.1157620218143E-01  0.0000000000000E+00 -0.2206171459440E-04
 0.2906633669409E-02 -0.1162817477878E-01  0.0000000000000E+00 -0.2948191438340E-04
 0.2923802739599E-02 -0.1169711705976E-01  0.0000000000000E+00 -0.3864147551830E-04
 0.2946202678926E-02 -0.1178709213454E-01  0.0000000000000E+00 -0.5014292907574E-04
 0.2975259922498E-02 -0.1190385187864E-01  0.0000000000000E+00 -0.6505676599156E-04
 0.3012892793260E-02 -0.1205678211457E-01  0.0000000000000E+00 -0.8709545745283E-04
 0.3061037335523E-02 -0.1225993281533E-01  0.0000000000000E+00 -0.1312376218413E-03
 0.3120086767633E-02 -0.1251689410739E-01  0.0000000000000E+00 -0.2243689136740E-03
 0.3187815446030E-02 -0.1281406261730E-01  0.0000000000000E+00 -0.3870640822841E-03
 0.3260832162647E-02 -0.1313604163732E-01  0.0000000000000E+00 -0.6228633924135E-03
 0.3336693619321E-02 -0.1347495913395E-01  0.0000000000000E+00 -0.9243567249638E-03
 0.3414684049852E-02 -0.1383201277809E-01  0.0000000000000E+00 -0.1282126931143E-02
 0.3495550548701E-02 -0.1421529571351E-01  0.0000000000000E+00 -0.1691118326595E-02
 0.3580680775439E-02 -0.1463642172363E-01  0.0000000000000E+00 -0.2153607270197E-02
 0.3671169551391E-02 -0.1510704440105E-01  0.0000000000000E+00 -0.2679191922902E-02
 0.3768565558810E-02 -0.1563372788974E-01  0.0000000000000E+00 -0.3274521525979E-02
 0.3877065206211E-02 -0.1623169267332E-01  0.0000000000000E+00 -0.3933464303384E-02
 0.4009515330869E-02 -0.1695192389499E-01  0.0000000000000E+00 -0.4662451106903E-02
 0.4167125388752E-02 -0.1787055835647E-01  0.0000000000000E+00 -0.5509291922455E-02
 0.4422050071305E-02 -0.1910894323423E-01  0.0000000000000E+00 -0.6577135305336E-02
 0.4520583388399E-02 -0.2078150508160E-01  0.0000000000000E+00 -0.8106713648471E-02
 0.5889142765199E-02 -0.2362688363022E-01  0.0000000000000E+00 -0.1021928207506E-01
 0.6985351071305E-03 -0.2666051678945E-01  0.0000000000000E+00 -0.1826968876525E-01
 0.2647959350239E-01 -0.3402201749431E-01  0.0000000000000E+00 -0.1726230534041E-01
 0.3496659994821E-01 -0.6688019924971E-01  0.0000000000000E+00 -0.2650153091312E+00
 0.5064532574221E-01 -0.8178074704880E-01  0.0000000000000E+00 -0.2128939374239E+00
 0.6658961538302E-01 -0.9682044678597E-01  0.0000000000000E+00 -0.1684172833800E+00
 0.8210655392088E-01 -0.1114546485383E+00  0.0000000000000E+00 -0.1304806959811E+00
 0.9683500193750E-01 -0.1253232600427E+00  0.0000000000000E+00 -0.9820887939256E-01
 0.1104682520808E+00 -0.1381351860179E+00  0.0000000000000E+00 -0.7107653267622E-01
 0.1228300784822E+00 -0.1497125223515E+00  0.0000000000000E+00 -0.4884325673993E-01
 0.1338582577802E+00 -0.1600070034935E+00  0.0000000000000E+00 -0.3127767699942E-01
 0.1435505529722E+00 -0.1690245225395E+00  0.0000000000000E+00 -0.1809451887738E-01
 0.1519328333775E+00 -0.1767954514797E+00  0.0000000000000E+00 -0.8987450701469E-02
 0.1590530154812E+00 -0.1833725878998E+00  0.0000000000000E+00 -0.3645266066890E-02
 0.1649727392423E+00 -0.1888199303292E+00  0.0000000000000E+00 -0.1762547458311E-02
 0.1697456099888E+00 -0.1931911052206E+00  0.0000000000000E+00 -0.3036087622863E-02
 0.1734011826240E+00 -0.1965121496123E+00  0.0000000000000E+00 -0.7189216363848E-02
 0.1759458950946E+00 -0.1987839312933E+00  0.0000000000000E+00 -0.1399097954640E-01
 0.1773712058574E+00 -0.1999892436228E+00  0.0000000000000E+00 -0.2323951459613E-01
 0.1775956352538E+00 -0.2000669134381E+00  0.0000000000000E+00 -0.3466313510406E-01
 0.1765920563439E+00 -0.1990154505984E+00  0.0000000000000E+00 -0.4833907738478E-01
 0.1746760223693E+00 -0.1970595386664E+00  0.0000000000000E+00 -0.6395555212933E-01
 0.1718835757307E+00 -0.1949131379938E+00  0.0000000000000E+00 -0.7818859878608E-01
 0.3418580083473E-01 -0.6773694383911E-01  0.0000000000000E+00 -0.2552750864509E+00
 0.5142955184995E-01 -0.8397569713397E-01  0.0000000000000E+00 -0.2027906516660E+00
 0.6852620090937E-01 -0.1001141705085E+00  0.0000000000000E+00 -0.1586456657514E+00
 0.8506373108559E-01 -0.1157003053927E+00  0.0000000000000E+00 -0.1212002656248E+00
 0.1006852842862E+00 -0.1304084867609E+00  0.0000000000000E+00 -0.8959839176015E-01
 0.1151487342673E+00 -0.1440014711614E+00  0.0000000000000E+00 -0.6328419126570E-01
 0.1283094145677E+00 -0.1563421355825E+00  0.0000000000000E+00 -0.4192029741473E-01
 0.1401035882514E+00 -0.1673721738166E+00  0.0000000000000E+00 -0.2520540150720E-01
 0.1505189372868E+00 -0.1770860828894E+00  0.0000000000000E+00 -0.1285098782757E-01
 0.1595794455640E+00 -0.1855130228799E+00  0.0000000000000E+00 -0.4561681951003E-02
 0.1673340010376E+00 -0.1927059440164E+00  0.0000000000000E+00 -0.3946494287166E-04
 0.1738465872228E+00 -0.1987315722245E+00  0.0000000000000E+00  0.1006057823774E-02
 0.1791775143647E+00 -0.2036504558431E+00  0.0000000000000E+00 -0.1139855069282E-02
 0.1833693167621E+00 -0.2075030325584E+00  0.0000000000000E+00 -0.6212096506669E-02
 0.1864466165143E+00 -0.2103102088269E+00  0.0000000000000E+00 -0.1396615226440E-01
 0.1884045006983E+00 -0.2120689602848E+00  0.0000000000000E+00 -0.2412882152085E-01
 0.1891533101576E+00 -0.2127033598200E+00  0.0000000000000E+00 -0.3639543883264E-01
 0.1886576903150E+00 -0.2121795604273E+00  0.0000000000000E+00 -0.5062340914278E-01
 0.1866451647973E+00 -0.2103609502755E+00  0.0000000000000E+00 -0.6610424077584E-01
 0.1828570364911E+00 -0.2068043212862E+00  0.0000000000000E+00 -0.8333135328083E-01
 0.3336098497683E-01 -0.6845079304978E-01  0.0000000000000E+00 -0.2450221713280E+00
 0.5221634510103E-01 -0.8620361355833E-01  0.0000000000000E+00 -0.1925223552294E+00
 0.7054099890997E-01 -0.1034694922822E+00  0.0000000000000E+00 -0.1486061961917E+00
 0.8810090657722E-01 -0.1200152151807E+00  0.0000000000000E+00 -0.1116848107313E+00
 0.1046325596665E+00 -0.1355764529532E+00  0.0000000000000E+00 -0.8076612352286E-01
 0.1199336540255E+00 -0.1499605049385E+00  0.0000000000000E+00 -0.5524455698473E-01
 0.1338861431814E+00 -0.1630539764790E+00  0.0000000000000E+00 -0.3471618727687E-01
 0.1464341771519E+00 -0.1748060710920E+00  0.0000000000000E+00 -0.1883979834930E-01
 0.1575657806071E+00 -0.1852094980827E+00  0.0000000000000E+00 -0.7309491736744E-02
 0.1673042779800E+00 -0.1942921799447E+00  0.0000000000000E+00  0.1677526904513E-03
 0.1757000308000E+00 -0.2021084429184E+00  0.0000000000000E+00  0.3880889151235E-02
 0.1828197044074E+00 -0.2087276864907E+00  0.0000000000000E+00  0.4110801558822E-02
 0.1887289147672E+00 -0.2142164325292E+00  0.0000000000000E+00  0.1133289589697E-02
 0.1934781185279E+00 -0.2186243004389E+00  0.0000000000000E+00 -0.4786358669044E-02
 0.1970949359214E+00 -0.2219784841236E+00  0.0000000000000E+00 -0.1338180362633E-01
 0.1995638383638E+00 -0.2242671418696E+00  0.0000000000000E+00 -0.2435681394507E-01
 0.2007908159619E+00 -0.2254043716957E+00  0.0000000000000E+00 -0.3739568849549E-01
 0.2006188324335E+00 -0.2252647077993E+00  0.0000000000000E+00 -0.5229465402757E-01
 0.1987874022816E+00 -0.2235701594050E+00  0.0000000000000E+00 -0.6908220135225E-01
 0.1953347446942E+00 -0.2202972124269E+00  0.0000000000000E+00 -0.8860571793954E-01
 0.3253626178210E-01 -0.6914342038836E-01  0.0000000000000E+00 -0.2340995641012E+00
 0.5299426265371E-01 -0.8839941585280E-01  0.0000000000000E+00 -0.1818639282590E+00
 0.7259047205008E-01 -0.1068533002945E+00  0.0000000000000E+00 -0.1383107268386E+00
 0.9120239242492E-01 -0.1243797688575E+00  0.0000000000000E+00 -0.1019313590849E+00
 0.1086550019104E+00 -0.1408056814742E+00  0.0000000000000E+00 -0.7170473066589E-01
 0.1247980935673E+00 -0.1559839145418E+00  0.0000000000000E+00 -0.4696169224712E-01
 0.1395387502767E+00 -0.1698259270186E+00  0.0000000000000E+00 -0.2724786041149E-01
 0.1528335897391E+00 -0.1822919028033E+00  0.0000000000000E+00 -0.1219127988756E-01
 0.1646759763247E+00 -0.1933789986061E+00  0.0000000000000E+00 -0.1470718410040E-02
 0.1750916995636E+00 -0.2031168329046E+00  0.0000000000000E+00  0.5210112997538E-02
 0.1841331965953E+00 -0.2115615429362E+00  0.0000000000000E+00  0.8136045315392E-02
 0.1918694530609E+00 -0.2187849919027E+00  0.0000000000000E+00  0.7582974266600E-02
 0.1983691915448E+00 -0.2248574093921E+00  0.0000000000000E+00  0.3822990764369E-02
 0.2036851077097E+00 -0.2298320018470E+00  0.0000000000000E+00 -0.2875247493476E-02
 0.2078409860611E+00 -0.2337336592626E+00  0.0000000000000E+00 -0.1223724765420E-01
 0.2108115322672E+00 -0.2365404210857E+00  0.0000000000000E+00 -0.2397137615554E-01
 0.2124857945453E+00 -0.2381519040499E+00  0.0000000000000E+00 -0.3780289931056E-01
 0.2127087039005E+00 -0.2384152446436E+00  0.0000000000000E+00 -0.5369878283733E-01
 0.2113392006603E+00 -0.2371771247444E+00  0.0000000000000E+00 -0.7190756545008E-01
 0.2085129659670E+00 -0.2345344901903E+00  0.0000000000000E+00 -0.9310206612803E-01
 0.3173480943183E-01 -0.6983622802553E-01  0.0000000000000E+00 -0.2225322693723E+00
 0.5377937209249E-01 -0.9058434836671E-01  0.0000000000000E+00 -0.1707691355299E+00
 0.7466276081683E-01 -0.1102433782071E+00  0.0000000000000E+00 -0.1277137412583E+00
 0.9434725528612E-01 -0.1287733890402E+00  0.0000000000000E+00 -0.9193471420843E-01
 0.1127325820114E+00 -0.1460740521403E+00  0.0000000000000E+00 -0.6241114211154E-01
 0.1297203530038E+00 -0.1620488278542E+00  0.0000000000000E+00 -0.3843906491826E-01
 0.1452465943253E+00 -0.1766360699961E+00  0.0000000000000E+00 -0.1952274876411E-01
 0.1592831142987E+00 -0.1898102841629E+00  0.0000000000000E+00 -0.5266210419606E-02
 0.1718318113447E+00 -0.2015762694708E+00  0.0000000000000E+00  0.4665438299714E-02
 0.1829231330935E+00 -0.2119677388847E+00  0.0000000000000E+00  0.1057348710144E-01
 0.1926123675809E+00 -0.2210433951921E+00  0.0000000000000E+00  0.1274225419808E-01
 0.2009702747157E+00 -0.2288769810139E+00  0.0000000000000E+00  0.1144582486058E-01
 0.2080666464851E+00 -0.2355403350620E+00  0.0000000000000E+00  0.6954718471315E-02
 0.2139533866101E+00 -0.2410867172635E+00  0.0000000000000E+00 -0.4627358037466E-03
 0.2186500379637E+00 -0.2455372508341E+00  0.0000000000000E+00 -0.1053737593293E-01
 0.2221248200467E+00 -0.2488636525258E+00  0.0000000000000E+00 -0.2300534226637E-01
 0.2242785314356E+00 -0.2509703581467E+00  0.0000000000000E+00 -0.3767626369787E-01
 0.2250000413315E+00 -0.2517448445431E+00  0.0000000000000E+00 -0.5460341528115E-01
 0.2242364584439E+00 -0.2511228724827E+00  0.0000000000000E+00 -0.7406410889011E-01
 0.2221530856129E+00 -0.2492477619299E+00  0.0000000000000E+00 -0.9654174508191E-01
 0.3097053134596E-01 -0.7054373927419E-01  0.0000000000000E+00 -0.2103356326568E+00
 0.5458098218155E-01 -0.9276542332905E-01  0.0000000000000E+00 -0.1592243928208E+00
 0.7675365095847E-01 -0.1136339349803E+00  0.0000000000000E+00 -0.1167926604566E+00
 0.9752057812814E-01 -0.1331780753159E+00  0.0000000000000E+00 -0.8168032936781E-01
 0.1168461201836E+00 -0.1513612073731E+00  0.0000000000000E+00 -0.5288233617551E-01
 0.1346803221770E+00 -0.1681337609343E+00  0.0000000000000E+00 -0.2967820865017E-01
 0.1509894818532E+00 -0.1834632074832E+00  0.0000000000000E+00 -0.1154499407058E-01
 0.1657630993135E+00 -0.1973407099698E+00  0.0000000000000E+00  0.1932152344391E-02
 0.1790136623434E+00 -0.2097809696213E+00  0.0000000000000E+00  0.1109958912857E-01
 0.1907778233856E+00 -0.2208233973252E+00  0.0000000000000E+00  0.1626412194638E-01
 0.2011143034551E+00 -0.2305298790002E+00  0.0000000000000E+00  0.1771137400102E-01
 0.2100953106115E+00 -0.2389756551942E+00  0.0000000000000E+00  0.1571506742931E-01
 0.2177907014144E+00 -0.2462329743938E+00  0.0000000000000E+00  0.1054363586228E-01
 0.2242512204465E+00 -0.2523543418677E+00  0.0000000000000E+00  0.2460120729181E-02
 0.2294945487680E+00 -0.2573591980727E+00  0.0000000000000E+00 -0.8281746097378E-02
 0.2334931394239E+00 -0.2612219193532E+00  0.0000000000000E+00 -0.2145832729505E-01
 0.2361737622401E+00 -0.2638705490307E+00  0.0000000000000E+00 -0.3694151561726E-01
 0.2374721223118E+00 -0.2652380054068E+00  0.0000000000000E+00 -0.5481278094381E-01
 0.2373944761738E+00 -0.2653225871027E+00  0.0000000000000E+00 -0.7531364091804E-01
 0.2361109985743E+00 -0.2642807268917E+00  0.0000000000000E+00 -0.9877722650475E-01
 0.3025389488223E-01 -0.7127506285643E-01  0.0000000000000E+00 -0.1975277547542E+00
 0.5540533460387E-01 -0.9494750058255E-01  0.0000000000000E+00 -0.1472282615905E+00
 0.7885994963555E-01 -0.1170197317722E+00  0.0000000000000E+00 -0.1055362375932E+00
 0.1007106288352E+00 -0.1375803552762E+00  0.0000000000000E+00 -0.7115811079443E-01
 0.1209787063148E+00 -0.1566485906379E+00  0.0000000000000E+00 -0.4311368893794E-01
 0.1396588884945E+00 -0.1742184439924E+00  0.0000000000000E+00 -0.2067948621913E-01
 0.1567475854858E+00 -0.1902864825457E+00  0.0000000000000E+00 -0.3316895961680E-02
 0.1722533522037E+00 -0.2048621228141E+00  0.0000000000000E+00  0.9401845503471E-02
 0.1862007020521E+00 -0.2179714612480E+00  0.0000000000000E+00  0.1783220618469E-01
 0.1986335412878E+00 -0.2296607343910E+00  0.0000000000000E+00  0.2228609947433E-01
 0.2096145203116E+00 -0.2399955156327E+00  0.0000000000000E+00  0.2305102985858E-01
 0.2192173527479E+00 -0.2490525327319E+00  0.0000000000000E+00  0.2040043892485E-01
 0.2275120574824E+00 -0.2569043543593E+00  0.0000000000000E+00  0.1459925272942E-01
 0.2345494068528E+00 -0.2636036925539E+00  0.0000000000000E+00  0.5901463388664E-02
 0.2403495773328E+00 -0.2691722302371E+00  0.0000000000000E+00 -0.5459316429757E-02
 0.2448965243824E+00 -0.2735950682871E+00  0.0000000000000E+00 -0.1929440203753E-01
 0.2481463441121E+00 -0.2768285094573E+00  0.0000000000000E+00 -0.3551297168095E-01
 0.2500752418782E+00 -0.2788463545032E+00  0.0000000000000E+00 -0.5419240393709E-01
 0.2507287349499E+00 -0.2796885627895E+00  0.0000000000000E+00 -0.7552062626907E-01
 0.2502770211772E+00 -0.2795161645737E+00  0.0000000000000E+00 -0.9971927259710E-01
 0.2959333026061E-01 -0.7203706194746E-01  0.0000000000000E+00 -0.1841266251019E+00
 0.5625642189155E-01 -0.9713294573002E-01  0.0000000000000E+00 -0.1347853317264E+00
 0.8097841558247E-01 -0.1203959068890E+00  0.0000000000000E+00 -0.9394028417157E-01
 0.1039071648323E+00 -0.1419683695322E+00  0.0000000000000E+00 -0.6036202488307E-01
 0.1251151176616E+00 -0.1619196004996E+00  0.0000000000000E+00 -0.3310163357498E-01
 0.1446380309227E+00 -0.1802836715486E+00  0.0000000000000E+00 -0.1144257629917E-01
 0.1625014531737E+00 -0.1970854577174E+00  0.0000000000000E+00  0.5159969848070E-02
 0.1787334625176E+00 -0.2123532182719E+00  0.0000000000000E+00  0.1714118923193E-01
 0.1933714179438E+00 -0.2261253703923E+00  0.0000000000000E+00  0.2486291405173E-01
 0.2064672084685E+00 -0.2384557517925E+00  0.0000000000000E+00  0.2864117915358E-01
 0.2180879014129E+00 -0.2494141171542E+00  0.0000000000000E+00  0.2876511783136E-01
 0.2283091565298E+00 -0.2590790584113E+00  0.0000000000000E+00  0.2550735859680E-01
 0.2372019679826E+00 -0.2675241632760E+00  0.0000000000000E+00  0.1912811846415E-01
 0.2448191214072E+00 -0.2748041803588E+00  0.0000000000000E+00  0.9870745341298E-02
 0.2511868893778E+00 -0.2809467545166E+00  0.0000000000000E+00 -0.2049985429243E-02
 0.2563042138365E+00 -0.2859516559806E+00  0.0000000000000E+00 -0.1647072758993E-01
 0.2601550988280E+00 -0.2898029402532E+00  0.0000000000000E+00 -0.3331843904987E-01
 0.2627486424324E+00 -0.2925080234318E+00  0.0000000000000E+00 -0.5265083048755E-01
 0.2641575820045E+00 -0.2941358961102E+00  0.0000000000000E+00 -0.7460022826741E-01
 0.2645520265464E+00 -0.2948506632180E+00  0.0000000000000E+00 -0.9930068417490E-01
 0.2899603568451E-01 -0.7283522992080E-01  0.0000000000000E+00 -0.1701507739277E+00
 0.5713675638876E-01 -0.9932268963596E-01  0.0000000000000E+00 -0.1219036894044E+00
 0.8310547457780E-01 -0.1237573724457E+00  0.0000000000000E+00 -0.8200515153776E-01
 0.1071007221115E+00 -0.1463312505842E+00  0.0000000000000E+00 -0.4928943821777E-01
 0.1292413107080E+00 -0.1671589277646E+00  0.0000000000000E+00 -0.2284413921324E-01
 0.1496006969653E+00 -0.1863112937793E+00  0.0000000000000E+00 -0.1967454674926E-02
 0.1682321411754E+00 -0.2038402177902E+00  0.0000000000000E+00  0.1388405867890E-01
 0.1851830740183E+00 -0.2197927447982E+00  0.0000000000000E+00  0.2514809717617E-01
 0.2005040326869E+00 -0.2342200271215E+00  0.0000000000000E+00  0.3219007331560E-01
 0.2142553645236E+00 -0.2471840282647E+00  0.0000000000000E+00  0.3532879240323E-01
 0.2265090568934E+00 -0.2587591920756E+00  0.0000000000000E+00  0.3485436488015E-01
 0.2373433969982E+00 -0.2690266206439E+00  0.0000000000000E+00  0.3103801291088E-01
 0.2468315050644E+00 -0.2780620089899E+00  0.0000000000000E+00  0.2413478308621E-01
 0.2550300672633E+00 -0.2859240304228E+00  0.0000000000000E+00  0.1437798026550E-01
 0.2619737664413E+00 -0.2926487528391E+00  0.0000000000000E+00  0.1967444900402E-02
 0.2676775429297E+00 -0.2982519965427E+00  0.0000000000000E+00 -0.1294929668429E-01
 0.2721502048312E+00 -0.3027428760763E+00  0.0000000000000E+00 -0.3030372667109E-01
 0.2754271305738E+00 -0.3061559233336E+00  0.0000000000000E+00 -0.5012692867964E-01
 0.2776004012489E+00 -0.3085809870840E+00  0.0000000000000E+00 -0.7249782945224E-01
 0.2788403685821E+00 -0.3101847616510E+00  0.0000000000000E+00 -0.9747728868281E-01
 0.2846837380586E-01 -0.7367421357537E-01  0.0000000000000E+00 -0.1556195387406E+00
 0.5804783052350E-01 -0.1015166874673E+00  0.0000000000000E+00 -0.1085938441997E+00
 0.8523723400146E-01 -0.1270988361295E+00  0.0000000000000E+00 -0.6973437404014E-01
 0.1102822955706E+00 -0.1506587148831E+00  0.0000000000000E+00 -0.3794045244074E-01
 0.1333441104267E+00 -0.1723522477295E+00  0.0000000000000E+00 -0.1234089030792E-01
 0.1545306844807E+00 -0.1922840782613E+00  0.0000000000000E+00  0.7745036102072E-02
 0.1739212935235E+00 -0.2105314702532E+00  0.0000000000000E+00  0.2285320100529E-01
 0.1915821080886E+00 -0.2271597317895E+00  0.0000000000000E+00  0.3341955412047E-01
 0.2075768079565E+00 -0.2422327886645E+00  0.0000000000000E+00  0.3981045170616E-01
 0.2219744715948E+00 -0.2558210480523E+00  0.0000000000000E+00  0.4234602231758E-01
 0.2348524866782E+00 -0.2680041386814E+00  0.0000000000000E+00  0.4131661462862E-01
 0.2462925317548E+00 -0.2788664268910E+00  0.0000000000000E+00  0.3699169255288E-01
 0.2563709933471E+00 -0.2884868507691E+00  0.0000000000000E+00  0.2962148615515E-01
 0.2651499075515E+00 -0.2969295041899E+00  0.0000000000000E+00  0.1943113587695E-01
 0.2726735765446E+00 -0.3042402321609E+00  0.0000000000000E+00  0.6610191365456E-02
 0.2789725949976E+00 -0.3104507850959E+00  0.0000000000000E+00 -0.8701756029265E-02
 0.2840771723622E+00 -0.3155921576181E+00  0.0000000000000E+00 -0.2643209777387E-01
 0.2880435193943E+00 -0.3197206094313E+00  0.0000000000000E+00 -0.4658268232502E-01
 0.2909774113412E+00 -0.3229410263928E+00  0.0000000000000E+00 -0.6918269804936E-01
 0.2930488025852E+00 -0.3254216343776E+00  0.0000000000000E+00 -0.9422926291925E-01
 0.2801609570696E-01 -0.7455809260970E-01  0.0000000000000E+00 -0.1405533009752E+00
 0.5899043246948E-01 -0.1037142677271E+00  0.0000000000000E+00 -0.9486814885379E-01
 0.8736957616378E-01 -0.1304148826593E+00  0.0000000000000E+00 -0.5713384216116E-01
 0.1134432327403E+00 -0.1549409446597E+00  0.0000000000000E+00 -0.2631737748869E-01
 0.1374110632999E+00 -0.1774860549713E+00  0.0000000000000E+00 -0.1593237782127E-02
 0.1594125900829E+00 -0.1981856636841E+00  0.0000000000000E+00  0.1769288330282E-01
 0.1795512258548E+00 -0.2171406362228E+00  0.0000000000000E+00  0.3206419314784E-01
 0.1979109567150E+00 -0.2344336991776E+00  0.0000000000000E+00  0.4195125819908E-01
 0.2145682929413E+00 -0.2501413057875E+00  0.0000000000000E+00  0.4771901965298E-01
 0.2296011423511E+00 -0.2643424512557E+00  0.0000000000000E+00  0.4968757811094E-01
 0.2430927009462E+00 -0.2771223830087E+00  0.0000000000000E+00  0.4814689603543E-01
 0.2551287461917E+00 -0.2885694540546E+00  0.0000000000000E+00  0.4336466381164E-01
 0.2657898805795E+00 -0.2987668196870E+00  0.0000000000000E+00  0.3558722575722E-01
 0.2751444515264E+00 -0.3077850174329E+00  0.0000000000000E+00  0.2503398570006E-01
 0.2832468098217E+00 -0.3156802086994E+00  0.0000000000000E+00  0.1188863356580E-01
 0.2901422048438E+00 -0.3224992160684E+00  0.0000000000000E+00 -0.3711067338255E-02
 0.2958790552767E+00 -0.3282918548099E+00  0.0000000000000E+00 -0.2168295165094E-01
 0.3005300198193E+00 -0.3331317726075E+00  0.0000000000000E+00 -0.4199936701163E-01
 0.3042101750644E+00 -0.3371344741091E+00  0.0000000000000E+00 -0.6464429699117E-01
 0.3070874384842E+00 -0.3404677112084E+00  0.0000000000000E+00 -0.8955836387652E-01
 0.2764447996532E-01 -0.7549054848271E-01  0.0000000000000E+00 -0.1249736550258E+00
 0.5996487089195E-01 -0.1059143700520E+00  0.0000000000000E+00 -0.8074048383751E-01
 0.8949827647188E-01 -0.1337000904911E+00  0.0000000000000E+00 -0.4421130019377E-01
 0.1165752289490E+00 -0.1591685702737E+00  0.0000000000000E+00 -0.1442437038046E-01
 0.1414303902186E+00 -0.1825476072996E+00  0.0000000000000E+00  0.9395869909005E-02
 0.1642318060269E+00 -0.2040005526658E+00  0.0000000000000E+00  0.2787272031209E-01
 0.1851050058014E+00 -0.2236499353894E+00  0.0000000000000E+00  0.4151249819218E-01
 0.2041506371912E+00 -0.2415948205672E+00  0.0000000000000E+00  0.5073733398896E-01
 0.2214575144966E+00 -0.2579237251204E+00  0.0000000000000E+00  0.5590874445151E-01
 0.2371123142937E+00 -0.2727242198136E+00  0.0000000000000E+00  0.5734566679565E-01
 0.2512043350809E+00 -0.2860875005009E+00  0.0000000000000E+00  0.5533726232263E-01
 0.2638240229862E+00 -0.2981065068700E+00  0.0000000000000E+00  0.5014973115890E-01
 0.2750568936666E+00 -0.3088693467340E+00  0.0000000000000E+00  0.4202677838519E-01
 0.2849781463050E+00 -0.3184535998172E+00  0.0000000000000E+00  0.3118457792364E-01
 0.2936521062240E+00 -0.3269257497048E+00  0.0000000000000E+00  0.1780481122578E-01
 0.3011374042806E+00 -0.3343465078835E+00  0.0000000000000E+00  0.2027990179242E-02
 0.3074978568239E+00 -0.3407817804529E+00  0.0000000000000E+00 -0.1605078287399E-01
 0.3128190846998E+00 -0.3463191601469E+00  0.0000000000000E+00 -0.3637530090948E-01
 0.3172221418362E+00 -0.3510814586960E+00  0.0000000000000E+00 -0.5888935827093E-01
 0.3208701454042E+00 -0.3552332990087E+00  0.0000000000000E+00 -0.8348474109822E-01
 0.2735841333631E-01 -0.7647497153600E-01  0.0000000000000E+00 -0.1089035224960E+00
 0.6097114216657E-01 -0.1081157266426E+00  0.0000000000000E+00 -0.6622607545591E-01
 0.9161912409080E-01 -0.1369491565871E+00  0.0000000000000E+00 -0.3097602718380E-01
 0.1196703770986E+00 -0.1633327185767E+00  0.0000000000000E+00 -0.2267179144502E-02
 0.1453910043479E+00 -0.1875249413253E+00  0.0000000000000E+00  0.2062196693947E-01
 0.1689745595269E+00 -0.2097141526019E+00  0.0000000000000E+00  0.3827973255819E-01
 0.1905665438794E+00 -0.2300424825598E+00  0.0000000000000E+00  0.5119205695045E-01
 0.2102829333156E+00 -0.2486240739056E+00  0.0000000000000E+00  0.5977013062499E-01
 0.2282241461759E+00 -0.2655588690898E+00  0.0000000000000E+00  0.6437041983943E-01
 0.2444854191878E+00 -0.2809428566591E+00  0.0000000000000E+00  0.6530983600262E-01
 0.2591623115631E+00 -0.2948733814600E+00  0.0000000000000E+00  0.6287655437115E-01
 0.2723503376633E+00 -0.3074484082528E+00  0.0000000000000E+00  0.5733578402564E-01
 0.2841403749806E+00 -0.3187614878365E+00  0.0000000000000E+00  0.4892994667302E-01
 0.2946146883446E+00 -0.3288975055038E+00  0.0000000000000E+00  0.3787431666865E-01
 0.3038471944214E+00 -0.3379329398066E+00  0.0000000000000E+00  0.2435174326157E-01
 0.3119085565690E+00 -0.3459410983940E+00  0.0000000000000E+00  0.8508838290035E-02
 0.3188755676960E+00 -0.3530016068755E+00  0.0000000000000E+00 -0.9544343806152E-02
 0.3248440537181E+00 -0.3592132717682E+00  0.0000000000000E+00 -0.2972451027153E-01
 0.3299385724527E+00 -0.3647037732225E+00  0.0000000000000E+00 -0.5193996432693E-01
 0.3343149455766E+00 -0.3696323310218E+00  0.0000000000000E+00 -0.7604219208632E-01
 0.2716244524141E-01 -0.7751453548108E-01  0.0000000000000E+00 -0.9236718232327E-01
 0.6200906580687E-01 -0.1103170099094E+00  0.0000000000000E+00 -0.5134133969426E-01
 0.9372804604395E-01 -0.1401570260523E+00  0.0000000000000E+00 -0.1743859204626E-01
 0.1227212533046E+00 -0.1674250998478E+00  0.0000000000000E+00  0.1014706210027E-01
 0.1492825753354E+00 -0.1924069371175E+00  0.0000000000000E+00  0.3207915591949E-01
 0.1736279870801E+00 -0.2153128519824E+00  0.0000000000000E+00  0.4890761557053E-01
 0.1959206990312E+00 -0.2363023979383E+00  0.0000000000000E+00  0.6109516334125E-01
 0.2162905348260E+00 -0.2555033878550E+00  0.0000000000000E+00  0.6904006617685E-01
 0.2348486718282E+00 -0.2730264072481E+00  0.0000000000000E+00  0.7309250557236E-01
 0.2516985621720E+00 -0.2889755709363E+00  0.0000000000000E+00  0.7356679227225E-01
 0.2669420446894E+00 -0.3034544381523E+00  0.0000000000000E+00  0.7075014192743E-01
 0.2806799320216E+00 -0.3165662712010E+00  0.0000000000000E+00  0.6490740277428E-01
 0.2930086969633E+00 -0.3284103380461E+00  0.0000000000000E+00  0.5628103959700E-01
 0.3040176449613E+00 -0.3390788444719E+00  0.0000000000000E+00  0.4508745801481E-01
 0.3137897200808E+00 -0.3486577377435E+00  0.0000000000000E+00  0.3151319292504E-01
 0.3224062880492E+00 -0.3572316242329E+00  0.0000000000000E+00  0.1571334124605E-01
 0.3299550389072E+00 -0.3648917942148E+00  0.0000000000000E+00 -0.2186000965628E-02
 0.3365397845062E+00 -0.3717460543122E+00  0.0000000000000E+00 -0.2207612903309E-01
 0.3422867511345E+00 -0.3779251226193E+00  0.0000000000000E+00 -0.4383420399594E-01
 0.3473433483862E+00 -0.3835816780675E+00  0.0000000000000E+00 -0.6727981716559E-01
 0.2706082263266E-01 -0.7861224816511E-01  0.0000000000000E+00 -0.7539029527316E-01
 0.6307839495506E-01 -0.1125169529577E+00  0.0000000000000E+00 -0.3610379126647E-01
 0.9582122426992E-01 -0.1433190142585E+00  0.0000000000000E+00 -0.3610701967833E-02
 0.1257210141995E+00 -0.1714381071359E+00  0.0000000000000E+00  0.2280996273589E-01
 0.1530956121816E+00 -0.1971834021400E+00  0.0000000000000E+00  0.4376015920424E-01
 0.1781802213679E+00 -0.2207841091267E+00  0.0000000000000E+00  0.5974853643371E-01
 0.2011533844471E+00 -0.2424149163396E+00  0.0000000000000E+00  0.7121236100097E-01
 0.2221571673943E+00 -0.2622157765757E+00  0.0000000000000E+00  0.7853549081550E-01
 0.2413125392610E+00 -0.2803070150827E+00  0.0000000000000E+00  0.8206097356402E-01
 0.2587307021308E+00 -0.2968004625722E+00  0.0000000000000E+00  0.8210022233690E-01
 0.2745196648324E+00 -0.3118058315648E+00  0.0000000000000E+00  0.7893969648255E-01
 0.2887856181684E+00 -0.3254318048628E+00  0.0000000000000E+00  0.7284457390388E-01
 0.3016306915959E+00 -0.3377834664204E+00  0.0000000000000E+00  0.6405857381174E-01
 0.3131510396683E+00 -0.3489601820352E+00  0.0000000000000E+00  0.5280091446028E-01
 0.3234379725758E+00 -0.3590567297654E+00  0.0000000000000E+00  0.3926372932228E-01
 0.3325822914391E+00 -0.3681677621672E+00  0.0000000000000E+00  0.2361220912630E-01
 0.3406807903531E+00 -0.3763944438613E+00  0.0000000000000E+00  0.5988901648838E-02
 0.3478434567150E+00 -0.3838517505046E+00  0.0000000000000E+00 -0.1347392353899E-01
 0.3541969152507E+00 -0.3906721013173E+00  0.0000000000000E+00 -0.3462645679576E-01
 0.3598802126730E+00 -0.3970015321429E+00  0.0000000000000E+00 -0.5726373805797E-01
 0.2705751382129E-01 -0.7977099327564E-01  0.0000000000000E+00 -0.5799986092065E-01
 0.6417891472753E-01 -0.1147144597132E+00  0.0000000000000E+00 -0.2053193958141E-01
 0.9789521360720E-01 -0.1464309326714E+00  0.0000000000000E+00  0.1049493390795E-01
 0.1286635097914E+00 -0.1753649342365E+00  0.0000000000000E+00  0.3571199069425E-01
 0.1568215690938E+00 -0.2018451810268E+00  0.0000000000000E+00  0.5565637440523E-01
 0.1826204999525E+00 -0.2261165648118E+00  0.0000000000000E+00  0.7079312000630E-01
 0.2062516893769E+00 -0.2483665136075E+00  0.0000000000000E+00  0.8153237528835E-01
 0.2278677338837E+00 -0.2687454862472E+00  0.0000000000000E+00  0.8824258547037E-01
 0.2475983256332E+00 -0.2873825448221E+00  0.0000000000000E+00  0.9125918684841E-01
 0.2655618498814E+00 -0.3043967254664E+00  0.0000000000000E+00  0.9089065492108E-01
 0.2818722673197E+00 -0.3199037249891E+00  0.0000000000000E+00  0.8742303582605E-01
 0.2966411052007E+00 -0.3340176470412E+00  0.0000000000000E+00  0.8112253434339E-01
 0.3099760827718E+00 -0.3468493581135E+00  0.0000000000000E+00  0.7223517061824E-01
 0.3219799034641E+00 -0.3585051068491E+00  0.0000000000000E+00  0.6098429492081E-01
 0.3327515408287E+00 -0.3690878109358E+00  0.0000000000000E+00  0.4756900620828E-01
 0.3423900506855E+00 -0.3787009875165E+00  0.0000000000000E+00  0.3216555582811E-01
 0.3509997875023E+00 -0.3874541145843E+00  0.0000000000000E+00  0.1493281247772E-01
 0.3586954589502E+00 -0.3954678305216E+00  0.0000000000000E+00 -0.3975410045601E-02
 0.3656032843660E+00 -0.4028753409646E+00  0.0000000000000E+00 -0.2438627972720E-01
 0.3718546390998E+00 -0.4098165200304E+00  0.0000000000000E+00 -0.4607634660503E-01
 0.2715622776107E-01 -0.8099356371622E-01  0.0000000000000E+00 -0.4022415465445E-01
 0.6531053118408E-01 -0.1169087040244E+00  0.0000000000000E+00 -0.4645193068195E-02
 0.9994705702735E-01 -0.1494892106157E+00  0.0000000000000E+00  0.2486471284363E-01
 0.1315434012127E+00 -0.1791996977667E+00  0.0000000000000E+00  0.4884255881961E-01
 0.1604529601667E+00 -0.2063842734652E+00  0.0000000000000E+00  0.6775791340520E-01
 0.1869392815734E+00 -0.2313001615590E+00  0.0000000000000E+00  0.8203043403854E-01
 0.2112040044026E+00 -0.2541450351958E+00  0.0000000000000E+00  0.9204205513641E-01
 0.2334084553776E+00 -0.2750781398459E+00  0.0000000000000E+00  0.9814527652195E-01
 0.2536899015500E+00 -0.2942361935687E+00  0.0000000000000E+00  0.1006678013032E+00
 0.2721732660662E+00 -0.3117448496435E+00  0.0000000000000E+00  0.9991536065712E-01
 0.2889781603027E+00 -0.3277255368267E+00  0.0000000000000E+00  0.9617403671629E-01
 0.3042213169135E+00 -0.3422976887808E+00  0.0000000000000E+00  0.8971172629666E-01
 0.3180158909271E+00 -0.3555778297455E+00  0.0000000000000E+00  0.8077760498195E-01
 0.3304707718206E+00 -0.3676787443882E+00  0.0000000000000E+00  0.6960011779239E-01
 0.3416918916164E+00 -0.3787107867549E+00  0.0000000000000E+00  0.5638620496473E-01
 0.3517854810587E+00 -0.3887852446610E+00  0.0000000000000E+00  0.4132360400366E-01
 0.3608621407567E+00 -0.3980185597360E+00  0.0000000000000E+00  0.2458693798436E-01
 0.3690401596216E+00 -0.4065358208216E+00  0.0000000000000E+00  0.6349430443862E-02
 0.3764449043019E+00 -0.4144704389073E+00  0.0000000000000E+00 -0.1319672909824E-01
 0.3832010198372E+00 -0.4219568424651E+00  0.0000000000000E+00 -0.3381455280565E-01
 0.2736042771054E-01 -0.8228269171683E-01  0.0000000000000E+00 -0.2209263753540E-01
 0.6647335394659E-01 -0.1190992236006E+00  0.0000000000000E+00  0.1153623131679E-01
 0.1019743984779E+00 -0.1524910162456E+00  0.0000000000000E+00  0.3948422573488E-01
 0.1343562816408E+00 -0.1829375639251E+00  0.0000000000000E+00  0.6219008839954E-01
 0.1639834802518E+00 -0.2107939595984E+00  0.0000000000000E+00  0.8005362656084E-01
 0.1911283681805E+00 -0.2363262696338E+00  0.0000000000000E+00  0.9344797117238E-01
 0.2160001497207E+00 -0.2597398283452E+00  0.0000000000000E+00  0.1027263222624E+00
 0.2387670121148E+00 -0.2812008821416E+00  0.0000000000000E+00  0.1082251669471E+00
 0.2595725925995E+00 -0.3008526691692E+00  0.0000000000000E+00  0.1102646948287E+00
 0.2785476538995E+00 -0.3188268188213E+00  0.0000000000000E+00  0.1091482967932E+00
 0.2958171022546E+00 -0.3352501839715E+00  0.0000000000000E+00  0.1051626181747E+00
 0.3115026883598E+00 -0.3502473789304E+00  0.0000000000000E+00  0.9857785366406E-01
 0.3257227991785E+00 -0.3639404070243E+00  0.0000000000000E+00  0.8964698318388E-01
 0.3385921220317E+00 -0.3764482105599E+00  0.0000000000000E+00  0.7860416597201E-01
 0.3502228689739E+00 -0.3878878945972E+00  0.0000000000000E+00  0.6566461821702E-01
 0.3607274759396E+00 -0.3983775225383E+00  0.0000000000000E+00  0.5102753244269E-01
 0.3702216867352E+00 -0.4080393470987E+00  0.0000000000000E+00  0.3488238459756E-01
 0.3788265085373E+00 -0.4170019567132E+00  0.0000000000000E+00  0.1741963806673E-01
 0.3866662778939E+00 -0.4253986473635E+00  0.0000000000000E+00 -0.1152515368451E-02
 0.3938599066338E+00 -0.4333591787295E+00  0.0000000000000E+00 -0.2058769868654E-01
 0.2767334694884E-01 -0.8364107943699E-01  0.0000000000000E+00 -0.3635821322738E-02
 0.6766777787914E-01 -0.1212860127397E+00  0.0000000000000E+00  0.2799142394463E-01
 0.1039755979896E+00 -0.1554343794993E+00  0.0000000000000E+00  0.5433835239168E-01
 0.1370988032857E+00 -0.1865748811875E+00  0.0000000000000E+00  0.7574207286353E-01
 0.1674081341216E+00 -0.2150689335544E+00  0.0000000000000E+00  0.9253112769257E-01
 0.1951810350161E+00 -0.2411878208100E+00  0.0000000000000E+00  0.1050316369080E+00
 0.2206315093800E+00 -0.2651418797952E+00  0.0000000000000E+00  0.1135681327440E+00
 0.2439326874149E+00 -0.2871025272098E+00  0.0000000000000E+00  0.1184614871075E+00
 0.2652333404173E+00 -0.3072183552344E+00  0.0000000000000E+00  0.1200249259954E+00
 0.2846693468137E+00 -0.3256263027240E+00  0.0000000000000E+00  0.1185600957397E+00
 0.3023705270425E+00 -0.3424583128376E+00  0.0000000000000E+00  0.1143547877523E+00
 0.3184634385827E+00 -0.3578440049625E+00  0.0000000000000E+00  0.1076820222277E+00
 0.3330714801229E+00 -0.3719106627798E+00  0.0000000000000E+00  0.9879902096695E-01
 0.3463147534563E+00 -0.3847830073404E+00  0.0000000000000E+00  0.8794595001442E-01
 0.3583111188154E+00 -0.3965842488590E+00  0.0000000000000E+00  0.7534634048203E-01
 0.3691783597456E+00 -0.4074383344662E+00  0.0000000000000E+00  0.6121042800145E-01
 0.3790364497105E+00 -0.4174723549610E+00  0.0000000000000E+00  0.4574139736464E-01
 0.3880084859539E+00 -0.4268176737090E+00  0.0000000000000E+00  0.2914481749619E-01
 0.3962178130441E+00 -0.4356073625666E+00  0.0000000000000E+00  0.1164184672208E-01
 0.4037786299746E+00 -0.4439673243803E+00  0.0000000000000E+00 -0.6515364148371E-02
 0.2809800383124E-01 -0.8507142892185E-01  0.0000000000000E+00  0.1511487347327E-01
 0.6889456224474E-01 -0.1234696122454E+00  0.0000000000000E+00  0.4469888857840E-01
 0.1059498448393E+00 -0.1583183130174E+00  0.0000000000000E+00  0.6941133656883E-01
 0.1397688038825E+00 -0.1901093124142E+00  0.0000000000000E+00  0.8948511844687E-01
 0.1707233655878E+00 -0.2192054368174E+00  0.0000000000000E+00  0.1051767994445E+00
 0.1990921594875E+00 -0.2458794407356E+00  0.0000000000000E+00  0.1167657252053E+00
 0.2250911617339E+00 -0.2703439494428E+00  0.0000000000000E+00  0.1245484350760E+00
 0.2488965042449E+00 -0.2927736982892E+00  0.0000000000000E+00  0.1288310520667E+00
 0.2706608518643E+00 -0.3133214640266E+00  0.0000000000000E+00  0.1299207112101E+00
 0.2905244782016E+00 -0.3321288313403E+00  0.0000000000000E+00  0.1281180867948E+00
 0.3086217427196E+00 -0.3493325039952E+00  0.0000000000000E+00  0.1237127378163E+00
 0.3250838057464E+00 -0.3650669359529E+00  0.0000000000000E+00  0.1169809464923E+00
 0.3400388710988E+00 -0.3794645028563E+00  0.0000000000000E+00  0.1081844011606E+00
 0.3536121008624E+00 -0.3926553503681E+00  0.0000000000000E+00  0.9756925657986E-01
 0.3659264308261E+00 -0.4047682015837E+00  0.0000000000000E+00  0.8536704173003E-01
 0.3771042409516E+00 -0.4159320953268E+00  0.0000000000000E+00  0.7179830810763E-01
 0.3872689841566E+00 -0.4262781439118E+00  0.0000000000000E+00  0.5707864500769E-01
 0.3965454177381E+00 -0.4359399559533E+00  0.0000000000000E+00  0.4142668444148E-01
 0.4050561156852E+00 -0.4450504519525E+00  0.0000000000000E+00  0.2507382903312E-01
 0.4129116812922E+00 -0.4537325841946E+00  0.0000000000000E+00  0.8274772259434E-02
 0.2863721994065E-01 -0.8657647551675E-01  0.0000000000000E+00  0.3412729728978E-01
 0.7015491158247E-01 -0.1256512015247E+00  0.0000000000000E+00  0.6163666942791E-01
 0.1078972733744E+00 -0.1611429361279E+00  0.0000000000000E+00  0.8468686822859E-01
 0.1423654370771E+00 -0.1935399712096E+00  0.0000000000000E+00  0.1034049842249E+00
 0.1739271907684E+00 -0.2232013960039E+00  0.0000000000000E+00  0.1179757961821E+00
 0.2028583529766E+00 -0.2503975843813E+00  0.0000000000000E+00  0.1286328940965E+00
 0.2293740102102E+00 -0.2753407043634E+00  0.0000000000000E+00  0.1356461331805E+00
 0.2536513582130E+00 -0.2982069640464E+00  0.0000000000000E+00  0.1393082306271E+00
 0.2758457393876E+00 -0.3191521804831E+00  0.0000000000000E+00  0.1399214222201E+00
 0.2961011353732E+00 -0.3383219533258E+00  0.0000000000000E+00  0.1377863486074E+00
 0.3145561053677E+00 -0.3558574516921E+00  0.0000000000000E+00  0.1331949839736E+00
 0.3313462458189E+00 -0.3718978287019E+00  0.0000000000000E+00  0.1264272092695E+00
 0.3466043996587E+00 -0.3865804013806E+00  0.0000000000000E+00  0.1177491914101E+00
 0.3604604838666E+00 -0.4000404311743E+00  0.0000000000000E+00  0.1074127585335E+00
 0.3730420024883E+00 -0.4124116230002E+00  0.0000000000000E+00  0.9565679533490E-01
 0.3844752741262E+00 -0.4238274041463E+00  0.0000000000000E+00  0.8271117834866E-01
 0.3948866116386E+00 -0.4344222186710E+00  0.0000000000000E+00  0.6880250513575E-01
 0.4044021712621E+00 -0.4443315560583E+00  0.0000000000000E+00  0.5416059019169E-01
 0.4131441554125E+00 -0.4536884461659E+00  0.0000000000000E+00  0.3902466316398E-01
 0.4212208335344E+00 -0.4626139340484E+00  0.0000000000000E+00  0.2364910949970E-01
 0.2929364212606E-01 -0.8815902481655E-01  0.0000000000000E+00  0.5336877391843E-01
 0.7145055876057E-01 -0.1278326926280E+00  0.0000000000000E+00  0.7878248751077E-01
 0.1098190809371E+00 -0.1639096007016E+00  0.0000000000000E+00  0.1001481636208E+00
 0.1448893048477E+00 -0.1968675600622E+00  0.0000000000000E+00  0.1174866131423E+00
 0.1770193325020E+00 -0.2270565614995E+00  0.0000000000000E+00  0.1309120361460E+00
 0.2064780917777E+00 -0.2547406702850E+00  0.0000000000000E+00  0.1406141328061E+00
 0.2334769100220E+00 -0.2801288484014E+00  0.0000000000000E+00  0.1468380455870E+00
 0.2581921421197E+00 -0.3033969660065E+00  0.0000000000000E+00  0.1498649168381E+00
 0.2807806472041E+00 -0.3247027916627E+00  0.0000000000000E+00  0.1499935936655E+00
 0.3013894919647E+00 -0.3441953724220E+00  0.0000000000000E+00  0.1475257801074E+00
 0.3201611621232E+00 -0.3620201120030E+00  0.0000000000000E+00  0.1427565304284E+00
 0.3372355893370E+00 -0.3783207911195E+00  0.0000000000000E+00  0.1359695554743E+00
 0.3527501548319E+00 -0.3932395805417E+00  0.0000000000000E+00  0.1274353006044E+00
 0.3668392898587E+00 -0.4069166109756E+00  0.0000000000000E+00  0.1174106633562E+00
 0.3796346259250E+00 -0.4194901019744E+00  0.0000000000000E+00  0.1061409363012E+00
 0.3912658360878E+00 -0.4310972372006E+00  0.0000000000000E+00  0.9386410059823E-01
 0.4018615648998E+00 -0.4418751914827E+00  0.0000000000000E+00  0.8081632839495E-01
 0.4115492278354E+00 -0.4519610931366E+00  0.0000000000000E+00  0.6723698506790E-01
 0.4204512377270E+00 -0.4614885210154E+00  0.0000000000000E+00  0.5337120621431E-01
 0.4286748296738E+00 -0.4705777823091E+00  0.0000000000000E+00  0.3947079127752E-01
 0.3006976929753E-01 -0.8982199427272E-01  0.0000000000000E+00  0.7280632568257E-01
 0.7278385152466E-01 -0.1300168276664E+00  0.0000000000000E+00  0.9611388722122E-01
 0.1117176488876E+00 -0.1666210199525E+00  0.0000000000000E+00  0.1157780440389E+00
 0.1473425923170E+00 -0.2000945106765E+00  0.0000000000000E+00  0.1317141541406E+00
 0.1800013555749E+00 -0.2307726466579E+00  0.0000000000000E+00  0.1439681818525E+00
 0.2099518462859E+00 -0.2589092127468E+00  0.0000000000000E+00  0.1526887181660E+00
 0.2373987895535E+00 -0.2847072460922E+00  0.0000000000000E+00  0.1580988573552E+00
 0.2625158604987E+00 -0.3083405355996E+00  0.0000000000000E+00  0.1604704991594E+00
 0.2854603615070E+00 -0.3299677998127E+00  0.0000000000000E+00  0.1601009340190E+00
 0.3063819168783E+00 -0.3497410599401E+00  0.0000000000000E+00  0.1572941806946E+00
 0.3254267615345E+00 -0.3678098176923E+00  0.0000000000000E+00  0.1523490498755E+00
 0.3427391547423E+00 -0.3843225012577E+00  0.0000000000000E+00  0.1455532043711E+00
 0.3584610033679E+00 -0.3994261339334E+00  0.0000000000000E+00  0.1371809554768E+00
 0.3727310909788E+00 -0.4132655463392E+00  0.0000000000000E+00  0.1274933800730E+00
 0.3856848003293E+00 -0.4259830690055E+00  0.0000000000000E+00  0.1167409308680E+00
 0.3974546239942E+00 -0.4377190585328E+00  0.0000000000000E+00  0.1051682563421E+00
 0.4081710509495E+00 -0.4486128610734E+00  0.0000000000000E+00  0.9301966212093E-01
 0.4179626773893E+00 -0.4588030624366E+00  0.0000000000000E+00  0.8054274864884E-01
 0.4269528101887E+00 -0.4684243424303E+00  0.0000000000000E+00  0.6798726087553E-01
 0.4352491793231E+00 -0.4775976361684E+00  0.0000000000000E+00  0.5560060050570E-01
 0.3096798528608E-01 -0.9156846105318E-01  0.0000000000000E+00  0.9240692679144E-01
 0.7415784430724E-01 -0.1322072815653E+00  0.0000000000000E+00  0.1136083981455E+00
 0.1135966683819E+00 -0.1692814019755E+00  0.0000000000000E+00  0.1315590172948E+00
 0.1497292061259E+00 -0.2032251277744E+00  0.0000000000000E+00  0.1460709778552E+00
 0.1828768033152E+00 -0.2343534681992E+00  0.0000000000000E+00  0.1571256095383E+00
 0.2132822084648E+00 -0.2629059520606E+00  0.0000000000000E+00  0.1648341595800E+00
 0.2411407660814E+00 -0.2890770406137E+00  0.0000000000000E+00  0.1694010624877E+00
 0.2666217335901E+00 -0.3130368002845E+00  0.0000000000000E+00  0.1710918233689E+00
 0.2898819040727E+00 -0.3349440184341E+00  0.0000000000000E+00  0.1702043339566E+00
 0.3110730592252E+00 -0.3549533427686E+00  0.0000000000000E+00  0.1670463310759E+00
 0.3303451309504E+00 -0.3732183594627E+00  0.0000000000000E+00  0.1619210660713E+00
 0.3478468183056E+00 -0.3898922819754E+00  0.0000000000000E+00  0.1551201650158E+00
 0.3637246514184E+00 -0.4051270938382E+00  0.0000000000000E+00  0.1469211794370E+00
 0.3781216962528E+00 -0.4190722477419E+00  0.0000000000000E+00  0.1375881859326E+00
 0.3911767727193E+00 -0.4318738441381E+00  0.0000000000000E+00  0.1273752409503E+00
 0.4030246802521E+00 -0.4436748531070E+00  0.0000000000000E+00  0.1165319944527E+00
 0.4137972510537E+00 -0.4546162210369E+00  0.0000000000000E+00  0.1053094335293E+00
 0.4236241684592E+00 -0.4648377981958E+00  0.0000000000000E+00  0.9396241863690E-01
 0.4326303827928E+00 -0.4744759764127E+00  0.0000000000000E+00  0.8274462349794E-01
 0.4409260060332E+00 -0.4836540133766E+00  0.0000000000000E+00  0.7189781678205E-01
 0.3199059927472E-01 -0.9340171750978E-01  0.0000000000000E+00  0.1121377862651E+00
 0.7557639697113E-01 -0.1344087716344E+00  0.0000000000000E+00  0.1312437138716E+00
 0.1154612725017E+00 -0.1718965894727E+00  0.0000000000000E+00  0.1474733629317E+00
 0.1520549174443E+00 -0.2062657372696E+00  0.0000000000000E+00  0.1605396854061E+00
 0.1856513359160E+00 -0.2378050880032E+00  0.0000000000000E+00  0.1703643657964E+00
 0.2164740173473E+00 -0.2667359823695E+00  0.0000000000000E+00  0.1770261294998E+00
 0.2447062551953E+00 -0.2932417649576E+00  0.0000000000000E+00  0.1807148926726E+00
 0.2705112899709E+00 -0.3174872778025E+00  0.0000000000000E+00  0.1816931438149E+00
 0.2940446086334E+00 -0.3396306505543E+00  0.0000000000000E+00  0.1802618651423E+00
 0.3154599090252E+00 -0.3598289665299E+00  0.0000000000000E+00  0.1767340654541E+00
 0.3349109212096E+00 -0.3782400337750E+00  0.0000000000000E+00  0.1714181267849E+00
 0.3525510413841E+00 -0.3950221319221E+00  0.0000000000000E+00  0.1646095392615E+00
 0.3685316526652E+00 -0.4103324434395E+00  0.0000000000000E+00  0.1565882552726E+00
 0.3830001400630E+00 -0.4243250721134E+00  0.0000000000000E+00  0.1476198737699E+00
 0.3960985083361E+00 -0.4371496111409E+00  0.0000000000000E+00  0.1379601673317E+00
 0.4079633480188E+00 -0.4489510854339E+00  0.0000000000000E+00  0.1278618549853E+00
 0.4187272613581E+00 -0.4598714038426E+00  0.0000000000000E+00  0.1175811035794E+00
 0.4285208370662E+00 -0.4700514024950E+00  0.0000000000000E+00  0.1073793888549E+00
 0.4374714460119E+00 -0.4796298178308E+00  0.0000000000000E+00  0.9751433228190E-01
 0.4456938885258E+00 -0.4887343214656E+00  0.0000000000000E+00  0.8822174172432E-01
 0.3313989439672E-01 -0.9532533364832E-01  0.0000000000000E+00  0.1319666463194E+00
 0.7704428117567E-01 -0.1366271739737E+00  0.0000000000000E+00  0.1489978767231E+00
 0.1173181753609E+00 -0.1744742054739E+00  0.0000000000000E+00  0.1635032103370E+00
 0.1543275095018E+00 -0.2092248379987E+00  0.0000000000000E+00  0.1751020995084E+00
 0.1883328694826E+00 -0.2411359546416E+00  0.0000000000000E+00  0.1836631005162E+00
 0.2195344807812E+00 -0.2704068747565E+00  0.0000000000000E+00  0.1892383686442E+00
 0.2481010716471E+00 -0.2972074434971E+00  0.0000000000000E+00  0.1920082217291E+00
 0.2741884454892E+00 -0.3216959557044E+00  0.0000000000000E+00  0.1922360523843E+00
 0.2979501780391E+00 -0.3440293467927E+00  0.0000000000000E+00  0.1902287583588E+00
 0.3195418324730E+00 -0.3643671323489E+00  0.0000000000000E+00  0.1863063226932E+00
 0.3391212184091E+00 -0.3828716567723E+00  0.0000000000000E+00  0.1807829523408E+00
 0.3568468555736E+00 -0.3997067132782E+00  0.0000000000000E+00  0.1739577943416E+00
 0.3728753637484E+00 -0.4150350747689E+00  0.0000000000000E+00  0.1661121507376E+00
 0.3873586073525E+00 -0.4290156498088E+00  0.0000000000000E+00  0.1575113579375E+00
 0.4004415903672E+00 -0.4418013174572E+00  0.0000000000000E+00  0.1484106524025E+00
 0.4122621555230E+00 -0.4535385822850E+00  0.0000000000000E+00  0.1390635601997E+00
 0.4229529734983E+00 -0.4643695578914E+00  0.0000000000000E+00  0.1297297996550E+00
 0.4326451851690E+00 -0.4744356223710E+00  0.0000000000000E+00  0.1206771235648E+00
 0.4414693063726E+00 -0.4838784343603E+00  0.0000000000000E+00  0.1121679508297E+00
 0.4495475548538E+00 -0.4928325729048E+00  0.0000000000000E+00  0.1044331453254E+00
 0.3441818554479E-01 -0.9734323129615E-01  0.0000000000000E+00  0.1518621294004E+00
 0.7856729780019E-01 -0.1388696521022E+00  0.0000000000000E+00  0.1668494949048E+00
 0.1191758220401E+00 -0.1770238110305E+00  0.0000000000000E+00  0.1796306314677E+00
 0.1565569337222E+00 -0.2121132629268E+00  0.0000000000000E+00  0.1897392543599E+00
 0.1909317195062E+00 -0.2443570500114E+00  0.0000000000000E+00  0.1969989885588E+00
 0.2224732966662E+00 -0.2739288002696E+00  0.0000000000000E+00  0.2014425755731E+00
 0.2513335245583E+00 -0.3009826881283E+00  0.0000000000000E+00  0.2032464534085E+00
 0.2776595714300E+00 -0.3256693601493E+00  0.0000000000000E+00  0.2026793914459E+00
 0.3016027256236E+00 -0.3481442475779E+00  0.0000000000000E+00  0.2000573659345E+00
 0.3233205861483E+00 -0.3685695124829E+00  0.0000000000000E+00  0.1957091794018E+00
 0.3429755282536E+00 -0.3871125506737E+00  0.0000000000000E+00  0.1899555593653E+00
 0.3607318120205E+00 -0.4039433033922E+00  0.0000000000000E+00  0.1830990000224E+00
 0.3767518530798E+00 -0.4192306993744E+00  0.0000000000000E+00  0.1754208970915E+00
 0.3911923002106E+00 -0.4331387515115E+00  0.0000000000000E+00  0.1671842253445E+00
 0.4042010505217E+00 -0.4458235024018E+00  0.0000000000000E+00  0.1586410294153E+00
 0.4159166267650E+00 -0.4574323372242E+00  0.0000000000000E+00  0.1500429673093E+00
 0.4264708853033E+00 -0.4681066491905E+00  0.0000000000000E+00  0.1416514408297E+00
 0.4359948942526E+00 -0.4779876555677E+00  0.0000000000000E+00  0.1337403895712E+00
 0.4446228479995E+00 -0.4872203284201E+00  0.0000000000000E+00  0.1265788312078E+00
 0.4524874494216E+00 -0.4959489680150E+00  0.0000000000000E+00  0.1203955930138E+00
 0.3582788994480E-01 -0.9945976763323E-01  0.0000000000000E+00  0.1717941032064E+00
 0.8015240665841E-01 -0.1411447958700E+00  0.0000000000000E+00  0.1847779697240E+00
 0.1210445511919E+00 -0.1795570732762E+00  0.0000000000000E+00  0.1958377272833E+00
 0.1587554752449E+00 -0.2149443475772E+00  0.0000000000000E+00  0.2044313633682E+00
 0.1934607481437E+00 -0.2474820376547E+00  0.0000000000000E+00  0.2103476188901E+00
 0.2253027716223E+00 -0.2773146482564E+00  0.0000000000000E+00  0.2136082595622E+00
 0.2544145038519E+00 -0.3045787834807E+00  0.0000000000000E+00  0.2143923722256E+00
 0.2809335483626E+00 -0.3294166082478E+00  0.0000000000000E+00  0.2129791316725E+00
 0.3050087977587E+00 -0.3519820045417E+00  0.0000000000000E+00  0.2096970906462E+00
 0.3268003086718E+00 -0.3724402416400E+00  0.0000000000000E+00  0.2048858473400E+00
 0.3464757335535E+00 -0.3909645018665E+00  0.0000000000000E+00  0.1988733401891E+00
 0.3642058972278E+00 -0.4077317116687E+00  0.0000000000000E+00  0.1919650063686E+00
 0.3801597659203E+00 -0.4229177139218E+00  0.0000000000000E+00  0.1844408907875E+00
 0.3944992473885E+00 -0.4366920962058E+00  0.0000000000000E+00  0.1765591967269E+00
 0.4073751286590E+00 -0.4492140514972E+00  0.0000000000000E+00  0.1685656809644E+00
 0.4189260100351E+00 -0.4606312285821E+00  0.0000000000000E+00  0.1607069478729E+00
 0.4292818253182E+00 -0.4710831690213E+00  0.0000000000000E+00  0.1532438294175E+00
 0.4385725617913E+00 -0.4807098683354E+00  0.0000000000000E+00  0.1464564921081E+00
 0.4469362270275E+00 -0.4896596209289E+00  0.0000000000000E+00  0.1406233549962E+00
 0.4545191658796E+00 -0.4980893431833E+00  0.0000000000000E+00  0.1359766436527E+00
 0.3737160682640E-01 -0.1016798303433E+00  0.0000000000000E+00  0.1917340778314E+00
 0.8180786955645E-01 -0.1434627745178E+00  0.0000000000000E+00  0.2027637433045E+00
 0.1229367718776E+00 -0.1820879486011E+00  0.0000000000000E+00  0.2121067142454E+00
 0.1609379297993E+00 -0.2177341105108E+00  0.0000000000000E+00  0.2191577671400E+00
 0.1959355165840E+00 -0.2505274167127E+00  0.0000000000000E+00  0.2236828510949E+00
 0.2280379374144E+00 -0.2805801427281E+00  0.0000000000000E+00  0.2257025562112E+00
 0.2573575574005E+00 -0.3080097627923E+00  0.0000000000000E+00  0.2254059578701E+00
 0.2840218049204E+00 -0.3329494450237E+00  0.0000000000000E+00  0.2230882178946E+00
 0.3081773777449E+00 -0.3555517828536E+00  0.0000000000000E+00  0.2190942876446E+00
 0.3299874922243E+00 -0.3759858879177E+00  0.0000000000000E+00  0.2137766441365E+00
 0.3496260304605E+00 -0.3944316978423E+00  0.0000000000000E+00  0.2074711063117E+00
 0.3672714238078E+00 -0.4110741718610E+00  0.0000000000000E+00  0.2004855658044E+00
 0.3831001552778E+00 -0.4260970321101E+00  0.0000000000000E+00  0.1930971141222E+00
 0.3972800647181E+00 -0.4396761100250E+00  0.0000000000000E+00  0.1855564858733E+00
 0.4099649653861E+00 -0.4519738825795E+00  0.0000000000000E+00  0.1780995891904E+00
 0.4212929223149E+00 -0.4631376505219E+00  0.0000000000000E+00  0.1709641707665E+00
 0.4313905770257E+00 -0.4733037360030E+00  0.0000000000000E+00  0.1644076776604E+00
 0.4403853382089E+00 -0.4826093972868E+00  0.0000000000000E+00  0.1587165206145E+00
 0.4484184915893E+00 -0.4912056448344E+00  0.0000000000000E+00  0.1541822224163E+00
 0.4556527179740E+00 -0.4992644584727E+00  0.0000000000000E+00  0.1510489838252E+00
 0.3905221334484E-01 -0.1040089478304E+00  0.0000000000000E+00  0.2116556626691E+00
 0.8354341268958E-01 -0.1458355085131E+00  0.0000000000000E+00  0.2207885949054E+00
 0.1248671630105E+00 -0.1846328876364E+00  0.0000000000000E+00  0.2284200339489E+00
 0.1631218004179E+00 -0.2205014529023E+00  0.0000000000000E+00  0.2338968762141E+00
 0.1983744497716E+00 -0.2535126874160E+00  0.0000000000000E+00  0.2369766459549E+00
 0.2306966704098E+00 -0.2837439606708E+00  0.0000000000000E+00  0.2376900069494E+00
 0.2601789620561E+00 -0.3112924761999E+00  0.0000000000000E+00  0.2362441613367E+00
 0.2869383431346E+00 -0.3362822651441E+00  0.0000000000000E+00  0.2329563809776E+00
 0.3111198726185E+00 -0.3588652445986E+00  0.0000000000000E+00  0.2281921396346E+00
 0.3328909376027E+00 -0.3792154056936E+00  0.0000000000000E+00  0.2223189398516E+00
 0.3524328509853E+00 -0.3975206495170E+00  0.0000000000000E+00  0.2156810973739E+00
 0.3699329077743E+00 -0.4139752208660E+00  0.0000000000000E+00  0.2085883936557E+00
 0.3855762919913E+00 -0.4287718962989E+00  0.0000000000000E+00  0.2013132557710E+00
 0.3995376776138E+00 -0.4420936473997E+00  0.0000000000000E+00  0.1940960229750E+00
 0.4119742332972E+00 -0.4541065695526E+00  0.0000000000000E+00  0.1871587332808E+00
 0.4230229106100E+00 -0.4649570578170E+00  0.0000000000000E+00  0.1807257392374E+00
 0.4328054002845E+00 -0.4747765912637E+00  0.0000000000000E+00  0.1750474950908E+00
 0.4414444217330E+00 -0.4836976027692E+00  0.0000000000000E+00  0.1704164840699E+00
 0.4490830583941E+00 -0.4918723433603E+00  0.0000000000000E+00  0.1671418423416E+00
 0.4559015862222E+00 -0.4994890614719E+00  0.0000000000000E+00  0.1654916470351E+00
 0.4087297078583E-01 -0.1064534077864E+00  0.0000000000000E+00  0.2315350286947E+00
 0.8537040504976E-01 -0.1482768554906E+00  0.0000000000000E+00  0.2388359428482E+00
 0.1268528940934E+00 -0.1872110597503E+00  0.0000000000000E+00  0.2447604441845E+00
 0.1653275129615E+00 -0.2232683754479E+00  0.0000000000000E+00  0.2486260657680E+00
 0.2007990106033E+00 -0.2564605246334E+00  0.0000000000000E+00  0.2501988263028E+00
 0.2332998083004E+00 -0.2868278459555E+00  0.0000000000000E+00  0.2495322604152E+00
 0.2628977797611E+00 -0.3144466420051E+00  0.0000000000000E+00  0.2468606052434E+00
 0.2896997392732E+00 -0.3394321076329E+00  0.0000000000000E+00  0.2425298860565E+00
 0.3138500717187E+00 -0.3619365012321E+00  0.0000000000000E+00  0.2369304866765E+00
 0.3355216849107E+00 -0.3821400618027E+00  0.0000000000000E+00  0.2304470722856E+00
 0.3549047706165E+00 -0.4002400973494E+00  0.0000000000000E+00  0.2234329554292E+00
 0.3721969393822E+00 -0.4164415713487E+00  0.0000000000000E+00  0.2161991636103E+00
 0.3875934667653E+00 -0.4309476827668E+00  0.0000000000000E+00  0.2090117121997E+00
 0.4012770177881E+00 -0.4439496883463E+00  0.0000000000000E+00  0.2020975013998E+00
 0.4134087126186E+00 -0.4556179106525E+00  0.0000000000000E+00  0.1956602792294E+00
 0.4241239298679E+00 -0.4660974249095E+00  0.0000000000000E+00  0.1899056276984E+00
 0.4335374610274E+00 -0.4755129947418E+00  0.0000000000000E+00  0.1850722918938E+00
 0.4417644442245E+00 -0.4839894157056E+00  0.0000000000000E+00  0.1814581484043E+00
 0.4489469046289E+00 -0.4916773873859E+00  0.0000000000000E+00  0.1793953040777E+00
 0.4552815067257E+00 -0.4987804439052E+00  0.0000000000000E+00  0.1791912095041E+00
 0.4283764518718E-01 -0.1090203927870E+00  0.0000000000000E+00  0.2513514642230E+00
 0.8730206116044E-01 -0.1508028217037E+00  0.0000000000000E+00  0.2568912366009E+00
 0.1289138806225E+00 -0.1898446139760E+00  0.0000000000000E+00  0.2611111632110E+00
 0.1675786665047E+00 -0.2260602320184E+00  0.0000000000000E+00  0.2633215741719E+00
 0.2032338985726E+00 -0.2593969775531E+00  0.0000000000000E+00  0.2633168026583E+00
 0.2358712758171E+00 -0.2898567332170E+00  0.0000000000000E+00  0.2611877186353E+00
 0.2655359062201E+00 -0.3174948904884E+00  0.0000000000000E+00  0.2572052254396E+00
 0.2923251235580E+00 -0.3424186285071E+00  0.0000000000000E+00  0.2517512348693E+00
 0.3163840782101E+00 -0.3647820372959E+00  0.0000000000000E+00  0.2452456359571E+00
 0.3378929230284E+00 -0.3847733386842E+00  0.0000000000000E+00  0.2380922687029E+00
 0.3570524117251E+00 -0.4026009123818E+00  0.0000000000000E+00  0.2306537125948E+00
 0.3740720699083E+00 -0.4184820017632E+00  0.0000000000000E+00  0.2232414838611E+00
 0.3891588164354E+00 -0.4326317353305E+00  0.0000000000000E+00  0.2161134926228E+00
 0.4025047268452E+00 -0.4452510478400E+00  0.0000000000000E+00  0.2094802321604E+00
 0.4142758310767E+00 -0.4565154643361E+00  0.0000000000000E+00  0.2035225140227E+00
 0.4246057433915E+00 -0.4665686246248E+00  0.0000000000000E+00  0.1984208746407E+00
 0.4336001765154E+00 -0.4755265318331E+00  0.0000000000000E+00  0.1943960886327E+00
 0.4413628838229E+00 -0.4835026827668E+00  0.0000000000000E+00  0.1917496076846E+00
 0.4480299425303E+00 -0.4906415133721E+00  0.0000000000000E+00  0.1908418228805E+00
 0.4538097754389E+00 -0.4971574113925E+00  0.0000000000000E+00  0.1920380770213E+00
 0.4495064010968E-01 -0.1117181192716E+00  0.0000000000000E+00  0.2710879572402E+00
 0.8935366500471E-01 -0.1534317897297E+00  0.0000000000000E+00  0.2749424025650E+00
 0.1310730797098E+00 -0.1925589759568E+00  0.0000000000000E+00  0.2774560340072E+00
 0.1699023268447E+00 -0.2289060234522E+00  0.0000000000000E+00  0.2779583638886E+00
 0.2057072785279E+00 -0.2623516968232E+00  0.0000000000000E+00  0.2762952122072E+00
 0.2384382194023E+00 -0.2928588774843E+00  0.0000000000000E+00  0.2726110729022E+00
 0.2681181056155E+00 -0.3204627898638E+00  0.0000000000000E+00  0.2672238009542E+00
 0.2948361261579E+00 -0.3452640349942E+00  0.0000000000000E+00  0.2605587774954E+00
 0.3187401968263E+00 -0.3674205850542E+00  0.0000000000000E+00  0.2530701229812E+00
 0.3400198619081E+00 -0.3871307946510E+00  0.0000000000000E+00  0.2451825701904E+00
 0.3588883362540E+00 -0.4046159819786E+00  0.0000000000000E+00  0.2372678159302E+00
 0.3755687272243E+00 -0.4201072738695E+00  0.0000000000000E+00  0.2296368922249E+00
 0.3902812092880E+00 -0.4338332624368E+00  0.0000000000000E+00  0.2225380443147E+00
 0.4032289096727E+00 -0.4460061432503E+00  0.0000000000000E+00  0.2161627628099E+00
 0.4145841948594E+00 -0.4568080824057E+00  0.0000000000000E+00  0.2106644196727E+00
 0.4244792365382E+00 -0.4663817199102E+00  0.0000000000000E+00  0.2061914180414E+00
 0.4330084588911E+00 -0.4748323012514E+00  0.0000000000000E+00  0.2029382203940E+00
 0.4402595104417E+00 -0.4822575365045E+00  0.0000000000000E+00  0.2012058551224E+00
 0.4463552742193E+00 -0.4887885743377E+00  0.0000000000000E+00  0.2013863335411E+00
 0.4515066578687E+00 -0.4946417626251E+00  0.0000000000000E+00  0.2039208856559E+00
 0.4721712333556E-01 -0.1145559737347E+00  0.0000000000000E+00  0.2907318434268E+00
 0.9154281065092E-01 -0.1561847638819E+00  0.0000000000000E+00  0.2929804027618E+00
 0.1333568340104E+00 -0.1953831969106E+00  0.0000000000000E+00  0.2937797539302E+00
 0.1723293783961E+00 -0.2318387548492E+00  0.0000000000000E+00  0.2925099565205E+00
 0.2082510511107E+00 -0.2653582074072E+00  0.0000000000000E+00  0.2890954549639E+00
 0.2410311541718E+00 -0.2958659988528E+00  0.0000000000000E+00  0.2837527012603E+00
 0.2706720258236E+00 -0.3233788535187E+00  0.0000000000000E+00  0.2768573423576E+00
 0.2972567753419E+00 -0.3479929714547E+00  0.0000000000000E+00  0.2688862089678E+00
 0.3209387561257E+00 -0.3698729314927E+00  0.0000000000000E+00  0.2603324134319E+00
 0.3419195416461E+00 -0.3892298573823E+00  0.0000000000000E+00  0.2516427746656E+00
 0.3604269080966E+00 -0.4063000604209E+00  0.0000000000000E+00  0.2431972488231E+00
 0.3766991660670E+00 -0.4213300838921E+00  0.0000000000000E+00  0.2353049682204E+00
 0.3909712369385E+00 -0.4345633475662E+00  0.0000000000000E+00  0.2282030869237E+00
 0.4034590152054E+00 -0.4462249077548E+00  0.0000000000000E+00  0.2220622486571E+00
 0.4143431676720E+00 -0.4565055093535E+00  0.0000000000000E+00  0.2170047314153E+00
 0.4237556395360E+00 -0.4655481669214E+00  0.0000000000000E+00  0.2131393662136E+00
 0.4317777684961E+00 -0.4734459077817E+00  0.0000000000000E+00  0.2106233352154E+00
 0.4384757656061E+00 -0.4802756588075E+00  0.0000000000000E+00  0.2097496330094E+00
 0.4439495760164E+00 -0.4861458269579E+00  0.0000000000000E+00  0.2109409696049E+00
 0.4483984794148E+00 -0.4912609020905E+00  0.0000000000000E+00  0.2147291731296E+00
 0.4964315324028E-01 -0.1175446317641E+00  0.0000000000000E+00  0.3102755739944E+00
 0.9388966496020E-01 -0.1590856288078E+00  0.0000000000000E+00  0.3110000219643E+00
 0.1357952989235E+00 -0.1983503844871E+00  0.0000000000000E+00  0.3100682669214E+00
 0.1748949791954E+00 -0.2348958945461E+00  0.0000000000000E+00  0.3069482814357E+00
 0.2109012017131E+00 -0.2684542596061E+00  0.0000000000000E+00  0.3016751197647E+00
 0.2436841459816E+00 -0.2989134577367E+00  0.0000000000000E+00  0.2945579012747E+00
 0.2732282053646E+00 -0.3262745346752E+00  0.0000000000000E+00  0.2860413101380E+00
 0.2996133486717E+00 -0.3506323525198E+00  0.0000000000000E+00  0.2766619214134E+00
 0.3230018540823E+00 -0.3721616420431E+00  0.0000000000000E+00  0.2669565252407E+00
 0.3436105556076E+00 -0.3910895223814E+00  0.0000000000000E+00  0.2573944048415E+00
 0.3616840958228E+00 -0.4076695493871E+00  0.0000000000000E+00  0.2483618107964E+00
 0.3774774458363E+00 -0.4221650271661E+00  0.0000000000000E+00  0.2401637262981E+00
 0.3912413728862E+00 -0.4348351292014E+00  0.0000000000000E+00  0.2330246764427E+00
 0.4032059853483E+00 -0.4459189924231E+00  0.0000000000000E+00  0.2270936968306E+00
 0.4135626410220E+00 -0.4556182168084E+00  0.0000000000000E+00  0.2224603015359E+00
 0.4224456578095E+00 -0.4640789386178E+00  0.0000000000000E+00  0.2191873210230E+00
 0.4299228310950E+00 -0.4713820805436E+00  0.0000000000000E+00  0.2173809248399E+00
 0.4360337723977E+00 -0.4775791916909E+00  0.0000000000000E+00  0.2173126788871E+00
 0.4408433413289E+00 -0.4827440251691E+00  0.0000000000000E+00  0.2194274256499E+00
 0.4445196946482E+00 -0.4870499707543E+00  0.0000000000000E+00  0.2243558881651E+00
 0.5223574555381E-01 -0.1206960963708E+00  0.0000000000000E+00  0.3297175593852E+00
 0.9641722219429E-01 -0.1621614012478E+00  0.0000000000000E+00  0.3290009477921E+00
 0.1384229713342E+00 -0.2014982361155E+00  0.0000000000000E+00  0.3263093534541E+00
 0.1776391539554E+00 -0.2381199889050E+00  0.0000000000000E+00  0.3212434728800E+00
 0.2136982394157E+00 -0.2716822688552E+00  0.0000000000000E+00  0.3139871746274E+00
 0.2464350174822E+00 -0.3020404579467E+00  0.0000000000000E+00  0.3049658529538E+00
 0.2758200513196E+00 -0.3291841894723E+00  0.0000000000000E+00  0.2947045719672E+00
 0.3019341489075E+00 -0.3532111215294E+00  0.0000000000000E+00  0.2838081319956E+00
 0.3249529870151E+00 -0.3743106649163E+00  0.0000000000000E+00  0.2728614927738E+00
 0.3451126295797E+00 -0.3927299019083E+00  0.0000000000000E+00  0.2623556475784E+00
 0.3626771439793E+00 -0.4087421362369E+00  0.0000000000000E+00  0.2526795594553E+00
 0.3779193529879E+00 -0.4226284965112E+00  0.0000000000000E+00  0.2441304020972E+00
 0.3911063005003E+00 -0.4346641167001E+00  0.0000000000000E+00  0.2369178864985E+00
 0.4024828752775E+00 -0.4451024885186E+00  0.0000000000000E+00  0.2311694440776E+00
 0.4122533238208E+00 -0.4541578236981E+00  0.0000000000000E+00  0.2269436055919E+00
 0.4205586414781E+00 -0.4619837870071E+00  0.0000000000000E+00  0.2242548076904E+00
 0.4274556336553E+00 -0.4686525069979E+00  0.0000000000000E+00  0.2231435527687E+00
 0.4329545935129E+00 -0.4741887213239E+00  0.0000000000000E+00  0.2238379837016E+00
 0.4370709505409E+00 -0.4786175552761E+00  0.0000000000000E+00  0.2267812730698E+00
 0.4399164403797E+00 -0.4820551014212E+00  0.0000000000000E+00  0.2327001168133E+00
 0.5500282917835E-01 -0.1240236008315E+00  0.0000000000000E+00  0.3490632316389E+00
 0.9915154033644E-01 -0.1654424067644E+00  0.0000000000000E+00  0.3469896378638E+00
 0.1412794492959E+00 -0.2048698706006E+00  0.0000000000000E+00  0.3424937391273E+00
 0.1806076474062E+00 -0.2415595176086E+00  0.0000000000000E+00  0.3353636170047E+00
 0.2166877830317E+00 -0.2750899244614E+00  0.0000000000000E+00  0.3259788803926E+00
 0.2493256004607E+00 -0.3052902715883E+00  0.0000000000000E+00  0.3149082813999E+00
 0.2784838086458E+00 -0.3321450382977E+00  0.0000000000000E+00  0.3027681206104E+00
 0.3042492211000E+00 -0.3557599453449E+00  0.0000000000000E+00  0.2902397489959E+00
 0.3268165532282E+00 -0.3763448044139E+00  0.0000000000000E+00  0.2779606367934E+00
 0.3464460226004E+00 -0.3941715890252E+00  0.0000000000000E+00  0.2664412291668E+00
 0.3634240364277E+00 -0.4095362102408E+00  0.0000000000000E+00  0.2560674165258E+00
 0.3780421642594E+00 -0.4227383949872E+00  0.0000000000000E+00  0.2471227511066E+00
 0.3905832242683E+00 -0.4340684810392E+00  0.0000000000000E+00  0.2397984382722E+00
 0.4013060909187E+00 -0.4437931091002E+00  0.0000000000000E+00  0.2342002317427E+00
 0.4104283082683E+00 -0.4521390994944E+00  0.0000000000000E+00  0.2303599245667E+00
 0.4181024053641E+00 -0.4592712765660E+00  0.0000000000000E+00  0.2282511879795E+00
 0.4243821901251E+00 -0.4652625400340E+00  0.0000000000000E+00  0.2278410586480E+00
 0.4292540032014E+00 -0.4701183321257E+00  0.0000000000000E+00  0.2292829984539E+00
 0.4326706754196E+00 -0.4738039428401E+00  0.0000000000000E+00  0.2329633132829E+00
 0.4346537658609E+00 -0.4763417845481E+00  0.0000000000000E+00  0.2396710602611E+00
 0.5795294317900E-01 -0.1275408550823E+00  0.0000000000000E+00  0.3683271795698E+00
 0.1021219996429E+00 -0.1689627218189E+00  0.0000000000000E+00  0.3649828946065E+00
 0.1444106689330E+00 -0.2085149911422E+00  0.0000000000000E+00  0.3586169338110E+00
 0.1838532235223E+00 -0.2452704228127E+00  0.0000000000000E+00  0.3492741226303E+00
 0.2199212359526E+00 -0.2787307222938E+00  0.0000000000000E+00  0.3375899009111E+00
 0.2524019632398E+00 -0.3087104816053E+00  0.0000000000000E+00  0.3243079633819E+00
 0.2812585599671E+00 -0.3351971649519E+00  0.0000000000000E+00  0.3101434182092E+00
 0.3065899857126E+00 -0.3583108262908E+00  0.0000000000000E+00  0.2958627709271E+00
 0.3286171773808E+00 -0.3782889983837E+00  0.0000000000000E+00  0.2821605142786E+00
 0.3476307079604E+00 -0.3954348038677E+00  0.0000000000000E+00  0.2695621224022E+00
 0.3639426612513E+00 -0.4100699869020E+00  0.0000000000000E+00  0.2584417028939E+00
 0.3778640468765E+00 -0.4225134415276E+00  0.0000000000000E+00  0.2490607709878E+00
 0.3896919951425E+00 -0.4330691098037E+00  0.0000000000000E+00  0.2415854394910E+00
 0.3996965439785E+00 -0.4420133868185E+00  0.0000000000000E+00  0.2360982045446E+00
 0.4081068354795E+00 -0.4495832641690E+00  0.0000000000000E+00  0.2326094469975E+00
 0.4150866850788E+00 -0.4559544272632E+00  0.0000000000000E+00  0.2310634217988E+00
 0.4206979312887E+00 -0.4612062096519E+00  0.0000000000000E+00  0.2313810488318E+00
 0.4249317605475E+00 -0.4653634294637E+00  0.0000000000000E+00  0.2336203171307E+00
 0.4276801529995E+00 -0.4683378102537E+00  0.0000000000000E+00  0.2379873110730E+00
 0.4288323296575E+00 -0.4700113406310E+00  0.0000000000000E+00  0.2452179279564E+00
 0.6109374757442E-01 -0.1312607642776E+00  0.0000000000000E+00  0.3875342898042E+00
 0.1053612533413E+00 -0.1727586608980E+00  0.0000000000000E+00  0.3830172928208E+00
 0.1478721937673E+00 -0.2124951299680E+00  0.0000000000000E+00  0.3746830035545E+00
 0.1874375548170E+00 -0.2493172309020E+00  0.0000000000000E+00  0.3629327853274E+00
 0.2234558462457E+00 -0.2826639420863E+00  0.0000000000000E+00  0.3487508298598E+00
 0.2557148845921E+00 -0.3123535238178E+00  0.0000000000000E+00  0.3330776613383E+00
 0.2841864351867E+00 -0.3383838301805E+00  0.0000000000000E+00  0.3167298875515E+00
 0.3089886842837E+00 -0.3608964206178E+00  0.0000000000000E+00  0.3005718439262E+00
 0.3303787736041E+00 -0.3801673278622E+00  0.0000000000000E+00  0.2853597445250E+00
 0.3486853733791E+00 -0.3965383809942E+00  0.0000000000000E+00  0.2716251083932E+00
 0.3642496950659E+00 -0.4103603523060E+00  0.0000000000000E+00  0.2597183663906E+00
 0.3774028327031E+00 -0.4219718887921E+00  0.0000000000000E+00  0.2498682652692E+00
 0.3884545568936E+00 -0.4316887617453E+00  0.0000000000000E+00  0.2422057086014E+00
 0.3976808712685E+00 -0.4397919326233E+00  0.0000000000000E+00  0.2367821208364E+00
 0.4053165651366E+00 -0.4465206493453E+00  0.0000000000000E+00  0.2335929374955E+00
 0.4115357399370E+00 -0.4520597783953E+00  0.0000000000000E+00  0.2325654292864E+00
 0.4163942283648E+00 -0.4564853929834E+00  0.0000000000000E+00  0.2335927736368E+00
 0.4199410114924E+00 -0.4598619971668E+00  0.0000000000000E+00  0.2367889702642E+00
 0.4221106636254E+00 -0.4622152316282E+00  0.0000000000000E+00  0.2419997672934E+00
 0.4226217482976E+00 -0.4632412002559E+00  0.0000000000000E+00  0.2494156730595E+00
 0.6442762233175E-01 -0.1351711736255E+00  0.0000000000000E+00  0.4067737252867E+00
 0.1089158830630E+00 -0.1768933207562E+00  0.0000000000000E+00  0.4012015992492E+00
 0.1517406558812E+00 -0.2168924703739E+00  0.0000000000000E+00  0.3906827708006E+00
 0.1914282968072E+00 -0.2537685699048E+00  0.0000000000000E+00  0.3762819322547E+00
 0.2273542143404E+00 -0.2869539789056E+00  0.0000000000000E+00  0.3593889833306E+00
 0.2593221744665E+00 -0.3162802046030E+00  0.0000000000000E+00  0.3411190356287E+00
 0.2873129667905E+00 -0.3417513493307E+00  0.0000000000000E+00  0.3224086858088E+00
 0.3114770888253E+00 -0.3635485717555E+00  0.0000000000000E+00  0.3042476881374E+00
 0.3321234013965E+00 -0.3820018932627E+00  0.0000000000000E+00  0.2874481381116E+00
 0.3496263591809E+00 -0.3974986640516E+00  0.0000000000000E+00  0.2725322306127E+00
 0.3643593206264E+00 -0.4104216107890E+00  0.0000000000000E+00  0.2598126675238E+00
 0.3766742604317E+00 -0.4211296893987E+00  0.0000000000000E+00  0.2494733818892E+00
 0.3868925621632E+00 -0.4299496434125E+00  0.0000000000000E+00  0.2415974626514E+00
 0.3952917226036E+00 -0.4371624609841E+00  0.0000000000000E+00  0.2361893284693E+00
 0.4020979978639E+00 -0.4429966598515E+00  0.0000000000000E+00  0.2332172955414E+00
 0.4074868301362E+00 -0.4476276854179E+00  0.0000000000000E+00  0.2326307808560E+00
 0.4115116373573E+00 -0.4511387461027E+00  0.0000000000000E+00  0.2342894159359E+00
 0.4141960169014E+00 -0.4535818619205E+00  0.0000000000000E+00  0.2383965313498E+00
 0.4157946638347E+00 -0.4551630830621E+00  0.0000000000000E+00  0.2451584849229E+00
 0.4165159323524E+00 -0.4564594303729E+00  0.0000000000000E+00  0.2526148939033E+00
 0.7165108591735E-01 -0.1128571205712E+00  0.0000000000000E+00 -0.1938625736108E+00
 0.3649335265824E-01 -0.3620492257644E-01  0.0000000000000E+00 -0.2558161996421E-01
-0.1801179818846E-01  0.2271258602956E-01  0.0000000000000E+00 -0.4708649967022E-01
-0.3889705085114E-01  0.4638078790175E-01  0.0000000000000E+00 -0.7463263751378E-01
-0.4490912362294E-01  0.5355082565356E-01  0.0000000000000E+00 -0.9508323783747E-01
-0.4424350069993E-01  0.5278320359787E-01  0.0000000000000E+00 -0.1040828964936E+00
-0.4398574303790E-01  0.5232720390301E-01  0.0000000000000E+00 -0.9890786794588E-01
-0.4612393251980E-01  0.5429597369868E-01  0.0000000000000E+00 -0.8861478886511E-01
-0.4847985268139E-01  0.5642909490261E-01  0.0000000000000E+00 -0.7793519982516E-01
-0.4983394718854E-01  0.5751499953651E-01  0.0000000000000E+00 -0.6698013403567E-01
-0.5005316664419E-01  0.5739462714871E-01  0.0000000000000E+00 -0.5534145127235E-01
-0.4912405422936E-01  0.5606807176222E-01  0.0000000000000E+00 -0.4306808217581E-01
-0.4692432918412E-01  0.5337647822845E-01  0.0000000000000E+00 -0.3060537471666E-01
-0.4329509998020E-01  0.4913914045949E-01  0.0000000000000E+00 -0.1818451823703E-01
-0.3825998120491E-01  0.4340152212617E-01  0.0000000000000E+00 -0.6254219558574E-02
-0.3176383565549E-01  0.3615234714572E-01  0.0000000000000E+00  0.4072672968497E-02
-0.2375806536466E-01  0.2709634518957E-01  0.0000000000000E+00  0.1269618919129E-01
-0.1514514971486E-01  0.1746299301981E-01  0.0000000000000E+00  0.2105289301859E-01
-0.6944017512649E-02  0.8551861165234E-02  0.0000000000000E+00  0.2772856672756E-01
 0.1627783173664E-02 -0.1848577231076E-03  0.0000000000000E+00  0.3007672045763E-01
 0.6794168788304E-01 -0.8871759503360E-01  0.0000000000000E+00 -0.2645285274765E+00
 0.5053614097537E-01 -0.6024496967864E-01  0.0000000000000E+00 -0.1234103815413E+00
 0.7879431004812E-02 -0.6241356551619E-02  0.0000000000000E+00 -0.6862014622967E-01
-0.1827319598476E-01  0.2295248066732E-01  0.0000000000000E+00 -0.6929112570554E-01
-0.2983454191230E-01  0.3616124627940E-01  0.0000000000000E+00 -0.7806131077249E-01
-0.3453333002858E-01  0.4152488189828E-01  0.0000000000000E+00 -0.8460467647503E-01
-0.3701610315696E-01  0.4410389164763E-01  0.0000000000000E+00 -0.8365360014518E-01
-0.3969153705157E-01  0.4662697813470E-01  0.0000000000000E+00 -0.7714500978378E-01
-0.4220253120465E-01  0.4893818213410E-01  0.0000000000000E+00 -0.6838610061125E-01
-0.4390862856765E-01  0.5042027331285E-01  0.0000000000000E+00 -0.5851182846653E-01
-0.4465340900113E-01  0.5089583344715E-01  0.0000000000000E+00 -0.4766787658203E-01
-0.4436800613480E-01  0.5027628331439E-01  0.0000000000000E+00 -0.3591394719206E-01
-0.4295357144675E-01  0.4845504363803E-01  0.0000000000000E+00 -0.2351593399053E-01
-0.4026179876319E-01  0.4527941656154E-01  0.0000000000000E+00 -0.1078262948763E-01
-0.3618226035394E-01  0.4064187503024E-01  0.0000000000000E+00  0.1827011634683E-02
-0.3067661852983E-01  0.3447870914467E-01  0.0000000000000E+00  0.1368008848267E-01
-0.2387215033543E-01  0.2695604467676E-01  0.0000000000000E+00  0.2411429240883E-01
-0.1607133428690E-01  0.1842068544405E-01  0.0000000000000E+00  0.3321234501438E-01
-0.7665772805583E-02  0.9452547912992E-02  0.0000000000000E+00  0.4016197631154E-01
 0.1573812254837E-02  0.5632950678325E-04  0.0000000000000E+00  0.4290254298323E-01
 0.6072051225964E-01 -0.7615890337605E-01  0.0000000000000E+00 -0.2856334119820E+00
 0.5204905132968E-01 -0.6187051481078E-01  0.0000000000000E+00 -0.1784214484444E+00
 0.2477246435107E-01 -0.2763767138317E-01  0.0000000000000E+00 -0.1038784112331E+00
 0.6386201206086E-03  0.1279483034398E-02  0.0000000000000E+00 -0.7374906552384E-01
-0.1446153292720E-01  0.1846868819312E-01  0.0000000000000E+00 -0.6840284659412E-01
-0.2297881700178E-01  0.2814551513269E-01  0.0000000000000E+00 -0.6963547862386E-01
-0.2823581033015E-01  0.3384642048534E-01  0.0000000000000E+00 -0.6932728625133E-01
-0.3209819525494E-01  0.3771850177584E-01  0.0000000000000E+00 -0.6529639604305E-01
-0.3511396541128E-01  0.4059089044345E-01  0.0000000000000E+00 -0.5862544080051E-01
-0.3727150638826E-01  0.4256960239061E-01  0.0000000000000E+00 -0.5023465429936E-01
-0.3856951045503E-01  0.4365332851977E-01  0.0000000000000E+00 -0.4049510973556E-01
-0.3896530248914E-01  0.4378240446095E-01  0.0000000000000E+00 -0.2956123393149E-01
-0.3836899251851E-01  0.4286058699709E-01  0.0000000000000E+00 -0.1765516637162E-01
-0.3663715149298E-01  0.4074800823877E-01  0.0000000000000E+00 -0.5046397169562E-02
-0.3362513017064E-01  0.3729513172398E-01  0.0000000000000E+00  0.7896180615947E-02
-0.2925319467163E-01  0.3242730482153E-01  0.0000000000000E+00  0.2057558095758E-01
-0.2358825631234E-01  0.2623956817863E-01  0.0000000000000E+00  0.3213231523245E-01
-0.1656331069845E-01  0.1871820967250E-01  0.0000000000000E+00  0.4230421938742E-01
-0.8235394077350E-02  0.9996137607577E-02  0.0000000000000E+00  0.5011979976827E-01
 0.1297853408247E-02  0.3530227326499E-03  0.0000000000000E+00  0.5358330706993E-01
 0.5555315489778E-01 -0.6883031180583E-01  0.0000000000000E+00 -0.2962812372193E+00
 0.5081380950136E-01 -0.6082620438177E-01  0.0000000000000E+00 -0.2100766308417E+00
 0.3461486887591E-01 -0.3986640712062E-01  0.0000000000000E+00 -0.1333983706906E+00
 0.1598007130957E-01 -0.1704010361565E-01  0.0000000000000E+00 -0.8617064959667E-01
 0.4887354523292E-03  0.1162712725652E-02  0.0000000000000E+00 -0.6570734125917E-01
-0.1045078325973E-01  0.1364731603235E-01  0.0000000000000E+00 -0.5949335769892E-01
-0.1796534849839E-01  0.2191812032774E-01  0.0000000000000E+00 -0.5732556552896E-01
-0.2321856853452E-01  0.2739370522070E-01  0.0000000000000E+00 -0.5412703894334E-01
-0.2702597649143E-01  0.3117197222027E-01  0.0000000000000E+00 -0.4901753605775E-01
-0.2978792500997E-01  0.3381742525306E-01  0.0000000000000E+00 -0.4217337799392E-01
-0.3169807378720E-01  0.3556855526532E-01  0.0000000000000E+00 -0.3377623057654E-01
-0.3279763036281E-01  0.3646386518941E-01  0.0000000000000E+00 -0.2395929750542E-01
-0.3303456684939E-01  0.3645048884419E-01  0.0000000000000E+00 -0.1290772432278E-01
-0.3228843007703E-01  0.3541278666632E-01  0.0000000000000E+00 -0.8395391934207E-03
-0.3039707120970E-01  0.3319114561096E-01  0.0000000000000E+00  0.1194645092948E-01
-0.2722925492477E-01  0.2966308931382E-01  0.0000000000000E+00  0.2491259653979E-01
-0.2278138365984E-01  0.2485942352201E-01  0.0000000000000E+00  0.3718351171718E-01
-0.1669062074281E-01  0.1845718203587E-01  0.0000000000000E+00  0.4832704002831E-01
-0.8755352409340E-02  0.1028414969677E-01  0.0000000000000E+00  0.5716432394259E-01
 0.6936192139830E-03  0.7853623754251E-03  0.0000000000000E+00  0.6152473063118E-01
 0.5190286701507E-01 -0.6448913391657E-01  0.0000000000000E+00 -0.3024738919844E+00
 0.4923628816002E-01 -0.5966896432133E-01  0.0000000000000E+00 -0.2291978704433E+00
 0.4052164416578E-01 -0.4751196263902E-01  0.0000000000000E+00 -0.1554764515718E+00
 0.2762978239518E-01 -0.3112070497915E-01  0.0000000000000E+00 -0.1004070403087E+00
 0.1403389327721E-01 -0.1477698227792E-01  0.0000000000000E+00 -0.6869378029375E-01
 0.2346645460468E-02 -0.1210628844270E-02  0.0000000000000E+00 -0.5419096744979E-01
-0.6678045392793E-02  0.8840034310540E-02  0.0000000000000E+00 -0.4837462166430E-01
-0.1317929149926E-01  0.1578176623336E-01  0.0000000000000E+00 -0.4452318493886E-01
-0.1787817112412E-01  0.2059815649185E-01  0.0000000000000E+00 -0.4014069110588E-01
-0.2135323762244E-01  0.2404548311835E-01  0.0000000000000E+00 -0.3455853507974E-01
-0.2393507158908E-01  0.2653199596731E-01  0.0000000000000E+00 -0.2754675547135E-01
-0.2575709733838E-01  0.2821099698084E-01  0.0000000000000E+00 -0.1905446083096E-01
-0.2682794950695E-01  0.2909982331047E-01  0.0000000000000E+00 -0.9167704092434E-02
-0.2706775414266E-01  0.2912785625226E-01  0.0000000000000E+00  0.1964625499599E-02
-0.2631521803204E-01  0.2814037940285E-01  0.0000000000000E+00  0.1412333900166E-01
-0.2440243008483E-01  0.2598310437361E-01  0.0000000000000E+00  0.2686302906945E-01
-0.2126797501108E-01  0.2262896741084E-01  0.0000000000000E+00  0.3939596176092E-01
-0.1632102989600E-01  0.1752170903151E-01  0.0000000000000E+00  0.5122349823236E-01
-0.9132534195960E-02  0.1022646105743E-01  0.0000000000000E+00  0.6093295232822E-01
-0.1740258819655E-03  0.1276367839515E-02  0.0000000000000E+00  0.6610462305197E-01
 0.4932125272921E-01 -0.6198081687043E-01  0.0000000000000E+00 -0.3064407039864E+00
 0.4795625157843E-01 -0.5906098795029E-01  0.0000000000000E+00 -0.2409011229612E+00
 0.4430003329919E-01 -0.5276486074056E-01  0.0000000000000E+00 -0.1713888854738E+00
 0.3639890102832E-01 -0.4195428575359E-01  0.0000000000000E+00 -0.1136639831004E+00
 0.2572283453410E-01 -0.2869717595938E-01  0.0000000000000E+00 -0.7485317641760E-01
 0.1472420753701E-01 -0.1569054798915E-01  0.0000000000000E+00 -0.5312639740627E-01
 0.5121307659293E-02 -0.4841383238355E-02  0.0000000000000E+00 -0.4274788379917E-01
-0.2252711556049E-02  0.3173511090435E-02  0.0000000000000E+00 -0.3706911769347E-01
-0.7750572917769E-02  0.8945855045793E-02  0.0000000000000E+00 -0.3254012371029E-01
-0.1194308953042E-01  0.1321818809211E-01  0.0000000000000E+00 -0.2772996614861E-01
-0.1521255661307E-01  0.1646821955355E-01  0.0000000000000E+00 -0.2194120335496E-01
-0.1775531853408E-01  0.1893164650124E-01  0.0000000000000E+00 -0.1484058990386E-01
-0.1964040970102E-01  0.2069880535964E-01  0.0000000000000E+00 -0.6341387666072E-02
-0.2083932098592E-01  0.2175645818269E-01  0.0000000000000E+00  0.3516345117990E-02
-0.2121082626548E-01  0.2197431556629E-01  0.0000000000000E+00  0.1461222855544E-01
-0.2057224964223E-01  0.2118643799211E-01  0.0000000000000E+00  0.2661994968509E-01
-0.1882799645475E-01  0.1933283178989E-01  0.0000000000000E+00  0.3889990222388E-01
-0.1522093602811E-01  0.1568448531757E-01  0.0000000000000E+00  0.5094721528642E-01
-0.9114079204132E-02  0.9574037169723E-02  0.0000000000000E+00  0.6113930588625E-01
-0.1022985233424E-02  0.1532581965481E-02  0.0000000000000E+00  0.6679441929709E-01
 0.4745842025757E-01 -0.6064674381951E-01  0.0000000000000E+00 -0.3090456630689E+00
 0.4711244783823E-01 -0.5908472399779E-01  0.0000000000000E+00 -0.2479655725153E+00
 0.4694100757973E-01 -0.5678759161995E-01  0.0000000000000E+00 -0.1825686154105E+00
 0.4310752800239E-01 -0.5049801391584E-01  0.0000000000000E+00 -0.1249355297818E+00
 0.3560112491386E-01 -0.4063735455597E-01  0.0000000000000E+00 -0.8226262905999E-01
 0.2622077839001E-01 -0.2925148298833E-01  0.0000000000000E+00 -0.5511419191090E-01
 0.1693645230133E-01 -0.1858871882602E-01  0.0000000000000E+00 -0.4023913154186E-01
 0.9218170586650E-02 -0.1006271616006E-01  0.0000000000000E+00 -0.3202602853612E-01
 0.3171865033576E-02 -0.3592123965654E-02  0.0000000000000E+00 -0.2660619291572E-01
-0.1624211767834E-02  0.1399210348870E-02  0.0000000000000E+00 -0.2201689360939E-01
-0.5523925083227E-02  0.5364829984093E-02  0.0000000000000E+00 -0.1714740341163E-01
-0.8742436990006E-02  0.8572022938539E-02  0.0000000000000E+00 -0.1136206086384E-01
-0.1139050312095E-01  0.1116427285941E-01  0.0000000000000E+00 -0.4357685920038E-02
-0.1348987587912E-01  0.1318545926594E-01  0.0000000000000E+00  0.3972186536834E-02
-0.1493323509211E-01  0.1454355758358E-01  0.0000000000000E+00  0.1362835844181E-01
-0.1554501776814E-01  0.1508271163357E-01  0.0000000000000E+00  0.2442282401540E-01
-0.1522007104024E-01  0.1473505752315E-01  0.0000000000000E+00  0.3589539290095E-01
-0.1309432781466E-01  0.1265682716878E-01  0.0000000000000E+00  0.4757339845074E-01
-0.8337207248954E-02  0.7968227431748E-02  0.0000000000000E+00  0.5768090451807E-01
-0.1410287335088E-02  0.1108248561065E-02  0.0000000000000E+00  0.6332356778807E-01
 0.4607001320048E-01 -0.6008021768273E-01  0.0000000000000E+00 -0.3106694278409E+00
 0.4668103060875E-01 -0.5967022104583E-01  0.0000000000000E+00 -0.2519939625392E+00
 0.4898860936708E-01 -0.6019395481224E-01  0.0000000000000E+00 -0.1901872822275E+00
 0.4839515514818E-01 -0.5748637734821E-01  0.0000000000000E+00 -0.1340046532443E+00
 0.4392232070501E-01 -0.5088307031243E-01  0.0000000000000E+00 -0.8971331414089E-01
 0.3664505002489E-01 -0.4167344804393E-01  0.0000000000000E+00 -0.5895590341604E-01
 0.2837944516292E-01 -0.3197181548855E-01  0.0000000000000E+00 -0.4025480052285E-01
 0.2088031626202E-01 -0.2354579640725E-01  0.0000000000000E+00 -0.2932144477042E-01
 0.1464287607134E-01 -0.1675449708574E-01  0.0000000000000E+00 -0.2251629400684E-01
 0.9460857450604E-02 -0.1126480342909E-01  0.0000000000000E+00 -0.1765381206459E-01
 0.5069698023571E-02 -0.6718490737792E-02  0.0000000000000E+00 -0.1334163459619E-01
 0.1278465492493E-02 -0.2867285350360E-02  0.0000000000000E+00 -0.8686158882453E-02
-0.2038048051490E-02  0.4547979114285E-03  0.0000000000000E+00 -0.3166826036273E-02
-0.4940426030077E-02  0.3336421917376E-02  0.0000000000000E+00  0.3486553648642E-02
-0.7360773762279E-02  0.5729062963889E-02  0.0000000000000E+00  0.1140999839780E-01
-0.9147449456915E-02  0.7503526739888E-02  0.0000000000000E+00  0.2056419396170E-01
-0.1020649379071E-01  0.8605307451144E-02  0.0000000000000E+00  0.3068097094140E-01
-0.9623257435643E-02  0.8129683059575E-02  0.0000000000000E+00  0.4134507112536E-01
-0.6387518787203E-02  0.5003017523591E-02  0.0000000000000E+00  0.5070918625378E-01
-0.8150916567815E-03 -0.5104348629136E-03  0.0000000000000E+00  0.5576436792630E-01
 0.4498560893799E-01 -0.6001746001714E-01  0.0000000000000E+00 -0.3114836852981E+00
 0.4658876746104E-01 -0.6070966229288E-01  0.0000000000000E+00 -0.2539553202135E+00
 0.5074000157294E-01 -0.6331117413407E-01  0.0000000000000E+00 -0.1951286788853E+00
 0.5272032745968E-01 -0.6343579034703E-01  0.0000000000000E+00 -0.1409817388597E+00
 0.5098674472617E-01 -0.5977189992335E-01  0.0000000000000E+00 -0.9652124977250E-01
 0.4598945529499E-01 -0.5294655644834E-01  0.0000000000000E+00 -0.6367842891304E-01
 0.3921264418520E-01 -0.4472868740777E-01  0.0000000000000E+00 -0.4206384239721E-01
 0.3243275287728E-01 -0.3694823031929E-01  0.0000000000000E+00 -0.2861808573318E-01
 0.2640050507597E-01 -0.3026097580192E-01  0.0000000000000E+00 -0.2022312709591E-01
 0.2112106038013E-01 -0.2457335198290E-01  0.0000000000000E+00 -0.1473253412487E-01
 0.1644837874421E-01 -0.1965871176628E-01  0.0000000000000E+00 -0.1063457979531E-01
 0.1224770324592E-01 -0.1532631895967E-01  0.0000000000000E+00 -0.6865165294263E-02
 0.8406476938707E-02 -0.1141905747807E-01  0.0000000000000E+00 -0.2724200221719E-02
 0.4842524758286E-02 -0.7822740969500E-02  0.0000000000000E+00  0.2212220030770E-02
 0.1586572412921E-02 -0.4545646765968E-02  0.0000000000000E+00  0.8212981244910E-02
-0.1243620750689E-02 -0.1680855934098E-02  0.0000000000000E+00  0.1538595232690E-01
-0.3579924723711E-02  0.7450971321285E-03  0.0000000000000E+00  0.2365415944413E-01
-0.4509366856291E-02  0.1816085604832E-02  0.0000000000000E+00  0.3267783399537E-01
-0.2859127885088E-02  0.2860208277370E-03  0.0000000000000E+00  0.4063592227898E-01
 0.1277223409586E-02 -0.3821280043398E-02  0.0000000000000E+00  0.4453659030541E-01
 0.4408605079208E-01 -0.6028142926427E-01  0.0000000000000E+00 -0.3115642234045E+00
 0.4675298633358E-01 -0.6209528098492E-01  0.0000000000000E+00 -0.2544524558105E+00
 0.5235317475582E-01 -0.6630969605634E-01  0.0000000000000E+00 -0.1980430280798E+00
 0.5639880362387E-01 -0.6869692561955E-01  0.0000000000000E+00 -0.1460948388299E+00
 0.5707133692486E-01 -0.6761154729466E-01  0.0000000000000E+00 -0.1023407794393E+00
 0.5434440720850E-01 -0.6317049034788E-01  0.0000000000000E+00 -0.6857296027625E-01
 0.4932756348647E-01 -0.5674074065747E-01  0.0000000000000E+00 -0.4496583038232E-01
 0.4365793617649E-01 -0.5003371759589E-01  0.0000000000000E+00 -0.2944134392571E-01
 0.3820740623361E-01 -0.4385633152471E-01  0.0000000000000E+00 -0.1949632459437E-01
 0.3314806172786E-01 -0.3830580898218E-01  0.0000000000000E+00 -0.1319217544078E-01
 0.2845172539073E-01 -0.3328866018315E-01  0.0000000000000E+00 -0.9039033745217E-02
 0.2405531590016E-01 -0.2869183144162E-01  0.0000000000000E+00 -0.5903483919548E-02
 0.1987975650332E-01 -0.2439191456084E-01  0.0000000000000E+00 -0.2968970726864E-02
 0.1583958424130E-01 -0.2027000300305E-01  0.0000000000000E+00  0.3078128621847E-03
 0.1193599409539E-01 -0.1630327202280E-01  0.0000000000000E+00  0.4307561165901E-02
 0.8249189962896E-02 -0.1254596231455E-01  0.0000000000000E+00  0.9269429346423E-02
 0.4812684639380E-02 -0.8988414213912E-02  0.0000000000000E+00  0.1529491142069E-01
 0.2490327977259E-02 -0.6513066220495E-02  0.0000000000000E+00  0.2213339140400E-01
 0.2594190547815E-02 -0.6510629935900E-02  0.0000000000000E+00  0.2809367954071E-01
 0.5306847362309E-02 -0.9240073823731E-02  0.0000000000000E+00  0.3034899986753E-01
 0.4328773506859E-01 -0.6075051681713E-01  0.0000000000000E+00 -0.3109406123721E+00
 0.4709594860266E-01 -0.6373088977925E-01  0.0000000000000E+00 -0.2538660069660E+00
 0.5390605254197E-01 -0.6927195409680E-01  0.0000000000000E+00 -0.1994037731973E+00
 0.5964166208280E-01 -0.7350185943727E-01  0.0000000000000E+00 -0.1495964156515E+00
 0.6240546802549E-01 -0.7465439562631E-01  0.0000000000000E+00 -0.1070307929030E+00
 0.6183955186382E-01 -0.7248724800672E-01  0.0000000000000E+00 -0.7315949266489E-01
 0.5870539902260E-01 -0.6798782754422E-01  0.0000000000000E+00 -0.4836783124425E-01
 0.5442123184471E-01 -0.6265664658622E-01  0.0000000000000E+00 -0.3128491081094E-01
 0.4987357743334E-01 -0.5733623486465E-01  0.0000000000000E+00 -0.1999363647611E-01
 0.4534339159444E-01 -0.5225110087685E-01  0.0000000000000E+00 -0.1284368892048E-01
 0.4090061178908E-01 -0.4742026508898E-01  0.0000000000000E+00 -0.8463583440602E-02
 0.3655423080609E-01 -0.4281095356403E-01  0.0000000000000E+00 -0.5738877158330E-02
 0.3227051606278E-01 -0.3834836235795E-01  0.0000000000000E+00 -0.3806632640328E-02
 0.2797664851273E-01 -0.3392715246635E-01  0.0000000000000E+00 -0.2053356836698E-02
 0.2365473494092E-01 -0.2950551599815E-01  0.0000000000000E+00 -0.2330604870820E-04
 0.1934848469182E-01 -0.2510115924389E-01  0.0000000000000E+00  0.2623191293360E-02
 0.1505213427095E-01 -0.2066463236398E-01  0.0000000000000E+00  0.6140687196622E-02
 0.1153744268489E-01 -0.1700332222994E-01  0.0000000000000E+00  0.1037675132303E-01
 0.1022292005067E-01 -0.1561535771018E-01  0.0000000000000E+00  0.1387073393690E-01
 0.1159459382090E-01 -0.1705856643773E-01  0.0000000000000E+00  0.1410911356161E-01
 0.4253207158692E-01 -0.6133995741745E-01  0.0000000000000E+00 -0.3096198472336E+00
 0.4754950144465E-01 -0.6553446224938E-01  0.0000000000000E+00 -0.2524366702969E+00
 0.5542993578348E-01 -0.7223005553741E-01  0.0000000000000E+00 -0.1995532163734E+00
 0.6258527543213E-01 -0.7799961641197E-01  0.0000000000000E+00 -0.1517232890696E+00
 0.6716728194673E-01 -0.8109506182874E-01  0.0000000000000E+00 -0.1105677379750E+00
 0.6860924837246E-01 -0.8104298331540E-01  0.0000000000000E+00 -0.7713359040251E-01
 0.6738023764623E-01 -0.7850701022268E-01  0.0000000000000E+00 -0.5180450128662E-01
 0.6465472407246E-01 -0.7474395458266E-01  0.0000000000000E+00 -0.3367593666520E-01
 0.6126157581849E-01 -0.7055320487385E-01  0.0000000000000E+00 -0.2132746126923E-01
 0.5753551626307E-01 -0.6622668023960E-01  0.0000000000000E+00 -0.1341261347498E-01
 0.5361662923186E-01 -0.6186563863834E-01  0.0000000000000E+00 -0.8728477259707E-02
 0.4957625832379E-01 -0.5750817176058E-01  0.0000000000000E+00 -0.6240963091625E-02
 0.4542962025858E-01 -0.5313345004978E-01  0.0000000000000E+00 -0.5101660755052E-02
 0.4112866975794E-01 -0.4866362522800E-01  0.0000000000000E+00 -0.4678791327880E-02
 0.3664805279867E-01 -0.4405103737871E-01  0.0000000000000E+00 -0.4487094038953E-02
 0.3199963780392E-01 -0.3928280258501E-01  0.0000000000000E+00 -0.4130058661997E-02
 0.2713612623630E-01 -0.3426882546635E-01  0.0000000000000E+00 -0.3240080612239E-02
 0.2269729756345E-01 -0.2970224677238E-01  0.0000000000000E+00 -0.1870273758177E-02
 0.2016204073193E-01 -0.2713881021506E-01  0.0000000000000E+00 -0.1160638636398E-02
 0.2031955404455E-01 -0.2742496500592E-01  0.0000000000000E+00 -0.3173851430989E-02
 0.4177834620241E-01 -0.6199025894950E-01  0.0000000000000E+00 -0.3075980641195E+00
 0.4805596317909E-01 -0.6743759499601E-01  0.0000000000000E+00 -0.2503145521671E+00
 0.5692896891690E-01 -0.7518720957038E-01  0.0000000000000E+00 -0.1987366811279E+00
 0.6531325260936E-01 -0.8228138985381E-01  0.0000000000000E+00 -0.1526812575652E+00
 0.7148817502095E-01 -0.8707648309043E-01  0.0000000000000E+00 -0.1129912669999E+00
 0.7477444980549E-01 -0.8896859404631E-01  0.0000000000000E+00 -0.8031692378719E-01
 0.7541125207848E-01 -0.8836203064236E-01  0.0000000000000E+00 -0.5493004383784E-01
 0.7433695684076E-01 -0.8627267484198E-01  0.0000000000000E+00 -0.3620635789473E-01
 0.7228078664681E-01 -0.8341031067889E-01  0.0000000000000E+00 -0.2311279880162E-01
 0.6958660279301E-01 -0.8008606282889E-01  0.0000000000000E+00 -0.1458221367924E-01
 0.6643586290822E-01 -0.7645210867743E-01  0.0000000000000E+00 -0.9593292700891E-02
 0.6294739654935E-01 -0.7260172965848E-01  0.0000000000000E+00 -0.7223969135375E-02
 0.5918300979808E-01 -0.6856634727767E-01  0.0000000000000E+00 -0.6682047021793E-02
 0.5512799297495E-01 -0.6430524472285E-01  0.0000000000000E+00 -0.7360556663606E-02
 0.5076209237908E-01 -0.5977852726515E-01  0.0000000000000E+00 -0.8789772400286E-02
 0.4607390896378E-01 -0.5495242889568E-01  0.0000000000000E+00 -0.1056845615488E-01
 0.4097473717696E-01 -0.4969778255331E-01  0.0000000000000E+00 -0.1227259761970E-01
 0.3593394808748E-01 -0.4455495672179E-01  0.0000000000000E+00 -0.1387028514865E-01
 0.3242601195209E-01 -0.4107008985298E-01  0.0000000000000E+00 -0.1610936189544E-01
 0.3151529497593E-01 -0.4034235896148E-01  0.0000000000000E+00 -0.2047745228299E-01
 0.4099883171437E-01 -0.6265973675549E-01  0.0000000000000E+00 -0.3048664834513E+00
 0.4856760249199E-01 -0.6938403425951E-01  0.0000000000000E+00 -0.2475900364037E+00
 0.5839176378723E-01 -0.7813027480228E-01  0.0000000000000E+00 -0.1971276817919E+00
 0.6787210575507E-01 -0.8639813807496E-01  0.0000000000000E+00 -0.1526411719515E+00
 0.7545981695355E-01 -0.9269829471042E-01  0.0000000000000E+00 -0.1143710861048E+00
 0.8043449924149E-01 -0.9637128500198E-01  0.0000000000000E+00 -0.8261758450200E-01
 0.8286383108671E-01 -0.9762297179911E-01  0.0000000000000E+00 -0.5749921124192E-01
 0.8347435424552E-01 -0.9724963609881E-01  0.0000000000000E+00 -0.3854216267728E-01
 0.8287676485880E-01 -0.9584946471267E-01  0.0000000000000E+00 -0.2499565668940E-01
 0.8139179834227E-01 -0.9371804724434E-01  0.0000000000000E+00 -0.1602727149868E-01
 0.7921651773558E-01 -0.9103048251425E-01  0.0000000000000E+00 -0.1078552700070E-01
 0.7650047321235E-01 -0.8791715694282E-01  0.0000000000000E+00 -0.8466552924255E-02
 0.7334562806620E-01 -0.8445512873536E-01  0.0000000000000E+00 -0.8353113088001E-02
 0.6977622294051E-01 -0.8064673876197E-01  0.0000000000000E+00 -0.9888293395399E-02
 0.6579109683839E-01 -0.7647445999325E-01  0.0000000000000E+00 -0.1265212285019E-01
 0.6137027482634E-01 -0.7189893671948E-01  0.0000000000000E+00 -0.1629097945042E-01
 0.5638969320728E-01 -0.6675947409673E-01  0.0000000000000E+00 -0.2039865915506E-01
 0.5111210868190E-01 -0.6140637245040E-01  0.0000000000000E+00 -0.2490104160249E-01
 0.4691583253182E-01 -0.5728458445397E-01  0.0000000000000E+00 -0.3011560542242E-01
 0.4508042036051E-01 -0.5568062493149E-01  0.0000000000000E+00 -0.3683801474461E-01
 0.4017540954918E-01 -0.6331957749444E-01  0.0000000000000E+00 -0.3014143930510E+00
 0.4904569819000E-01 -0.7132810415275E-01  0.0000000000000E+00 -0.2443138382822E+00
 0.5979849123163E-01 -0.8103728465704E-01  0.0000000000000E+00 -0.1948465860814E+00
 0.7028235604931E-01 -0.9037283271061E-01  0.0000000000000E+00 -0.1517402504800E+00
 0.7914133768460E-01 -0.9802502465381E-01  0.0000000000000E+00 -0.1147872010052E+00
 0.8566453825328E-01 -0.1033321579064E+00  0.0000000000000E+00 -0.8400037557167E-01
 0.8979772759169E-01 -0.1063537177106E+00  0.0000000000000E+00 -0.5934619369181E-01
 0.9208627130900E-01 -0.1076953612408E+00  0.0000000000000E+00 -0.4042048062333E-01
 0.9301939607095E-01 -0.1078385384497E+00  0.0000000000000E+00 -0.2666626320930E-01
 0.9287398477127E-01 -0.1070409481019E+00  0.0000000000000E+00 -0.1743575061704E-01
 0.9184138535803E-01 -0.1054775699691E+00  0.0000000000000E+00 -0.1202275014666E-01
 0.9008457585331E-01 -0.1032971948169E+00  0.0000000000000E+00 -0.9730446095271E-02
 0.8773563332257E-01 -0.1006117042988E+00  0.0000000000000E+00 -0.9914182222759E-02
 0.8485953689677E-01 -0.9746799889699E-01  0.0000000000000E+00 -0.1206917851727E-01
 0.8148941462917E-01 -0.9388581222429E-01  0.0000000000000E+00 -0.1583618167902E-01
 0.7762031161237E-01 -0.8984445099489E-01  0.0000000000000E+00 -0.2094876475693E-01
 0.7311363479415E-01 -0.8517267602701E-01  0.0000000000000E+00 -0.2710303128841E-01
 0.6800029160350E-01 -0.8000483892937E-01  0.0000000000000E+00 -0.3427469759999E-01
 0.6343471531988E-01 -0.7555926618193E-01  0.0000000000000E+00 -0.4237788407202E-01
 0.6080092958485E-01 -0.7319926699002E-01  0.0000000000000E+00 -0.5140061365865E-01
 0.3929725612297E-01 -0.6395058536939E-01  0.0000000000000E+00 -0.2972305782438E+00
 0.4945961459966E-01 -0.7323334307338E-01  0.0000000000000E+00 -0.2405106050671E+00
 0.6112527484341E-01 -0.8388206010020E-01  0.0000000000000E+00 -0.1919747994348E+00
 0.7254636600777E-01 -0.9420894044174E-01  0.0000000000000E+00 -0.1500857104052E+00
 0.8256576126202E-01 -0.1030932504615E+00  0.0000000000000E+00 -0.1143184882721E+00
 0.9051592531007E-01 -0.1099069200455E+00  0.0000000000000E+00 -0.8446542154557E-01
 0.9626022162985E-01 -0.1146048786525E+00  0.0000000000000E+00 -0.6036537070694E-01
 0.1001938407132E+00 -0.1176322373864E+00  0.0000000000000E+00 -0.4164130031151E-01
 0.1026916862094E+00 -0.1193593217450E+00  0.0000000000000E+00 -0.2786264951161E-01
 0.1039759524799E+00 -0.1199940778370E+00  0.0000000000000E+00 -0.1851991474040E-01
 0.1042159703791E+00 -0.1196939184484E+00  0.0000000000000E+00 -0.1302512756260E-01
 0.1035709484165E+00 -0.1186076347329E+00  0.0000000000000E+00 -0.1077062931424E-01
 0.1021884545923E+00 -0.1168663041100E+00  0.0000000000000E+00 -0.1116872118175E-01
 0.1001691496070E+00 -0.1145552563721E+00  0.0000000000000E+00 -0.1374626230026E-01
 0.9759135369657E-01 -0.1117417721998E+00  0.0000000000000E+00 -0.1818212177978E-01
 0.9449877207169E-01 -0.1084555155612E+00  0.0000000000000E+00 -0.2429518554220E-01
 0.9078563831884E-01 -0.1045649153922E+00  0.0000000000000E+00 -0.3196016968341E-01
 0.8626497171813E-01 -0.9999532297939E-01  0.0000000000000E+00 -0.4135080370093E-01
 0.8170555556334E-01 -0.9558967318088E-01  0.0000000000000E+00 -0.5214927856728E-01
 0.7838392002474E-01 -0.9257897380507E-01  0.0000000000000E+00 -0.6343939945458E-01
 0.3835938309187E-01 -0.6454107886208E-01  0.0000000000000E+00 -0.2923035532536E+00
 0.4978617653606E-01 -0.7507172893663E-01  0.0000000000000E+00 -0.2361888974615E+00
 0.6234685334879E-01 -0.8663681378650E-01  0.0000000000000E+00 -0.1885661528266E+00
 0.7465375903194E-01 -0.9789632097647E-01  0.0000000000000E+00 -0.1477592666566E+00
 0.8574537513482E-01 -0.1079173679581E+00  0.0000000000000E+00 -0.1130363837614E+00
 0.9501817244719E-01 -0.1161281645199E+00  0.0000000000000E+00 -0.8403295199500E-01
 0.1022827883233E+00 -0.1224104275820E+00  0.0000000000000E+00 -0.6049528764146E-01
 0.1078122402986E+00 -0.1270764822198E+00  0.0000000000000E+00 -0.4205793198276E-01
 0.1118800025224E+00 -0.1303972334234E+00  0.0000000000000E+00 -0.2836979368001E-01
 0.1146510159533E+00 -0.1325277377766E+00  0.0000000000000E+00 -0.1902117391873E-01
 0.1162622114327E+00 -0.1335968679708E+00  0.0000000000000E+00 -0.1351964045378E-01
 0.1168534736974E+00 -0.1337371584725E+00  0.0000000000000E+00 -0.1133293410757E-01
 0.1165686597173E+00 -0.1330788436883E+00  0.0000000000000E+00 -0.1191603243589E-01
 0.1155269313008E+00 -0.1317273224560E+00  0.0000000000000E+00 -0.1479747192468E-01
 0.1138489406992E+00 -0.1297920718012E+00  0.0000000000000E+00 -0.1963815036493E-01
 0.1116506337702E+00 -0.1273765202796E+00  0.0000000000000E+00 -0.2627318446634E-01
 0.1089468016747E+00 -0.1244660676604E+00  0.0000000000000E+00 -0.3472790039591E-01
 0.1054373297578E+00 -0.1208933297255E+00  0.0000000000000E+00 -0.4558280301972E-01
 0.1013704565776E+00 -0.1169800974058E+00  0.0000000000000E+00 -0.5868549139362E-01
 0.9750609333243E-01 -0.1134680619099E+00  0.0000000000000E+00 -0.7231676849339E-01
 0.3736198998654E-01 -0.6508668827549E-01  0.0000000000000E+00 -0.2866228947056E+00
 0.5000931331570E-01 -0.7682245650339E-01  0.0000000000000E+00 -0.2313499924509E+00
 0.6343802990113E-01 -0.8927423866589E-01  0.0000000000000E+00 -0.1846568846782E+00
 0.7658471744281E-01 -0.1014141253110E+00  0.0000000000000E+00 -0.1448221991218E+00
 0.8867595608810E-01 -0.1124944938135E+00  0.0000000000000E+00 -0.1110008126020E+00
 0.9918163813247E-01 -0.1220081328391E+00  0.0000000000000E+00 -0.8273271806327E-01
 0.1078801789272E+00 -0.1297869226183E+00  0.0000000000000E+00 -0.5970545229306E-01
 0.1149461304403E+00 -0.1360335131377E+00  0.0000000000000E+00 -0.4156816995554E-01
 0.1205664903056E+00 -0.1409335610321E+00  0.0000000000000E+00 -0.2801831693541E-01
 0.1248531014133E+00 -0.1445929723596E+00  0.0000000000000E+00 -0.1871458740557E-01
 0.1279074005722E+00 -0.1471088760343E+00  0.0000000000000E+00 -0.1324286422764E-01
 0.1298398881077E+00 -0.1485874486509E+00  0.0000000000000E+00 -0.1114315442732E-01
 0.1307712372571E+00 -0.1491385747036E+00  0.0000000000000E+00 -0.1191671438464E-01
 0.1308102654312E+00 -0.1488583907231E+00  0.0000000000000E+00 -0.1508479692889E-01
 0.1300872527014E+00 -0.1478642534905E+00  0.0000000000000E+00 -0.2023422457113E-01
 0.1287821127556E+00 -0.1463180905265E+00  0.0000000000000E+00 -0.2708657204916E-01
 0.1270650736620E+00 -0.1443644189338E+00  0.0000000000000E+00 -0.3561311774877E-01
 0.1248329009352E+00 -0.1419809548659E+00  0.0000000000000E+00 -0.4666798149409E-01
 0.1219169487110E+00 -0.1391910473021E+00  0.0000000000000E+00 -0.6121306089045E-01
 0.1178695024612E+00 -0.1355013372771E+00  0.0000000000000E+00 -0.7736553302332E-01
 0.3631198952638E-01 -0.6558866602083E-01  0.0000000000000E+00 -0.2801698444912E+00
 0.5012208362186E-01 -0.7847873298387E-01  0.0000000000000E+00 -0.2260010033554E+00
 0.6437174878965E-01 -0.9176056981722E-01  0.0000000000000E+00 -0.1802789067166E+00
 0.7831133358496E-01 -0.1047350450689E+00  0.0000000000000E+00 -0.1413138991669E+00
 0.9134080726024E-01 -0.1168076829740E+00  0.0000000000000E+00 -0.1082604766236E+00
 0.1029997908368E+00 -0.1275414105581E+00  0.0000000000000E+00 -0.8059558929576E-01
 0.1130512450083E+00 -0.1367342105720E+00  0.0000000000000E+00 -0.5798464090780E-01
 0.1215883101669E+00 -0.1444968102471E+00  0.0000000000000E+00 -0.4010564610156E-01
 0.1287249959327E+00 -0.1509415259705E+00  0.0000000000000E+00 -0.2668480253442E-01
 0.1345285460446E+00 -0.1561334735572E+00  0.0000000000000E+00 -0.1741857578199E-01
 0.1390700666576E+00 -0.1601433961416E+00  0.0000000000000E+00 -0.1195419290426E-01
 0.1424307597151E+00 -0.1630514727187E+00  0.0000000000000E+00 -0.9906901304645E-02
 0.1446983819955E+00 -0.1649384319990E+00  0.0000000000000E+00 -0.1084923691876E-01
 0.1459454981235E+00 -0.1658666428350E+00  0.0000000000000E+00 -0.1433497705458E-01
 0.1462583954760E+00 -0.1659093530063E+00  0.0000000000000E+00 -0.1990292197246E-01
 0.1457968929244E+00 -0.1652019222016E+00  0.0000000000000E+00 -0.2707725034172E-01
 0.1448390697963E+00 -0.1639784173212E+00  0.0000000000000E+00 -0.3549418418579E-01
 0.1434699733806E+00 -0.1624060768145E+00  0.0000000000000E+00 -0.4557661223063E-01
 0.1422832876022E+00 -0.1609675063026E+00  0.0000000000000E+00 -0.5889912227802E-01
 0.1392361032400E+00 -0.1583710594159E+00  0.0000000000000E+00 -0.7725444717879E-01
 0.3522968734861E-01 -0.6610614864456E-01  0.0000000000000E+00 -0.2730164951443E+00
 0.5010781882021E-01 -0.7999039675167E-01  0.0000000000000E+00 -0.2202361486172E+00
 0.6510779944812E-01 -0.9406252128283E-01  0.0000000000000E+00 -0.1754196082302E+00
 0.7980677356268E-01 -0.1078293888684E+00  0.0000000000000E+00 -0.1372645324427E+00
 0.9371152433590E-01 -0.1208291774983E+00  0.0000000000000E+00 -0.1048572480737E+00
 0.1064493278812E+00 -0.1327028821873E+00  0.0000000000000E+00 -0.7764689884801E-01
 0.1177807325163E+00 -0.1432380006177E+00  0.0000000000000E+00 -0.5532429566563E-01
 0.1277227071861E+00 -0.1524512141106E+00  0.0000000000000E+00 -0.3763031073487E-01
 0.1363221077033E+00 -0.1603874828046E+00  0.0000000000000E+00 -0.2429273377389E-01
 0.1436136463508E+00 -0.1670837593179E+00  0.0000000000000E+00 -0.1501104651330E-01
 0.1496496842015E+00 -0.1725954113319E+00  0.0000000000000E+00 -0.9469474839331E-02
 0.1544933439530E+00 -0.1769883909112E+00  0.0000000000000E+00 -0.7352260880705E-02
 0.1582067772425E+00 -0.1803221279222E+00  0.0000000000000E+00 -0.8325391966670E-02
 0.1608265220717E+00 -0.1826276795514E+00  0.0000000000000E+00 -0.1203786891567E-01
 0.1623746564103E+00 -0.1839189866434E+00  0.0000000000000E+00 -0.1811317428228E-01
 0.1628944036200E+00 -0.1842233952481E+00  0.0000000000000E+00 -0.2608033618993E-01
 0.1625407638083E+00 -0.1836378987205E+00  0.0000000000000E+00 -0.3522954272291E-01
 0.1614221846012E+00 -0.1822776160210E+00  0.0000000000000E+00 -0.4519210117111E-01
 0.1601985641473E+00 -0.1808194631700E+00  0.0000000000000E+00 -0.5589524856565E-01
 0.1605932811487E+00 -0.1798425639124E+00  0.0000000000000E+00 -0.7073842829069E-01
 0.6919146457467E-01 -0.1403087823918E+00  0.0000000000000E+00  0.4242932282233E+00
 0.1149280561902E+00 -0.1832967802646E+00  0.0000000000000E+00  0.4166560473573E+00
 0.1589828931019E+00 -0.2244127250613E+00  0.0000000000000E+00  0.4032772196086E+00
 0.1994818015738E+00 -0.2619791735178E+00  0.0000000000000E+00  0.3857740515817E+00
 0.2357379642453E+00 -0.2953734387061E+00  0.0000000000000E+00  0.3658487091233E+00
 0.2675327176714E+00 -0.3244221137775E+00  0.0000000000000E+00  0.3448786777587E+00
 0.2948810196882E+00 -0.3491572649883E+00  0.0000000000000E+00  0.3238873815376E+00
 0.3180455266979E+00 -0.3698685424177E+00  0.0000000000000E+00  0.3039506548509E+00
 0.3374462474329E+00 -0.3870001629247E+00  0.0000000000000E+00  0.2859250389225E+00
 0.3535460498994E+00 -0.4010274535900E+00  0.0000000000000E+00  0.2703093703974E+00
 0.3667833163779E+00 -0.4123961267041E+00  0.0000000000000E+00  0.2573628769826E+00
 0.3775533872537E+00 -0.4215082018860E+00  0.0000000000000E+00  0.2472110780234E+00
 0.3862100045219E+00 -0.4287233328537E+00  0.0000000000000E+00  0.2398733792748E+00
 0.3930524533436E+00 -0.4343443520242E+00  0.0000000000000E+00  0.2352701839423E+00
 0.3983240796211E+00 -0.4386162502707E+00  0.0000000000000E+00  0.2332430909666E+00
 0.4022360082247E+00 -0.4417483723221E+00  0.0000000000000E+00  0.2335226880275E+00
 0.4050344007749E+00 -0.4439560494332E+00  0.0000000000000E+00  0.2355812192662E+00
 0.4068076482317E+00 -0.4453398871199E+00  0.0000000000000E+00  0.2392169967061E+00
 0.4080098450360E+00 -0.4463824671426E+00  0.0000000000000E+00  0.2445580939601E+00
 0.4100273348699E+00 -0.4477578951711E+00  0.0000000000000E+00  0.2536412357364E+00
 0.7464888293193E-01 -0.1465619087973E+00  0.0000000000000E+00  0.4438444918798E+00
 0.1231397797288E+00 -0.1920077858355E+00  0.0000000000000E+00  0.4348988246214E+00
 0.1692630744539E+00 -0.2350133677481E+00  0.0000000000000E+00  0.4179040568834E+00
 0.2111615372332E+00 -0.2737768107507E+00  0.0000000000000E+00  0.3959915309931E+00
 0.2480015207539E+00 -0.3075591802273E+00  0.0000000000000E+00  0.3715840498369E+00
 0.2795839233165E+00 -0.3362009427123E+00  0.0000000000000E+00  0.3463715706618E+00
 0.3060189517146E+00 -0.3598271871107E+00  0.0000000000000E+00  0.3215227339058E+00
 0.3277112607507E+00 -0.3788864118410E+00  0.0000000000000E+00  0.2983920467613E+00
 0.3452566869174E+00 -0.3940034318232E+00  0.0000000000000E+00  0.2780382763027E+00
 0.3592686096759E+00 -0.4058044884053E+00  0.0000000000000E+00  0.2609938242389E+00
 0.3702926474917E+00 -0.4148440963662E+00  0.0000000000000E+00  0.2474670253480E+00
 0.3787994223113E+00 -0.4216003350595E+00  0.0000000000000E+00  0.2374958728058E+00
 0.3852011047673E+00 -0.4264895121531E+00  0.0000000000000E+00  0.2309697211852E+00
 0.3898468104785E+00 -0.4298610262618E+00  0.0000000000000E+00  0.2276512266556E+00
 0.3930366962226E+00 -0.4320131921838E+00  0.0000000000000E+00  0.2272222300324E+00
 0.3950757892452E+00 -0.4332412228267E+00  0.0000000000000E+00  0.2292834536695E+00
 0.3963409731909E+00 -0.4338948350253E+00  0.0000000000000E+00  0.2333717471898E+00
 0.3968654068343E+00 -0.4340898051482E+00  0.0000000000000E+00  0.2398610223511E+00
 0.3971082645196E+00 -0.4342456898906E+00  0.0000000000000E+00  0.2499489717549E+00
 0.3963036965840E+00 -0.4340017473745E+00  0.0000000000000E+00  0.2645894689586E+00
 0.8049128488788E-01 -0.1531828758544E+00  0.0000000000000E+00  0.4634578332308E+00
 0.1320765775526E+00 -0.2015126350089E+00  0.0000000000000E+00  0.4523539300399E+00
 0.1803899326747E+00 -0.2464626606781E+00  0.0000000000000E+00  0.4310321561963E+00
 0.2235000946293E+00 -0.2862075562328E+00  0.0000000000000E+00  0.4038006211995E+00
 0.2605771425161E+00 -0.3199975527225E+00  0.0000000000000E+00  0.3740390880495E+00
 0.2915032845654E+00 -0.3477594173021E+00  0.0000000000000E+00  0.3438554431277E+00
 0.3165343137890E+00 -0.3697653311029E+00  0.0000000000000E+00  0.3146934229538E+00
 0.3362479772907E+00 -0.3866480959304E+00  0.0000000000000E+00  0.2882567084403E+00
 0.3514584800513E+00 -0.3992566245381E+00  0.0000000000000E+00  0.2657346707748E+00
 0.3629622357265E+00 -0.4084012331015E+00  0.0000000000000E+00  0.2475943092751E+00
 0.3714253013686E+00 -0.4147574446816E+00  0.0000000000000E+00  0.2339131034488E+00
 0.3773993595318E+00 -0.4188844371456E+00  0.0000000000000E+00  0.2245813397556E+00
 0.3813603692201E+00 -0.4212600617504E+00  0.0000000000000E+00  0.2193233888946E+00
 0.3837079532518E+00 -0.4222821521685E+00  0.0000000000000E+00  0.2177553775422E+00
 0.3847883118980E+00 -0.4222946142407E+00  0.0000000000000E+00  0.2194779850699E+00
 0.3849421072056E+00 -0.4216314305038E+00  0.0000000000000E+00  0.2241147290475E+00
 0.3845153709220E+00 -0.4206188610141E+00  0.0000000000000E+00  0.2313225148769E+00
 0.3833263634166E+00 -0.4191908105536E+00  0.0000000000000E+00  0.2418974466284E+00
 0.3814338257456E+00 -0.4175578395285E+00  0.0000000000000E+00  0.2566420698169E+00
 0.3791608392703E+00 -0.4159697397463E+00  0.0000000000000E+00  0.2737392368651E+00
 0.8683709530133E-01 -0.1603745298239E+00  0.0000000000000E+00  0.4833712249006E+00
 0.1418633954744E+00 -0.2118988145177E+00  0.0000000000000E+00  0.4691145299818E+00
 0.1924245218370E+00 -0.2588312219328E+00  0.0000000000000E+00  0.4423212847047E+00
 0.2365233807589E+00 -0.2992933041085E+00  0.0000000000000E+00  0.4087125233581E+00
 0.2734092302243E+00 -0.3326293919161E+00  0.0000000000000E+00  0.3726879094509E+00
 0.3031415401845E+00 -0.3589429984299E+00  0.0000000000000E+00  0.3368696714437E+00
 0.3261889778778E+00 -0.3787241737127E+00  0.0000000000000E+00  0.3030675025512E+00
 0.3433651457132E+00 -0.3928538983742E+00  0.0000000000000E+00  0.2733726149581E+00
 0.3557537608185E+00 -0.4024543736301E+00  0.0000000000000E+00  0.2490112294042E+00
 0.3643561398073E+00 -0.4085413212933E+00  0.0000000000000E+00  0.2302613925794E+00
 0.3699609026471E+00 -0.4119131070823E+00  0.0000000000000E+00  0.2169803037282E+00
 0.3731946883296E+00 -0.4132034356146E+00  0.0000000000000E+00  0.2088573665638E+00
 0.3745845756582E+00 -0.4129386685485E+00  0.0000000000000E+00  0.2054292409800E+00
 0.3745552144884E+00 -0.4115399864214E+00  0.0000000000000E+00  0.2061739336335E+00
 0.3734539423224E+00 -0.4093532831405E+00  0.0000000000000E+00  0.2106321364485E+00
 0.3715877613878E+00 -0.4066816115105E+00  0.0000000000000E+00  0.2184159257730E+00
 0.3692059561744E+00 -0.4037490398186E+00  0.0000000000000E+00  0.2291417632355E+00
 0.3658791654907E+00 -0.4003094846690E+00  0.0000000000000E+00  0.2435737278572E+00
 0.3620510986664E+00 -0.3968978990082E+00  0.0000000000000E+00  0.2616544817020E+00
 0.3591222651190E+00 -0.3948316773542E+00  0.0000000000000E+00  0.2809198192618E+00
 0.9380004059009E-01 -0.1682670613834E+00  0.0000000000000E+00  0.5036875883498E+00
 0.1526702514546E+00 -0.2233499903767E+00  0.0000000000000E+00  0.4850512162559E+00
 0.2054682058653E+00 -0.2722149630311E+00  0.0000000000000E+00  0.4514074311185E+00
 0.2502339307515E+00 -0.3130348438073E+00  0.0000000000000E+00  0.4101905359991E+00
 0.2863923225256E+00 -0.3453426824868E+00  0.0000000000000E+00  0.3669759046767E+00
 0.3142857499103E+00 -0.3695295191470E+00  0.0000000000000E+00  0.3249486360821E+00
 0.3346899909762E+00 -0.3864005515586E+00  0.0000000000000E+00  0.2863583043276E+00
 0.3487361507070E+00 -0.3971675569308E+00  0.0000000000000E+00  0.2536713508338E+00
 0.3578297069162E+00 -0.4032761958266E+00  0.0000000000000E+00  0.2280042954346E+00
 0.3631845051190E+00 -0.4059543299660E+00  0.0000000000000E+00  0.2092989798784E+00
 0.3656972514951E+00 -0.4061081301198E+00  0.0000000000000E+00  0.1970966650183E+00
 0.3660479448217E+00 -0.4044233278164E+00  0.0000000000000E+00  0.1908312420808E+00
 0.3647869416194E+00 -0.4014456753353E+00  0.0000000000000E+00  0.1898216821050E+00
 0.3623270884571E+00 -0.3975817401395E+00  0.0000000000000E+00  0.1933898699153E+00
 0.3589763659457E+00 -0.3931373636686E+00  0.0000000000000E+00  0.2009815632134E+00
 0.3549801170772E+00 -0.3883519638725E+00  0.0000000000000E+00  0.2121166949460E+00
 0.3504819386233E+00 -0.3833418896270E+00  0.0000000000000E+00  0.2262282131193E+00
 0.3450037720311E+00 -0.3778375793679E+00  0.0000000000000E+00  0.2439186568479E+00
 0.3395591725581E+00 -0.3729502707568E+00  0.0000000000000E+00  0.2647859749336E+00
 0.3363587469271E+00 -0.3707687882051E+00  0.0000000000000E+00  0.2862120931010E+00
 0.1015080239965E+00 -0.1770092606744E+00  0.0000000000000E+00  0.5245381727727E+00
 0.1646834525320E+00 -0.2360607956090E+00  0.0000000000000E+00  0.4999462814581E+00
 0.2196286426462E+00 -0.2867233355601E+00  0.0000000000000E+00  0.4578185930757E+00
 0.2646088057762E+00 -0.3274039639864E+00  0.0000000000000E+00  0.4076316622550E+00
 0.2993647210765E+00 -0.3579670366651E+00  0.0000000000000E+00  0.3563136435152E+00
 0.3246574040728E+00 -0.3792285379351E+00  0.0000000000000E+00  0.3076498841677E+00
 0.3416876978018E+00 -0.3924326569481E+00  0.0000000000000E+00  0.2643680204211E+00
 0.3520011738586E+00 -0.3992187909630E+00  0.0000000000000E+00  0.2292235316544E+00
 0.3573676630072E+00 -0.4013958966511E+00  0.0000000000000E+00  0.2030119924318E+00
 0.3591991072539E+00 -0.4003884899243E+00  0.0000000000000E+00  0.1851680389060E+00
 0.3584665812405E+00 -0.3971756100442E+00  0.0000000000000E+00  0.1748174430536E+00
 0.3558680111099E+00 -0.3924577113802E+00  0.0000000000000E+00  0.1710819967251E+00
 0.3519409518069E+00 -0.3867615808846E+00  0.0000000000000E+00  0.1730272567598E+00
 0.3470507357536E+00 -0.3804413594087E+00  0.0000000000000E+00  0.1797897019442E+00
 0.3414414678873E+00 -0.3737357202673E+00  0.0000000000000E+00  0.1906808806389E+00
 0.3352913758605E+00 -0.3668138461597E+00  0.0000000000000E+00  0.2050780523947E+00
 0.3286722989274E+00 -0.3597110223199E+00  0.0000000000000E+00  0.2221954576886E+00
 0.3211609317295E+00 -0.3522429440228E+00  0.0000000000000E+00  0.2425767647398E+00
 0.3143600562046E+00 -0.3461120721949E+00  0.0000000000000E+00  0.2657722246415E+00
 0.3111112463350E+00 -0.3440397915154E+00  0.0000000000000E+00  0.2892654776411E+00
 0.1101121359737E+00 -0.1867751113812E+00  0.0000000000000E+00  0.5460722280998E+00
 0.1781111327524E+00 -0.2502497014094E+00  0.0000000000000E+00  0.5134949788614E+00
 0.2350066627634E+00 -0.3024583509406E+00  0.0000000000000E+00  0.4609668748030E+00
 0.2795845262117E+00 -0.3423310609864E+00  0.0000000000000E+00  0.4003422769123E+00
 0.3120986895739E+00 -0.3702627976232E+00  0.0000000000000E+00  0.3400843415954E+00
 0.3339060714637E+00 -0.3876747242304E+00  0.0000000000000E+00  0.2845843565754E+00
 0.3467774086083E+00 -0.3964015327986E+00  0.0000000000000E+00  0.2370299605140E+00
 0.3527769769300E+00 -0.3986130005851E+00  0.0000000000000E+00  0.2002752314438E+00
 0.3540590036835E+00 -0.3964977204845E+00  0.0000000000000E+00  0.1745134257358E+00
 0.3521889483722E+00 -0.3916307602870E+00  0.0000000000000E+00  0.1584855028143E+00
 0.3481581883444E+00 -0.3850077189687E+00  0.0000000000000E+00  0.1508068977099E+00
 0.3426364124509E+00 -0.3772946597973E+00  0.0000000000000E+00  0.1502376048158E+00
 0.3361091777582E+00 -0.3689573117206E+00  0.0000000000000E+00  0.1555617289039E+00
 0.3288638192479E+00 -0.3602645192894E+00  0.0000000000000E+00  0.1657120147579E+00
 0.3210662735854E+00 -0.3513717452359E+00  0.0000000000000E+00  0.1798489754714E+00
 0.3128334395841E+00 -0.3423814512959E+00  0.0000000000000E+00  0.1972022685450E+00
 0.3041830690650E+00 -0.3332661276955E+00  0.0000000000000E+00  0.2168113649805E+00
 0.2948053309093E+00 -0.3239789980212E+00  0.0000000000000E+00  0.2392570342244E+00
 0.2868585555674E+00 -0.3167928368738E+00  0.0000000000000E+00  0.2642660658772E+00
 0.2837004200898E+00 -0.3149614715691E+00  0.0000000000000E+00  0.2895994717131E+00
 0.1197934292025E+00 -0.1977733088086E+00  0.0000000000000E+00  0.5684582285520E+00
 0.1931860824735E+00 -0.2661614232275E+00  0.0000000000000E+00  0.5252863524428E+00
 0.2516872430884E+00 -0.3195059588222E+00  0.0000000000000E+00  0.4601270982033E+00
 0.2950407744129E+00 -0.3576871159050E+00  0.0000000000000E+00  0.3875292973601E+00
 0.3242856496603E+00 -0.3819057478970E+00  0.0000000000000E+00  0.3176581313261E+00
 0.3416032798296E+00 -0.3944210078815E+00  0.0000000000000E+00  0.2554565982788E+00
 0.3495053314507E+00 -0.3978368530448E+00  0.0000000000000E+00  0.2044564137936E+00
 0.3506736923569E+00 -0.3949483899454E+00  0.0000000000000E+00  0.1672839013582E+00
 0.3476277144799E+00 -0.3882996812855E+00  0.0000000000000E+00  0.1431829789859E+00
 0.3420041887959E+00 -0.3795316949222E+00  0.0000000000000E+00  0.1300174523099E+00
 0.3347408806475E+00 -0.3695790757644E+00  0.0000000000000E+00  0.1258185405468E+00
 0.3264258376997E+00 -0.3590162135598E+00  0.0000000000000E+00  0.1289560843915E+00
 0.3174537611755E+00 -0.3482058727170E+00  0.0000000000000E+00  0.1379269050261E+00
 0.3080090737415E+00 -0.3373046998404E+00  0.0000000000000E+00  0.1514652092743E+00
 0.2981719823423E+00 -0.3263758361958E+00  0.0000000000000E+00  0.1685909523128E+00
 0.2880027319935E+00 -0.3154590460540E+00  0.0000000000000E+00  0.1884160981703E+00
 0.2774705666148E+00 -0.3044688114824E+00  0.0000000000000E+00  0.2098718452208E+00
 0.2664172776632E+00 -0.2935301993146E+00  0.0000000000000E+00  0.2336543645416E+00
 0.2575082219356E+00 -0.2854464509670E+00  0.0000000000000E+00  0.2598394415835E+00
 0.2545211598367E+00 -0.2839227238502E+00  0.0000000000000E+00  0.2866607166755E+00
 0.1307705695733E+00 -0.2102569226697E+00  0.0000000000000E+00  0.5918803828960E+00
 0.2101685820342E+00 -0.2840707095179E+00  0.0000000000000E+00  0.5347712102863E+00
 0.2697279099245E+00 -0.3379238038655E+00  0.0000000000000E+00  0.4544070827986E+00
 0.3107803259497E+00 -0.3732623727232E+00  0.0000000000000E+00  0.3682936353024E+00
 0.3355188893923E+00 -0.3924682583149E+00  0.0000000000000E+00  0.2884195039301E+00
 0.3472383791111E+00 -0.3989336979183E+00  0.0000000000000E+00  0.2201186655325E+00
 0.3493815039090E+00 -0.3962299557053E+00  0.0000000000000E+00  0.1669940297793E+00
 0.3453198813628E+00 -0.3878419405089E+00  0.0000000000000E+00  0.1309517786306E+00
 0.3378589533134E+00 -0.3765835009806E+00  0.0000000000000E+00  0.1098949039366E+00
 0.3285815782419E+00 -0.3640322154907E+00  0.0000000000000E+00  0.1006603749334E+00
 0.3182813990110E+00 -0.3509661603689E+00  0.0000000000000E+00  0.1006649935734E+00
 0.3074092046404E+00 -0.3378080477800E+00  0.0000000000000E+00  0.1078971864407E+00
 0.2962341271318E+00 -0.3247803728883E+00  0.0000000000000E+00  0.1205926291750E+00
 0.2848198521978E+00 -0.3119083745741E+00  0.0000000000000E+00  0.1373182943181E+00
 0.2731582231435E+00 -0.2991594298047E+00  0.0000000000000E+00  0.1569859319452E+00
 0.2612565125657E+00 -0.2865137806638E+00  0.0000000000000E+00  0.1786363216422E+00
 0.2490342303690E+00 -0.2738268550587E+00  0.0000000000000E+00  0.2011650133282E+00
 0.2365178859630E+00 -0.2614231164167E+00  0.0000000000000E+00  0.2254364443498E+00
 0.2268221340565E+00 -0.2525870194447E+00  0.0000000000000E+00  0.2520270491001E+00
 0.2240376064475E+00 -0.2513806307452E+00  0.0000000000000E+00  0.2798683384773E+00
 0.1433093912770E+00 -0.2245360762136E+00  0.0000000000000E+00  0.6165321022254E+00
 0.2293486974208E+00 -0.3042857715364E+00  0.0000000000000E+00  0.5412149893773E+00
 0.2891419300879E+00 -0.3577236266074E+00  0.0000000000000E+00  0.4427075015816E+00
 0.3265025624456E+00 -0.3887376322162E+00  0.0000000000000E+00  0.3416279479064E+00
 0.3452741775315E+00 -0.4013977928549E+00  0.0000000000000E+00  0.2518119552455E+00
 0.3502197074138E+00 -0.4005928772632E+00  0.0000000000000E+00  0.1786428128864E+00
 0.3459031915275E+00 -0.3910580381859E+00  0.0000000000000E+00  0.1252856649580E+00
 0.3363973875816E+00 -0.3769660826361E+00  0.0000000000000E+00  0.9225061871763E-01
 0.3246322798623E+00 -0.3612298602885E+00  0.0000000000000E+00  0.7570989404954E-01
 0.3119682251039E+00 -0.3451888193022E+00  0.0000000000000E+00  0.7140280256185E-01
 0.2989559002153E+00 -0.3293593829148E+00  0.0000000000000E+00  0.7617181720906E-01
 0.2858590379082E+00 -0.3139587604596E+00  0.0000000000000E+00  0.8768221761072E-01
 0.2727960453638E+00 -0.2990425226432E+00  0.0000000000000E+00  0.1039686133049E+00
 0.2597015746482E+00 -0.2844957452475E+00  0.0000000000000E+00  0.1234828561412E+00
 0.2464822550995E+00 -0.2701929300143E+00  0.0000000000000E+00  0.1450723887453E+00
 0.2330965623055E+00 -0.2560589869182E+00  0.0000000000000E+00  0.1677581593747E+00
 0.2194114563028E+00 -0.2418878178660E+00  0.0000000000000E+00  0.1904681903028E+00
 0.2056717825107E+00 -0.2282300909562E+00  0.0000000000000E+00  0.2142662555114E+00
 0.1953729241054E+00 -0.2187897334759E+00  0.0000000000000E+00  0.2403675979876E+00
 0.1927839897936E+00 -0.2178634830131E+00  0.0000000000000E+00  0.2686469630551E+00
 0.1577355019962E+00 -0.2409954477119E+00  0.0000000000000E+00  0.6426032666432E+00
 0.2510474358648E+00 -0.3271511584289E+00  0.0000000000000E+00  0.5436283807511E+00
 0.3098725783676E+00 -0.3788438963940E+00  0.0000000000000E+00  0.4236680510790E+00
 0.3417676140139E+00 -0.4036447680142E+00  0.0000000000000E+00  0.3064234699845E+00
 0.3528895187375E+00 -0.4079937262089E+00  0.0000000000000E+00  0.2074092901736E+00
 0.3498860413685E+00 -0.3987036052228E+00  0.0000000000000E+00  0.1314173908259E+00
 0.3385934344496E+00 -0.3818248319402E+00  0.0000000000000E+00  0.8033315043493E-01
 0.3236867345462E+00 -0.3620971574187E+00  0.0000000000000E+00  0.5242576115916E-01
 0.3079564159938E+00 -0.3422555985082E+00  0.0000000000000E+00  0.4183223090070E-01
 0.2923390468275E+00 -0.3231920177365E+00  0.0000000000000E+00  0.4326138391071E-01
 0.2770510821055E+00 -0.3050639474145E+00  0.0000000000000E+00  0.5311605690908E-01
 0.2621366218514E+00 -0.2878481433788E+00  0.0000000000000E+00  0.6884832471710E-01
 0.2475535728446E+00 -0.2714235732214E+00  0.0000000000000E+00  0.8837690962540E-01
 0.2331108023998E+00 -0.2555388114290E+00  0.0000000000000E+00  0.1100997419611E+00
 0.2186392065160E+00 -0.2399852236044E+00  0.0000000000000E+00  0.1328449865825E+00
 0.2040546013244E+00 -0.2246389094385E+00  0.0000000000000E+00  0.1556612566895E+00
 0.1891701294120E+00 -0.2092315748207E+00  0.0000000000000E+00  0.1775680115121E+00
 0.1744838445005E+00 -0.1945664519200E+00  0.0000000000000E+00  0.1998391097025E+00
 0.1637905769800E+00 -0.1846902497618E+00  0.0000000000000E+00  0.2244500385956E+00
 0.1613694248660E+00 -0.1839770288453E+00  0.0000000000000E+00  0.2524651248267E+00
 0.1744514460790E+00 -0.2601195543663E+00  0.0000000000000E+00  0.6702558228052E+00
 0.2756150721107E+00 -0.3530486241058E+00  0.0000000000000E+00  0.5406621722705E+00
 0.3317523579821E+00 -0.4011056728339E+00  0.0000000000000E+00  0.3955951913744E+00
 0.3559473102323E+00 -0.4173115706310E+00  0.0000000000000E+00  0.2614965745433E+00
 0.3575476475170E+00 -0.4113861018295E+00  0.0000000000000E+00  0.1550288155632E+00
 0.3455366469865E+00 -0.3925272856796E+00  0.0000000000000E+00  0.7926860696703E-01
 0.3270600223631E+00 -0.3681240825311E+00  0.0000000000000E+00  0.3354666232004E-01
 0.3071210443914E+00 -0.3431737502733E+00  0.0000000000000E+00  0.1295996436414E-01
 0.2879986828522E+00 -0.3198452631384E+00  0.0000000000000E+00  0.9525421500153E-02
 0.2700010613206E+00 -0.2983703290341E+00  0.0000000000000E+00  0.1719176458500E-01
 0.2529514847572E+00 -0.2784857343934E+00  0.0000000000000E+00  0.3215904088643E-01
 0.2366711398391E+00 -0.2599248864814E+00  0.0000000000000E+00  0.5180951596495E-01
 0.2209659160713E+00 -0.2424000872847E+00  0.0000000000000E+00  0.7403546445656E-01
 0.2055329571149E+00 -0.2255382917687E+00  0.0000000000000E+00  0.9723755334984E-01
 0.1901426799054E+00 -0.2090636245421E+00  0.0000000000000E+00  0.1202638708078E+00
 0.1746773978963E+00 -0.1928134245219E+00  0.0000000000000E+00  0.1422303941948E+00
 0.1588987951614E+00 -0.1764604923308E+00  0.0000000000000E+00  0.1622952760868E+00
 0.1435929830163E+00 -0.1610852020923E+00  0.0000000000000E+00  0.1819313152164E+00
 0.1327597627235E+00 -0.1509837057210E+00  0.0000000000000E+00  0.2039691723534E+00
 0.1304853178933E+00 -0.1504137376277E+00  0.0000000000000E+00  0.2308867137748E+00
 0.1939606544676E+00 -0.2825308440958E+00  0.0000000000000E+00  0.6995765351246E+00
 0.3034227193798E+00 -0.3823924206508E+00  0.0000000000000E+00  0.5304413783329E+00
 0.3544362286659E+00 -0.4241387494024E+00  0.0000000000000E+00  0.3563658875623E+00
 0.3681584651972E+00 -0.4287847195625E+00  0.0000000000000E+00  0.2056572784744E+00
 0.3582701948344E+00 -0.4105259020533E+00  0.0000000000000E+00  0.9490990261463E-01
 0.3364932147944E+00 -0.3813487829858E+00  0.0000000000000E+00  0.2360283173373E-01
 0.3110784211402E+00 -0.3497306238271E+00  0.0000000000000E+00 -0.1324969473142E-01
 0.2868397238695E+00 -0.3203553973493E+00  0.0000000000000E+00 -0.2453045171262E-01
 0.2650967173777E+00 -0.2943629087069E+00  0.0000000000000E+00 -0.2001950892959E-01
 0.2453767357562E+00 -0.2711711604152E+00  0.0000000000000E+00 -0.6011845184604E-02
 0.2271120750793E+00 -0.2501015173441E+00  0.0000000000000E+00  0.1379300384935E-01
 0.2099321415884E+00 -0.2306777274785E+00  0.0000000000000E+00  0.3683824682979E-01
 0.1935128971089E+00 -0.2124687115168E+00  0.0000000000000E+00  0.6105813968707E-01
 0.1774606045469E+00 -0.1950013483107E+00  0.0000000000000E+00  0.8490236318820E-01
 0.1615056053011E+00 -0.1779541583862E+00  0.0000000000000E+00  0.1072732938298E+00
 0.1455106295008E+00 -0.1611414619926E+00  0.0000000000000E+00  0.1273863775859E+00
 0.1291941301949E+00 -0.1441869556728E+00  0.0000000000000E+00  0.1445715210305E+00
 0.1136633537857E+00 -0.1284692871948E+00  0.0000000000000E+00  0.1604612631868E+00
 0.1030156425134E+00 -0.1184227346499E+00  0.0000000000000E+00  0.1787966541840E+00
 0.1009132995890E+00 -0.1179632166249E+00  0.0000000000000E+00  0.2036439634894E+00
 0.2169013933370E+00 -0.3090498061511E+00  0.0000000000000E+00  0.7304828606289E+00
 0.3348378227665E+00 -0.4156099328593E+00  0.0000000000000E+00  0.5102908560256E+00
 0.3772884633759E+00 -0.4472532196744E+00  0.0000000000000E+00  0.3033038482814E+00
 0.3771751467117E+00 -0.4367246625878E+00  0.0000000000000E+00  0.1378667733396E+00
 0.3539439168557E+00 -0.4042101261049E+00  0.0000000000000E+00  0.2799092228169E-01
 0.3222125937363E+00 -0.3646025632997E+00  0.0000000000000E+00 -0.3345892051930E-01
 0.2906933980245E+00 -0.3267145315965E+00  0.0000000000000E+00 -0.5791312393105E-01
 0.2632202737934E+00 -0.2940567628544E+00  0.0000000000000E+00 -0.5849483461817E-01
 0.2397353534433E+00 -0.2663245300105E+00  0.0000000000000E+00 -0.4584639546636E-01
 0.2189629109634E+00 -0.2421149911303E+00  0.0000000000000E+00 -0.2579316567964E-01
 0.2000222360498E+00 -0.2204211118156E+00  0.0000000000000E+00 -0.1673560279531E-02
 0.1824028061193E+00 -0.2006084113303E+00  0.0000000000000E+00  0.2407357041447E-01
 0.1656733670285E+00 -0.1821244647631E+00  0.0000000000000E+00  0.4946652385235E-01
 0.1493733227625E+00 -0.1644209599477E+00  0.0000000000000E+00  0.7305200931165E-01
 0.1332204543264E+00 -0.1471610709227E+00  0.0000000000000E+00  0.9382448291726E-01
 0.1170800093878E+00 -0.1301615539727E+00  0.0000000000000E+00  0.1111240194333E+00
 0.1006442176160E+00 -0.1130165990496E+00  0.0000000000000E+00  0.1244665426399E+00
 0.8537118783179E-01 -0.9741960098979E-01  0.0000000000000E+00  0.1355656887355E+00
 0.7533504311530E-01 -0.8781154509346E-01  0.0000000000000E+00  0.1490738866907E+00
 0.7353000798704E-01 -0.8752055494063E-01  0.0000000000000E+00  0.1707424918871E+00
 0.2440950614360E+00 -0.3407951704071E+00  0.0000000000000E+00  0.7625271538183E+00
 0.3701603451212E+00 -0.4530841600317E+00  0.0000000000000E+00  0.4762542312429E+00
 0.3991840133017E+00 -0.4692058287312E+00  0.0000000000000E+00  0.2330392924407E+00
 0.3813249499686E+00 -0.4392744498766E+00  0.0000000000000E+00  0.5758553606290E-01
 0.3434232380220E+00 -0.3911943898376E+00  0.0000000000000E+00 -0.4367985686879E-01
 0.3024695278484E+00 -0.3420853979520E+00  0.0000000000000E+00 -0.8904178481600E-01
 0.2663084814159E+00 -0.2995427795431E+00  0.0000000000000E+00 -0.9826743886729E-01
 0.2368491007208E+00 -0.2649115219288E+00  0.0000000000000E+00 -0.8773926612998E-01
 0.2124763928495E+00 -0.2363164338579E+00  0.0000000000000E+00 -0.6736123109691E-01
 0.1912770488072E+00 -0.2117383474456E+00  0.0000000000000E+00 -0.4183292865371E-01
 0.1721764351076E+00 -0.1899586863903E+00  0.0000000000000E+00 -0.1408252076661E-01
 0.1545620236428E+00 -0.1702148158085E+00  0.0000000000000E+00  0.1354249441502E-01
 0.1379079603745E+00 -0.1518433856284E+00  0.0000000000000E+00  0.3919901729931E-01
 0.1217175136956E+00 -0.1342548684884E+00  0.0000000000000E+00  0.6160730791221E-01
 0.1057367640439E+00 -0.1171433771720E+00  0.0000000000000E+00  0.7990019523864E-01
 0.8986780314153E-01 -0.1003677099822E+00  0.0000000000000E+00  0.9355598706177E-01
 0.7380509354141E-01 -0.8352459747448E-01  0.0000000000000E+00  0.1022663133451E+00
 0.5938329596426E-01 -0.6863458994833E-01  0.0000000000000E+00  0.1076931664960E+00
 0.5051694906018E-01 -0.5999003376347E-01  0.0000000000000E+00  0.1153332913669E+00
 0.4930134194355E-01 -0.6008587252864E-01  0.0000000000000E+00  0.1326122854666E+00
 0.2766103420220E+00 -0.3793636715765E+00  0.0000000000000E+00  0.7944534697784E+00
 0.4094582618372E+00 -0.4949887570911E+00  0.0000000000000E+00  0.4221924270350E+00
 0.4181468756129E+00 -0.4877581474678E+00  0.0000000000000E+00  0.1414213302975E+00
 0.3784092312587E+00 -0.4339386477296E+00  0.0000000000000E+00 -0.3446164052073E-01
 0.3257980921370E+00 -0.3705140494947E+00  0.0000000000000E+00 -0.1164104556093E+00
 0.2776006662362E+00 -0.3142480456326E+00  0.0000000000000E+00 -0.1397900921695E+00
 0.2386774242924E+00 -0.2690689606188E+00  0.0000000000000E+00 -0.1326651402002E+00
 0.2083864666320E+00 -0.2336055370760E+00  0.0000000000000E+00 -0.1116935853433E+00
 0.1838647118870E+00 -0.2048941989264E+00  0.0000000000000E+00 -0.8429307241132E-01
 0.1628242483182E+00 -0.1805632351155E+00  0.0000000000000E+00 -0.5395171202402E-01
 0.1440666808308E+00 -0.1592292357381E+00  0.0000000000000E+00 -0.2337737370303E-01
 0.1268759333612E+00 -0.1399834559348E+00  0.0000000000000E+00  0.5162414167413E-02
 0.1106413878187E+00 -0.1220636368806E+00  0.0000000000000E+00  0.3010407316022E-01
 0.9488233405997E-01 -0.1048999247878E+00  0.0000000000000E+00  0.5046068140126E-01
 0.7943446190944E-01 -0.8828737722314E-01  0.0000000000000E+00  0.6554352085065E-01
 0.6428370423138E-01 -0.7217968405146E-01  0.0000000000000E+00  0.7496101774713E-01
 0.4916749247021E-01 -0.5622211566925E-01  0.0000000000000E+00  0.7854671410612E-01
 0.3632034943628E-01 -0.4277378497710E-01  0.0000000000000E+00  0.7771125857791E-01
 0.2934096108031E-01 -0.3579638296496E-01  0.0000000000000E+00  0.7865151121992E-01
 0.2925107673290E-01 -0.3674055695159E-01  0.0000000000000E+00  0.9031989566765E-01
 0.3158398656783E+00 -0.4271820280387E+00  0.0000000000000E+00  0.8231261631712E+00
 0.4521166120450E+00 -0.5408185467824E+00  0.0000000000000E+00  0.3379153682610E+00
 0.4306781601412E+00 -0.4987722653168E+00  0.0000000000000E+00  0.2381961144368E-01
 0.3658108334438E+00 -0.4177019316066E+00  0.0000000000000E+00 -0.1346218174257E+00
 0.3009782799876E+00 -0.3422017168891E+00  0.0000000000000E+00 -0.1844638658640E+00
 0.2486725604281E+00 -0.2824379908260E+00  0.0000000000000E+00 -0.1829112862331E+00
 0.2086312881595E+00 -0.2361566339500E+00  0.0000000000000E+00 -0.1606902458302E+00
 0.1783752345233E+00 -0.2006708515945E+00  0.0000000000000E+00 -0.1302901374802E+00
 0.1543895562880E+00 -0.1725479867017E+00  0.0000000000000E+00 -0.9644805508848E-01
 0.1341145692769E+00 -0.1491256335325E+00  0.0000000000000E+00 -0.6199106817483E-01
 0.1161950118139E+00 -0.1287652924589E+00  0.0000000000000E+00 -0.2961069987343E-01
 0.9978572483784E-01 -0.1103753135618E+00  0.0000000000000E+00 -0.1301264566832E-02
 0.8423551602889E-01 -0.9315532715845E-01  0.0000000000000E+00  0.2192595773044E-01
 0.6917019053274E-01 -0.7666155803173E-01  0.0000000000000E+00  0.3949513767413E-01
 0.5459452712370E-01 -0.6087655581993E-01  0.0000000000000E+00  0.5089466234289E-01
 0.4063126791791E-01 -0.4591012242669E-01  0.0000000000000E+00  0.5583054544992E-01
 0.2711066956512E-01 -0.3150884387812E-01  0.0000000000000E+00  0.5423825015091E-01
 0.1669516062735E-01 -0.2039561348157E-01  0.0000000000000E+00  0.4701073833351E-01
 0.1248386421660E-01 -0.1598568089820E-01  0.0000000000000E+00  0.4082091611103E-01
 0.1437304189352E-01 -0.1857070257142E-01  0.0000000000000E+00  0.4585237518775E-01
 0.3633612961184E+00 -0.4883199090644E+00  0.0000000000000E+00  0.8400283595177E+00
 0.4955056119486E+00 -0.5876636991746E+00  0.0000000000000E+00  0.2051132777955E+00
 0.4305203944549E+00 -0.4945886519556E+00  0.0000000000000E+00 -0.1229152104189E+00
 0.3414013503218E+00 -0.3879683910449E+00  0.0000000000000E+00 -0.2327330483863E+00
 0.2706718116802E+00 -0.3089055873208E+00  0.0000000000000E+00 -0.2411594073859E+00
 0.2170225644478E+00 -0.2480319036687E+00  0.0000000000000E+00 -0.2183828720771E+00
 0.1766277877233E+00 -0.2012205210115E+00  0.0000000000000E+00 -0.1828770033790E+00
 0.1471925190835E+00 -0.1664345389094E+00  0.0000000000000E+00 -0.1433980463577E+00
 0.1245554728089E+00 -0.1397992645374E+00  0.0000000000000E+00 -0.1034153248501E+00
 0.1057265174387E+00 -0.1180541021737E+00  0.0000000000000E+00 -0.6582801046971E-01
 0.8907280376022E-01 -0.9911297164992E-01  0.0000000000000E+00 -0.3306867309812E-01
 0.7367061433151E-01 -0.8178070462994E-01  0.0000000000000E+00 -0.6295441616786E-02
 0.5895157000336E-01 -0.6538115885753E-01  0.0000000000000E+00  0.1432044456867E-01
 0.4476770880225E-01 -0.4972341602629E-01  0.0000000000000E+00  0.2862720934552E-01
 0.3137222539693E-01 -0.3506784484816E-01  0.0000000000000E+00  0.3622833647695E-01
 0.1907154520807E-01 -0.2172504845231E-01  0.0000000000000E+00  0.3689986677710E-01
 0.7845381168783E-02 -0.9620402462366E-02  0.0000000000000E+00  0.3066056149088E-01
 0.8167159554375E-03 -0.1854942581929E-02  0.0000000000000E+00  0.1754947447659E-01
 0.3644290484868E-03 -0.1074159662845E-02  0.0000000000000E+00  0.4487223306565E-02
 0.5428387294270E-02 -0.6473036490638E-02  0.0000000000000E+00  0.2428938499709E-02
 0.4207019347318E+00 -0.5704991046957E+00  0.0000000000000E+00  0.8218185507790E+00
 0.5299528296922E+00 -0.6250145947270E+00  0.0000000000000E+00 -0.1516143319836E-01
 0.4071914319164E+00 -0.4590204594863E+00  0.0000000000000E+00 -0.2885682879610E+00
 0.3074176346357E+00 -0.3506766616193E+00  0.0000000000000E+00 -0.3069131220354E+00
 0.2380463034280E+00 -0.2737016304770E+00  0.0000000000000E+00 -0.2870553627869E+00
 0.1830418950895E+00 -0.2113851645184E+00  0.0000000000000E+00 -0.2484084723470E+00
 0.1426862424629E+00 -0.1641145638145E+00  0.0000000000000E+00 -0.1995557860163E+00
 0.1152037381789E+00 -0.1312125980244E+00  0.0000000000000E+00 -0.1501181264803E+00
 0.9507660930328E-01 -0.1074470216469E+00  0.0000000000000E+00 -0.1045199520451E+00
 0.7834031255453E-01 -0.8810135407211E-01  0.0000000000000E+00 -0.6569231192745E-01
 0.6315296965482E-01 -0.7074332803961E-01  0.0000000000000E+00 -0.3445430551817E-01
 0.4878199309251E-01 -0.5444756888407E-01  0.0000000000000E+00 -0.1045772722798E-01
 0.3492181464835E-01 -0.3886583482449E-01  0.0000000000000E+00  0.6947709637839E-02
 0.2173153079500E-01 -0.2414681268505E-01  0.0000000000000E+00  0.1784233492687E-01
 0.9767493961704E-02 -0.1084568054330E-01  0.0000000000000E+00  0.2196632986881E-01
-0.4113055694948E-03  0.3743014940034E-03  0.0000000000000E+00  0.1917924747751E-01
-0.8642107801197E-02  0.9441189888055E-02  0.0000000000000E+00  0.9498393109544E-02
-0.1131081955833E-01  0.1277993841356E-01  0.0000000000000E+00 -0.8237694865674E-02
-0.7097633212458E-02  0.8936432699560E-02  0.0000000000000E+00 -0.2700316261556E-01
 0.2511470704161E-02 -0.7296933357910E-03  0.0000000000000E+00 -0.3533196862595E-01
 0.4626592612268E+00 -0.6964409328935E+00  0.0000000000000E+00  0.6085058975071E+00
 0.5163518481148E+00 -0.5715577887299E+00  0.0000000000000E+00 -0.3902521819059E+00
 0.3573141395372E+00 -0.4054532974605E+00  0.0000000000000E+00 -0.3895980933042E+00
 0.2732605990632E+00 -0.3138023704738E+00  0.0000000000000E+00 -0.3580684333001E+00
 0.2038896220051E+00 -0.2375992473464E+00  0.0000000000000E+00 -0.3280821341919E+00
 0.1462619613738E+00 -0.1717683369327E+00  0.0000000000000E+00 -0.2754608364463E+00
 0.1064509810812E+00 -0.1241375444682E+00  0.0000000000000E+00 -0.2093796953304E+00
 0.8331006661222E-01 -0.9603582734472E-01  0.0000000000000E+00 -0.1482528037929E+00
 0.6702731275799E-01 -0.7674019677628E-01  0.0000000000000E+00 -0.9957827701512E-01
 0.5259181653239E-01 -0.5993821064162E-01  0.0000000000000E+00 -0.6268551599288E-01
 0.3869363423680E-01 -0.4390442661792E-01  0.0000000000000E+00 -0.3486621475848E-01
 0.2519180313000E-01 -0.2842396049989E-01  0.0000000000000E+00 -0.1442903416857E-01
 0.1215099651349E-01 -0.1361347626440E-01  0.0000000000000E+00 -0.3899785033514E-03
 0.2859434444424E-04  0.1027217413725E-03  0.0000000000000E+00  0.7243383903711E-02
-0.1041499835629E-01  0.1194656388477E-01  0.0000000000000E+00  0.8419987378719E-02
-0.1814532457243E-01  0.2085917956959E-01  0.0000000000000E+00  0.4021200928841E-02
-0.2248370135697E-01  0.2562195265321E-01  0.0000000000000E+00 -0.6865997693981E-02
-0.1988565872632E-01  0.2366128051063E-01  0.0000000000000E+00 -0.2830840953815E-01
-0.1084035935780E-01  0.1498406129120E-01  0.0000000000000E+00 -0.5066277287815E-01
 0.4152632967759E-02 -0.4440895795188E-04  0.0000000000000E+00 -0.6205290526742E-01
 0.1621478711224E+00 -0.1853593627970E+00  0.0000000000000E+00 -0.9271070910998E-01
 0.1414287843800E+00 -0.1613618262075E+00  0.0000000000000E+00 -0.9213548074176E-01
 0.1212290705528E+00 -0.1393738313538E+00  0.0000000000000E+00 -0.9027720311952E-01
 0.1016384263234E+00 -0.1179870123238E+00  0.0000000000000E+00 -0.8498028444874E-01
 0.8279135575129E-01 -0.9735775621421E-01  0.0000000000000E+00 -0.7601847141453E-01
 0.6523193916948E-01 -0.7799711674097E-01  0.0000000000000E+00 -0.6366603528633E-01
 0.4943367892831E-01 -0.6039411986018E-01  0.0000000000000E+00 -0.4841483175223E-01
 0.3579794448350E-01 -0.4496875867587E-01  0.0000000000000E+00 -0.3096814891383E-01
 0.2461767554787E-01 -0.3203854085014E-01  0.0000000000000E+00 -0.1222263928799E-01
 0.1605232753469E-01 -0.2179125217268E-01  0.0000000000000E+00  0.6765417802500E-02
 0.1010327645414E-01 -0.1425990095095E-01  0.0000000000000E+00  0.2483830351599E-01
 0.6597212707359E-02 -0.9304736482356E-02  0.0000000000000E+00  0.4081975655730E-01
 0.5183328411476E-02 -0.6608150702452E-02  0.0000000000000E+00  0.5362215945374E-01
 0.5352086281081E-02 -0.5690010888009E-02  0.0000000000000E+00  0.6237224885623E-01
 0.6483788243588E-02 -0.5951917861248E-02  0.0000000000000E+00  0.6653920548904E-01
 0.7932005545090E-02 -0.6756543513673E-02  0.0000000000000E+00  0.6603287758147E-01
 0.9137220700042E-02 -0.7538562765391E-02  0.0000000000000E+00  0.6122681712362E-01
 0.9745319396168E-02 -0.7925430977917E-02  0.0000000000000E+00  0.5286371662870E-01
 0.9701197544487E-02 -0.7828574082252E-02  0.0000000000000E+00  0.4186493686518E-01
 0.9194868373604E-02 -0.7457449315257E-02  0.0000000000000E+00  0.2887662109045E-01
 0.1743904096132E+00 -0.1978692203825E+00  0.0000000000000E+00 -0.1032231365636E+00
 0.1556363538720E+00 -0.1773083658919E+00  0.0000000000000E+00 -0.1034522173560E+00
 0.1348948743373E+00 -0.1544629024258E+00  0.0000000000000E+00 -0.1018061726389E+00
 0.1144029639521E+00 -0.1321541693576E+00  0.0000000000000E+00 -0.9820486776821E-01
 0.9468176865373E-01 -0.1106130514532E+00  0.0000000000000E+00 -0.9093218255300E-01
 0.7610006833977E-01 -0.9019589595469E-01  0.0000000000000E+00 -0.7984246004141E-01
 0.5912463631482E-01 -0.7136134063233E-01  0.0000000000000E+00 -0.6522826672663E-01
 0.4420909284030E-01 -0.5457800221057E-01  0.0000000000000E+00 -0.4771444411301E-01
 0.3174255895925E-01 -0.4025699623439E-01  0.0000000000000E+00 -0.2818622176783E-01
 0.2199949551487E-01 -0.2870118182780E-01  0.0000000000000E+00 -0.7755757911937E-02
 0.1509803560837E-01 -0.2006220549013E-01  0.0000000000000E+00  0.1229156882949E-01
 0.1096512313589E-01 -0.1430482761982E-01  0.0000000000000E+00  0.3058064843313E-01
 0.9314169907275E-02 -0.1118281718042E-01  0.0000000000000E+00  0.4576646183645E-01
 0.9644129468132E-02 -0.1023475161785E-01  0.0000000000000E+00  0.5668969061703E-01
 0.1127271197597E-01 -0.1081202158584E-01  0.0000000000000E+00  0.6255612497010E-01
 0.1341755076678E-01 -0.1215313619827E-01  0.0000000000000E+00  0.6310586915954E-01
 0.1533010152838E-01 -0.1351155188744E-01  0.0000000000000E+00  0.5870746042515E-01
 0.1646447617348E-01 -0.1432028528311E-01  0.0000000000000E+00  0.5030241274086E-01
 0.1661625474996E-01 -0.1434088251555E-01  0.0000000000000E+00  0.3915732589902E-01
 0.1608577392537E-01 -0.1378715387418E-01  0.0000000000000E+00  0.2652120402789E-01
 0.1865960570879E+00 -0.2110298206206E+00  0.0000000000000E+00 -0.1097231045961E+00
 0.1691102127379E+00 -0.1919329164351E+00  0.0000000000000E+00 -0.1143422725679E+00
 0.1492865467742E+00 -0.1703487874772E+00  0.0000000000000E+00 -0.1147183731803E+00
 0.1286770643021E+00 -0.1479153455364E+00  0.0000000000000E+00 -0.1126556680883E+00
 0.1083468490111E+00 -0.1257736119464E+00  0.0000000000000E+00 -0.1072640077970E+00
 0.8886742307878E-01 -0.1044426284191E+00  0.0000000000000E+00 -0.9792817927432E-01
 0.7073934544185E-01 -0.8441929039805E-01  0.0000000000000E+00 -0.8463243715096E-01
 0.5447016441712E-01 -0.6621751269566E-01  0.0000000000000E+00 -0.6778184981584E-01
 0.4053685806980E-01 -0.5033280521846E-01  0.0000000000000E+00 -0.4813514097946E-01
 0.2933511946056E-01 -0.3718714902688E-01  0.0000000000000E+00 -0.2676174969667E-01
 0.2112373154663E-01 -0.2707282678568E-01  0.0000000000000E+00 -0.4996812689375E-02
 0.1597106158778E-01 -0.2009845751930E-01  0.0000000000000E+00  0.1563329068232E-01
 0.1370879969482E-01 -0.1614203289614E-01  0.0000000000000E+00  0.3352951555555E-01
 0.1390283025276E-01 -0.1481968240221E-01  0.0000000000000E+00  0.4719250901603E-01
 0.1585738723584E-01 -0.1548507263682E-01  0.0000000000000E+00  0.5544877198728E-01
 0.1867528791193E-01 -0.1728132725612E-01  0.0000000000000E+00  0.5770718747429E-01
 0.2139680711669E-01 -0.1926846483823E-01  0.0000000000000E+00  0.5417521417922E-01
 0.2321129079074E-01 -0.2062684335222E-01  0.0000000000000E+00  0.4590551579008E-01
 0.2369095601062E-01 -0.2088420734433E-01  0.0000000000000E+00  0.3456437989013E-01
 0.2292080352770E-01 -0.2006094691609E-01  0.0000000000000E+00  0.2208046547355E-01
 0.1996460352821E+00 -0.2251280314689E+00  0.0000000000000E+00 -0.1146059546799E+00
 0.1829827671699E+00 -0.2070479667984E+00  0.0000000000000E+00 -0.1232955779790E+00
 0.1641671377100E+00 -0.1866439696667E+00  0.0000000000000E+00 -0.1270199558986E+00
 0.1440771706857E+00 -0.1648715036770E+00  0.0000000000000E+00 -0.1274486848637E+00
 0.1236453442868E+00 -0.1426783743059E+00  0.0000000000000E+00 -0.1244093664651E+00
 0.1035830346490E+00 -0.1207874101007E+00  0.0000000000000E+00 -0.1173953235251E+00
 0.8447858874302E-01 -0.9977873540395E-01  0.0000000000000E+00 -0.1061479323682E+00
 0.6689904738319E-01 -0.8022445285741E-01  0.0000000000000E+00 -0.9080688615128E-01
 0.5140294719483E-01 -0.6269675458818E-01  0.0000000000000E+00 -0.7190151531021E-01
 0.3850413789061E-01 -0.4773239026583E-01  0.0000000000000E+00 -0.5034129112063E-01
 0.2861593864076E-01 -0.3577613149469E-01  0.0000000000000E+00 -0.2739484905930E-01
 0.2198472316146E-01 -0.2711468040973E-01  0.0000000000000E+00 -0.4642059298383E-02
 0.1862028988358E-01 -0.2180744989861E-01  0.0000000000000E+00  0.1612174225154E-01
 0.1823264632629E-01 -0.1962312872136E-01  0.0000000000000E+00  0.3304913415083E-01
 0.2019253429286E-01 -0.1999775520582E-01  0.0000000000000E+00  0.4448885764541E-01
 0.2354577655084E-01 -0.2204174511042E-01  0.0000000000000E+00  0.4932155393696E-01
 0.2712424792188E-01 -0.2463667819967E-01  0.0000000000000E+00  0.4733541340143E-01
 0.2978758376780E-01 -0.2665737507997E-01  0.0000000000000E+00  0.3948406814460E-01
 0.3074509377610E-01 -0.2728577988627E-01  0.0000000000000E+00  0.2777241686332E-01
 0.2977506474128E-01 -0.2624132299311E-01  0.0000000000000E+00  0.1468768843787E-01
 0.2134043510421E+00 -0.2399858967868E+00  0.0000000000000E+00 -0.1181295900026E+00
 0.1975345539197E+00 -0.2228686662036E+00  0.0000000000000E+00 -0.1303724633708E+00
 0.1797587349174E+00 -0.2036814471037E+00  0.0000000000000E+00 -0.1376872054169E+00
 0.1605042119186E+00 -0.1828894290910E+00  0.0000000000000E+00 -0.1413214444680E+00
 0.1404532446400E+00 -0.1611892933078E+00  0.0000000000000E+00 -0.1413174730591E+00
 0.1202581215159E+00 -0.1392348381219E+00  0.0000000000000E+00 -0.1373021895740E+00
 0.1005267380980E+00 -0.1176345146900E+00  0.0000000000000E+00 -0.1289232897747E+00
 0.8185814124271E-01 -0.9698831491017E-01  0.0000000000000E+00 -0.1160769074992E+00
 0.6486285745345E-01 -0.7791561400198E-01  0.0000000000000E+00 -0.9900697325076E-01
 0.5014699011381E-01 -0.6103982916327E-01  0.0000000000000E+00 -0.7835078862754E-01
 0.3826708216984E-01 -0.4694432107993E-01  0.0000000000000E+00 -0.5516505916998E-01
 0.2966337385979E-01 -0.3610656210490E-01  0.0000000000000E+00 -0.3092558208117E-01
 0.2457609574884E-01 -0.2881588560882E-01  0.0000000000000E+00 -0.7482744666911E-02
 0.2295136304325E-01 -0.2508108484309E-01  0.0000000000000E+00  0.1305350780561E-01
 0.2435015972680E-01 -0.2454033252098E-01  0.0000000000000E+00  0.2853281066726E-01
 0.2788942390436E-01 -0.2639965097968E-01  0.0000000000000E+00  0.3712462347220E-01
 0.3227328873335E-01 -0.2945184557685E-01  0.0000000000000E+00  0.3783442612271E-01
 0.3600051097396E-01 -0.3225714596263E-01  0.0000000000000E+00  0.3107390766534E-01
 0.3778533107185E-01 -0.3353079842445E-01  0.0000000000000E+00  0.1890722934759E-01
 0.3698765746475E-01 -0.3257840972999E-01  0.0000000000000E+00  0.4436144518148E-02
 0.2277460941937E+00 -0.2554452203078E+00  0.0000000000000E+00 -0.1202986148216E+00
 0.2127441097023E+00 -0.2393606825736E+00  0.0000000000000E+00 -0.1354536424471E+00
 0.1960808662204E+00 -0.2214602861296E+00  0.0000000000000E+00 -0.1461862474639E+00
 0.1778907615714E+00 -0.2018983594313E+00  0.0000000000000E+00 -0.1532738291334E+00
 0.1586118501474E+00 -0.1811157146592E+00  0.0000000000000E+00 -0.1567739352317E+00
 0.1387597016585E+00 -0.1596249743272E+00  0.0000000000000E+00 -0.1563654928363E+00
 0.1188739766777E+00 -0.1379602488798E+00  0.0000000000000E+00 -0.1516415523001E+00
 0.9952288129038E-01 -0.1166863122414E+00  0.0000000000000E+00 -0.1423091297225E+00
 0.8131413617826E-01 -0.9641200528162E-01  0.0000000000000E+00 -0.1283212108642E+00
 0.6489090340446E-01 -0.7778917804566E-01  0.0000000000000E+00 -0.1099708795756E+00
 0.5090418793284E-01 -0.6148675957513E-01  0.0000000000000E+00 -0.8796547765677E-01
 0.3995966002457E-01 -0.4813941725655E-01  0.0000000000000E+00 -0.6348400546091E-01
 0.3253784085120E-01 -0.3827001999110E-01  0.0000000000000E+00 -0.3820481127277E-01
 0.2888710380846E-01 -0.3218585088482E-01  0.0000000000000E+00 -0.1427828076484E-01
 0.2889299077594E-01 -0.2985213745955E-01  0.0000000000000E+00  0.5796486096013E-02
 0.3193948593277E-01 -0.3075740073439E-01  0.0000000000000E+00  0.1945377481634E-01
 0.3680906649833E-01 -0.3381231884817E-01  0.0000000000000E+00  0.2458951711606E-01
 0.4174210430605E-01 -0.3738633622302E-01  0.0000000000000E+00  0.2040036472040E-01
 0.4484488877331E-01 -0.3965858477549E-01  0.0000000000000E+00  0.8293394831238E-02
 0.4484846661318E-01 -0.3931312836952E-01  0.0000000000000E+00 -0.8089650553288E-02
 0.2425364071285E+00 -0.2713627666415E+00  0.0000000000000E+00 -0.1210810547886E+00
 0.2285236831000E+00 -0.2564261213745E+00  0.0000000000000E+00 -0.1384849338956E+00
 0.2130689361081E+00 -0.2399094212463E+00  0.0000000000000E+00 -0.1522070862319E+00
 0.1961325133317E+00 -0.2217787585134E+00  0.0000000000000E+00 -0.1626368053559E+00
 0.1779533907188E+00 -0.2022688729168E+00  0.0000000000000E+00 -0.1697675518167E+00
 0.1588919920965E+00 -0.1817304067478E+00  0.0000000000000E+00 -0.1732953524966E+00
 0.1393735402306E+00 -0.1605768520167E+00  0.0000000000000E+00 -0.1727836910177E+00
 0.1198791848095E+00 -0.1392779741023E+00  0.0000000000000E+00 -0.1678089933644E+00
 0.1009526868840E+00 -0.1183691596929E+00  0.0000000000000E+00 -0.1580801354990E+00
 0.8320427256374E-01 -0.9845752774222E-01  0.0000000000000E+00 -0.1435433949291E+00
 0.6730131845342E-01 -0.8021501813980E-01  0.0000000000000E+00 -0.1244830440260E+00
 0.5393864753308E-01 -0.6435109928049E-01  0.0000000000000E+00 -0.1016214327781E+00
 0.4378176148276E-01 -0.5155898427968E-01  0.0000000000000E+00 -0.7621377564875E-01
 0.3737524015706E-01 -0.4242816874511E-01  0.0000000000000E+00 -0.5012116410042E-01
 0.3500749727246E-01 -0.3731544640871E-01  0.0000000000000E+00 -0.2582864222322E-01
 0.3652559430030E-01 -0.3616912701222E-01  0.0000000000000E+00 -0.6345563817056E-02
 0.4110844578124E-01 -0.3831498666193E-01  0.0000000000000E+00  0.5128607278486E-02
 0.4706750037485E-01 -0.4226353982386E-01  0.0000000000000E+00  0.5992121327129E-02
 0.5195992898985E-01 -0.4577203627673E-01  0.0000000000000E+00 -0.4263068704783E-02
 0.5347069595115E-01 -0.4658914618641E-01  0.0000000000000E+00 -0.2246966800225E-01
 0.2576353840184E+00 -0.2875901530633E+00  0.0000000000000E+00 -0.1204268788367E+00
 0.2447421663281E+00 -0.2739259753333E+00  0.0000000000000E+00 -0.1394311146710E+00
 0.2305997915408E+00 -0.2588946457049E+00  0.0000000000000E+00 -0.1555708828361E+00
 0.2150774812419E+00 -0.2423625891828E+00  0.0000000000000E+00 -0.1689580051438E+00
 0.1982703896598E+00 -0.2244157309168E+00  0.0000000000000E+00 -0.1795149763298E+00
 0.1803999471783E+00 -0.2052614142348E+00  0.0000000000000E+00 -0.1869523585254E+00
 0.1617666825854E+00 -0.1851830803218E+00  0.0000000000000E+00 -0.1908416332920E+00
 0.1427376312710E+00 -0.1645294320946E+00  0.0000000000000E+00 -0.1907027441940E+00
 0.1237504523362E+00 -0.1437201695567E+00  0.0000000000000E+00 -0.1860899265040E+00
 0.1053221126559E+00 -0.1232565347899E+00  0.0000000000000E+00 -0.1766783325654E+00
 0.8805375987011E-01 -0.1037282152582E+00  0.0000000000000E+00 -0.1623583197091E+00
 0.7262488693183E-01 -0.8580994756691E-01  0.0000000000000E+00 -0.1433437999632E+00
 0.5976923755037E-01 -0.7024051206642E-01  0.0000000000000E+00 -0.1202979672404E+00
 0.5022223610478E-01 -0.5777450836426E-01  0.0000000000000E+00 -0.9447428921961E-01
 0.4462483593595E-01 -0.4909290367321E-01  0.0000000000000E+00 -0.6786066594908E-01
 0.4336089591275E-01 -0.4465185257469E-01  0.0000000000000E+00 -0.4329443598639E-01
 0.4629668401831E-01 -0.4444218781141E-01  0.0000000000000E+00 -0.2446773596120E-01
 0.5238500808674E-01 -0.4763199246416E-01  0.0000000000000E+00 -0.1562657458766E-01
 0.5920085980939E-01 -0.5214403528500E-01  0.0000000000000E+00 -0.2038273722783E-01
 0.6318287153297E-01 -0.5475518038977E-01  0.0000000000000E+00 -0.3867261259082E-01
 0.2729025089743E+00 -0.3039801098676E+00  0.0000000000000E+00 -0.1182958788783E+00
 0.2612497616649E+00 -0.2917027226222E+00  0.0000000000000E+00 -0.1382955645820E+00
 0.2485165469441E+00 -0.2782486159607E+00  0.0000000000000E+00 -0.1562180908465E+00
 0.2345364133201E+00 -0.2634438789993E+00  0.0000000000000E+00 -0.1719989449637E+00
 0.2193128200927E+00 -0.2472804347017E+00  0.0000000000000E+00 -0.1855087906126E+00
 0.2029606935307E+00 -0.2298572881451E+00  0.0000000000000E+00 -0.1964837272036E+00
 0.1856716588614E+00 -0.2113465601174E+00  0.0000000000000E+00 -0.2045402282569E+00
 0.1677015942550E+00 -0.1919818186544E+00  0.0000000000000E+00 -0.2092163283790E+00
 0.1493723390113E+00 -0.1720605862857E+00  0.0000000000000E+00 -0.2100210213912E+00
 0.1310806720159E+00 -0.1519541888146E+00  0.0000000000000E+00 -0.2064899705483E+00
 0.1133094415547E+00 -0.1321199679295E+00  0.0000000000000E+00 -0.1982517835269E+00
 0.9663647400712E-01 -0.1131115862021E+00  0.0000000000000E+00 -0.1851117609768E+00
 0.8173638346227E-01 -0.9558279025590E-01  0.0000000000000E+00 -0.1671613977981E+00
 0.6936823939695E-01 -0.8027800387477E-01  0.0000000000000E+00 -0.1449226763134E+00
 0.6033723562549E-01 -0.6799880754705E-01  0.0000000000000E+00 -0.1195363083382E+00
 0.5540910771200E-01 -0.5952691060579E-01  0.0000000000000E+00 -0.9300091211561E-01
 0.5513523974195E-01 -0.5546713701151E-01  0.0000000000000E+00 -0.6846017233170E-01
 0.5950872042555E-01 -0.5594049360079E-01  0.0000000000000E+00 -0.5049056958536E-01
 0.6723014114254E-01 -0.5997010114025E-01  0.0000000000000E+00 -0.4517752065203E-01
 0.7447175985535E-01 -0.6444424621222E-01  0.0000000000000E+00 -0.5835888751873E-01
 0.2882021307265E+00 -0.3203916529036E+00  0.0000000000000E+00 -0.1146700875638E+00
 0.2778941357871E+00 -0.3095985122669E+00  0.0000000000000E+00 -0.1351275296634E+00
 0.2666517378819E+00 -0.2977963742838E+00  0.0000000000000E+00 -0.1542028870800E+00
 0.2543073389788E+00 -0.2848085472033E+00  0.0000000000000E+00 -0.1717298344753E+00
 0.2408151049831E+00 -0.2705772300009E+00  0.0000000000000E+00 -0.1875487170779E+00
 0.2262189801954E+00 -0.2551308274124E+00  0.0000000000000E+00 -0.2014277696502E+00
 0.2106296839715E+00 -0.2385609378232E+00  0.0000000000000E+00 -0.2130480527702E+00
 0.1942144944639E+00 -0.2210122578214E+00  0.0000000000000E+00 -0.2220149133705E+00
 0.1771972154899E+00 -0.2026826120138E+00  0.0000000000000E+00 -0.2278802690575E+00
 0.1598650508182E+00 -0.1838298362276E+00  0.0000000000000E+00 -0.2301714389583E+00
 0.1425797300410E+00 -0.1647828618990E+00  0.0000000000000E+00 -0.2284278438438E+00
 0.1257907506687E+00 -0.1459548948386E+00  0.0000000000000E+00 -0.2222502035219E+00
 0.1100486126001E+00 -0.1278565974663E+00  0.0000000000000E+00 -0.2113696651905E+00
 0.9601511610901E-01 -0.1111064404429E+00  0.0000000000000E+00 -0.1957477481712E+00
 0.8446560334846E-01 -0.9643328948578E-01  0.0000000000000E+00 -0.1757232949386E+00
 0.7627270804083E-01 -0.8466145194553E-01  0.0000000000000E+00 -0.1522318675566E+00
 0.7234972456185E-01 -0.7665734066988E-01  0.0000000000000E+00 -0.1271408684868E+00
 0.7349429252584E-01 -0.7318715745290E-01  0.0000000000000E+00 -0.1037813684518E+00
 0.7999755848319E-01 -0.7455329864586E-01  0.0000000000000E+00 -0.8785578490685E-01
 0.9006652942897E-01 -0.7939007215471E-01  0.0000000000000E+00 -0.8916374357695E-01
 0.3034077465784E+00 -0.3366938357134E+00  0.0000000000000E+00 -0.1095485460177E+00
 0.2945303335773E+00 -0.3274636510767E+00  0.0000000000000E+00 -0.1300105050273E+00
 0.2848413814204E+00 -0.3173685375604E+00  0.0000000000000E+00 -0.1496623763091E+00
 0.2741930630653E+00 -0.3062512682484E+00  0.0000000000000E+00 -0.1682849166430E+00
 0.2625202797799E+00 -0.2940355318697E+00  0.0000000000000E+00 -0.1857033773554E+00
 0.2498259197468E+00 -0.2807103482196E+00  0.0000000000000E+00 -0.2017147608546E+00
 0.2361677629269E+00 -0.2663166002172E+00  0.0000000000000E+00 -0.2160611836115E+00
 0.2216517715971E+00 -0.2509400847768E+00  0.0000000000000E+00 -0.2284259125866E+00
 0.2064319921366E+00 -0.2347111291196E+00  0.0000000000000E+00 -0.2384401079738E+00
 0.1907160034175E+00 -0.2178096192873E+00  0.0000000000000E+00 -0.2456954808145E+00
 0.1747748725547E+00 -0.2004743406748E+00  0.0000000000000E+00 -0.2497621912316E+00
 0.1589569371208E+00 -0.1830158652548E+00  0.0000000000000E+00 -0.2502139748578E+00
 0.1437051000593E+00 -0.1658325464899E+00  0.0000000000000E+00 -0.2466648465255E+00
 0.1295776088518E+00 -0.1494293773582E+00  0.0000000000000E+00 -0.2388247337534E+00
 0.1172724277813E+00 -0.1344394606555E+00  0.0000000000000E+00 -0.2265862572499E+00
 0.1076554273725E+00 -0.1216475115916E+00  0.0000000000000E+00 -0.2101640082411E+00
 0.1017919913372E+00 -0.1120138071106E+00  0.0000000000000E+00 -0.1903265729920E+00
 0.1009845024783E+00 -0.1066948722932E+00  0.0000000000000E+00 -0.1688096773684E+00
 0.1068047525620E+00 -0.1070495390237E+00  0.0000000000000E+00 -0.1491226661588E+00
 0.1212836816854E+00 -0.1146151396538E+00  0.0000000000000E+00 -0.1387568728127E+00
 0.3183971625369E+00 -0.3527607442942E+00  0.0000000000000E+00 -0.1029464251531E+00
 0.3110110457017E+00 -0.3451489106914E+00  0.0000000000000E+00 -0.1230467440043E+00
 0.3029160240484E+00 -0.3367953164081E+00  0.0000000000000E+00 -0.1427768523714E+00
 0.2939941845919E+00 -0.3275729250055E+00  0.0000000000000E+00 -0.1618971630929E+00
 0.2841792932734E+00 -0.3174055917182E+00  0.0000000000000E+00 -0.1802265676165E+00
 0.2734539045355E+00 -0.3062641679237E+00  0.0000000000000E+00 -0.1975812645977E+00
 0.2618437464777E+00 -0.2941603830970E+00  0.0000000000000E+00 -0.2137460422710E+00
 0.2494146028005E+00 -0.2811433632157E+00  0.0000000000000E+00 -0.2284632677662E+00
 0.2362731995015E+00 -0.2673001416460E+00  0.0000000000000E+00 -0.2414311854422E+00
 0.2225723099497E+00 -0.2527602814102E+00  0.0000000000000E+00 -0.2523073328344E+00
 0.2085200739565E+00 -0.2377045233822E+00  0.0000000000000E+00 -0.2607155579841E+00
 0.1943937887144E+00 -0.2223776195178E+00  0.0000000000000E+00 -0.2662569028063E+00
 0.1805589591616E+00 -0.2071059857424E+00  0.0000000000000E+00 -0.2685260662312E+00
 0.1674952169085E+00 -0.1923215293057E+00  0.0000000000000E+00 -0.2671367564461E+00
 0.1558320965392E+00 -0.1785941632002E+00  0.0000000000000E+00 -0.2617615096914E+00
 0.1464001797968E+00 -0.1666776447266E+00  0.0000000000000E+00 -0.2521951667033E+00
 0.1403090107678E+00 -0.1575779098385E+00  0.0000000000000E+00 -0.2384577077066E+00
 0.1390767843026E+00 -0.1526647489431E+00  0.0000000000000E+00 -0.2209607401902E+00
 0.1448882197935E+00 -0.1538821402205E+00  0.0000000000000E+00 -0.2007893806075E+00
 0.1612951174881E+00 -0.1643099347906E+00  0.0000000000000E+00 -0.1798944899042E+00
 0.3330519521393E+00 -0.3684684195924E+00  0.0000000000000E+00 -0.9488254277098E-01
 0.3271828218923E+00 -0.3624968430207E+00  0.0000000000000E+00 -0.1143178737851E+00
 0.3206927077494E+00 -0.3558907077554E+00  0.0000000000000E+00 -0.1336958678169E+00
 0.3134947655262E+00 -0.3485550510055E+00  0.0000000000000E+00 -0.1527790569635E+00
 0.3055307522202E+00 -0.3404233224634E+00  0.0000000000000E+00 -0.1713856753362E+00
 0.2967751688908E+00 -0.3314606380831E+00  0.0000000000000E+00 -0.1893422640775E+00
 0.2872346506105E+00 -0.3216626523080E+00  0.0000000000000E+00 -0.2064570202190E+00
 0.2769475303788E+00 -0.3110547477089E+00  0.0000000000000E+00 -0.2225057355607E+00
 0.2659855274830E+00 -0.2996933650681E+00  0.0000000000000E+00 -0.2372247569334E+00
 0.2544583355643E+00 -0.2876701718251E+00  0.0000000000000E+00 -0.2503075950311E+00
 0.2425215721388E+00 -0.2751194644663E+00  0.0000000000000E+00 -0.2614032940447E+00
 0.2303886786976E+00 -0.2622293179964E+00  0.0000000000000E+00 -0.2701155973602E+00
 0.2183477841586E+00 -0.2492573886026E+00  0.0000000000000E+00 -0.2760024631759E+00
 0.2067852893517E+00 -0.2365529574722E+00  0.0000000000000E+00 -0.2785756801231E+00
 0.1962191690034E+00 -0.2245879370571E+00  0.0000000000000E+00 -0.2773001043588E+00
 0.1873471715494E+00 -0.2140015212558E+00  0.0000000000000E+00 -0.2715909229802E+00
 0.1811190034369E+00 -0.2056668195975E+00  0.0000000000000E+00 -0.2608031415773E+00
 0.1788492195886E+00 -0.2007947325284E+00  0.0000000000000E+00 -0.2441952043636E+00
 0.1824043186731E+00 -0.2011075167349E+00  0.0000000000000E+00 -0.2207875358367E+00
 0.1944073047092E+00 -0.2090886083748E+00  0.0000000000000E+00 -0.1888689124359E+00
 0.3472619446655E+00 -0.3836997286663E+00  0.0000000000000E+00 -0.8538908766254E-01
 0.3428977404305E+00 -0.3793524060200E+00  0.0000000000000E+00 -0.1038961764949E+00
 0.3379896821402E+00 -0.3744653994449E+00  0.0000000000000E+00 -0.1225456382097E+00
 0.3324777382718E+00 -0.3689721393011E+00  0.0000000000000E+00 -0.1411156834328E+00
 0.3263147159368E+00 -0.3628189963720E+00  0.0000000000000E+00 -0.1594287463180E+00
 0.3194733530322E+00 -0.3559717195664E+00  0.0000000000000E+00 -0.1773170706471E+00
 0.3119484974408E+00 -0.3484171863556E+00  0.0000000000000E+00 -0.1945999648254E+00
 0.3037582493147E+00 -0.3401642272420E+00  0.0000000000000E+00 -0.2110690586114E+00
 0.2949459008293E+00 -0.3312452825173E+00  0.0000000000000E+00 -0.2264781887715E+00
 0.2855835580417E+00 -0.3217197239732E+00  0.0000000000000E+00 -0.2405353702742E+00
 0.2757779760442E+00 -0.3116793327509E+00  0.0000000000000E+00 -0.2528949650698E+00
 0.2656791108385E+00 -0.3012563986473E+00  0.0000000000000E+00 -0.2631484794807E+00
 0.2554920672537E+00 -0.2906350772547E+00  0.0000000000000E+00 -0.2708123586975E+00
 0.2454934644047E+00 -0.2800669757236E+00  0.0000000000000E+00 -0.2753106046325E+00
 0.2360537535064E+00 -0.2698924463553E+00  0.0000000000000E+00 -0.2759487740737E+00
 0.2276676733115E+00 -0.2605697600632E+00  0.0000000000000E+00 -0.2718732777271E+00
 0.2209954279190E+00 -0.2527149681193E+00  0.0000000000000E+00 -0.2620047814243E+00
 0.2169160388109E+00 -0.2471548940170E+00  0.0000000000000E+00 -0.2449230369097E+00
 0.2165765547871E+00 -0.2449854634725E+00  0.0000000000000E+00 -0.2186639680434E+00
 0.2214078232150E+00 -0.2475938684235E+00  0.0000000000000E+00 -0.1804513253988E+00
 0.3609262568640E+00 -0.3983466888679E+00  0.0000000000000E+00 -0.7452266667794E-01
 0.3580198506987E+00 -0.3955716118075E+00  0.0000000000000E+00 -0.9186838234171E-01
 0.3546374087383E+00 -0.3923408076299E+00  0.0000000000000E+00 -0.1094609540396E+00
 0.3507392679256E+00 -0.3886099495989E+00  0.0000000000000E+00 -0.1271001209924E+00
 0.3462884719330E+00 -0.3843376716040E+00  0.0000000000000E+00 -0.1446162103545E+00
 0.3412581296276E+00 -0.3794925034597E+00  0.0000000000000E+00 -0.1618459526254E+00
 0.3356346375446E+00 -0.3740557910710E+00  0.0000000000000E+00 -0.1786140291175E+00
 0.3294194003093E+00 -0.3680231920326E+00  0.0000000000000E+00 -0.1947191315542E+00
 0.3226304749748E+00 -0.3614061369067E+00  0.0000000000000E+00 -0.2099226685052E+00
 0.3153048818152E+00 -0.3542339738240E+00  0.0000000000000E+00 -0.2239383483592E+00
 0.3075019810210E+00 -0.3465571807172E+00  0.0000000000000E+00 -0.2364210472355E+00
 0.2993081637096E+00 -0.3384518881534E+00  0.0000000000000E+00 -0.2469533968704E+00
 0.2908430472955E+00 -0.3300259100814E+00  0.0000000000000E+00 -0.2550282970570E+00
 0.2822673239056E+00 -0.3214264609319E+00  0.0000000000000E+00 -0.2600249775372E+00
 0.2737922954976E+00 -0.3128496682836E+00  0.0000000000000E+00 -0.2611751704736E+00
 0.2656907393662E+00 -0.3045517111083E+00  0.0000000000000E+00 -0.2575142955569E+00
 0.2583077376531E+00 -0.2968605750215E+00  0.0000000000000E+00 -0.2478103558337E+00
 0.2520666055418E+00 -0.2901848231782E+00  0.0000000000000E+00 -0.2304628158249E+00
 0.2474626339486E+00 -0.2850105061132E+00  0.0000000000000E+00 -0.2033770762363E+00
 0.2450376817335E+00 -0.2818813207083E+00  0.0000000000000E+00 -0.1638257743202E+00
 0.3739533815945E+00 -0.4123109954798E+00  0.0000000000000E+00 -0.6236484231626E-01
 0.3724271193363E+00 -0.4110244373414E+00  0.0000000000000E+00 -0.7834298497436E-01
 0.3704829116302E+00 -0.4093547714835E+00  0.0000000000000E+00 -0.9459562988418E-01
 0.3680949355690E+00 -0.4072734268896E+00  0.0000000000000E+00 -0.1109447916963E+00
 0.3652336319173E+00 -0.4047484675012E+00  0.0000000000000E+00 -0.1272310712700E+00
 0.3618720244299E+00 -0.4017506616482E+00  0.0000000000000E+00 -0.1432966056360E+00
 0.3579888552090E+00 -0.3982564341117E+00  0.0000000000000E+00 -0.1589705000872E+00
 0.3535701511260E+00 -0.3942493038098E+00  0.0000000000000E+00 -0.1740565356868E+00
 0.3486101920713E+00 -0.3897207665606E+00  0.0000000000000E+00 -0.1883221893586E+00
 0.3431123970560E+00 -0.3846711325290E+00  0.0000000000000E+00 -0.2014878399236E+00
 0.3370903484408E+00 -0.3791105402100E+00  0.0000000000000E+00 -0.2132150279744E+00
 0.3305689684786E+00 -0.3730601740636E+00  0.0000000000000E+00 -0.2230926089796E+00
 0.3235856766866E+00 -0.3665535443826E+00  0.0000000000000E+00 -0.2306195126140E+00
 0.3161911221595E+00 -0.3596374804360E+00  0.0000000000000E+00 -0.2351825684079E+00
 0.3084487156626E+00 -0.3523721636921E+00  0.0000000000000E+00 -0.2360274981141E+00
 0.3004316038933E+00 -0.3448289937684E+00  0.0000000000000E+00 -0.2322208327496E+00
 0.2922147743476E+00 -0.3370842386099E+00  0.0000000000000E+00 -0.2226006912833E+00
 0.2838598213711E+00 -0.3292056385963E+00  0.0000000000000E+00 -0.2057165258411E+00
 0.2753910662789E+00 -0.3212307873725E+00  0.0000000000000E+00 -0.1797610331805E+00
 0.2667622491386E+00 -0.3131361009186E+00  0.0000000000000E+00 -0.1425060021129E+00
 0.3862612370466E+00 -0.4255041997812E+00  0.0000000000000E+00 -0.4901876532525E-01
 0.3860117923371E+00 -0.4255955478679E+00  0.0000000000000E+00 -0.6344978352984E-01
 0.3853913302132E+00 -0.4253636245589E+00  0.0000000000000E+00 -0.7812289451643E-01
 0.3843822671927E+00 -0.4247898828891E+00  0.0000000000000E+00 -0.9288077923185E-01
 0.3829589560342E+00 -0.4238482003503E+00  0.0000000000000E+00 -0.1075758158714E+00
 0.3810926118017E+00 -0.4225096668067E+00  0.0000000000000E+00 -0.1220577243009E+00
 0.3787538104621E+00 -0.4207449900153E+00  0.0000000000000E+00 -0.1361622550161E+00
 0.3759135050058E+00 -0.4185254614091E+00  0.0000000000000E+00 -0.1497009754978E+00
 0.3725431698452E+00 -0.4158230917028E+00  0.0000000000000E+00 -0.1624516738349E+00
 0.3686143917261E+00 -0.4126102369189E+00  0.0000000000000E+00 -0.1741487381181E+00
 0.3640979956490E+00 -0.4088588114501E+00  0.0000000000000E+00 -0.1844728555220E+00
 0.3589626004855E+00 -0.4045389995630E+00  0.0000000000000E+00 -0.1930394093190E+00
 0.3531723035053E+00 -0.3996171936571E+00  0.0000000000000E+00 -0.1993850082413E+00
 0.3466829551893E+00 -0.3940526673649E+00  0.0000000000000E+00 -0.2029516828230E+00
 0.3394361728373E+00 -0.3877921975325E+00  0.0000000000000E+00 -0.2030684959171E+00
 0.3313498244180E+00 -0.3807614605223E+00  0.0000000000000E+00 -0.1989307534322E+00
 0.3223033891244E+00 -0.3728516207978E+00  0.0000000000000E+00 -0.1895777556724E+00
 0.3121163324492E+00 -0.3638994357670E+00  0.0000000000000E+00 -0.1738701499424E+00
 0.3005191933127E+00 -0.3536597003209E+00  0.0000000000000E+00 -0.1504649463191E+00
 0.2871222917179E+00 -0.3417741158438E+00  0.0000000000000E+00 -0.1177875368708E+00
 0.3977772916613E+00 -0.4378479038164E+00  0.0000000000000E+00 -0.3460509187198E-01
 0.3986802788625E+00 -0.4391843539379E+00  0.0000000000000E+00 -0.4733671057982E-01
 0.3992462869003E+00 -0.4402428243201E+00  0.0000000000000E+00 -0.6023234338033E-01
 0.3994615894215E+00 -0.4410101770915E+00  0.0000000000000E+00 -0.7315337726769E-01
 0.3993011695959E+00 -0.4414625871008E+00  0.0000000000000E+00 -0.8596521389123E-01
 0.3987324083877E+00 -0.4415691556680E+00  0.0000000000000E+00 -0.9852807057397E-01
 0.3977168283776E+00 -0.4412936199116E+00  0.0000000000000E+00 -0.1106884002163E+00
 0.3962104685920E+00 -0.4405947294204E+00  0.0000000000000E+00 -0.1222709556463E+00
 0.3941632764312E+00 -0.4394256774293E+00  0.0000000000000E+00 -0.1330712536469E+00
 0.3915177155945E+00 -0.4377327894193E+00  0.0000000000000E+00 -0.1428481277509E+00
 0.3882066270901E+00 -0.4354535130354E+00  0.0000000000000E+00 -0.1513160990516E+00
 0.3841502401105E+00 -0.4325136170369E+00  0.0000000000000E+00 -0.1581374020028E+00
 0.3792520981755E+00 -0.4288233804008E+00  0.0000000000000E+00 -0.1629136833170E+00
 0.3733935326371E+00 -0.4242724235135E+00  0.0000000000000E+00 -0.1651776816147E+00
 0.3664261739331E+00 -0.4187226962350E+00  0.0000000000000E+00 -0.1643856494807E+00
 0.3581618628252E+00 -0.4119989993869E+00  0.0000000000000E+00 -0.1599119526181E+00
 0.3483591266069E+00 -0.4038762755453E+00  0.0000000000000E+00 -0.1510480480020E+00
 0.3367051025151E+00 -0.3940625680460E+00  0.0000000000000E+00 -0.1370086552162E+00
 0.3227893156969E+00 -0.3821752912414E+00  0.0000000000000E+00 -0.1169470361001E+00
 0.3060683875826E+00 -0.3677067076105E+00  0.0000000000000E+00 -0.8995975053462E-01
 0.4084386704383E+00 -0.4492739309806E+00  0.0000000000000E+00 -0.1925809168460E-01
 0.4103528240304E+00 -0.4517048025845E+00  0.0000000000000E+00 -0.3016583033316E-01
 0.4119495903996E+00 -0.4538868370605E+00  0.0000000000000E+00 -0.4112578103223E-01
 0.4132158572151E+00 -0.4558087781703E+00  0.0000000000000E+00 -0.5201684781982E-01
 0.4141245541227E+00 -0.4574461111854E+00  0.0000000000000E+00 -0.6271894169256E-01
 0.4146374751014E+00 -0.4587638472005E+00  0.0000000000000E+00 -0.7310611804409E-01
 0.4147064195084E+00 -0.4597176606230E+00  0.0000000000000E+00 -0.8304040575290E-01
 0.4142730525306E+00 -0.4602537768833E+00  0.0000000000000E+00 -0.9236623269933E-01
 0.4132677714117E+00 -0.4603078986065E+00  0.0000000000000E+00 -0.1009053001288E+00
 0.4116077370416E+00 -0.4598033303647E+00  0.0000000000000E+00 -0.1084517979259E+00
 0.4091941236323E+00 -0.4586483567888E+00  0.0000000000000E+00 -0.1147679352487E+00
 0.4059085613671E+00 -0.4567328508671E+00  0.0000000000000E+00 -0.1195798947448E+00
 0.4016086978709E+00 -0.4539240384599E+00  0.0000000000000E+00 -0.1225745163138E+00
 0.3961227891255E+00 -0.4500613254708E+00  0.0000000000000E+00 -0.1233973009568E+00
 0.3892432632807E+00 -0.4449501166271E+00  0.0000000000000E+00 -0.1216527275998E+00
 0.3807192821941E+00 -0.4383546315872E+00  0.0000000000000E+00 -0.1169084222560E+00
 0.3702484600512E+00 -0.4299898325807E+00  0.0000000000000E+00 -0.1087055461302E+00
 0.3574677551843E+00 -0.4195125933703E+00  0.0000000000000E+00 -0.9657919658862E-01
 0.3419434269100E+00 -0.4065117409494E+00  0.0000000000000E+00 -0.8009688352372E-01
 0.3231431054527E+00 -0.3904888669980E+00  0.0000000000000E+00 -0.5893457165183E-01
 0.4181921476516E+00 -0.4597243912774E+00  0.0000000000000E+00 -0.3122335044973E-02
 0.4209630102600E+00 -0.4630849783144E+00  0.0000000000000E+00 -0.1210948629183E-01
 0.4234204927418E+00 -0.4662085523377E+00  0.0000000000000E+00 -0.2101307063247E-01
 0.4255497530674E+00 -0.4690830717972E+00  0.0000000000000E+00 -0.2972961863982E-01
 0.4273196309109E+00 -0.4716809540703E+00  0.0000000000000E+00 -0.3815550657864E-01
 0.4286850847016E+00 -0.4739614897293E+00  0.0000000000000E+00 -0.4618212845147E-01
 0.4295880085322E+00 -0.4758716583576E+00  0.0000000000000E+00 -0.5369201584902E-01
 0.4299568210460E+00 -0.4773457504500E+00  0.0000000000000E+00 -0.6055563205407E-01
 0.4297051113609E+00 -0.4783040723006E+00  0.0000000000000E+00 -0.6662875323396E-01
 0.4287295137103E+00 -0.4786509033599E+00  0.0000000000000E+00 -0.7175043360063E-01
 0.4269069135952E+00 -0.4782718056791E+00  0.0000000000000E+00 -0.7574163935468E-01
 0.4240910557647E+00 -0.4770303505100E+00  0.0000000000000E+00 -0.7840474042255E-01
 0.4201086329183E+00 -0.4747643308415E+00  0.0000000000000E+00 -0.7952417466390E-01
 0.4147549933693E+00 -0.4712815791644E+00  0.0000000000000E+00 -0.7886874767834E-01
 0.4077897315378E+00 -0.4663556223442E+00  0.0000000000000E+00 -0.7619619965196E-01
 0.3989326481420E+00 -0.4597216027805E+00  0.0000000000000E+00 -0.7126087747566E-01
 0.3878609297067E+00 -0.4510732269382E+00  0.0000000000000E+00 -0.6382565131981E-01
 0.3742091922432E+00 -0.4400621201101E+00  0.0000000000000E+00 -0.5368012709997E-01
 0.3575754407102E+00 -0.4263023583908E+00  0.0000000000000E+00 -0.4066923545198E-01
 0.3375483207571E+00 -0.4093895235459E+00  0.0000000000000E+00 -0.2476236396967E-01
 0.4269936730732E+00 -0.4691512829358E+00  0.0000000000000E+00  0.1365042328237E-01
 0.4304566847533E+00 -0.4732661602959E+00  0.0000000000000E+00  0.6653859731226E-02
 0.4335942482319E+00 -0.4771380110181E+00  0.0000000000000E+00 -0.1075753751261E-03
 0.4363879057540E+00 -0.4807517692919E+00  0.0000000000000E+00 -0.6549547979614E-02
 0.4388008788452E+00 -0.4840749173945E+00  0.0000000000000E+00 -0.1258725949927E-01
 0.4407805538178E+00 -0.4870598954684E+00  0.0000000000000E+00 -0.1813288240905E-01
 0.4422592512354E+00 -0.4896448671697E+00  0.0000000000000E+00 -0.2309392248554E-01
 0.4431538268025E+00 -0.4917533433729E+00  0.0000000000000E+00 -0.2737231768472E-01
 0.4433644120661E+00 -0.4932929672209E+00  0.0000000000000E+00 -0.3086422858976E-01
 0.4427725053888E+00 -0.4941536645090E+00  0.0000000000000E+00 -0.3346055644969E-01
 0.4412385684299E+00 -0.4942053088766E+00  0.0000000000000E+00 -0.3504828697095E-01
 0.4385992684443E+00 -0.4932950338035E+00  0.0000000000000E+00 -0.3551280350630E-01
 0.4346645297047E+00 -0.4912443418386E+00  0.0000000000000E+00 -0.3474133397356E-01
 0.4292146229870E+00 -0.4878462198464E+00  0.0000000000000E+00 -0.3262767309299E-01
 0.4219976408175E+00 -0.4828625760029E+00  0.0000000000000E+00 -0.2907822641312E-01
 0.4127278995972E+00 -0.4760224889232E+00  0.0000000000000E+00 -0.2401920005309E-01
 0.4010861443991E+00 -0.4670220496728E+00  0.0000000000000E+00 -0.1740432917606E-01
 0.3867231044202E+00 -0.4555271459434E+00  0.0000000000000E+00 -0.9221383837882E-02
 0.3692697433821E+00 -0.4411819303357E+00  0.0000000000000E+00  0.5065173832017E-03
 0.3483672285208E+00 -0.4236319266944E+00  0.0000000000000E+00  0.1175582356392E-01
 0.4348074422622E+00 -0.4775155966303E+00  0.0000000000000E+00  0.3090594127907E-01
 0.4387906595024E+00 -0.4822015383584E+00  0.0000000000000E+00  0.2594617266346E-01
 0.4424204459181E+00 -0.4866206049088E+00  0.0000000000000E+00  0.2138085607839E-01
 0.4456728966420E+00 -0.4907526395481E+00  0.0000000000000E+00  0.1727297481412E-01
 0.4485044921189E+00 -0.4945587196481E+00  0.0000000000000E+00  0.1368577626110E-01
 0.4508547283738E+00 -0.4979837298363E+00  0.0000000000000E+00  0.1068299090688E-01
 0.4526471144930E+00 -0.5009573371046E+00  0.0000000000000E+00  0.8328292004298E-02
 0.4537890482575E+00 -0.5033938721136E+00  0.0000000000000E+00  0.6684031260884E-02
 0.4541709250455E+00 -0.5051914592226E+00  0.0000000000000E+00  0.5809283042502E-02
 0.4536647311232E+00 -0.5062306403955E+00  0.0000000000000E+00  0.5757165853968E-02
 0.4521223167959E+00 -0.5063726821173E+00  0.0000000000000E+00  0.6571377343663E-02
 0.4493735191488E+00 -0.5054577279016E+00  0.0000000000000E+00  0.8281885500859E-02
 0.4452243024484E+00 -0.5033029555060E+00  0.0000000000000E+00  0.1089977834535E-01
 0.4394551005589E+00 -0.4997009119780E+00  0.0000000000000E+00  0.1441141095812E-01
 0.4318195737522E+00 -0.4944182251726E+00  0.0000000000000E+00  0.1877224311893E-01
 0.4220440197474E+00 -0.4871949174488E+00  0.0000000000000E+00  0.2390120080155E-01
 0.4098276822626E+00 -0.4777445520627E+00  0.0000000000000E+00  0.2967720604057E-01
 0.3948439688034E+00 -0.4657553040772E+00  0.0000000000000E+00  0.3594105567538E-01
 0.3767419860780E+00 -0.4508913946393E+00  0.0000000000000E+00  0.4251061845034E-01
 0.3551328420844E+00 -0.4327867151886E+00  0.0000000000000E+00  0.4922713136018E-01
 0.4416067013118E+00 -0.4847880868659E+00  0.0000000000000E+00  0.4848857524503E-01
 0.4459341450554E+00 -0.4898572486085E+00  0.0000000000000E+00  0.4559028591339E-01
 0.4498644023075E+00 -0.4946180074503E+00  0.0000000000000E+00  0.4324629097692E-01
 0.4533666427743E+00 -0.4990433280822E+00  0.0000000000000E+00  0.4149561828323E-01
 0.4563897124090E+00 -0.5030866601952E+00  0.0000000000000E+00  0.4037703285677E-01
 0.4588651786493E+00 -0.5066849173498E+00  0.0000000000000E+00  0.3992715737289E-01
 0.4607087884236E+00 -0.5097598966479E+00  0.0000000000000E+00  0.4017781477032E-01
 0.4618208338858E+00 -0.5122186249959E+00  0.0000000000000E+00  0.4115276154216E-01
 0.4620858222349E+00 -0.5139530220938E+00  0.0000000000000E+00  0.4286387395554E-01
 0.4613717481685E+00 -0.5148391724690E+00  0.0000000000000E+00  0.4530677965841E-01
 0.4595291927710E+00 -0.5147364255646E+00  0.0000000000000E+00  0.4845590212510E-01
 0.4563904186059E+00 -0.5134864897221E+00  0.0000000000000E+00  0.5225891214188E-01
 0.4517685849863E+00 -0.5109126420254E+00  0.0000000000000E+00  0.5663066090718E-01
 0.4454571541930E+00 -0.5068191265835E+00  0.0000000000000E+00  0.6144681391301E-01
 0.4372294760692E+00 -0.5009907386020E+00  0.0000000000000E+00  0.6653763222643E-01
 0.4268383920328E+00 -0.4931924593712E+00  0.0000000000000E+00  0.7168268496655E-01
 0.4140153888783E+00 -0.4831687492703E+00  0.0000000000000E+00  0.7660771169298E-01
 0.3984682406160E+00 -0.4706415586584E+00  0.0000000000000E+00  0.8098526430040E-01
 0.3798734698190E+00 -0.4553044805152E+00  0.0000000000000E+00  0.8443972967112E-01
 0.3578615392331E+00 -0.4368085275141E+00  0.0000000000000E+00  0.8653862433033E-01
 0.4473730170388E+00 -0.4909486387521E+00  0.0000000000000E+00  0.6624238053077E-01
 0.4518675657894E+00 -0.4962116358933E+00  0.0000000000000E+00  0.6540912896391E-01
 0.4559057475309E+00 -0.5011073656506E+00  0.0000000000000E+00  0.6528422997595E-01
 0.4594485036513E+00 -0.5056002943036E+00  0.0000000000000E+00  0.6587941491788E-01
 0.4624362221029E+00 -0.5096350919428E+00  0.0000000000000E+00  0.6720605173691E-01
 0.4647926118822E+00 -0.5131404164231E+00  0.0000000000000E+00  0.6927115438248E-01
 0.4664268467856E+00 -0.5160309898020E+00  0.0000000000000E+00  0.7207258620430E-01
 0.4672345553096E+00 -0.5182085379199E+00  0.0000000000000E+00  0.7559390835955E-01
 0.4670981421348E+00 -0.5195620728452E+00  0.0000000000000E+00  0.7979901511477E-01
 0.4658868029956E+00 -0.5199678750717E+00  0.0000000000000E+00  0.8462655455808E-01
 0.4634564867766E+00 -0.5192894254374E+00  0.0000000000000E+00  0.8998409117137E-01
 0.4596499694376E+00 -0.5173774501145E+00  0.0000000000000E+00  0.9574198184156E-01
 0.4542971201114E+00 -0.5140701623154E+00  0.0000000000000E+00  0.1017269826352E+00
 0.4472153388471E+00 -0.5091936915836E+00  0.0000000000000E+00  0.1077156612041E+00
 0.4382100022811E+00 -0.5025625609806E+00  0.0000000000000E+00  0.1134277405619E+00
 0.4270745326331E+00 -0.4939798748022E+00  0.0000000000000E+00  0.1185195064246E+00
 0.4135894117040E+00 -0.4832365955803E+00  0.0000000000000E+00  0.1225772502406E+00
 0.3975190195865E+00 -0.4701089450691E+00  0.0000000000000E+00  0.1251099385568E+00
 0.3786061028070E+00 -0.4543531626107E+00  0.0000000000000E+00  0.1255366325784E+00
 0.3565677332222E+00 -0.4357007343202E+00  0.0000000000000E+00  0.1231642183609E+00
 0.4520958104416E+00 -0.4959858130183E+00  0.0000000000000E+00  0.8401343631244E-01
 0.4565816795050E+00 -0.5012544292088E+00  0.0000000000000E+00  0.8522824090096E-01
 0.4605372558764E+00 -0.5060802515226E+00  0.0000000000000E+00  0.8729371062980E-01
 0.4639137261124E+00 -0.5104174135854E+00  0.0000000000000E+00  0.9019016782090E-01
 0.4666420575858E+00 -0.5142005375726E+00  0.0000000000000E+00  0.9389888622126E-01
 0.4686381705469E+00 -0.5173497710051E+00  0.0000000000000E+00  0.9839547503215E-01
 0.4698059292932E+00 -0.5197736672574E+00  0.0000000000000E+00  0.1036426551751E+00
 0.4700387783501E+00 -0.5213707322731E+00  0.0000000000000E+00  0.1095832392754E+00
 0.4692206852377E+00 -0.5220302929847E+00  0.0000000000000E+00  0.1161334936851E+00
 0.4672268489483E+00 -0.5216331400668E+00  0.0000000000000E+00  0.1231768202354E+00
 0.4639244698021E+00 -0.5200522358501E+00  0.0000000000000E+00  0.1305576343545E+00
 0.4591737542628E+00 -0.5171536591997E+00  0.0000000000000E+00  0.1380753180215E+00
 0.4528292294843E+00 -0.5127978654300E+00  0.0000000000000E+00  0.1454781234291E+00
 0.4447413455665E+00 -0.5068412502056E+00  0.0000000000000E+00  0.1524568468084E+00
 0.4347582272303E+00 -0.4991379025058E+00  0.0000000000000E+00  0.1586379307536E+00
 0.4227272928563E+00 -0.4895412994162E+00  0.0000000000000E+00  0.1635753266677E+00
 0.4084962893590E+00 -0.4779055466219E+00  0.0000000000000E+00  0.1667399188462E+00
 0.3919134425826E+00 -0.4640857638285E+00  0.0000000000000E+00  0.1675046039925E+00
 0.3728271978711E+00 -0.4479379561868E+00  0.0000000000000E+00  0.1651240881680E+00
 0.3510861488051E+00 -0.4293190333363E+00  0.0000000000000E+00  0.1587140308112E+00
 0.4557719642650E+00 -0.4998964193594E+00  0.0000000000000E+00  0.1016518916713E+00
 0.4600770152249E+00 -0.5049861296195E+00  0.0000000000000E+00  0.1048784962913E+00
 0.4637640490657E+00 -0.5095418057331E+00  0.0000000000000E+00  0.1090800576008E+00
 0.4667723126791E+00 -0.5135047789753E+00  0.0000000000000E+00  0.1142009225578E+00
 0.4690220741652E+00 -0.5167980798544E+00  0.0000000000000E+00  0.1201902187916E+00
 0.4704215292377E+00 -0.5193331291837E+00  0.0000000000000E+00  0.1269912953839E+00
 0.4708706392723E+00 -0.5210134031614E+00  0.0000000000000E+00  0.1345314219144E+00
 0.4702632694296E+00 -0.5217364359182E+00  0.0000000000000E+00  0.1427128043695E+00
 0.4684885833190E+00 -0.5213951035342E+00  0.0000000000000E+00  0.1514049421370E+00
 0.4654322853083E+00 -0.5198787690626E+00  0.0000000000000E+00  0.1604380590882E+00
 0.4609780543860E+00 -0.5170746232121E+00  0.0000000000000E+00  0.1695973191505E+00
 0.4550093628616E+00 -0.5128694076437E+00  0.0000000000000E+00  0.1786175747805E+00
 0.4474117884664E+00 -0.5071516258629E+00  0.0000000000000E+00  0.1871783955792E+00
 0.4380758885456E+00 -0.4998143098082E+00  0.0000000000000E+00  0.1948990212235E+00
 0.4269007029500E+00 -0.4907584104265E+00  0.0000000000000E+00  0.2013326177487E+00
 0.4137979816534E+00 -0.4798969182230E+00  0.0000000000000E+00  0.2059587274459E+00
 0.3986972971864E+00 -0.4671598824390E+00  0.0000000000000E+00  0.2081720835930E+00
 0.3815520803634E+00 -0.4525004766010E+00  0.0000000000000E+00  0.2072655712421E+00
 0.3623458386092E+00 -0.4359015167844E+00  0.0000000000000E+00  0.2024066388594E+00
 0.3410959608104E+00 -0.4173802565836E+00  0.0000000000000E+00  0.1926091712148E+00
 0.4584053820347E+00 -0.5026850394693E+00  0.0000000000000E+00  0.1190139929821E+00
 0.4623634556564E+00 -0.5074175469490E+00  0.0000000000000E+00  0.1241988102475E+00
 0.4656030422136E+00 -0.5115101211530E+00  0.0000000000000E+00  0.1304575495969E+00
 0.4680481385263E+00 -0.5148877451994E+00  0.0000000000000E+00  0.1376943763188E+00
 0.4696066660950E+00 -0.5174600077923E+00  0.0000000000000E+00  0.1458255862003E+00
 0.4701793085622E+00 -0.5191295873558E+00  0.0000000000000E+00  0.1547626355695E+00
 0.4696638915331E+00 -0.5197963778044E+00  0.0000000000000E+00  0.1643977623853E+00
 0.4679576498942E+00 -0.5193595714291E+00  0.0000000000000E+00  0.1745929177649E+00
 0.4649587545060E+00 -0.5177190432314E+00  0.0000000000000E+00  0.1851714516953E+00
 0.4605678266280E+00 -0.5147767428196E+00  0.0000000000000E+00  0.1959118413965E+00
 0.4546898064603E+00 -0.5104384439810E+00  0.0000000000000E+00  0.2065429058980E+00
 0.4472363661878E+00 -0.5046160287438E+00  0.0000000000000E+00  0.2167401270297E+00
 0.4381290030040E+00 -0.4972304266172E+00  0.0000000000000E+00  0.2261228021849E+00
 0.4273029897651E+00 -0.4882153654252E+00  0.0000000000000E+00  0.2342517528743E+00
 0.4147125050150E+00 -0.4775222233010E+00  0.0000000000000E+00  0.2406271723952E+00
 0.4003375380599E+00 -0.4651265246881E+00  0.0000000000000E+00  0.2446858599460E+00
 0.3841935371828E+00 -0.4510370081668E+00  0.0000000000000E+00  0.2457964269177E+00
 0.3663449739287E+00 -0.4353084991107E+00  0.0000000000000E+00  0.2432496098261E+00
 0.3469226474618E+00 -0.4180591612259E+00  0.0000000000000E+00  0.2362375539758E+00
 0.3261412684731E+00 -0.3994890858355E+00  0.0000000000000E+00  0.2238145701668E+00
 0.4600065221569E+00 -0.5043635118620E+00  0.0000000000000E+00  0.1359642909351E+00
 0.4634599749854E+00 -0.5085694635385E+00  0.0000000000000E+00  0.1430388331621E+00
 0.4660825936196E+00 -0.5120157813063E+00  0.0000000000000E+00  0.1512517449748E+00
 0.4677782450696E+00 -0.5146060844663E+00  0.0000000000000E+00  0.1604647991563E+00
 0.4684406539995E+00 -0.5162345462108E+00  0.0000000000000E+00  0.1705631590362E+00
 0.4679637167141E+00 -0.5167956530363E+00  0.0000000000000E+00  0.1814282310553E+00
 0.4662456246998E+00 -0.5161879797545E+00  0.0000000000000E+00  0.1929180657859E+00
 0.4631906081332E+00 -0.5143157086336E+00  0.0000000000000E+00  0.2048542769994E+00
 0.4587101370002E+00 -0.5110896690687E+00  0.0000000000000E+00  0.2170135879301E+00
 0.4527243759643E+00 -0.5064286576805E+00  0.0000000000000E+00  0.2291225190664E+00
 0.4451641987599E+00 -0.5002613216859E+00  0.0000000000000E+00  0.2408542829831E+00
 0.4359738690041E+00 -0.4925286927729E+00  0.0000000000000E+00  0.2518273970935E+00
 0.4251144618932E+00 -0.4831874214994E+00  0.0000000000000E+00  0.2616058553742E+00
 0.4125681928185E+00 -0.4722138392292E+00  0.0000000000000E+00  0.2697009650465E+00
 0.3983440525218E+00 -0.4596091762381E+00  0.0000000000000E+00  0.2755752139557E+00
 0.3824855816150E+00 -0.4454066513963E+00  0.0000000000000E+00  0.2786488068451E+00
 0.3650824150522E+00 -0.4296818374110E+00  0.0000000000000E+00  0.2783096724935E+00
 0.3462887487764E+00 -0.4125691060734E+00  0.0000000000000E+00  0.2739267567500E+00
 0.3263549370641E+00 -0.3942898617653E+00  0.0000000000000E+00  0.2648600266576E+00
 0.3056767228015E+00 -0.3752005973510E+00  0.0000000000000E+00  0.2504392394033E+00
 0.4605920168722E+00 -0.5049504594639E+00  0.0000000000000E+00  0.1523784314435E+00
 0.4633946662578E+00 -0.5084724679099E+00  0.0000000000000E+00  0.1612616962605E+00
 0.4652423828148E+00 -0.5111014329399E+00  0.0000000000000E+00  0.1713011253984E+00
 0.4660122137389E+00 -0.5127129272939E+00  0.0000000000000E+00  0.1823187525985E+00
 0.4655821591891E+00 -0.5131841515025E+00  0.0000000000000E+00  0.1941739743324E+00
 0.4638411939720E+00 -0.5124031300942E+00  0.0000000000000E+00  0.2067215533201E+00
 0.4606916359925E+00 -0.5102706558602E+00  0.0000000000000E+00  0.2197860875587E+00
 0.4560494232530E+00 -0.5067003267889E+00  0.0000000000000E+00  0.2331475432594E+00
 0.4498444471375E+00 -0.5016187192766E+00  0.0000000000000E+00  0.2465335898307E+00
 0.4420216193948E+00 -0.4949663279055E+00  0.0000000000000E+00  0.2596161011558E+00
 0.4325427595650E+00 -0.4866993325808E+00  0.0000000000000E+00  0.2720104022316E+00
 0.4213891833882E+00 -0.4767920551560E+00  0.0000000000000E+00  0.2832766657094E+00
 0.4085648351570E+00 -0.4652399250964E+00  0.0000000000000E+00  0.2929234783444E+00
 0.3940998595327E+00 -0.4520628096063E+00  0.0000000000000E+00  0.3004142004913E+00
 0.3780546371945E+00 -0.4373086601858E+00  0.0000000000000E+00  0.3051775362424E+00
 0.3605245931761E+00 -0.4210576221632E+00  0.0000000000000E+00  0.3066249928839E+00
 0.3416467094086E+00 -0.4034272398943E+00  0.0000000000000E+00  0.3041799172832E+00
 0.3216105918847E+00 -0.3845806718139E+00  0.0000000000000E+00  0.2973265315205E+00
 0.3006838062551E+00 -0.3647449913011E+00  0.0000000000000E+00  0.2856931866780E+00
 0.2792867934940E+00 -0.3442671463846E+00  0.0000000000000E+00  0.2691728780007E+00
 0.4601846568725E+00 -0.5044710290528E+00  0.0000000000000E+00  0.1681470631343E+00
 0.4622052631104E+00 -0.5071669136791E+00  0.0000000000000E+00  0.1787459211598E+00
 0.4631332255435E+00 -0.5088205767682E+00  0.0000000000000E+00  0.1904558832701E+00
 0.4628108286290E+00 -0.5092718535531E+00  0.0000000000000E+00  0.2030712424140E+00
 0.4611002899786E+00 -0.5083809506465E+00  0.0000000000000E+00  0.2164359348024E+00
 0.4578896258078E+00 -0.5060332687521E+00  0.0000000000000E+00  0.2303828223585E+00
 0.4530909585480E+00 -0.5021372680286E+00  0.0000000000000E+00  0.2447029071357E+00
 0.4466381564173E+00 -0.4966218880946E+00  0.0000000000000E+00  0.2591312112923E+00
 0.4384857970357E+00 -0.4894353813876E+00  0.0000000000000E+00  0.2733415159709E+00
 0.4286096572400E+00 -0.4805457068353E+00  0.0000000000000E+00  0.2869458558309E+00
 0.4170083605840E+00 -0.4699421000625E+00  0.0000000000000E+00  0.2994968112757E+00
 0.4037056565003E+00 -0.4576372858489E+00  0.0000000000000E+00  0.3104918721105E+00
 0.3887527474510E+00 -0.4436697460841E+00  0.0000000000000E+00  0.3193799777670E+00
 0.3722299848266E+00 -0.4281053611258E+00  0.0000000000000E+00  0.3255711222775E+00
 0.3542470391673E+00 -0.4110375154724E+00  0.0000000000000E+00  0.3284509920476E+00
 0.3349401829699E+00 -0.3925842907574E+00  0.0000000000000E+00  0.3274044469579E+00
 0.3144646219754E+00 -0.3728804795558E+00  0.0000000000000E+00  0.3218554230222E+00
 0.2929782040846E+00 -0.3520606672648E+00  0.0000000000000E+00  0.3113385515088E+00
 0.2706100598292E+00 -0.3302250378876E+00  0.0000000000000E+00  0.2956426367406E+00
 0.2474205360334E+00 -0.3073796850436E+00  0.0000000000000E+00  0.2751529152805E+00
 0.4588141520754E+00 -0.5029572770045E+00  0.0000000000000E+00  0.1831800339187E+00
 0.4599395983848E+00 -0.5047018010668E+00  0.0000000000000E+00  0.1953814409460E+00
 0.4598147741081E+00 -0.5052323254340E+00  0.0000000000000E+00  0.2085664220380E+00
 0.4582408290062E+00 -0.5043469885141E+00  0.0000000000000E+00  0.2225275539316E+00
 0.4550676782707E+00 -0.5018925468966E+00  0.0000000000000E+00  0.2371093744578E+00
 0.4501897820412E+00 -0.4977590577637E+00  0.0000000000000E+00  0.2521282515247E+00
 0.4435373463210E+00 -0.4918706937099E+00  0.0000000000000E+00  0.2673398785744E+00
 0.4350701752435E+00 -0.4841794579300E+00  0.0000000000000E+00  0.2824291319157E+00
 0.4247750560362E+00 -0.4746624962010E+00  0.0000000000000E+00  0.2970098942290E+00
 0.4126658371474E+00 -0.4633221454872E+00  0.0000000000000E+00  0.3106292756088E+00
 0.3987850851976E+00 -0.4501875988030E+00  0.0000000000000E+00  0.3227738642072E+00
 0.3832062349360E+00 -0.4353171200684E+00  0.0000000000000E+00  0.3328771784232E+00
 0.3660351211684E+00 -0.4187997307448E+00  0.0000000000000E+00  0.3403282994329E+00
 0.3474095329971E+00 -0.4007550823396E+00  0.0000000000000E+00  0.3444821932319E+00
 0.3274947336742E+00 -0.3813296102357E+00  0.0000000000000E+00  0.3446727672602E+00
 0.3064714477456E+00 -0.3606857103461E+00  0.0000000000000E+00  0.3402306583671E+00
 0.2845095308146E+00 -0.3389778783293E+00  0.0000000000000E+00  0.3305095954850E+00
 0.2617144496230E+00 -0.3163035545807E+00  0.0000000000000E+00  0.3149305892458E+00
 0.2380130223414E+00 -0.2926021830220E+00  0.0000000000000E+00  0.2930573494886E+00
 0.2128544818079E+00 -0.2673996041075E+00  0.0000000000000E+00  0.2647843771931E+00
 0.4565158323925E+00 -0.5004466127376E+00  0.0000000000000E+00  0.1973970779341E+00
 0.4566497384939E+00 -0.5011283076709E+00  0.0000000000000E+00  0.2110464938064E+00
 0.4553453545308E+00 -0.5003903272110E+00  0.0000000000000E+00  0.2254527358135E+00
 0.4523617801890E+00 -0.4979886816755E+00  0.0000000000000E+00  0.2404495655316E+00
 0.4475464236393E+00 -0.4937666578509E+00  0.0000000000000E+00  0.2559033001792E+00
 0.4408123000812E+00 -0.4876310050725E+00  0.0000000000000E+00  0.2716184207642E+00
 0.4321187641875E+00 -0.4795325312215E+00  0.0000000000000E+00  0.2873117226549E+00
 0.4214609556551E+00 -0.4694555262190E+00  0.0000000000000E+00  0.3026123064359E+00
 0.4088660252565E+00 -0.4574140225847E+00  0.0000000000000E+00  0.3170703554440E+00
 0.3943934907677E+00 -0.4434522187720E+00  0.0000000000000E+00  0.3301682892988E+00
 0.3781375598620E+00 -0.4276469454124E+00  0.0000000000000E+00  0.3413319958732E+00
 0.3602297175894E+00 -0.4101104844234E+00  0.0000000000000E+00  0.3499414260462E+00
 0.3408400793784E+00 -0.3909923279723E+00  0.0000000000000E+00  0.3553402242656E+00
 0.3201757816895E+00 -0.3704783074922E+00  0.0000000000000E+00  0.3568436636706E+00
 0.2984738366562E+00 -0.3487848219725E+00  0.0000000000000E+00  0.3537430321328E+00
 0.2759838309389E+00 -0.3261442400023E+00  0.0000000000000E+00  0.3453023173614E+00
 0.2529321543419E+00 -0.3027741855012E+00  0.0000000000000E+00  0.3307386582417E+00
 0.2294493889741E+00 -0.2788165239077E+00  0.0000000000000E+00  0.3091665612769E+00
 0.2054348650250E+00 -0.2542198659724E+00  0.0000000000000E+00  0.2794615860198E+00
 0.1802779902020E+00 -0.2285398161959E+00  0.0000000000000E+00  0.2397443429688E+00
 0.4533307134536E+00 -0.4969822281853E+00  0.0000000000000E+00  0.2107108866527E+00
 0.4523879969981E+00 -0.4964984911646E+00  0.0000000000000E+00  0.2255855650375E+00
 0.4497770252383E+00 -0.4943430228990E+00  0.0000000000000E+00  0.2408846107890E+00
 0.4452224088451E+00 -0.4902385217636E+00  0.0000000000000E+00  0.2565455878360E+00
 0.4385875682340E+00 -0.4840436397875E+00  0.0000000000000E+00  0.2724791082316E+00
 0.4298210157744E+00 -0.4756989161711E+00  0.0000000000000E+00  0.2884784162685E+00
 0.4189239230834E+00 -0.4651944994549E+00  0.0000000000000E+00  0.3042149971076E+00
 0.4059357639673E+00 -0.4525559867758E+00  0.0000000000000E+00  0.3192573227638E+00
 0.3909307625073E+00 -0.4378409976758E+00  0.0000000000000E+00  0.3330929085301E+00
 0.3740197374101E+00 -0.4211412591399E+00  0.0000000000000E+00  0.3451480120784E+00
 0.3553538476330E+00 -0.4025865967902E+00  0.0000000000000E+00  0.3548038418496E+00
 0.3351281010284E+00 -0.3823487725684E+00  0.0000000000000E+00  0.3614092587431E+00
 0.3135831987601E+00 -0.3606437910714E+00  0.0000000000000E+00  0.3642892383618E+00
 0.2910044672674E+00 -0.3377316124208E+00  0.0000000000000E+00  0.3627463782493E+00
 0.2677162447447E+00 -0.3139119871605E+00  0.0000000000000E+00  0.3560490192108E+00
 0.2440693614392E+00 -0.2895145810876E+00  0.0000000000000E+00  0.3433928232311E+00
 0.2204173539581E+00 -0.2648807038224E+00  0.0000000000000E+00  0.3238091564609E+00
 0.1970789738693E+00 -0.2403342988080E+00  0.0000000000000E+00  0.2959662877458E+00
 0.1742746058525E+00 -0.2161429467673E+00  0.0000000000000E+00  0.2577473265645E+00
 0.1522538241660E+00 -0.1925761390738E+00  0.0000000000000E+00  0.2054452697723E+00
 0.4493138900712E+00 -0.4926221813618E+00  0.0000000000000E+00  0.2230247168303E+00
 0.4472177783125E+00 -0.4908759647242E+00  0.0000000000000E+00  0.2388059322828E+00
 0.4431663513505E+00 -0.4871441091595E+00  0.0000000000000E+00  0.2545816448185E+00
 0.4368727246370E+00 -0.4811407370536E+00  0.0000000000000E+00  0.2704762340390E+00
 0.4282453643600E+00 -0.4727696799670E+00  0.0000000000000E+00  0.2864604839134E+00
 0.4172884848901E+00 -0.4620258272416E+00  0.0000000000000E+00  0.3023073724062E+00
 0.4040562903543E+00 -0.4489502038107E+00  0.0000000000000E+00  0.3176313999342E+00
 0.3886378454545E+00 -0.4336150153325E+00  0.0000000000000E+00  0.3319362167685E+00
 0.3711566179199E+00 -0.4161237185086E+00  0.0000000000000E+00  0.3446526026258E+00
 0.3517753542986E+00 -0.3966162055984E+00  0.0000000000000E+00  0.3551656092175E+00
 0.3307017005153E+00 -0.3752747697035E+00  0.0000000000000E+00  0.3628331915871E+00
 0.3081926196636E+00 -0.3523286770144E+00  0.0000000000000E+00  0.3669980558793E+00
 0.2845572561355E+00 -0.3280571523728E+00  0.0000000000000E+00  0.3669919810051E+00
 0.2601587333158E+00 -0.3027913184305E+00  0.0000000000000E+00  0.3621278019374E+00
 0.2354163443876E+00 -0.2769165797351E+00  0.0000000000000E+00  0.3516687163761E+00
 0.2108114950828E+00 -0.2508789702996E+00  0.0000000000000E+00  0.3347551756785E+00
 0.1869068703874E+00 -0.2252041102975E+00  0.0000000000000E+00  0.3102522509569E+00
 0.1643966560972E+00 -0.2005485180649E+00  0.0000000000000E+00  0.2764487313848E+00
 0.1442569632666E+00 -0.1778348755627E+00  0.0000000000000E+00  0.2304852358952E+00
 0.1279051713380E+00 -0.1584703465499E+00  0.0000000000000E+00  0.1676028215766E+00
 0.4445360959917E+00 -0.4874410335673E+00  0.0000000000000E+00  0.2342268359000E+00
 0.4412114427113E+00 -0.4843345992172E+00  0.0000000000000E+00  0.2504717201477E+00
 0.4355713293867E+00 -0.4788505499513E+00  0.0000000000000E+00  0.2662194307949E+00
 0.4273644304482E+00 -0.4707446715659E+00  0.0000000000000E+00  0.2818761603674E+00
 0.4165843655419E+00 -0.4600069094506E+00  0.0000000000000E+00  0.2974669852677E+00
 0.4033102621209E+00 -0.4467067994002E+00  0.0000000000000E+00  0.3127166905125E+00
 0.3876539645094E+00 -0.4309407631459E+00  0.0000000000000E+00  0.3271633867134E+00
 0.3697518863020E+00 -0.4128255027344E+00  0.0000000000000E+00  0.3402423524357E+00
 0.3497720822000E+00 -0.3925054713686E+00  0.0000000000000E+00  0.3513369853314E+00
 0.3279235848269E+00 -0.3701631582049E+00  0.0000000000000E+00  0.3598068710193E+00
 0.3044632091884E+00 -0.3460258915426E+00  0.0000000000000E+00  0.3650027268530E+00
 0.2797000809916E+00 -0.3203701201824E+00  0.0000000000000E+00  0.3662736352296E+00
 0.2539998751941E+00 -0.2935250359429E+00  0.0000000000000E+00  0.3629651475185E+00
 0.2277918358354E+00 -0.2658784935385E+00  0.0000000000000E+00  0.3544025462415E+00
 0.2015841330627E+00 -0.2378903890259E+00  0.0000000000000E+00  0.3398487127811E+00
 0.1759990908527E+00 -0.2101238187058E+00  0.0000000000000E+00  0.3184192838107E+00
 0.1518508944302E+00 -0.1833151642303E+00  0.0000000000000E+00  0.2889279050120E+00
 0.1303189642331E+00 -0.1585277663766E+00  0.0000000000000E+00  0.2496190844540E+00
 0.1132922763421E+00 -0.1374711093880E+00  0.0000000000000E+00  0.1977490995599E+00
 0.1039924328561E+00 -0.1230764016979E+00  0.0000000000000E+00  0.1286782951955E+00
 0.4390857369018E+00 -0.4815324162210E+00  0.0000000000000E+00  0.2441785642837E+00
 0.4344466805304E+00 -0.4769539834128E+00  0.0000000000000E+00  0.2602944646374E+00
 0.4270458125812E+00 -0.4695160425130E+00  0.0000000000000E+00  0.2754368428406E+00
 0.4167513784092E+00 -0.4591029629735E+00  0.0000000000000E+00  0.2903797139012E+00
 0.4036898043992E+00 -0.4458421154085E+00  0.0000000000000E+00  0.3051453386637E+00
 0.3880238560074E+00 -0.4298855606084E+00  0.0000000000000E+00  0.3193551197675E+00
 0.3699143264146E+00 -0.4113771199885E+00  0.0000000000000E+00  0.3324447030775E+00
 0.3495326795859E+00 -0.3904643329403E+00  0.0000000000000E+00  0.3437824731424E+00
 0.3270817374153E+00 -0.3673232345394E+00  0.0000000000000E+00  0.3527163018788E+00
 0.3028073637534E+00 -0.3421698211276E+00  0.0000000000000E+00  0.3585873217537E+00
 0.2770035347233E+00 -0.3152648590647E+00  0.0000000000000E+00  0.3607350997423E+00
 0.2500156209329E+00 -0.2869162469238E+00  0.0000000000000E+00  0.3584966875026E+00
 0.2222457536389E+00 -0.2574829676984E+00  0.0000000000000E+00  0.3511970673237E+00
 0.1941654113255E+00 -0.2273853244449E+00  0.0000000000000E+00  0.3381257634954E+00
 0.1663439746819E+00 -0.1971293187758E+00  0.0000000000000E+00  0.3184936971268E+00
 0.1395092901611E+00 -0.1673597588118E+00  0.0000000000000E+00  0.2913659939235E+00
 0.1146730176748E+00 -0.1389703566157E+00  0.0000000000000E+00  0.2555740596686E+00
 0.9337672440318E-01 -0.1133241051856E+00  0.0000000000000E+00  0.2096372851947E+00
 0.7818809440514E-01 -0.9268502830699E-01  0.0000000000000E+00  0.1517643649269E+00
 0.7382310391225E-01 -0.8118688148386E-01  0.0000000000000E+00  0.7985456928281E-01
 0.4330692192447E+00 -0.4750085504672E+00  0.0000000000000E+00  0.2526880234245E+00
 0.4269915571540E+00 -0.4688057537186E+00  0.0000000000000E+00  0.2679139138184E+00
 0.4176259181261E+00 -0.4591743335945E+00  0.0000000000000E+00  0.2818555040442E+00
 0.4050926938150E+00 -0.4462755814908E+00  0.0000000000000E+00  0.2956643808378E+00
 0.3896914572065E+00 -0.4304099889455E+00  0.0000000000000E+00  0.3092183530289E+00
 0.3716495017491E+00 -0.4117990565810E+00  0.0000000000000E+00  0.3219446257684E+00
 0.3511459482735E+00 -0.3905955440462E+00  0.0000000000000E+00  0.3331686713963E+00
 0.3283736946491E+00 -0.3669659839100E+00  0.0000000000000E+00  0.3422168436945E+00
 0.3035656284286E+00 -0.3411143207846E+00  0.0000000000000E+00  0.3484144945217E+00
 0.2770009083079E+00 -0.3132884782850E+00  0.0000000000000E+00  0.3510814193135E+00
 0.2490071599602E+00 -0.2837814608442E+00  0.0000000000000E+00  0.3495268550422E+00
 0.2199641302535E+00 -0.2529340013473E+00  0.0000000000000E+00  0.3430430397641E+00
 0.1903138258912E+00 -0.2211432354541E+00  0.0000000000000E+00  0.3308934612932E+00
 0.1605834144727E+00 -0.1888833414276E+00  0.0000000000000E+00  0.3122949234028E+00
 0.1314311388384E+00 -0.1567477875540E+00  0.0000000000000E+00  0.2863981825939E+00
 0.1037330330002E+00 -0.1255295414490E+00  0.0000000000000E+00  0.2522847972423E+00
 0.7873818675710E-01 -0.9636639870326E-01  0.0000000000000E+00  0.2090300461051E+00
 0.5834694840283E-01 -0.7099741552929E-01  0.0000000000000E+00  0.1559492709861E+00
 0.4558245752474E-01 -0.5221096356792E-01  0.0000000000000E+00  0.9329783254585E-01
 0.4561453301275E-01 -0.4473293187443E-01  0.0000000000000E+00  0.2435974874787E-01
 0.4266145931301E+00 -0.4680200356807E+00  0.0000000000000E+00  0.2594965194164E+00
 0.4189014444400E+00 -0.4599567524052E+00  0.0000000000000E+00  0.2729554040302E+00
 0.4073369772734E+00 -0.4478703432432E+00  0.0000000000000E+00  0.2852216043541E+00
 0.3925041603197E+00 -0.4323919929383E+00  0.0000000000000E+00  0.2976834453652E+00
 0.3748547013977E+00 -0.4140200886984E+00  0.0000000000000E+00  0.3097093171903E+00
 0.3545810670481E+00 -0.3929011586847E+00  0.0000000000000E+00  0.3204983312944E+00
 0.3318573723157E+00 -0.3691829906561E+00  0.0000000000000E+00  0.3293507149344E+00
 0.3069053136828E+00 -0.3430590895150E+00  0.0000000000000E+00  0.3355893992489E+00
 0.2799979559099E+00 -0.3147749665942E+00  0.0000000000000E+00  0.3385317164297E+00
 0.2514602319650E+00 -0.2846262283238E+00  0.0000000000000E+00  0.3374759323914E+00
 0.2216713806560E+00 -0.2529605670123E+00  0.0000000000000E+00  0.3316982457547E+00
 0.1910745494448E+00 -0.2201868739769E+00  0.0000000000000E+00  0.3204522933623E+00
 0.1601974318219E+00 -0.1867954734772E+00  0.0000000000000E+00  0.3029717674505E+00
 0.1296901367929E+00 -0.1533954754360E+00  0.0000000000000E+00  0.2784832062983E+00
 0.1003892899715E+00 -0.1207781637628E+00  0.0000000000000E+00  0.2462471724435E+00
 0.7341975856248E-01 -0.9001850766231E-01  0.0000000000000E+00  0.2056683153455E+00
 0.5034825374153E-01 -0.6262902073111E-01  0.0000000000000E+00  0.1565585267152E+00
 0.3338733671692E-01 -0.4077510417250E-01  0.0000000000000E+00  0.9973912451976E-01
 0.2566635396909E-01 -0.2755270743341E-01  0.0000000000000E+00  0.3837364807129E-01
 0.3114004380761E-01 -0.2712446577089E-01  0.0000000000000E+00 -0.1876597715963E-01
 0.4199060653333E+00 -0.4607855086634E+00  0.0000000000000E+00  0.2641768097283E+00
 0.4100786850263E+00 -0.4503679681483E+00  0.0000000000000E+00  0.2748944393641E+00
 0.3961100488229E+00 -0.4354752120215E+00  0.0000000000000E+00  0.2856664031551E+00
 0.3791988643005E+00 -0.4177052723711E+00  0.0000000000000E+00  0.2967672231924E+00
 0.3595502178461E+00 -0.3970870769458E+00  0.0000000000000E+00  0.3068540478817E+00
 0.3372798022743E+00 -0.3737123502915E+00  0.0000000000000E+00  0.3152367543636E+00
 0.3126029078356E+00 -0.3477654475005E+00  0.0000000000000E+00  0.3212671102105E+00
 0.2857960919906E+00 -0.3195000591853E+00  0.0000000000000E+00  0.3242967117738E+00
 0.2571939843597E+00 -0.2892274225203E+00  0.0000000000000E+00  0.3236476680250E+00
 0.2271886643651E+00 -0.2573159724807E+00  0.0000000000000E+00  0.3186162810448E+00
 0.1962379146440E+00 -0.2241994633174E+00  0.0000000000000E+00  0.3084827441726E+00
 0.1648818695040E+00 -0.1903942124896E+00  0.0000000000000E+00  0.2925288407198E+00
 0.1337710787105E+00 -0.1565280618222E+00  0.0000000000000E+00  0.2700696085997E+00
 0.1037093205806E+00 -0.1233846334721E+00  0.0000000000000E+00  0.2405129327439E+00
 0.7571383249111E-01 -0.9196622073153E-01  0.0000000000000E+00  0.2034730195974E+00
 0.5109176676125E-01 -0.6357529721550E-01  0.0000000000000E+00  0.1589842498426E+00
 0.3151603923943E-01 -0.3990327107880E-01  0.0000000000000E+00  0.1079023886504E+00
 0.1905247088566E-01 -0.2308096171153E-01  0.0000000000000E+00  0.5263898285379E-01
 0.1593605966229E-01 -0.1554893325406E-01  0.0000000000000E+00 -0.1419759570224E-02
 0.2376324308043E-01 -0.1930018917646E-01  0.0000000000000E+00 -0.4368023821404E-01
 0.4124623664020E+00 -0.4532743465010E+00  0.0000000000000E+00  0.2649027713142E+00
 0.3997992858319E+00 -0.4388841755027E+00  0.0000000000000E+00  0.2741054299217E+00
 0.3841194165080E+00 -0.4222506846508E+00  0.0000000000000E+00  0.2841050817697E+00
 0.3656026475111E+00 -0.4026607730068E+00  0.0000000000000E+00  0.2932488547281E+00
 0.3442259817125E+00 -0.3800962218439E+00  0.0000000000000E+00  0.3008718804936E+00
 0.3202542849600E+00 -0.3547815837265E+00  0.0000000000000E+00  0.3064358033125E+00
 0.2939864296324E+00 -0.3269995905021E+00  0.0000000000000E+00  0.3093594482715E+00
 0.2657756267151E+00 -0.2970857934344E+00  0.0000000000000E+00  0.3090221348028E+00
 0.2360287255038E+00 -0.2654304848648E+00  0.0000000000000E+00  0.3047736376275E+00
 0.2052152452123E+00 -0.2324872968888E+00  0.0000000000000E+00  0.2959518091076E+00
 0.1738790267450E+00 -0.1987858916046E+00  0.0000000000000E+00  0.2819070642956E+00
 0.1426556274816E+00 -0.1649505925415E+00  0.0000000000000E+00  0.2620400927553E+00
 0.1122961941498E+00 -0.1317260745638E+00  0.0000000000000E+00  0.2358618447168E+00
 0.8369733359483E-01 -0.1000100079881E+00  0.0000000000000E+00  0.2030903089649E+00
 0.5793270805123E-01 -0.7088920602812E-01  0.0000000000000E+00  0.1638066030650E+00
 0.3627261865486E-01 -0.4566764727135E-01  0.0000000000000E+00  0.1187051611125E+00
 0.2015820371319E-01 -0.2585500284261E-01  0.0000000000000E+00  0.6948328407682E-01
 0.1103674107949E-01 -0.1303567936431E-01  0.0000000000000E+00  0.1943253911965E-01
 0.9862259914654E-02 -0.8406141130216E-02  0.0000000000000E+00 -0.2581766610442E-01
 0.1572108011684E-01 -0.1157126828235E-01  0.0000000000000E+00 -0.5744105160704E-01
</DataArray>
<DataArray type="Float64" Name="S_Centroid" NumberOfComponents="4" ComponentName0="S11" ComponentName1="S22" ComponentName2="S33" ComponentName3="S12" format="ascii">
 0.1564533228779E+00  0.1381903447018E+01  0.3076713585638E+00  0.1028224780630E+00
-0.2553077647065E-01  0.1271592220448E+01  0.2492122925090E+00 -0.1881032277443E-01
 0.4124943129290E-02  0.1287779893229E+01  0.2583809711219E+00 -0.3965869161209E-02
-0.9994994648535E-03  0.1300252118206E+01  0.2598505276202E+00 -0.2615901985867E-02
 0.1179231926193E-03  0.1303280744745E+01  0.2606797374719E+00  0.1512582546341E-04
-0.7056202914468E-04  0.1296680863819E+01  0.2593220642221E+00  0.2022779260286E-02
 0.3872564865004E-05  0.1281431862431E+01  0.2562871508181E+00  0.3736635815150E-02
 0.6260411693493E-05  0.1258575459332E+01  0.2517163476997E+00  0.5194497958862E-02
 0.1777941992476E-04  0.1229023566408E+01  0.2458082728284E+00  0.6463435580018E-02
 0.2168061092050E-04  0.1193498759738E+01  0.2387040916267E+00  0.7591350524793E-02
 0.2320863322741E-04  0.1152547502113E+01  0.2305141455842E+00  0.8619116586549E-02
 0.2180652653139E-04  0.1106553435439E+01  0.2213150516910E+00  0.9581267202371E-02
 0.1796637409374E-04  0.1055753221719E+01  0.2111542407650E+00  0.1050803163510E-01
 0.1171909222875E-04  0.1000250288472E+01  0.2000524044938E+00  0.1142627263246E-01
 0.3078200981887E-05  0.9400271096903E+00  0.1880060403798E+00  0.1236008066080E-01
-0.7943943838989E-05  0.8749562058189E+00  0.1749896549826E+00  0.1333107010158E-01
-0.2181225494291E-04  0.8048095407130E+00  0.1609575480901E+00  0.1435910606648E-01
-0.3816966135789E-04  0.7292722558666E+00  0.1458468194143E+00  0.1546123912739E-01
-0.5774962775837E-04  0.6479446355810E+00  0.1295773791215E+00  0.1665368582363E-01
-0.8071658482828E-04  0.5603555989733E+00  0.1120549781474E+00  0.1795109896848E-01
-0.1076105968890E-03  0.4659619376247E+00  0.9317086679391E-01  0.1936828051736E-01
-0.1390636773105E-03  0.3641414907418E+00  0.7280048649770E-01  0.2092304020875E-01
-0.1737845544037E-03  0.2541603167807E+00  0.5079730720220E-01  0.2263865619521E-01
-0.2515841891946E-03  0.1350216778517E+00  0.2695401913414E-01  0.2458327422751E-01
-0.4900561062008E-03  0.5385352156222E-02  0.9790592245934E-03  0.2700141414948E-01
-0.9984124651790E-03 -0.1356970539870E+00 -0.2733909369781E-01  0.3049215572794E-01
-0.1818404545366E-02 -0.2880280447752E+00 -0.5796929072793E-01  0.3588336580230E-01
-0.2971665286182E-02 -0.4503504013391E+00 -0.9066441467605E-01  0.4394290602735E-01
-0.4505626602986E-02 -0.6207747882170E+00 -0.1250560848275E+00  0.5523190774521E-01
-0.6513448493175E-02 -0.7971260988139E+00 -0.1607279118564E+00  0.7012131818139E-01
-0.9140606267709E-02 -0.9770474923973E+00 -0.1972376226721E+00  0.8888730491092E-01
-0.1257808992049E-01 -0.1157829246781E+01 -0.2340814708284E+00  0.1117831318860E+00
-0.1682965644157E-01 -0.1335811413182E+01 -0.2705282179560E+00  0.1387058907394E+00
-0.2175356821445E-01 -0.1507474989942E+01 -0.3058457161887E+00  0.1687757623012E+00
-0.2716413197511E-01 -0.1672444901505E+01 -0.3399218117612E+00  0.2012093246106E+00
-0.3462430962112E-01 -0.1833585018130E+01 -0.3736418711179E+00  0.2365126192931E+00
-0.3983209510582E-01 -0.1996725484201E+01 -0.4073115219309E+00  0.2771163141368E+00
-0.7016032855577E-01 -0.2175022481768E+01 -0.4490365687560E+00  0.3305552638187E+00
-0.3872114721216E-02 -0.2401019081112E+01 -0.4809782463338E+00  0.3997540652378E+00
-0.5721521224845E+00 -0.2773713754459E+01 -0.6691731853602E+00  0.6727372595247E+00
 0.1622995209231E+01 -0.2827982835395E+01 -0.2409975288239E+00  0.7417187591894E+00
 0.1622861956012E+00  0.1216411253101E+01  0.2757394938493E+00  0.8328937448053E-01
 0.8382709914268E-02  0.1217980222265E+01  0.2452725900907E+00  0.1029808185705E-01
-0.4862242848340E-02  0.1195995507609E+01  0.2382266565019E+00 -0.1104712090300E-01
-0.9737750848782E-03  0.1198909512442E+01  0.2395871510416E+00 -0.3625031599409E-02
-0.1800384327718E-02  0.1196613977338E+01  0.2389627221629E+00  0.1346876232479E-02
-0.1331790672703E-02  0.1187748365220E+01  0.2372833184453E+00  0.6626029566670E-02
-0.1178457361952E-02  0.1171768714694E+01  0.2341180549551E+00  0.1122668729312E-01
-0.1005344918716E-02  0.1149124216808E+01  0.2296237777996E+00  0.1530012418542E-01
-0.8848311939840E-03  0.1120362264644E+01  0.2238954900264E+00  0.1891479126287E-01
-0.7945804739034E-03  0.1086006393726E+01  0.2170423658847E+00  0.2217425613440E-01
-0.7341920236396E-03  0.1046481588701E+01  0.2091494824521E+00  0.2517244929209E-01
-0.6993621732657E-03  0.1002100523548E+01  0.2002802352594E+00  0.2799650865219E-01
-0.6876997181487E-03  0.9530606570439E+00  0.1904745943034E+00  0.3072575577894E-01
-0.6970611554640E-03  0.8994486137991E+00  0.1797503132072E+00  0.3343255144864E-01
-0.7256448057572E-03  0.8412467766580E+00  0.1681042288754E+00  0.3618279437617E-01
-0.7719503129756E-03  0.7783409157818E+00  0.1555137954111E+00  0.3903641435889E-01
-0.8346110371226E-03  0.7105282986768E+00  0.1419387396430E+00  0.4204745471746E-01
-0.9122564360449E-03  0.6375272475880E+00  0.1273230001276E+00  0.4526445133664E-01
-0.1004222128148E-02  0.5589836030716E+00  0.1115958778516E+00  0.4873145843776E-01
-0.1110386844078E-02  0.4744777851195E+00  0.9467348106583E-01  0.5248907058657E-01
-0.1232354627324E-02  0.3835288521240E+00  0.7645930063867E-01  0.5657875543145E-01
-0.1373824353939E-02  0.2855871063820E+00  0.5684265725264E-01  0.6105002924303E-01
-0.1553624459205E-02  0.1800012475772E+00  0.3568952515542E-01  0.6599011657895E-01
-0.1885940074025E-02  0.6598390382258E-01  0.1281959294074E-01  0.7158963453674E-01
-0.2611638510352E-02 -0.5720192950881E-01 -0.1196271378209E-01  0.7812377724623E-01
-0.3959015330696E-02 -0.1898381314803E+00 -0.3875942993977E-01  0.8591855608772E-01
-0.6010552868627E-02 -0.3314699082637E+00 -0.6749609323223E-01  0.9534962531469E-01
-0.8731360502438E-02 -0.4809092097261E+00 -0.9792811550494E-01  0.1067818438089E+00
-0.1207064867311E-01 -0.6364251494735E+00 -0.1296991615620E+00  0.1204948290781E+00
-0.1602786946637E-01 -0.7959123283540E+00 -0.1623880419839E+00  0.1366574028207E+00
-0.2067874093230E-01 -0.9569259413922E+00 -0.1955209393784E+00  0.1553317295255E+00
-0.2605201907025E-01 -0.1116564805658E+01 -0.2285233683510E+00  0.1763992483522E+00
-0.3191556662130E-01 -0.1271508279135E+01 -0.2606847730358E+00  0.1994661927375E+00
-0.3795952769787E-01 -0.1418691292066E+01 -0.2913301682940E+00  0.2241072710482E+00
-0.4475371877207E-01 -0.1556131314952E+01 -0.3201770115158E+00  0.2503662373407E+00
-0.5232477089704E-01 -0.1682707324123E+01 -0.3470064241747E+00  0.2788611676917E+00
-0.6725851832938E-01 -0.1797804819463E+01 -0.3730126731169E+00  0.3134405914620E+00
-0.7553770125452E-01 -0.1896869247453E+01 -0.3944813956198E+00  0.3515218127070E+00
-0.1580820365763E+00 -0.1981537148365E+01 -0.4279238433648E+00  0.4511177091032E+00
-0.3091191551215E+00 -0.1809929777196E+01 -0.4238097927787E+00  0.4172619934139E+00
 0.1355688889542E+01 -0.1410176989096E+01 -0.1089762007310E-01  0.7506632430049E-01
 0.1633622589210E+00  0.1090787234997E+01  0.2508299025213E+00  0.5511278295765E-01
 0.3004379296886E-01  0.1119379646591E+01  0.2298846913375E+00  0.1895131723027E-01
-0.3323391040201E-02  0.1106664382406E+01  0.2206682015614E+00 -0.6101940009075E-02
-0.4231527418589E-02  0.1098407186466E+01  0.2188351350704E+00 -0.3381157679371E-02
-0.4120681330612E-02  0.1092133190760E+01  0.2176025051284E+00  0.4252102751367E-02
-0.3804208582141E-02  0.1080915873754E+01  0.2154223362443E+00  0.1175146152467E-01
-0.3318798816843E-02  0.1064101923303E+01  0.2121566280586E+00  0.1884742731887E-01
-0.2932919754118E-02  0.1041504924074E+01  0.2077144039591E+00  0.2524259767511E-01
-0.2615009191182E-02  0.1013390632206E+01  0.2021551276153E+00  0.3101914426244E-01
-0.2377581990768E-02  0.9800893495702E+00  0.1955423564297E+00  0.3628232304662E-01
-0.2211731588020E-02  0.9419112237935E+00  0.1879399012416E+00  0.4115944765597E-01
-0.2112123951983E-02  0.8990979758151E+00  0.1793971730458E+00  0.4577507751386E-01
-0.2072895081295E-02  0.8518070537662E+00  0.1699468342694E+00  0.5024783871340E-01
-0.2088961332643E-02  0.8001067683111E+00  0.1596035637740E+00  0.5468833053471E-01
-0.2155566218259E-02  0.7439777271956E+00  0.1483644344063E+00  0.5919866901946E-01
-0.2268296574142E-02  0.6833173456375E+00  0.1362098118424E+00  0.6387225206312E-01
-0.2422920756151E-02  0.6179457677076E+00  0.1231045712247E+00  0.6879360501309E-01
-0.2615557385807E-02  0.5476142832098E+00  0.1089997467890E+00  0.7403870120144E-01
-0.2843348838529E-02  0.4720117269136E+00  0.9383367701325E-01  0.7967594493716E-01
-0.3105390706364E-02  0.3907712897285E+00  0.7753318095977E-01  0.8576838390500E-01
-0.3404963377304E-02  0.3034767158230E+00  0.6001435138342E-01  0.9237941139015E-01
-0.3755034958520E-02  0.2096591025334E+00  0.4118081412862E-01  0.9958640042490E-01
-0.4209558078731E-02  0.1087899426492E+00  0.2091607722577E-01  0.1075191303503E+00
-0.4940997083843E-02  0.3336001202942E-03 -0.9214794064409E-03  0.1163951896646E+00
-0.6244228357011E-02 -0.1160209158296E+00 -0.2445302920171E-01  0.1264259051898E+00
-0.8383874954707E-02 -0.2401313762924E+00 -0.4970305099006E-01  0.1377222906235E+00
-0.1145043462743E-01 -0.3713330286326E+00 -0.7655669379278E-01  0.1503401632797E+00
-0.1537479432707E-01 -0.5084400319241E+00 -0.1047629668113E+00  0.1643216059705E+00
-0.2003726019117E-01 -0.6498021938494E+00 -0.1339678928044E+00  0.1796753282573E+00
-0.2535515078794E-01 -0.7933562261050E+00 -0.1637422778185E+00  0.1963353798705E+00
-0.3129097643306E-01 -0.9366157103666E+00 -0.1935813402445E+00  0.2141042456747E+00
-0.3771690197666E-01 -0.1076655184331E+01 -0.2228744205827E+00  0.2325768856141E+00
-0.4427687912059E-01 -0.1210258048921E+01 -0.2509069893472E+00  0.2512034706571E+00
-0.5080177985004E-01 -0.1334142957412E+01 -0.2769889515799E+00  0.2696386104683E+00
-0.5760936744061E-01 -0.1444808204111E+01 -0.3004835187878E+00  0.2878175613800E+00
-0.6660549162060E-01 -0.1538074262433E+01 -0.3209359555930E+00  0.3063675233744E+00
-0.7866031953201E-01 -0.1605931460250E+01 -0.3369183609768E+00  0.3243496032228E+00
-0.9970517284667E-01 -0.1637077268276E+01 -0.3473564934005E+00  0.3468384577264E+00
-0.1721237374539E+00 -0.1558757205572E+01 -0.3461761937636E+00  0.3549564327386E+00
-0.2738409636393E-01 -0.1263002716189E+01 -0.2580773663562E+00  0.1255573671414E+00
 0.1384528340516E+01 -0.9407362623063E+00  0.8875841696455E-01 -0.2050271738489E+00
 0.1579675876352E+00  0.9784824417744E+00  0.2272900092688E+00  0.2957121281215E-01
 0.4291419722395E-01  0.1012802523337E+01  0.2111433472584E+00  0.1795102209701E-01
 0.3659365963166E-03  0.1009840720501E+01  0.2020413344302E+00 -0.5510378356162E-03
-0.6951060137205E-02  0.9990127506996E+00  0.1984123410690E+00 -0.2630862044331E-03
-0.7447850595902E-02  0.9888935919949E+00  0.1962891512047E+00  0.8073532287850E-02
-0.7037426725346E-02  0.9758268227029E+00  0.1937578820827E+00  0.1748884288649E-01
-0.6341179481422E-02  0.9581602429044E+00  0.1903638155212E+00  0.2661053789597E-01
-0.5670940221061E-02  0.9355482594590E+00  0.1859754666188E+00  0.3506918972110E-01
-0.5112809626325E-02  0.9079895235756E+00  0.1805753454806E+00  0.4281493610916E-01
-0.4680339511023E-02  0.8756623070934E+00  0.1741963961122E+00  0.4994622385120E-01
-0.4374245814978E-02  0.8387711434946E+00  0.1668793820226E+00  0.5659964274442E-01
-0.4187407018618E-02  0.7974921838622E+00  0.1586609577329E+00  0.6292500522829E-01
-0.4111782485407E-02  0.7519442102146E+00  0.1495664877745E+00  0.6907072331462E-01
-0.4138902419618E-02  0.7021772095424E+00  0.1396076635049E+00  0.7517873999107E-01
-0.4260360022453E-02  0.6481692123029E+00  0.1287817723751E+00  0.8138185982745E-01
-0.4467831127296E-02  0.5898279735963E+00  0.1170720302383E+00  0.8780236736463E-01
-0.4753131639941E-02  0.5269951020952E+00  0.1044483956474E+00  0.9455124553275E-01
-0.5108648582806E-02  0.4594535793571E+00  0.9086898750891E-01  0.1017280224949E+00
-0.5528362672322E-02  0.3869340513393E+00  0.7628113887007E-01  0.1094216644893E+00
-0.6009885957963E-02  0.3091225793390E+00  0.6062253957955E-01  0.1177132718399E+00
-0.6558705160927E-02  0.2256696129882E+00  0.4382218221845E-01  0.1266827357415E+00
-0.7200702295214E-02  0.1361958787536E+00  0.2579903567612E-01  0.1364251966786E+00
-0.8021673729832E-02  0.4031411756302E-01  0.6458488862877E-02  0.1470816581848E+00
-0.9227814787362E-02 -0.6227927998812E-01 -0.1430141916820E-01  0.1588404837980E+00
-0.1112361888688E-01 -0.1715871115151E+00 -0.3654214662492E-01  0.1718129000789E+00
-0.1396386929395E-01 -0.2871835937212E+00 -0.6022949350051E-01  0.1859291664440E+00
-0.1782238452212E-01 -0.4082457270419E+00 -0.8521362358258E-01  0.2010018096416E+00
-0.2259803573389E-01 -0.5335628208631E+00 -0.1112321729769E+00  0.2168081097667E+00
-0.2811407903650E-01 -0.6615245439193E+00 -0.1379277266464E+00  0.2331022516139E+00
-0.3420265018246E-01 -0.7900997348822E+00 -0.1648604794696E+00  0.2495695385440E+00
-0.4070227729955E-01 -0.9168079614202E+00 -0.1915020505975E+00  0.2657502434159E+00
-0.4734402878397E-01 -0.1038735631115E+01 -0.2172159352165E+00  0.2809915072834E+00
-0.5373300917519E-01 -0.1152624467580E+01 -0.2412714989463E+00  0.2945609377182E+00
-0.5965263522410E-01 -0.1254765196209E+01 -0.2628835702038E+00  0.3058580536671E+00
-0.6557412128500E-01 -0.1340488590444E+01 -0.2812125465361E+00  0.3144187513870E+00
-0.7256942005331E-01 -0.1402811587741E+01 -0.2950762059559E+00  0.3191009220728E+00
-0.8145720482644E-01 -0.1430736322118E+01 -0.3024387098955E+00  0.3173245271278E+00
-0.9830441714449E-01 -0.1398781453725E+01 -0.2994171786355E+00  0.3020172850856E+00
-0.9825758681674E-01 -0.1243771805736E+01 -0.2684058825101E+00  0.2123934013467E+00
 0.2287876688819E+00 -0.9768268445168E+00 -0.1496078373563E+00 -0.8687121671335E-01
 0.1416951567049E+01 -0.7675361118955E+00  0.1298830929660E+00 -0.3317639840393E+00
 0.1479312724176E+00  0.8720741107945E+00  0.2040010796823E+00  0.7912664056807E-02
 0.4897006765969E-01  0.9055687547626E+00  0.1909077673292E+00  0.1286730800076E-01
 0.3323394836934E-02  0.9087134565807E+00  0.1824073730016E+00  0.3326810594393E-02
-0.9231051328170E-02  0.8988599086137E+00  0.1779257741084E+00  0.4155279804251E-02
-0.1128112508900E-01  0.8866519139265E+00  0.1750741603763E+00  0.1283876327832E-01
-0.1097107728736E-01  0.8720655464160E+00  0.1722188963920E+00  0.2367978637833E-01
-0.1009024352996E-01  0.8537171587844E+00  0.1687253855651E+00  0.3453031605409E-01
-0.9141380250830E-02  0.8310847006786E+00  0.1643886665351E+00  0.4479405256284E-01
-0.8311694524169E-02  0.8040402869105E+00  0.1591457208487E+00  0.5432734667560E-01
-0.7654829624680E-02  0.7726360218603E+00  0.1529962407269E+00  0.6318655590490E-01
-0.7182841622194E-02  0.7369912239221E+00  0.1459616786350E+00  0.7150677221086E-01
-0.6892505344770E-02  0.6972239771807E+00  0.1380662964245E+00  0.7945109028022E-01
-0.6774665881858E-02  0.6534181137425E+00  0.1293286914993E+00  0.8718967847070E-01
-0.6817960952374E-02  0.6056064944402E+00  0.1197577084821E+00  0.9488935951432E-01
-0.7009968568566E-02  0.5537645364458E+00  0.1093509152049E+00  0.1027084309924E+00
-0.7337729370760E-02  0.4978095491909E+00  0.9809436542574E-01  0.1107936405038E+00
-0.7788112281176E-02  0.4376034608750E+00  0.8596307099972E-01  0.1192784260825E+00
-0.8348609555605E-02  0.3729596450260E+00  0.7292220818071E-01  0.1282820046146E+00
-0.9008901309133E-02  0.3036494087423E+00  0.5892810236473E-01  0.1379098644419E+00
-0.9764084838556E-02  0.2294111680150E+00  0.4392941728988E-01  0.1482563152112E+00
-0.1062150220593E-01  0.1499631992878E+00  0.2786833983165E-01  0.1594110160113E+00
-0.1161846197897E-01  0.6502018155710E-01  0.1068034407478E-01  0.1714732809826E+00
-0.1286147225494E-01 -0.2566524266409E-01 -0.7705343098625E-02  0.1845685212940E+00
-0.1456660552106E-01 -0.1222000140338E+00 -0.2735332431858E-01  0.1988246807133E+00
-0.1701853046217E-01 -0.2243620156849E+00 -0.4827610994879E-01  0.2142406528554E+00
-0.2043463017195E-01 -0.3315318807639E+00 -0.7039330323612E-01  0.2305895799483E+00
-0.2485308555669E-01 -0.4427724290822E+00 -0.9352510432142E-01  0.2474875555920E+00
-0.3013436361351E-01 -0.5568445104384E+00 -0.1173957765597E+00  0.2644881209859E+00
-0.3604403808602E-01 -0.6721612148682E+00 -0.1416410527015E+00  0.2811090345885E+00
-0.4232437932506E-01 -0.7867275612947E+00 -0.1658103905947E+00  0.2967891416186E+00
-0.4868737391076E-01 -0.8980983683354E+00 -0.1893571512709E+00  0.3108142843779E+00
-0.5474253085164E-01 -0.1003380593684E+01 -0.2116246280606E+00  0.3222890954909E+00
-0.6001711406297E-01 -0.1099222588081E+01 -0.2318479438836E+00  0.3302150144432E+00
-0.6422322306576E-01 -0.1181548560452E+01 -0.2491543604162E+00  0.3335824625187E+00
-0.6750010679846E-01 -0.1244770132532E+01 -0.2624540517769E+00  0.3310444817289E+00
-0.6994695529603E-01 -0.1280593774839E+01 -0.2701081500520E+00  0.3198327050835E+00
-0.7107473132397E-01 -0.1275496798159E+01 -0.2693143099097E+00  0.2939524859401E+00
-0.6443371558416E-01 -0.1202782069857E+01 -0.2534431608649E+00  0.2336637444513E+00
 0.1821081644373E-01 -0.1033928768248E+01 -0.2031435933879E+00  0.7648509538355E-01
 0.4385810790807E+00 -0.8314696554163E+00 -0.7857771643802E-01 -0.2241009188281E+00
 0.1444455006021E+01 -0.6991482111512E+00  0.1490613611952E+00 -0.3974268680692E+00
 0.1347324715245E+00  0.7688460344308E+00  0.1807157038839E+00 -0.1020525312901E-01
 0.4977764387394E-01  0.7993759287746E+00  0.1698307170604E+00  0.6311005034851E-02
 0.4465523940049E-02  0.8057744482708E+00  0.1620479968569E+00  0.5530228936150E-02
-0.1162758922774E-01  0.7977965525082E+00  0.1572337949991E+00  0.8798438117536E-02
-0.1544258028002E-01  0.7849515457193E+00  0.1539017953812E+00  0.1823232317707E-01
-0.1547778647032E-01  0.7693848681901E+00  0.1507814185908E+00  0.3022948595789E-01
-0.1447142744770E-01  0.7505510878254E+00  0.1472159342692E+00  0.4256228441603E-01
-0.1326063331733E-01  0.7279610166194E+00  0.1429400787904E+00  0.5441899771957E-01
-0.1215045098134E-01  0.7014256500433E+00  0.1378550418666E+00  0.6556645514606E-01
-0.1125111059645E-01  0.6709202736537E+00  0.1319338345774E+00  0.7601570825365E-01
-0.1059664543982E-01  0.6364980117418E+00  0.1251802751257E+00  0.8588910615508E-01
-0.1019177706155E-01  0.5982299338220E+00  0.1176076331046E+00  0.9535522339554E-01
-0.1002870772368E-01  0.5561699721343E+00  0.1092282545097E+00  0.1045989338115E+00
-0.1009395804632E-01  0.5103361645346E+00  0.1000484427885E+00  0.1138063074351E+00
-0.1037110443210E-01  0.4607019245854E+00  0.9006616537274E-01  0.1231563477424E+00
-0.1084200773843E-01  0.4071937505927E+00  0.7927034975208E-01  0.1328160886657E+00
-0.1148767983788E-01  0.3496929316451E+00  0.6764105136937E-01  0.1429375513196E+00
-0.1228953389836E-01  0.2880419344162E+00  0.5515048092538E-01  0.1536558156840E+00
-0.1323159141430E-01  0.2220513428240E+00  0.4176395090427E-01  0.1650887420765E+00
-0.1430493134340E-01  0.1515107392706E+00  0.2744116199434E-01  0.1773387239155E+00
-0.1551679356643E-01  0.7620565024382E-01  0.1213777151635E-01  0.1904975671708E+00
-0.1691058419327E-01 -0.4056945652745E-02 -0.4193506031692E-02  0.2046553102111E+00
-0.1859976995059E-01 -0.8939681446349E-01 -0.2159931720467E-01  0.2199022778710E+00
-0.2078981717408E-01 -0.1797611708773E+00 -0.4011019820797E-01  0.2362898586538E+00
-0.2372533003796E-01 -0.2747643809814E+00 -0.5969794309344E-01  0.2537031453036E+00
-0.2756860447574E-01 -0.3736555843605E+00 -0.8024483896299E-01  0.2717759806423E+00
-0.3230724764717E-01 -0.4754201263078E+00 -0.1015454763041E+00  0.2899587577431E+00
-0.3775315015343E-01 -0.5787990717361E+00 -0.1233104462154E+00  0.3076111011353E+00
-0.4360761952416E-01 -0.6822286253981E+00 -0.1451672511476E+00  0.3240332209655E+00
-0.4951725376992E-01 -0.7837605170852E+00 -0.1666555566544E+00  0.3384283354127E+00
-0.5506810848161E-01 -0.8810062549175E+00 -0.1872148754696E+00  0.3498371938945E+00
-0.5974105945140E-01 -0.9711072979683E+00 -0.2061696745561E+00  0.3571089438123E+00
-0.6294410931938E-01 -0.1050654052275E+01 -0.2227196356376E+00  0.3589232767752E+00
-0.6417208339393E-01 -0.1115333844886E+01 -0.2359011891711E+00  0.3537300197056E+00
-0.6295034666733E-01 -0.1159157933448E+01 -0.2444216596652E+00  0.3392050702867E+00
-0.5809329519515E-01 -0.1173422321055E+01 -0.2463031269202E+00  0.3109360131438E+00
-0.4539814484951E-01 -0.1144663346464E+01 -0.2380123018094E+00  0.2591975578905E+00
-0.4662783843052E-02 -0.1054275764964E+01 -0.2117877129173E+00  0.1590874425663E+00
 0.1480922700971E+00 -0.9028171133084E+00 -0.1509449708915E+00 -0.3442438279238E-01
 0.6069840820912E+00 -0.7605573558959E+00 -0.3071465521862E-01 -0.3095956826032E+00
 0.1466800014482E+01 -0.6778476986177E+00  0.1577904655241E+00 -0.4341898664024E+00
 0.1193498483832E+00  0.6676155755400E+00  0.1573930871300E+00 -0.2532705767227E-01
 0.4654180116094E-01  0.6945837883738E+00  0.1482251201157E+00 -0.4852448889643E-03
 0.3474216894590E-02  0.7023974636735E+00  0.1411743382173E+00  0.6511131533468E-02
-0.1459881220147E-01  0.6962014661296E+00  0.1363205328170E+00  0.1317655578419E-01
-0.1995655335666E-01  0.6835683360113E+00  0.1327223585086E+00  0.2390385932013E-01
-0.2046725075083E-01  0.6675720590581E+00  0.1294209635900E+00  0.3701323528065E-01
-0.1940666071583E-01  0.6484867649492E+00  0.1258160227215E+00  0.5065188205531E-01
-0.1795792858800E-01  0.6260348204206E+00  0.1216153801787E+00  0.6392726651568E-01
-0.1656992803425E-01  0.6000346405982E+00  0.1166929442517E+00  0.7653253062953E-01
-0.1542003325115E-01  0.5704252671525E+00  0.1110010484343E+00  0.8843838005222E-01
-0.1457338511164E-01  0.5372163097666E+00  0.1045285864886E+00  0.9975030591946E-01
-0.1404751545958E-01  0.5004434904129E+00  0.9727919644025E-01  0.1106367211601E+00
-0.1383853646604E-01  0.4601371644274E+00  0.8925972692234E-01  0.1212918999289E+00
-0.1393201791061E-01  0.4163035754153E+00  0.8047431270009E-01  0.1319163455906E+00
-0.1430774867431E-01  0.3689152771582E+00  0.7092150675359E-01  0.1427055208508E+00
-0.1494200887729E-01  0.3179079057594E+00  0.6059318027934E-01  0.1538428871160E+00
-0.1580908480778E-01  0.2631812837139E+00  0.4947444051846E-01  0.1654953822746E+00
-0.1688305816177E-01  0.2046056118118E+00  0.3754451128946E-01  0.1778102365441E+00
-0.1814067926331E-01  0.1420290304880E+00  0.2477767061415E-01  0.1909135585932E+00
-0.1956688043709E-01  0.7529028110006E-01  0.1114468029866E-01  0.2049106200226E+00
-0.2116528264436E-01  0.4239415664217E-02 -0.3385173446472E-02  0.2198877701173E+00
-0.2297786523310E-01 -0.7123072864607E-01 -0.1884171905660E-01  0.2359143869565E+00
-0.2511124373938E-01 -0.1511296241850E+00 -0.3524817411012E-01  0.2530328809129E+00
-0.2774347899726E-01 -0.2352788654869E+00 -0.5260446968070E-01  0.2712109872172E+00
-0.3106468065814E-01 -0.3231761753675E+00 -0.7084817226084E-01  0.2902235729679E+00
-0.3516987402642E-01 -0.4139847620694E+00 -0.8983092855775E-01  0.3095795332415E+00
-0.3998391973262E-01 -0.5066435262525E+00 -0.1093254908261E+00  0.3285853256874E+00
-0.4525887228466E-01 -0.5998886666886E+00 -0.1290295097173E+00  0.3464296356359E+00
-0.5062263266033E-01 -0.6921886072695E+00 -0.1485622501997E+00  0.3622139965762E+00
-0.5561997279918E-01 -0.7816562444126E+00 -0.1674552459376E+00  0.3749209027427E+00
-0.5970670175383E-01 -0.8659807785504E+00 -0.1851374988196E+00  0.3833548014476E+00
-0.6221803638599E-01 -0.9423704744241E+00 -0.2009177051559E+00  0.3861008581294E+00
-0.6238081801945E-01 -0.1007432391085E+01 -0.2139626450092E+00  0.3814831102881E+00
-0.5933109999398E-01 -0.1056826043996E+01 -0.2232314321245E+00  0.3673771274208E+00
-0.5178806850719E-01 -0.1084634667568E+01 -0.2272845506019E+00  0.3405410825319E+00
-0.3680486302865E-01 -0.1082660458754E+01 -0.2238930676929E+00  0.2950821727143E+00
-0.5525728560473E-02 -0.1040093636495E+01 -0.2091238761273E+00  0.2190453716641E+00
 0.7166934296826E-01 -0.9487636008362E+00 -0.1754188541875E+00  0.8925093535158E-01
 0.2766823458534E+00 -0.8258488692789E+00 -0.1098333063217E+00 -0.1183515150595E+00
 0.7427955982937E+00 -0.7312051071060E+00  0.2318098272085E-02 -0.3614639496516E+00
 0.1486075376491E+01 -0.6810093384593E+00  0.1610132100057E+00 -0.4552638863619E+00
 0.1024231260880E+00  0.5678028413031E+00  0.1340451954756E+00 -0.3794351619742E-01
 0.4016823604871E-01  0.5911934064982E+00  0.1262723303910E+00 -0.6937930467855E-02
 0.3679103977047E-03  0.5992961209890E+00  0.1199328080645E+00  0.6716228212705E-02
-0.1843390679123E-01  0.5944894750172E+00  0.1152111153620E+00  0.1713195601018E-01
-0.2491630356960E-01  0.5824674509449E+00  0.1115102311367E+00  0.2959584534561E-01
-0.2590098897895E-01  0.5664770564825E+00  0.1081152151118E+00  0.4389462525972E-01
-0.2483494019835E-01  0.5473815454741E+00  0.1045093226125E+00  0.5873714502534E-01
-0.2317339860869E-01  0.5251813914609E+00  0.1004016000665E+00  0.7329208974644E-01
-0.2151556386888E-01  0.4997630561123E+00  0.9564949987397E-01  0.8721729976804E-01
-0.2011366311650E-01  0.4710635107614E+00  0.9018997087292E-01  0.1004533891121E+00
-0.1907036893411E-01  0.4390702909877E+00  0.8399998566242E-01  0.1130901009926E+00
-0.1842056568438E-01  0.4037959578092E+00  0.7707507957347E-01  0.1252928085628E+00
-0.1816683806894E-01  0.3652540789397E+00  0.6941744920854E-01  0.1372614182063E+00
-0.1829507739179E-01  0.3234426501782E+00  0.6102951546670E-01  0.1492070196258E+00
-0.1878163067183E-01  0.2783348665223E+00  0.5191064794362E-01  0.1613378713715E+00
-0.1959687034136E-01  0.2298756744934E+00  0.4205576145708E-01  0.1738503910171E+00
-0.2070749502009E-01  0.1779826717366E+00  0.3145503581203E-01  0.1869230348715E+00
-0.2207890390060E-01  0.1225523206497E+00  0.2009468364925E-01  0.2007116671142E+00
-0.2367868357930E-01  0.6346820801007E-01  0.7957905004737E-02  0.2153466805556E+00
-0.2548285554644E-01  0.6153136896405E-03 -0.4973508445471E-02  0.2309312305678E+00
-0.2748675020140E-01 -0.6609651291509E-01 -0.1871665290220E-01  0.2475393759693E+00
-0.2972247804748E-01 -0.1366981154596E+00 -0.3328411919738E-01  0.2652111555227E+00
-0.3227708223586E-01 -0.2111075737625E+00 -0.4867693192501E-01  0.2839334947973E+00
-0.3528767348309E-01 -0.2890510021519E+00 -0.6486773609360E-01  0.3035888490065E+00
-0.3887921825096E-01 -0.3699463588581E+00 -0.8176511664021E-01  0.3238478644233E+00
-0.4307052001022E-01 -0.4529060641966E+00 -0.9919531831949E-01  0.3441067271006E+00
-0.4771355653512E-01 -0.5368493294754E+00 -0.1169125789442E+00  0.3635447253592E+00
-0.5248955292409E-01 -0.6205251984446E+00 -0.1346029522795E+00  0.3811985555563E+00
-0.5694331105127E-01 -0.7024485409358E+00 -0.1518783726606E+00  0.3959896386644E+00
-0.6051061229122E-01 -0.7808106271151E+00 -0.1682642503886E+00  0.4066964116948E+00
-0.6250899211235E-01 -0.8534032458482E+00 -0.1831824503217E+00  0.4118984622241E+00
-0.6210439393520E-01 -0.9175462866759E+00 -0.1959301390418E+00  0.4099185086325E+00
-0.5827934491857E-01 -0.9699631748605E+00 -0.2056485070202E+00  0.3987248889668E+00
-0.4970497012820E-01 -0.1006504621048E+01 -0.2112419213829E+00  0.3756632113621E+00
-0.3414770216463E-01 -0.1021737696893E+01 -0.2111770829584E+00  0.3367322308488E+00
-0.6653968130500E-02 -0.1008805200424E+01 -0.2030918367373E+00  0.2750682001856E+00
 0.4570520209256E-01 -0.9608627787119E+00 -0.1830315180512E+00  0.1785049623989E+00
 0.1567437326382E+00 -0.8784789740763E+00 -0.1443470504386E+00  0.2935539296316E-01
 0.3975379424112E+00 -0.7854120828400E+00 -0.7757482924171E-01 -0.1788042929961E+00
 0.8540831875676E+00 -0.7265027534139E+00  0.2551608721096E-01 -0.3915124762025E+00
 0.1503937799341E+01 -0.6984426735758E+00  0.1610990275537E+00 -0.4667161770044E+00
 0.8437979221125E-01  0.4690963754549E+00  0.1106952351827E+00 -0.4845613688996E-01
 0.3133511732017E-01  0.4891115459661E+00  0.1040893342083E+00 -0.1277990976333E-01
-0.4695248384952E-02  0.4968304826524E+00  0.9842704832016E-01  0.6492907641905E-02
-0.2328248276049E-01  0.4929851769933E+00  0.9394054024638E-01  0.2066403339181E-01
-0.3041722596912E-01  0.4817029908745E+00  0.9025715432601E-01  0.3515261119118E-01
-0.3177490024886E-01  0.4660135790165E+00  0.8684773704765E-01  0.5075352050965E-01
-0.3071362957432E-01  0.4471230126767E+00  0.8328187786147E-01  0.6675358007490E-01
-0.2885684489105E-01  0.4252932738618E+00  0.7928728697562E-01  0.8248157344196E-01
-0.2693794228485E-01  0.4005149945180E+00  0.7471541155997E-01  0.9760666739041E-01
-0.2528598607538E-01  0.3727507686808E+00  0.6949295755660E-01  0.1120550210213E+00
-0.2404506722595E-01  0.3419845528399E+00  0.6358789807032E-01  0.1259051727546E+00
-0.2327090629336E-01  0.3082173929626E+00  0.5698929818306E-01  0.1393190945390E+00
-0.2297486007010E-01  0.2714529107641E+00  0.4969561087932E-01  0.1525000440940E+00
-0.2314435832375E-01  0.2316846101943E+00  0.4170805099560E-01  0.1656668047457E+00
-0.2375267677236E-01  0.1888880364429E+00  0.3302707242626E-01  0.1790373921659E+00
-0.2476397307348E-01  0.1430177462696E+00  0.2365075499166E-01  0.1928181389358E+00
-0.2613646874331E-01  0.9400836713232E-01  0.1357437988008E-01  0.2071959460659E+00
-0.2782541492017E-01  0.4178100040770E-01  0.2791117139098E-02  0.2223320717669E+00
-0.2978706834174E-01 -0.1374784079737E-01 -0.8706981957565E-02  0.2383575245000E+00
-0.3198524930986E-01 -0.7265073203006E-01 -0.2092719657982E-01  0.2553688421238E+00
-0.3440164505563E-01 -0.1349643003998E+00 -0.3387318959583E-01  0.2734221675372E+00
-0.3704998068470E-01 -0.2006542752072E+00 -0.4754085188679E-01  0.2925222012201E+00
-0.3998651360589E-01 -0.2695660638612E+00 -0.6191051641596E-01  0.3125967365768E+00
-0.4329653809697E-01 -0.3413564977963E+00 -0.7693060832500E-01  0.3334446807849E+00
-0.4703178054561E-01 -0.4153935294484E+00 -0.9248506337693E-01  0.3546396653985E+00
-0.5112791413552E-01 -0.4907669765512E+00 -0.1083789797523E+00  0.3754761391359E+00
-0.5535551946243E-01 -0.5663997601896E+00 -0.1243510577834E+00  0.3950202316417E+00
-0.5931497546822E-01 -0.6410722896653E+00 -0.1400774551140E+00  0.4121733039670E+00
-0.6245862971930E-01 -0.7133625699131E+00 -0.1551642422386E+00  0.4256948578019E+00
-0.6410556113412E-01 -0.7815595557267E+00 -0.1691330258924E+00  0.4341773745233E+00
-0.6342499668104E-01 -0.8435859006696E+00 -0.1814021821732E+00  0.4359913951261E+00
-0.5938925243599E-01 -0.8969249606188E+00 -0.1912628454610E+00  0.4292121816853E+00
-0.5068648290239E-01 -0.9385211791882E+00 -0.1978415353662E+00  0.4114853102202E+00
-0.3545602485747E-01 -0.9646110330935E+00 -0.2000134145706E+00  0.3797238447951E+00
-0.1045014886072E-01 -0.9705794523803E+00 -0.1962059231719E+00  0.3294159944287E+00
 0.3116880511019E-01 -0.9514331176611E+00 -0.1840528652528E+00  0.2534192916129E+00
 0.1050533180501E+00 -0.9043541437023E+00 -0.1598601675125E+00  0.1409749361338E+00
 0.2450513749954E+00 -0.8357280264825E+00 -0.1181353320578E+00 -0.1898663747798E-01
 0.5085056065641E+00 -0.7697559704117E+00 -0.5225007354812E-01 -0.2203945803855E+00
 0.9471965989164E+00 -0.7372949259896E+00  0.4198033521091E-01 -0.4071300212549E+00
 0.1521556913274E+01 -0.7249479113247E+00  0.1593218027639E+00 -0.4716894681294E+00
 0.6551376657652E-01  0.3713150116123E+00  0.8736575693961E-01 -0.5718664637659E-01
 0.2055336982601E-01  0.3882283403900E+00  0.8175634326147E-01 -0.1790259867400E-01
-0.1150929410179E-01  0.3951722830157E+00  0.7673259892619E-01  0.6089888947565E-02
-0.2919697597203E-01  0.3919133139067E+00  0.7254326866792E-01  0.2383598815078E-01
-0.3653114298374E-01  0.3813545674963E+00  0.6896468593017E-01  0.4049553110552E-01
-0.3810034057321E-01  0.3661410004935E+00  0.6560813296170E-01  0.5749844526978E-01
-0.3701506050039E-01  0.3476266501366E+00  0.6212231885293E-01  0.7464110080599E-01
-0.3496687576037E-01  0.3262789756637E+00  0.5826242084884E-01  0.9146216121199E-01
-0.3279261893744E-01  0.3022032626803E+00  0.5388212955148E-01  0.1076832281929E+00
-0.3089329862796E-01  0.2754067878785E+00  0.4890269857882E-01  0.1232344303497E+00
-0.2945555544701E-01  0.2458848727628E+00  0.4328586410816E-01  0.1381900044093E+00
-0.2855810750123E-01  0.2136373457091E+00  0.3701584819316E-01  0.1527100834575E+00
-0.2822285531130E-01  0.1786643601039E+00  0.3008830140687E-01  0.1670003410187E+00
-0.2843979229677E-01  0.1409586430386E+00  0.2250377048369E-01  0.1812852628969E+00
-0.2917942774601E-01  0.1004998549155E+00  0.1426408564645E-01  0.1957902103839E+00
-0.3039936614979E-01  0.5725250304288E-01  0.5370627458647E-02  0.2107288476734E+00
-0.3204841023157E-01  0.1116746337004E-01 -0.4176189434535E-02  0.2262938163868E+00
-0.3407008112927E-01 -0.3781131533898E-01 -0.1437627950787E-01  0.2426488771800E+00
-0.3640690832099E-01 -0.8973730249586E-01 -0.2522884253931E-01  0.2599224062904E+00
-0.3900686396200E-01 -0.1446451473905E+00 -0.3673040281783E-01  0.2782005242848E+00
-0.4183237314921E-01 -0.2025252417344E+00 -0.4887152370496E-01  0.2975172144764E+00
-0.4487068691777E-01 -0.2632900361564E+00 -0.6163214553321E-01  0.3178382143963E+00
-0.4813763992685E-01 -0.3267299230327E+00 -0.7497351370911E-01  0.3390313967146E+00
-0.5165799652873E-01 -0.3924550913855E+00 -0.8882261890641E-01  0.3608159495382E+00
-0.5540394925276E-01 -0.4598079922712E+00 -0.1030423898402E+00  0.3826763127980E+00
-0.5922254911587E-01 -0.5278790954722E+00 -0.1174203306673E+00  0.4038154403526E+00
-0.6279586320109E-01 -0.5956156399423E+00 -0.1316823025909E+00  0.4231988385862E+00
-0.6563470110478E-01 -0.6618475616678E+00 -0.1454964547226E+00  0.4396079123414E+00
-0.6709049078866E-01 -0.7252335265255E+00 -0.1584648058241E+00  0.4516582538037E+00
-0.6635814413618E-01 -0.7841805081543E+00 -0.1701077329929E+00  0.4577760306854E+00
-0.6244875353618E-01 -0.8367717226428E+00 -0.1798440979157E+00  0.4561437488424E+00
-0.5412152224503E-01 -0.8807062145772E+00 -0.1869655501505E+00  0.4446177509795E+00
-0.3973977218085E-01 -0.9132435585384E+00 -0.1905966689840E+00  0.4205791681728E+00
-0.1688874094972E-01 -0.9311594438893E+00 -0.1896096397932E+00  0.3806415989182E+00
 0.1864157092633E-01 -0.9308752929834E+00 -0.1824467471301E+00  0.3200833374406E+00
 0.7516676074982E-01 -0.9094114933087E+00 -0.1668489489980E+00  0.2321397708592E+00
 0.1695789703249E+00 -0.8673019173713E+00 -0.1395445914887E+00  0.1083956479382E+00
 0.3330772999378E+00 -0.8140378285889E+00 -0.9619210716360E-01 -0.5604414362966E-01
 0.6094958156571E+00 -0.7711708434074E+00 -0.3233500603188E-01 -0.2473210034124E+00
 0.1026892380493E+01 -0.7583335343934E+00  0.5371177002027E-01 -0.4129480016481E+00
 0.1539725611050E+01 -0.7575912795054E+00  0.1564268686399E+00 -0.4719944616030E+00
 0.4603279846307E-01  0.2743448139014E+00  0.6407552342769E-01 -0.6439303368272E-01
 0.8212032164817E-02  0.2884398505804E+00  0.5933037743314E-01 -0.2227799460682E-01
-0.1986263917711E-01  0.2943917091703E+00  0.5490581481679E-01  0.5678142799609E-02
-0.3616763997814E-01  0.2914178177749E+00  0.5105003632005E-01  0.2672961440774E-01
-0.4330050385814E-01  0.2814968908902E+00  0.4763927811630E-01  0.4559638637779E-01
-0.4489114598065E-01  0.2668449814038E+00  0.4439076774610E-01  0.6406729531382E-01
-0.4372128332753E-01  0.2488306283701E+00  0.4102186961978E-01  0.8234896512508E-01
-0.4146946553962E-01  0.2280613447442E+00  0.3731837639701E-01  0.1002016094247E+00
-0.3903967902244E-01  0.2047490855464E+00  0.3314188179864E-01  0.1174283073430E+00
-0.3689429544516E-01  0.1789556729145E+00  0.2841227591724E-01  0.1339809692487E+00
-0.3526081045650E-01  0.1506987599222E+00  0.2308759023717E-01  0.1499376952302E+00
-0.3424168721630E-01  0.1199854680794E+00  0.1714875642816E-01  0.1654596786512E+00
-0.3387045779478E-01  0.8681824789290E-01  0.1058955817742E-01  0.1807551759945E+00
-0.3414039906027E-01  0.5119251319494E-01  0.3410422877753E-02  0.1960531986629E+00
-0.3501942122158E-01  0.1309372766054E-01 -0.4385138777552E-02  0.2115846439531E+00
-0.3645816368584E-01 -0.2750334729153E-01 -0.1279230238609E-01  0.2275683920214E+00
-0.3839500039645E-01 -0.7063244215126E-01 -0.2180548883447E-01  0.2442005234251E+00
-0.4076003683322E-01 -0.1163287223076E+00 -0.3141775229633E-01  0.2616448173334E+00
-0.4347951395120E-01 -0.1646188785598E+00 -0.4161967912239E-01  0.2800242880033E+00
-0.4648173246861E-01 -0.2155046721299E+00 -0.5239728170049E-01  0.2994116596898E+00
-0.4970428648978E-01 -0.2689380795405E+00 -0.6372847415568E-01  0.3198158930230E+00
-0.5310056162334E-01 -0.3247900507961E+00 -0.7557812361010E-01  0.3411621260374E+00
-0.5663782276187E-01 -0.3828121655339E+00 -0.8788999896881E-01  0.3632595864278E+00
-0.6027332026710E-01 -0.4425875065465E+00 -0.1005721668614E+00  0.3857529057334E+00
-0.6389476440983E-01 -0.5034535037977E+00 -0.1134696553323E+00  0.4080454902491E+00
-0.6725618180262E-01 -0.5645208228019E+00 -0.1263554028038E+00  0.4292586477124E+00
-0.6994527832447E-01 -0.6247791762746E+00 -0.1389448929902E+00  0.4482690407513E+00
-0.7137600645765E-01 -0.6831251306058E+00 -0.1509002296613E+00  0.4637528292396E+00
-0.7079170590222E-01 -0.7383152436978E+00 -0.1618213923313E+00  0.4741997348739E+00
-0.6725679623647E-01 -0.7888945896063E+00 -0.1712302797201E+00  0.4778908636251E+00
-0.5961682166106E-01 -0.8331355386490E+00 -0.1785504747226E+00  0.4728467596289E+00
-0.4640691755449E-01 -0.8689994166164E+00 -0.1830812695623E+00  0.4567443843864E+00
-0.2565737383837E-01 -0.8941351546344E+00 -0.1839585084357E+00  0.4267753051192E+00
 0.5575529757236E-02 -0.9059591061367E+00 -0.1800767179592E+00  0.3794045164084E+00
 0.5231025055839E-01 -0.9020156355508E+00 -0.1699410795308E+00  0.3099972804191E+00
 0.1237996077773E+00 -0.8811931940364E+00 -0.1514787195090E+00  0.2126560360526E+00
 0.2369054034517E+00 -0.8464378295876E+00 -0.1219064870437E+00  0.8163639689041E-01
 0.4187613749807E+00 -0.8083253579911E+00 -0.7791279776308E-01 -0.8292309525575E-01
 0.7013199797477E+00 -0.7845707720446E+00 -0.1665015870749E-01 -0.2629894606071E+00
 0.1096678352486E+01 -0.7864398710176E+00  0.6204769721825E-01 -0.4119225468046E+00
 0.1558971610590E+01 -0.7945753397291E+00  0.1528792564502E+00 -0.4687694411562E+00
 0.2608740000964E-01  0.1781081220772E+00  0.4083910502591E-01 -0.7028375798418E-01
-0.5388977744435E-02  0.1896532872946E+00  0.3685286245919E-01 -0.2591878676003E-01
-0.2955638008370E-01  0.1945035138578E+00  0.3298942724641E-01  0.5371969885441E-02
-0.4414748821986E-01  0.1915833188312E+00  0.2948716656165E-01  0.2942503238176E-01
-0.5074090369291E-01  0.1821880942102E+00  0.2628943849519E-01  0.5045703081107E-01
-0.5215646235651E-01  0.1681230928827E+00  0.2319332645085E-01  0.7042280722300E-01
-0.5081917800722E-01  0.1506894447986E+00  0.1997405365591E-01  0.8983786480528E-01
-0.4833605994352E-01  0.1305753807166E+00  0.1644786439971E-01  0.1086712455539E+00
-0.4564308436411E-01  0.1080814218269E+00  0.1248766767864E-01  0.1268236030027E+00
-0.4324995941766E-01  0.8332592770329E-01  0.8015193776561E-02  0.1442833440598E+00
-0.4142086749737E-01  0.5635580283220E-01  0.2986987111475E-02  0.1611407174316E+00
-0.4028137771383E-01  0.2719197863281E-01 -0.2617879855214E-02  0.1775616612791E+00
-0.3987699516697E-01 -0.4155973416163E-02 -0.8806593847856E-02  0.1937580076658E+00
-0.4020461983086E-01 -0.3768690789916E-01 -0.1557830577814E-01  0.2099628114498E+00
-0.4122953936271E-01 -0.7340805536474E-01 -0.2292751928714E-01  0.2264112524892E+00
-0.4289491217404E-01 -0.1113341971486E+00 -0.3084582232416E-01  0.2433257727363E+00
-0.4512759848424E-01 -0.1514846242127E+00 -0.3932244512533E-01  0.2609040118873E+00
-0.4784252336453E-01 -0.1938757317621E+00 -0.4834365174570E-01  0.2793077338624E+00
-0.5094699285506E-01 -0.2385109165686E+00 -0.5789158274739E-01  0.2986524413391E+00
-0.5434579920670E-01 -0.2853643950643E+00 -0.6794203986661E-01  0.3189953454293E+00
-0.5794640749893E-01 -0.3343576918949E+00 -0.7846082104793E-01  0.3403188020957E+00
-0.6166176596935E-01 -0.3853315439649E+00 -0.8939866331899E-01  0.3625073259982E+00
-0.6540376992078E-01 -0.4380133300072E+00 -0.1006834214859E+00  0.3853142626317E+00
-0.6905657760944E-01 -0.4919758731044E+00 -0.1122064918148E+00  0.4083157118254E+00
-0.7241953277929E-01 -0.5465688619464E+00 -0.1237976807899E+00  0.4308423965351E+00
-0.7515015390776E-01 -0.6009397420269E+00 -0.1352179812018E+00  0.4519436297239E+00
-0.7673712713665E-01 -0.6541366093333E+00 -0.1461747494722E+00  0.4704186437369E+00
-0.7649176094306E-01 -0.7051382635061E+00 -0.1563260072193E+00  0.4848527370120E+00
-0.7354375276544E-01 -0.7528152326900E+00 -0.1652717995538E+00  0.4936279461961E+00
-0.6682267255710E-01 -0.7958692416261E+00 -0.1725383854077E+00  0.4949030197111E+00
-0.5500517428839E-01 -0.8327868623149E+00 -0.1775584099665E+00  0.4865666639349E+00
-0.3640168757999E-01 -0.8618283894417E+00 -0.1796460180813E+00  0.4661632359651E+00
-0.8723690052326E-02 -0.8810814626655E+00 -0.1779610331954E+00  0.4307773761370E+00
 0.3143354926045E-01 -0.8886485462504E+00 -0.1714430019527E+00  0.3768750128080E+00
 0.8967704241719E-01 -0.8831654041107E+00 -0.1586976747035E+00  0.3001566165699E+00
 0.1756474305325E+00 -0.8650700588456E+00 -0.1378845277172E+00  0.1958767739052E+00
 0.3052447135028E+00 -0.8388060078232E+00 -0.1067122604542E+00  0.6086920997324E-01
 0.5010207625059E+00 -0.8147206194094E+00 -0.6273997231561E-01 -0.1009998126111E+00
 0.7851084694284E+00 -0.8065483334934E+00 -0.4287972876890E-02 -0.2700339669941E+00
 0.1159138574811E+01 -0.8195893289358E+00  0.6790985018694E-01 -0.4059877518941E+00
 0.1579634439130E+01 -0.8347253104373E+00  0.1489818279586E+00 -0.4627787762410E+00
 0.5788960147830E-02  0.8254750754498E-01  0.1766729380183E-01 -0.7502885647757E-01
-0.2001547745356E-01  0.9178682871148E-01  0.1435427046548E-01 -0.2885740100629E-01
-0.4041112392528E-01  0.9549200559100E-01  0.1101617649730E-01  0.5245749290880E-02
-0.5306894380450E-01  0.9245266780997E-01  0.7876744918466E-02  0.3199272359565E-01
-0.5884631793577E-01  0.8346715757486E-01  0.4924168001194E-02  0.5509569321150E-01
-0.5989762286068E-01  0.6997577997051E-01  0.2015631452002E-02  0.7654669345323E-01
-0.5829677817391E-01  0.5316808895148E-01 -0.1025737859772E-02  0.9707988586888E-01
-0.5554163148157E-01  0.3376571756551E-01 -0.4355182848111E-02  0.1168473353500E+00
-0.5256987500034E-01  0.1213602967129E-01 -0.8086769186312E-02  0.1358524399068E+00
-0.4992332039840E-01 -0.1154972687088E-01 -0.1229460963706E-01  0.1541305702165E+00
-0.4789686541984E-01 -0.3721214375907E-01 -0.1702180208943E-01  0.1717915838247E+00
-0.4663731188067E-01 -0.6481198207600E-01 -0.2228985912348E-01  0.1890101273450E+00
-0.4620174222847E-01 -0.9432878561569E-01 -0.2810610598765E-01  0.2060031525976E+00
-0.4659060551151E-01 -0.1257531668937E+00 -0.3446875499466E-01  0.2230078335950E+00
-0.4776631965194E-01 -0.1590838160544E+00 -0.4137002775772E-01  0.2402628742561E+00
-0.4966392398483E-01 -0.1943250022879E+00 -0.4879778598168E-01  0.2579930657146E+00
-0.5219760756804E-01 -0.2314826433442E+00 -0.5673605102788E-01  0.2763961546437E+00
-0.5526530372267E-01 -0.2705566047760E+00 -0.6516438267076E-01  0.2956303295192E+00
-0.5875273081141E-01 -0.3115306238166E+00 -0.7405667202914E-01  0.3158020385341E+00
-0.6253745461706E-01 -0.3543568229644E+00 -0.8337885675873E-01  0.3369517087178E+00
-0.6649192609870E-01 -0.3989340889818E+00 -0.9308520440318E-01  0.3590346449587E+00
-0.7048293781037E-01 -0.4450834851717E+00 -0.1031132861329E+00  0.3818959973892E+00
-0.7436141037895E-01 -0.4925212049540E+00 -0.1133765247560E+00  0.4052370626863E+00
-0.7793399630287E-01 -0.5408243166378E+00 -0.1237516644322E+00  0.4285719966584E+00
-0.8090867711501E-01 -0.5893694077469E+00 -0.1340556189700E+00  0.4511672998887E+00
-0.8284380572988E-01 -0.6373548046926E+00 -0.1440397242308E+00  0.4720098450239E+00
-0.8312552459993E-01 -0.6839007780486E+00 -0.1534052628156E+00  0.4898326721516E+00
-0.8095823725255E-01 -0.7280821634602E+00 -0.1618080825537E+00  0.5031444288785E+00
-0.7535429482392E-01 -0.7688977168801E+00 -0.1688504048569E+00  0.5102377762102E+00
-0.6510664773011E-01 -0.8052217094744E+00 -0.1740656740347E+00  0.5091728297241E+00
-0.4872471806739E-01 -0.8357745310933E+00 -0.1768998524682E+00  0.4977390692653E+00
-0.2430419736776E-01 -0.8591397942386E+00 -0.1766888009541E+00  0.4733981943720E+00
 0.1072795545202E-01 -0.8738668307009E+00 -0.1726277776221E+00  0.4332099719796E+00
 0.6013801255212E-01 -0.8787378634184E+00 -0.1637199726129E+00  0.3737730639266E+00
 0.1298758745010E+00 -0.8733633681110E+00 -0.1486975009378E+00  0.2912995481620E+00
 0.2294898471546E+00 -0.8593472828818E+00 -0.1259714890226E+00  0.1822992836430E+00
 0.3733232665156E+00 -0.8418738619371E+00 -0.9371012048069E-01  0.4585468197127E-01
 0.5793943300008E+00 -0.8303128863877E+00 -0.5018371202519E-01 -0.1116415890254E+00
 0.8620331025137E+00 -0.8347738756586E+00  0.5451845452260E-02 -0.2704500768979E+00
 0.1216186728040E+01 -0.8564341063506E+00  0.7195052540993E-01 -0.3964422800216E+00
 0.1601917858160E+01 -0.8772342604943E+00  0.1449367216928E+00 -0.4545619662348E+00
-0.1477859075614E-01 -0.1238289186731E-01 -0.5432296605638E-02 -0.7876832868167E-01
-0.3548231563000E-01 -0.5232015792220E-02 -0.8142866405782E-02 -0.3113479652192E-01
-0.5226839999015E-01 -0.2675143642684E-02 -0.1098870889031E-01  0.5346236242338E-02
-0.6285452199039E-01 -0.5960149036790E-02 -0.1376293441052E-01  0.3449138608912E-01
-0.6759458313181E-01 -0.1464475990851E-01 -0.1644786885316E-01  0.5953836921939E-01
-0.6810744928465E-01 -0.2759866322792E-01 -0.1914122278774E-01  0.8243421872886E-01
-0.6614088347075E-01 -0.4376254829417E-01 -0.2198068668052E-01  0.1040572833318E+00
-0.6306298215978E-01 -0.6241585767870E-01 -0.2509576834165E-01  0.1247116412932E+00
-0.5978932828581E-01 -0.8314560506689E-01 -0.2858698709652E-01  0.1445006308300E+00
-0.5687913230078E-01 -0.1057346816087E+00 -0.3252276326652E-01  0.1635127205975E+00
-0.5465100983080E-01 -0.1300708954986E+00 -0.3694438161640E-01  0.1818834088255E+00
-0.5327014152509E-01 -0.1560940865565E+00 -0.4187284624027E-01  0.1997998702508E+00
-0.5280412114377E-01 -0.1837702361957E+00 -0.4731487217293E-01  0.2174860211367E+00
-0.5325646173308E-01 -0.2130798024994E+00 -0.5326725364024E-01  0.2351836485372E+00
-0.5458622822521E-01 -0.2440120233088E+00 -0.5971965119670E-01  0.2531346458464E+00
-0.5671957452427E-01 -0.2765607804074E+00 -0.6665607197958E-01  0.2715653512787E+00
-0.5955679897224E-01 -0.3107197985380E+00 -0.7405532060556E-01  0.2906725865521E+00
-0.6297702153103E-01 -0.3464747407697E+00 -0.8189035368041E-01  0.3106098823107E+00
-0.6684178527226E-01 -0.3837933732112E+00 -0.9012703303970E-01  0.3314736919213E+00
-0.7099793130444E-01 -0.4226111154147E+00 -0.9872181081489E-01  0.3532871789050E+00
-0.7527850743467E-01 -0.4628116722616E+00 -0.1076180375429E+00  0.3759791262484E+00
-0.7949927073844E-01 -0.5042060828021E+00 -0.1167410724477E+00  0.3993575846040E+00
-0.8344561483473E-01 -0.5465108299320E+00 -0.1259912908308E+00  0.4230764039513E+00
-0.8684325768171E-01 -0.5893196725339E+00 -0.1352325880582E+00  0.4465947479550E+00
-0.8930659786993E-01 -0.6320484875262E+00 -0.1442710192290E+00  0.4691234085200E+00
-0.9029293666438E-01 -0.6739584127220E+00 -0.1528502721549E+00  0.4895963102753E+00
-0.8908343706490E-01 -0.7142536519406E+00 -0.1606674201952E+00  0.5066914293579E+00
-0.8477285512283E-01 -0.7521168757910E+00 -0.1673779486769E+00  0.5188548213548E+00
-0.7625447675378E-01 -0.7866870045300E+00 -0.1725882988285E+00  0.5243080439083E+00
-0.6218578169599E-01 -0.8170232512593E+00 -0.1758418092113E+00  0.5210366780341E+00
-0.4091584636945E-01 -0.8420928556881E+00 -0.1766017430431E+00  0.5067642935979E+00
-0.1034526990337E-01 -0.8608139610911E+00 -0.1742318487952E+00  0.4789191899662E+00
 0.3233359004750E-01 -0.8721957882717E+00 -0.1679724421478E+00  0.4346106736464E+00
 0.9113165866668E-01 -0.8756526183069E+00 -0.1569041942661E+00  0.3706735185816E+00
 0.1721032177927E+00 -0.8716044498179E+00 -0.1399002484897E+00  0.2839323452273E+00
 0.2843283180829E+00 -0.8624453334240E+00 -0.1156234047911E+00  0.1721195665868E+00
 0.4402778278250E+00 -0.8535367934034E+00 -0.8265179434729E-01  0.3613721367152E-01
 0.6537978230886E+00 -0.8529168423326E+00 -0.3982380444221E-01 -0.1160855113443E+00
 0.9331844561980E+00 -0.8676175425506E+00  0.1311338292487E-01 -0.2657376236381E+00
 0.1269251855514E+01 -0.8960414507843E+00  0.7464208205822E-01 -0.3841788618426E+00
 0.1625926335593E+01 -0.9215266198929E+00  0.1408799452394E+00 -0.4445155063488E+00
-0.3555105747780E-01 -0.1067221997161E+00 -0.2845465186278E-01 -0.8161842153103E-01
-0.5164135591181E-01 -0.1014681937499E+00 -0.3062191038865E-01 -0.3279443234131E-01
-0.6498964240292E-01 -0.1000391460449E+00 -0.3300575818140E-01  0.5701305337176E-02
-0.7342346658976E-01 -0.1036608703397E+00 -0.3541686791365E-01  0.3696837643108E-01
-0.7695217759705E-01 -0.1121416242737E+00 -0.3781876093769E-01  0.6381369830044E-01
-0.7677083758028E-01 -0.1246065045539E+00 -0.4027546902699E-01  0.8808981530353E-01
-0.7433572844965E-01 -0.1401289472119E+00 -0.4289293577147E-01  0.1107607814049E+00
-0.7087742616292E-01 -0.1580125942208E+00 -0.4577800475888E-01  0.1322513864879E+00
-0.6727217153415E-01 -0.1778173710154E+00 -0.4901790924033E-01  0.1527569790928E+00
-0.6408351483947E-01 -0.1992888628351E+00 -0.5267447631982E-01  0.1724214748433E+00
-0.6164648178616E-01 -0.2222839753533E+00 -0.5678609227406E-01  0.1914103592316E+00
-0.6014110273896E-01 -0.2467206417601E+00 -0.6137234981433E-01  0.2099267035514E+00
-0.5964385611948E-01 -0.2725496406405E+00 -0.6643870034201E-01  0.2282033197963E+00
-0.6016045477616E-01 -0.2997399790841E+00 -0.7198008784465E-01  0.2464873882977E+00
-0.6164589746804E-01 -0.3282708816313E+00 -0.7798335698190E-01  0.2650240062204E+00
-0.6401656303004E-01 -0.3581261625644E+00 -0.8442854637697E-01  0.2840406278156E+00
-0.6715759402908E-01 -0.3892886392878E+00 -0.9128924802368E-01  0.3037325188846E+00
-0.7092750201886E-01 -0.4217321432924E+00 -0.9853193053049E-01  0.3242479346031E+00
-0.7516119297385E-01 -0.4554121232047E+00 -0.1061146648169E+00  0.3456729676998E+00
-0.7967157657526E-01 -0.4902524926483E+00 -0.1139848155432E+00  0.3680137535796E+00
-0.8424844590607E-01 -0.5261287305396E+00 -0.1220754371082E+00  0.3911739009976E+00
-0.8865244062847E-01 -0.5628505425113E+00 -0.1303005985696E+00  0.4149274056789E+00
-0.9259980309509E-01 -0.6001447158616E+00 -0.1385489058559E+00  0.4388858197824E+00
-0.9573273763563E-01 -0.6376323119723E+00 -0.1466730121072E+00  0.4624604916854E+00
-0.9757053532428E-01 -0.6747789177542E+00 -0.1544698929175E+00  0.4848150200447E+00
-0.9746829014438E-01 -0.7109184589155E+00 -0.1616773522212E+00  0.5048398015996E+00
-0.9460078786341E-01 -0.7453488655625E+00 -0.1679899331884E+00  0.5211687530772E+00
-0.8795186891881E-01 -0.7773703122821E+00 -0.1730644388190E+00  0.5321991710483E+00
-0.7629603892848E-01 -0.8062711667142E+00 -0.1765134437588E+00  0.5360994760986E+00
-0.5815940677681E-01 -0.8313039720074E+00 -0.1778926784077E+00  0.5308044280413E+00
-0.3174245152131E-01 -0.8516888463588E+00 -0.1766862622088E+00  0.5140039643214E+00
 0.5221843797760E-02 -0.8666771161678E+00 -0.1722910570413E+00  0.4831382641035E+00
 0.5571579556363E-01 -0.8757152372451E+00 -0.1639998907801E+00  0.4354279077488E+00
 0.1238740615743E+00 -0.8787737129579E+00 -0.1509799325265E+00  0.3680143448570E+00
 0.2156455238510E+00 -0.8768995458573E+00 -0.1322508063720E+00  0.2783691524226E+00
 0.3393760285566E+00 -0.8729489755673E+00 -0.1067145909923E+00  0.1653271691745E+00
 0.5055551441122E+00 -0.8720760481217E+00 -0.7330418189421E-01  0.3116884615920E-01
 0.7243625915163E+00 -0.8808846064672E+00 -0.3130440345667E-01 -0.1153993043924E+00
 0.9995254450995E+00 -0.9039092318331E+00  0.1912324293824E-01 -0.2570219308774E+00
 0.1319412071620E+01 -0.9377414701973E+00  0.7633412142205E-01 -0.3698218886846E+00
 0.1651691368419E+01 -0.9671797704577E+00  0.1369023216322E+00 -0.4329416705936E+00
-0.5647873069558E-01 -0.2005055515724E+00 -0.5139685721947E-01 -0.8367636060891E-01
-0.6837274580867E-01 -0.1969806588166E+00 -0.5307068171586E-01 -0.3387903846580E-01
-0.7845420901603E-01 -0.1966456903237E+00 -0.5501998068781E-01  0.6326083147517E-02
-0.8469572827859E-01 -0.2006685975552E+00 -0.5707286601721E-01  0.3946116023973E-01
-0.8687804928270E-01 -0.2090296132004E+00 -0.5918153337849E-01  0.6795009243240E-01
-0.8586591675260E-01 -0.2210594101980E+00 -0.6138506630484E-01  0.9352379120499E-01
-0.8286241036206E-01 -0.2359571018143E+00 -0.6376390338543E-01  0.1171878261106E+00
-0.7896186504928E-01 -0.2530645430828E+00 -0.6640528261593E-01  0.1394588476785E+00
-0.7498990958326E-01 -0.2719295548127E+00 -0.6938389391309E-01  0.1606134844536E+00
-0.7150359823347E-01 -0.2922691848914E+00 -0.7275455770911E-01  0.1808504842951E+00
-0.6884731437752E-01 -0.3139127050609E+00 -0.7655200502840E-01  0.2003679950794E+00
-0.6721204089924E-01 -0.3367564642602E+00 -0.8079370223580E-01  0.2193877190278E+00
-0.6668108871744E-01 -0.3607353303656E+00 -0.8548328509041E-01  0.2381532147987E+00
-0.6726118076775E-01 -0.3858061584229E+00 -0.9061346918838E-01  0.2569180057767E+00
-0.6890232787613E-01 -0.4119379538390E+00 -0.9616805777605E-01  0.2759306819101E+00
-0.7151013529309E-01 -0.4391049795551E+00 -0.1021230244914E+00  0.2954197083737E+00
-0.7495330030598E-01 -0.4672805202983E+00 -0.1084467657368E+00  0.3155785358473E+00
-0.7906799258470E-01 -0.4964289466101E+00 -0.1150993895541E+00  0.3365499637670E+00
-0.8366019377321E-01 -0.5264969310691E+00 -0.1220314267869E+00  0.3584098878554E+00
-0.8850601430595E-01 -0.5574017818066E+00 -0.1291815611475E+00  0.3811482779803E+00
-0.9334869164700E-01 -0.5890171158774E+00 -0.1364731635385E+00  0.4046455891275E+00
-0.9789041186968E-01 -0.6211590155927E+00 -0.1438098876354E+00  0.4286454017630E+00
-0.1017754631132E+00 -0.6535732162672E+00 -0.1510697381272E+00  0.4527224991615E+00
-0.1045607022691E+00 -0.6859170428303E+00 -0.1580955513757E+00  0.4762477124341E+00
-0.1056694238748E+00 -0.7177144511905E+00 -0.1646767774669E+00  0.4983459135530E+00
-0.1043540496928E+00 -0.7483803385247E+00 -0.1705468801848E+00  0.5178732798489E+00
-0.9968256605399E-01 -0.7773142543619E+00 -0.1753993666968E+00  0.5334304853221E+00
-0.9052801788673E-01 -0.8039413630715E+00 -0.1788938788574E+00  0.5433795383958E+00
-0.7554831830978E-01 -0.8277059464307E+00 -0.1806508556400E+00  0.5458530524736E+00
-0.5314502215689E-01 -0.8480580933175E+00 -0.1802406257807E+00  0.5387575283563E+00
-0.2138580418613E-01 -0.8644700466546E+00 -0.1771711728082E+00  0.5197789861632E+00
 0.2213106532061E-01 -0.8765140286564E+00 -0.1708765952134E+00  0.4864083221261E+00
 0.8049837213039E-01 -0.8840354860801E+00 -0.1607074251847E+00  0.4360236982773E+00
 0.1578601589210E+00 -0.8874701061035E+00 -0.1459219916109E+00  0.3661117073755E+00
 0.2598897641049E+00 -0.8883143108487E+00 -0.1256849112216E+00  0.2747734508976E+00
 0.3940322134536E+00 -0.8896223415649E+00 -0.9911802709922E-01  0.1617793348783E+00
 0.5688273216891E+00 -0.8961014532633E+00 -0.6545482729020E-01  0.3038316066498E-01
 0.7913326598169E+00 -0.9129642312638E+00 -0.2432631465188E-01 -0.1104822252391E+00
 0.1061880395085E+01 -0.9427830008623E+00  0.2381947919942E-01 -0.2451496867246E+00
 0.1367490533229E+01 -0.9810307420332E+00  0.7729195939080E-01 -0.3538104617647E+00
 0.1679191956142E+01 -0.1013874667276E+01  0.1330634597559E+00 -0.4200786314624E+00
-0.7752273278993E-01 -0.2937656846437E+00 -0.7425768459324E-01 -0.8502394371321E-01
-0.8557850041677E-01 -0.2918236117737E+00 -0.7548042356285E-01 -0.3442893430732E-01
-0.9255714314433E-01 -0.2925424220489E+00 -0.7701991418634E-01  0.7227227785897E-02
-0.9659423335649E-01 -0.2970113997105E+00 -0.7872112778643E-01  0.4199902493998E-01
-0.9732653041494E-01 -0.3053244650444E+00 -0.8053020029186E-01  0.7197426477238E-01
-0.9536537497049E-01 -0.3169744126265E+00 -0.8246795874827E-01  0.9874997973171E-01
-0.9169881403280E-01 -0.3312738148912E+00 -0.8459452704536E-01  0.1233410069948E+00
-0.8729220743250E-01 -0.3476098994871E+00 -0.8698042268003E-01  0.1463307595137E+00
-0.8291429595281E-01 -0.3655297403670E+00 -0.8968880860043E-01  0.1680653293185E+00
-0.7910720127233E-01 -0.3847300062942E+00 -0.9276744289565E-01  0.1887955788270E+00
-0.7621825819601E-01 -0.4050163443269E+00 -0.9624692193878E-01  0.2087535094588E+00
-0.7444540921179E-01 -0.4262648150750E+00 -0.1001420463496E+00  0.2281814827368E+00
-0.7387646280902E-01 -0.4483944607604E+00 -0.1044541862704E+00  0.2473354580826E+00
-0.7451770410254E-01 -0.4713498296662E+00 -0.1091735083806E+00  0.2664763239383E+00
-0.7631305833827E-01 -0.4950898417447E+00 -0.1142805817195E+00  0.2858566571379E+00
-0.7915627149549E-01 -0.5195799097792E+00 -0.1197472380393E+00  0.3057061063851E+00
-0.8289830543745E-01 -0.5447852270364E+00 -0.1255367083654E+00  0.3262163828746E+00
-0.8735134784515E-01 -0.5706630308753E+00 -0.1316028777051E+00  0.3475250490650E+00
-0.9229038078458E-01 -0.5971545822999E+00 -0.1378889946716E+00  0.3696984406077E+00
-0.9745221510102E-01 -0.6241751125040E+00 -0.1443254676716E+00  0.3927117606417E+00
-0.1025307774153E+00 -0.6516020941436E+00 -0.1508265765593E+00  0.4164248725764E+00
-0.1071671541987E+00 -0.6792647216148E+00 -0.1572863775065E+00  0.4405550262773E+00
-0.1109316068899E+00 -0.7069350383721E+00 -0.1635733314898E+00  0.4646460167470E+00
-0.1132944726177E+00 -0.7343140930569E+00 -0.1695217156610E+00  0.4880354948370E+00
-0.1135827433340E+00 -0.7609912711306E+00 -0.1749148054994E+00  0.5098179717251E+00
-0.1109463485537E+00 -0.7864689631811E+00 -0.1794830650215E+00  0.5288245447886E+00
-0.1043469487983E+00 -0.8102544076851E+00 -0.1829202740224E+00  0.5436331814258E+00
-0.9254817119345E-01 -0.8319030794481E+00 -0.1848902528834E+00  0.5525835416467E+00
-0.7409521746479E-01 -0.8510188236666E+00 -0.1850228109833E+00  0.5537887806568E+00
-0.4727417736225E-01 -0.8672494579100E+00 -0.1829047297799E+00  0.5451478632497E+00
-0.1003865315767E-01 -0.8803125384957E+00 -0.1780702409841E+00  0.5243688586206E+00
 0.4011205719255E-01 -0.8900802278358E+00 -0.1699936366618E+00  0.4890242499491E+00
 0.1063177580507E+00 -0.8967487331085E+00 -0.1580861973672E+00  0.4366799806837E+00
 0.1926312756713E+00 -0.9011234049781E+00 -0.1416984279728E+00  0.3651782255486E+00
 0.3043227394900E+00 -0.9049911765704E+00 -0.1201336892062E+00  0.2731959106970E+00
 0.4478511899624E+00 -0.9114044085267E+00 -0.9271064509436E-01  0.1612553456235E+00
 0.6299255584550E+00 -0.9244938255127E+00 -0.5891365428942E-01  0.3323685398648E-01
 0.8550018840656E+00 -0.9481981789830E+00 -0.1863925926123E-01 -0.1020831323256E+00
 0.1120938474061E+01 -0.9835760059895E+00  0.2747249402369E-01 -0.2307658941324E+00
 0.1414124433582E+01 -0.1025499126454E+01  0.7772506258391E-01 -0.3364485754838E+00
 0.1708370447937E+01 -0.1061359603401E+01  0.1294021708355E+00 -0.4061176006005E+00
-0.9865241841415E-01 -0.3865338585953E+00 -0.9703725684785E-01 -0.8573029646227E-01
-0.1031777312306E+00 -0.3860474634644E+00 -0.9784504039701E-01 -0.3448120707226E-01
-0.1072070027762E+00 -0.3877775038114E+00 -0.9899690279268E-01  0.8405912139460E-02
-0.1090460717880E+00 -0.3927232784092E+00 -0.1003538715348E+00  0.4460472406881E-01
-0.1082494800341E+00 -0.4010492386171E+00 -0.1018597452481E+00  0.7591060137790E-01
-0.1052377387596E+00 -0.4123734366876E+00 -0.1035222366321E+00  0.1037841284059E+00
-0.1008198330380E+00 -0.4261073896050E+00 -0.1053854460990E+00  0.1292267331188E+00
-0.9584306121164E-01 -0.4416859609293E+00 -0.1075058060302E+00  0.1528676568776E+00
-0.9101694893337E-01 -0.4586635492443E+00 -0.1099361012737E+00  0.1751107178568E+00
-0.8686256032325E-01 -0.4767235511435E+00 -0.1127172239730E+00  0.1962548458043E+00
-0.8372465065808E-01 -0.4956522480527E+00 -0.1158753814688E+00  0.2165658784086E+00
-0.8180425108728E-01 -0.5153073718761E+00 -0.1194223263722E+00  0.2363081722856E+00
-0.8119118560188E-01 -0.5355928623227E+00 -0.1233568114231E+00  0.2557514760454E+00
-0.8188966877283E-01 -0.5564412838086E+00 -0.1276661924187E+00  0.2751650615124E+00
-0.8383630674624E-01 -0.5778019130439E+00 -0.1323276459299E+00  0.2948061289803E+00
-0.8691184008961E-01 -0.5996321778737E+00 -0.1373088056387E+00  0.3149059119548E+00
-0.9094822949782E-01 -0.6218906614667E+00 -0.1425677803173E+00  0.3356547503256E+00
-0.9573216182526E-01 -0.6445297133978E+00 -0.1480523772508E+00  0.3571855414091E+00
-0.1010057837074E+00 -0.6674883183646E+00 -0.1536988227047E+00  0.3795561086418E+00
-0.1064644878911E+00 -0.6906837345151E+00 -0.1594296468569E+00  0.4027287339696E+00
-0.1117506643842E+00 -0.7140023325558E+00 -0.1651506018489E+00  0.4265456772050E+00
-0.1164422893645E+00 -0.7372922027190E+00 -0.1707469009610E+00  0.4507022642760E+00
-0.1200341778362E+00 -0.7603578569526E+00 -0.1760784095815E+00  0.4747172327180E+00
-0.1219095660027E+00 -0.7829501533722E+00 -0.1809719465717E+00  0.4979023609413E+00
-0.1212993696505E+00 -0.8047295041691E+00 -0.1852057775237E+00  0.5193300123807E+00
-0.1172517957607E+00 -0.8252907711343E+00 -0.1885085161880E+00  0.5378151087936E+00
-0.1086234494789E+00 -0.8442532216799E+00 -0.1905753370716E+00  0.5519230619713E+00
-0.9407100349196E-01 -0.8613058824136E+00 -0.1910753800284E+00  0.5599834163070E+00
-0.7203222461960E-01 -0.8762131350538E+00 -0.1896490747607E+00  0.5601049204697E+00
-0.4068851379938E-01 -0.8888170619998E+00 -0.1859011179300E+00  0.5501973356313E+00
 0.2100173840938E-02 -0.8990687248895E+00 -0.1793937128829E+00  0.5280122137005E+00
 0.5889735702364E-01 -0.9071131632430E+00 -0.1696431637718E+00  0.4912258855068E+00
 0.1328311510381E+00 -0.9134442265642E+00 -0.1561226174316E+00  0.4376071401988E+00
 0.2277800014563E+00 -0.9191450097468E+00 -0.1382730037185E+00  0.3653416275227E+00
 0.3485239129517E+00 -0.9261587962139E+00 -0.1155269783739E+00  0.2736066077886E+00
 0.5005115522627E+00 -0.9373955633850E+00 -0.8737680352647E-01  0.1634940918398E+00
 0.6887901070064E+00 -0.9563513448202E+00 -0.5351224836015E-01  0.3923131270078E-01
 0.9156791594383E+00 -0.9858535376590E+00 -0.1403487585327E-01 -0.9082137155361E-01
 0.1177263787551E+01 -0.1025771629420E+01  0.3029843207767E-01 -0.2143805218767E+00
 0.1459805983380E+01 -0.1070760479436E+01  0.7780910194823E-01 -0.3179446014024E+00
 0.1739164623832E+01 -0.1109392146589E+01  0.1259544973254E+00 -0.3911966262553E+00
-0.1198434867929E+00 -0.4788403734847E+00 -0.1197367738397E+00 -0.8585400423821E-01
-0.1211030558227E+00 -0.4796995843938E+00 -0.1201605298338E+00 -0.3406936698397E-01
-0.1223238892121E+00 -0.4823987933160E+00 -0.1209445383078E+00  0.9859898049710E-02
-0.1219830151526E+00 -0.4878420611089E+00 -0.1219650170697E+00  0.4729592452386E-01
-0.1195978125396E+00 -0.4962324886533E+00 -0.1231660620739E+00  0.7978102029563E-01
-0.1154485047570E+00 -0.5072826283532E+00 -0.1245462284779E+00  0.1086428358554E+00
-0.1101977452134E+00 -0.5204879066437E+00 -0.1261371322510E+00  0.1348541734354E+00
-0.1045876244608E+00 -0.5353297570991E+00 -0.1279834782191E+00  0.1590732313436E+00
-0.9926909702826E-01 -0.5513752061544E+00 -0.1301288625756E+00  0.1817506257546E+00
-0.9473811556355E-01 -0.5683002618502E+00 -0.1326076774588E+00  0.2032286095138E+00
-0.9133229844972E-01 -0.5858760086240E+00 -0.1354416634330E+00  0.2238059318559E+00
-0.8925217350607E-01 -0.6039442094202E+00 -0.1386392786511E+00  0.2437696581177E+00
-0.8858706930020E-01 -0.6223949089067E+00 -0.1421963977603E+00  0.2634044203290E+00
-0.8933738506801E-01 -0.6411494087520E+00 -0.1460973609410E+00  0.2829888334443E+00
-0.9143108197347E-01 -0.6601480515954E+00 -0.1503158289537E+00  0.3027854460245E+00
-0.9473471807570E-01 -0.6793412815777E+00 -0.1548152022376E+00  0.3230276582349E+00
-0.9906003656592E-01 -0.6986825647116E+00 -0.1595485226330E+00  0.3439050538880E+00
-0.1041668496984E+00 -0.7181214903399E+00 -0.1644576704583E+00  0.3655467394294E+00
-0.1097628912708E+00 -0.7375976321506E+00 -0.1694721072096E+00  0.3880034198876E+00
-0.1155004033976E+00 -0.7570339196725E+00 -0.1745068672144E+00  0.4112266630254E+00
-0.1209685205382E+00 -0.7763299794051E+00 -0.1794597026628E+00  0.4350444371319E+00
-0.1256806812219E+00 -0.7953576625191E+00 -0.1842076714931E+00  0.4591347712314E+00
-0.1290554198466E+00 -0.8139589887590E+00 -0.1886028845315E+00  0.4829973442467E+00
-0.1303888200293E+00 -0.8319394469139E+00 -0.1924656562566E+00  0.5059252826209E+00
-0.1288164287655E+00 -0.8490347279339E+00 -0.1955702342541E+00  0.5269768116504E+00
-0.1232860245605E+00 -0.8649357116636E+00 -0.1976443501900E+00  0.5449592793581E+00
-0.1125511074111E+00 -0.8793764197753E+00 -0.1983855083935E+00  0.5584352046748E+00
-0.9516473855695E-01 -0.8921807386961E+00 -0.1974690983931E+00  0.5657353811800E+00
-0.6946356444207E-01 -0.9032721405304E+00 -0.1945471438935E+00  0.5649776473904E+00
-0.3353609881425E-01 -0.9126804201277E+00 -0.1892433066083E+00  0.5540981247964E+00
 0.1483045261414E-01 -0.9205745838357E+00 -0.1811488289436E+00  0.5309083582923E+00
 0.7822796928781E-01 -0.9273418692884E+00 -0.1698227825307E+00  0.4932023205143E+00
 0.1597214583871E+00 -0.9337200585973E+00 -0.1547997223488E+00  0.4389534670106E+00
 0.2629510349603E+00 -0.9409866070400E+00 -0.1356071164366E+00  0.3666625025376E+00
 0.3921536223386E+00 -0.9511343714063E+00 -0.1117961514794E+00  0.2759199211612E+00
 0.5517916716528E+00 -0.9668364158742E+00 -0.8300895008120E-01  0.1682220888522E+00
 0.7454263465264E+00 -0.9909555898822E+00 -0.4910584940289E-01  0.4791424045272E-01
 0.9736817023694E+00 -0.1025340211004E+01 -0.1033170188097E-01 -0.7719033033049E-01
 0.1231302528221E+01 -0.1069041403559E+01  0.3245222541598E-01 -0.1964353902608E+00
 0.1504919075740E+01 -0.1116330888636E+01  0.7771763857884E-01 -0.2984677896117E+00
 0.1771474203828E+01 -0.1157653632794E+01  0.1227641160362E+00 -0.3753758526754E+00
-0.1410765700419E+00 -0.5707147976386E+00 -0.1423582756574E+00 -0.8544474740451E-01
-0.1392978699332E+00 -0.5728249752471E+00 -0.1424245711584E+00 -0.3322326183014E-01
-0.1378377066138E+00 -0.5764533279793E+00 -0.1428582090474E+00  0.1158495629693E-01
-0.1353416409827E+00 -0.5824079584841E+00 -0.1435499220324E+00  0.5008643931335E-01
-0.1313225507475E+00 -0.5909068115415E+00 -0.1444458746102E+00  0.8360509213336E-01
-0.1259610933976E+00 -0.6017316392596E+00 -0.1455385487001E+00  0.1133428839024E+00
-0.1198026496970E+00 -0.6144472436612E+00 -0.1468499808599E+00  0.1402344383430E+00
-0.1134977133840E+00 -0.6285784341146E+00 -0.1484152317113E+00  0.1649537455905E+00
-0.1076414331071E+00 -0.6437079553304E+00 -0.1502698799267E+00  0.1879885071491E+00
-0.1027023557621E+00 -0.6595090885067E+00 -0.1524422911253E+00  0.2097193409225E+00
-0.9900738081260E-01 -0.6757415866914E+00 -0.1549497958097E+00  0.2304763619189E+00
-0.9675331937364E-01 -0.6922337950369E+00 -0.1577974252335E+00  0.2505695378606E+00
-0.9602656016039E-01 -0.7088634138582E+00 -0.1609779972025E+00  0.2702991864890E+00
-0.9682189717714E-01 -0.7255415189971E+00 -0.1644726856857E+00  0.2899541310075E+00
-0.9905727200658E-01 -0.7422004474565E+00 -0.1682515463998E+00  0.3098030358307E+00
-0.1025838823939E+00 -0.7587847644647E+00 -0.1722737319388E+00  0.3300821844438E+00
-0.1071921110551E+00 -0.7752442942569E+00 -0.1764872836923E+00  0.3509812200529E+00
-0.1126136867283E+00 -0.7915278446115E+00 -0.1808283089625E+00  0.3726265820657E+00
-0.1185206237343E+00 -0.8075781428098E+00 -0.1852197560688E+00  0.3950635319401E+00
-0.1245206640499E+00 -0.8233269539731E+00 -0.1895695264294E+00  0.4182354122028E+00
-0.1301484486531E+00 -0.8386908367090E+00 -0.1937678599598E+00  0.4419594469021E+00
-0.1348519861424E+00 -0.8535693882379E+00 -0.1976842778218E+00  0.4659011308097E+00
-0.1379732228166E+00 -0.8678461283096E+00 -0.2011638732228E+00  0.4895470833339E+00
-0.1387215114632E+00 -0.8813848309937E+00 -0.2040212715315E+00  0.5121788620488E+00
-0.1361381648378E+00 -0.8939994816346E+00 -0.2060275323645E+00  0.5328483134587E+00
-0.1290722767135E+00 -0.9054792079176E+00 -0.2069103000094E+00  0.5503634486740E+00
-0.1161767403544E+00 -0.9156740315707E+00 -0.2063701574602E+00  0.5632929771168E+00
-0.9590499952681E-01 -0.9245422684896E+00 -0.2040894566444E+00  0.5699793077605E+00
-0.6649954260088E-01 -0.9321629555775E+00 -0.1997325026119E+00  0.5685611310417E+00
-0.2596815714537E-01 -0.9387446203662E+00 -0.1929425583774E+00  0.5570135264275E+00
 0.2795445992073E-01 -0.9446561732667E+00 -0.1833403454012E+00  0.5332195955937E+00
 0.9785734009891E-01 -0.9504950033440E+00 -0.1705275351901E+00  0.4950969482678E+00
 0.1866999970502E+00 -0.9571916435076E+00 -0.1540983315877E+00  0.4408148358759E+00
 0.2978380918886E+00 -0.9661461471100E+00 -0.1336616130360E+00  0.3691494513088E+00
 0.4349434478722E+00 -0.9793191583225E+00 -0.1088751437124E+00  0.2800155309313E+00
 0.6015381747898E+00 -0.9990928011492E+00 -0.7951092645669E-01  0.1751649558072E+00
 0.7999052571886E+00 -0.1027718630567E+01 -0.4556267535452E-01  0.5890016708657E-01
 0.1029242937135E+01 -0.1066240482737E+01 -0.7399509230619E-02 -0.6163985393774E-01
 0.1283616446055E+01 -0.1112975176296E+01  0.3412825446033E-01 -0.1771292016424E+00
 0.1549344764691E+01 -0.1162479178992E+01  0.7737311829279E-01 -0.2786473660922E+00
 0.1806103590650E+01 -0.1203817644022E+01  0.1204571911206E+00 -0.3581604512474E+00
-0.1623362875842E+00 -0.6621840946278E+00 -0.1649040788997E+00 -0.8454266881045E-01
-0.1577121498189E+00 -0.6654553517181E+00 -0.1646335027606E+00 -0.3196864555253E-01
-0.1536841015736E+00 -0.6699688010463E+00 -0.1647305829787E+00  0.1357664363535E-01
-0.1490597344177E+00 -0.6764366850842E+00 -0.1650992863605E+00  0.5298743746917E-01
-0.1433716368268E+00 -0.6850743965112E+00 -0.1656892091366E+00  0.8740000526004E-01
-0.1367333214189E+00 -0.6957122662100E+00 -0.1664891200067E+00  0.1178999293474E+00
-0.1295982731372E+00 -0.7079710672851E+00 -0.1675138705806E+00  0.1453784119197E+00
-0.1225389091640E+00 -0.7214145891463E+00 -0.1687907021772E+00  0.1705153395097E+00
-0.1160987438577E+00 -0.7356427415208E+00 -0.1703482996141E+00  0.1938272083042E+00
-0.1107180334200E+00 -0.7503296719984E+00 -0.1722095436498E+00  0.2157281846983E+00
-0.1067102692495E+00 -0.7652273075231E+00 -0.1743875179531E+00  0.2365778338676E+00
-0.1042657407860E+00 -0.7801532239009E+00 -0.1768837955732E+00  0.2567088110455E+00
-0.1034655701248E+00 -0.7949746123351E+00 -0.1796880391695E+00  0.2764376496666E+00
-0.1042971531210E+00 -0.8095936603663E+00 -0.1827781654211E+00  0.2960641282520E+00
-0.1066670207135E+00 -0.8239358615976E+00 -0.1861205792356E+00  0.3158637991367E+00
-0.1104098623499E+00 -0.8379411398338E+00 -0.1896702032630E+00  0.3360766388340E+00
-0.1152936665262E+00 -0.8515571677658E+00 -0.1933701697398E+00  0.3568933229194E+00
-0.1210210813398E+00 -0.8647338316026E+00 -0.1971509855262E+00  0.3784389505804E+00
-0.1272274241708E+00 -0.8774193028046E+00 -0.2009293483892E+00  0.4007552435038E+00
-0.1334750390063E+00 -0.8895568923614E+00 -0.2046063893224E+00  0.4237800308047E+00
-0.1392433969944E+00 -0.9010831166811E+00 -0.2080653058355E+00  0.4473235154019E+00
-0.1439148177955E+00 -0.9119284583408E+00 -0.2111686583739E+00  0.4710435050228E+00
-0.1467550083942E+00 -0.9220209105711E+00 -0.2137551869783E+00  0.4944195225405E+00
-0.1468876560966E+00 -0.9312850265308E+00 -0.2156345397387E+00  0.5167284735615E+00
-0.1432616061388E+00 -0.9396148268208E+00 -0.2165752898191E+00  0.5370232958014E+00
-0.1346296771848E+00 -0.9468985162765E+00 -0.2163056419155E+00  0.5541204677153E+00
-0.1195473888606E+00 -0.9531017705265E+00 -0.2145298350742E+00  0.5666032866486E+00
-0.9637331906391E-01 -0.9583150623421E+00 -0.2109376794244E+00  0.5728349973396E+00
-0.6326336258283E-01 -0.9627673706201E+00 -0.2052061496984E+00  0.5709849865693E+00
-0.1815678192103E-01 -0.9668347613450E+00 -0.1969983115887E+00  0.5590767542794E+00
 0.4124533838417E-01 -0.9710661952320E+00 -0.1859641741407E+00  0.5350716039829E+00
 0.1175023506001E+00 -0.9762370703659E+00 -0.1717469465124E+00  0.4970096796566E+00
 0.2134354656579E+00 -0.9834237594915E+00 -0.1539976610615E+00  0.4432384670240E+00
 0.3320878809398E+00 -0.9940893085122E+00 -0.1324002874874E+00  0.3727632832214E+00
 0.4765656242612E+00 -0.1010103842072E+01 -0.1067076451523E+00  0.2857356468795E+00
 0.6495280905473E+00 -0.1033531419746E+01 -0.7680066698410E-01  0.1840388777310E+00
 0.8521362504546E+00 -0.1066064341730E+01 -0.4278561889272E-01  0.7180129975352E-01
 0.1082565480124E+01 -0.1108058582524E+01 -0.5098620556048E-02 -0.4452010632003E-01
 0.1334018446802E+01 -0.1157349877871E+01  0.3533371431273E-01 -0.1569654178360E+00
 0.1594603840275E+01 -0.1208380448616E+01  0.7724467948282E-01 -0.2578894195684E+00
 0.1839179821233E+01 -0.1250642303263E+01  0.1177075053480E+00 -0.3438182032183E+00
-0.1836085717136E+00 -0.7532770366911E+00 -0.1873771244731E+00 -0.8318805646199E-01
-0.1763042538418E+00 -0.7576316807888E+00 -0.1867871897095E+00 -0.3033098451215E-01
-0.1698075627023E+00 -0.7629901952346E+00 -0.1865595543673E+00  0.1582687104282E-01
-0.1630819782258E+00 -0.7699705976990E+00 -0.1866105179657E+00  0.5600506341317E-01
-0.1556972113281E+00 -0.7787729163679E+00 -0.1868940283241E+00  0.9117880270315E-01
-0.1477256316491E+00 -0.7892593295381E+00 -0.1873969950299E+00  0.1223275764876E+00
-0.1395507429703E+00 -0.8010945179142E+00 -0.1881290549802E+00  0.1502970360127E+00
-0.1316798388990E+00 -0.8138762391656E+00 -0.1891112184309E+00  0.1757658017284E+00
-0.1246098331528E+00 -0.8272217793453E+00 -0.1903663253363E+00  0.1992723127412E+00
-0.1187529062720E+00 -0.8408087774325E+00 -0.1919123396006E+00  0.2212598376011E+00
-0.1144072551870E+00 -0.8543843780092E+00 -0.1937583295265E+00  0.2421153158183E+00
-0.1117542784483E+00 -0.8677579624558E+00 -0.1959024511000E+00  0.2621935855763E+00
-0.1108676862991E+00 -0.8807881656373E+00 -0.1983311733426E+00  0.2818276947758E+00
-0.1117257414801E+00 -0.8933697833263E+00 -0.2010191079567E+00  0.3013290009178E+00
-0.1142222016559E+00 -0.9054227431628E+00 -0.2039289920025E+00  0.3209806915357E+00
-0.1181741554271E+00 -0.9168835940383E+00 -0.2070115529778E+00  0.3410272964285E+00
-0.1233262790374E+00 -0.9276992679414E+00 -0.2102051125281E+00  0.3616616002261E+00
-0.1293513361107E+00 -0.9378223845972E+00 -0.2134347473220E+00  0.3830088257946E+00
-0.1358472500414E+00 -0.9472085034977E+00 -0.2166111539356E+00  0.4051092044967E+00
-0.1423304327448E+00 -0.9558146891881E+00 -0.2196290276593E+00  0.4278978886496E+00
-0.1482249327200E+00 -0.9635997791807E+00 -0.2223649456936E+00  0.4511818480875E+00
-0.1528475658647E+00 -0.9705274725990E+00 -0.2246750110407E+00  0.4746160211331E+00
-0.1553885649132E+00 -0.9765722856557E+00 -0.2263921734873E+00  0.4976786509605E+00
-0.1548873743784E+00 -0.9817210414142E+00 -0.2273216865459E+00  0.5196486411550E+00
-0.1502024339272E+00 -0.9859484892468E+00 -0.2272301880208E+00  0.5395871087865E+00
-0.1399929531404E+00 -0.9892416552071E+00 -0.2258469250349E+00  0.5563262824663E+00
-0.1227205400122E+00 -0.9916803636070E+00 -0.2228801840450E+00  0.5684716759815E+00
-0.9665378820071E-01 -0.9934837312728E+00 -0.2180275071436E+00  0.5744153815485E+00
-0.5986938659022E-01 -0.9950238125884E+00 -0.2109786429796E+00  0.5723654150437E+00
-0.1024937378975E-01 -0.9968320253386E+00 -0.2014162828270E+00  0.5604002238901E+00
 0.5452229638184E-01 -0.9996174021320E+00 -0.1890190239666E+00  0.5365617108075E+00
 0.1369535867876E+00 -0.1004303226498E+01 -0.1734699305270E+00  0.4990059602551E+00
 0.2397042366988E+00 -0.1012070946566E+01 -0.1544733442754E+00  0.4462355960522E+00
 0.3654906911894E+00 -0.1024399717061E+01 -0.1317818071381E+00  0.3774363477055E+00
 0.5168721511650E+00 -0.1043029681619E+01 -0.1052315076589E+00  0.2929163697006E+00
 0.6957186954040E+00 -0.1069702390620E+01 -0.7479674015767E-01  0.1945871500356E+00
 0.9022653435148E+00 -0.1105604295458E+01 -0.4066779099454E-01  0.8631577699109E-01
 0.1133774111894E+01 -0.1150535814906E+01 -0.3352340652393E-02 -0.2613839424008E-01
 0.1383396386272E+01 -0.1201954591780E+01  0.3628835943912E-01 -0.1360167319551E+00
 0.1638325069397E+01 -0.1254293714423E+01  0.7680627213943E-01 -0.2369736905770E+00
 0.1883874872222E+01 -0.1297997509628E+01  0.1171754742647E+00 -0.3290656384633E+00
-0.2048851855009E+00 -0.8440248509197E+00 -0.2097820104101E+00 -0.8140888667893E-01
-0.1950416949025E+00 -0.8494043708411E+00 -0.2088892162614E+00 -0.2832871013872E-01
-0.1861630395833E+00 -0.8555797342656E+00 -0.2083485578744E+00  0.1833249798147E-01
-0.1773622212713E+00 -0.8630782039159E+00 -0.2080880881382E+00  0.5914914877502E-01
-0.1682585728207E+00 -0.8720748845069E+00 -0.2080666945660E+00  0.9495871628895E-01
-0.1589042194609E+00 -0.8824502040498E+00 -0.2082708878056E+00  0.1266451195741E+00
-0.1496314988635E+00 -0.8939020452528E+00 -0.2087067119332E+00  0.1550085522407E+00
-0.1408947027376E+00 -0.9060568905605E+00 -0.2093903217798E+00  0.1807214423437E+00
-0.1331496537872E+00 -0.9185487118173E+00 -0.2103396762552E+00  0.2043386816946E+00
-0.1267815175783E+00 -0.9310604211180E+00 -0.2115683908919E+00  0.2263286949325E+00
-0.1220720217107E+00 -0.9433369188587E+00 -0.2130817912890E+00  0.2471037144120E+00
-0.1191917513308E+00 -0.9551817706964E+00 -0.2148747076073E+00  0.2670400691532E+00
-0.1182050920023E+00 -0.9664469877512E+00 -0.2169304191832E+00  0.2864874324844E+00
-0.1190795505981E+00 -0.9770215034663E+00 -0.2192202140795E+00  0.3057692437053E+00
-0.1216948194825E+00 -0.9868209624036E+00 -0.2217031596808E+00  0.3251770270966E+00
-0.1258493744074E+00 -0.9957797378852E+00 -0.2243258258012E+00  0.3449607423125E+00
-0.1312637812388E+00 -0.1003845267207E+01 -0.2270218130720E+00  0.3653164201959E+00
-0.1375802898424E+00 -0.1010974280113E+01 -0.2297109174141E+00  0.3863709562522E+00
-0.1443589640958E+00 -0.1017131264471E+01 -0.2322980491749E+00  0.4081652283900E+00
-0.1510700270463E+00 -0.1022288713010E+01 -0.2346717515082E+00  0.4306346101549E+00
-0.1570821479098E+00 -0.1026429492549E+01 -0.2367023316190E+00  0.4535866313209E+00
-0.1616470965645E+00 -0.1029552096737E+01 -0.2382398422104E+00  0.4766781006141E+00
-0.1638806007347E+00 -0.1031678800309E+01 -0.2391118837718E+00  0.4993916229374E+00
-0.1627393873859E+00 -0.1032859355838E+01 -0.2391197522079E+00  0.5210144730617E+00
-0.1569935454610E+00 -0.1033149136362E+01 -0.2380285399116E+00  0.5406226639408E+00
-0.1452112382791E+00 -0.1032632979304E+01 -0.2355688470268E+00  0.5570709681151E+00
-0.1257634148264E+00 -0.1031502631734E+01 -0.2314532127611E+00  0.5689940368150E+00
-0.9683316126666E-01 -0.1030101691464E+01 -0.2253869739046E+00  0.5748197285704E+00
-0.5642453657411E-01 -0.1028937983286E+01 -0.2170725072066E+00  0.5728009352333E+00
-0.2372042139753E-02 -0.1028686183814E+01 -0.2062116482635E+00  0.5610750946669E+00
 0.6764406149245E-01 -0.1030196680748E+01 -0.1925105267198E+00  0.5377637478282E+00
 0.1560640642770E+00 -0.1034514013242E+01 -0.1756899924110E+00  0.5011284605726E+00
 0.2653713640700E+00 -0.1042891137111E+01 -0.1555039569253E+00  0.4498009260158E+00
 0.3979532104659E+00 -0.1056788207693E+01 -0.1317670014089E+00  0.3830994280875E+00
 0.5558480800628E+00 -0.1077791914847E+01 -0.1043887685124E+00  0.3014177625620E+00
 0.7402235033333E+00 -0.1107328768956E+01 -0.7342105421855E-01  0.2066120117427E+00
 0.9505088167022E+00 -0.1146140811138E+01 -0.3912639947022E-01  0.1022315794061E+00
 0.1183356618565E+01 -0.1193567396383E+01 -0.2042155593999E-02 -0.6672787335018E-02
 0.1431542366619E+01 -0.1246841557755E+01  0.3694016232319E-01 -0.1143072203800E+00
 0.1683656242867E+01 -0.1300336133689E+01  0.7666402297814E-01 -0.2161200164540E+00
 0.1927045198360E+01 -0.1347438145778E+01  0.1159214122438E+00 -0.3113748749162E+00
-0.2261583041438E+00 -0.9344560155425E+00 -0.2321228673962E+00 -0.7923039082035E-01
-0.2138940002003E+00 -0.9408112604710E+00 -0.2309410555756E+00 -0.2597853534866E-01
-0.2027072188197E+00 -0.9477798826316E+00 -0.2300974237190E+00  0.2108906618294E-01
-0.1918539159526E+00 -0.9558016420885E+00 -0.2295311150285E+00  0.6242623304128E-01
-0.1810121521129E+00 -0.9650198739032E+00 -0.2292064086187E+00  0.9875282110724E-01
-0.1702304702704E+00 -0.9753222671885E+00 -0.2291105509058E+00  0.1308676344224E+00
-0.1598060913707E+00 -0.9864305825088E+00 -0.2292473381919E+00  0.1595271170941E+00
-0.1501514093428E+00 -0.9979948801498E+00 -0.2296292613203E+00  0.1853944368317E+00
-0.1416868133649E+00 -0.1009664568239E+01 -0.2302702797520E+00  0.2090367233532E+00
-0.1347720947197E+00 -0.1021128988301E+01 -0.2311802200490E+00  0.2309441925684E+00
-0.1296718991075E+00 -0.1032132924682E+01 -0.2323609682204E+00  0.2515523979374E+00
-0.1265444609776E+00 -0.1042476339095E+01 -0.2338041634985E+00  0.2712583618302E+00
-0.1254431457102E+00 -0.1052006542451E+01 -0.2354899411412E+00  0.2904283422111E+00
-0.1263231978770E+00 -0.1060608185120E+01 -0.2373862801368E+00  0.3093982430534E+00
-0.1290490349098E+00 -0.1068193946012E+01 -0.2394485997524E+00  0.3284685611964E+00
-0.1333996053384E+00 -0.1074697194799E+01 -0.2416193636278E+00  0.3478955481222E+00
-0.1390707104812E+00 -0.1080067002450E+01 -0.2438275462195E+00  0.3678796421795E+00
-0.1456736643217E+00 -0.1084265358927E+01 -0.2459878083153E+00  0.3885510068197E+00
-0.1527304807590E+00 -0.1087266873510E+01 -0.2479994745493E+00  0.4099533517273E+00
-0.1596652719259E+00 -0.1089060667990E+01 -0.2497451917047E+00  0.4320251959652E+00
-0.1657917431372E+00 -0.1089654751145E+01 -0.2510893025979E+00  0.4545784008121E+00
-0.1702974511742E+00 -0.1089083289054E+01 -0.2518761517989E+00  0.4772762945310E+00
-0.1722249288544E+00 -0.1087416772577E+01 -0.2519283440404E+00  0.4996113114947E+00
-0.1704499873812E+00 -0.1084767719806E+01 -0.2510435451784E+00  0.5208852063650E+00
-0.1636566161707E+00 -0.1081271190125E+01 -0.2489855649692E+00  0.5401952452661E+00
-0.1503246044300E+00 -0.1077107998051E+01 -0.2454865241542E+00  0.5564250544193E+00
-0.1287374814055E+00 -0.1072578777568E+01 -0.2402632553749E+00  0.5682446408756E+00
-0.9699705046681E-01 -0.1068146709263E+01 -0.2330287554184E+00  0.5741234816302E+00
-0.5304058927860E-01 -0.1064447590236E+01 -0.2234976392334E+00  0.5723639922836E+00
 0.5336845802273E-02 -0.1062287354804E+01 -0.2113901049503E+00  0.5611643792822E+00
 0.8044830833749E-01 -0.1062640308273E+01 -0.1964384029143E+00  0.5387219670565E+00
 0.1746552791426E+00 -0.1066649004547E+01 -0.1783987477392E+00  0.5033903234439E+00
 0.2902578029626E+00 -0.1075610801294E+01 -0.1570706020068E+00  0.4539023266651E+00
 0.4293202507589E+00 -0.1090941881677E+01 -0.1323243281553E+00  0.3896629990494E+00
 0.5933967024378E+00 -0.1114063669786E+01 -0.1041333950214E+00  0.3110890943405E+00
 0.7830271408338E+00 -0.1146106078503E+01 -0.7261578861594E-01  0.2199172580694E+00
 0.9969815651168E+00 -0.1187421075812E+01 -0.3808790270664E-01  0.1193331098072E+00
 0.1231389884626E+01 -0.1236995662227E+01 -0.1121155537028E-02  0.1373802635462E-01
 0.1479009386064E+01 -0.1291852865035E+01  0.3743130476365E-01 -0.9207161439920E-01
 0.1729390340313E+01 -0.1346930663189E+01  0.7649193656458E-01 -0.1945043765935E+00
 0.1970890831335E+01 -0.1396581536569E+01  0.1148618606647E+00 -0.2924169922415E+00
-0.2474217235563E+00 -0.1024598591276E+01 -0.2544040667575E+00 -0.7667353511344E-01
-0.2328346094953E+00 -0.1031889073056E+01 -0.2529447402795E+00 -0.2329440185531E-01
-0.2194011487115E+00 -0.1039631892866E+01 -0.2518066120678E+00  0.2409299510497E-01
-0.2065138660241E+00 -0.1048182623176E+01 -0.2509393015793E+00  0.6584232535346E-01
-0.1939160915417E+00 -0.1057647832180E+01 -0.2503127884742E+00  0.1025733053186E+00
-0.1816661263482E+00 -0.1067913646190E+01 -0.2499159582317E+00  0.1350096985561E+00
-0.1700396919609E+00 -0.1078717666244E+01 -0.2497514753626E+00  0.1638670508482E+00
-0.1594173167133E+00 -0.1089728666154E+01 -0.2498292002963E+00  0.1897977019441E+00
-0.1501895354156E+00 -0.1100609917618E+01 -0.2501598943343E+00  0.2133779531565E+00
-0.1426927795104E+00 -0.1111057878778E+01 -0.2507501353942E+00  0.2351170563407E+00
-0.1371744387197E+00 -0.1120818992444E+01 -0.2515986899819E+00  0.2554721053258E+00
-0.1337791951230E+00 -0.1129691651807E+01 -0.2526941731514E+00  0.2748599828507E+00
-0.1325479099647E+00 -0.1137520345296E+01 -0.2540136548372E+00  0.2936633761196E+00
-0.1334221883237E+00 -0.1144187029080E+01 -0.2555218472884E+00  0.3122309233863E+00
-0.1362500628143E+00 -0.1149602734436E+01 -0.2571705632822E+00  0.3308726493537E+00
-0.1407901533810E+00 -0.1153700946261E+01 -0.2588982237863E+00  0.3498519162961E+00
-0.1467129972795E+00 -0.1156433362286E+01 -0.2606292757967E+00  0.3693747182222E+00
-0.1535987619470E+00 -0.1157768147054E+01 -0.2622733857083E+00  0.3895760847208E+00
-0.1609314921767E+00 -0.1157690877157E+01 -0.2637244777965E+00  0.4105047434603E+00
-0.1680895889497E+00 -0.1156208042844E+01 -0.2648595303055E+00  0.4321052614465E+00
-0.1743325592676E+00 -0.1153353338528E+01 -0.2655371835160E+00  0.4541975371213E+00
-0.1787849263828E+00 -0.1149196821928E+01 -0.2655963536198E+00  0.4764559404124E+00
-0.1804176462322E+00 -0.1143856935371E+01 -0.2648549202674E+00  0.4983880036999E+00
-0.1780276543906E+00 -0.1137508044848E+01 -0.2631071437683E+00  0.5193157913853E+00
-0.1702152384168E+00 -0.1130363212773E+01 -0.2601156941140E+00  0.5383638163562E+00
-0.1553745201884E+00 -0.1122696684350E+01 -0.2556142447167E+00  0.5544503914907E+00
-0.1317047190083E+00 -0.1114914291850E+01 -0.2493238058868E+00  0.5662864265649E+00
-0.9723015769139E-01 -0.1107593392425E+01 -0.2409647136139E+00  0.5723878851510E+00
-0.4982623274271E-01 -0.1101489786572E+01 -0.2302632072942E+00  0.5711099398843E+00
 0.1274518624766E-01 -0.1097529177821E+01 -0.2169568015475E+00  0.5607114472045E+00
 0.9278325643558E-01 -0.1096794093529E+01 -0.2008021704108E+00  0.5394594346840E+00
 0.1925644895882E+00 -0.1100505525785E+01 -0.1815882099451E+00  0.5057840114048E+00
 0.3142051430039E+00 -0.1109984346980E+01 -0.1591558431668E+00  0.4584909499095E+00
 0.4594607483167E+00 -0.1126586291000E+01 -0.1334251105249E+00  0.3970291553968E+00
 0.6294399861546E+00 -0.1151565327201E+01 -0.1044250697654E+00  0.3217850366663E+00
 0.8241333942471E+00 -0.1185777119917E+01 -0.7232874621183E-01  0.2343235909944E+00
 0.1041754842953E+01 -0.1229242435890E+01 -0.3749751914626E-01  0.1374494875027E+00
 0.1278050435659E+01 -0.1280657012402E+01 -0.5213153564597E-03  0.3493271670730E-01
 0.1525848272611E+01 -0.1336990357818E+01  0.3777158352140E-01 -0.6926243818501E-01
 0.1775387688855E+01 -0.1393626217822E+01  0.7635229534436E-01 -0.1721747122274E+00
 0.2015616363302E+01 -0.1445372453579E+01  0.1140487836440E+00 -0.2725435031632E+00
-0.2686705731582E+00 -0.1114480274574E+01 -0.2766301736685E+00 -0.7375546471475E-01
-0.2518402134285E+00 -0.1122673441580E+01 -0.2749027350980E+00 -0.2028764684589E-01
-0.2362096188038E+00 -0.1131175888149E+01 -0.2734771054656E+00  0.2734170895288E-01
-0.2213018720365E+00 -0.1140262276064E+01 -0.2723128336778E+00  0.6940322104408E-01
-0.2069302305105E+00 -0.1149998792109E+01 -0.2713858085679E+00  0.1064317022967E+00
-0.1931734598886E+00 -0.1160262911829E+01 -0.2706872783772E+00  0.1390854453296E+00
-0.1802973082823E+00 -0.1170801216909E+01 -0.2702197090649E+00  0.1680427298514E+00
-0.1686594001426E+00 -0.1181296722577E+01 -0.2699912285670E+00  0.1939447053900E+00
-0.1586257606668E+00 -0.1191424849200E+01 -0.2700101259968E+00  0.2173747924662E+00
-0.1505116800170E+00 -0.1200889528282E+01 -0.2702802456873E+00  0.2388591286557E+00
-0.1445474406248E+00 -0.1209440347057E+01 -0.2707975615715E+00  0.2588748100090E+00
-0.1408632493733E+00 -0.1216875997120E+01 -0.2715478533450E+00  0.2778577644289E+00
-0.1394861744493E+00 -0.1223039955006E+01 -0.2725052299518E+00  0.2962068698243E+00
-0.1403429373508E+00 -0.1227813051405E+01 -0.2736312018285E+00  0.3142836619177E+00
-0.1432641867714E+00 -0.1231105961029E+01 -0.2748740336560E+00  0.3324081556094E+00
-0.1479875368682E+00 -0.1232853328404E+01 -0.2761681771696E+00  0.3508515742318E+00
-0.1541579236989E+00 -0.1233010321656E+01 -0.2774336532050E+00  0.3698265679958E+00
-0.1613243711360E+00 -0.1231551952367E+01 -0.2785752688517E+00  0.3894745934604E+00
-0.1689333022189E+00 -0.1228475266639E+01 -0.2794817179361E+00  0.4098515401188E+00
-0.1763181157224E+00 -0.1223804415878E+01 -0.2800245104927E+00  0.4309108603180E+00
-0.1826852163452E+00 -0.1217598782222E+01 -0.2800568038866E+00  0.4524840904624E+00
-0.1870975949597E+00 -0.1209963915734E+01 -0.2794123063023E+00  0.4742610064102E+00
-0.1884565278129E+00 -0.1201065275875E+01 -0.2779043648786E+00  0.4957692877539E+00
-0.1854823195513E+00 -0.1191137470766E+01 -0.2753239621660E+00  0.5163568514708E+00
-0.1766940555376E+00 -0.1180469217595E+01 -0.2714326586713E+00  0.5351810917796E+00
-0.1604028660239E+00 -0.1169425038788E+01 -0.2659655849256E+00  0.5512003860818E+00
-0.1347265415953E+00 -0.1158511768264E+01 -0.2586476658260E+00  0.5631714751835E+00
-0.9761516649218E-01 -0.1148415227822E+01 -0.2492060825764E+00  0.5696608060008E+00
-0.4688604203281E-01 -0.1140003352097E+01 -0.2373778823632E+00  0.5690783458749E+00
 0.1972786253591E-01 -0.1134310961570E+01 -0.2229166231284E+00  0.5597419787911E+00
 0.1045077748334E+00 -0.1132515141188E+01 -0.2056014763345E+00  0.5399807633495E+00
 0.2096436323164E+00 -0.1135899481658E+01 -0.1852511726289E+00  0.5082848250407E+00
 0.3370732190447E+00 -0.1145793151110E+01 -0.1617439888233E+00  0.4635050812251E+00
 0.4882623913486E+00 -0.1163482217084E+01 -0.1350439671593E+00  0.4050953432426E+00
 0.6639164907333E+00 -0.1190057430252E+01 -0.1052281894718E+00  0.3333660446873E+00
 0.8635462387806E+00 -0.1226126985786E+01 -0.7251615048170E-01  0.2496724199767E+00
 0.1084903010693E+01 -0.1271428400505E+01 -0.3730507851825E-01  0.1564266149284E+00
 0.1323448518381E+01 -0.1324437256611E+01 -0.1977476491007E-03  0.5680981351434E-01
 0.1572100332312E+01 -0.1382127632165E+01  0.3799454059558E-01 -0.4589933853277E-01
 0.1821592105268E+01 -0.1440192973865E+01  0.7627982741730E-01 -0.1492177195559E+00
 0.2061350901538E+01 -0.1493713656988E+01  0.1135274506016E+00 -0.2519527807250E+00
-0.2899010763112E+00 -0.1204128397807E+01 -0.2988058992762E+00 -0.7048989018626E-01
-0.2708902160022E+00 -0.1213198976810E+01 -0.2968178429855E+00 -0.1696716206741E-01
-0.2531006219792E+00 -0.1222450892504E+01 -0.2951103072942E+00  0.3083373247811E-01
-0.2361804029653E+00 -0.1232081032138E+01 -0.2936522913965E+00  0.7311473963188E-01
-0.2200160391710E+00 -0.1242112618830E+01 -0.2924257359576E+00  0.1103390927013E+00
-0.2047153818004E+00 -0.1252408787600E+01 -0.2914248382227E+00  0.1431086277094E+00
-0.1905439494272E+00 -0.1262719291251E+01 -0.2906526524667E+00  0.1720685137552E+00
-0.1778443967540E+00 -0.1272737367718E+01 -0.2901163572176E+00  0.1978493103758E+00
-0.1669632443325E+00 -0.1282148864728E+01 -0.2898224261308E+00  0.2210403891194E+00
-0.1581969272165E+00 -0.1290665333394E+01 -0.2897724564401E+00  0.2421832023620E+00
-0.1517589867388E+00 -0.1298040770364E+01 -0.2899599557414E+00  0.2617735809948E+00
-0.1477644507491E+00 -0.1304075883918E+01 -0.2903680712603E+00  0.2802657385075E+00
-0.1462254760994E+00 -0.1308614873328E+01 -0.2909680742213E+00  0.2980744464635E+00
-0.1470527859551E+00 -0.1311538972152E+01 -0.2917183559684E+00  0.3155742003400E+00
-0.1500587619945E+00 -0.1312759741545E+01 -0.2925637050675E+00  0.3330953633955E+00
-0.1549594666324E+00 -0.1312213938622E+01 -0.2934346854233E+00  0.3509176781425E+00
-0.1613740648835E+00 -0.1309860885491E+01 -0.2942469944595E+00  0.3692614721499E+00
-0.1688206540552E+00 -0.1305682868467E+01 -0.2949007088989E+00  0.3882761153789E+00
-0.1767086436929E+00 -0.1299688567926E+01 -0.2952794467238E+00  0.4080267211512E+00
-0.1843274365475E+00 -0.1291919659093E+01 -0.2952494235277E+00  0.4284783608579E+00
-0.1908317439029E+00 -0.1282460700123E+01 -0.2946584931959E+00  0.4494776706363E+00
-0.1952248255121E+00 -0.1271451754341E+01 -0.2933353203416E+00  0.4707340125209E+00
-0.1963404300344E+00 -0.1259103743605E+01 -0.2910888390655E+00  0.4918000277647E+00
-0.1928246520517E+00 -0.1245709284818E+01 -0.2877067916612E+00  0.5120547392310E+00
-0.1831179391323E+00 -0.1231629811073E+01 -0.2829495542574E+00  0.5306937108887E+00
-0.1654510203795E+00 -0.1217316456666E+01 -0.2765534995300E+00  0.5467203416152E+00
-0.1378628314448E+00 -0.1203372480472E+01 -0.2682470663806E+00  0.5589415837537E+00
-0.9823179595860E-01 -0.1190586322805E+01 -0.2577636275937E+00  0.5659776279158E+00
-0.4431968316207E-01 -0.1179930497860E+01 -0.2448500398530E+00  0.5662943180864E+00
 0.2616718559657E-01 -0.1172539354483E+01 -0.2292744371936E+00  0.5582658323199E+00
 0.1154911419306E+00 -0.1169673055520E+01 -0.2108363858596E+00  0.5402745841367E+00
 0.2257580878105E+00 -0.1172665574254E+01 -0.1893815001107E+00  0.5108538583901E+00
 0.3587373176580E+00 -0.1182844252697E+01 -0.1648213894639E+00  0.4688732767455E+00
 0.5156281375335E+00 -0.1201422056058E+01 -0.1371587857487E+00  0.4137565095573E+00
 0.6967747756326E+00 -0.1229335818613E+01 -0.1065122101831E+00  0.3456999738256E+00
 0.9012716126244E+00 -0.1266973160938E+01 -0.7314031075253E-01  0.2658201955813E+00
 0.1126486107066E+01 -0.1313832868245E+01 -0.3746935279420E-01  0.1761345283388E+00
 0.1367662364432E+01 -0.1368223977471E+01 -0.1123226093897E-03  0.7928445638276E-01
 0.1617798091037E+01 -0.1427137843768E+01  0.3813205002187E-01 -0.2202780185264E-01
 0.1867997607554E+01 -0.1486479237878E+01  0.7630367507229E-01 -0.1257220392036E+00
 0.2108123839433E+01 -0.1541540164140E+01  0.1133167367471E+00 -0.2307551457035E+00
-0.3111103512383E+00 -0.1293569917958E+01 -0.3209360586215E+00 -0.6688742393974E-01
-0.2899662915332E+00 -0.1303499335996E+01 -0.3186931302546E+00 -0.1333954819035E-01
-0.2700448909884E+00 -0.1313494867381E+01 -0.3167079563933E+00  0.3456874737421E-01
-0.2511142896789E+00 -0.1323678549962E+01 -0.3149585726213E+00  0.7698290139235E-01
-0.2331365214590E+00 -0.1334028821478E+01 -0.3134330732579E+00  0.1143062664196E+00
-0.2162555001924E+00 -0.1344389913596E+01 -0.3121290874088E+00  0.1470926767765E+00
-0.2007447503076E+00 -0.1354509865721E+01 -0.3110509278408E+00  0.1759586890724E+00
-0.1869389288598E+00 -0.1364088599781E+01 -0.3102055103506E+00  0.2015256409906E+00
-0.1751696496467E+00 -0.1372820764178E+01 -0.3095980873783E+00  0.2243884515727E+00
-0.1657167376287E+00 -0.1380425567152E+01 -0.3092284655640E+00  0.2451028580327E+00
-0.1587774828771E+00 -0.1386662525098E+01 -0.3090880062009E+00  0.2641824396754E+00
-0.1544511891707E+00 -0.1391335960246E+01 -0.3091574344902E+00  0.2820990158367E+00
-0.1527341245756E+00 -0.1394292454281E+01 -0.3094053203818E+00  0.2992829135665E+00
-0.1535200185495E+00 -0.1395415119696E+01 -0.3097870322654E+00  0.3161215526449E+00
-0.1566022187698E+00 -0.1394617583987E+01 -0.3102439651744E+00  0.3329558879063E+00
-0.1616748245175E+00 -0.1391839565834E+01 -0.3107028827001E+00  0.3500747253580E+00
-0.1683312295205E+00 -0.1387045057767E+01 -0.3110752620930E+00  0.3677069824326E+00
-0.1760590343315E+00 -0.1380223803892E+01 -0.3112565722827E+00  0.3860113205664E+00
-0.1842314981201E+00 -0.1371395954848E+01 -0.3111254952297E+00  0.4050640212334E+00
-0.1920953199211E+00 -0.1360620160433E+01 -0.3105431006982E+00  0.4248443702394E+00
-0.1987552240798E+00 -0.1348005157118E+01 -0.3093520808493E+00  0.4452173961519E+00
-0.2031568226625E+00 -0.1333723999700E+01 -0.3073761690527E+00  0.4659160212217E+00
-0.2040687241342E+00 -0.1318030943150E+01 -0.3044199379930E+00  0.4865224166290E+00
-0.2000653876318E+00 -0.1301273807376E+01 -0.3002678434759E+00  0.5064516772435E+00
-0.1895112232763E+00 -0.1283883278362E+01 -0.2946789047187E+00  0.5249424988926E+00
-0.1705590233931E+00 -0.1266393008186E+01 -0.2873904105982E+00  0.5410478823876E+00
-0.1411710777771E+00 -0.1249497832010E+01 -0.2781337861019E+00  0.5536289087739E+00
-0.9915599435600E-01 -0.1234082966125E+01 -0.2666477960696E+00  0.5613621861822E+00
-0.4222129197812E-01 -0.1221218423186E+01 -0.2526879467981E+00  0.5627698096474E+00
 0.3195312925378E-01 -0.1212129698327E+01 -0.2360353173319E+00  0.5562787867700E+00
 0.1256126400470E+00 -0.1208150774016E+01 -0.2165076300199E+00  0.5403157223960E+00
 0.2407853112937E+00 -0.1210657206871E+01 -0.1939743820060E+00  0.5134404746576E+00
 0.3790857731775E+00 -0.1220968819938E+01 -0.1683766118612E+00  0.4745166800822E+00
 0.5414725378650E+00 -0.1240226741668E+01 -0.1397508428430E+00  0.4229068189586E+00
 0.7279701296318E+00 -0.1269226402454E+01 -0.1082512561775E+00  0.3586616189623E+00
 0.9373135445279E+00 -0.1308161408291E+01 -0.7416957385789E-01  0.2826373754424E+00
 0.1166549780585E+01 -0.1356330485795E+01 -0.3795614160767E-01  0.1964608439008E+00
 0.1410748898675E+01 -0.1411912188768E+01 -0.2326580220108E-03  0.1022794179733E+00
 0.1662971260554E+01 -0.1471910773339E+01  0.3821209801234E-01  0.2297163193918E-02
 0.1914609078179E+01 -0.1532379501522E+01  0.7644591647049E-01 -0.1017617926190E+00
 0.2155927606383E+01 -0.1588795148233E+01  0.1134264933202E+00 -0.2090249729460E+00
-0.3322962520255E+00 -0.1382831406775E+01 -0.3430255368716E+00 -0.6295585764725E-01
-0.3090520203873E+00 -0.1393607292834E+01 -0.3405318677185E+00 -0.9409252753338E-02
-0.2870155031298E+00 -0.1404344766936E+01 -0.3382720590539E+00  0.3854762683320E-01
-0.2660704450062E+00 -0.1415093687700E+01 -0.3362328315515E+00  0.8101406537678E-01
-0.2462561034383E+00 -0.1425786435703E+01 -0.3344085128112E+00  0.1183438583781E+00
-0.2277581450412E+00 -0.1436244682803E+01 -0.3328005705279E+00  0.1510507597825E+00
-0.2108650660364E+00 -0.1446210679330E+01 -0.3314151540117E+00  0.1797274313974E+00
-0.1959096118769E+00 -0.1455387977113E+01 -0.3302595227193E+00  0.2049879724429E+00
-0.1832126404179E+00 -0.1463478567524E+01 -0.3293382464960E+00  0.2274331043559E+00
-0.1730394842976E+00 -0.1470209330237E+01 -0.3286497678043E+00  0.2476323153605E+00
-0.1655717130259E+00 -0.1475346319931E+01 -0.3281836114817E+00  0.2661162245305E+00
-0.1608924613667E+00 -0.1478698981310E+01 -0.3279182934216E+00  0.2833736696638E+00
-0.1589812386758E+00 -0.1480117871599E+01 -0.3278198269398E+00  0.2998501642958E+00
-0.1597138899272E+00 -0.1479489401043E+01 -0.3278406630793E+00  0.3159459195356E+00
-0.1628640736639E+00 -0.1476730370729E+01 -0.3279188937650E+00  0.3320125990955E+00
-0.1681036491758E+00 -0.1471784197507E+01 -0.3279775742238E+00  0.3483484827054E+00
-0.1750004082353E+00 -0.1464619889817E+01 -0.3279240644968E+00  0.3651918545486E+00
-0.1830120946870E+00 -0.1455234590793E+01 -0.3276493419784E+00  0.3827119062110E+00
-0.1914769289400E+00 -0.1443659439296E+01 -0.3270272785204E+00  0.4009978814966E+00
-0.1996004745175E+00 -0.1429969117772E+01 -0.3259139233144E+00  0.4200457066388E+00
-0.2064394597656E+00 -0.1414295084975E+01 -0.3241469137784E+00  0.4397418997734E+00
-0.2108842001449E+00 -0.1396841357998E+01 -0.3215451164200E+00  0.4598466923523E+00
-0.2116407716533E+00 -0.1377902863416E+01 -0.3179087317511E+00  0.4799760994471E+00
-0.2072147103490E+00 -0.1357879295373E+01 -0.3130188058088E+00  0.4995859731446E+00
-0.1958970056668E+00 -0.1337266663324E+01 -0.3066327383674E+00  0.5179628022591E+00
-0.1757648247418E+00 -0.1316676683973E+01 -0.2984883061908E+00  0.5342134456298E+00
-0.1447056207820E+00 -0.1296890734602E+01 -0.2883192753730E+00  0.5472566607371E+00
-0.1004592616492E+00 -0.1278885071617E+01 -0.2758688707640E+00  0.5558277184718E+00
-0.4067900298858E-01 -0.1263820704319E+01 -0.2608999453492E+00  0.5585048793762E+00
 0.3698341693141E-01 -0.1253007166662E+01 -0.2432047535702E+00  0.5537641394354E+00
 0.1347610330800E+00 -0.1247845177514E+01 -0.2226168322040E+00  0.5400670936732E+00
 0.2546135051968E+00 -0.1249746211864E+01 -0.1990265442992E+00  0.5159843156774E+00
 0.3980177169677E+00 -0.1260020696093E+01 -0.1724005983941E+00  0.4803508054766E+00
 0.5657188389442E+00 -0.1279742863968E+01 -0.1428048071328E+00  0.4324405833522E+00
 0.7574616118228E+00 -0.1309581350129E+01 -0.1104239493068E+00  0.3721323459752E+00
 0.9716719552173E+00 -0.1349561130094E+01 -0.7557783610151E-01  0.3000063330962E+00
 0.1205126690883E+01 -0.1398812873667E+01 -0.3873723713398E-01  0.2173059086980E+00
 0.1452749895371E+01 -0.1455408120537E+01 -0.5316450412703E-03  0.1257228958000E+00
 0.1707645001848E+01 -0.1516355052725E+01  0.3825799039466E-01  0.2702032616547E-01
 0.1961431179798E+01 -0.1577814398250E+01  0.7672335745291E-01 -0.7739759975063E-01
 0.2204734295982E+01 -0.1635428159639E+01  0.1138612289653E+00 -0.1868188331223E+00
-0.3534572356497E+00 -0.1471939041055E+01 -0.3650792607810E+00 -0.5870040017228E-01
-0.3281325808812E+00 -0.1483554788418E+01 -0.3623374792590E+00 -0.5178697353441E-02
-0.3039875331557E+00 -0.1495036575287E+01 -0.3598048270500E+00  0.4277244702455E-01
-0.2810175986568E+00 -0.1506364467285E+01 -0.3574764185152E+00  0.8521502838605E-01
-0.2593405022842E+00 -0.1517423902923E+01 -0.3553528863366E+00  0.1224624514670E+00
-0.2391883553750E+00 -0.1528011064375E+01 -0.3534398892167E+00  0.1549958231407E+00
-0.2208705289765E+00 -0.1537859041725E+01 -0.3517459193817E+00  0.1833887679675E+00
-0.2047231353269E+00 -0.1546672439096E+01 -0.3502791201042E+00  0.2082506281647E+00
-0.1910599586316E+00 -0.1554159356739E+01 -0.3490438682752E+00  0.2301887492866E+00
-0.1801337614778E+00 -0.1560054408660E+01 -0.3480376392138E+00  0.2497862858140E+00
-0.1721108915919E+00 -0.1564131173030E+01 -0.3472484180988E+00  0.2675904529239E+00
-0.1670579136192E+00 -0.1566205671557E+01 -0.3466527222008E+00  0.2841066145977E+00
-0.1649367804932E+00 -0.1566133977434E+01 -0.3462141567445E+00  0.2997950746198E+00
-0.1656046481230E+00 -0.1563807160992E+01 -0.3458823669770E+00  0.3150686018920E+00
-0.1688149348047E+00 -0.1559146226814E+01 -0.3455922374736E+00  0.3302895487773E+00
-0.1742171146086E+00 -0.1552098909651E+01 -0.3452632099967E+00  0.3457659256213E+00
-0.1813537142171E+00 -0.1542639407686E+01 -0.3447986295185E+00  0.3617459997238E+00
-0.1896534673616E+00 -0.1530771967858E+01 -0.3440850921712E+00  0.3784105637697E+00
-0.1984209093079E+00 -0.1516537929732E+01 -0.3429917729190E+00  0.3958634385388E+00
-0.2068223029390E+00 -0.1500026694000E+01 -0.3413698044747E+00  0.4141194194899E+00
-0.2138686450927E+00 -0.1481390554704E+01 -0.3390518450116E+00  0.4330893923951E+00
-0.2183975623020E+00 -0.1460861988222E+01 -0.3358519151094E+00  0.4525644056102E+00
-0.2190554161349E+00 -0.1438773437657E+01 -0.3315657756990E+00  0.4721983720685E+00
-0.2142816606508E+00 -0.1415572662913E+01 -0.3259708695702E+00  0.4914923143739E+00
-0.2022964883851E+00 -0.1391816649280E+01 -0.3188226322839E+00  0.5097849034320E+00
-0.1811035885148E+00 -0.1368190420846E+01 -0.3098588064894E+00  0.5262408447673E+00
-0.1485169742930E+00 -0.1345556741018E+01 -0.2988147475148E+00  0.5398398494917E+00
-0.1022080748295E+00 -0.1324977345651E+01 -0.2854370883494E+00  0.5493778277590E+00
-0.3977460080711E-01 -0.1307698374616E+01 -0.2694945991004E+00  0.5534888990996E+00
 0.4116348097281E-01 -0.1295107574027E+01 -0.2507888223479E+00  0.5506941540313E+00
 0.1428339551304E+00 -0.1288667380521E+01 -0.2291666884930E+00  0.5394813194037E+00
 0.2671402873610E+00 -0.1289822346839E+01 -0.2045364149434E+00  0.5184169013123E+00
 0.4154410117668E+00 -0.1299874862737E+01 -0.1768867728298E+00  0.4862867871117E+00
 0.5882964461176E+00 -0.1319840069461E+01 -0.1463087268488E+00  0.4422527186131E+00
 0.7852095810928E+00 -0.1350275694326E+01 -0.1130132243308E+00  0.3859993889254E+00
 0.1004341294008E+01 -0.1391061697499E+01 -0.7734408185062E-01  0.3178191289013E+00
 0.1242237814402E+01 -0.1441186635609E+01 -0.3978976483439E-01  0.2385796151368E+00
 0.1493694739536E+01 -0.1498630363394E+01 -0.9871247863232E-03  0.1495481839478E+00
 0.1751838297190E+01 -0.1560395435798E+01  0.3828857284899E-01  0.5208979790702E-01
 0.2008463847635E+01 -0.1622720792597E+01  0.7714861215721E-01 -0.5267970271717E-01
 0.2254506548491E+01 -0.1681392697058E+01  0.1146227719946E+00 -0.1641850487712E+00
-0.3745922517389E+00 -0.1560918600210E+01 -0.3871021761581E+00 -0.5412388074145E-01
-0.3471944908229E+00 -0.1573372990468E+01 -0.3841135019820E+00 -0.6483919156148E-03
-0.3209377523338E+00 -0.1585605365919E+01 -0.3813086293325E+00  0.4724648434116E-01
-0.2959260543211E+00 -0.1597528083235E+01 -0.3786908331541E+00  0.8959309565256E-01
-0.2723565906537E+00 -0.1608979013311E+01 -0.3762671263997E+00  0.1266726543542E+00
-0.2505118463924E+00 -0.1619726498768E+01 -0.3740476746059E+00  0.1589406236297E+00
-0.2307270844725E+00 -0.1629491711218E+01 -0.3720437646820E+00  0.1869565415428E+00
-0.2133463303727E+00 -0.1637978191281E+01 -0.3702649098481E+00  0.2113278852842E+00
-0.1986794988465E+00 -0.1644899178236E+01 -0.3687157409109E+00  0.2326699359447E+00
-0.1869684544633E+00 -0.1649997192479E+01 -0.3673931348630E+00  0.2515798320519E+00
-0.1783647258579E+00 -0.1653054341346E+01 -0.3662838188989E+00  0.2686211866298E+00
-0.1729178969695E+00 -0.1653894659692E+01 -0.3653625167766E+00  0.2843154873715E+00
-0.1705716026130E+00 -0.1652381241989E+01 -0.3645905743531E+00  0.2991374023329E+00
-0.1711635702957E+00 -0.1648411129703E+01 -0.3639149454226E+00  0.3135119177475E+00
-0.1744265203524E+00 -0.1641910482850E+01 -0.3632674060536E+00  0.3278119043327E+00
-0.1799875227650E+00 -0.1632831855789E+01 -0.3625638811135E+00  0.3423551881390E+00
-0.1873643397759E+00 -0.1621154640732E+01 -0.3617038014913E+00  0.3574004523985E+00
-0.1959577435076E+00 -0.1606889664298E+01 -0.3605694869340E+00  0.3731409683146E+00
-0.2050401731264E+00 -0.1590087387997E+01 -0.3590255175745E+00  0.3896965422005E+00
-0.2137406840782E+00 -0.1570850264886E+01 -0.3569181951113E+00  0.4071028452752E+00
-0.2210270708197E+00 -0.1549349133412E+01 -0.3540752461226E+00  0.4252977689289E+00
-0.2256871274002E+00 -0.1525841984222E+01 -0.3503058275443E+00  0.4441064306421E+00
-0.2263105240205E+00 -0.1500695163382E+01 -0.3454011426274E+00  0.4632244311421E+00
-0.2212736004559E+00 -0.1474400245502E+01 -0.3391347742451E+00  0.4822021155216E+00
-0.2087283839712E+00 -0.1447570464288E+01 -0.3312597745879E+00  0.5004344847012E+00
-0.1866070720290E+00 -0.1420959129901E+01 -0.3215132451770E+00  0.5171478711896E+00
-0.1526512303725E+00 -0.1395505155136E+01 -0.3096312817155E+00  0.5313860465022E+00
-0.1044633993599E+00 -0.1372350405549E+01 -0.2953627653830E+00  0.5420074246354E+00
-0.3958325182287E-01 -0.1352820934012E+01 -0.2784808413168E+00  0.5477016821791E+00
 0.4440636999384E-01 -0.1338378108577E+01 -0.2587943515730E+00  0.5470313484146E+00
 0.1497373121761E+00 -0.1330542976670E+01 -0.2361611364179E+00  0.5385020850239E+00
 0.2782714902635E+00 -0.1330792834575E+01 -0.2105042719991E+00  0.5206628775507E+00
 0.4312704877973E+00 -0.1340426122855E+01 -0.1818311297211E+00  0.4922322339069E+00
 0.6091388549911E+00 -0.1360408916226E+01 -0.1502540144860E+00  0.4522388781136E+00
 0.8111738551106E+00 -0.1391204623327E+01 -0.1160061553718E+00  0.4001549834810E+00
 0.1035309800234E+01 -0.1432569854297E+01 -0.7945201199662E-01  0.3359755911476E+00
 0.1277893446888E+01 -0.1483372071262E+01 -0.4109572548723E-01  0.2601993796350E+00
 0.1533601910760E+01 -0.1541509533087E+01 -0.1581524489045E-02  0.1736935263847E+00
 0.1795563039694E+01 -0.1603969836029E+01  0.3831864130383E-01  0.7745805297350E-01
 0.2055701540085E+01 -0.1667046409289E+01  0.7773102731757E-01 -0.2765117461083E-01
 0.2305203500571E+01 -0.1726645577444E+01  0.1157115863497E+00 -0.1411683124564E+00
-0.3957006526095E+00 -0.1649795469527E+01 -0.4090992305234E+00 -0.4922691676258E-01
-0.3662253863772E+00 -0.1663092345776E+01 -0.4058635524785E+00  0.4182965590496E-02
-0.3378443620452E+00 -0.1676085354851E+01 -0.4027859493811E+00  0.5197420501300E-01
-0.3107674613077E+00 -0.1688620912301E+01 -0.3998776806805E+00  0.9415613025629E-01
-0.2852722531033E+00 -0.1700488854622E+01 -0.3971522274630E+00  0.1309851579711E+00
-0.2616949544996E+00 -0.1711427795571E+01 -0.3946245558944E+00  0.1628977470744E+00
-0.2404010018519E+00 -0.1721144764385E+01 -0.3923091590932E+00  0.1904443718611E+00
-0.2217462180721E+00 -0.1729340567415E+01 -0.3902173629121E+00  0.2142338841206E+00
-0.2060393716111E+00 -0.1735732908635E+01 -0.3883544618362E+00  0.2348912381589E+00
-0.1935128057581E+00 -0.1740072547862E+01 -0.3867170764866E+00  0.2530282325796E+00
-0.1843034795250E+00 -0.1742151197150E+01 -0.3852909410762E+00  0.2692249012041E+00
-0.1784435257335E+00 -0.1741802357681E+01 -0.3840491824056E+00  0.2840185308966E+00
-0.1758574991210E+00 -0.1738897635400E+01 -0.3829510326106E+00  0.2978976902900E+00
-0.1763630021105E+00 -0.1733341311204E+01 -0.3819408683542E+00  0.3112991259586E+00
-0.1796716800860E+00 -0.1725065577128E+01 -0.3809474571194E+00  0.3246058930016E+00
-0.1853882993161E+00 -0.1714028192632E+01 -0.3798833040503E+00  0.3381455285878E+00
-0.1930065169241E+00 -0.1700213583241E+01 -0.3786440256752E+00  0.3521873598244E+00
-0.2019003884531E+00 -0.1683638411882E+01 -0.3771077656864E+00  0.3669377968641E+00
-0.2113120748533E+00 -0.1664360907729E+01 -0.3751346021064E+00  0.3825338100442E+00
-0.2203357681988E+00 -0.1642494580636E+01 -0.3725660753186E+00  0.3990337080155E+00
-0.2278988472875E+00 -0.1618226145552E+01 -0.3692250040698E+00  0.4164047666670E+00
-0.2327423741501E+00 -0.1591835750615E+01 -0.3649156303906E+00  0.4345091565152E+00
-0.2334025551138E+00 -0.1563719604452E+01 -0.3594244372690E+00  0.4530876886636E+00
-0.2281957149426E+00 -0.1534408433748E+01 -0.3525208349910E+00  0.4717439321635E+00
-0.2152083662110E+00 -0.1504566642071E+01 -0.3439550067817E+00  0.4899331554439E+00
-0.1923030580658E+00 -0.1475010565370E+01 -0.3334627296562E+00  0.5069469483826E+00
-0.1571495257146E+00 -0.1446749967368E+01 -0.3207799033966E+00  0.5218961768926E+00
-0.1072802677866E+00 -0.1421001709630E+01 -0.3056564000379E+00  0.5337036610655E+00
-0.4017329971075E-01 -0.1399167163312E+01 -0.2878680968941E+00  0.5411145458710E+00
 0.4663261335804E-01 -0.1382777879962E+01 -0.2672290573028E+00  0.5427296395061E+00
 0.1553846901687E+00 -0.1373412141805E+01 -0.2436054939574E+00  0.5370652680099E+00
 0.2879200523802E+00 -0.1372581851617E+01 -0.2169323630799E+00  0.5226409577899E+00
 0.4454263821852E+00 -0.1381587881109E+01 -0.1872323025747E+00  0.4980917507832E+00
 0.6281818920390E+00 -0.1401359005702E+01 -0.1546354250368E+00  0.4622953090684E+00
 0.8353122351991E+00 -0.1432281247392E+01 -0.1193938042176E+00  0.4144953968841E+00
 0.1064558937570E+01 -0.1474007707374E+01 -0.8188975518102E-01  0.3543816759248E+00
 0.1312093768446E+01 -0.1525301962253E+01 -0.4264163939688E-01  0.2820886488277E+00
 0.1572479729030E+01 -0.1583987235872E+01 -0.2301501402665E-02  0.1981017152498E+00
 0.1838823703924E+01 -0.1647026793850E+01  0.3835938258639E-01  0.1030816795506E+00
 0.2103133741407E+01 -0.1710746892283E+01  0.7847737099420E-01 -0.2350492854776E-02
 0.2356784242070E+01 -0.1771146787303E+01  0.1171274926989E+00 -0.1178121638048E+00
-0.4167821148572E+00 -0.1738594650349E+01 -0.4310753594648E+00 -0.4400806176233E-01
-0.3852138294479E+00 -0.1752742634358E+01 -0.4275912991327E+00  0.9318398188463E-02
-0.3546867537503E+00 -0.1766509958664E+01 -0.4242393488044E+00  0.5696124414502E-01
-0.3255145976306E+00 -0.1779678536889E+01 -0.4210386331779E+00  0.9891257957236E-01
-0.2980562360698E+00 -0.1791989782416E+01 -0.4180092099260E+00  0.1354107670639E+00
-0.2727045641735E+00 -0.1803151054143E+01 -0.4151711298499E+00  0.1668796078851E+00
-0.2498588646397E+00 -0.1812853483360E+01 -0.4125424757472E+00  0.1938656059177E+00
-0.2298900412254E+00 -0.1820793900659E+01 -0.4101367944885E+00  0.2169825325102E+00
-0.2131079578160E+00 -0.1826694121482E+01 -0.4079604219388E+00  0.2368671281591E+00
-0.1997364791898E+00 -0.1830313684459E+01 -0.4060100387797E+00  0.2541468445965E+00
-0.1898980392713E+00 -0.1831455097238E+01 -0.4042706333260E+00  0.2694183532512E+00
-0.1836067419936E+00 -0.1829962832169E+01 -0.4027139208334E+00  0.2832344762727E+00
-0.1807672640052E+00 -0.1825718503007E+01 -0.4012971593823E+00  0.2960971686221E+00
-0.1811764051711E+00 -0.1818634866414E+01 -0.3999622602769E+00  0.3084543510243E+00
-0.1845244256258E+00 -0.1808650952854E+01 -0.3986350816362E+00  0.3206987506017E+00
-0.1903939990896E+00 -0.1795730000290E+01 -0.3972248057950E+00  0.3331673040049E+00
-0.1982554893985E+00 -0.1779861148582E+01 -0.3956233334914E+00  0.3461399855582E+00
-0.2074576710929E+00 -0.1761065945811E+01 -0.3937047292475E+00  0.3598367665497E+00
-0.2172144670427E+00 -0.1739408776180E+01 -0.3913246544757E+00  0.3744127081557E+00
-0.2265877941380E+00 -0.1715011903687E+01 -0.3883199453514E+00  0.3899502528031E+00
-0.2344676544289E+00 -0.1688074901644E+01 -0.3845085169442E+00  0.4064481632143E+00
-0.2395517204546E+00 -0.1658896336070E+01 -0.3796896169627E+00  0.4238083664707E+00
-0.2403261703888E+00 -0.1627897839400E+01 -0.3736448075256E+00  0.4418201358283E+00
-0.2350505564732E+00 -0.1595644241430E+01 -0.3661389650364E+00  0.4601439250274E+00
-0.2217485671866E+00 -0.1562845705097E+01 -0.3569188597753E+00  0.4782990258499E+00
-0.1982148361795E+00 -0.1530376103577E+01 -0.3457181931028E+00  0.4956458212506E+00
-0.1620475571933E+00 -0.1499310689588E+01 -0.3322716543074E+00  0.5113653247637E+00
-0.1107074020309E+00 -0.1470936380259E+01 -0.3163287611717E+00  0.5244468416502E+00
-0.4160608880536E-01 -0.1446725834325E+01 -0.2976663890617E+00  0.5336912996991E+00
 0.4777009061084E-01 -0.1428278383825E+01 -0.2761016627571E+00  0.5377353491418E+00
 0.1596968246968E+00 -0.1417229703490E+01 -0.2515065795064E+00  0.5350998577444E+00
 0.2960050528088E+00 -0.1415130072334E+01 -0.2238250072403E+00  0.5242646035696E+00
 0.4578330156991E+00 -0.1423291106717E+01 -0.1930916210810E+00  0.5037671935227E+00
 0.6453622710024E+00 -0.1442617444440E+01 -0.1594510370635E+00  0.4723185108493E+00
 0.8575793464376E+00 -0.1473434828777E+01 -0.1231710983032E+00  0.4289199344581E+00
 0.1092062945347E+01 -0.1515311157721E+01 -0.8464964373613E-01  0.3729480576382E+00
 0.1344829160546E+01 -0.1566920451039E+01 -0.4441825876045E-01  0.3041756756447E+00
 0.1610326825744E+01 -0.1626014914643E+01 -0.3137617826507E-02  0.2227194776642E+00
 0.1881617473729E+01 -0.1689523618609E+01  0.3841877159647E-01  0.1289206573894E+00
 0.2150745909103E+01 -0.1753784239870E+01  0.7939233502954E-01  0.2318658261890E-01
 0.2409210027631E+01 -0.1814859637993E+01  0.1188700796988E+00 -0.9416034957702E-01
-0.4378365759473E+00 -0.1827340780428E+01 -0.4530354780258E+00 -0.3846392546247E-01
-0.4041491409849E+00 -0.1842353033327E+01 -0.4493004415574E+00  0.1476257300073E-01
-0.3714452939583E+00 -0.1856911868050E+01 -0.4456714390427E+00  0.6221438382307E-01
-0.3401411663260E+00 -0.1870735794400E+01 -0.4421753987342E+00  0.1038714894802E+00
-0.3106779966773E+00 -0.1883517425795E+01 -0.4388390910337E+00  0.1399604163676E+00
-0.2835080237598E+00 -0.1894931624548E+01 -0.4356879361538E+00  0.1708984367149E+00
-0.2590675471030E+00 -0.1904652282821E+01 -0.4327439724331E+00  0.1972332624829E+00
-0.2377452858959E+00 -0.1912371430747E+01 -0.4300233497365E+00  0.2195874096990E+00
-0.2198539588718E+00 -0.1917814985970E+01 -0.4275337953391E+00  0.2386118534376E+00
-0.2056096260376E+00 -0.1920752052572E+01 -0.4252723420589E+00  0.2549509707681E+00
-0.1951199880489E+00 -0.1920997282147E+01 -0.4232234603457E+00  0.2692184518509E+00
-0.1883803897952E+00 -0.1918407707956E+01 -0.4213576258289E+00  0.2819824291000E+00
-0.1852747609102E+00 -0.1912876475671E+01 -0.4196302535692E+00  0.2937576618485E+00
-0.1855784168206E+00 -0.1904326034191E+01 -0.4179808964308E+00  0.3050025140858E+00
-0.1889599740714E+00 -0.1892702995488E+01 -0.4163326001156E+00  0.3161186784596E+00
-0.1949803264967E+00 -0.1877976243325E+01 -0.4145913201423E+00  0.3274519555301E+00
-0.2030875020956E+00 -0.1860139163146E+01 -0.4126453391973E+00  0.3392927274065E+00
-0.2126066140961E+00 -0.1839217042372E+01 -0.4103647374086E+00  0.3518746913163E+00
-0.2227256030501E+00 -0.1815278567779E+01 -0.4076008402395E+00  0.3653716550308E+00
-0.2324769367751E+00 -0.1788452171264E+01 -0.4041858276307E+00  0.3798914072160E+00
-0.2407165275735E+00 -0.1758946943066E+01 -0.3999327000874E+00  0.3954660069846E+00
-0.2461022434908E+00 -0.1727075772603E+01 -0.3946356090993E+00  0.4120395493034E+00
-0.2470738862007E+00 -0.1693280904852E+01 -0.3880709639933E+00  0.4294527461528E+00
-0.2418376389716E+00 -0.1658155857455E+01 -0.3799987049477E+00  0.4474263634592E+00
-0.2283571271354E+00 -0.1622450820806E+01 -0.3701615951041E+00  0.4655473156340E+00
-0.2043607364796E+00 -0.1587091485854E+01 -0.3582904498056E+00  0.4832482694919E+00
-0.1673751452216E+00 -0.1553213148057E+01 -0.3441176637834E+00  0.4997835423636E+00
-0.1147868718424E+00 -0.1522167985160E+01 -0.3273909762789E+00  0.5142113069054E+00
-0.4393580114524E-01 -0.1495496389563E+01 -0.3078864427296E+00  0.5253891616860E+00
 0.4775392513108E-01 -0.1474863964978E+01 -0.2854220122225E+00  0.5319880845636E+00
 0.1626011513371E+00 -0.1461965263772E+01 -0.2598728263593E+00  0.5325286977095E+00
 0.3024508989779E+00 -0.1458394350874E+01 -0.2311886938242E+00  0.5254424945491E+00
 0.4684176974592E+00 -0.1465483543758E+01 -0.1994131722312E+00  0.5091577225367E+00
 0.6606164257085E+00 -0.1484127669439E+01 -0.1647022512003E+00  0.4822047674048E+00
 0.8779257219563E+00 -0.1514609451712E+01 -0.1273367478486E+00  0.4433299708440E+00
 0.1117788469120E+01 -0.1556428713337E+01 -0.8772805015067E-01  0.3915889055153E+00
 0.1376080391995E+01 -0.1608182103326E+01 -0.4642034295786E-01  0.3263924653450E+00
 0.1647132531183E+01 -0.1667552873175E+01 -0.4084068459298E-02  0.2474967840896E+00
 0.1923934660605E+01 -0.1731425178561E+01  0.3850189698263E-01  0.1549375722467E+00
 0.2198520561530E+01 -0.1796126083185E+01  0.8047889686821E-01  0.4892573952487E-01
 0.2462445767108E+01 -0.1857751140440E+01  0.1209389271358E+00 -0.7025754346389E-01
-0.4588641787743E+00 -0.1916058161779E+01 -0.4749844751885E+00 -0.3258927640222E-01
-0.4230212502157E+00 -0.1931952178366E+01 -0.4709946927348E+00  0.2052173323807E-01
-0.3881011227586E+00 -0.1947323115246E+01 -0.4670848545609E+00  0.6774152615325E-01
-0.3546215949613E+00 -0.1961826819851E+01 -0.4632896898660E+00  0.1090425024680E+00
-0.3231075426401E+00 -0.1975106685209E+01 -0.4596428524190E+00  0.1446451659968E+00
-0.2940730440947E+00 -0.1986804055577E+01 -0.4561754267320E+00  0.1749662485958E+00
-0.2679941715250E+00 -0.1996574614874E+01 -0.4529137640287E+00  0.2005599615123E+00
-0.2452796867448E+00 -0.2004105177352E+01 -0.4498769795230E+00  0.2220616599617E+00
-0.2262464364173E+00 -0.2009126120101E+01 -0.4470745179655E+00  0.2401393071387E+00
-0.2111029466000E+00 -0.2011417184756E+01 -0.4445040328948E+00  0.2554557221282E+00
-0.1999416784929E+00 -0.2010806712107E+01 -0.4421496847086E+00  0.2686421280102E+00
-0.1927382924985E+00 -0.2007166002646E+01 -0.4399808655851E+00  0.2802817556086E+00
-0.1893549977562E+00 -0.2000401307011E+01 -0.4379512674795E+00  0.2909014979502E+00
-0.1895449157776E+00 -0.1990445975505E+01 -0.4359981847534E+00  0.3009692686428E+00
-0.1929547983019E+00 -0.1977254889189E+01 -0.4340419439660E+00  0.3108948085556E+00
-0.1991241637781E+00 -0.1960802646109E+01 -0.4319853684144E+00  0.3210320063073E+00
-0.2074798001144E+00 -0.1941086268722E+01 -0.4297132201705E+00  0.3316811529672E+00
-0.2173249562653E+00 -0.1918133457953E+01 -0.4270916892078E+00  0.3430895620601E+00
-0.2278240551572E+00 -0.1892015130771E+01 -0.4239678435033E+00  0.3554501553646E+00
-0.2379831737302E+00 -0.1862863041688E+01 -0.4201692493446E+00  0.3688969794881E+00
-0.2466276665308E+00 -0.1830892160530E+01 -0.4155039716036E+00  0.3834968913339E+00
-0.2523794269457E+00 -0.1796425278201E+01 -0.4097609471353E+00  0.3992382607035E+00
-0.2536357588706E+00 -0.1759920092220E+01 -0.4027111762190E+00  0.4160159334603E+00
-0.2485530646756E+00 -0.1721993042104E+01 -0.3941092272285E+00  0.4336141859101E+00
-0.2350377767676E+00 -0.1683428295119E+01 -0.3836932200947E+00  0.4516910173478E+00
-0.2107536930897E+00 -0.1645197394954E+01 -0.3711902231399E+00  0.4697548662305E+00
-0.1731558197733E+00 -0.1608490111073E+01 -0.3563291914790E+00  0.4871366856495E+00
-0.1195537627267E+00 -0.1574719162342E+01 -0.3388545900630E+00  0.5029663124029E+00
-0.4720928121857E-01 -0.1545489485945E+01 -0.3185397581793E+00  0.5161596279169E+00
 0.4652642256867E-01 -0.1522532181145E+01 -0.2952011561140E+00  0.5254215211659E+00
 0.1640314439398E+00 -0.1507603279314E+01 -0.2687143710790E+00  0.5292690796062E+00
 0.3071866506080E+00 -0.1502347437705E+01 -0.2390321609812E+00  0.5260788165259E+00
 0.4771098051688E+00 -0.1508129045927E+01 -0.2062038512244E+00  0.5141596764438E+00
 0.6738795221981E+00 -0.1525848480192E+01 -0.1703937941379E+00  0.4918495531638E+00
 0.8962969979412E+00 -0.1555762932461E+01 -0.1318931888692E+00  0.4576279554577E+00
 0.1141694149224E+01 -0.1597320480068E+01 -0.9112526752667E-01  0.4102207202049E+00
 0.1405818613778E+01 -0.1649051037730E+01 -0.4864648551511E-01  0.3486737501556E+00
 0.1682877093670E+01 -0.1708569408286E+01 -0.5138462999668E-02  0.2723860673642E+00
 0.1965759110774E+01 -0.1772703043151E+01  0.3861121410006E-01  0.1810968268658E+00
 0.2246438164681E+01 -0.1837745314064E+01  0.8173857134152E-01  0.7483321414278E-01
 0.2516460976039E+01 -0.1899792339098E+01  0.1233337292259E+00 -0.4614980894292E-01
-0.4798652244006E+00 -0.2004770800273E+01 -0.4969272123394E+00 -0.2637712703020E-01
-0.4418205591345E+00 -0.2021568239719E+01 -0.4926777671122E+00  0.2660364052012E-01
-0.4046359659830E+00 -0.2037775161344E+01 -0.4884822327443E+00  0.7355166506991E-01
-0.3689308411279E+00 -0.2052985116479E+01 -0.4843831987393E+00  0.1144358445002E+00
-0.3353152688777E+00 -0.2066791765686E+01 -0.4804214140715E+00  0.1494761804505E+00
-0.3043675876151E+00 -0.2078802082550E+01 -0.4766339411353E+00  0.1790947946375E+00
-0.2766060546957E+00 -0.2088652914469E+01 -0.4730518008819E+00  0.2038578402985E+00
-0.2524612245971E+00 -0.2096025852520E+01 -0.4696974224225E+00  0.2244178771300E+00
-0.2322548494972E+00 -0.2100656481160E+01 -0.4665822730840E+00  0.2414628930329E+00
-0.2161877546869E+00 -0.2102336574112E+01 -0.4637048726695E+00  0.2556758782117E+00
-0.2043363136949E+00 -0.2100909940796E+01 -0.4610492577683E+00  0.2677062030668E+00
-0.1966553405922E+00 -0.2096264001580E+01 -0.4585838752678E+00  0.2781519688864E+00
-0.1929842138674E+00 -0.2088319754079E+01 -0.4562608003880E+00  0.2875514184657E+00
-0.1930531018436E+00 -0.2077022663988E+01 -0.4540151599317E+00  0.2963809382688E+00
-0.1964866930098E+00 -0.2062336521656E+01 -0.4517646496649E+00  0.3050571718937E+00
-0.2028036172035E+00 -0.2044241617082E+01 -0.4494090535538E+00  0.3139410642255E+00
-0.2114106488029E+00 -0.2022737872463E+01 -0.4468297109114E+00  0.3233420421083E+00
-0.2215911398630E+00 -0.1997853912321E+01 -0.4438890170512E+00  0.3335206363172E+00
-0.2324886624380E+00 -0.1969660612809E+01 -0.4404298616123E+00  0.3446889464906E+00
-0.2430861871032E+00 -0.1938289972494E+01 -0.4362752384204E+00  0.3570078728091E+00
-0.2521822850832E+00 -0.1903958935767E+01 -0.4312282505959E+00  0.3705802484610E+00
-0.2583669534903E+00 -0.1866995473157E+01 -0.4250724916636E+00  0.3854405077843E+00
-0.2599991180187E+00 -0.1827867248473E+01 -0.4175732795207E+00  0.4015400355972E+00
-0.2551892008825E+00 -0.1787207518613E+01 -0.4084793499859E+00  0.4187295868090E+00
-0.2417894674157E+00 -0.1745828054795E+01 -0.3975235103658E+00  0.4367415833666E+00
-0.2174008485035E+00 -0.1704740017734E+01 -0.3844281789759E+00  0.4551637523669E+00
-0.1794064339390E+00 -0.1665181906454E+01 -0.3689176735760E+00  0.4734072503537E+00
-0.1250358497834E+00 -0.1628622247369E+01 -0.3507316246568E+00  0.4906768844771E+00
-0.5146583507925E-01 -0.1596727565579E+01 -0.3296386850436E+00  0.5059492863023E+00
 0.4403707693854E-01 -0.1571294233986E+01 -0.3054514359612E+00  0.5179640923404E+00
 0.1639275708350E+00 -0.1554143266078E+01 -0.2780431431918E+00  0.5252332112885E+00
 0.3101455127984E+00 -0.1546977892447E+01 -0.2473664796158E+00  0.5260734071202E+00
 0.4838400721581E+00 -0.1551207184119E+01 -0.2134734255732E+00  0.5186663195027E+00
 0.6850846796087E+00 -0.1567753404865E+01 -0.1765337476819E+00  0.5011468709142E+00
 0.9126332615744E+00 -0.1596866079240E+01 -0.1368465655724E+00  0.4717164380527E+00
 0.1163730256136E+01 -0.1637957456026E+01 -0.9484544139128E-01  0.4287612600692E+00
 0.1434005314708E+01 -0.1689500302763E+01 -0.5109899837249E-01  0.3709560522895E+00
 0.1717531883832E+01 -0.1749040231625E+01 -0.6301669652451E-02  0.2973415017882E+00
 0.2007068672265E+01 -0.1813335032043E+01  0.3874672862176E-01  0.2073640134507E+00
 0.2294477961891E+01 -0.1878620056891E+01  0.8317158223942E-01  0.1008752429649E+00
 0.2571230584384E+01 -0.1940958759291E+01  0.1260543668971E+00 -0.2188481570491E-01
-0.5008401325529E+00 -0.2093502456361E+01 -0.5188685255145E+00 -0.1981879980338E-01
-0.4605378169170E+00 -0.2111229004281E+01 -0.5143533719041E+00  0.3301752803017E-01
-0.4210319545996E+00 -0.2128298988177E+01 -0.5098661961530E+00  0.7965485859755E-01
-0.3830441977249E+00 -0.2144243630696E+01 -0.5054575732162E+00  0.1200623022999E+00
-0.3472717860972E+00 -0.2158606213389E+01 -0.5011756073653E+00  0.1544646919104E+00
-0.3143597445639E+00 -0.2170958614772E+01 -0.4970636792740E+00  0.1832954965758E+00
-0.2848706410375E+00 -0.2180918538026E+01 -0.4931578431613E+00  0.2071384545925E+00
-0.2592581138577E+00 -0.2188162758245E+01 -0.4894841817143E+00  0.2266679779984E+00
-0.2378490866716E+00 -0.2192433233317E+01 -0.4860564712405E+00  0.2425953835899E+00
-0.2208360421981E+00 -0.2193535523055E+01 -0.4828743202461E+00  0.2556257440216E+00
-0.2082780322035E+00 -0.2191330954704E+01 -0.4799218045330E+00  0.2664272569504E+00
-0.2001075865607E+00 -0.2185725095083E+01 -0.4771665434390E+00  0.2756126173922E+00
-0.1961399759402E+00 -0.2176655417898E+01 -0.4745590858390E+00  0.2837304929583E+00
-0.1960815857344E+00 -0.2164080734004E+01 -0.4720324709816E+00  0.2912644607206E+00
-0.1995348522010E+00 -0.2147974343478E+01 -0.4695018461320E+00  0.2986366754783E+00
-0.2059980765701E+00 -0.2128322123445E+01 -0.4668640469598E+00  0.3062138358791E+00
-0.2148593696876E+00 -0.2105126041763E+01 -0.4639970892043E+00  0.3143134438249E+00
-0.2253843172304E+00 -0.2078414009779E+01 -0.4607596722678E+00  0.3232085461204E+00
-0.2366985020396E+00 -0.2048254415932E+01 -0.4569905904039E+00  0.3331301674186E+00
-0.2477652931878E+00 -0.2014776218256E+01 -0.4525083090316E+00  0.3442663272101E+00
-0.2573604930000E+00 -0.1978194192454E+01 -0.4471109437533E+00  0.3567566762379E+00
-0.2640465336786E+00 -0.1938836495056E+01 -0.4405766123120E+00  0.3706831718624E+00
-0.2661483387812E+00 -0.1897174965781E+01 -0.4326646673596E+00  0.3860558410522E+00
-0.2617343955929E+00 -0.1853853245882E+01 -0.4231175345999E+00  0.4027946492719E+00
-0.2486060364760E+00 -0.1809704006706E+01 -0.4116620147706E+00  0.4207096584335E+00
-0.2243031846709E+00 -0.1765771485987E+01 -0.3980149400626E+00  0.4394714510863E+00
-0.1861367893246E+00 -0.1723336926042E+01 -0.3818947487639E+00  0.4585752356426E+00
-0.1312532609897E+00 -0.1683919806669E+01 -0.3630346189414E+00  0.4773046822408E+00
-0.5673698857596E-01 -0.1649245364160E+01 -0.3411964756315E+00  0.4947006066908E+00
 0.4024265456210E-01 -0.1621175383324E+01 -0.3161865504640E+00  0.5095396200790E+00
 0.1622353680913E+00 -0.1601600045914E+01 -0.2878729398541E+00  0.5203285913777E+00
 0.3112644787613E+00 -0.1592290105324E+01 -0.2562051291303E+00  0.5253217866055E+00
 0.4885400360742E+00 -0.1594713026160E+01 -0.2212346013138E+00  0.5225674772346E+00
 0.6941623270333E+00 -0.1609830281031E+01 -0.1831335935284E+00  0.5099885114521E+00
 0.9268684611572E+00 -0.1637902168311E+01 -0.1422067435497E+00  0.4854970687350E+00
 0.1183838282470E+01 -0.1678321002415E+01 -0.9889654546272E-01  0.4471284814613E+00
 0.1460592150190E+01 -0.1729511392133E+01 -0.5378384918991E-01  0.3931767635293E+00
 0.1751059460112E+01 -0.1788948049062E+01 -0.7577717903072E-02  0.3223183020115E+00
 0.2047835531475E+01 -0.1853304959385E+01  0.3890611499763E-01  0.2337053846118E+00
 0.2342618602744E+01 -0.1918733756253E+01  0.8477697056159E-01  0.1270177096959E+00
 0.2626735511072E+01 -0.1981230831881E+01  0.1291009377621E+00  0.2488035024600E-02
-0.5217894056764E+00 -0.2182276708358E+01 -0.5408132308655E+00 -0.1290398121108E-01
-0.4791640003488E+00 -0.2200961969663E+01 -0.5360252019899E+00  0.3977406165691E-01
-0.4372714465963E+00 -0.2218925202995E+01 -0.5312393378343E+00  0.8606219901858E-01
-0.3969370945749E+00 -0.2235634841448E+01 -0.5265143950503E+00  0.1259331887063E+00
-0.3589477397098E+00 -0.2250582967086E+01 -0.5219061491361E+00  0.1596219447919E+00
-0.3240175964816E+00 -0.2263305736090E+01 -0.5174646742251E+00  0.1875793600662E+00
-0.2927554238118E+00 -0.2273401711026E+01 -0.5132314346153E+00  0.2104126597372E+00
-0.2656387818486E+00 -0.2280543687747E+01 -0.5092365015074E+00  0.2288230593206E+00
-0.2429994952727E+00 -0.2284481614011E+01 -0.5054962293893E+00  0.2435487660362E+00
-0.2250205459169E+00 -0.2285036987274E+01 -0.5020115141187E+00  0.2553189991295E+00
-0.2117419992439E+00 -0.2282091005761E+01 -0.4987666084333E+00  0.2648214919629E+00
-0.2030723487278E+00 -0.2275569608325E+01 -0.4957283987974E+00  0.2726831715154E+00
-0.1988012848259E+00 -0.2265428576573E+01 -0.4928459796238E+00  0.2794620333608E+00
-0.1986104911995E+00 -0.2251641321011E+01 -0.4900503697444E+00  0.2856473333464E+00
-0.2020799606356E+00 -0.2234191218648E+01 -0.4872542431175E+00  0.2916650819110E+00
-0.2086882908948E+00 -0.2213069554450E+01 -0.4843515762864E+00  0.2978861446529E+00
-0.2178063956773E+00 -0.2188279383530E+01 -0.4812171630122E+00  0.3046347391369E+00
-0.2286843806218E+00 -0.2159846138754E+01 -0.4777061109936E+00  0.3121954143809E+00
-0.2404328883344E+00 -0.2127833122334E+01 -0.4736532091917E+00  0.3208175395295E+00
-0.2519994050875E+00 -0.2092362790134E+01 -0.4688724460311E+00  0.3307161768936E+00
-0.2621412158319E+00 -0.2053643398866E+01 -0.4631569298412E+00  0.3420682848383E+00
-0.2693977766165E+00 -0.2011998055284E+01 -0.4562791731792E+00  0.3550044557108E+00
-0.2720646579162E+00 -0.1967896703284E+01 -0.4479922789156E+00  0.3695951445661E+00
-0.2681727360739E+00 -0.1921986616127E+01 -0.4380318769673E+00  0.3858320103261E+00
-0.2554759102799E+00 -0.1875114318884E+01 -0.4261180521825E+00  0.4036058459840E+00
-0.2314551799687E+00 -0.1828350242042E+01 -0.4119610905409E+00  0.4226737134859E+00
-0.1933492682904E+00 -0.1783012066526E+01 -0.3952722728532E+00  0.4426190304488E+00
-0.1382181198941E+00 -0.1740665129676E+01 -0.3757766555134E+00  0.4628088665641E+00
-0.6304618953505E-01 -0.1703090413477E+01 -0.3532273258659E+00  0.4823527148049E+00
 0.3510737492844E-01 -0.1672215403758E+01 -0.3274216106448E+00  0.5000679011690E+00
 0.1589066500371E+00 -0.1650004094169E+01 -0.2982194932702E+00  0.5144583119258E+00
 0.3104841396678E+00 -0.1638304481701E+01 -0.2655640723639E+00  0.5237150988636E+00
 0.4911416607821E+00 -0.1638657133374E+01 -0.2295030979383E+00  0.5257490833390E+00
 0.7010397031275E+00 -0.1652081083367E+01 -0.1902082788822E+00  0.5182632488540E+00
 0.9389298889392E+00 -0.1678866661817E+01 -0.1479873567807E+00  0.4988695725301E+00
 0.1201950517224E+01 -0.1718402522056E+01 -0.1032904025054E+00  0.4652394870008E+00
 0.1485520683679E+01 -0.1769073937093E+01 -0.5671065152779E-01  0.4152732501219E+00
 0.1783413526487E+01 -0.1828282317974E+01 -0.8973758431205E-02  0.3472720721072E+00
 0.2088026441784E+01 -0.1892602554651E+01  0.3908477800905E-01  0.2600874371895E+00
 0.2390838628178E+01 -0.1958075372403E+01  0.8655265244461E-01  0.1532259496084E+00
 0.2682963188038E+01 -0.2020594332994E+01  0.1324737729828E+00  0.2691757488355E-01
-0.5427135992434E+00 -0.2271117031076E+01 -0.5627661344497E+00 -0.5620757992497E-02
-0.4976901993516E+00 -0.2290794455161E+01 -0.5576969392129E+00  0.4688531239455E-01
-0.4533368500930E+00 -0.2309684162352E+01 -0.5526042107235E+00  0.9278578539978E-01
-0.4105848955371E+00 -0.2327190871040E+01 -0.5475551614747E+00  0.1320603004856E+00
-0.3703136196128E+00 -0.2342754431838E+01 -0.5426136183758E+00  0.1649591253186E+00
-0.3333090689898E+00 -0.2355874726193E+01 -0.5378367670510E+00  0.1919568696509E+00
-0.3002278574982E+00 -0.2366131493082E+01 -0.5332718780625E+00  0.2136904741204E+00
-0.2715718436389E+00 -0.2373194840346E+01 -0.5289533446789E+00  0.2308932405442E+00
-0.2476769113253E+00 -0.2376824810685E+01 -0.5249003522237E+00  0.2443340787770E+00
-0.2287148196331E+00 -0.2376861428303E+01 -0.5211152573525E+00  0.2547685416745E+00
-0.2147045067305E+00 -0.2373208452432E+01 -0.5175825995450E+00  0.2629045951170E+00
-0.2055283261352E+00 -0.2365814640651E+01 -0.5142686010204E+00  0.2693829111995E+00
-0.2009486947948E+00 -0.2354656029204E+01 -0.5111209524160E+00  0.2747695108354E+00
-0.2006215708724E+00 -0.2339721913594E+01 -0.5080687044640E+00  0.2795575617021E+00
-0.2041043006198E+00 -0.2321006286447E+01 -0.5050221249389E+00  0.2841749925123E+00
-0.2108564618508E+00 -0.2298505594169E+01 -0.5018724186825E+00  0.2889949526319E+00
-0.2202333473911E+00 -0.2272222929138E+01 -0.4984912627338E+00  0.2943467083988E+00
-0.2314720175459E+00 -0.2242179371314E+01 -0.4947302851441E+00  0.3005249767834E+00
-0.2436714027897E+00 -0.2208430412474E+01 -0.4904203703606E+00  0.3077965545586E+00
-0.2557670317286E+00 -0.2171088398612E+01 -0.4853710933008E+00  0.3164031173938E+00
-0.2665021566837E+00 -0.2130350543511E+01 -0.4793705471821E+00  0.3265590565245E+00
-0.2743981072774E+00 -0.2086529458033E+01 -0.4721855200982E+00  0.3384443479980E+00
-0.2777260392226E+00 -0.2040086861779E+01 -0.4635625871080E+00  0.3521913243541E+00
-0.2744838559980E+00 -0.1991666598346E+01 -0.4532300976224E+00  0.3678655519617E+00
-0.2623818497608E+00 -0.1942121644807E+01 -0.4409007054835E+00  0.3854415032703E+00
-0.2388444964198E+00 -0.1892541351918E+01 -0.4262771760196E+00  0.4047663932725E+00
-0.2010384756414E+00 -0.1844273131698E+01 -0.4090623275635E+00  0.4255163247059E+00
-0.1459341680213E+00 -0.1798922708167E+01 -0.3889713810337E+00  0.4471469837799E+00
-0.7040845194417E-01 -0.1758323570150E+01 -0.3657464098690E+00  0.4688421640995E+00
 0.2860319156940E-01 -0.1724469119052E+01 -0.3391731905506E+00  0.4894652692605E+00
 0.1538993588998E+00 -0.1699402024969E+01 -0.3091005378198E+00  0.5075213138723E+00
 0.3077486590419E+00 -0.1685057824181E+01 -0.2754618371325E+00  0.5211399880123E+00
 0.4915771220185E+00 -0.1683065802396E+01 -0.2382977396264E+00  0.5280926588075E+00
 0.7056404829749E+00 -0.1694522019046E+01 -0.1977763101613E+00  0.5258559820537E+00
 0.9487377207628E+00 -0.1719767183802E+01 -0.1542058949057E+00  0.5117306974943E+00
 0.1217989592746E+01 -0.1758203363614E+01 -0.1080427557834E+00  0.4830094767539E+00
 0.1508722036429E+01 -0.1808185593390E+01 -0.5989271228466E-01  0.4371819871441E+00
 0.1814538774916E+01 -0.1867039184342E+01 -0.1050008204171E-01  0.3721582192538E+00
 0.2127602835354E+01 -0.1931223542500E+01  0.3927585915592E-01  0.2864766108658E+00
 0.2439116856548E+01 -0.1996639677038E+01  0.8849543722071E-01  0.1794646895804E+00
 0.2739908046600E+01 -0.2059040868743E+01  0.1361734376006E+00  0.5135092200018E-01
-0.5636132944652E+00 -0.2360046889752E+01 -0.5847320455567E+00  0.2044359554151E-02
-0.5161075021631E+00 -0.2380753725528E+01 -0.5793722541715E+00  0.5436473737717E-01
-0.4692104404885E+00 -0.2400606106923E+01 -0.5739633180351E+00  0.9983869519171E-01
-0.4239626838936E+00 -0.2418943603958E+01 -0.5685812660428E+00  0.1384558646518E+00
-0.3813395547668E+00 -0.2435152555788E+01 -0.5632984305048E+00  0.1704872711677E+00
-0.3422017694908E+00 -0.2448696077970E+01 -0.5581795778097E+00  0.1964378595797E+00
-0.3072552585668E+00 -0.2459135730692E+01 -0.5532782060963E+00  0.2169809187834E+00
-0.2770260707131E+00 -0.2466140715693E+01 -0.5486333654566E+00  0.2328874864342E+00
-0.2518526890466E+00 -0.2469483809910E+01 -0.5442673079015E+00  0.2449612331923E+00
-0.2318933106327E+00 -0.2469026633446E+01 -0.5401839968651E+00  0.2539863234187E+00
-0.2171430809632E+00 -0.2464698564970E+01 -0.5363683371791E+00  0.2606915963661E+00
-0.2074557230881E+00 -0.2456473867100E+01 -0.5327859259767E+00  0.2657308130132E+00
-0.2025644436507E+00 -0.2444350900386E+01 -0.5293830766957E+00  0.2696764743934E+00
-0.2020983340038E+00 -0.2428336164042E+01 -0.5260869074486E+00  0.2730236113356E+00
-0.2055918721250E+00 -0.2408434778700E+01 -0.5228053379554E+00  0.2761998345530E+00
-0.2124863527751E+00 -0.2384648044905E+01 -0.5194268872760E+00  0.2795783875429E+00
-0.2221231282766E+00 -0.2356977963556E+01 -0.5158202260529E+00  0.2834916049097E+00
-0.2337287890762E+00 -0.2325439298627E+01 -0.5118336251676E+00  0.2882427118790E+00
-0.2463939517492E+00 -0.2290076909250E+01 -0.5072941797592E+00  0.2941146735061E+00
-0.2590463101133E+00 -0.2250989311134E+01 -0.5020071317299E+00  0.3013749873651E+00
-0.2704197963524E+00 -0.2208358013730E+01 -0.4957555694039E+00  0.3102752248157E+00
-0.2790227262615E+00 -0.2162479510436E+01 -0.4883004546158E+00  0.3210451128903E+00
-0.2831070832687E+00 -0.2113800739003E+01 -0.4793815715976E+00  0.3338799511065E+00
-0.2806427850511E+00 -0.2062954754906E+01 -0.4687195149758E+00  0.3489211308960E+00
-0.2693007312719E+00 -0.2010793218594E+01 -0.4560187967684E+00  0.3662295815027E+00
-0.2464516874418E+00 -0.1958416695125E+01 -0.4409736830844E+00  0.3857463706910E+00
-0.2091908774518E+00 -0.1907195127740E+01 -0.4232772073457E+00  0.4072450700396E+00
-0.1543963518343E+00 -0.1858768638068E+01 -0.4026330039801E+00  0.4302758930406E+00
-0.7882992458669E-01 -0.1815019510285E+01 -0.3787698926185E+00  0.4541037379351E+00
 0.2071019133565E-01 -0.1778006958279E+01 -0.3514593586257E+00  0.4776451663524E+00
 0.1471778698382E+00 -0.1749857161035E+01 -0.3205358630158E+00  0.4994126258870E+00
 0.3030059217399E+00 -0.1732603859263E+01 -0.2859195917652E+00  0.5174784324224E+00
 0.4897787564628E+00 -0.1727981496037E+01 -0.2476405516050E+00  0.5294747292030E+00
 0.7078845191589E+00 -0.1737183829387E+01 -0.2058598651132E+00  0.5326468074277E+00
 0.9562045871929E+00 -0.1760623688503E+01 -0.1608838226594E+00  0.5239730994373E+00
 0.1231867967840E+01 -0.1797734882856E+01 -0.1131733846894E+00  0.5003506509814E+00
 0.1530116395540E+01 -0.1846852048325E+01 -0.6334713150100E-01  0.4588376669919E+00
 0.1844370544020E+01 -0.1905221512180E+01 -0.1217019381348E-01  0.3969313747799E+00
 0.2166520741326E+01 -0.1969169782848E+01  0.3947019228385E-01  0.3128390318049E+00
 0.2487432590991E+01 -0.2034427561517E+01  0.9060100724503E-01  0.2056980474722E+00
 0.2797571934669E+01 -0.2096568328081E+01  0.1402007234068E+00  0.7573355359394E-01
-0.5844890742962E+00 -0.2449089852908E+01 -0.6067157944816E+00  0.1010642953059E-01
-0.5344068792256E+00 -0.2470867136431E+01 -0.6010548120878E+00  0.6222717131532E-01
-0.4848741699930E+00 -0.2491721319879E+01 -0.5953191068453E+00  0.1072349568972E+00
-0.4370450347983E+00 -0.2510924829413E+01 -0.5895939816279E+00  0.1451324747603E+00
-0.3919950927326E+00 -0.2527808928294E+01 -0.5839608129070E+00  0.1762171618847E+00
-0.3506628117177E+00 -0.2541799531637E+01 -0.5784924772912E+00  0.2010313605369E+00
-0.3138046981057E+00 -0.2552441021291E+01 -0.5732491524213E+00  0.2202918329978E+00
-0.2819703578383E+00 -0.2559404014530E+01 -0.5682748829415E+00  0.2348134095794E+00
-0.2554987344775E+00 -0.2562477250067E+01 -0.5635952053072E+00  0.2454388211988E+00
-0.2345314447560E+00 -0.2561547538535E+01 -0.5592158049912E+00  0.2529831765600E+00
-0.2190366015747E+00 -0.2556573334660E+01 -0.5551219955188E+00  0.2581967234199E+00
-0.2088363862680E+00 -0.2547557346053E+01 -0.5512787546789E+00  0.2617454368967E+00
-0.2036325960736E+00 -0.2534522452992E+01 -0.5476310179734E+00  0.2642064705723E+00
-0.2030261881732E+00 -0.2517493708431E+01 -0.5441039874287E+00  0.2660743606838E+00
-0.2065285283226E+00 -0.2496487846214E+01 -0.5406032829630E+00  0.2677738488704E+00
-0.2135634155893E+00 -0.2471510657509E+01 -0.5370148226218E+00  0.2696757690910E+00
-0.2234600413529E+00 -0.2442561856962E+01 -0.5332043876084E+00  0.2721132271188E+00
-0.2354372346639E+00 -0.2409647862321E+01 -0.5290170272799E+00  0.2753959695169E+00
-0.2485808565433E+00 -0.2372800009509E+01 -0.5242761810229E+00  0.2798215244536E+00
-0.2618150762786E+00 -0.2332099186800E+01 -0.5187828603462E+00  0.2856820509101E+00
-0.2738694384852E+00 -0.2287706439934E+01 -0.5123151833179E+00  0.2932656571168E+00
-0.2832446199215E+00 -0.2239896386569E+01 -0.5046282088176E+00  0.3028517875108E+00
-0.2881789905907E+00 -0.2189094427998E+01 -0.4954546911006E+00  0.3146994107893E+00
-0.2866198511769E+00 -0.2135915193258E+01 -0.4845070161068E+00  0.3290273294516E+00
-0.2762033732386E+00 -0.2081200882656E+01 -0.4714808582045E+00  0.3459854951981E+00
-0.2542499365173E+00 -0.2026055092424E+01 -0.4560610125841E+00  0.3656125133775E+00
-0.2177844460135E+00 -0.1971862513292E+01 -0.4379293983867E+00  0.3877844829442E+00
-0.1635903805735E+00 -0.1920291006779E+01 -0.4167762836810E+00  0.4121527373353E+00
-0.8830738661049E-01 -0.1873267255321E+01 -0.3923149342323E+00  0.4380712899769E+00
 0.1141711407729E-01 -0.1832915601785E+01 -0.3642997029700E+00  0.4645187391233E+00
 0.1387134576268E+00 -0.1801450258676E+01 -0.3325473651652E+00  0.4900236073490E+00
 0.2962078669043E+00 -0.1781013980441E+01 -0.2969612271323E+00  0.5126075582340E+00
 0.4856791853054E+00 -0.1773463534332E+01 -0.2575568736433E+00  0.5297661988481E+00
 0.7076877091978E+00 -0.1780112366479E+01 -0.2144849346522E+00  0.5385100345769E+00
 0.9612351903673E+00 -0.1801468886708E+01 -0.1680467417722E+00  0.5354841701165E+00
 0.1243487365346E+01 -0.1837018723575E+01 -0.1187062734145E+00  0.5171710724286E+00
 0.1549612404218E+01 -0.1885087205587E+01 -0.6709496127363E-01  0.4801722981807E+00
 0.1872834326967E+01 -0.1942839055626E+01 -0.1400094594047E-01  0.4215448462381E+00
 0.2204730559568E+01 -0.2006449519449E+01  0.3965620861469E-01  0.3391403253069E+00
 0.2535765734013E+01 -0.2071446413643E+01  0.9286386545778E-01  0.2318896109148E+00
 0.2855964550235E+01 -0.2133181380838E+01  0.1445566360335E+00  0.1000094444432E+00
-0.6053415016485E+00 -0.2538269726074E+01 -0.6287222549131E+00  0.1858208571266E-01
-0.5525790621654E+00 -0.2561162301924E+01 -0.6227482820975E+00  0.7048882836053E-01
-0.5003094642941E+00 -0.2583060307209E+01 -0.6166739634898E+00  0.1149895230317E+00
-0.4498057693154E+00 -0.2603166402985E+01 -0.6105944435586E+00  0.1521030152543E+00
-0.4022489598888E+00 -0.2620754891086E+01 -0.6046007792041E+00  0.1821591870075E+00
-0.3586586247849E+00 -0.2635214113558E+01 -0.5987745565911E+00  0.2057454185855E+00
-0.3198428858453E+00 -0.2646072673278E+01 -0.5931831206637E+00  0.2236296622224E+00
-0.2863736889743E+00 -0.2653005528207E+01 -0.5878758521963E+00  0.2366770499423E+00
-0.2585875446203E+00 -0.2655821258295E+01 -0.5828817692687E+00  0.2457739068223E+00
-0.2366057212714E+00 -0.2654436033248E+01 -0.5782083595198E+00  0.2517686316465E+00
-0.2203654324529E+00 -0.2648841266023E+01 -0.5738413482460E+00  0.2554332533396E+00
-0.2096539544836E+00 -0.2639071311274E+01 -0.5697450616415E+00  0.2574448132906E+00
-0.2041391996660E+00 -0.2625175886610E+01 -0.5658630256872E+00  0.2583829650604E+00
-0.2033925940127E+00 -0.2607199972553E+01 -0.5621185216894E+00  0.2587390559238E+00
-0.2069021252994E+00 -0.2585172369532E+01 -0.5584149072872E+00  0.2589320785148E+00
-0.2140749342834E+00 -0.2559102942384E+01 -0.5546355835982E+00  0.2593276350957E+00
-0.2242299262264E+00 -0.2528987871201E+01 -0.5506435676907E+00  0.2602569896082E+00
-0.2365810021869E+00 -0.2494823152705E+01 -0.5462808391186E+00  0.2620340976467E+00
-0.2502129748130E+00 -0.2456623672433E+01 -0.5413673375162E+00  0.2649690992824E+00
-0.2640509740644E+00 -0.2414448856291E+01 -0.5356999740536E+00  0.2693772805759E+00
-0.2768252991523E+00 -0.2368434472229E+01 -0.5290519621598E+00  0.2755822413233E+00
-0.2870346206110E+00 -0.2318827410715E+01 -0.5211724140312E+00  0.2839126885428E+00
-0.2929095785091E+00 -0.2266024622611E+01 -0.5117868478502E+00  0.2946915438701E+00
-0.2923806359251E+00 -0.2210614415584E+01 -0.5005990177613E+00  0.3082162323022E+00
-0.2830544091702E+00 -0.2153421009638E+01 -0.4872950910229E+00  0.3247280286217E+00
-0.2622048268588E+00 -0.2095542333033E+01 -0.4715494390050E+00  0.3443666862910E+00
-0.2267883097739E+00 -0.2038369366369E+01 -0.4530315419792E+00  0.3671161079256E+00
-0.1734922516968E+00 -0.1983590229940E+01 -0.4314165027560E+00  0.3927359815297E+00
-0.9882766380498E-01 -0.1933170696341E+01 -0.4063996780850E+00  0.4206786515588E+00
 0.7220021874205E-03 -0.1889298688917E+01 -0.3777153429743E+00  0.4499954920133E+00
 0.1284849369165E+00 -0.1854280365170E+01 -0.3451590907940E+00  0.4792422262080E+00
 0.2873110170645E+00 -0.1830378189725E+01 -0.3086134391307E+00  0.5063994557687E+00
 0.4792116211655E+00 -0.1819589030658E+01 -0.2680754858932E+00  0.5288316913551E+00
 0.7049619907092E+00 -0.1823369429744E+01 -0.2236814911401E+00  0.5433131364448E+00
 0.9637259568463E+00 -0.1842348912236E+01 -0.1757245936965E+00  0.5461447826497E+00
 0.1252738141425E+01 -0.1876087294613E+01 -0.1246698324954E+00  0.5333734511725E+00
 0.1567106399137E+01 -0.1922913516691E+01 -0.7116142457112E-01  0.5011142548317E+00
 0.1899845084830E+01 -0.1979908735509E+01 -0.1601273037430E-01  0.4459500614763E+00
 0.2242176646490E+01 -0.2043077696279E+01  0.3981979063550E-01  0.3653454565619E+00
 0.2584096769083E+01 -0.2107710528939E+01  0.9527724944870E-01  0.2580025591340E+00
 0.2915103855416E+01 -0.2168891984991E+01  0.1492423763090E+00  0.1241212394290E+00
-0.6261710990931E+00 -0.2627610709447E+01 -0.6507563714051E+00  0.2748956079362E-01
-0.5706144147739E+00 -0.2651667287738E+01 -0.6444563501055E+00  0.7916731487512E-01
-0.5154970016099E+00 -0.2674654003710E+01 -0.6380302105714E+00  0.1231182428559E+00
-0.4622176852105E+00 -0.2695700429873E+01 -0.6315836324280E+00  0.1593805718964E+00
-0.4120687989182E+00 -0.2714021662979E+01 -0.6252181016959E+00  0.1883231886913E+00
-0.3661547455671E+00 -0.2728968178205E+01 -0.6190245939785E+00  0.2105868825997E+00
-0.3253360465694E+00 -0.2740054659001E+01 -0.6130781502496E+00  0.2269992150810E+00
-0.2902051046508E+00 -0.2746964013467E+01 -0.6074338326750E+00  0.2384826291083E+00
-0.2610922550068E+00 -0.2749529268561E+01 -0.6021243136860E+00  0.2459718006764E+00
-0.2380938202146E+00 -0.2747700746873E+01 -0.5971589223159E+00  0.2503507265309E+00
-0.2211115665708E+00 -0.2741507151140E+01 -0.5925237523715E+00  0.2524133614757E+00
-0.2098940221589E+00 -0.2731017948635E+01 -0.5881824029234E+00  0.2528463313415E+00
-0.2040724540856E+00 -0.2716312122816E+01 -0.5840769240837E+00  0.2522292666756E+00
-0.2031872328398E+00 -0.2697455965384E+01 -0.5801286482894E+00  0.2510472675835E+00
-0.2067026856198E+00 -0.2674490755860E+01 -0.5762386968826E+00  0.2497103574523E+00
-0.2140101846232E+00 -0.2647429962979E+01 -0.5722880380482E+00  0.2485757655890E+00
-0.2244203162166E+00 -0.2616264942649E+01 -0.5681370602390E+00  0.2479699901378E+00
-0.2371450033890E+00 -0.2580979174982E+01 -0.5636248440729E+00  0.2482085639292E+00
-0.2512718536468E+00 -0.2541568165353E+01 -0.5585680121233E+00  0.2496119449672E+00
-0.2657316028666E+00 -0.2498066046804E+01 -0.5527595381709E+00  0.2525166360669E+00
-0.2792606427350E+00 -0.2450578488303E+01 -0.5459678343431E+00  0.2572802710685E+00
-0.2903615198358E+00 -0.2399318757534E+01 -0.5379360634898E+00  0.2642799226560E+00
-0.2972633553414E+00 -0.2344648326260E+01 -0.5283823441939E+00  0.2739022963019E+00
-0.2978859876848E+00 -0.2287121060828E+01 -0.5170014174065E+00  0.2865242260175E+00
-0.2898122125955E+00 -0.2227534311401E+01 -0.5034693123017E+00  0.3024802791301E+00
-0.2702741478408E+00 -0.2166971092568E+01 -0.4874490553454E+00  0.3220148149363E+00
-0.2361624132173E+00 -0.2106819458689E+01 -0.4685963813638E+00  0.3452249507720E+00
-0.1840677466100E+00 -0.2048779328843E+01 -0.4465694217450E+00  0.3719865346810E+00
-0.1103669642746E+00 -0.1994849110572E+01 -0.4210432212434E+00  0.4018606304258E+00
-0.1136701314109E-01 -0.1947277585933E+01 -0.3917289256521E+00  0.4339840268738E+00
 0.1164794890953E+00 -0.1908465813548E+01 -0.3583972702310E+00  0.4669534028331E+00
 0.2762772215476E+00 -0.1880806249878E+01 -0.3209058104479E+00  0.4987210249847E+00
 0.4703103784397E+00 -0.1866454091293E+01 -0.2792287467315E+00  0.5265288708320E+00
 0.6996154811827E+00 -0.1867033883644E+01 -0.2334836839714E+00  0.5469156317546E+00
 0.9635647346192E+00 -0.1883324247776E+01 -0.1839519053725E+00  0.5558279366707E+00
 0.1259498582730E+01 -0.1914984455843E+01 -0.1310971765761E+00  0.5488538260509E+00
 0.1582481480732E+01 -0.1960362463873E+01 -0.7557619775433E-01  0.5215872512691E+00
 0.1925306348087E+01 -0.2016455019864E+01 -0.1822973462696E-01  0.4700959835224E+00
 0.2278796700554E+01 -0.2079076341469E+01  0.3994407241204E-01  0.3914185813742E+00
 0.2632406605508E+01 -0.2143241558561E+01  0.9783301084726E-01  0.2839998135327E+00
 0.2975016474068E+01 -0.2203719911017E+01  0.1542593149088E+00  0.1480104556851E+00
-0.6469783295023E+00 -0.2717137583392E+01 -0.6728231926047E+00  0.3684872683717E-01
-0.5885027928329E+00 -0.2742410835793E+01 -0.6661827356520E+00  0.8828165393741E-01
-0.5304164690886E+00 -0.2766534010387E+01 -0.6593901057208E+00  0.1316378343077E+00
-0.4742522593593E+00 -0.2788559474647E+01 -0.6525623565252E+00  0.1669783258712E+00
-0.4214208800802E+00 -0.2807640481240E+01 -0.6458122818874E+00  0.1947182749760E+00
-0.3731155935167E+00 -0.2823089454492E+01 -0.6392410191272E+00  0.2155611559196E+00
-0.3302497904708E+00 -0.2834409560800E+01 -0.6329318796855E+00  0.2304033857806E+00
-0.2934336739190E+00 -0.2841296052621E+01 -0.6269459546503E+00  0.2402322770315E+00
-0.2629866992313E+00 -0.2843611822203E+01 -0.6213197135452E+00  0.2460358166245E+00
-0.2389747252498E+00 -0.2841346817713E+01 -0.6160643177727E+00  0.2487358067646E+00
-0.2212587868104E+00 -0.2834571831347E+01 -0.6111661327385E+00  0.2491479686626E+00
-0.2095443175796E+00 -0.2823395164694E+01 -0.6065879054936E+00  0.2479666290015E+00
-0.2034228933915E+00 -0.2807927585975E+01 -0.6022701048478E+00  0.2457684539185E+00
-0.2024021867262E+00 -0.2788258069913E+01 -0.5981320602408E+00  0.2430288482154E+00
-0.2059225749703E+00 -0.2764440732765E+01 -0.5940726703995E+00  0.2401452975286E+00
-0.2133606092961E+00 -0.2736492122793E+01 -0.5899705552091E+00  0.2374632018991E+00
-0.2240206150024E+00 -0.2704397452707E+01 -0.5856836222692E+00  0.2353010685812E+00
-0.2371155944957E+00 -0.2668125594680E+01 -0.5810482464934E+00  0.2339730668133E+00
-0.2517399148596E+00 -0.2627649778068E+01 -0.5758779471669E+00  0.2338073429800E+00
-0.2668347054328E+00 -0.2582975062709E+01 -0.5699619621215E+00  0.2351593311927E+00
-0.2811479661464E+00 -0.2534172242562E+01 -0.5630640501320E+00  0.2384188213100E+00
-0.2931922375632E+00 -0.2481415078093E+01 -0.5549214714003E+00  0.2440098920130E+00
-0.3012016567863E+00 -0.2425022471462E+01 -0.5452448337744E+00  0.2523823737219E+00
-0.3030920992917E+00 -0.2365505544626E+01 -0.5337195367366E+00  0.2639928140613E+00
-0.2964288820883E+00 -0.2303625538215E+01 -0.5200108918093E+00  0.2792706326708E+00
-0.2784077476062E+00 -0.2240440742555E+01 -0.5037697055390E+00  0.2985680015022E+00
-0.2458571963100E+00 -0.2177326236474E+01 -0.4846366937784E+00  0.3221006878584E+00
-0.1952719047733E+00 -0.2115984147091E+01 -0.4622512172610E+00  0.3498689703964E+00
-0.1228901377265E+00 -0.2058437670477E+01 -0.4362655681416E+00  0.3815541230042E+00
-0.2483078675477E-01 -0.2006992219267E+01 -0.4063646072597E+00  0.4163928982724E+00
 0.1026936862178E+00 -0.1964145367722E+01 -0.3722903418484E+00  0.4530394517568E+00
 0.2630746328750E+00 -0.1932429070089E+01 -0.3338708924179E+00  0.4894338779925E+00
 0.4589116108165E+00 -0.1914175310456E+01 -0.2910527442650E+00  0.5227077601605E+00
 0.6915527847191E+00 -0.1911203093922E+01 -0.2439300654754E+00  0.5491678989942E+00
 0.9606305473484E+00 -0.1924470946130E+01 -0.1927680826288E+00  0.5643972856833E+00
 0.1263634130176E+01 -0.1953766441199E+01 -0.1380264642614E+00  0.5635001160834E+00
 0.1595606403213E+01 -0.1997475212636E+01 -0.8037376308232E-01  0.5415092170201E+00
 0.1949109091479E+01 -0.2052510421272E+01 -0.2068026626692E-01  0.4939284794934E+00
 0.2314520941096E+01 -0.2114475032670E+01  0.4000918228134E-01  0.4173228956222E+00
 0.2680676289724E+01 -0.2178069009048E+01  0.1005214576330E+00  0.3098442095908E+00
 0.3035738084056E+01 -0.2237693298017E+01  0.1596089595861E+00  0.1716177181664E+00
-0.6677635771199E+00 -0.2806875926298E+01 -0.6949279110388E+00  0.4668115476946E-01
-0.6062333890414E+00 -0.2833422625306E+01 -0.6879312131205E+00  0.9785232261446E-01
-0.5450462905433E+00 -0.2858732868352E+01 -0.6807558419231E+00  0.1405658542100E+00
-0.4858793156153E+00 -0.2881776800742E+01 -0.6735312333079E+00  0.1749094282464E+00
-0.4302697820932E+00 -0.2901642759923E+01 -0.6663825183331E+00  0.2013525986924E+00
-0.3795042268223E+00 -0.2917605093861E+01 -0.6594218739627E+00  0.2206719069691E+00
-0.3345489792048E+00 -0.2929158505531E+01 -0.6527415066737E+00  0.2338428378564E+00
-0.2960284743482E+00 -0.2936015894082E+01 -0.6464088833182E+00  0.2419257290812E+00
-0.2642454842872E+00 -0.2938076346691E+01 -0.6404643757394E+00  0.2459670103560E+00
-0.2392288652132E+00 -0.2935375643531E+01 -0.6349209112099E+00  0.2469283185333E+00
-0.2207928447311E+00 -0.2928031945568E+01 -0.6297649674440E+00  0.2456465883787E+00
-0.2085948965714E+00 -0.2916196348051E+01 -0.6249582582370E+00  0.2428214866259E+00
-0.2021835812259E+00 -0.2900013981719E+01 -0.6204395218342E+00  0.2390233050896E+00
-0.2010321299209E+00 -0.2879597834218E+01 -0.6161260020087E+00  0.2347138911954E+00
-0.2045566904475E+00 -0.2855015141866E+01 -0.6119143755809E+00  0.2302742726903E+00
-0.2121200069858E+00 -0.2826284949205E+01 -0.6076810002932E+00  0.2260342586242E+00
-0.2230222914324E+00 -0.2793384989080E+01 -0.6032814650921E+00  0.2223008545826E+00
-0.2364807809763E+00 -0.2756267465193E+01 -0.5985496581530E+00  0.2193836318789E+00
-0.2516006718755E+00 -0.2714880508109E+01 -0.5932962448378E+00  0.2176154716337E+00
-0.2673383958577E+00 -0.2669196423732E+01 -0.5873069726696E+00  0.2173680829924E+00
-0.2824592325092E+00 -0.2619246457445E+01 -0.5803411466386E+00  0.2190611074739E+00
-0.2954920501340E+00 -0.2565159051322E+01 -0.5721302288167E+00  0.2231637876593E+00
-0.3046828486521E+00 -0.2507203447760E+01 -0.5623772676625E+00  0.2301878918317E+00
-0.3079506562852E+00 -0.2445839592302E+01 -0.5507580579243E+00  0.2406694413382E+00
-0.3028502949288E+00 -0.2381783060325E+01 -0.5369266790516E+00  0.2551337680914E+00
-0.2865474423869E+00 -0.2316057040419E+01 -0.5205209043176E+00  0.2740436949927E+00
-0.2558133050634E+00 -0.2250012693754E+01 -0.5011652072315E+00  0.2977389591010E+00
-0.2070484868398E+00 -0.2185343491089E+01 -0.4784784027157E+00  0.3263528612797E+00
-0.1363498652163E+00 -0.2124087931261E+01 -0.4520875660321E+00  0.3596993655128E+00
-0.3963809504002E-01 -0.2068601965155E+01 -0.4216480183220E+00  0.3971316177577E+00
 0.8713472268904E-01 -0.2021479518670E+01 -0.3868689649610E+00  0.4373806582429E+00
 0.2476789378690E+00 -0.1985400339003E+01 -0.3475442854055E+00  0.4783943315672E+00
 0.4449543053940E+00 -0.1962891588427E+01 -0.3035874611304E+00  0.5172100758982E+00
 0.6806754945279E+00 -0.1955994719283E+01 -0.2550638487518E+00  0.5499099205882E+00
 0.9547934225579E+00 -0.1965882183895E+01 -0.2022177552808E+00  0.5717055235321E+00
 0.1264996525399E+01 -0.1992503046173E+01 -0.1455013063230E+00  0.5771905058292E+00
 0.1606334261978E+01 -0.2034303448475E+01 -0.8559383857472E-01  0.5607910376980E+00
 0.1971130355032E+01 -0.2088116119342E+01 -0.2339715321076E-01  0.5173896196295E+00
 0.2349271061886E+01 -0.2149311453822E+01  0.3999192220873E-01  0.4430204670857E+00
 0.2728886569621E+01 -0.2212230805424E+01  0.1033311543791E+00  0.3354986747713E+00
 0.3097313794587E+01 -0.2270849243794E+01  0.1652929126215E+00  0.1948830237650E+00
-0.6885271284960E+00 -0.2896852369804E+01 -0.7170759103453E+00  0.5701019532199E-01
-0.6237945581301E+00 -0.2924733573951E+01 -0.7097056369916E+00  0.1079013029439E+00
-0.5593633178593E+00 -0.2951284370272E+01 -0.7021295480888E+00  0.1499206650508E+00
-0.4970666502671E+00 -0.2975386636280E+01 -0.6944906676581E+00  0.1831868499115E+00
-0.4385780373032E+00 -0.2996060256042E+01 -0.6869276689051E+00  0.2082330951389E+00
-0.3852820784257E+00 -0.3012541705317E+01 -0.6795647668749E+00  0.2259207319962E+00
-0.3381975896492E+00 -0.3024321068487E+01 -0.6725037416483E+00  0.2373156442552E+00
-0.2979585841371E+00 -0.3031135251705E+01 -0.6658187770899E+00  0.2435599911679E+00
-0.2648440861987E+00 -0.3032926890304E+01 -0.6595542051286E+00  0.2457639003362E+00
-0.2388382780400E+00 -0.3029784590847E+01 -0.6537245835187E+00  0.2449305965465E+00
-0.2197016596234E+00 -0.3021879643436E+01 -0.6483162702726E+00  0.2419171773149E+00
-0.2070383525621E+00 -0.3009410101634E+01 -0.6432897004249E+00  0.2374257277584E+00
-0.2003503186865E+00 -0.2992558050773E+01 -0.6385816834075E+00  0.2320162353995E+00
-0.1990745307779E+00 -0.2971461739462E+01 -0.6341072634969E+00  0.2261326935929E+00
-0.2026026593005E+00 -0.2946201707779E+01 -0.6297608828000E+00  0.2201354028912E+00
-0.2102847341295E+00 -0.2916798847654E+01 -0.6254167256761E+00  0.2143345304814E+00
-0.2214190913773E+00 -0.2883222069518E+01 -0.6209282414315E+00  0.2090218056058E+00
-0.2352304455801E+00 -0.2845404907094E+01 -0.6161270797159E+00  0.2044986949338E+00
-0.2508389776928E+00 -0.2803267684516E+01 -0.6108213415437E+00  0.2010995527938E+00
-0.2672214277334E+00 -0.2756746425995E+01 -0.6047935797577E+00  0.1992093445314E+00
-0.2831661549247E+00 -0.2705828319752E+01 -0.5977989038432E+00  0.1992748298899E+00
-0.2972248783968E+00 -0.2650590820938E+01 -0.5895631486521E+00  0.2018080730644E+00
-0.3076625989283E+00 -0.2591246494792E+01 -0.5797818273835E+00  0.2073810262942E+00
-0.3124090605684E+00 -0.2528195617686E+01 -0.5681209441165E+00  0.2166083335882E+00
-0.3090162361040E+00 -0.2462098280123E+01 -0.5542229115040E+00  0.2301116988924E+00
-0.2946269909207E+00 -0.2393931643398E+01 -0.5377117348763E+00  0.2484669291932E+00
-0.2659613421779E+00 -0.2325011077360E+01 -0.5181944916293E+00  0.2721427658075E+00
-0.2193294341018E+00 -0.2257009131034E+01 -0.4952677204073E+00  0.3014142581524E+00
-0.1506857813754E+00 -0.2191968234493E+01 -0.4685308101553E+00  0.3362413650185E+00
-0.5574442432178E-01 -0.2132286539727E+01 -0.4376061993306E+00  0.3761118572183E+00
 0.6982187648749E-01 -0.2080651888725E+01 -0.4021660084403E+00  0.4198560437896E+00
 0.2300748808964E+00 -0.2039898380974E+01 -0.3619647054091E+00  0.4654535384502E+00
 0.4283815825697E+00 -0.2012766269651E+01 -0.3168769421382E+00  0.5098686110639E+00
 0.6668829407202E+00 -0.2001548871948E+01 -0.2669331902232E+00  0.5489699599120E+00
 0.9459143265017E+00 -0.2007670165652E+01 -0.2123511709944E+00  0.5775926005799E+00
 0.1263422880775E+01 -0.2031279087995E+01 -0.1535712437323E+00  0.5897916126999E+00
 0.1614500946072E+01 -0.2070910389715E+01 -0.9128189008892E-01  0.5793351068621E+00
 0.1991231562809E+01 -0.2123322692309E+01 -0.2641822629364E-01  0.5404168636888E+00
 0.2382958909940E+01 -0.2183632032258E+01  0.3986537613039E-01  0.4684720138263E+00
 0.2777017259216E+01 -0.2245773905277E+01  0.1062486723712E+00  0.3609263763844E+00
 0.3159798430341E+01 -0.2303234416792E+01  0.1713128052626E+00  0.2177459981119E+00
-0.7092691514376E+00 -0.2987094898914E+01 -0.7392728210864E+00  0.6786108209298E-01
-0.6411736174707E+00 -0.3016376192612E+01 -0.7315099729169E+00  0.1184521474721E+00
-0.5733424782725E+00 -0.3044223925989E+01 -0.7235132916335E+00  0.1597213957779E+00
-0.5077796077308E+00 -0.3069424483941E+01 -0.7154408289953E+00  0.1918232008902E+00
-0.4463057370224E+00 -0.3090925260931E+01 -0.7074462101325E+00  0.2153651702390E+00
-0.3904086722733E+00 -0.3107925394723E+01 -0.6996668238251E+00  0.2313067618841E+00
-0.3411585794347E+00 -0.3119915165674E+01 -0.6922147593365E+00  0.2408168779145E+00
-0.2991930921369E+00 -0.3126663085871E+01 -0.6851712458114E+00  0.2451289700131E+00
-0.2647589714690E+00 -0.3128163841319E+01 -0.6785845726692E+00  0.2454221705465E+00
-0.2377868009773E+00 -0.3124566698264E+01 -0.6724707098688E+00  0.2427426473835E+00
-0.2179755396252E+00 -0.3116102304880E+01 -0.6668155788373E+00  0.2379659895674E+00
-0.2048700428287E+00 -0.3103019993556E+01 -0.6615780171352E+00  0.2317931259407E+00
-0.1979218631981E+00 -0.3085541350907E+01 -0.6566926526064E+00  0.2247692378235E+00
-0.1965298615822E+00 -0.3063831002022E+01 -0.6520721824376E+00  0.2173157173963E+00
-0.2000610451198E+00 -0.3037982843393E+01 -0.6476087873527E+00  0.2097675293361E+00
-0.2078539163487E+00 -0.3008018890742E+01 -0.6431745710022E+00  0.2024108829712E+00
-0.2192072639338E+00 -0.2973897895755E+01 -0.6386210414539E+00  0.1955182215449E+00
-0.2333565975378E+00 -0.2935532809942E+01 -0.6337778909401E+00  0.1893791551860E+00
-0.2494413026828E+00 -0.2892813603592E+01 -0.6284509906197E+00  0.1843259633257E+00
-0.2664635024305E+00 -0.2845636701765E+01 -0.6224200501138E+00  0.1807534986757E+00
-0.2832405320486E+00 -0.2793940959697E+01 -0.6154363075199E+00  0.1791324777018E+00
-0.2983536402365E+00 -0.2737747396527E+01 -0.6072202164010E+00  0.1800149289899E+00
-0.3100942267353E+00 -0.2677205039013E+01 -0.5974598620525E+00  0.1840306307605E+00
-0.3164107413923E+00 -0.2612646024667E+01 -0.5858113619410E+00  0.1918713186775E+00
-0.3148606198530E+00 -0.2544664948509E+01 -0.5719051221945E+00  0.2042548196568E+00
-0.3025721568754E+00 -0.2474181515110E+01 -0.5553507426725E+00  0.2218715985229E+00
-0.2762216858163E+00 -0.2402462486494E+01 -0.5357368424451E+00  0.2453239497817E+00
-0.2320343552752E+00 -0.2331145719873E+01 -0.5126360226685E+00  0.2750373006680E+00
-0.1658235588894E+00 -0.2262264082374E+01 -0.4856175354889E+00  0.3111315108015E+00
-0.7309063444079E-01 -0.2198246946304E+01 -0.4542675229180E+00  0.3532488669441E+00
 0.5078819222089E-01 -0.2141870810176E+01 -0.4182165298230E+00  0.4003443490627E+00
 0.2102580914314E+00 -0.2096128318697E+01 -0.3771740510734E+00  0.4504577913192E+00
 0.4091423335378E+00 -0.2063989704943E+01 -0.3309694792130E+00  0.5005066929909E+00
 0.6500732257613E+00 -0.2048030768375E+01 -0.2795915126891E+00  0.5461631789485E+00
 0.9338452413139E+00 -0.2049968503214E+01 -0.2232246557064E+00  0.5818837524858E+00
 0.1258734685607E+01 -0.2070196247128E+01 -0.1622923147225E+00  0.6011564043211E+00
 0.1619923347348E+01 -0.2107372059260E+01 -0.9748974383505E-01  0.5970336672556E+00
 0.2009256538507E+01 -0.2158191027463E+01 -0.2978689823506E-01  0.5629421433124E+00
 0.2415484929932E+01 -0.2217492733969E+01  0.3959843978271E-01  0.4936366571881E+00
 0.2825046464986E+01 -0.2278755047406E+01  0.1092582851440E+00  0.3860908548518E+00
 0.3223256824285E+01 -0.2334905750857E+01  0.1776702173331E+00  0.2401461800728E+00
-0.7299896739012E+00 -0.3077633204818E+01 -0.7615245870914E+00  0.7926106443743E-01
-0.6583566170019E+00 -0.3108384997106E+01 -0.7533483340474E+00  0.1295300623679E+00
-0.5869563677273E+00 -0.3137588980362E+01 -0.7449090807178E+00  0.1699878954737E+00
-0.5179805966413E+00 -0.3163927464276E+01 -0.7363816231564E+00  0.2008305128922E+00
-0.4534100914036E+00 -0.3186270795797E+01 -0.7279361882872E+00  0.2227523305338E+00
-0.3948413199055E+00 -0.3203781777520E+01 -0.7197246302098E+00  0.2368262053765E+00
-0.3433937590568E+00 -0.3215956896307E+01 -0.7118701416805E+00  0.2443381489187E+00
-0.2997011328502E+00 -0.3222605323792E+01 -0.7044613018257E+00  0.2466230693718E+00
-0.2639677512461E+00 -0.3223783587176E+01 -0.6975502780786E+00  0.2449343599459E+00
-0.2360602922900E+00 -0.3219710328236E+01 -0.6911541344042E+00  0.2403619359456E+00
-0.2156074279078E+00 -0.3210682219558E+01 -0.6852579397044E+00  0.2337974434094E+00
-0.2020883319488E+00 -0.3197004278213E+01 -0.6798185321625E+00  0.2259363268070E+00
-0.1949001579697E+00 -0.3178940016203E+01 -0.6747680448894E+00  0.2173038367923E+00
-0.1934018150069E+00 -0.3156681355741E+01 -0.6700166441336E+00  0.2082935579440E+00
-0.1969355598176E+00 -0.3130335433806E+01 -0.6654542086407E+00  0.1992101898274E+00
-0.2048296678226E+00 -0.3099924580640E+01 -0.6609508595415E+00  0.1903114358064E+00
-0.2163858003371E+00 -0.3065396071990E+01 -0.6563563842458E+00  0.1818462452982E+00
-0.2308536414525E+00 -0.3026640486804E+01 -0.6514988353594E+00  0.1740884085801E+00
-0.2473960409559E+00 -0.2983515102712E+01 -0.6461822383624E+00  0.1673643222315E+00
-0.2650456165270E+00 -0.2935873699793E+01 -0.6401838728035E+00  0.1620750247763E+00
-0.2826546349622E+00 -0.2883602830197E+01 -0.6332515024681E+00  0.1587116052492E+00
-0.2988406678214E+00 -0.2826661931626E+01 -0.6251005292043E+00  0.1578626738634E+00
-0.3119291298862E+00 -0.2765129881641E+01 -0.6154118114758E+00  0.1602128386853E+00
-0.3198955575110E+00 -0.2699262332922E+01 -0.6038315870843E+00  0.1665286475753E+00
-0.3203118103663E+00 -0.2629578279872E+01 -0.5899780268391E+00  0.1776229783021E+00
-0.3103008688896E+00 -0.2556928111405E+01 -0.5734458046040E+00  0.1943017982273E+00
-0.2865043883928E+00 -0.2482516245771E+01 -0.5538041350850E+00  0.2173047881229E+00
-0.2450700523942E+00 -0.2407930503053E+01 -0.5306001189959E+00  0.2472160047951E+00
-0.1816739622524E+00 -0.2335178353849E+01 -0.5033704707212E+00  0.2843294249846E+00
-0.9160149286550E-01 -0.2266706357336E+01 -0.4716615770686E+00  0.3284631808822E+00
 0.3008241017953E-01 -0.2205370972941E+01 -0.4350577190351E+00  0.3787253156365E+00
 0.1882372650919E+00 -0.2154324466149E+01 -0.3932174460709E+00  0.4332490783293E+00
 0.3871932674030E+00 -0.2116782198964E+01 -0.3459177914667E+00  0.4889377746918E+00
 0.6301446273212E+00 -0.2095633866472E+01 -0.2930978521976E+00  0.5412902141486E+00
 0.9184294426851E+00 -0.2092935084154E+01 -0.2349011317940E+00  0.5843873054382E+00
 0.1250736752231E+01 -0.2109375293149E+01 -0.1717277107425E+00  0.6111217846462E+00
 0.1622397263604E+01 -0.2143778786025E+01 -0.1042763060381E+00  0.6137668500484E+00
 0.2025029119537E+01 -0.2192793360960E+01 -0.3355284878450E-01  0.5848907761840E+00
 0.2446736280057E+01 -0.2250959981925E+01  0.3915526020983E-01  0.5184716045844E+00
 0.2872949576362E+01 -0.2311241610373E+01  0.1123415948718E+00  0.4109560767966E+00
 0.3287763910258E+01 -0.2365931181252E+01  0.1843665485485E+00  0.2620232620333E+00
-0.7506885574223E+00 -0.3168499100003E+01 -0.7838375431651E+00  0.9123956792737E-01
-0.6753280689836E+00 -0.3200796990179E+01 -0.7752250233842E+00  0.1411620067179E+00
-0.6001747758828E+00 -0.3231419496484E+01 -0.7663188658923E+00  0.1807406721974E+00
-0.5276285331311E+00 -0.3258934702006E+01 -0.7573126583123E+00  0.2102199715282E+00
-0.4598449363547E+00 -0.3282130815504E+01 -0.7483951615237E+00  0.2303957385862E+00
-0.3985347971179E+00 -0.3300135964523E+01 -0.7397341633511E+00  0.2424718138038E+00
-0.3448636757484E+00 -0.3312460334023E+01 -0.7314648128539E+00  0.2478670778956E+00
-0.2994519537659E+00 -0.3318964520070E+01 -0.7236833055509E+00  0.2480287471047E+00
-0.2624493748157E+00 -0.3319778119624E+01 -0.7164455095637E+00  0.2442895374934E+00
-0.2336468886667E+00 -0.3315198779181E+01 -0.7097691441459E+00  0.2377831756894E+00
-0.2125931753797E+00 -0.3305596243469E+01 -0.7036378942547E+00  0.2294140012074E+00
-0.1986948516185E+00 -0.3291335609330E+01 -0.6980061025909E+00  0.2198667846338E+00
-0.1912905696851E+00 -0.3272724518592E+01 -0.6928030279791E+00  0.2096410518634E+00
-0.1896975240763E+00 -0.3249982841633E+01 -0.6879360833929E+00  0.1990969145183E+00
-0.1932332780576E+00 -0.3223230628051E+01 -0.6832927914036E+00  0.1885035870573E+00
-0.2012173154021E+00 -0.3192489615416E+01 -0.6787413962777E+00  0.1780855299611E+00
-0.2129566827336E+00 -0.3157694319833E+01 -0.6741302105587E+00  0.1680638382853E+00
-0.2277186635072E+00 -0.3118711314664E+01 -0.6692860056073E+00  0.1586923484506E+00
-0.2446938435146E+00 -0.3075363106494E+01 -0.6640113998962E+00  0.1502875387692E+00
-0.2629504473874E+00 -0.3027458121504E+01 -0.6580817235844E+00  0.1432526215961E+00
-0.2813816454842E+00 -0.2974827022225E+01 -0.6512417432461E+00  0.1380950621594E+00
-0.2986481914897E+00 -0.2917362914435E+01 -0.6432022307694E+00  0.1354361387399E+00
-0.3131172957052E+00 -0.2855068272100E+01 -0.6336371230029E+00  0.1360116260410E+00
-0.3228002990894E+00 -0.2788114159041E+01 -0.6221829008974E+00  0.1406597908555E+00
-0.3252930554386E+00 -0.2716933891660E+01 -0.6084453984864E+00  0.1502865502399E+00
-0.3177234981632E+00 -0.2642296363932E+01 -0.5920039812405E+00  0.1658132079053E+00
-0.2967091813043E+00 -0.2565329060766E+01 -0.5724076569436E+00  0.1881196896244E+00
-0.2583301155961E+00 -0.2487552818432E+01 -0.5491765949889E+00  0.2179562251663E+00
-0.1981318992007E+00 -0.2410931354993E+01 -0.5218126586143E+00  0.2558050679667E+00
-0.1111840975243E+00 -0.2337910923627E+01 -0.4898190115291E+00  0.3016826458790E+00
 0.7771144915200E-02 -0.2271415145948E+01 -0.4527288069528E+00  0.3548813234589E+00
 0.1640367340093E+00 -0.2214752982957E+01 -0.4101432559011E+00  0.4136659581194E+00
 0.3625014395137E+00 -0.2171397412377E+01 -0.3617791999636E+00  0.4749652201055E+00
 0.6069974643873E+00 -0.2144583598219E+01 -0.3075172313488E+00  0.5341357387425E+00
 0.8995020674553E+00 -0.2136755560261E+01 -0.2474507022484E+00  0.5848922341119E+00
 0.1239216144146E+01 -0.2148958809933E+01 -0.1819485358687E+00  0.6195057774125E+00
 0.1621694972716E+01 -0.2180237000730E+01 -0.1117084072673E+00  0.6294003362841E+00
 0.2038350325800E+01 -0.2227214473935E+01 -0.3777283018985E-01  0.6061801886350E+00
 0.2476584635509E+01 -0.2284111746098E+01  0.3849457845582E-01  0.5429317823671E+00
 0.2920698058564E+01 -0.2343312659527E+01  0.1154770815280E+00  0.4354863903952E+00
 0.3353404638113E+01 -0.2396390472069E+01  0.1914028360610E+00  0.2833172454175E+00
-0.7713654683803E+00 -0.3259727010423E+01 -0.8062185077743E+00  0.1038283935111E+00
-0.6920706308478E+00 -0.3293652232759E+01 -0.7971445845997E+00  0.1533768132321E+00
-0.6129641313929E+00 -0.3325758523497E+01 -0.7877445427163E+00  0.1920008157497E+00
-0.5366782013982E+00 -0.3354487770155E+01 -0.7782332059072E+00  0.2200015898633E+00
-0.4655601847233E+00 -0.3378540428842E+01 -0.7688201341693E+00  0.2382936827033E+00
-0.4014410062409E+00 -0.3397012524244E+01 -0.7596907174173E+00  0.2482322589428E+00
-0.3455275201733E+00 -0.3409437269956E+01 -0.7509929692166E+00  0.2513867034776E+00
-0.2984150272779E+00 -0.3415739464917E+01 -0.7428309095080E+00  0.2493280373953E+00
-0.2601843723498E+00 -0.3416134600334E+01 -0.7352638054930E+00  0.2434729714070E+00
-0.2305373042401E+00 -0.3411009880130E+01 -0.7283094477267E+00  0.2349981328585E+00
-0.2089318417264E+00 -0.3400815461799E+01 -0.7219494714629E+00  0.2248160718764E+00
-0.1946947753927E+00 -0.3385980779445E+01 -0.7161351216387E+00  0.2135947204781E+00
-0.1871021308139E+00 -0.3366859470183E+01 -0.7107923307911E+00  0.2018013756607E+00
-0.1854277808136E+00 -0.3343699646593E+01 -0.7058254959989E+00  0.1897565644804E+00
-0.1889648488033E+00 -0.3316633682571E+01 -0.7011197167224E+00  0.1776885484658E+00
-0.1970256220848E+00 -0.3285681705328E+01 -0.6965414758618E+00  0.1657836743731E+00
-0.2089251376880E+00 -0.3250764237705E+01 -0.6919378853894E+00  0.1542307244422E+00
-0.2239517303529E+00 -0.3211722410543E+01 -0.6871348384184E+00  0.1432593245000E+00
-0.2413279742833E+00 -0.3168342196917E+01 -0.6819340444017E+00  0.1331718098933E+00
-0.2601627740582E+00 -0.3120384366152E+01 -0.6761094381168E+00  0.1243692718827E+00
-0.2793961447522E+00 -0.3067620570446E+01 -0.6694033530145E+00  0.1173711592531E+00
-0.2977388917191E+00 -0.3009873325704E+01 -0.6615224533421E+00  0.1128269752978E+00
-0.3136079005721E+00 -0.2947062920476E+01 -0.6521341739271E+00  0.1115193095544E+00
-0.3250593007353E+00 -0.2879268103543E+01 -0.6408654904054E+00  0.1143541818631E+00
-0.3297230524920E+00 -0.2806826613378E+01 -0.6273099425217E+00  0.1223274833480E+00
-0.3247432830601E+00 -0.2730413497505E+01 -0.6110313652181E+00  0.1364744876465E+00
-0.3067256261779E+00 -0.2651063980559E+01 -0.5915579301622E+00  0.1578169668058E+00
-0.2716946373599E+00 -0.2570213397876E+01 -0.5683816155167E+00  0.1872777773494E+00
-0.2150755255653E+00 -0.2489760704242E+01 -0.5409672540225E+00  0.2255411021870E+00
-0.1317262395599E+00 -0.2412130507967E+01 -0.5087713570867E+00  0.2728448034237E+00
-0.1605871912425E-01 -0.2340295979969E+01 -0.4712709468412E+00  0.3286994393549E+00
 0.1376994278653E+00 -0.2277714827303E+01 -0.4280030862653E+00  0.3915448289278E+00
 0.3350473046008E+00 -0.2228126302918E+01 -0.3786158053052E+00  0.4583823574913E+00
 0.5805365040446E+00 -0.2195141835872E+01 -0.3229210711773E+00  0.5244670552678E+00
 0.8768910481827E+00 -0.2181647631493E+01 -0.2609513205505E+00  0.5831654558280E+00
 0.1223941107889E+01 -0.2189114584773E+01 -0.1930346982532E+00  0.6261042256373E+00
 0.1617562408708E+01 -0.2216871420360E+01 -0.1198618041166E+00  0.6437825464426E+00
 0.2048994979095E+01 -0.2261553069425E+01 -0.4251161869957E-01  0.6267184308682E+00
 0.2504883672192E+01 -0.2317038854777E+01  0.3756896404282E-01  0.5669694892833E+00
 0.2968258127706E+01 -0.2375060293186E+01  0.1186395686720E+00  0.4596463883327E+00
 0.3420273632267E+01 -0.2426376206731E+01  0.1987794880692E+00  0.3039684866696E+00
-0.7920198425160E+00 -0.3351354558109E+01 -0.8286748924733E+00  0.1170619579794E+00
-0.7085647256057E+00 -0.3386994511076E+01 -0.8191118595421E+00  0.1662053291242E+00
-0.6252868449779E+00 -0.3420652845118E+01 -0.8091879500770E+00  0.2037898926263E+00
-0.5450795116548E+00 -0.3450631171113E+01 -0.7991421484617E+00  0.2301838019209E+00
-0.4705012120868E+00 -0.3475536095046E+01 -0.7892074731867E+00  0.2464409364277E+00
-0.4035086259996E+00 -0.3494435365135E+01 -0.7795888098438E+00  0.2540914039737E+00
-0.3453430657345E+00 -0.3506896840865E+01 -0.7704479928005E+00  0.2548748129008E+00
-0.2965602193424E+00 -0.3512924668852E+01 -0.7618969889920E+00  0.2504980365299E+00
-0.2571551572657E+00 -0.3512834814797E+01 -0.7539980056480E+00  0.2424657978053E+00
-0.2267251779800E+00 -0.3507115495295E+01 -0.7467681457827E+00  0.2319954532772E+00
-0.2046260280680E+00 -0.3496304783733E+01 -0.7401861733899E+00  0.2200019453526E+00
-0.1900971092079E+00 -0.3480900408073E+01 -0.7341995143967E+00  0.2071291110623E+00
-0.1823477861679E+00 -0.3461303383603E+01 -0.7287302448130E+00  0.1938047747149E+00
-0.1806072528690E+00 -0.3437789902261E+01 -0.7236794418097E+00  0.1803033494290E+00
-0.1841447034858E+00 -0.3410503760979E+01 -0.7189297036059E+00  0.1668064865859E+00
-0.1922670097854E+00 -0.3379462336782E+01 -0.7143458799580E+00  0.1534574822533E+00
-0.2042998947916E+00 -0.3344570995500E+01 -0.7097741886348E+00  0.1404083142036E+00
-0.2195562013258E+00 -0.3305644227306E+01 -0.7050400962323E+00  0.1278600736078E+00
-0.2372946897115E+00 -0.3262430084561E+01 -0.6999449652845E+00  0.1160965828478E+00
-0.2566699339652E+00 -0.3214639855411E+01 -0.6942619682205E+00  0.1055122669361E+00
-0.2766746521816E+00 -0.3161983612866E+01 -0.6877316632575E+00  0.9663379117025E-01
-0.2960765189797E+00 -0.3104209620532E+01 -0.6800572380359E+00  0.9013392023415E-01
-0.3133499981306E+00 -0.3041150798065E+01 -0.6709001692364E+00  0.8683700620228E-01
-0.3266051665770E+00 -0.2972786383975E+01 -0.6598783199434E+00  0.8771193482109E-01
-0.3335166500243E+00 -0.2899348994472E+01 -0.6465731385339E+00  0.9384034538182E-01
-0.3312569069904E+00 -0.2821407497735E+01 -0.6305328903407E+00  0.1063687236987E+00
-0.3164334223928E+00 -0.2739888968611E+01 -0.6112644873092E+00  0.1264607293778E+00
-0.2850300576470E+00 -0.2656123256228E+01 -0.5882306715403E+00  0.1552167802549E+00
-0.2323654109956E+00 -0.2571920825810E+01 -0.5608572557186E+00  0.1935355957889E+00
-0.1530946982395E+00 -0.2489659114121E+01 -0.5285507703481E+00  0.2418997329028E+00
-0.4129737525181E-01 -0.2412337679089E+01 -0.4907270181805E+00  0.3000740136866E+00
 0.1092903152117E+00 -0.2343548836893E+01 -0.4468517109948E+00  0.3667217461136E+00
 0.3048284444273E+00 -0.2287301503826E+01 -0.3964946177879E+00  0.4389729451681E+00
 0.5506741073201E+00 -0.2247612074597E+01 -0.3393875985126E+00  0.5120328094695E+00
 0.8504186143254E+00 -0.2227866180836E+01 -0.2754895174071E+00  0.5789488504337E+00
 0.1204660122090E+01 -0.2230039730727E+01 -0.2050759247832E+00  0.6306868700453E+00
 0.1609715882379E+01 -0.2253827606032E+01 -0.1288223466503E+00  0.6567411483177E+00
 0.2056707582204E+01 -0.2295923193051E+01 -0.4784312288226E-01  0.6464023510503E+00
 0.2531466112662E+01 -0.2349846408844E+01  0.3632394130490E-01  0.5905340757766E+00
 0.3015589268717E+01 -0.2406591294443E+01  0.1217995966698E+00  0.4834006069188E+00
 0.3488474241455E+01 -0.2455994905180E+01  0.2064958703320E+00  0.3239174111943E+00
-0.8126508398219E+00 -0.3443423257163E+01 -0.8512148320811E+00  0.1309775817928E+00
-0.7247880865968E+00 -0.3480872136857E+01 -0.8411320572246E+00  0.1796805797852E+00
-0.6371005296709E+00 -0.3516153750862E+01 -0.8306508684842E+00  0.2161298038608E+00
-0.5527766396005E+00 -0.3547412894605E+01 -0.8200379190606E+00  0.2407729562924E+00
-0.4746081738582E+00 -0.3573155832083E+01 -0.8095528132516E+00  0.2548279853174E+00
-0.4046827583828E+00 -0.3592427573384E+01 -0.7994220782656E+00  0.2600274513377E+00
-0.3442666565485E+00 -0.3604845086132E+01 -0.7898223603054E+00  0.2583031900331E+00
-0.2938580303108E+00 -0.3610509782852E+01 -0.7808735742686E+00  0.2515103556141E+00
-0.2533463982304E+00 -0.3609854591733E+01 -0.7726402095060E+00  0.2412446965542E+00
-0.2222074726173E+00 -0.3603481033623E+01 -0.7651377126496E+00  0.2287605191210E+00
-0.1996822383806E+00 -0.3592022579816E+01 -0.7583409749394E+00  0.2149677627022E+00
-0.1849149906139E+00 -0.3576048702093E+01 -0.7521927497499E+00  0.2004777065977E+00
-0.1770446341434E+00 -0.3556008524832E+01 -0.7466106429205E+00  0.1856707055721E+00
-0.1752546873459E+00 -0.3532205588344E+01 -0.7414920661871E+00  0.1707681600978E+00
-0.1787912495655E+00 -0.3504793843767E+01 -0.7367170296444E+00  0.1558993411918E+00
-0.1869577701684E+00 -0.3473786646924E+01 -0.7321488943283E+00  0.1411595730200E+00
-0.1990934394210E+00 -0.3439073136896E+01 -0.7276333261060E+00  0.1266595790747E+00
-0.2145390435703E+00 -0.3400440251077E+01 -0.7229958697029E+00  0.1125675873290E+00
-0.2325936323582E+00 -0.3357597172568E+01 -0.7180381716849E+00  0.9914444150527E-01
-0.2524623071385E+00 -0.3310204438614E+01 -0.7125333597680E+00  0.8677314277820E-01
-0.2731962086870E+00 -0.3257908614981E+01 -0.7062209752570E+00  0.7598245940868E-01
-0.2936265789332E+00 -0.3200380752922E+01 -0.6988014767841E+00  0.6746295079326E-01
-0.3122932994019E+00 -0.3137361951476E+01 -0.6899310604564E+00  0.6207497878653E-01
-0.3273696195072E+00 -0.3068725443203E+01 -0.6792190226632E+00  0.6084445232513E-01
-0.3365857094134E+00 -0.2994589739444E+01 -0.6662350996991E+00  0.6493327850937E-01
-0.3371552717280E+00 -0.2915405450588E+01 -0.6505121541565E+00  0.7559482108079E-01
-0.3257029342633E+00 -0.2831975290116E+01 -0.6315356542865E+00  0.9413279467054E-01
-0.2981892264706E+00 -0.2745502355682E+01 -0.6087383255013E+00  0.1218281215544E+00
-0.2498438723231E+00 -0.2657682215849E+01 -0.5815052262995E+00  0.1598049896687E+00
-0.1751335840969E+00 -0.2570815156118E+01 -0.5491897562266E+00  0.2088133159368E+00
-0.6780928996471E-01 -0.2487897681197E+01 -0.5111414018489E+00  0.2689098333259E+00
 0.7890026048106E-01 -0.2412635100583E+01 -0.4667469749754E+00  0.3390348459451E+00
 0.2718639712223E+00 -0.2349302356802E+01 -0.4154876833071E+00  0.4165121386694E+00
 0.5173341893348E+00 -0.2302345627825E+01 -0.3570022930178E+00  0.4965619054658E+00
 0.8199034805037E+00 -0.2275709635470E+01 -0.2911612353320E+00  0.5719560201204E+00
 0.1181101145101E+01 -0.2271965942215E+01 -0.2181729626739E+00  0.6329927055825E+00
 0.1597838275732E+01 -0.2291275180352E+01 -0.1386873829905E+00  0.6680787025094E+00
 0.2061197263646E+01 -0.2330455758623E+01 -0.5385169979790E-01  0.6651153736373E+00
 0.2556140375196E+01 -0.2382655323265E+01  0.3469701090311E-01  0.6135718882151E+00
 0.3062643004935E+01 -0.2438029339636E+01  0.1249227349213E+00  0.5067132191706E+00
 0.3558117025414E+01 -0.2485368472939E+01  0.2145497136920E+00  0.3431037846676E+00
-0.8332572924220E+00 -0.3535979347982E+01 -0.8738473411022E+00  0.1456158407420E+00
-0.7407152069370E+00 -0.3575338895199E+01 -0.8632108332901E+00  0.1938379586529E+00
-0.6483570701678E+00 -0.3612317928023E+01 -0.8521350123361E+00  0.2290425929283E+00
-0.5597070256406E+00 -0.3644885023229E+01 -0.8409184223046E+00  0.2517726825127E+00
-0.4778152497284E+00 -0.3671439377714E+01 -0.8298509378543E+00  0.2634400916164E+00
-0.4049045858199E+00 -0.3691011124698E+01 -0.8191831543103E+00  0.2660119484813E+00
-0.3422532664179E+00 -0.3703284340743E+01 -0.8091075334888E+00  0.2616367777457E+00
-0.2902799301465E+00 -0.3708478858598E+01 -0.7997517696661E+00  0.2523305510930E+00
-0.2487454773771E+00 -0.3707163093845E+01 -0.7911817260340E+00  0.2397815934646E+00
-0.2169849347697E+00 -0.3700064869474E+01 -0.7834099725225E+00  0.2252753576235E+00
-0.1941112738631E+00 -0.3687920265277E+01 -0.7764063193974E+00  0.2097075433609E+00
-0.1791659976445E+00 -0.3671373185931E+01 -0.7701078481907E+00  0.1936470975379E+00
-0.1712141622383E+00 -0.3650920748110E+01 -0.7644269934606E+00  0.1774181650527E+00
-0.1693931012867E+00 -0.3626892420714E+01 -0.7592571157141E+00  0.1611819387343E+00
-0.1729270494147E+00 -0.3599450618512E+01 -0.7544755448280E+00  0.1450095228677E+00
-0.1811182641377E+00 -0.3568603269460E+01 -0.7499443178946E+00  0.1289434612030E+00
-0.1933222608550E+00 -0.3534222339911E+01 -0.7455089312622E+00  0.1130489005496E+00
-0.2089111516937E+00 -0.3496066640858E+01 -0.7409955695521E+00  0.9745694280360E-01
-0.2272282401786E+00 -0.3453806043894E+01 -0.7362068677848E+00  0.8240094657850E-01
-0.2475338293787E+00 -0.3407049699232E+01 -0.7309167166136E+00  0.6824756170761E-01
-0.2689430049132E+00 -0.3355379469110E+01 -0.7248645056059E+00  0.5552223319085E-01
-0.2903570829622E+00 -0.3298387043800E+01 -0.7177488360478E+00  0.4492737212234E-01
-0.3103890444280E+00 -0.3235718120451E+01 -0.7092214435440E+00  0.3735291095954E-01
-0.3272844749638E+00 -0.3167134311299E+01 -0.6988837676667E+00  0.3387496768871E-01
-0.3388401300402E+00 -0.3092631834565E+01 -0.6862944031477E+00  0.3572890842706E-01
-0.3423244741066E+00 -0.3012531500799E+01 -0.6709712049794E+00  0.4426889367571E-01
-0.3343959531370E+00 -0.2927495440992E+01 -0.6523782885470E+00  0.6093467194321E-01
-0.3110117071650E+00 -0.2838577745324E+01 -0.6299178998844E+00  0.8718811615722E-01
-0.2673345021068E+00 -0.2747330155636E+01 -0.6029329405329E+00  0.1243874219077E+00
-0.1976627501119E+00 -0.2655941225290E+01 -0.5707208035849E+00  0.1735710531185E+00
-0.9543023513695E-01 -0.2567368010977E+01 -0.5325596571585E+00  0.2351260098119E+00
 0.4665037026284E-01 -0.2485398329604E+01 -0.4877495991364E+00  0.3083275985614E+00
 0.2361997712385E+00 -0.2414560402701E+01 -0.4356721327844E+00  0.3907681971535E+00
 0.4804572528888E+00 -0.2359748773359E+01 -0.3758583096948E+00  0.4777628166668E+00
 0.7851640334405E+00 -0.2325527641744E+01 -0.3080727262513E+00  0.5618688598894E+00
 0.1152971303955E+01 -0.2315166080009E+01 -0.2324389586744E+00  0.6327244716535E+00
 0.1581574666796E+01 -0.2329411824706E+01 -0.1495674338107E+00  0.6775670672329E+00
 0.2062131357668E+01 -0.2365299944566E+01 -0.6063371828298E-01  0.6827245458085E+00
 0.2578686497567E+01 -0.2415603572725E+01  0.3261658545446E-01  0.6360266084485E+00
 0.3109362148766E+01 -0.2469517717724E+01  0.1279688881152E+00  0.5295478799678E+00
 0.3629316974910E+01 -0.2514635963046E+01  0.2229362056947E+00  0.3614650725817E+00
-0.8538376322537E+00 -0.3629074801611E+01 -0.8965825001330E+00  0.1610209814570E+00
-0.7563166641968E+00 -0.3670455179786E+01 -0.8853543819893E+00  0.2087154387605E+00
-0.6590015001321E+00 -0.3709208507071E+01 -0.8736420144589E+00  0.2425501765873E+00
-0.5658002038645E+00 -0.3743104399241E+01 -0.8617809334626E+00  0.2631830860616E+00
-0.4800498089202E+00 -0.3770428296415E+01 -0.8500956337344E+00  0.2722561518081E+00
-0.4041110530660E+00 -0.3790206453192E+01 -0.8388635137516E+00  0.2720086208620E+00
-0.3392566521121E+00 -0.3802212452200E+01 -0.8282938332050E+00  0.2648327433853E+00
-0.2857988086104E+00 -0.3806809451998E+01 -0.8185216643185E+00  0.2529175365766E+00
-0.2433430465918E+00 -0.3804722001198E+01 -0.8096130216221E+00  0.2380433985921E+00
-0.2110626189535E+00 -0.3796817711152E+01 -0.8015760779656E+00  0.2215186105221E+00
-0.1879286562976E+00 -0.3783941876919E+01 -0.7943741184804E+00  0.2042132734634E+00
-0.1728724597909E+00 -0.3766814455940E+01 -0.7879373948874E+00  0.1866428283711E+00
-0.1648824680266E+00 -0.3745979371563E+01 -0.7821723795732E+00  0.1690657674886E+00
-0.1630499500158E+00 -0.3721789786195E+01 -0.7769679588199E+00  0.1515756875151E+00
-0.1665789762706E+00 -0.3694414415566E+01 -0.7721986898740E+00  0.1341798431179E+00
-0.1747731023969E+00 -0.3663854220020E+01 -0.7677254759233E+00  0.1168634144872E+00
-0.1870070887888E+00 -0.3629963207688E+01 -0.7633940706708E+00  0.9964187276593E-01
-0.2026876655065E+00 -0.3592471886323E+01 -0.7590319216763E+00  0.8260507366790E-01
-0.2212061654555E+00 -0.3551010952102E+01 -0.7544434347537E+00  0.6595440330209E-01
-0.2418825285996E+00 -0.3505138247439E+01 -0.7494041663747E+00  0.5003510945197E-01
-0.2639010490993E+00 -0.3454370558489E+01 -0.7436543325990E+00  0.3536361428653E-01
-0.2862393596042E+00 -0.3398218986573E+01 -0.7368916802160E+00  0.2264779743043E-01
-0.3075909633508E+00 -0.3336231257054E+01 -0.7287644549404E+00  0.1280006620454E-01
-0.3262827419343E+00 -0.3268052819918E+01 -0.7188671230824E+00  0.6938968911498E-02
-0.3401890488688E+00 -0.3193550462243E+01 -0.7067479127538E+00  0.6365146474458E-02
-0.3466470105487E+00 -0.3112904515987E+01 -0.6919103156173E+00  0.1252558285280E-01
-0.3423667376501E+00 -0.3026620687482E+01 -0.6737974950669E+00  0.2698954832986E-01
-0.3233243868548E+00 -0.2935581216873E+01 -0.6517811304579E+00  0.5139729137638E-01
-0.2846419820131E+00 -0.2841162876769E+01 -0.6251609810720E+00  0.8734636517020E-01
-0.2204763733906E+00 -0.2745403324114E+01 -0.5931759483399E+00  0.1361824332669E+00
-0.1239642458733E+00 -0.2651176255511E+01 -0.5550281085475E+00  0.1986606707607E+00
 0.1269679672826E-01 -0.2562311199489E+01 -0.5099228881506E+00  0.2744530372593E+00
 0.1979146610606E+00 -0.2483565380747E+01 -0.4571301507491E+00  0.3615051360282E+00
 0.4400066989231E+00 -0.2420291035836E+01 -0.3960568732844E+00  0.4553235001735E+00
 0.7460228338950E+00 -0.2377730403531E+01 -0.3263415187901E+00  0.5483340603514E+00
 0.1119957359600E+01 -0.2359962601137E+01 -0.2480010520028E+00  0.6295421907631E+00
 0.1560527466222E+01 -0.2368468575860E+01 -0.1615882243356E+00  0.6849401371879E+00
 0.2059127135680E+01 -0.2400624457799E+01 -0.6829946544161E-01  0.6990763348255E+00
 0.2598850938869E+01 -0.2448846550734E+01  0.3000087807398E-01  0.6578402410457E+00
 0.3155681385220E+01 -0.2501222512885E+01  0.1308917764173E+00  0.5518683381137E+00
 0.3702189152709E+01 -0.2543955758084E+01  0.2316466823768E+00  0.3789333265555E+00
-0.8743898035403E+00 -0.3722768541521E+01 -0.9194316827130E+00  0.1772414266702E+00
-0.7715582929185E+00 -0.3766289368876E+01 -0.9075695458828E+00  0.2243538123890E+00
-0.6689706492194E+00 -0.3806896302983E+01 -0.8951734037795E+00  0.2566739784608E+00
-0.5709764378415E+00 -0.3842133368049E+01 -0.8826219743301E+00  0.2749997313466E+00
-0.4812315035617E+00 -0.3870166020117E+01 -0.8702795177039E+00  0.2812473085936E+00
-0.4022346050432E+00 -0.3890031853775E+01 -0.8584533045557E+00  0.2779720149225E+00
-0.3352296390735E+00 -0.3901621806003E+01 -0.8473703016422E+00  0.2678394553679E+00
-0.2803895707968E+00 -0.3905471575094E+01 -0.8371722416529E+00  0.2532230012060E+00
-0.2371336983399E+00 -0.3902484614690E+01 -0.8279236749430E+00  0.2359918114443E+00
-0.2044504789936E+00 -0.3893681962471E+01 -0.8196265005063E+00  0.2174655918939E+00
-0.1811550750745E+00 -0.3880023700068E+01 -0.8122357671318E+00  0.1984750758134E+00
-0.1660617610530E+00 -0.3862306021938E+01 -0.8056735686036E+00  0.1794695715587E+00
-0.1580804536887E+00 -0.3841117160344E+01 -0.7998395347250E+00  0.1606318559058E+00
-0.1562572609982E+00 -0.3816830793687E+01 -0.7946176227778E+00  0.1419804853514E+00
-0.1597783350191E+00 -0.3789619261848E+01 -0.7898795311436E+00  0.1234534298472E+00
-0.1679512950668E+00 -0.3759474897079E+01 -0.7854852501338E+00  0.1049742767450E+00
-0.1801731064608E+00 -0.3726233169323E+01 -0.7812812667988E+00  0.8650505190243E-01
-0.1958882743086E+00 -0.3689596567703E+01 -0.7770969799819E+00  0.6809047099601E-01
-0.2145396921005E+00 -0.3649157404004E+01 -0.7727394307357E+00  0.4989554333660E-01
-0.2355110733920E+00 -0.3604423091654E+01 -0.7679868444531E+00  0.3223899083343E-01
-0.2580608641956E+00 -0.3554845883874E+01 -0.7625813609774E+00  0.1562228388109E-01
-0.2812489178794E+00 -0.3499856092816E+01 -0.7562210134076E+00  0.7519926674185E-03
-0.3038563210472E+00 -0.3438902052849E+01 -0.7485516859335E+00 -0.1144470596065E-01
-0.3242998515900E+00 -0.3371509777742E+01 -0.7391619368807E+00 -0.1981554319950E-01
-0.3405422260241E+00 -0.3297410809358E+01 -0.7275906179183E+00 -0.2300417538795E-01
-0.3500032387655E+00 -0.3216635553468E+01 -0.7133277690762E+00 -0.1948076876840E-01
-0.3494633875692E+00 -0.3129518293624E+01 -0.6957963466068E+00 -0.7555807716788E-02
-0.3349424841088E+00 -0.3036746520884E+01 -0.6743378110469E+00  0.1458321223421E-01
-0.3015523103206E+00 -0.2939489176790E+01 -0.6482083070812E+00  0.4877450547782E-01
-0.2433418697653E+00 -0.2839589514335E+01 -0.6165862860079E+00  0.9668582638598E-01
-0.1531806732855E+00 -0.2739786073363E+01 -0.5785933579514E+00  0.1594765021604E+00
-0.2276412674956E-01 -0.2643897582098E+01 -0.5333323497169E+00  0.2372791124896E+00
 0.1571274421246E+00 -0.2556871739533E+01 -0.4799488666335E+00  0.3284865651789E+00
 0.3959765544367E+00 -0.2484514773257E+01 -0.4177076499884E+00  0.4289121800260E+00
 0.7023127201135E+00 -0.2432800055560E+01 -0.3460974722466E+00  0.5309597364108E+00
 0.1081727328815E+01 -0.2406738447354E+01 -0.2650022276568E+00  0.6230557611624E+00
 0.1534251263027E+01 -0.2408717268797E+01 -0.1748932037601E+00  0.6898844523041E+00
 0.2051740982941E+01 -0.2436618957673E+01 -0.7697559609329E-01  0.7139902155619E+00
 0.2616339163139E+01 -0.2482555391107E+01  0.2675675480514E-01  0.6789548126876E+00
 0.3201530567444E+01 -0.2533335567664E+01  0.1336390019473E+00  0.5736411953966E+00
 0.3776842037441E+01 -0.2573507987240E+01  0.2406668136264E+00  0.3954298017982E+00
-0.8949111462405E+00 -0.3817127934481E+01 -0.9424078301873E+00  0.1943303807647E+00
-0.7864001542143E+00 -0.3862919480706E+01 -0.9298639408401E+00  0.2407969499953E+00
-0.6781914944102E+00 -0.3905461256776E+01 -0.9167305638976E+00  0.2714344168718E+00
-0.5751451221678E+00 -0.3942040546840E+01 -0.9034371472638E+00  0.2872123376430E+00
-0.4812712922375E+00 -0.3970697717575E+01 -0.8903938152304E+00  0.2903752484736E+00
-0.3992030152291E+00 -0.3990502583093E+01 -0.8779411327468E+00  0.2838459135316E+00
-0.3301245832665E+00 -0.4001498021714E+01 -0.8663245339052E+00  0.2705953681703E+00
-0.2740299128763E+00 -0.4004426369641E+01 -0.8556912692542E+00  0.2531908544832E+00
-0.2301167709265E+00 -0.4000394764522E+01 -0.8461023196976E+00  0.2335832206733E+00
-0.1971640343304E+00 -0.3990590966432E+01 -0.8375510126330E+00  0.2130884597250E+00
-0.1738168585881E+00 -0.3976093830555E+01 -0.8299821501964E+00  0.1924814811822E+00
-0.1587666338322E+00 -0.3957774110858E+01 -0.8233081612063E+00  0.1721313764464E+00
-0.1508439937531E+00 -0.3936260279357E+01 -0.8174208668025E+00  0.1521346594878E+00
-0.1490517348924E+00 -0.3911942290018E+01 -0.8121988170849E+00  0.1324275252357E+00
-0.1525609516408E+00 -0.3884992887494E+01 -0.8075107798599E+00  0.1128736418463E+00
-0.1606863760930E+00 -0.3855394019787E+01 -0.8032160911449E+00  0.9333127224247E-01
-0.1728501476727E+00 -0.3822962298769E+01 -0.7991625011968E+00  0.7370567178727E-01
-0.1885375161221E+00 -0.3787373012335E+01 -0.7951821175405E+00  0.5399283771079E-01
-0.2072461602249E+00 -0.3748181615026E+01 -0.7910855668383E+00  0.3431714903133E-01
-0.2284273422740E+00 -0.3704846856337E+01 -0.7866548514442E+00  0.1496565746895E-01
-0.2514182210581E+00 -0.3656758006611E+01 -0.7816352571810E+00 -0.3581229230271E-02
-0.2753663665313E+00 -0.3603265519211E+01 -0.7757263887076E+00 -0.2062536947966E-01
-0.2991470458578E+00 -0.3543718202592E+01 -0.7685730611426E+00 -0.3523306721913E-01
-0.3212750108615E+00 -0.3477520822267E+01 -0.7597591779470E+00 -0.4622791047816E-01
-0.3398116120311E+00 -0.3404265469326E+01 -0.7488154274296E+00 -0.5220878336027E-01
-0.3522730939919E+00 -0.3323824809129E+01 -0.7352195915799E+00 -0.5157503522876E-01
-0.3555295556299E+00 -0.3236348087039E+01 -0.7183755392384E+00 -0.4252917157105E-01
-0.3456709718554E+00 -0.3142305752839E+01 -0.6975953553339E+00 -0.2309659225770E-01
-0.3178334796282E+00 -0.3042625040275E+01 -0.6720917139956E+00  0.8797945915044E-02
-0.2659991894027E+00 -0.2938907473783E+01 -0.6409813421885E+00  0.5515403522459E-01
-0.1828113639696E+00 -0.2833696686388E+01 -0.6033016190615E+00  0.1175673660971E+00
-0.5949037304549E-01 -0.2730735126759E+01 -0.5580451082764E+00  0.1966955159312E+00
 0.1140050576711E+00 -0.2635105229083E+01 -0.5042200417959E+00  0.2914811695211E+00
 0.3484010464289E+00 -0.2553045865313E+01 -0.4409289703471E+00  0.3981794832063E+00
 0.6538851284001E+00 -0.2491304164036E+01 -0.3674838126031E+00  0.5093125407255E+00
 0.1037934013089E+01 -0.2455950769345E+01 -0.2836033554773E+00  0.6128167573224E+00
 0.1502248142997E+01 -0.2450481093255E+01 -0.1896465928776E+00  0.6920272981321E+00
 0.2039454492139E+01 -0.2473496598423E+01 -0.8680842255031E-01  0.7272483159055E+00
 0.2630803562665E+01 -0.2516911324145E+01  0.2277844804333E-01  0.6993137054271E+00
 0.3246842488148E+01 -0.2566074536945E+01  0.1361535922696E+00  0.5948432922192E+00
 0.3853367443816E+01 -0.2603495629781E+01  0.2499743665318E+00  0.4108561883781E+00
-0.9153982397916E+00 -0.3912230630359E+01 -0.9655257884175E+00  0.2123465567717E+00
-0.8007952473395E+00 -0.3960435208320E+01 -0.9522461053214E+00  0.2580920750761E+00
-0.6865791450656E+00 -0.4004994161895E+01 -0.9383146753742E+00  0.2868501951099E+00
-0.5782029141831E+00 -0.4042901662852E+01 -0.9242209291789E+00  0.2998031066381E+00
-0.4800704118031E+00 -0.4072070002567E+01 -0.9104280964404E+00  0.2995901173406E+00
-0.3949393565920E+00 -0.4091629670301E+01 -0.8973138187496E+00  0.2895614991231E+00
-0.3238940621231E+00 -0.4101818366187E+01 -0.8851424988516E+00  0.2730278315564E+00
-0.2667013105890E+00 -0.4103624598642E+01 -0.8740651948708E+00  0.2527567334971E+00
-0.2222972959618E+00 -0.4098385665603E+01 -0.8641366051897E+00  0.2307687335307E+00
-0.1892251003153E+00 -0.4087468306530E+01 -0.8553386941146E+00  0.2083565239984E+00
-0.1659464489018E+00 -0.4072071869534E+01 -0.8476036763175E+00  0.1862198083101E+00
-0.1510254186728E+00 -0.4053137646088E+01 -0.8408326254816E+00  0.1646319871054E+00
-0.1432140503930E+00 -0.4031328442617E+01 -0.8349085110431E+00  0.1435924810520E+00
-0.1414747884464E+00 -0.4007045081383E+01 -0.8297039863294E+00  0.1229481480993E+00
-0.1449672061551E+00 -0.3980456941506E+01 -0.8250848418270E+00  0.1024839517107E+00
-0.1530164770506E+00 -0.3951533775766E+01 -0.8209100627958E+00  0.8198975406735E-01
-0.1650728518125E+00 -0.3920073343167E+01 -0.8170292511705E+00  0.6131128187013E-01
-0.1806650454480E+00 -0.3885725158628E+01 -0.8132780529339E+00  0.4039264486403E-01
-0.1993483711426E+00 -0.3848010168464E+01 -0.8094717199834E+00  0.1931355968555E-01
-0.2206449865569E+00 -0.3806341198577E+01 -0.8053972490281E+00 -0.1675702868185E-02
-0.2439748808123E+00 -0.3760047183322E+01 -0.8008044247597E+00 -0.2212204131833E-01
-0.2685783634777E+00 -0.3708400874568E+01 -0.7953958594615E+00 -0.4134314300329E-01
-0.2934309203027E+00 -0.3650652827268E+01 -0.7888167612684E+00 -0.5840750613951E-01
-0.3171526668468E+00 -0.3586086393295E+01 -0.7806478236610E+00 -0.7212492428101E-01
-0.3379130976256E+00 -0.3514151901332E+01 -0.7704130112716E+00 -0.8106171996602E-01
-0.3533380860281E+00 -0.3434558520825E+01 -0.7575793326594E+00 -0.8356051445014E-01
-0.3604065634787E+00 -0.3347258829026E+01 -0.7415330895506E+00 -0.7773124735470E-01
-0.3553065398631E+00 -0.3252485344864E+01 -0.7215583876975E+00 -0.6145186111996E-01
-0.3332368062665E+00 -0.3150889640407E+01 -0.6968252997183E+00 -0.3241953302317E-01
-0.2881607810925E+00 -0.3043781246244E+01 -0.6663884153972E+00  0.1170026878571E-01
-0.2125483220146E+00 -0.2933441539071E+01 -0.6291979815928E+00  0.7296585151697E-01
-0.9718868880415E-01 -0.2823457311118E+01 -0.5841292086886E+00  0.1526219975766E+00
 0.6877161046115E-01 -0.2718969738281E+01 -0.5300396334622E+00  0.2502700544593E+00
 0.2973660198773E+00 -0.2626605858651E+01 -0.4658479746963E+00  0.3627622946127E+00
 0.6006209011504E+00 -0.2553912013818E+01 -0.3906582283547E+00  0.4829156016743E+00
 0.9882208149848E+00 -0.2508148378210E+01 -0.3039855171749E+00  0.5983096319954E+00
 0.1463964492995E+01 -0.2494149633301E+01 -0.2060370311315E+00  0.6909225413252E+00
 0.2021657815330E+01 -0.2511500992664E+01 -0.9796863692674E-01  0.7385791968637E+00
 0.2641822313496E+01 -0.2552095128536E+01  0.1794543725924E-01  0.7188590581405E+00
 0.3291567555845E+01 -0.2599673516244E+01  0.1383788099820E+00  0.6154777142080E+00
 0.3931827341373E+01 -0.2634137830887E+01  0.2595379059647E+00  0.4250829986455E+00
-0.9358467036597E+00 -0.4008166851890E+01 -0.9888027258443E+00  0.2313550626124E+00
-0.8146878858818E+00 -0.4058940407792E+01 -0.9747256732593E+00  0.2762900444887E+00
-0.6940343706000E+00 -0.4105598690018E+01 -0.9599266264275E+00  0.3029373181895E+00
-0.5800315563899E+00 -0.4144800379112E+01 -0.9449664011815E+00  0.3127445670948E+00
-0.4775193336604E+00 -0.4174330314561E+01 -0.9303699435079E+00  0.3088279660415E+00
-0.3893621946156E+00 -0.4193418241826E+01 -0.9165561009461E+00  0.2950352402828E+00
-0.3164918725007E+00 -0.4202549703350E+01 -0.9038083286379E+00  0.2750518553984E+00
-0.2583902718856E+00 -0.4203004805639E+01 -0.8922790288009E+00  0.2518476305291E+00
-0.2136871108830E+00 -0.4196378591428E+01 -0.8820131536051E+00  0.2274943939664E+00
-0.1806625867300E+00 -0.4184227041726E+01 -0.8729779386996E+00  0.2032367389095E+00
-0.1575828763116E+00 -0.4167868617881E+01 -0.8650903117294E+00  0.1796766881801E+00
-0.1428822860310E+00 -0.4148308252569E+01 -0.8582381205087E+00  0.1569752569619E+00
-0.1352367350870E+00 -0.4126235090408E+01 -0.8522943777992E+00  0.1350239395784E+00
-0.1335725412437E+00 -0.4102054172884E+01 -0.8471253554487E+00  0.1135738989570E+00
-0.1370420137975E+00 -0.4075927211155E+01 -0.8425938575461E+00  0.9232782574577E-01
-0.1449843572119E+00 -0.4047809956462E+01 -0.8385588752304E+00  0.7100492911756E-01
-0.1568807854586E+00 -0.4017481721000E+01 -0.8348725137324E+00  0.4938934425318E-01
-0.1723058795513E+00 -0.3984568370033E+01 -0.8313748623053E+00  0.2737063145950E-01
-0.1908749837719E+00 -0.3948559602551E+01 -0.8278869296011E+00  0.4980107380313E-02
-0.2121839977719E+00 -0.3908826128262E+01 -0.8242020374884E+00 -0.1757376063231E-01
-0.2357393556833E+00 -0.3864640377982E+01 -0.8200759589531E+00 -0.3987150478667E-01
-0.2608786012180E+00 -0.3815200874548E+01 -0.8152159073009E+00 -0.6125425904661E-01
-0.2866828344379E+00 -0.3759662707014E+01 -0.8092691203494E+00 -0.8080179537294E-01
-0.3118840771394E+00 -0.3697189462133E+01 -0.8018147198024E+00 -0.9732110294103E-01
-0.3347684368738E+00 -0.3627089563040E+01 -0.7923716117900E+00 -0.1093593006753E+00
-0.3530835673098E+00 -0.3548905420508E+01 -0.7803978091925E+00 -0.1152183484905E+00
-0.3639359193240E+00 -0.3462383950912E+01 -0.7652639854506E+00 -0.1129342450652E+00
-0.3636401151753E+00 -0.3367501174706E+01 -0.7462282690959E+00 -0.1002569324977E+00
-0.3474989669679E+00 -0.3264600155410E+01 -0.7224198352404E+00 -0.7467209261344E-01
-0.3095123303290E+00 -0.3154646513897E+01 -0.6928317791692E+00 -0.3351535921221E-01
-0.2420419889190E+00 -0.3039585338102E+01 -0.6563254751843E+00  0.2575196763512E-01
-0.1355091456964E+00 -0.2922754113964E+01 -0.6116526610465E+00  0.1050185657219E+00
 0.2171832681587E-01 -0.2809253583934E+01 -0.5575070597311E+00  0.2046565907714E+00
 0.2430226019146E+00 -0.2706025112417E+01 -0.4926005094408E+00  0.3222901058160E+00
 0.5424444023378E+00 -0.2621413634002E+01 -0.4157938525286E+00  0.4512480144603E+00
 0.9322306944719E+00 -0.2563993431381E+01 -0.3263525522449E+00  0.5789426055658E+00
 0.1418790179340E+01 -0.2540198751172E+01 -0.2242817177085E+00  0.6860347252279E+00
 0.1997634184448E+01 -0.2550921318872E+01 -0.1106574285337E+00  0.7476359337540E+00
 0.2648860741943E+01 -0.2588278708752E+01  0.1211640681872E-01  0.7375147548786E+00
 0.3335697080395E+01 -0.2634346441241E+01  0.1402701299210E+00  0.6356012529008E+00
 0.4012232065593E+01 -0.2665632790275E+01  0.2693198590768E+00  0.4379392926004E+00
-0.9562509201841E+00 -0.4105042276428E+01 -0.1012258654406E+01  0.2514284597520E+00
-0.8280116236051E+00 -0.4158556155886E+01 -0.9973135707593E+00  0.2954456024261E+00
-0.7004405410868E+00 -0.4207393789674E+01 -0.9815668807787E+00  0.3197077194242E+00
-0.5804953349170E+00 -0.4247829068338E+01 -0.9656648950404E+00  0.3259967700735E+00
-0.4734967517284E+00 -0.4277525850979E+01 -0.9502045347007E+00  0.3180076079952E+00
-0.3823860965848E+00 -0.4295865241807E+01 -0.9356502816207E+00  0.3001664717470E+00
-0.3078744163934E+00 -0.4303645915982E+01 -0.9223040802185E+00  0.2765688655622E+00
-0.2490898944993E+00 -0.4302491144589E+01 -0.9103162213824E+00  0.2503816995568E+00
-0.2043061402509E+00 -0.4294281417140E+01 -0.8997175248851E+00  0.2237016374720E+00
-0.1715133474995E+00 -0.4280768948899E+01 -0.8904564725485E+00  0.1976944048346E+00
-0.1487722103772E+00 -0.4263385849810E+01 -0.8824316251867E+00  0.1728387376310E+00
-0.1343873981732E+00 -0.4243190365857E+01 -0.8755155658523E+00  0.1491656516256E+00
-0.1269632987582E+00 -0.4220887670213E+01 -0.8695702067518E+00  0.1264482517200E+00
-0.1253957320573E+00 -0.4196879101878E+01 -0.8644549796685E+00  0.1043365855392E+00
-0.1288347425652E+00 -0.4171313923051E+01 -0.8600297459386E+00  0.8244857890629E-01
-0.1366373792428E+00 -0.4144132162216E+01 -0.8561539210494E+00  0.6043153571444E-01
-0.1483185205215E+00 -0.4115095577720E+01 -0.8526828323542E+00  0.3800676337433E-01
-0.1635006136154E+00 -0.4083809292693E+01 -0.8494619939197E+00  0.1500721839971E-01
-0.1818608930272E+00 -0.4049736025306E+01 -0.8463193962778E+00 -0.8587550279665E-02
-0.2030712699987E+00 -0.4012209338564E+01 -0.8430561342751E+00 -0.3261575850065E-01
-0.2267276773584E+00 -0.3970450266190E+01 -0.8394356012183E+00 -0.5669793692964E-01
-0.2522688148168E+00 -0.3923587969084E+01 -0.8351713692251E+00 -0.8020643742880E-01
-0.2788860856115E+00 -0.3870686461423E+01 -0.8299145217736E+00 -0.1022416419333E+00
-0.3054289681424E+00 -0.3810793167750E+01 -0.8232444394458E+00 -0.1216192035194E+00
-0.3303073274764E+00 -0.3743076880727E+01 -0.8146768537803E+00 -0.1368813510597E+00
-0.3514012647044E+00 -0.3666912906089E+01 -0.8036628461341E+00 -0.1463072647758E+00
-0.3659622516394E+00 -0.3581836821301E+01 -0.7895598263535E+00 -0.1478807912840E+00
-0.3704599973188E+00 -0.3487552924316E+01 -0.7716025958247E+00 -0.1392483517986E+00
-0.3603448727329E+00 -0.3384065458502E+01 -0.7488820774062E+00 -0.1177075391479E+00
-0.3297144999467E+00 -0.3271944321671E+01 -0.7203317750573E+00 -0.8027899610400E-01
-0.2709004838347E+00 -0.3152719232865E+01 -0.6847239535432E+00 -0.2393711482997E-01
-0.1740401286838E+00 -0.3029370895207E+01 -0.6406822143250E+00  0.5389771815780E-01
-0.2678582763197E-01 -0.2906834867422E+01 -0.5867241477537E+00  0.1544791924626E+00
 0.1856033937531E+00 -0.2792256634896E+01 -0.5213306559969E+00  0.2763947605366E+00
 0.4793413354434E+00 -0.2694742310570E+01 -0.4430802016277E+00  0.4137464770759E+00
 0.8696198385119E+00 -0.2624287431210E+01 -0.3509335237690E+00  0.5540391656796E+00
 0.1366059111487E+01 -0.2589217801017E+01 -0.2446317415513E+00  0.6767205756041E+00
 0.1966551934576E+01 -0.2592113411333E+01 -0.1251122972158E+00  0.7539737121886E+00
 0.2651217482498E+01 -0.2625641864950E+01  0.5115123585945E-02  0.7551465738832E+00
 0.3379268469164E+01 -0.2670230653831E+01  0.1418075651797E+00  0.6553292742135E+00
 0.4094540713053E+01 -0.2697931313562E+01  0.2793218840604E+00  0.4492497212059E+00
-0.9766036898984E+00 -0.4202981758102E+01 -0.1035917105036E+01  0.2726480198109E+00
-0.8406865882012E+00 -0.4259424460610E+01 -0.1020022224962E+01  0.3156175830863E+00
-0.7056598500419E+00 -0.4310516625280E+01 -0.1003235310014E+01  0.3371673730885E+00
-0.5794381300933E+00 -0.4352089443698E+01 -0.9863055294554E+00  0.3395036240649E+00
-0.4678687102645E+00 -0.4381701911426E+01 -0.9699141387910E+00  0.3270267861433E+00
-0.3739225967399E+00 -0.4398956413060E+01 -0.9545758161843E+00  0.3048346737861E+00
-0.2980025844387E+00 -0.4405044755481E+01 -0.9406094820000E+00  0.2774655399794E+00
-0.2388017744468E+00 -0.4401990926599E+01 -0.9281585540397E+00  0.2482683459349E+00
-0.1941838430067E+00 -0.4391987136865E+01 -0.9172342096423E+00  0.2193280637524E+00
-0.1618230539955E+00 -0.4376983902153E+01 -0.9077614047564E+00  0.1916941277321E+00
-0.1395679537579E+00 -0.4358516299642E+01 -0.8996168640853E+00  0.1656934037300E+00
-0.1255969800367E+00 -0.4337681577405E+01 -0.8926557247899E+00  0.1412088457542E+00
-0.1184500235181E+00 -0.4315188153089E+01 -0.8867276485348E+00  0.1178855506201E+00
-0.1169995409909E+00 -0.4291424499792E+01 -0.8816848212947E+00  0.9526833456811E-01
-0.1203990444786E+00 -0.4266522267142E+01 -0.8773842753982E+00  0.7288919829005E-01
-0.1280274075982E+00 -0.4240404227580E+01 -0.8736863400546E+00  0.5032346556885E-01
-0.1394356450314E+00 -0.4212816060266E+01 -0.8704503540302E+00  0.2722933733417E-01
-0.1542955799164E+00 -0.4183345929767E+01 -0.8675283148639E+00  0.3381821788437E-02
-0.1723475646537E+00 -0.4151434941789E+01 -0.8647565141745E+00 -0.2129421966062E-01
-0.1933411307398E+00 -0.4116385743404E+01 -0.8619453876728E+00 -0.4668836870613E-01
-0.2169641449655E+00 -0.4077374441799E+01 -0.8588677301511E+00 -0.7246751515206E-01
-0.2427597819447E+00 -0.4033467168787E+01 -0.8552454028906E+00 -0.9804309474331E-01
-0.2700336913399E+00 -0.3983642923150E+01 -0.8507353355750E+00 -0.1225455767975E+00
-0.2977572471066E+00 -0.3926838627950E+01 -0.8449191876016E+00 -0.1448110311499E+00
-0.3244696175969E+00 -0.3862088347502E+01 -0.8373116054967E+00 -0.1633918135672E+00
-0.3481920566670E+00 -0.3788603241852E+01 -0.8273590720325E+00 -0.1765637646642E+00
-0.3663366685722E+00 -0.3705705857919E+01 -0.8144085174339E+00 -0.1822833504865E+00
-0.3755556738853E+00 -0.3612817978516E+01 -0.7976747423665E+00 -0.1781229964353E+00
-0.3714915420726E+00 -0.3509578897645E+01 -0.7762140995100E+00 -0.1612234123182E+00
-0.3484059905328E+00 -0.3396113322468E+01 -0.7489038737597E+00 -0.1283162118140E+00
-0.2986902846981E+00 -0.3273453970516E+01 -0.7144288616887E+00 -0.7589653174144E-01
-0.2123044488808E+00 -0.3144105086264E+01 -0.6712819170319E+00 -0.6613505433107E-03
-0.7628328181720E-01 -0.3012685273649E+01 -0.6177937202990E+00  0.9962751923192E-01
 0.1254404582914E+00 -0.2886390578708E+01 -0.5521900323116E+00  0.2247241428972E+00
 0.4113823302502E+00 -0.2774999857112E+01 -0.4727235124166E+00  0.3698112302344E+00
 0.8000732600924E+00 -0.2690006309314E+01 -0.3779866154768E+00  0.5228277564640E+00
 0.1305059740147E+01 -0.2641934887216E+01 -0.2673750333980E+00  0.6622151544043E+00
 0.1927446895131E+01 -0.2635552842831E+01 -0.1416211916504E+00  0.7570119076778E+00
 0.2647997417236E+01 -0.2664350945413E+01 -0.3270705684133E-02  0.7715547117015E+00
 0.3422363171771E+01 -0.2707596909620E+01  0.1429532545604E+00  0.6746814713534E+00
 0.4178321002214E+01 -0.2729687152383E+01  0.2897267742835E+00  0.4589218638753E+00
-0.9968935677263E+00 -0.4302135374425E+01 -0.1059805804223E+01  0.2951038107425E+00
-0.8526165547872E+00 -0.4361725218124E+01 -0.1042868370122E+01  0.3368706458967E+00
-0.7095277308050E+00 -0.4415145976299E+01 -0.1024934756693E+01  0.3553155443268E+00
-0.5766782384455E+00 -0.4457721821413E+01 -0.1006880026975E+01  0.3531905283613E+00
-0.4604844616343E+00 -0.4486936592945E+01 -0.9894842256603E+00  0.3357591692088E+00
-0.3638768298749E+00 -0.4502707315837E+01 -0.9733168436459E+00  0.3088968468714E+00
-0.2868381681310E+00 -0.4506716175976E+01 -0.9587108831073E+00  0.2776115497004E+00
-0.2275314975767E+00 -0.4501450752101E+01 -0.9457964640290E+00  0.2454057113240E+00
-0.1833535822545E+00 -0.4489437740347E+01 -0.9345582784463E+00  0.2143039895685E+00
-0.1516395819537E+00 -0.4472821219664E+01 -0.9248921741054E+00  0.1851950323840E+00
-0.1300236716143E+00 -0.4453222269576E+01 -0.9166492018971E+00  0.1582227190455E+00
-0.1165653470953E+00 -0.4431758491267E+01 -0.9096647812274E+00  0.1331040761427E+00
-0.1097496864852E+00 -0.4409126338817E+01 -0.9037752185278E+00  0.1093479454108E+00
-0.1084344212118E+00 -0.4385691223193E+01 -0.8988251422745E+00  0.8639143892006E-01
-0.1117829161309E+00 -0.4361561871969E+01 -0.8946689709515E+00  0.6368099000734E-01
-0.1191999241254E+00 -0.4336642674414E+01 -0.8911685329873E+00  0.4072113345553E-01
-0.1302747580625E+00 -0.4310665484478E+01 -0.8881880617432E+00  0.1710767333035E-01
-0.1447295750895E+00 -0.4283206358155E+01 -0.8855871998452E+00 -0.7442973810735E-02
-0.1623684099305E+00 -0.4253691451941E+01 -0.8832119855352E+00 -0.3306315562373E-01
-0.1830193826887E+00 -0.4221400176028E+01 -0.8808839248696E+00 -0.5969840081034E-01
-0.2064642159995E+00 -0.4185471696731E+01 -0.8783871956351E+00 -0.8706844752841E-01
-0.2323534777271E+00 -0.4144916995830E+01 -0.8754541077567E+00 -0.1146319055286E+00
-0.2601105251105E+00 -0.4098637783770E+01 -0.8717496747661E+00 -0.1415590172903E+00
-0.2888321912006E+00 -0.4045468149982E+01 -0.8668600811538E+00 -0.1667182769113E+00
-0.3171910136821E+00 -0.3984314914672E+01 -0.8603011984903E+00 -0.1886877698072E+00
-0.3433561106755E+00 -0.3914231386790E+01 -0.8515175121817E+00 -0.2057608303084E+00
-0.3649137517568E+00 -0.3834329538843E+01 -0.8398486706346E+00 -0.2158941350168E+00
-0.3787246875235E+00 -0.3743742661591E+01 -0.8244934821088E+00 -0.2166205800722E+00
-0.3806684612335E+00 -0.3641723904951E+01 -0.8044784852246E+00 -0.2049630970874E+00
-0.3652414664129E+00 -0.3527906894783E+01 -0.7786296838417E+00 -0.1774020105570E+00
-0.3249958852466E+00 -0.3402744682286E+01 -0.7455481246161E+00 -0.1299768677736E+00
-0.2498443317490E+00 -0.3268133984574E+01 -0.7035956737489E+00 -0.5864700955563E-01
-0.1263410133475E+00 -0.3128195472584E+01 -0.6509073068856E+00  0.3990017498805E-01
 0.6282360754983E-01 -0.2989970252596E+01 -0.5854293377328E+00  0.1667963483309E+00
 0.3385498444494E+00 -0.2863754713163E+01 -0.5050409812684E+00  0.3186614509437E+00
 0.7231170412904E+00 -0.2762564377548E+01 -0.4078894733295E+00  0.4843152017897E+00
 0.1234810022107E+01 -0.2699452929079E+01 -0.2929285857595E+00  0.6415145113243E+00
 0.1879105974644E+01 -0.2681961906400E+01 -0.1605711887439E+00  0.7560646811406E+00
 0.2638077568234E+01 -0.2704978992756E+01 -0.1338028510385E-01  0.7862094758006E+00
 0.3464261753408E+01 -0.2746179284341E+01  0.1436164959534E+00  0.6946613853233E+00
 0.4271246783179E+01 -0.2762929337168E+01  0.3016634936973E+00  0.4611075127371E+00
-0.1017114442651E+01 -0.4402682677216E+01 -0.1083959440126E+01  0.3189047786129E+00
-0.8636865721660E+00 -0.4465660169422E+01 -0.1065869364200E+01  0.3592752891886E+00
-0.7118517467069E+00 -0.4521467451408E+01 -0.1046663855220E+01  0.3741403923471E+00
-0.5720106236436E+00 -0.4564848549885E+01 -0.1027371850015E+01  0.3669568124945E+00
-0.4511847784096E+00 -0.4593263449750E+01 -0.1008889660666E+01  0.3440482841283E+00
-0.3521606169030E+00 -0.4607068346781E+01 -0.9918458075165E+00  0.3121860408981E+00
-0.2743594447913E+00 -0.4608552957630E+01 -0.9765824950365E+00  0.2768635935649E+00
-0.2153048378728E+00 -0.4600734717749E+01 -0.9632079254772E+00  0.2416895967741E+00
-0.1718685063779E+00 -0.4586490624323E+01 -0.9516718403212E+00  0.2085652009584E+00
-0.1410283862714E+00 -0.4568144025298E+01 -0.9418344963482E+00  0.1781664579463E+00
-0.1202080703336E+00 -0.4547377271937E+01 -0.9335170823647E+00  0.1504213817161E+00
-0.1073600639336E+00 -0.4525304800822E+01 -0.9265329867575E+00  0.1248643188657E+00
-0.1009272349685E+00 -0.4502593415453E+01 -0.9207041438038E+00  0.1008616988651E+00
-0.9976275174371E-01 -0.4479574334338E+01 -0.9158674308638E+00  0.7774258610694E-01
-0.1030467982344E+00 -0.4456328008086E+01 -0.9118749748520E+00  0.5487004820613E-01
-0.1102140319893E+00 -0.4432739777800E+01 -0.9085907754970E+00  0.3168053227497E-01
-0.1208937919090E+00 -0.4408530723934E+01 -0.9058849166673E+00  0.7709361073056E-02
-0.1348588183270E+00 -0.4383270721242E+01 -0.9036259213789E+00 -0.1738536846288E-01
-0.1519765302033E+00 -0.4356378971007E+01 -0.9016711136779E+00 -0.4379512601739E-01
-0.1721537339370E+00 -0.4327120850850E+01 -0.8998549303662E+00 -0.7152568191361E-01
-0.1952671834958E+00 -0.4294608195305E+01 -0.8979750891411E+00 -0.1003560854443E+00
-0.2210771472986E+00 -0.4257806378553E+01 -0.8957767185184E+00 -0.1298002807271E+00
-0.2491274485698E+00 -0.4215549347257E+01 -0.8929353724712E+00 -0.1590779606857E+00
-0.2786427429274E+00 -0.4166578235267E+01 -0.8890442088868E+00 -0.1871019681942E+00
-0.3084309721910E+00 -0.4109683052705E+01 -0.8836228181461E+00 -0.2124918564169E+00
-0.3368129495807E+00 -0.4043769528252E+01 -0.8761165086216E+00 -0.2335801920698E+00
-0.3615593063939E+00 -0.3967746767921E+01 -0.8658612277654E+00 -0.2483538474749E+00
-0.3797622396666E+00 -0.3880460266373E+01 -0.8520445139043E+00 -0.2543453769855E+00
-0.3875815437265E+00 -0.3780763777252E+01 -0.8336690766182E+00 -0.2485072387429E+00
-0.3798203820050E+00 -0.3667762104599E+01 -0.8095165093834E+00 -0.2271195042812E+00
-0.3493018661760E+00 -0.3541251155173E+01 -0.7781106158645E+00 -0.1858097946311E+00
-0.2860437375053E+00 -0.3402384498285E+01 -0.7376856581505E+00 -0.1198119133328E+00
-0.1763009893146E+00 -0.3254578796807E+01 -0.6861759674492E+00 -0.2467511416434E-01
-0.1674963994755E-02 -0.3104458175707E+01 -0.6212266371974E+00  0.1023126052818E+00
 0.2611280462021E+00 -0.2962593984477E+01 -0.5402931957059E+00  0.2596055994799E+00
 0.6385105902656E+00 -0.2843464206830E+01 -0.4409907298843E+00  0.4374659118754E+00
 0.1154441125828E+01 -0.2762965774682E+01 -0.3217049345645E+00  0.6134722049298E+00
 0.1820097120208E+01 -0.2732128306817E+01 -0.1824062400400E+00  0.7501688355461E+00
 0.2620473937995E+01 -0.2748046143260E+01 -0.2551444143319E-01  0.7989089512769E+00
 0.3502943164684E+01 -0.2786282599645E+01  0.1433321151437E+00  0.7135092727813E+00
 0.4382155788911E+01 -0.2800181734996E+01  0.3163948154976E+00  0.4637063421325E+00
-0.1037246685070E+01 -0.4504835660319E+01 -0.1108416485594E+01  0.3441669856862E+00
-0.8737473973699E+00 -0.4571457651283E+01 -0.1089041025959E+01  0.3828990843662E+00
-0.7123928727367E+00 -0.4629674780701E+01 -0.1068413546608E+01  0.3936033509222E+00
-0.5651937383388E+00 -0.4673570163114E+01 -0.1047752795903E+01  0.3806572771435E+00
-0.4397957067480E+00 -0.4700663862105E+01 -0.1028091929090E+01  0.3516907905131E+00
-0.3386914501173E+00 -0.4711916689061E+01 -0.1010121642888E+01  0.3144989560061E+00
-0.2605625046495E+00 -0.4710364895418E+01 -0.9941854948279E+00  0.2750570484939E+00
-0.2021694982071E+00 -0.4699621722250E+01 -0.9803582586999E+00  0.2370074786021E+00
-0.1598029792619E+00 -0.4682918571203E+01 -0.9685443245253E+00  0.2020476826542E+00
-0.1300736203409E+00 -0.4662730998374E+01 -0.9585609380266E+00  0.1705823471792E+00
-0.1102060389960E+00 -0.4640768737166E+01 -0.9501949693914E+00  0.1422902927489E+00
-0.9806313374366E-01 -0.4618114395547E+01 -0.9432355199135E+00  0.1165087695101E+00
-0.9206128487137E-01 -0.4595385126540E+01 -0.9374892962519E+00  0.9245856673263E-01
-0.9106075776704E-01 -0.4572866130985E+01 -0.9327853916501E+00  0.6936299690384E-01
-0.9426601397889E-01 -0.4550604352930E+01 -0.9289740872246E+00  0.4650611958636E-01
-0.1011455164912E+00 -0.4528465958782E+01 -0.9259223088519E+00  0.2326073113199E-01
-0.1113698196080E+00 -0.4506165110616E+01 -0.9235069998062E+00 -0.8949950072122E-03
-0.1247616506325E+00 -0.4483272487210E+01 -0.9216068413016E+00 -0.2635986210347E-01
-0.1412504595724E+00 -0.4459209660845E+01 -0.9200920377940E+00 -0.5338551637548E-01
-0.1608207182906E+00 -0.4433238754161E+01 -0.9188119081817E+00 -0.8204173119782E-01
-0.1834443768103E+00 -0.4404455584702E+01 -0.9175800059756E+00 -0.1121730822160E+00
-0.2089928569685E+00 -0.4371791199596E+01 -0.9161568249647E+00 -0.1433568530166E+00
-0.2371322643022E+00 -0.4334023152000E+01 -0.9142310968836E+00 -0.1748715413142E+00
-0.2672158834159E+00 -0.4289811772009E+01 -0.9114055446659E+00 -0.2056856967396E+00
-0.2981864422894E+00 -0.4237843820058E+01 -0.9072060659880E+00 -0.2344755471830E+00
-0.3285164260414E+00 -0.4176892138071E+01 -0.9010817262496E+00 -0.2596347190679E+00
-0.3561662566589E+00 -0.4105676849249E+01 -0.8923686344790E+00 -0.2792117204584E+00
-0.3784773474996E+00 -0.4022764754025E+01 -0.8802484334216E+00 -0.2907816858954E+00
-0.3919281926667E+00 -0.3926607961869E+01 -0.8637072437775E+00 -0.2912813401982E+00
-0.3916982464223E+00 -0.3815757936572E+01 -0.8414912491380E+00 -0.2768550352216E+00
-0.3709953147108E+00 -0.3689288794878E+01 -0.8120568340183E+00 -0.2427848713278E+00
-0.3201132253322E+00 -0.3547480553503E+01 -0.7735187672934E+00 -0.1836254564719E+00
-0.2252350398253E+00 -0.3392823473171E+01 -0.7236117133819E+00 -0.9376621997173E-01
-0.6711004013796E-01 -0.3231205854033E+01 -0.6596631886640E+00  0.3125621564872E-01
 0.1798427515990E+00 -0.3073124279029E+01 -0.5786563141086E+00  0.1921459229840E+00
 0.5464459987568E+00 -0.2934329436120E+01 -0.4775766945891E+00  0.3812868996948E+00
 0.1063334560860E+01 -0.2833814933017E+01 -0.3540960797079E+00  0.5768076720354E+00
 0.1749175274354E+01 -0.2786940825425E+01 -0.2075531133068E+00  0.7381940143172E+00
 0.2593285362780E+01 -0.2794028686861E+01 -0.4014866541435E-01  0.8089814666375E+00
 0.3540395694061E+01 -0.2829098281519E+01  0.1422594846284E+00  0.7311973680024E+00
 0.4495764446527E+01 -0.2841856975381E+01  0.3307814991582E+00  0.4674258517291E+00
-0.1057269149357E+01 -0.4608857539869E+01 -0.1133225354732E+01  0.3710272250541E+00
-0.8826179811762E+00 -0.4679408684466E+01 -0.1112405349705E+01  0.4078158601496E+00
-0.7108666495851E+00 -0.4740017411524E+01 -0.1090176828467E+01  0.4136449200706E+00
-0.5559521704428E+00 -0.4784021648021E+01 -0.1067994779607E+01  0.3941059612792E+00
-0.4261328852965E+00 -0.4809133731551E+01 -0.1047053338972E+01  0.3584418461842E+00
-0.3233952666517E+00 -0.4817137199925E+01 -0.1028106508635E+01  0.3156037417433E+00
-0.2454597734279E+00 -0.4811976242614E+01 -0.1011487218281E+01  0.2720142868138E+00
-0.1881886621552E+00 -0.4797919554653E+01 -0.9972216582214E+00  0.2312449102886E+00
-0.1472419224152E+00 -0.4778539389971E+01 -0.9851562771571E+00  0.1946906340190E+00
-0.1188644441515E+00 -0.4756420501206E+01 -0.9750570036009E+00  0.1624205305051E+00
-0.1001028541325E+00 -0.4733256132619E+01 -0.9666718117547E+00  0.1338324202928E+00
-0.8875359910211E-01 -0.4710063574047E+01 -0.9597634489314E+00  0.1080557976130E+00
-0.8322524245139E-01 -0.4687388631597E+01 -0.9541227890273E+00  0.8416628943719E-01
-0.8239802130636E-01 -0.4665458518411E+01 -0.9495713220932E+00  0.6128673118149E-01
-0.8550838699277E-01 -0.4644281960916E+01 -0.9459580836776E+00  0.3862879498191E-01
-0.9206222574126E-01 -0.4623706613179E+01 -0.9431537818381E+00  0.1550780717553E-01
-0.1017718661422E+00 -0.4603444532134E+01 -0.9410432936778E+00 -0.8650474696892E-02
-0.1145085242509E+00 -0.4583075358451E+01 -0.9395167905403E+00 -0.3429919669461E-01
-0.1302612305505E+00 -0.4562033820284E+01 -0.9384590241510E+00 -0.6175039102894E-01
-0.1490899697139E+00 -0.4539591295762E+01 -0.9377362670685E+00 -0.9114112296675E-01
-0.1710611201662E+00 -0.4514840760071E+01 -0.9371803900126E+00 -0.1223876025596E+00
-0.1961581044015E+00 -0.4486692010577E+01 -0.9365700369517E+00 -0.1551384928487E+00
-0.2241706029660E+00 -0.4453879303065E+01 -0.9356099951479E+00 -0.1887402530688E+00
-0.2545802401674E+00 -0.4414996291550E+01 -0.9339153202599E+00 -0.2222278638410E+00
-0.2864615869818E+00 -0.4368642771473E+01 -0.9310208855643E+00 -0.2543485974635E+00
-0.3184350205364E+00 -0.4313477376439E+01 -0.9263824931993E+00 -0.2835785363569E+00
-0.3486512839018E+00 -0.4248050936871E+01 -0.9193404578537E+00 -0.3080599750637E+00
-0.3747131760932E+00 -0.4170668984532E+01 -0.9090764456714E+00 -0.3254562085411E+00
-0.3934504778091E+00 -0.4079391416254E+01 -0.8945683921426E+00 -0.3327489317852E+00
-0.4004834411857E+00 -0.3972207309116E+01 -0.8745381630921E+00 -0.3260232192678E+00
-0.3895177212171E+00 -0.3847422085304E+01 -0.8473879739312E+00 -0.3003042068804E+00
-0.3513068110731E+00 -0.3704325298048E+01 -0.8111264339110E+00 -0.2495507906797E+00
-0.2722309617985E+00 -0.3544251982240E+01 -0.7632966001818E+00 -0.1670231419892E+00
-0.1325152674429E+00 -0.3371983350573E+01 -0.7008997340474E+00 -0.4638691653135E-01
 0.9546261659868E-01 -0.3197468602523E+01 -0.6204012064295E+00  0.1157225202740E+00
 0.4471048240117E+00 -0.3037366456035E+01 -0.5180523341242E+00  0.3146090721209E+00
 0.9607511028196E+00 -0.2913898579885E+01 -0.3906295012339E+00  0.5299524587676E+00
 0.1664616327063E+01 -0.2847714292976E+01 -0.2366195967086E+00  0.7187375602108E+00
 0.2554962400058E+01 -0.2843742495147E+01 -0.5775601987826E-01  0.8155792103303E+00
 0.3574663020258E+01 -0.2875949160800E+01  0.1397427739739E+00  0.7486129433799E+00
 0.4614545738958E+01 -0.2887370998716E+01  0.3454349531958E+00  0.4710297617646E+00
-0.1077153417026E+01 -0.4715073592653E+01 -0.1158445419198E+01  0.3996441306185E+00
-0.8900708126604E+00 -0.4789867852120E+01 -0.1135987749884E+01  0.4341000005739E+00
-0.7069277056090E+00 -0.4852785569289E+01 -0.1111942671549E+01  0.4341682338562E+00
-0.5439702471475E+00 -0.4896338252101E+01 -0.1088061716063E+01  0.4070563215970E+00
-0.4100053705734E+00 -0.4918634549660E+01 -0.1065727999927E+01  0.3640004802335E+00
-0.3062156853234E+00 -0.4922565895112E+01 -0.1045756331670E+01  0.3152336149018E+00
-0.2290900262943E+00 -0.4913165936355E+01 -0.1028451207855E+01  0.2675447110476E+00
-0.1734497905754E+00 -0.4895402518091E+01 -0.1013770476840E+01  0.2242889567403E+00
-0.1342883530057E+00 -0.4873149746414E+01 -0.1001487634807E+01  0.1864412777536E+00
-0.1075019267549E+00 -0.4849039209482E+01 -0.9913082420191E+00  0.1536680867576E+00
-0.8999102959900E-01 -0.4824693363400E+01 -0.9829368932466E+00  0.1250585630508E+00
-0.7951472873901E-01 -0.4801026530792E+01 -0.9761082664514E+00  0.9952919571345E-01
-0.7449508309783E-01 -0.4778490564621E+01 -0.9705971440068E+00  0.7601545015581E-01
-0.7384604964508E-01 -0.4757243163396E+01 -0.9662178570059E+00  0.5354827485589E-01
-0.7684378434519E-01 -0.4737250998791E+01 -0.9628189709744E+00  0.3127595287947E-01
-0.8303477668944E-01 -0.4718344834884E+01 -0.9602759366239E+00  0.8464309508401E-02
-0.9217296346105E-01 -0.4700240447660E+01 -0.9584826965068E+00 -0.1550712236707E-01
-0.1041755637217E+00 -0.4682535779185E+01 -0.9573422828468E+00 -0.4114203201753E-01
-0.1190875180568E+00 -0.4664690999468E+01 -0.9567557177618E+00 -0.6881206244715E-01
-0.1370408755334E+00 -0.4646001113126E+01 -0.9566084119865E+00 -0.9872427190136E-01
-0.1581946068857E+00 -0.4625571479813E+01 -0.9567532315964E+00 -0.1308724846161E+00
-0.1826443812936E+00 -0.4602305672255E+01 -0.9569900249701E+00 -0.1649848867176E+00
-0.2103044024416E+00 -0.4574909465780E+01 -0.9570427879053E+00 -0.2004848887687E+00
-0.2407834616444E+00 -0.4541925760333E+01 -0.9565418586490E+00 -0.2364838164322E+00
-0.2732827269360E+00 -0.4501886115066E+01 -0.9550337826315E+00 -0.2718130716707E+00
-0.3065626481249E+00 -0.4453357355554E+01 -0.9519840149214E+00 -0.3050514739096E+00
-0.3389593347163E+00 -0.4394746414708E+01 -0.9467411639925E+00 -0.3344670256159E+00
-0.3683425569181E+00 -0.4324123650063E+01 -0.9384932553808E+00 -0.3578580975359E+00
-0.3919183148497E+00 -0.4239179219684E+01 -0.9262195207084E+00 -0.3723162177777E+00
-0.4058037512253E+00 -0.4137349635678E+01 -0.9086306909203E+00 -0.3739535059228E+00
-0.4043089765121E+00 -0.4016149441452E+01 -0.8840916967668E+00 -0.3576477793949E+00
-0.3788347522512E+00 -0.3873786481144E+01 -0.8505242593528E+00 -0.3168858685386E+00
-0.3162618626057E+00 -0.3710222219804E+01 -0.8052968284818E+00 -0.2438942919949E+00
-0.1967135342429E+00 -0.3528720795548E+01 -0.7450868770609E+00 -0.1304284254999E+00
 0.9050798534124E-02 -0.3338079227559E+01 -0.6658056957263E+00  0.2990288436806E-01
 0.3409657446235E+00 -0.3155265293691E+01 -0.5628599182007E+00  0.2362140513361E+00
 0.8460464057856E+00 -0.3005647620719E+01 -0.4319202494228E+00  0.4710790293591E+00
 0.1564571060603E+01 -0.2916149383145E+01 -0.2703156685364E+00  0.6899742871336E+00
 0.2503158627494E+01 -0.2898336004204E+01 -0.7903547651976E-01  0.8178516115286E+00
 0.3604154512707E+01 -0.2927366064117E+01  0.1353576917350E+00  0.7659816593922E+00
 0.4739672496988E+01 -0.2937355596463E+01  0.3604633854762E+00  0.4740936370442E+00
-0.1096860727539E+01 -0.4823890368003E+01 -0.1184150236754E+01  0.4302030791076E+00
-0.8958168561873E+00 -0.4903270921913E+01 -0.1159817572903E+01  0.4618224275884E+00
-0.7001546921342E+00 -0.4968315881751E+01 -0.1133694131670E+01  0.4550226048673E+00
-0.5288886676206E+00 -0.5010645979792E+01 -0.1107906945992E+01  0.4191824584446E+00
-0.3912228956517E+00 -0.5029076409569E+01 -0.1084059877198E+01  0.3679989493132E+00
-0.2871242820918E+00 -0.5027975045704E+01 -0.1063019881399E+01  0.3130859397437E+00
-0.2115261679129E+00 -0.5013659032900E+01 -0.1045037055735E+01  0.2614493263798E+00
-0.1580686098812E+00 -0.4991808483075E+01 -0.1029975433939E+01  0.2160338795573E+00
-0.1210645687969E+00 -0.4966525463095E+01 -0.1017518021541E+01  0.1772594628417E+00
-0.9609874593975E-01 -0.4940403753477E+01 -0.1007300514893E+01  0.1443244102307E+00
-0.7996941969481E-01 -0.4914930734030E+01 -0.9989800456308E+00  0.1159891474258E+00
-0.7043297349160E-01 -0.4890877222198E+01 -0.9922620539237E+00  0.9095908795971E-01
-0.6594834580365E-01 -0.4868578688143E+01 -0.9869054214953E+00  0.6803979063210E-01
-0.6547736844913E-01 -0.4848112941441E+01 -0.9827180766216E+00  0.4618244699921E-01
-0.6834332193537E-01 -0.4829402024502E+01 -0.9795490838839E+00  0.2448335081992E-01
-0.7413588289583E-01 -0.4812262552965E+01 -0.9772797017347E+00  0.2168563764645E-02
-0.8264963049420E-01 -0.4796420871070E+01 -0.9758141148536E+00 -0.2142093628036E-01
-0.9384425416878E-01 -0.4781503699338E+01 -0.9750696052310E+00 -0.4683423909401E-01
-0.1078156026812E+00 -0.4767010433882E+01 -0.9749652218408E+00 -0.7450066774234E-01
-0.1247628565500E+00 -0.4752276059695E+01 -0.9754077977838E+00 -0.1046992235215E+00
-0.1449344850859E+00 -0.4736435844665E+01 -0.9762740804978E+00 -0.1375071534204E+00
-0.1685380220123E+00 -0.4718404343018E+01 -0.9773884875703E+00 -0.1727405254886E+00
-0.1956130212857E+00 -0.4696875426526E+01 -0.9784977041431E+00 -0.2099086478310E+00
-0.2258937092771E+00 -0.4670358728973E+01 -0.9792505022420E+00 -0.2482082000883E+00
-0.2587004454410E+00 -0.4637338316632E+01 -0.9792077670059E+00 -0.2865660978006E+00
-0.2929217206457E+00 -0.4596314815416E+01 -0.9778473217834E+00 -0.3236823589839E+00
-0.3270681311581E+00 -0.4545581907674E+01 -0.9745300222881E+00 -0.3579813565841E+00
-0.3592746626594E+00 -0.4483009427985E+01 -0.9684568325600E+00 -0.3874432187795E+00
-0.3871392825180E+00 -0.4405954125726E+01 -0.9586186959333E+00 -0.4093359632862E+00
-0.4073203844593E+00 -0.4311331498645E+01 -0.9437303906836E+00 -0.4198917887034E+00
-0.4148259460509E+00 -0.4195874640132E+01 -0.9221401309775E+00 -0.4139688221821E+00
-0.4018843861287E+00 -0.4056657943490E+01 -0.8917084792113E+00 -0.3847456339054E+00
-0.3562004472823E+00 -0.3892084230769E+01 -0.8496569482711E+00 -0.3235861086293E+00
-0.2583073460907E+00 -0.3703478272893E+01 -0.7923571356038E+00 -0.2204080448681E+00
-0.7797603288591E-01 -0.3497752588174E+01 -0.7151457348685E+00 -0.6553137625171E-01
 0.2289046347858E+00 -0.3291293667354E+01 -0.6124778156403E+00  0.1449020257860E+00
 0.7188095660968E+00 -0.3112174871241E+01 -0.4786730681616E+00  0.3980673532531E+00
 0.1446968918167E+01 -0.2994536470093E+01 -0.3095135149973E+00  0.6496159393359E+00
 0.2434906692607E+01 -0.2959091043910E+01 -0.1048368718227E+00  0.8145343012330E+00
 0.3626967381228E+01 -0.2984032836054E+01  0.1285869109509E+00  0.7833275504937E+00
 0.4872473594994E+01 -0.2992495449758E+01  0.3759956346501E+00  0.4763710587421E+00
-0.1116337369510E+01 -0.4935822566040E+01 -0.1210432005147E+01  0.4629224836413E+00
-0.8994845738346E+00 -0.5020158140027E+01 -0.1183928560414E+01  0.4910434333497E+00
-0.6900314704591E+00 -0.5086996147060E+01 -0.1155405540721E+01  0.4759794332277E+00
-0.5103031822463E+00 -0.5127045394696E+01 -0.1127469732189E+01  0.4300546196782E+00
-0.3696078225677E+00 -0.5140294111905E+01 -0.1101980403315E+01  0.3699915381029E+00
-0.2661342926444E+00 -0.5133054816050E+01 -0.1079837837830E+01  0.3088239949346E+00
-0.1928841614452E+00 -0.5113117858913E+01 -0.1061200419885E+01  0.2535282511072E+00
-0.1421928408086E+00 -0.5086837024781E+01 -0.1045805988702E+01  0.2063886634411E+00
-0.1077126601756E+00 -0.5058423004395E+01 -0.1033227148310E+01  0.1671230748771E+00
-0.8477828427624E-01 -0.5030323228382E+01 -0.1023020317776E+01  0.1344045078385E+00
-0.7014189535216E-01 -0.5003817465606E+01 -0.1014791887313E+01  0.1066560150405E+00
-0.6159664218666E-01 -0.4979491573218E+01 -0.1008217658105E+01  0.8238275659038E-01
-0.5766294232765E-01 -0.4957543761172E+01 -0.1003041355646E+01  0.6027644085661E-01
-0.5736448064205E-01 -0.4937963534634E+01 -0.9990656179424E+00  0.3922423906814E-01
-0.6007845479892E-01 -0.4920627397437E+01 -0.9961411852909E+00  0.1828416760231E-01
-0.6543956526473E-01 -0.4905341811283E+01 -0.9941562901236E+00 -0.3346065866107E-02
-0.7328122487472E-01 -0.4891851525257E+01 -0.9930265648236E+00 -0.2635491515854E-01
-0.8360099595897E-01 -0.4879823537307E+01 -0.9926849214454E+00 -0.5133029146439E-01
-0.9653921581947E-01 -0.4868811679483E+01 -0.9930701938585E+00 -0.7875590148537E-01
-0.1123555674166E+00 -0.4858209353598E+01 -0.9941129990164E+00 -0.1089836522642E+00
-0.1313834035550E+00 -0.4847201864698E+01 -0.9957170684880E+00 -0.1421797570289E+00
-0.1539410205428E+00 -0.4834734495603E+01 -0.9977351180966E+00 -0.1782568885769E+00
-0.1801942814784E+00 -0.4819507688939E+01 -0.9999404089838E+00 -0.2168194017888E+00
-0.2100010060488E+00 -0.4800016620838E+01 -0.1002003540308E+01 -0.2571574687699E+00
-0.2427914659649E+00 -0.4774720033578E+01 -0.1003502314862E+01 -0.2983028614697E+00
-0.2775659081344E+00 -0.4742080356645E+01 -0.1003929267916E+01 -0.3390927611061E+00
-0.3129923578217E+00 -0.4700313034403E+01 -0.1002661093386E+01 -0.3781362443732E+00
-0.3474614759692E+00 -0.4647129908976E+01 -0.9989182918740E+00 -0.4136398836345E+00
-0.3789686709690E+00 -0.4579604593286E+01 -0.9917146676286E+00 -0.4431137645475E+00
-0.4047433124682E+00 -0.4494186805071E+01 -0.9797860381078E+00 -0.4630056088840E+00
-0.4205646787075E+00 -0.4386875307658E+01 -0.9614880116003E+00 -0.4682940370469E+00
-0.4196485753971E+00 -0.4253613131122E+01 -0.9346523552313E+00 -0.4520492197115E+00
-0.3908462470333E+00 -0.4091120711438E+01 -0.8963934050516E+00 -0.4050238655257E+00
-0.3156829303395E+00 -0.3898390456904E+01 -0.8428146900076E+00 -0.3155140765447E+00
-0.1637953987166E+00 -0.3679621397630E+01 -0.7686833707236E+00 -0.1704664061253E+00
 0.1123306233540E+00 -0.3449388066395E+01 -0.6674114985533E+00  0.3959720244816E-01
 0.5790169237765E+00 -0.3237490923273E+01 -0.5316948078221E+00  0.3085234408382E+00
 0.1309584173018E+01 -0.3085945185726E+01 -0.3552722078355E+00  0.5947451555809E+00
 0.2346507841024E+01 -0.3027662565592E+01 -0.1362309469436E+00  0.8037566430959E+00
 0.3640674524321E+01 -0.3046826381850E+01  0.1187696302641E+00  0.8004948106063E+00
 0.5014448208314E+01 -0.3053686778824E+01  0.3921522917415E+00  0.4777503857908E+00
-0.1135507593739E+01 -0.5051531336226E+01 -0.1237407804432E+01  0.4980618808568E+00
-0.9005903288944E+00 -0.5141205338622E+01 -0.1208359151509E+01  0.5218000739400E+00
-0.6759239471098E+00 -0.5209267289644E+01 -0.1177038264890E+01  0.4966967126517E+00
-0.4877674925056E+00 -0.5245584788320E+01 -0.1146670473252E+01  0.4391076062560E+00
-0.3450139268641E+00 -0.5252013996529E+01 -0.1119405601359E+01  0.3694441505386E+00
-0.2433183585529E+00 -0.5237391427507E+01 -0.1096141973546E+01  0.3020832562306E+00
-0.1733327067098E+00 -0.5211133841353E+01 -0.1076893325660E+01  0.2435921210393E+00
-0.1260051213299E+00 -0.5180149444976E+01 -0.1061230929075E+01  0.1952865469576E+00
-0.9439401250432E-01 -0.5148582545300E+01 -0.1048595327186E+01  0.1560341167166E+00
-0.7367297529470E-01 -0.5118602724410E+01 -0.1038455155415E+01  0.1239423686453E+00
-0.6061554434672E-01 -0.5091204815411E+01 -0.1030364087305E+01  0.9710409032268E-01
-0.5309428811437E-01 -0.5066750034999E+01 -0.1023968879881E+01  0.7384531948596E-01
-0.4971578574036E-01 -0.5045281621963E+01 -0.1018999496725E+01  0.5276602637984E-01
-0.4957869845226E-01 -0.5026695182435E+01 -0.1015254791306E+01  0.3270857078169E-01
-0.5211995673414E-01 -0.5010822828804E+01 -0.1012588572196E+01  0.1270849552446E-01
-0.5702024279585E-01 -0.4997466210445E+01 -0.1010897305712E+01 -0.8051947284174E-02
-0.6414915211634E-01 -0.4986397204491E+01 -0.1010109286373E+01 -0.3028014677756E-01
-0.7353649914077E-01 -0.4977335400280E+01 -0.1010174394937E+01 -0.5459474338768E-01
-0.8535923431409E-01 -0.4969905525520E+01 -0.1011052967033E+01 -0.8152891080723E-01
-0.9992899358435E-01 -0.4963579962877E+01 -0.1012701806383E+01 -0.1115070960871E+00
-0.1176575148944E+00 -0.4957617164189E+01 -0.1015054950942E+01 -0.1447895655124E+00
-0.1389718301399E+00 -0.4951015974189E+01 -0.1017997576035E+01 -0.1813948486211E+00
-0.1641654533673E+00 -0.4942504097745E+01 -0.1021333925442E+01 -0.2210321020811E+00
-0.1932184301541E+00 -0.4930582176022E+01 -0.1024760136505E+01 -0.2630924876619E+00
-0.2256602446695E+00 -0.4913706469701E+01 -0.1027873358191E+01 -0.3067197392654E+00
-0.2605824739075E+00 -0.4890330436268E+01 -0.1030182597386E+01 -0.3509010809633E+00
-0.2967873092912E+00 -0.4858629246422E+01 -0.1031083326507E+01 -0.3944552448398E+00
-0.3329037160009E+00 -0.4816205814333E+01 -0.1029821921412E+01 -0.4358560496729E+00
-0.3673192670843E+00 -0.4759914043830E+01 -0.1025446677463E+01 -0.4729168731050E+00
-0.3978472830685E+00 -0.4685817494108E+01 -0.1016732970586E+01 -0.5023935070650E+00
-0.4210855915972E+00 -0.4589269831612E+01 -0.1002071099574E+01 -0.5195300358802E+00
-0.4313619918459E+00 -0.4465151774406E+01 -0.9793027678431E+00 -0.5175150829823E+00
-0.4189683416936E+00 -0.4308469925672E+01 -0.9454876675619E+00 -0.4868186743480E+00
-0.3670370980598E+00 -0.4115578683389E+01 -0.8965231696490E+00 -0.4144975541906E+00
-0.2461401418783E+00 -0.3887105878784E+01 -0.8266492164506E+00 -0.2843053025317E+00
-0.6659541316720E-02 -0.3634234227454E+01 -0.7281787646048E+00 -0.8048029409512E-01
 0.4272680673651E+00 -0.3386759241378E+01 -0.5918982436226E+00  0.1998402541222E+00
 0.1150171143092E+01 -0.3194571360866E+01 -0.4088800496476E+00  0.5216471563949E+00
 0.2233385477360E+01 -0.3106344480303E+01 -0.1745918031904E+00  0.7827811803570E+00
 0.3642012481485E+01 -0.3116916069483E+01  0.1050192839652E+00  0.8170997670441E+00
 0.5167382477479E+01 -0.3122072630562E+01  0.4090619754791E+00  0.4782199239669E+00
-0.1154262478028E+01 -0.5171880074688E+01 -0.1265228529397E+01  0.5359323369733E+00
-0.8984960753095E+00 -0.5267265687497E+01 -0.1233152370937E+01  0.5540840709115E+00
-0.6570523441315E+00 -0.5335618621284E+01 -0.1198534210943E+01  0.5166663877478E+00
-0.4608041081165E+00 -0.5366216507136E+01 -0.1165404140416E+01  0.4456008993701E+00
-0.3173548924456E+00 -0.5363808695844E+01 -0.1136232734589E+01  0.3657273825860E+00
-0.2188306573516E+00 -0.5340442584354E+01 -0.1111854664909E+01  0.2924848297186E+00
-0.1531028045408E+00 -0.5307221618961E+01 -0.1092064900973E+01  0.2314783726228E+00
-0.1097243562419E+00 -0.5271371660753E+01 -0.1076219219436E+01  0.1826965043475E+00
-0.8128743148491E-01 -0.5236732983222E+01 -0.1063604098790E+01  0.1440251766201E+00
-0.6292177800623E-01 -0.5205047955545E+01 -0.1053593962410E+01  0.1129941911115E+00
-0.5149837106496E-01 -0.5176949784727E+01 -0.1045689646740E+01  0.8739280070738E-01
-0.4501281451221E-01 -0.5152540451483E+01 -0.1039510668689E+01  0.6540018945983E-01
-0.4218125585358E-01 -0.5131695438247E+01 -0.1034775354240E+01  0.4555262025701E-01
-0.4218886596285E-01 -0.5114214540229E+01 -0.1031280696606E+01  0.2666995265115E-01
-0.4453680227216E-01 -0.5099889031683E+01 -0.1028885182123E+01  0.7782788777537E-02
-0.4895170821131E-01 -0.5088522479718E+01 -0.1027494852897E+01 -0.1192796483231E-01
-0.5533592366222E-01 -0.5079923327641E+01 -0.1027051865565E+01 -0.3317691098777E-01
-0.6374499206625E-01 -0.5073876568765E+01 -0.1027524327478E+01 -0.5660376954604E-01
-0.7438318810264E-01 -0.5070095214737E+01 -0.1028895695900E+01 -0.8278434800899E-01
-0.8760341748329E-01 -0.5068153256617E+01 -0.1031151350185E+01 -0.1122134572873E+00
-0.1038869395764E+00 -0.5067408812514E+01 -0.1034259165830E+01 -0.1452496860315E+00
-0.1237661818046E+00 -0.5066941011350E+01 -0.1038141454100E+01 -0.1820273349891E+00
-0.1476642282124E+00 -0.5065528357498E+01 -0.1042638532679E+01 -0.2223713126332E+00
-0.1756831763080E+00 -0.5061697924783E+01 -0.1047476235827E+01 -0.2657811375533E+00
-0.2074402464901E+00 -0.5053926103873E+01 -0.1052273285753E+01 -0.3115174173662E+00
-0.2420940696009E+00 -0.5040686208819E+01 -0.1056556071428E+01 -0.3587268029122E+00
-0.2785517771855E+00 -0.5020151983611E+01 -0.1059740767951E+01 -0.4064582825908E+00
-0.3156558584593E+00 -0.4989870902692E+01 -0.1061105368042E+01 -0.4534878781035E+00
-0.3521703011974E+00 -0.4946552005656E+01 -0.1059744477162E+01 -0.4979855787413E+00
-0.3864876270453E+00 -0.4885975892309E+01 -0.1054492719584E+01 -0.5370988464292E+00
-0.4160404886460E+00 -0.4802984419627E+01 -0.1043804997208E+01 -0.5664771525917E+00
-0.4363443464191E+00 -0.4691541865948E+01 -0.1025577257756E+01 -0.5796671712792E+00
-0.4393655626300E+00 -0.4545031678259E+01 -0.9968794630325E+00 -0.5672470320462E+00
-0.4104353491752E+00 -0.4357022897703E+01 -0.9534916635837E+00 -0.5155890840476E+00
-0.3222919654719E+00 -0.4123803194697E+01 -0.8892190452842E+00 -0.4057841431082E+00
-0.1251161590291E+00 -0.3851302339433E+01 -0.7952837115431E+00 -0.2155570327968E+00
 0.2651187052862E+00 -0.3566604457695E+01 -0.6602971603210E+00  0.6935496286165E-01
 0.9667214734799E+00 -0.3326246665222E+01 -0.4719050453804E+00  0.4256487810291E+00
 0.2089911950804E+01 -0.3198471661017E+01 -0.2217119453464E+00  0.7476276029534E+00
 0.3626456559596E+01 -0.3195901142286E+01  0.8611108474527E-01  0.8323752800162E+00
 0.5333462528599E+01 -0.3199115826765E+01  0.4268693467276E+00  0.4778680363064E+00
-0.1172442016852E+01 -0.5298017800768E+01 -0.1294091982807E+01  0.5769097689043E+00
-0.8923480752991E+00 -0.5399425747077E+01 -0.1258354783226E+01  0.5878028867546E+00
-0.6324597854810E+00 -0.5466568757521E+01 -0.1219805726777E+01  0.5351358409791E+00
-0.4289294679931E+00 -0.5488726805054E+01 -0.1183531272245E+01  0.4485702993024E+00
-0.2866461436846E+00 -0.5475037029871E+01 -0.1152336651882E+01  0.3581180711166E+00
-0.1929330253406E+00 -0.5441512416355E+01 -0.1126889105131E+01  0.2796595959421E+00
-0.1324956398830E+00 -0.5400817911555E+01 -0.1106662726778E+01  0.2170731446392E+00
-0.9360450877180E-01 -0.5360101061606E+01 -0.1090741130329E+01  0.1686362406926E+00
-0.6858554407018E-01 -0.5322599168007E+01 -0.1078236958482E+01  0.1311658244812E+00
-0.5266670421315E-01 -0.5289471005749E+01 -0.1068427557913E+01  0.1016411986002E+00
-0.4289650049547E-01 -0.5260919371211E+01 -0.1060763190148E+01  0.7759710397283E-01
-0.3743532497688E-01 -0.5236761179965E+01 -0.1054839316707E+01  0.5710923981117E-01
-0.3512952960699E-01 -0.5216698074898E+01 -0.1050365536553E+01  0.3868350450552E-01
-0.3525999625695E-01 -0.5200436603205E+01 -0.1047139335496E+01  0.2114204376438E-01
-0.3739496929465E-01 -0.5187733435365E+01 -0.1045025696504E+01  0.3529273087268E-02
-0.4130599793703E-01 -0.5178402152394E+01 -0.1043941645622E+01 -0.1496029761901E-01
-0.4692405750388E-01 -0.5172297673087E+01 -0.1043844361673E+01 -0.3503576458624E-01
-0.5432321406630E-01 -0.5169283268503E+01 -0.1044721312081E+01 -0.5734673152573E-01
-0.6372452985689E-01 -0.5169178033960E+01 -0.1046580528359E+01 -0.8250256968711E-01
-0.7550920799000E-01 -0.5171681999505E+01 -0.1049438257137E+01 -0.1110638098886E+00
-0.9021618685165E-01 -0.5176283311504E+01 -0.1053299915366E+01 -0.1434901807511E+00
-0.1084779713476E+00 -0.5182173135010E+01 -0.1058130237039E+01 -0.1800423367937E+00
-0.1308497546855E+00 -0.5188208287155E+01 -0.1063811624220E+01 -0.2206738759303E+00
-0.1575575422443E+00 -0.5192964525241E+01 -0.1070104429443E+01 -0.2650008224803E+00
-0.1882948978350E+00 -0.5194959728544E+01 -0.1076650941319E+01 -0.3124038033249E+00
-0.2222598819570E+00 -0.5192713317608E+01 -0.1082994656051E+01 -0.3621946788408E+00
-0.2584299466738E+00 -0.5184434424682E+01 -0.1088572890492E+01 -0.4136681267133E+00
-0.2958298671191E+00 -0.5167670016430E+01 -0.1092699992992E+01 -0.4659294697419E+00
-0.3335749245167E+00 -0.5139067868047E+01 -0.1094528574822E+01 -0.5175470266830E+00
-0.3706148098885E+00 -0.5094249987383E+01 -0.1092972975741E+01 -0.5661281875147E+00
-0.4051997543619E+00 -0.5027722519962E+01 -0.1086584471056E+01 -0.6078514137971E+00
-0.4340484886481E+00 -0.4932760483163E+01 -0.1073361810357E+01 -0.6368549045093E+00
-0.4509438182361E+00 -0.4801360015408E+01 -0.1050460782382E+01 -0.6442506100596E+00
-0.4439100254735E+00 -0.4624389961470E+01 -0.1013660012493E+01 -0.6164325109712E+00
-0.3891322807367E+00 -0.4393287699229E+01 -0.9564840102458E+00 -0.5327655033377E+00
-0.2390877008850E+00 -0.4106787588256E+01 -0.8691750707800E+00 -0.3649398926340E+00
 0.9552707695547E-01 -0.3785446670258E+01 -0.7379839296574E+00 -0.8532735146041E-01
 0.7579215564964E+00 -0.3489168841124E+01 -0.5462494650654E+00  0.3010109080496E+00
 0.1909257475386E+01 -0.3309070579343E+01 -0.2799626249631E+00  0.6925222057409E+00
 0.3587596588450E+01 -0.3286057043801E+01  0.6030790982840E-01  0.8448545671621E+00
 0.5515418354764E+01 -0.3286721938818E+01  0.4457392898312E+00  0.4769035884068E+00
-0.1189805613317E+01 -0.5431507400256E+01 -0.1324262622448E+01  0.6214516787873E+00
-0.8809870408551E+00 -0.5539080093865E+01 -0.1284013446077E+01  0.6227104008210E+00
-0.6009807582406E+00 -0.5602617177952E+01 -0.1240719605727E+01  0.5509904427286E+00
-0.3917037882288E+00 -0.5612624566958E+01 -0.1200865688932E+01  0.4467736653792E+00
-0.2530640661106E+00 -0.5584767591141E+01 -0.1167566348848E+01  0.3458181007485E+00
-0.1660231338746E+00 -0.5539730905515E+01 -0.1141150824882E+01  0.2632874056940E+00
-0.1118862659963E+00 -0.5491288574523E+01 -0.1120634984803E+01  0.2003387675482E+00
-0.7792973483578E-01 -0.5445918331842E+01 -0.1104769629798E+01  0.1531857050373E+00
-0.5648923301784E-01 -0.5405911462001E+01 -0.1092480155283E+01  0.1175683175336E+00
-0.4304839054008E-01 -0.5371697150796E+01 -0.1082949124404E+01  0.8999174052120E-01
-0.3491092385086E-01 -0.5342995303361E+01 -0.1075581261470E+01  0.6780796858685E-01
-0.3043876229725E-01 -0.5319324414424E+01 -0.1069952651288E+01  0.4904260164042E-01
-0.2862481277124E-01 -0.5300214547313E+01 -0.1065767887898E+01  0.3220870900814E-01
-0.2885185092471E-01 -0.5285286679244E+01 -0.1062827721871E+01  0.1615709599289E-01
-0.3075618276538E-01 -0.5274271958871E+01 -0.1061005644138E+01 -0.3467576319316E-04
-0.3415216799059E-01 -0.5267003350405E+01 -0.1060231119478E+01 -0.1714316754380E-01
-0.3899481556443E-01 -0.5263392320838E+01 -0.1060477443083E+01 -0.3585856464798E-01
-0.4536915418047E-01 -0.5263392798129E+01 -0.1061752406283E+01 -0.5682771590762E-01
-0.5350159129595E-01 -0.5266947409607E+01 -0.1064089816037E+01 -0.8068194876834E-01
-0.6378635071003E-01 -0.5273907870380E+01 -0.1067538860126E+01 -0.1080395512153E+00
-0.7680450190089E-01 -0.5283926876867E+01 -0.1072146291730E+01 -0.1394617077194E+00
-0.9328026856512E-01 -0.5296345961939E+01 -0.1077925262163E+01 -0.1753463792023E+00
-0.1139038474356E+00 -0.5310133661909E+01 -0.1084807518034E+01 -0.2157917541051E+00
-0.1390299375249E+00 -0.5323938791395E+01 -0.1092593762065E+01 -0.2605407652760E+00
-0.1684182320283E+00 -0.5336339764655E+01 -0.1100951615742E+01 -0.3090964744550E+00
-0.2012760160952E+00 -0.5345922840171E+01 -0.1109439787785E+01 -0.3609385315742E+00
-0.2366120470814E+00 -0.5350963255183E+01 -0.1117515077105E+01 -0.4156169737057E+00
-0.2735972371638E+00 -0.5349059853589E+01 -0.1124531434907E+01 -0.4725835401613E+00
-0.3116655658184E+00 -0.5336888077906E+01 -0.1129710745579E+01 -0.5308312082446E+00
-0.3502865552988E+00 -0.5310053076222E+01 -0.1132067943173E+01 -0.5884739923292E+00
-0.3884776598693E+00 -0.5262939316434E+01 -0.1130283412103E+01 -0.6423149213956E+00
-0.4241099646491E+00 -0.5188438323376E+01 -0.1122509674332E+01 -0.6872889495838E+00
-0.4528068554379E+00 -0.5077550454942E+01 -0.1106071478558E+01 -0.7154638821452E+00
-0.4656036000920E+00 -0.4918822495533E+01 -0.1076885235172E+01 -0.7140556871096E+00
-0.4432825684299E+00 -0.4698796220981E+01 -0.1028415773207E+01 -0.6620365684085E+00
-0.3435426938557E+00 -0.4407376552361E+01 -0.9501838634021E+00 -0.5265279876596E+00
-0.7658739843561E-01 -0.4053787996694E+01 -0.8260750913355E+00 -0.2657424536107E+00
 0.5239324159224E+00 -0.3694920884790E+01 -0.6341977032237E+00  0.1409813186378E+00
 0.1683358796185E+01 -0.3445953409674E+01 -0.3525189279509E+00  0.6091161235335E+00
 0.3516197335176E+01 -0.3390806021167E+01  0.2507826317555E-01  0.8517690209269E+00
 0.5716700462666E+01 -0.3387462488493E+01  0.4658476017763E+00  0.4756905914084E+00
-0.1205982238924E+01 -0.5574529552107E+01 -0.1356102378414E+01  0.6701171032956E+00
-0.8628149440747E+00 -0.5688028055243E+01 -0.1310168619387E+01  0.6582813880510E+00
-0.5612190940297E+00 -0.5744136824897E+01 -0.1261071202577E+01  0.5625781680911E+00
-0.3488226037785E+00 -0.5736967468661E+01 -0.1217158032625E+01  0.4386401803526E+00
-0.2170258855543E+00 -0.5691689032339E+01 -0.1181743001188E+01  0.3280050813892E+00
-0.1386598759663E+00 -0.5634047076740E+01 -0.1154541407745E+01  0.2431555465868E+00
-0.9171952448713E-01 -0.5577947781109E+01 -0.1133933478016E+01  0.1813451639252E+00
-0.6300492833730E-01 -0.5528404669348E+01 -0.1118281936201E+01  0.1364994866925E+00
-0.4520007861653E-01 -0.5486417469079E+01 -0.1106323526025E+01  0.1033919234021E+00
-0.3420079133792E-01 -0.5451572594934E+01 -0.1097154693603E+01  0.7818236908764E-01
-0.2763386760516E-01 -0.5423079108652E+01 -0.1090142611496E+01  0.5813215663478E-01
-0.2409140559409E-01 -0.5400159599327E+01 -0.1084850217150E+01  0.4127802970116E-01
-0.2272352423508E-01 -0.5382184477234E+01 -0.1080981616402E+01  0.2618030453635E-01
-0.2301750064091E-01 -0.5368702343646E+01 -0.1078343984926E+01  0.1174528181434E-01
-0.2467663067949E-01 -0.5359430784762E+01 -0.1076821499134E+01 -0.2897172651273E-02
-0.2755500036458E-01 -0.5354232623075E+01 -0.1076357540727E+01 -0.1847952836985E-01
-0.3162678764368E-01 -0.5353085756562E+01 -0.1076942524889E+01 -0.3565937638030E-01
-0.3698050788120E-01 -0.5356046007205E+01 -0.1078605319090E+01 -0.5506696337806E-01
-0.4383613958511E-01 -0.5363195590752E+01 -0.1081406362182E+01 -0.7734122951640E-01
-0.5258360275823E-01 -0.5374563674415E+01 -0.1085429471609E+01 -0.1031459208523E+00
-0.6382608417072E-01 -0.5390006146966E+01 -0.1090766462481E+01 -0.1331398483525E+00
-0.7836652549534E-01 -0.5409061796446E+01 -0.1097485680742E+01 -0.1678686924362E+00
-0.9703255057225E-01 -0.5430853301500E+01 -0.1105577186889E+01 -0.2075951480324E+00
-0.1203161061064E+00 -0.5454130984537E+01 -0.1114889434742E+01 -0.2522039571651E+00
-0.1480353142779E+00 -0.5477549603144E+01 -0.1125117000250E+01 -0.3013243088773E+00
-0.1793750221886E+00 -0.5499773456755E+01 -0.1135829712714E+01 -0.3546042448375E+00
-0.2133334947683E+00 -0.5519162776930E+01 -0.1146499271424E+01 -0.4118527674122E+00
-0.2491889692655E+00 -0.5533412897746E+01 -0.1156520390636E+01 -0.4728727249752E+00
-0.2866565788559E+00 -0.5539317330968E+01 -0.1165194799328E+01 -0.5370887058992E+00
-0.3256763565647E+00 -0.5532618918244E+01 -0.1171659072421E+01 -0.6031410056862E+00
-0.3659534413180E+00 -0.5507823944882E+01 -0.1174755494745E+01 -0.6685141197880E+00
-0.4063935969816E+00 -0.5457813334337E+01 -0.1172841403740E+01 -0.7290933371578E+00
-0.4443525117814E+00 -0.5373132786849E+01 -0.1163497077064E+01 -0.7782748644155E+00
-0.4739531252182E+00 -0.5240704741257E+01 -0.1142931590326E+01 -0.8049017588369E+00
-0.4813675785092E+00 -0.5042786214618E+01 -0.1104830775089E+01 -0.7891631687088E+00
-0.4324560174453E+00 -0.4759728332739E+01 -0.1038436885511E+01 -0.6962235805312E+00
-0.2437235822922E+00 -0.4384285684042E+01 -0.9256018670593E+00 -0.4715751095697E+00
 0.2676647686230E+00 -0.3959823402271E+01 -0.7384317377331E+00 -0.6176735202910E-01
 0.1403219919878E+01 -0.3621585064683E+01 -0.4436730355723E+00  0.4854423791711E+00
 0.3398773570240E+01 -0.3515656816722E+01 -0.2337664964467E-01  0.8479168761955E+00
 0.5941679604235E+01 -0.3505003960631E+01  0.4873351359828E+00  0.4747695249705E+00
-0.1220384148351E+01 -0.5730219859688E+01 -0.1390120822322E+01  0.7235870376644E+00
-0.8355960472679E+00 -0.5848590533979E+01 -0.1336837336170E+01  0.6934793247913E+00
-0.5115585564421E+00 -0.5891148869100E+01 -0.1280541504190E+01  0.5674506495434E+00
-0.3002765619938E+00 -0.5860097085809E+01 -0.1232074747920E+01  0.4222480803249E+00
-0.1792894256535E+00 -0.5794021617476E+01 -0.1194662226428E+01  0.3039374668182E+00
-0.1115762107544E+00 -0.5723251100382E+01 -0.1166965479616E+01  0.2192379465226E+00
-0.7249399733195E-01 -0.5660092377175E+01 -0.1146517291986E+01  0.1603007089733E+00
-0.4914141275111E-01 -0.5607163834230E+01 -0.1131261066253E+01  0.1188160464168E+00
-0.3491104405404E-01 -0.5563895597981E+01 -0.1119761345093E+01  0.8884522533519E-01
-0.2624513804649E-01 -0.5528972882691E+01 -0.1111043620703E+01  0.6637757498074E-01
-0.2114491498452E-01 -0.5501097330294E+01 -0.1104448465513E+01  0.4869117305949E-01
-0.1845031565607E-01 -0.5479216826921E+01 -0.1099533444900E+01  0.3389978790040E-01
-0.1747249147900E-01 -0.5462564484659E+01 -0.1096007411559E+01  0.2065143250667E-01
-0.1780190945054E-01 -0.5450635332530E+01 -0.1093687464693E+01  0.7933905570176E-02
-0.1920568632021E-01 -0.5443148101538E+01 -0.1092470773851E+01 -0.5052471364428E-02
-0.2157367025843E-01 -0.5440006811361E+01 -0.1092316112601E+01 -0.1898166851672E-01
-0.2489434302520E-01 -0.5441265112021E+01 -0.1093231907300E+01 -0.3446520743038E-01
-0.2925283229152E-01 -0.5447090134962E+01 -0.1095268609772E+01 -0.5210208212435E-01
-0.3485142563989E-01 -0.5457717051067E+01 -0.1098513711710E+01 -0.7252180023879E-01
-0.4205708717231E-01 -0.5473376552618E+01 -0.1103086744395E+01 -0.9641587005435E-01
-0.5147004804746E-01 -0.5494169642294E+01 -0.1109127954596E+01 -0.1245303350015E+00
-0.6395205287440E-01 -0.5519890062813E+01 -0.1116768439779E+01 -0.1575664299506E+00
-0.8046831614687E-01 -0.5549871002953E+01 -0.1126067880600E+01 -0.1959761137990E+00
-0.1016608671166E+00 -0.5583000795215E+01 -0.1136932349408E+01 -0.2398086196663E+00
-0.1274026055886E+00 -0.5618022666973E+01 -0.1149085071635E+01 -0.2888278152149E+00
-0.1568244622592E+00 -0.5653675020033E+01 -0.1162099913775E+01 -0.3428513554919E+00
-0.1888722094211E+00 -0.5688401883294E+01 -0.1175454836059E+01 -0.4019448097715E+00
-0.2228930800166E+00 -0.5720025092217E+01 -0.1188583652158E+01 -0.4662512095071E+00
-0.2588437086266E+00 -0.5745544289732E+01 -0.1200877617566E+01 -0.5356097399249E+00
-0.2970773355151E+00 -0.5761003304864E+01 -0.1211616146130E+01 -0.6091752890738E+00
-0.3378856595090E+00 -0.5761292130025E+01 -0.1219835576084E+01 -0.6851245209645E+00
-0.3810322438253E+00 -0.5739699425982E+01 -0.1224146352203E+01 -0.7603730526551E+00
-0.4253631693886E+00 -0.5686982074054E+01 -0.1222469066905E+01 -0.8299200158156E+00
-0.4678966063183E+00 -0.5589436467213E+01 -0.1211466632759E+01 -0.8849400310695E+00
-0.5004194989758E+00 -0.5426392450539E+01 -0.1185362407566E+01 -0.9084783547197E+00
-0.4992013978495E+00 -0.5169547580002E+01 -0.1133749812464E+01 -0.8673380848405E+00
-0.3952793201189E+00 -0.4791284172438E+01 -0.1037312713969E+01 -0.6991295972920E+00
-0.3241955563358E-02 -0.4306540301469E+01 -0.8619564642506E+00 -0.3138805400823E+00
 0.1059990613469E+01 -0.3856270555886E+01 -0.5592559968171E+00  0.3047019166123E+00
 0.3215451851791E+01 -0.3670150270960E+01 -0.9093968518896E-01  0.8235490033518E+00
 0.6195818920849E+01 -0.3644998856620E+01  0.5101640204478E+00  0.4747654788758E+00
-0.1232054087351E+01 -0.5903252648473E+01 -0.1427061368430E+01  0.7826743661245E+00
-0.7961589956246E+00 -0.6023723607519E+01 -0.1363976540954E+01  0.7263154539707E+00
-0.4502584824097E+00 -0.6042861190713E+01 -0.1298623953975E+01  0.5619927427956E+00
-0.2466184154519E+00 -0.5979254345710E+01 -0.1245174570787E+01  0.3953894180090E+00
-0.1410601614388E+00 -0.5889470399702E+01 -0.1206106130201E+01  0.2731443967354E+00
-0.8566261928785E-01 -0.5806045251316E+01 -0.1178341591679E+01  0.1917878203972E+00
-0.5473086525616E-01 -0.5737050352793E+01 -0.1158356260871E+01  0.1375747408244E+00
-0.3663879650267E-01 -0.5681847459158E+01 -0.1143697268174E+01  0.1004621513925E+00
-0.2579578762982E-01 -0.5638170083644E+01 -0.1132793191135E+01  0.7418587973519E-01
-0.1928338700598E-01 -0.5603811565714E+01 -0.1124619007302E+01  0.5476785644809E-01
-0.1550707192036E-01 -0.5577006650254E+01 -0.1118502761102E+01  0.3961929823368E-01
-0.1355883293883E-01 -0.5556470083275E+01 -0.1114005799843E+01  0.2699702778130E-01
-0.1290722504192E-01 -0.5541330424001E+01 -0.1110847546361E+01  0.1567506698078E-01
-0.1324059130015E-01 -0.5531053311076E+01 -0.1108858796999E+01  0.4746506097772E-02
-0.1438467629021E-01 -0.5525375759920E+01 -0.1107952103752E+01 -0.6501605587595E-02
-0.1626041410615E-01 -0.5524254880740E+01 -0.1108103075481E+01 -0.1867170066640E-01
-0.1886599183903E-01 -0.5527828472857E+01 -0.1109338909470E+01 -0.3231651076270E-01
-0.2227741075723E-01 -0.5536381949169E+01 -0.1111731888551E+01 -0.4798891405251E-01
-0.2666961491398E-01 -0.5550312683404E+01 -0.1115396476284E+01 -0.6628967557459E-01
-0.3236805919596E-01 -0.5570072558704E+01 -0.1120488140277E+01 -0.8791417039082E-01
-0.3993987812175E-01 -0.5596050494560E+01 -0.1127198091333E+01 -0.1136754308710E+00
-0.5027580905108E-01 -0.5628365690486E+01 -0.1135728316831E+01 -0.1444315054439E+00
-0.6447318491468E-01 -0.5666639690907E+01 -0.1146222592244E+01 -0.1808531034919E+00
-0.8334087818303E-01 -0.5709951038767E+01 -0.1158658400655E+01 -0.2231890353531E+00
-0.1068085588238E+00 -0.5757140623135E+01 -0.1172789853868E+01 -0.2713574686380E+00
-0.1339244071073E+00 -0.5806993691162E+01 -0.1188183637359E+01 -0.3253524307687E+00
-0.1635437013055E+00 -0.5858004527119E+01 -0.1204309663630E+01 -0.3854881151404E+00
-0.1950492312966E+00 -0.5908127853185E+01 -0.1220635435085E+01 -0.4522164141821E+00
-0.2286000850781E+00 -0.5954652105328E+01 -0.1236650456509E+01 -0.5257441221716E+00
-0.2649008563274E+00 -0.5994092237269E+01 -0.1251798637373E+01 -0.6056946117113E+00
-0.3047173850448E+00 -0.6021991083536E+01 -0.1265341712571E+01 -0.6908991591115E+00
-0.3484526864627E+00 -0.6032476773079E+01 -0.1276185910925E+01 -0.7792946777216E+00
-0.3960793272897E+00 -0.6017259272719E+01 -0.1282667739115E+01 -0.8676103126825E+00
-0.4470645535821E+00 -0.5963251964585E+01 -0.1282063322738E+01 -0.9498583607089E+00
-0.4983927470049E+00 -0.5848874596929E+01 -0.1269453487703E+01 -0.1013294342822E+01
-0.5374234484058E+00 -0.5640189471370E+01 -0.1235522602366E+01 -0.1030225630485E+01
-0.5175215386802E+00 -0.5289235910666E+01 -0.1161351507175E+01 -0.9392272599691E+00
-0.2735810221623E+00 -0.4765476907607E+01 -0.1007811600971E+01 -0.6184715432733E+00
 0.6477260511030E+00 -0.4183506137880E+01 -0.7071560278927E+00  0.4434713075548E-01
 0.2936878008166E+01 -0.3872017546308E+01 -0.1870279104154E+00  0.7604625206533E+00
 0.6485668793800E+01 -0.3817087492165E+01  0.5337162682801E+00  0.4758572905156E+00
-0.1239390217250E+01 -0.6100911071889E+01 -0.1468060279704E+01  0.8482859248169E+00
-0.7399545528104E+00 -0.6217033282340E+01 -0.1391397587763E+01  0.7529849219275E+00
-0.3757510966658E+00 -0.6196730280832E+01 -0.1314496295087E+01  0.5409345538057E+00
-0.1893862693370E+00 -0.6090080423821E+01 -0.1255893357346E+01  0.3558499661630E+00
-0.1040642274667E+00 -0.5975310499136E+01 -0.1215874963438E+01  0.2357269921375E+00
-0.6189733746022E-01 -0.5881177453848E+01 -0.1188614975973E+01  0.1614168552345E+00
-0.3892980234208E-01 -0.5808234299573E+01 -0.1169432837809E+01  0.1137030621282E+00
-0.2576526341232E-01 -0.5752182701882E+01 -0.1155589610278E+01  0.8185250791683E-01
-0.1799679050970E-01 -0.5709126873396E+01 -0.1145424749849E+01  0.5971705018598E-01
-0.1339157417827E-01 -0.5676048450631E+01 -0.1137888021918E+01  0.4356589012074E-01
-0.1076301088554E-01 -0.5650798689449E+01 -0.1132312356940E+01  0.3106070355649E-01
-0.9444235054901E-02 -0.5631920167796E+01 -0.1128272897383E+01  0.2066164448250E-01
-0.9050351258717E-02 -0.5618479354825E+01 -0.1125505957988E+01  0.1130252227990E-01
-0.9358389544984E-02 -0.5609941434356E+01 -0.1123859981527E+01  0.2201863076591E-02
-0.1024573832094E-01 -0.5606080766203E+01 -0.1123265317643E+01 -0.7253008433403E-02
-0.1165924580003E-01 -0.5606919639730E+01 -0.1123715793851E+01 -0.1758191720286E-01
-0.1360272065192E-01 -0.5612687144484E+01 -0.1125257989795E+01 -0.2926741277707E-01
-0.1613889001354E-01 -0.5623791034783E+01 -0.1127986001768E+01 -0.4280192090254E-01
-0.1940852505387E-01 -0.5640794735966E+01 -0.1132040669073E+01 -0.5873688169834E-01
-0.2367947545087E-01 -0.5664383019141E+01 -0.1137612515870E+01 -0.7774146741137E-01
-0.2945191789446E-01 -0.5695271312453E+01 -0.1144944663131E+01 -0.1006617103401E+00
-0.3760245366987E-01 -0.5733987835426E+01 -0.1154318075020E+01 -0.1284999633730E+00
-0.4934353917840E-01 -0.5780552854834E+01 -0.1165979296177E+01 -0.1621772540981E+00
-0.6566925178134E-01 -0.5834317436357E+01 -0.1179997355211E+01 -0.2021956343119E+00
-0.8657494635222E-01 -0.5894229802706E+01 -0.1196160967636E+01 -0.2486690385500E+00
-0.1110037225927E+00 -0.5959058860968E+01 -0.1214012534802E+01 -0.3017890909022E+00
-0.1376933649651E+00 -0.6027264509996E+01 -0.1232991593365E+01 -0.3621058622612E+00
-0.1660400020086E+00 -0.6096905117762E+01 -0.1252589042619E+01 -0.4303206157180E+00
-0.1963686260719E+00 -0.6165633729124E+01 -0.1272400489999E+01 -0.5069219396161E+00
-0.2296700468826E+00 -0.6230616104267E+01 -0.1292057249483E+01 -0.5919190210853E+00
-0.2670706289314E+00 -0.6288316473628E+01 -0.1311077440048E+01 -0.6847167380034E+00
-0.3093821909000E+00 -0.6334110230129E+01 -0.1328698504005E+01 -0.7841745507614E+00
-0.3572495656730E+00 -0.6361394404254E+01 -0.1343728814008E+01 -0.8886860707124E+00
-0.4119163547461E+00 -0.6359104438600E+01 -0.1354204178849E+01 -0.9953146326902E+00
-0.4746639715617E+00 -0.6307215184378E+01 -0.1356375851400E+01 -0.1096375755782E+01
-0.5424991692853E+00 -0.6170981469059E+01 -0.1342696147677E+01 -0.1172558297117E+01
-0.5948238955971E+00 -0.5889212028583E+01 -0.1296807204160E+01 -0.1174884544484E+01
-0.5170836789896E+00 -0.5374527229459E+01 -0.1178322199248E+01 -0.9694639777633E+00
 0.1695800687529E+00 -0.4658540249721E+01 -0.8977920495717E+00 -0.3230292413975E+00
 0.2520145543149E+01 -0.4156308705437E+01 -0.3272326373337E+00  0.6249845652602E+00
 0.6818303056608E+01 -0.4039750238756E+01  0.5557105718511E+00  0.4758004598029E+00
-0.1239651065096E+01 -0.6335195971849E+01 -0.1514969429964E+01  0.9212107514001E+00
-0.6604187887994E+00 -0.6432349402037E+01 -0.1418553659305E+01  0.7661117512874E+00
-0.2873988621343E+00 -0.6346564472890E+01 -0.1326792686776E+01  0.4968574610674E+00
-0.1317173623616E+00 -0.6186165800436E+01 -0.1263576651388E+01  0.3021640925822E+00
-0.7048361442163E-01 -0.6048766180694E+01 -0.1223849977260E+01  0.1927458966112E+00
-0.4120391471674E-01 -0.5947608257015E+01 -0.1197762452194E+01  0.1291038423550E+00
-0.2552594328028E-01 -0.5873186604308E+01 -0.1179742527097E+01  0.8937760252228E-01
-0.1673708801926E-01 -0.5818004819507E+01 -0.1166948398894E+01  0.6348520924672E-01
-0.1161242102577E-01 -0.5776728083688E+01 -0.1157668118193E+01  0.4577898499022E-01
-0.8613921403230E-02 -0.5745697016118E+01 -0.1150862204653E+01  0.3300109865675E-01
-0.6931609313963E-02 -0.5722504271814E+01 -0.1145887193301E+01  0.2316560961886E-01
-0.6115696027990E-02 -0.5705597112381E+01 -0.1142342578704E+01  0.1498563067572E-01
-0.5910278986614E-02 -0.5694031194999E+01 -0.1139988311784E+01  0.7581737768105E-02
-0.6168424708330E-02 -0.5687303656302E+01 -0.1138694433170E+01  0.3129197659879E-03
-0.6810812490378E-02 -0.5685246586055E+01 -0.1138411496673E+01 -0.7323096033901E-02
-0.7804766704253E-02 -0.5687959308154E+01 -0.1139152831946E+01 -0.1575499605854E-01
-0.9156375686221E-02 -0.5695767817745E+01 -0.1140984855688E+01 -0.2538564130564E-01
-0.1091281814799E-01 -0.5709203082155E+01 -0.1144023197108E+01 -0.3663399077791E-01
-0.1317769311344E-01 -0.5728992300793E+01 -0.1148434015894E+01 -0.4998184209730E-01
-0.1615089421155E-01 -0.5756053120444E+01 -0.1154440820134E+01 -0.6603763080841E-01
-0.2023204146692E-01 -0.5791452746662E+01 -0.1162336974946E+01 -0.8562930586140E-01
-0.2622435206306E-01 -0.5836220110580E+01 -0.1172488910000E+01 -0.1098653108475E+00
-0.3541723572577E-01 -0.5890932072043E+01 -0.1185269879216E+01 -0.1399419762439E+00
-0.4900338238672E-01 -0.5955351895740E+01 -0.1200871073520E+01 -0.1766942584548E+00
-0.6705969388845E-01 -0.6028554556130E+01 -0.1219122868170E+01 -0.2205142829758E+00
-0.8841487973372E-01 -0.6109172540469E+01 -0.1239517502511E+01 -0.2718430449987E+00
-0.1116850864968E+00 -0.6195465965166E+01 -0.1261430229129E+01 -0.3314491521528E+00
-0.1362780991335E+00 -0.6285516710007E+01 -0.1284358980967E+01 -0.4001825880145E+00
-0.1626509443159E+00 -0.6377412086245E+01 -0.1308012625603E+01 -0.4786752665794E+00
-0.1920088169979E+00 -0.6469168622507E+01 -0.1332235507753E+01 -0.5672006278816E+00
-0.2257312379895E+00 -0.6558439714529E+01 -0.1356834210722E+01 -0.6656256877672E+00
-0.2648274791396E+00 -0.6642197298053E+01 -0.1381404976023E+01 -0.7735621115930E+00
-0.3101474817921E+00 -0.6716138470518E+01 -0.1405257211402E+01 -0.8907994914986E+00
-0.3638207866834E+00 -0.6772609642521E+01 -0.1427286107109E+01 -0.1017229117396E+01
-0.4302856335570E+00 -0.6795976604711E+01 -0.1445252469189E+01 -0.1150549786099E+01
-0.5133553925617E+00 -0.6755973806513E+01 -0.1453865861479E+01 -0.1280717308801E+01
-0.6134557764110E+00 -0.6592965296530E+01 -0.1441284236065E+01 -0.1380133462419E+01
-0.6937155237800E+00 -0.6173537809333E+01 -0.1373450687089E+01 -0.1341762619535E+01
-0.3493764176734E+00 -0.5370394962596E+01 -0.1143954293100E+01 -0.8228458596073E+00
 0.1904716042879E+01 -0.4595898447045E+01 -0.5382364888537E+00  0.3561823216475E+00
 0.7199439944374E+01 -0.4352937132960E+01  0.5693005707662E+00  0.4634746881587E+00
-0.1228111263642E+01 -0.6627403731568E+01 -0.1571103022453E+01  0.1001284174624E+01
-0.5481262365307E+00 -0.6671615300268E+01 -0.1443948328876E+01  0.7510358000064E+00
-0.1872914234544E+00 -0.6478786685159E+01 -0.1333215641589E+01  0.4202776335358E+00
-0.7906203796076E-01 -0.6259369815700E+01 -0.1267686389622E+01  0.2352919028152E+00
-0.4253364003307E-01 -0.6107824316438E+01 -0.1230071609624E+01  0.1464677447594E+00
-0.2427085553163E-01 -0.6004574927020E+01 -0.1205769174478E+01  0.9607472527608E-01
-0.1487259855895E-01 -0.5931636780777E+01 -0.1189301893589E+01  0.6544854411474E-01
-0.9689539487345E-02 -0.5879291993309E+01 -0.1177796324110E+01  0.4592440750066E-01
-0.6686338404310E-02 -0.5841021128445E+01 -0.1169541510797E+01  0.3273633342612E-01
-0.4958089348148E-02 -0.5812831868626E+01 -0.1163558008933E+01  0.2331321641681E-01
-0.4004800208185E-02 -0.5792196309830E+01 -0.1159240239282E+01  0.1608523018910E-01
-0.3562812231063E-02 -0.5777562131000E+01 -0.1156225005875E+01  0.1005813535054E-01
-0.3480111392663E-02 -0.5768029909817E+01 -0.1154302021442E+01  0.4555330241794E-02
-0.3671279668208E-02 -0.5763163739070E+01 -0.1153367020934E+01 -0.9143361120797E-03
-0.4090800948605E-02 -0.5762874197751E+01 -0.1153393016927E+01 -0.6736806831053E-02
-0.4721123256081E-02 -0.5767348862905E+01 -0.1154414014434E+01 -0.1324404581351E-01
-0.5568164689783E-02 -0.5777014535233E+01 -0.1156516557218E+01 -0.2075214033169E-01
-0.6663279790997E-02 -0.5792522979455E+01 -0.1159837269132E+01 -0.2959565400166E-01
-0.8074037981561E-02 -0.5814756803522E+01 -0.1164566185654E+01 -0.4016838593039E-01
-0.9931257712205E-02 -0.5844852676552E+01 -0.1170956804301E+01 -0.5298318560920E-01
-0.1250902505869E-01 -0.5884228139082E+01 -0.1179347450402E+01 -0.6878206114309E-01
-0.1646261280820E-01 -0.5934495071860E+01 -0.1190191554669E+01 -0.8869802145542E-01
-0.2308430736297E-01 -0.5997008814306E+01 -0.1204018642275E+01 -0.1141988902633E+00
-0.3375833240629E-01 -0.6072194544213E+01 -0.1221190593521E+01 -0.1465645970225E+00
-0.4866247387087E-01 -0.6159305573774E+01 -0.1241593628030E+01 -0.1866242480356E+00
-0.6652670958412E-01 -0.6256622531735E+01 -0.1264629867108E+01 -0.2351797965563E+00
-0.8588498582776E-01 -0.6361911389266E+01 -0.1289559294235E+01 -0.2931933360868E+00
-0.1061881488720E+00 -0.6473129269733E+01 -0.1315863503329E+01 -0.3614992243780E+00
-0.1279934856925E+00 -0.6588866308726E+01 -0.1343371978901E+01 -0.4406625553437E+00
-0.1526272211880E+00 -0.6708225959081E+01 -0.1372170656501E+01 -0.5310514844270E+00
-0.1816273860271E+00 -0.6830344871463E+01 -0.1402394472395E+01 -0.6328816501909E+00
-0.2160282820015E+00 -0.6954035605305E+01 -0.1434012798830E+01 -0.7463043349422E+00
-0.2565127222563E+00 -0.7077708375976E+01 -0.1466844241504E+01 -0.8720943339056E+00
-0.3051476993484E+00 -0.7198110630658E+01 -0.1500651688363E+01 -0.1012182380174E+01
-0.3678685178153E+00 -0.7307190923070E+01 -0.1535011911051E+01 -0.1169162099765E+01
-0.4534864907630E+00 -0.7384267393323E+01 -0.1567550800175E+01 -0.1342138093809E+01
-0.5692509348569E+00 -0.7386274209240E+01 -0.1591105052529E+01 -0.1523243452184E+01
-0.7526990230663E+00 -0.7186051278328E+01 -0.1587750083938E+01 -0.1677746096876E+01
-0.8377796642466E+00 -0.6452232194487E+01 -0.1458002393473E+01 -0.1455440434546E+01
 0.1013096536132E+01 -0.5347909492586E+01 -0.8669626042096E+00 -0.1504037235559E+00
 0.7628567992201E+01 -0.4854303525410E+01  0.5548529016261E+00  0.3985080355545E+00
-0.1197005015128E+01 -0.7019513598534E+01 -0.1643303747219E+01  0.1084118366392E+01
-0.3898577714941E+00 -0.6926094449030E+01 -0.1463190465908E+01  0.6776500832958E+00
-0.8444717795586E-01 -0.6566038985863E+01 -0.1330097252584E+01  0.3026881129037E+00
-0.3934245729761E-01 -0.6303251579641E+01 -0.1268518826290E+01  0.1615454687750E+00
-0.2134138828157E-01 -0.6151877911717E+01 -0.1234643878397E+01  0.9972519189803E-01
-0.1157183782836E-01 -0.6051445288246E+01 -0.1212603443284E+01  0.6371341636544E-01
-0.7216286688914E-02 -0.5983668036250E+01 -0.1198176882442E+01  0.4294680188255E-01
-0.4633040947621E-02 -0.5936151590832E+01 -0.1188156944061E+01  0.2974741125547E-01
-0.3210298191498E-02 -0.5902158232537E+01 -0.1181073723745E+01  0.2097355752107E-01
-0.2387055613712E-02 -0.5877590468518E+01 -0.1175995522350E+01  0.1474053358037E-01
-0.1946906038780E-02 -0.5859992582423E+01 -0.1172387915162E+01  0.9967146084855E-02
-0.1754145022834E-02 -0.5847908577639E+01 -0.1169932561966E+01  0.5961872348791E-02
-0.1737075754689E-02 -0.5840544301381E+01 -0.1168456292839E+01  0.2258593590556E-02
-0.1854402288783E-02 -0.5837565913821E+01 -0.1167884080625E+01 -0.1482039004363E-02
-0.2084948711475E-02 -0.5838982890584E+01 -0.1168213585267E+01 -0.5528074190877E-02
-0.2421164805091E-02 -0.5845081141854E+01 -0.1169500478759E+01 -0.1011250128433E-01
-0.2867341054743E-02 -0.5856390375565E+01 -0.1171851560786E+01 -0.1546035464734E-01
-0.3440793058434E-02 -0.5873677654115E+01 -0.1175423706950E+01 -0.2181376839661E-01
-0.4177792841112E-02 -0.5897966827280E+01 -0.1180428941614E+01 -0.2946336189359E-01
-0.5149535647356E-02 -0.5930587669625E+01 -0.1187147458744E+01 -0.3879694036601E-01
-0.6502108778050E-02 -0.5973267455090E+01 -0.1195953930595E+01 -0.5039618520897E-01
-0.8664791143450E-02 -0.6028229838927E+01 -0.1207378944005E+01 -0.6527441627513E-01
-0.1280295682441E-01 -0.6097898096841E+01 -0.1222140228944E+01 -0.8508642476743E-01
-0.2043001946690E-01 -0.6183825353969E+01 -0.1240851093177E+01 -0.1116977629202E+00
-0.3183496179966E-01 -0.6285580828495E+01 -0.1263483176886E+01 -0.1466799902241E+00
-0.4571383453243E-01 -0.6400702558855E+01 -0.1289283297889E+01 -0.1914218235143E+00
-0.6063827620146E-01 -0.6525959741224E+01 -0.1317319623115E+01 -0.2470303475156E+00
-0.7618224377839E-01 -0.6658956567266E+01 -0.1347027782281E+01 -0.3140575077418E+00
-0.9296789810852E-01 -0.6798865201333E+01 -0.1378366640428E+01 -0.3926959940062E+00
-0.1123137309752E+00 -0.6946167489014E+01 -0.1411696265034E+01 -0.4831772024578E+00
-0.1357883695510E+00 -0.7101849714971E+01 -0.1447527638474E+01 -0.5859594850561E+00
-0.1644268969458E+00 -0.7266749619490E+01 -0.1486235325434E+01 -0.7016128413028E+00
-0.1983489173184E+00 -0.7441910061461E+01 -0.1528051818526E+01 -0.8312751106256E+00
-0.2392954469746E+00 -0.7629191954977E+01 -0.1573697503840E+01 -0.9779979564943E+00
-0.2917347183580E+00 -0.7829852715585E+01 -0.1624317510993E+01 -0.1146551635747E+01
-0.3689477650272E+00 -0.8041475500813E+01 -0.1682084678233E+01 -0.1346349035389E+01
-0.4770255439928E+00 -0.8239605278329E+01 -0.1743326190442E+01 -0.1578435594625E+01
-0.6552862800167E+00 -0.8380767523673E+01 -0.1807210787668E+01 -0.1880829741082E+01
-0.1137088191332E+01 -0.8060358792708E+01 -0.1839489424218E+01 -0.2134052542784E+01
-0.2285496234399E+00 -0.6758227291570E+01 -0.1397355403824E+01 -0.1049767183969E+01
 0.8095643773506E+01 -0.5812576677372E+01  0.4566134260309E+00  0.1480865851252E+00
-0.1137322977157E+01 -0.7608817794738E+01 -0.1749228180444E+01  0.1146700773715E+01
-0.1676211298622E+00 -0.7136913184794E+01 -0.1460906884700E+01  0.4824175567378E+00
-0.5300751301196E-02 -0.6565458318311E+01 -0.1314151833505E+01  0.1518421925612E+00
-0.1924539866856E-01 -0.6323453327629E+01 -0.1268539764162E+01  0.9384119418701E-01
-0.5498553800452E-02 -0.6178591968238E+01 -0.1236818122838E+01  0.5353582416638E-01
-0.4137340990098E-02 -0.6088827311437E+01 -0.1218592948644E+01  0.3435490794166E-01
-0.2299345277022E-02 -0.6029495561592E+01 -0.1206358999350E+01  0.2274206683480E-01
-0.1560750247940E-02 -0.5988898131398E+01 -0.1198091794182E+01  0.1559354832211E-01
-0.1082192915548E-02 -0.5960386266037E+01 -0.1192293709557E+01  0.1085734127337E-01
-0.8271558260720E-03 -0.5940178840333E+01 -0.1188201216937E+01  0.7515082231191E-02
-0.6908945766921E-03 -0.5926055541001E+01 -0.1185349304779E+01  0.4948142552304E-02
-0.6375264699743E-03 -0.5916762431632E+01 -0.1183480009256E+01  0.2769838677952E-02
-0.6420640290563E-03 -0.5911668133480E+01 -0.1182462057122E+01  0.7173072258099E-03
-0.6918837816208E-03 -0.5910575147609E+01 -0.1182253423895E+01 -0.1401568878890E-02
-0.7804466166044E-03 -0.5913610712297E+01 -0.1182878249409E+01 -0.3740231123819E-02
-0.9058375732782E-03 -0.5921167608539E+01 -0.1184414706872E+01 -0.6433873445484E-02
-0.1070218336589E-02 -0.5933878711113E+01 -0.1186989803577E+01 -0.9615255293003E-02
-0.1280385263488E-02 -0.5952618325223E+01 -0.1190779759841E+01 -0.1342955313469E-01
-0.1549685100499E-02 -0.5978532374573E+01 -0.1196016429757E+01 -0.1805366604572E-01
-0.1904948226699E-02 -0.6013108285971E+01 -0.1203002664766E+01 -0.2372835622277E-01
-0.2398770478819E-02 -0.6058311150181E+01 -0.1212142002194E+01 -0.3082009117527E-01
-0.3193407500943E-02 -0.6116870747302E+01 -0.1224012849200E+01 -0.4001853002469E-01
-0.5123405918608E-02 -0.6192560774093E+01 -0.1239536854473E+01 -0.5288574955993E-01
-0.9636324298998E-02 -0.6288974373420E+01 -0.1259722158315E+01 -0.7199224139886E-01
-0.1709877631683E-01 -0.6406358668660E+01 -0.1284691508139E+01 -0.1002603202324E+00
-0.2633938382989E-01 -0.6540745196197E+01 -0.1313416935577E+01 -0.1401076750566E+00
-0.3623723751357E-01 -0.6687077629262E+01 -0.1344662993392E+01 -0.1926577162409E+00
-0.4662668275378E-01 -0.6842309308949E+01 -0.1377787218871E+01 -0.2577465293599E+00
-0.5814770044928E-01 -0.7006311947039E+01 -0.1412891950551E+01 -0.3347739848433E+00
-0.7192099592191E-01 -0.7181295902569E+01 -0.1450643401314E+01 -0.4235175456225E+00
-0.8935681377055E-01 -0.7370608155184E+01 -0.1491993016023E+01 -0.5245697661315E+00
-0.1114672886332E+00 -0.7577372234554E+01 -0.1537767927552E+01 -0.6389970299379E+00
-0.1381063146490E+00 -0.7804582241985E+01 -0.1588537734998E+01 -0.7678995839890E+00
-0.1693583632922E+00 -0.8058557636974E+01 -0.1645583224574E+01 -0.9134218422964E+00
-0.2104807555205E+00 -0.8352408892838E+01 -0.1712577955191E+01 -0.1081049111141E+01
-0.2631553781727E+00 -0.8703484979077E+01 -0.1793328098173E+01 -0.1280526901008E+01
-0.3670923897258E+00 -0.9131027956118E+01 -0.1899624097475E+01 -0.1540781955743E+01
-0.4400570775367E+00 -0.9631842209438E+01 -0.2014379887412E+01 -0.1854205719356E+01
-0.9735619882701E+00 -0.1022998510574E+02 -0.2240709452191E+01 -0.2564950821567E+01
-0.1771551338266E+01 -0.9521043355210E+01 -0.2258518972350E+01 -0.2440268242522E+01
 0.8562364197597E+01 -0.8154133687797E+01  0.8164610317661E-01 -0.7396376592680E+00
-0.1073333185113E+01 -0.8689631955547E+01 -0.1952593057228E+01  0.1068277378488E+01
 0.1509033043253E+00 -0.6977041171190E+01 -0.1365227593716E+01  0.3810292964220E-01
-0.2968295904521E-01 -0.6526127452413E+01 -0.1311162101829E+01  0.5421001547693E-01
 0.4655872405831E-02 -0.6311008471280E+01 -0.1261270538569E+01  0.2389492060894E-01
-0.1727087250366E-02 -0.6190586174027E+01 -0.1238462670710E+01  0.1469932333757E-01
-0.6209966480264E-04 -0.6117169533267E+01 -0.1223446344817E+01  0.9096092361348E-02
-0.3131321348340E-03 -0.6069811488951E+01 -0.1214024942307E+01  0.5964768758719E-02
-0.1819042835796E-03 -0.6037982193304E+01 -0.1207632837513E+01  0.4015866650361E-02
-0.1720564414793E-03 -0.6016064520487E+01 -0.1203247333316E+01  0.2743890174242E-02
-0.1506877433477E-03 -0.6000866669599E+01 -0.1200203489353E+01  0.1846264049225E-02
-0.1429371181476E-03 -0.5990592480634E+01 -0.1198147101404E+01  0.1149403051252E-02
-0.1392405125771E-03 -0.5984281385038E+01 -0.1196884142945E+01  0.5413773930799E-03
-0.1400811006729E-03 -0.5981519760769E+01 -0.1196331986201E+01 -0.5430201204594E-04
-0.1444497678715E-03 -0.5982276952607E+01 -0.1196484298304E+01 -0.6946707491684E-03
-0.1523126651903E-03 -0.5986814512497E+01 -0.1197393382875E+01 -0.1426308041798E-02
-0.1638637890227E-03 -0.5995638808890E+01 -0.1199160552405E+01 -0.2291397867253E-02
-0.1794878405208E-03 -0.6009483883325E+01 -0.1201932692143E+01 -0.3332150854262E-02
-0.2004155391895E-03 -0.6029322080867E+01 -0.1205904517251E+01 -0.4596190529086E-02
-0.2278219086056E-03 -0.6056397993613E+01 -0.1211325181154E+01 -0.6142065481288E-02
-0.2647665622675E-03 -0.6092314667833E+01 -0.1218515905036E+01 -0.8050307379652E-02
-0.3168942218315E-03 -0.6139189717921E+01 -0.1227901340726E+01 -0.1044644353150E-01
-0.3906125533570E-03 -0.6200020514297E+01 -0.1240082243849E+01 -0.1355349288125E-01
-0.7237730720002E-03 -0.6279754969072E+01 -0.1256095767146E+01 -0.1814488692428E-01
-0.2192180785711E-02 -0.6385929727788E+01 -0.1277624400753E+01 -0.2734117114904E-01
-0.5076009742073E-02 -0.6520484691489E+01 -0.1305112159694E+01 -0.4674352356599E-01
-0.8722371124702E-02 -0.6676171547622E+01 -0.1336978803672E+01 -0.8063835027559E-01
-0.1287683774285E-01 -0.6844907570760E+01 -0.1371556902138E+01 -0.1297632064305E+00
-0.1780345946262E-01 -0.7022658755928E+01 -0.1408092464060E+01 -0.1925743172225E+00
-0.2406622735700E-01 -0.7210189887819E+01 -0.1446851244595E+01 -0.2671097766581E+00
-0.3237413671540E-01 -0.7411893394308E+01 -0.1488853528390E+01 -0.3523163171656E+00
-0.4356929106530E-01 -0.7634028646827E+01 -0.1535519610460E+01 -0.4486681801768E+00
-0.5866201089590E-01 -0.7882917804981E+01 -0.1588315986843E+01 -0.5581649825518E+00
-0.7770360385841E-01 -0.8161992520675E+01 -0.1647939249463E+01 -0.6821919828847E+00
-0.1004766879883E+00 -0.8479125783653E+01 -0.1715920519897E+01 -0.8194717278365E+00
-0.1269254014824E+00 -0.8860858390566E+01 -0.1797556785195E+01 -0.9713439781924E+00
-0.1669523803896E+00 -0.9349320584760E+01 -0.1903254621391E+01 -0.1147769147661E+01
-0.1973254597544E+00 -0.1000190597938E+02 -0.2039846318222E+01 -0.1370236518542E+01
-0.3748849896028E+00 -0.1091742182592E+02 -0.2258461396758E+01 -0.1688898672570E+01
-0.9765695801191E-02 -0.1230810999668E+02 -0.2463575175207E+01 -0.2129017093684E+01
-0.3314774575893E+01 -0.1471437950449E+02 -0.3605830869808E+01 -0.3806185149975E+01
 0.9985605020745E+01 -0.1522339949860E+02 -0.1047558911181E+01 -0.3596313603654E+01
-0.8776459218511E+00 -0.1293347143404E+01 -0.1020366738082E+01 -0.5408475700940E+00
-0.7887706027460E+00 -0.1329285186005E+01 -0.9954862181879E+00 -0.4344774236664E+00
-0.6947696084390E+00 -0.1361749454568E+01 -0.9665639571615E+00 -0.3437087418705E+00
-0.6032116094569E+00 -0.1393257334421E+01 -0.9383404012425E+00 -0.2662871348713E+00
-0.5156041247180E+00 -0.1422372541699E+01 -0.9108490309059E+00 -0.2004262846371E+00
-0.4336981823864E+00 -0.1448406093816E+01 -0.8845890075716E+00 -0.1450541484364E+00
-0.3581594135935E+00 -0.1470578193409E+01 -0.8595066731110E+00 -0.9968011587661E-01
-0.2896880613860E+00 -0.1489138108374E+01 -0.8360482976666E+00 -0.6383199392814E-01
-0.2285531982946E+00 -0.1504369834071E+01 -0.8144738231459E+00 -0.3692758957562E-01
-0.1747931981960E+00 -0.1516541300742E+01 -0.7949272124847E+00 -0.1834173614032E-01
-0.1283685460022E+00 -0.1526024071140E+01 -0.7775645280846E+00 -0.7439318509890E-02
-0.8910306010844E-01 -0.1533154773816E+01 -0.7624611800106E+00 -0.3597035632123E-02
-0.5677861867184E-01 -0.1538152967667E+01 -0.7496178436778E+00 -0.6196097194540E-02
-0.3116211348697E-01 -0.1541012450370E+01 -0.7389220431385E+00 -0.1467187014220E-01
-0.1204917375032E-01 -0.1541558670451E+01 -0.7301956849228E+00 -0.2855301950560E-01
 0.8023844266578E-03 -0.1539444349395E+01 -0.7231617217007E+00 -0.4742758084690E-01
 0.6410735724452E-02 -0.1535069056105E+01 -0.7184694087566E+00 -0.7074109210646E-01
 0.3845477997734E-02 -0.1529246388316E+01 -0.7169384260311E+00 -0.9865117841630E-01
-0.2700059374330E-02 -0.1519988064832E+01 -0.7156634165620E+00 -0.1305215350637E+00
-0.3475369133711E-01 -0.1531883136325E+01 -0.7363193071334E+00 -0.1595685690806E+00
-0.9331896943199E+00 -0.1349200897408E+01 -0.1072723575391E+01 -0.5209695646080E+00
-0.8306744582150E+00 -0.1383348944312E+01 -0.1040590996548E+01 -0.4138584731234E+00
-0.7302566692617E+00 -0.1418584716424E+01 -0.1009955448710E+01 -0.3237666650614E+00
-0.6323377862603E+00 -0.1451782833775E+01 -0.9795366889320E+00 -0.2473474810676E+00
-0.5393733008027E+00 -0.1482613183393E+01 -0.9503336451615E+00 -0.1828538608833E+00
-0.4525075997517E+00 -0.1510263541135E+01 -0.9225024338768E+00 -0.1291514108511E+00
-0.3725723435638E+00 -0.1534415406344E+01 -0.8962842401833E+00 -0.8555162744638E-01
-0.3000013185283E+00 -0.1555004430028E+01 -0.8718526996099E+00 -0.5143959495436E-01
-0.2350626987056E+00 -0.1572226047448E+01 -0.8494257085379E+00 -0.2622650579182E-01
-0.1778240878566E+00 -0.1586364776525E+01 -0.8291687641562E+00 -0.9309555009596E-02
-0.1282158255226E+00 -0.1597766622853E+01 -0.8112117486791E+00 -0.8054069980339E-04
-0.8606443700950E-01 -0.1606791619661E+01 -0.7956423446169E+00  0.2053179233857E-02
-0.5113137056942E-01 -0.1613694515542E+01 -0.7824681644876E+00 -0.2326234837155E-02
-0.2317598226813E-01 -0.1618573327727E+01 -0.7716221737406E+00 -0.1267774798308E-01
-0.1978974284478E-02 -0.1621394589235E+01 -0.7629855729190E+00 -0.2850235158311E-01
 0.1237921813355E-01 -0.1622206338225E+01 -0.7566187445239E+00 -0.4924249293963E-01
 0.1909358750156E-01 -0.1621137719859E+01 -0.7529607402984E+00 -0.7427640584114E-01
 0.1797162813991E-01 -0.1618098784380E+01 -0.7520597615252E+00 -0.1033130799670E+00
 0.3557223422264E-02 -0.1616875900638E+01 -0.7582597763683E+00 -0.1349066139377E+00
-0.1930620331292E-01 -0.1609760726143E+01 -0.7656614549022E+00 -0.1700639864253E+00
-0.9857517013781E+00 -0.1401309979375E+01 -0.1121918987108E+01 -0.5000452480137E+00
-0.8735397825864E+00 -0.1438519206144E+01 -0.1086667721947E+01 -0.3929027660929E+00
-0.7648932860697E+00 -0.1475140189471E+01 -0.1052815730834E+01 -0.3032779516575E+00
-0.6607938791028E+00 -0.1510247437987E+01 -0.1020389416444E+01 -0.2279281853507E+00
-0.5622908609992E+00 -0.1542735811262E+01 -0.9893625334535E+00 -0.1648288236497E+00
-0.4705170133730E+00 -0.1572125826364E+01 -0.9600421322415E+00 -0.1127439939378E+00
-0.3861028900712E+00 -0.1598103379464E+01 -0.9325769443162E+00 -0.7084936184699E-01
-0.3094380246744E+00 -0.1620622712448E+01 -0.9071285441466E+00 -0.3844856809097E-01
-0.2407210769198E+00 -0.1639803848217E+01 -0.8838467125725E+00 -0.1491733008709E-01
-0.1800038578611E+00 -0.1655907768955E+01 -0.8628784624148E+00  0.3423524297701E-03
-0.1272075730946E+00 -0.1669282977277E+01 -0.8443505565332E+00  0.7920181947720E-02
-0.8214753747673E-01 -0.1680300154683E+01 -0.8283504132143E+00  0.8389390943175E-02
-0.4458489498073E-01 -0.1689259783238E+01 -0.8149069966961E+00  0.2312835899216E-02
-0.1428693109278E-01 -0.1696337622117E+01 -0.8039935379696E+00 -0.9768078924339E-02
 0.8872720731464E-02 -0.1701631035941E+01 -0.7955964061307E+00 -0.2730980334119E-01
 0.2471279899673E-01 -0.1705209570706E+01 -0.7898334806999E+00 -0.4970778360168E-01
 0.3259035729565E-01 -0.1706981838636E+01 -0.7869639942340E+00 -0.7631773168534E-01
 0.3085503497494E-01 -0.1707445130650E+01 -0.7879973429688E+00 -0.1067237838163E+00
 0.1900331846942E-01 -0.1704905097976E+01 -0.7923738343582E+00 -0.1409840845067E+00
-0.8350106628585E-03 -0.1697291979880E+01 -0.7981196835307E+00 -0.1808279959416E+00
-0.1037631845107E+01 -0.1452650956343E+01 -0.1170432913713E+01 -0.4777542128389E+00
-0.9156983368591E+00 -0.1492815392456E+01 -0.1132001449907E+01 -0.3711508742990E+00
-0.7991904952835E+00 -0.1531614056468E+01 -0.1095478136544E+01 -0.2822667896954E+00
-0.6885185528483E+00 -0.1568445742470E+01 -0.1060773216109E+01 -0.2080231819745E+00
-0.5844570509217E+00 -0.1602663922705E+01 -0.1027946854997E+01 -0.1463361851511E+00
-0.4877176619165E+00 -0.1633766675536E+01 -0.9970976360737E+00 -0.9584018833714E-01
-0.3988195547699E+00 -0.1661532524346E+01 -0.9683654747285E+00 -0.5560787843589E-01
-0.3180538213824E+00 -0.1685912975726E+01 -0.9418643922521E+00 -0.2488016305601E-01
-0.2455687976485E+00 -0.1707017676103E+01 -0.9177156403353E+00 -0.3001466145374E-02
-0.1813816422985E+00 -0.1725089939339E+01 -0.8960416410969E+00  0.1063288367707E-01
-0.1253966286459E+00 -0.1740477199472E+01 -0.8769606969911E+00  0.1660417412651E-01
-0.7742418627054E-01 -0.1753564779318E+01 -0.8605648116440E+00  0.1547545769949E-01
-0.3723199794050E-01 -0.1764687513370E+01 -0.8469021681678E+00  0.7802021974427E-02
-0.4621310372472E-02 -0.1774078901835E+01 -0.8359890976171E+00 -0.5867852032261E-02
 0.2046961045337E-01 -0.1781875882125E+01 -0.8278609455860E+00 -0.2497397482475E-01
 0.3783093217268E-01 -0.1788095409524E+01 -0.8226243022686E+00 -0.4892117586730E-01
 0.4667188544401E-01 -0.1792665661334E+01 -0.8206170725869E+00 -0.7714877416574E-01
 0.4628902013980E-01 -0.1795033220309E+01 -0.8219097719948E+00 -0.1095893528181E+00
 0.3649851931321E-01 -0.1794180361374E+01 -0.8261104636734E+00 -0.1467501336906E+00
 0.1909265920347E-01 -0.1789264306170E+01 -0.8319806719641E+00 -0.1900042167419E+00
-0.1088678736674E+01 -0.1503254400101E+01 -0.1218208571194E+01 -0.4541474888833E+00
-0.9572500546595E+00 -0.1546489730481E+01 -0.1176757696031E+01 -0.3485084401395E+00
-0.8328655664911E+00 -0.1587584501895E+01 -0.1137611529256E+01 -0.2606402884936E+00
-0.7156086307352E+00 -0.1626305138928E+01 -0.1100699468950E+01 -0.1876218658836E+00
-0.6058867608627E+00 -0.1662240370502E+01 -0.1066019749037E+01 -0.1273696778820E+00
-0.5041606369485E+00 -0.1695055253661E+01 -0.1033631465965E+01 -0.7844707132538E-01
-0.4107658018379E+00 -0.1724572596052E+01 -0.1003609044463E+01 -0.3984234444886E-01
-0.3259035629656E+00 -0.1750774578250E+01 -0.9760387238958E+00 -0.1074736821199E-01
-0.2496589150089E+00 -0.1773773531818E+01 -0.9510132475967E+00  0.9521302660200E-02
-0.1820119837638E+00 -0.1793811462533E+01 -0.9286370174041E+00  0.2157854512247E-01
-0.1228462829259E+00 -0.1811237152756E+01 -0.9090192124649E+00  0.2600460042532E-01
-0.7196836215151E-01 -0.1826446958389E+01 -0.8922551983908E+00  0.2335882626502E-01
-0.2915879568199E-01 -0.1839799538159E+01 -0.8784104146772E+00  0.1419330301419E-01
 0.5750906711413E-02 -0.1851555641218E+01 -0.8675282230177E+00 -0.9443587839221E-03
 0.3278998390016E-01 -0.1861852012729E+01 -0.8596591513693E+00 -0.2150484886015E-01
 0.5171690268823E-01 -0.1870685027738E+01 -0.8549150166050E+00 -0.4694967813271E-01
 0.6201046687056E-01 -0.1877780920753E+01 -0.8534121111601E+00 -0.7689033413964E-01
 0.6326159881483E-01 -0.1882635896129E+01 -0.8551059175687E+00 -0.1114355414805E+00
 0.5561724103762E-01 -0.1884624927583E+01 -0.8596336104960E+00 -0.1511512427555E+00
 0.4045495282911E-01 -0.1883630140743E+01 -0.8662923361223E+00 -0.1970239697147E+00
-0.1138855447132E+01 -0.1553199409183E+01 -0.1265265779258E+01 -0.4292563935252E+00
-0.9980835143994E+00 -0.1599497414930E+01 -0.1220863033688E+01 -0.3249477407141E+00
-0.8658852864163E+00 -0.1642977474552E+01 -0.1179165494664E+01 -0.2383523684722E+00
-0.7420264143490E+00 -0.1683653572027E+01 -0.1140069590705E+01 -0.1666945498654E+00
-0.6266206183520E+00 -0.1721344405186E+01 -0.1103543558264E+01 -0.1079231351396E+00
-0.5198840970667E+00 -0.1755859947503E+01 -0.1069599698235E+01 -0.6056777280456E-01
-0.4219919384152E+00 -0.1787104957222E+01 -0.1038275538316E+01 -0.2356121240805E-01
-0.3330401650469E+00 -0.1815096530670E+01 -0.1009624244426E+01  0.3943168052976E-02
-0.2530485763102E+00 -0.1839965442759E+01 -0.9837165864674E+00  0.2265222272973E-01
-0.1819557655555E+00 -0.1861960749411E+01 -0.9606407595978E+00  0.3319208563178E-01
-0.1196232459810E+00 -0.1881436237023E+01 -0.9404979546266E+00  0.3614566125588E-01
-0.6585324790410E-01 -0.1898795966965E+01 -0.9233851286464E+00  0.3207156620827E-01
-0.2043711908704E-01 -0.1914411307595E+01 -0.9093787582342E+00  0.2151762422619E-01
 0.1677596717085E-01 -0.1928552860179E+01 -0.8985351374348E+00  0.5020654553420E-02
 0.4580192564836E-01 -0.1941356226333E+01 -0.8909105190622E+00 -0.1690152266142E-01
 0.6646682655778E-01 -0.1952778312945E+01 -0.8865663963535E+00 -0.4379250471928E-01
 0.7843105401740E-01 -0.1962566136498E+01 -0.8855434865200E+00 -0.7539084825962E-01
 0.8152128140485E-01 -0.1970356792580E+01 -0.8877526880006E+00 -0.1118628183434E+00
 0.7601748228886E-01 -0.1975888900096E+01 -0.8929395641044E+00 -0.1537013081206E+00
 0.6305361671682E-01 -0.1979361590923E+01 -0.9006647455925E+00 -0.2015861767038E+00
-0.1188075813203E+01 -0.1602479722677E+01 -0.1311561098537E+01 -0.4031178671721E+00
-0.1038129058537E+01 -0.1651814100612E+01 -0.1264273281593E+01 -0.3004658402243E+00
-0.8981972706555E+00 -0.1697706175009E+01 -0.1220074616368E+01 -0.2153800768955E+00
-0.7677641478757E+00 -0.1740380410344E+01 -0.1178827939373E+01 -0.1452206343921E+00
-0.6466750035374E+00 -0.1779847645080E+01 -0.1140465641957E+01 -0.8798712035286E-01
-0.5349290540183E+00 -0.1816061024392E+01 -0.1104965334050E+01 -0.4220303313449E-01
-0.4325459746787E+00 -0.1849011559629E+01 -0.1072332038405E+01 -0.6769175437490E-02
-0.3395183952940E+00 -0.1878765233349E+01 -0.1042593302818E+01  0.1918743981856E-01
-0.2557968755630E+00 -0.1905479176085E+01 -0.1015799741698E+01  0.3639225754928E-01
-0.1812767120387E+00 -0.1929416614186E+01 -0.9920258608094E+00  0.4548183569878E-01
-0.1157956448971E+00 -0.1950938650239E+01 -0.9713651162504E+00  0.4704291811688E-01
-0.5914917248361E-01 -0.1970454829053E+01 -0.9539138783029E+00  0.4163354885999E-01
-0.1113302716726E-01 -0.1988342873022E+01 -0.9397536707056E+00  0.2979439334951E-01
 0.2839800743220E-01 -0.2004879950979E+01 -0.9289465111107E+00  0.1204380284378E-01
 0.5947811893553E-01 -0.2020202729975E+01 -0.9215405648512E+00 -0.1114146211058E-01
 0.8200519720438E-01 -0.2034287019489E+01 -0.9175724541466E+00 -0.3937633072078E-01
 0.9579343574573E-01 -0.2046961070357E+01 -0.9170487859413E+00 -0.7247545246888E-01
 0.1008225953566E+00 -0.2058041065094E+01 -0.9198926784433E+00 -0.1105967428184E+00
 0.9745616251317E-01 -0.2067512401444E+01 -0.9259264299492E+00 -0.1541237272047E+00
 0.8668193579724E-01 -0.2075739232287E+01 -0.9348569269789E+00 -0.2035087197509E+00
-0.1236255323037E+01 -0.1651073250753E+01 -0.1357044426239E+01 -0.3757686229617E+00
-0.1077318373557E+01 -0.1703397425581E+01 -0.1306936422280E+01 -0.2750721057872E+00
-0.9297629392556E+00 -0.1751698950010E+01 -0.1260287084758E+01 -0.1917148658117E+00
-0.7928119436910E+00 -0.1796385554156E+01 -0.1216922820901E+01 -0.1231878059837E+00
-0.6660679694474E+00 -0.1837638248607E+01 -0.1176741919501E+01 -0.6755435428943E-01
-0.5493311930052E+00 -0.1875542224576E+01 -0.1139690503372E+01 -0.2335219654785E-01
-0.4424758002208E+00 -0.1910177478518E+01 -0.1105747038202E+01  0.1053055071889E-01
-0.3453929788853E+00 -0.1941665146668E+01 -0.1074917316284E+01  0.3498201886904E-01
-0.2579640766317E+00 -0.1970195867147E+01 -0.1047235170920E+01  0.5074064096305E-01
-0.1800396068561E+00 -0.1996051691027E+01 -0.1022762907411E+01  0.5845138607511E-01
-0.1114317477919E+00 -0.2019603253695E+01 -0.1001586448158E+01  0.5870432215241E-01
-0.5192543413701E-01 -0.2041265088571E+01 -0.9837995431776E+00  0.5205583391323E-01
-0.1313816769244E-02 -0.2061420476638E+01 -0.9694851154426E+00  0.3903697648910E-01
 0.4055579411074E-01 -0.2080355643389E+01 -0.9587059267292E+00  0.2014437826388E-01
 0.7374675779476E-01 -0.2098227300678E+01 -0.9515058527420E+00 -0.4183643736541E-02
 0.9822827296818E-01 -0.2115060993386E+01 -0.9479113761922E+00 -0.3361372980262E-01
 0.1139334047781E+00 -0.2130793287170E+01 -0.9479241423197E+00 -0.6799681444262E-01
 0.1209530659122E+00 -0.2145400674147E+01 -0.9514903734569E+00 -0.1074506745515E+00
 0.1197039379332E+00 -0.2159044954179E+01 -0.9584902752042E+00 -0.1522453639345E+00
 0.1110723102311E+00 -0.2172203976373E+01 -0.9687318806297E+00 -0.2026544576641E+00
-0.1283310088046E+01 -0.1698947907181E+01 -0.1401661254201E+01 -0.3472464776851E+00
-0.1115590640680E+01 -0.1754200624972E+01 -0.1348801891436E+01 -0.2487830398027E+00
-0.9605484848307E+00 -0.1804886636632E+01 -0.1299754503791E+01 -0.1673574522536E+00
-0.8171635568553E+00 -0.1851579772778E+01 -0.1254309361746E+01 -0.1005906903219E+00
-0.6848163693154E+00 -0.1894613262022E+01 -0.1212331923653E+01 -0.4662069230973E-01
-0.5631250314294E+00 -0.1934194382519E+01 -0.1173740121579E+01 -0.4015213625553E-02
-0.4518276759440E+00 -0.1970490366831E+01 -0.1138489477217E+01  0.2833481365338E-01
-0.3507183770063E+00 -0.2003680904128E+01 -0.1106567659326E+01  0.5132264733993E-01
-0.2596105276371E+00 -0.2033994446661E+01 -0.1077994335186E+01  0.6569402722796E-01
-0.1783094853584E+00 -0.2061735579899E+01 -0.1052821178001E+01  0.7209957639159E-01
-0.1065999647994E+00 -0.2087286696891E+01 -0.1031126728379E+01  0.7113135695596E-01
-0.4425242616567E-01 -0.2111068826381E+01 -0.1013000986127E+01  0.6334288354297E-01
 0.8949257109119E-02 -0.2133473250972E+01 -0.9985262745831E+00  0.4925465939955E-01
 0.5317292280640E-01 -0.2154802987907E+01 -0.9877661280920E+00  0.2934281689215E-01
 0.8851584966217E-01 -0.2175249536992E+01 -0.9807648305573E+00  0.4015193677546E-02
 0.1150108834369E+00 -0.2194905606079E+01 -0.9775505171624E+00 -0.2642713611181E-01
 0.1326841778298E+00 -0.2213818195124E+01 -0.9781329856475E+00 -0.6184434019524E-01
 0.1417072006485E+00 -0.2232101184572E+01 -0.9824851699522E+00 -0.1022998545312E+00
 0.1425271666440E+00 -0.2250049930532E+01 -0.9905356965151E+00 -0.1479547541042E+00
 0.1359563263210E+00 -0.2268227880662E+01 -0.1002167627998E+01 -0.1989332423711E+00
-0.1329159277619E+01 -0.1746067797881E+01 -0.1445356721819E+01 -0.3175908956466E+00
-0.1152890617843E+01 -0.1804174365273E+01 -0.1389820538539E+01 -0.2216200903832E+00
-0.9905250435509E+00 -0.1857202881523E+01 -0.1338432121390E+01 -0.1423150491769E+00
-0.8408148673777E+00 -0.1905880217032E+01 -0.1290946686398E+01 -0.7742949483982E-01
-0.7029372204149E+00 -0.1950677458799E+01 -0.1247198896067E+01 -0.2518549044474E-01
-0.5763437595122E+00 -0.1991914220832E+01 -0.1207081247700E+01  0.1580619613950E-01
-0.4606465802492E+00 -0.2029841535712E+01 -0.1170529411533E+01  0.4663918576291E-01
-0.3555480239088E+00 -0.2064698392144E+01 -0.1137515812660E+01  0.6820317172974E-01
-0.2607960387722E+00 -0.2096753577490E+01 -0.1108048316833E+01  0.8124581987437E-01
-0.1761511543539E+00 -0.2126336950413E+01 -0.1082169406496E+01  0.8642045377943E-01
-0.1013691553314E+00 -0.2153845178872E+01 -0.1059950734387E+01  0.8431962175944E-01
-0.3620259604932E-01 -0.2179708551444E+01 -0.1041478236680E+01  0.7549325016915E-01
 0.1957872454304E-01 -0.2204330845081E+01 -0.1026833494049E+01  0.6045201261055E-01
 0.6616222212217E-01 -0.2228039460315E+01 -0.1016082299374E+01  0.3965537937287E-01
 0.1036793932932E+00 -0.2251070848231E+01 -0.1009273981261E+01  0.1349018647105E-01
 0.1322181619481E+00 -0.2273591554670E+01 -0.1006445492027E+01 -0.1775868578841E-01
 0.1518767278527E+00 -0.2295753192419E+01 -0.1007621935790E+01 -0.5394305672512E-01
 0.1628829576575E+00 -0.2317786957928E+01 -0.1012804877558E+01 -0.9506669869958E-01
 0.1656970233496E+00 -0.2340092520454E+01 -0.1021965881047E+01 -0.1411891798071E+00
 0.1610678814804E+00 -0.2363301251027E+01 -0.1035049681062E+01 -0.1923046183585E+00
-0.1373725979152E+01 -0.1792396135886E+01 -0.1488077390294E+01 -0.2868434716105E+00
-0.1189168418267E+01 -0.1853269235934E+01 -0.1429945693848E+01 -0.1936084672056E+00
-0.1019667934692E+01 -0.1908584093874E+01 -0.1376278449935E+01 -0.1165996779745E+00
-0.8637639335715E+00 -0.1959209556500E+01 -0.1326797536969E+01 -0.5370893369394E-01
-0.7204477210810E+00 -0.2005742082414E+01 -0.1281309204393E+01 -0.3251505680448E-02
-0.5890196206989E+00 -0.2048604331136E+01 -0.1239683254218E+01  0.3610792513708E-01
-0.4689760939047E+00 -0.2088126552677E+01 -0.1201838240845E+01  0.6543712892622E-01
-0.3599340702837E+00 -0.2124606136583E+01 -0.1167733894265E+01  0.8561481272061E-01
-0.2615794392914E+00 -0.2158353313192E+01 -0.1137368390782E+01  0.9738575447281E-01
-0.1736289765925E+00 -0.2189725278663E+01 -0.1110776497153E+01  0.1014032207168E+00
-0.9580869643660E-01 -0.2219135571444E+01 -0.1088023803144E+01  0.9825897158056E-01
-0.2785083401363E-01 -0.2247027163349E+01 -0.1069192656049E+01  0.8849931397307E-01
 0.3049198025865E-01 -0.2273821083923E+01 -0.1054364676048E+01  0.7262699140016E-01
 0.7942869149731E-01 -0.2299875265368E+01 -0.1043609887072E+01  0.5108976677624E-01
 0.1191232491567E+00 -0.2325476828422E+01 -0.1036986179624E+01  0.2426251750090E-01
 0.1497100448808E+00 -0.2350867185360E+01 -0.1034543853401E+01 -0.7573606818907E-02
 0.1713420532015E+00 -0.2376294316565E+01 -0.1036327561152E+01 -0.4425092177249E-01
 0.1842842196363E+00 -0.2402090445428E+01 -0.1042368923478E+01 -0.8571299397079E-01
 0.1889925584529E+00 -0.2428740705603E+01 -0.1052681626490E+01 -0.1319271368237E+00
 0.1861577410948E+00 -0.2456924504692E+01 -0.1067260376184E+01 -0.1827721713248E+00
-0.1416937583097E+01 -0.1837896883226E+01 -0.1529772195292E+01 -0.2550482757697E+00
-0.1224379010432E+01 -0.1901437137282E+01 -0.1469133585699E+01 -0.1647764977612E+00
-0.1047956131633E+01 -0.1958969875078E+01 -0.1413255219569E+01 -0.9022714332577E-01
-0.8860106020388E+00 -0.2011495497738E+01 -0.1361827863441E+01 -0.2943749059625E-01
-0.7373651569264E+00 -0.2059724331543E+01 -0.1314632056246E+01  0.1917524472780E-01
-0.6011837942673E+00 -0.2104173014640E+01 -0.1271517696961E+01  0.5688310272386E-01
-0.4768582175584E+00 -0.2145245733976E+01 -0.1232388854095E+01  0.8471938413438E-01
-0.3639270214718E+00 -0.2183296238287E+01 -0.1197194929050E+01  0.1035455796533E+00
-0.2620181906122E+00 -0.2218676313085E+01 -0.1165926413780E+01  0.1140994785650E+00
-0.1708065327368E+00 -0.2251771979760E+01 -0.1138611897986E+01  0.1170319731473E+00
-0.8998822793094E-01 -0.2283016130043E+01 -0.1115312045419E+01  0.1129331885051E+00
-0.1927383437292E-01 -0.2312867835646E+01 -0.1096106582129E+01  0.1023463902032E+00
 0.4160281296678E-01 -0.2341769598764E+01 -0.1081078386583E+01  0.8576893554954E-01
 0.9287253699084E-01 -0.2370114183873E+01 -0.1070303571320E+01  0.6364199581414E-01
 0.1347288843626E+00 -0.2398241958217E+01 -0.1063851142013E+01  0.3633634946984E-01
 0.1673446411764E+00 -0.2426467247311E+01 -0.1061787622190E+01  0.4138755471197E-02
 0.1909134671695E+00 -0.2455125870800E+01 -0.1064179827007E+01 -0.3275669976940E-01
 0.2057217884281E+00 -0.2484638396802E+01 -0.1071090803219E+01 -0.7423530803872E-01
 0.2122075007684E+00 -0.2515562299534E+01 -0.1082576752674E+01 -0.1201823639157E+00
 0.2109882459459E+00 -0.2548617651855E+01 -0.1098685817991E+01 -0.1703770227876E+00
-0.1458726298993E+01 -0.1882536033510E+01 -0.1570393292293E+01 -0.2222520869068E+00
-0.1258481989937E+01 -0.1948632475432E+01 -0.1507343794900E+01 -0.1351552561421E+00
-0.1075371900680E+01 -0.2008303659306E+01 -0.1449327509517E+01 -0.6321638205902E-01
-0.9075562593296E+00 -0.2062670936492E+01 -0.1396006778495E+01 -0.4626896217021E-02
-0.7537067544448E+00 -0.2112547350131E+01 -0.1347139425734E+01  0.4208564684938E-01
-0.6128662837764E+00 -0.2158534497801E+01 -0.1302558364037E+01  0.7812190324333E-01
-0.4843331815303E+00 -0.2201104719409E+01 -0.1262155810240E+01  0.1044735856979E+00
-0.3675754640139E+00 -0.2240665290926E+01 -0.1225873151712E+01  0.1219798585173E+00
-0.2621680449207E+00 -0.2277608925191E+01 -0.1193695172925E+01  0.1313682038605E+00
-0.1677462406729E+00 -0.2312351449951E+01 -0.1165645911637E+01  0.1332853797053E+00
-0.8397710538938E-01 -0.2345347282828E+01 -0.1141782459566E+01  0.1283194988207E+00
-0.1054913061721E-01 -0.2377074626071E+01 -0.1122183162797E+01  0.1170118042288E+00
 0.5282313911701E-01 -0.2408000792744E+01 -0.1106933494397E+01  0.9985703410756E-01
 0.1063916951169E+00 -0.2438556036940E+01 -0.1096117237877E+01  0.7729452387625E-01
 0.1503763274302E+00 -0.2469134426645E+01 -0.1089816303867E+01  0.4969743526799E-01
 0.1849809125675E+00 -0.2500119722112E+01 -0.1088115237726E+01  0.1736497611619E-01
 0.2104283216288E+00 -0.2531927495173E+01 -0.1091104608798E+01 -0.1947825268141E-01
 0.2270143826594E+00 -0.2565056335875E+01 -0.1098879715224E+01 -0.6066226590946E-01
 0.2351476652297E+00 -0.2600127217377E+01 -0.1111540386690E+01 -0.1059999272838E+00
 0.2353555292408E+00 -0.2637898663287E+01 -0.1129195270137E+01 -0.1551881472408E+00
-0.1499029572492E+01 -0.1926282555379E+01 -0.1609896696016E+01 -0.1885044538738E+00
-0.1291441417372E+01 -0.1994813155560E+01 -0.1544539645360E+01 -0.1047782443590E+00
-0.1101900471561E+01 -0.2056533419666E+01 -0.1484463925111E+01 -0.3558896338857E-01
-0.9284035238014E+00 -0.2112674353955E+01 -0.1429306598920E+01  0.2070829001734E-01
-0.7694894333215E+00 -0.2164140505689E+01 -0.1378806067838E+01  0.6546766519491E-01
-0.6240956774520E+00 -0.2211609307566E+01 -0.1332781339578E+01  0.9981146042896E-01
-0.4914391665309E+00 -0.2255615073959E+01 -0.1291115489756E+01  0.1246840069200E+00
-0.3709257183262E+00 -0.2296615200219E+01 -0.1253744228536E+01  0.1408980943527E+00
-0.2620826246437E+00 -0.2335042132759E+01 -0.1220648632883E+01  0.1491683788401E+00
-0.1645088197457E+00 -0.2371342017896E+01 -0.1191849890668E+01  0.1501363108814E+00
-0.7784364093138E-01 -0.2405992552377E+01 -0.1167403007894E+01  0.1443880448669E+00
-0.1753930612349E-02 -0.2439493537579E+01 -0.1147386307140E+01  0.1324640874019E+00
 0.6406470836912E-01 -0.2472339518216E+01 -0.1131889157757E+01  0.1148592645768E+00
 0.1198840561717E+00 -0.2504999576296E+01 -0.1121004291615E+01  0.9201522051300E-01
 0.1659466393299E+00 -0.2537920537656E+01 -0.1114827729386E+01  0.6431263867469E-01
 0.2024809504045E+00 -0.2571551346874E+01 -0.1113463083516E+01  0.3206804338529E-01
 0.2297297984145E+00 -0.2606379726832E+01 -0.1117025463523E+01 -0.4461226464082E-02
 0.2479891812213E+00 -0.2642973428545E+01 -0.1125642593387E+01 -0.4505332459387E-01
 0.2576306926116E+00 -0.2682009610808E+01 -0.1139458088662E+01 -0.8945755924794E-01
 0.2590875289838E+00 -0.2724279928348E+01 -0.1158640424763E+01 -0.1373057494289E+00
-0.1537790451455E+01 -0.1969109108122E+01 -0.1648242788821E+01 -0.1538577455802E+00
-0.1323225686900E+01 -0.2039941393248E+01 -0.1580688523661E+01 -0.7368120672601E-01
-0.1127529721645E+01 -0.2103612328675E+01 -0.1518636759799E+01 -0.7368779532166E-02
-0.9485559136834E+00 -0.2161450287465E+01 -0.1461702910832E+01  0.4655094439670E-01
-0.7847295022392E+00 -0.2214439765936E+01 -0.1409609552467E+01  0.8930644742802E-01
-0.6348988520864E+00 -0.2263324692161E+01 -0.1362165062341E+01  0.1219357887391E+00
-0.4982119801907E+00 -0.2308694842013E+01 -0.1319246203090E+01  0.1453313490994E+00
-0.3740214612348E+00 -0.2351053887205E+01 -0.1280785410518E+01  0.1602765119983E+00
-0.2618129597888E+00 -0.2390872367000E+01 -0.1246762100428E+01  0.1674713747563E+00
-0.1611526887860E+00 -0.2428626832270E+01 -0.1217196371809E+01  0.1675514742928E+00
-0.7165426763919E-01 -0.2464819560997E+01 -0.1192142696435E+01  0.1611014215236E+00
 0.7036059314496E-02 -0.2499973832642E+01 -0.1171680750492E+01  0.1486623958428E+00
 0.7524068349727E-01 -0.2534613024808E+01 -0.1155904997484E+01  0.1307317833953E+00
 0.1332494000480E+00 -0.2569245384607E+01 -0.1144918109839E+01  0.1077569683737E+00
 0.1813240262087E+00 -0.2604368638667E+01 -0.1138830964967E+01  0.8013005990636E-01
 0.2197120376708E+00 -0.2640492265083E+01 -0.1137766703998E+01  0.4818818192949E-01
 0.2486687744823E+00 -0.2678168918562E+01 -0.1141865064821E+01  0.1222224827285E-01
 0.2684836762163E+00 -0.2718027376082E+01 -0.1151285536017E+01 -0.2749780316310E-01
 0.2794883123639E+00 -0.2760793390379E+01 -0.1166213383709E+01 -0.7066623841600E-01
 0.2820267585328E+00 -0.2807286488119E+01 -0.1186872069895E+01 -0.1168647716416E+00
-0.1574958060253E+01 -0.2010992783451E+01 -0.1685396892266E+01 -0.1183670631993E+00
-0.1353807501477E+01 -0.2083984540603E+01 -0.1615762255679E+01 -0.4190191754706E-01
-0.1152249945114E+01 -0.2149499522570E+01 -0.1551822245876E+01  0.2141823248258E-01
-0.9680175500247E+00 -0.2208949975635E+01 -0.1493174733273E+01  0.7288161372084E-01
-0.7994423522362E+00 -0.2263388272283E+01 -0.1439530389873E+01  0.1135844376538E+00
-0.6453006551153E+00 -0.2313615206527E+01 -0.1390690451444E+01  0.1444757552321E+00
-0.5046847071455E+00 -0.2360269210627E+01 -0.1346528337938E+01  0.1663926027642E+00
-0.3769033176946E+00 -0.2403896054567E+01 -0.1306975701648E+01  0.1800869092692E+00
-0.2614069859508E+00 -0.2445002377335E+01 -0.1272012397518E+01  0.1862432386172E+00
-0.1577333171658E+00 -0.2484094851084E+01 -0.1241659235928E+01  0.1854911326424E+00
-0.6547267419029E-01 -0.2521701216218E+01 -0.1215971725408E+01  0.1784143589734E+00
 0.1574778161887E-01 -0.2558369576558E+01 -0.1195032240590E+01  0.1655561926718E+00
 0.8626709451373E-01 -0.2594653074539E+01 -0.1178941407622E+01  0.1474187156670E+00
 0.1463911118590E+00 -0.2631098728406E+01 -0.1167812576815E+01  0.1244577448373E+00
 0.1963977022886E+00 -0.2668252715400E+01 -0.1161771853216E+01  0.9707960458543E-01
 0.2365485343426E+00 -0.2706680195399E+01 -0.1160961877752E+01  0.6564399153916E-01
 0.2671057312276E+00 -0.2746991830754E+01 -0.1165546463821E+01  0.3047512753026E-01
 0.2883478661553E+00 -0.2789869644389E+01 -0.1175715232788E+01 -0.8113081732295E-02
 0.3005667486204E+00 -0.2836080704252E+01 -0.1191691556124E+01 -0.4976791785096E-01
 0.3040268752709E+00 -0.2886467654379E+01 -0.1213747163102E+01 -0.9403336049469E-01
-0.1610487971619E+01 -0.2051915692293E+01 -0.1721329717673E+01 -0.8209011160627E-01
-0.1383163833688E+01 -0.2126915814734E+01 -0.1649737430574E+01 -0.9479985861147E-02
-0.1176053591470E+01 -0.2194160807165E+01 -0.1584000763341E+01  0.5074431196692E-01
-0.9867928144562E+00 -0.2255131994992E+01 -0.1523704656576E+01  0.9967869154942E-01
-0.8136420909807E+00 -0.2310936923346E+01 -0.1468552133009E+01  0.1382814560411E+00
-0.6553235255288E+00 -0.2362423294801E+01 -0.1418341001957E+01  0.1674090491940E+00
-0.5108873035089E+00 -0.2410271140145E+01 -0.1372944465035E+01  0.1878409290021E+00
-0.3796084050378E+00 -0.2455063897429E+01 -0.1332295978780E+01  0.2002964828603E+00
-0.2609090036288E+00 -0.2497342046743E+01 -0.1296377990387E+01  0.2054444926221E+00
-0.1543025532665E+00 -0.2537641802994E+01 -0.1265213844233E+01  0.2039088994656E+00
-0.5935895094895E-01 -0.2576516900457E+01 -0.1238861647019E+01  0.1962735444781E+00
 0.2431190434930E-01 -0.2614541182257E+01 -0.1217407757529E+01  0.1830851558559E+00
 0.9706414683194E-01 -0.2652297980592E+01 -0.1200959898821E+01  0.1648522551989E+00
 0.1592176832405E+00 -0.2690372181147E+01 -0.1189642610999E+01  0.1420410568344E+00
 0.2110635047562E+00 -0.2729355593021E+01 -0.1183597278483E+01  0.1150738877764E+00
 0.2528735175885E+00 -0.2769864140861E+01 -0.1182985589938E+01  0.8433388579014E-01
 0.2849123990983E+00 -0.2812559850322E+01 -0.1187994299062E+01  0.5017742449857E-01
 0.3074455484320E+00 -0.2858170700842E+01 -0.1198840818592E+01  0.1295802132451E-01
 0.3207274661824E+00 -0.2907498427085E+01 -0.1215782348541E+01 -0.2693210022234E-01
 0.3249541040141E+00 -0.2961404520293E+01 -0.1239131692508E+01 -0.6900929149607E-01
-0.1644342676784E+01 -0.2091865613585E+01 -0.1756017892019E+01 -0.4508701541493E-01
-0.1411275950464E+01 -0.2168715043108E+01 -0.1682595762711E+01  0.2354332923703E-01
-0.1198935064815E+01 -0.2237569411467E+01 -0.1615157099756E+01  0.8058005258551E-01
-0.1004886042309E+01 -0.2299962964037E+01 -0.1553279029043E+01  0.1269185478571E+00
-0.8273411943945E+00 -0.2357045031758E+01 -0.1496661522496E+01  0.1633747482158E+00
-0.6649871225955E+00 -0.2409699931416E+01 -0.1445102911720E+01  0.1907101454044E+00
-0.5168461977820E+00 -0.2458642028197E+01 -0.1398479462663E+01  0.2096455558075E+00
-0.3821698875637E+00 -0.2504487825025E+01 -0.1356729121475E+01  0.2208676878262E+00
-0.2603591574648E+00 -0.2547809207355E+01 -0.1319839128118E+01  0.2250299896288E+00
-0.1509079918930E+00 -0.2589171147833E+01 -0.1287837192405E+01  0.2227516262892E+00
-0.5336880876162E-01 -0.2629153652590E+01 -0.1260785553637E+01  0.2146175882857E+00
 0.3266377575380E-01 -0.2668356909254E+01 -0.1238775769603E+01  0.2011792933551E+00
 0.1075573485592E+00 -0.2707394515776E+01 -0.1221923465493E+01  0.1829530270542E+00
 0.1716439774033E+00 -0.2746887994725E+01 -0.1210364685071E+01  0.1604166653791E+00
 0.2252252276521E+00 -0.2787471768959E+01 -0.1204255871360E+01  0.1340094250414E+00
 0.2685800956621E+00 -0.2829807655740E+01 -0.1203776950183E+01  0.1041378213961E+00
 0.3019728971590E+00 -0.2874602753719E+01 -0.1209136029516E+01  0.7118854005274E-01
 0.3256551450287E+00 -0.2922624307607E+01 -0.1220575503316E+01  0.3555028179768E-01
 0.3398478773148E+00 -0.2974702840710E+01 -0.1238381829655E+01 -0.2352072182420E-02
 0.3446896123750E+00 -0.3031714820417E+01 -0.1262901844577E+01 -0.4201571163926E-01
-0.1676491997313E+01 -0.2130836595175E+01 -0.1789444433931E+01 -0.7420043521809E-02
-0.1438129432896E+01 -0.2209369395231E+01 -0.1714324444872E+01  0.5712535503536E-01
-0.1220890504920E+01 -0.2279706740427E+01 -0.1645280701140E+01  0.1108945968076E+00
-0.1022301186795E+01 -0.2343418267348E+01 -0.1581888139435E+01  0.1545756590305E+00
-0.8405501189929E+00 -0.2401681008733E+01 -0.1523848626166E+01  0.1888390362604E+00
-0.6743079126626E+00 -0.2455405284826E+01 -0.1470965199089E+01  0.2143502795780E+00
-0.5225838540264E+00 -0.2505332382880E+01 -0.1423120627736E+01  0.2317716996655E+00
-0.3846165037801E+00 -0.2552107177476E+01 -0.1380260126689E+01  0.2417581371502E+00
-0.2597929053021E+00 -0.2596330440469E+01 -0.1342377969108E+01  0.2449488287606E+00
-0.1475923576223E+00 -0.2638595010816E+01 -0.1309508059845E+01  0.2419593792569E+00
-0.4755285069695E-01 -0.2679507301321E+01 -0.1281718268198E+01  0.2333771180510E+00
 0.4074427886588E-01 -0.2719694268455E+01 -0.1259106491913E+01  0.2197592292143E+00
 0.1176784851518E+00 -0.2759799651478E+01 -0.1241796945024E+01  0.2016306551981E+00
 0.1835922890015E+00 -0.2800480206466E+01 -0.1229937318089E+01  0.1794815307872E+00
 0.2387956987545E+00 -0.2842409886088E+01 -0.1223698664943E+01  0.1537680419248E+00
 0.2835723965695E+00 -0.2886291664008E+01 -0.1223278052594E+01  0.1249192409206E+00
 0.3181845090038E+00 -0.2932871839230E+01 -0.1228903042090E+01  0.9334979061577E-01
 0.3428701828209E+00 -0.2982950879725E+01 -0.1240837924398E+01  0.5947921942822E-01
 0.3578218567308E+00 -0.3037382944434E+01 -0.1259393708026E+01  0.2375887088066E-01
 0.3631314442575E+00 -0.3097056127344E+01 -0.1284944597792E+01 -0.1329666153807E-01
-0.1706913500075E+01 -0.2168829552503E+01 -0.1821599230092E+01  0.3084668058271E-01
-0.1463714197196E+01 -0.2248874093711E+01 -0.1744916492300E+01  0.9122222166255E-01
-0.1241917573312E+01 -0.2320563116459E+01 -0.1674365919946E+01  0.1416557890309E+00
-0.1039041482257E+01 -0.2385482774355E+01 -0.1609526396525E+01  0.1826226908560E+00
-0.8532769108542E+00 -0.2444823044411E+01 -0.1550106975043E+01  0.2146465296526E+00
-0.6832987548232E+00 -0.2499509369452E+01 -0.1495919814615E+01  0.2382973985715E+00
-0.5281183419273E+00 -0.2550302470819E+01 -0.1446857778321E+01  0.2541804799530E+00
-0.3869721142163E+00 -0.2597870901863E+01 -0.1402876213999E+01  0.2629205146351E+00
-0.2592405278874E+00 -0.2642841819171E+01 -0.1363978699658E+01  0.2651443088071E+00
-0.1443929563416E+00 -0.2685835038165E+01 -0.1330207154044E+01  0.2614654834667E+00
-0.4195594748484E-01 -0.2727483487274E+01 -0.1301636531035E+01  0.2524749753401E+00
 0.4850054031970E-01 -0.2768441264819E+01 -0.1278372137272E+01  0.2387366256881E+00
 0.1273664030426E+00 -0.2809382064462E+01 -0.1260547357670E+01  0.2207844923436E+00
 0.1949931674882E+00 -0.2850996431841E+01 -0.1248321531080E+01  0.1991209319571E+00
 0.2516975760696E+00 -0.2893994803664E+01 -0.1241879693820E+01  0.1742184526515E+00
 0.2977662364450E+00 -0.2939116771398E+01 -0.1241434748279E+01  0.1465271595222E+00
 0.3334581458152E+00 -0.2987142379606E+01 -0.1247231586718E+01  0.1164870307224E+00
 0.3589995163365E+00 -0.3038899970874E+01 -0.1259553210438E+01  0.8454425403076E-01
 0.3745598431657E+00 -0.3095262884700E+01 -0.1278730426278E+01  0.5117107970094E-01
 0.3801957366661E+00 -0.3157127798802E+01 -0.1305158065893E+01  0.1688729033907E-01
-0.1735592911148E+01 -0.2205852892988E+01 -0.1852479523245E+01  0.6964754554582E-01
-0.1488024523335E+01 -0.2287233148910E+01 -0.1774371101454E+01  0.1257891213835E+00
-0.1262015241418E+01 -0.2360138546400E+01 -0.1702412275956E+01  0.1728303434638E+00
-0.1055109102957E+01 -0.2426151586872E+01 -0.1636192520070E+01  0.2110305802220E+00
-0.8655268058457E+00 -0.2486459814394E+01 -0.1575433707517E+01  0.2407669311791E+00
-0.6919684792726E+00 -0.2541992714887E+01 -0.1519961757400E+01  0.2625161106138E+00
-0.5334629069726E+00 -0.2593522968127E+01 -0.1469683357569E+01  0.2768288434501E+00
-0.3892552631530E+00 -0.2641738212977E+01 -0.1424566930168E+01  0.2843025117144E+00
-0.2587266730816E+00 -0.2687289613299E+01 -0.1384627651087E+01  0.2855539231297E+00
-0.1413411889900E+00 -0.2730823185780E+01 -0.1349917252718E+01  0.2811966300391E+00
-0.3661670953998E-01 -0.2772998577309E+01 -0.1320519181470E+01  0.2718264981258E+00
 0.5588650343394E-01 -0.2814497476530E+01 -0.1296547154067E+01  0.2580147130042E+00
 0.1365676167423E+00 -0.2856023410335E+01 -0.1278144219747E+01  0.2403044724604E+00
 0.2057860262742E+00 -0.2898299343757E+01 -0.1265481256007E+01  0.2192097114706E+00
 0.2638638975555E+00 -0.2942069270303E+01 -0.1258756521999E+01  0.1952179498214E+00
 0.3110895322230E+00 -0.2988105075646E+01 -0.1258197302218E+01  0.1687983232974E+00
 0.3477185158320E+00 -0.3037215488177E+01 -0.1264063573796E+01  0.1404132759011E+00
 0.3739673618581E+00 -0.3090251936136E+01 -0.1276653746673E+01  0.1105318168074E+00
 0.3899886721661E+00 -0.3148103582043E+01 -0.1296314004354E+01  0.7964216978699E-01
 0.3958158909941E+00 -0.3211672959208E+01 -0.1323452818704E+01  0.4826348881403E-01
-0.1762524502614E+01 -0.2241923143585E+01 -0.1882090388940E+01  0.1089158652280E+00
-0.1511059067338E+01 -0.2324460094074E+01 -0.1802694001291E+01  0.1607805868871E+00
-0.1281183562835E+01 -0.2398443488797E+01 -0.1729424709880E+01  0.2043840075552E+00
-0.1070504805445E+01 -0.2465430785800E+01 -0.1661889723670E+01  0.2397685984441E+00
-0.8773018159864E+00 -0.2526591180595E+01 -0.1599829704336E+01  0.2671674209227E+00
-0.7003214585872E+00 -0.2582847019553E+01 -0.1543089180812E+01  0.2869676182043E+00
-0.5386255453435E+00 -0.2634975581425E+01 -0.1491592525798E+01  0.2996694810328E+00
-0.3914787623218E+00 -0.2683679205512E+01 -0.1445324241216E+01  0.3058467693053E+00
-0.2582699451501E+00 -0.2729630922121E+01 -0.1404313404055E+01  0.3061093750758E+00
-0.1384621393348E+00 -0.2773502404274E+01 -0.1368623332025E+01  0.3010730208716E+00
-0.3156706699569E-01 -0.2815980433034E+01 -0.1338347321619E+01  0.2913398582534E+00
 0.6286335642957E-01 -0.2857774933516E+01 -0.1313608437899E+01  0.2774888889481E+00
 0.1452367355432E+00 -0.2899619329676E+01 -0.1294559815959E+01  0.2600720422606E+00
 0.2159195418636E+00 -0.2942267811042E+01 -0.1281383683264E+01  0.2396135988803E+00
 0.2752384086679E+00 -0.2986495177240E+01 -0.1274290677997E+01  0.2166141558924E+00
 0.3234824787404E+00 -0.3033101496587E+01 -0.1273520935158E+01  0.1915593891313E+00
 0.3609040951926E+00 -0.3082919403039E+01 -0.1279347191443E+01  0.1649312825724E+00
 0.3877127745654E+00 -0.3136819150627E+01 -0.1292079993472E+01  0.1372183369845E+00
 0.4040511522600E+00 -0.3195702967975E+01 -0.1312076350058E+01  0.1089208290971E+00
 0.4099389713775E+00 -0.3260479856019E+01 -0.1339754212384E+01  0.8055263532556E-01
-0.1787711456777E+01 -0.2277065594196E+01 -0.1910445209112E+01  0.1485843382482E+00
-0.1532820855532E+01 -0.2360578730452E+01 -0.1829897800771E+01  0.1961507904065E+00
-0.1299423428022E+01 -0.2435499628291E+01 -0.1755413832015E+01  0.2362817227199E+00
-0.1085227554747E+01 -0.2503338180360E+01 -0.1686625891222E+01  0.2688043964234E+00
-0.8886003045136E+00 -0.2565228886415E+01 -0.1623299715619E+01  0.2938126162637E+00
-0.7083571765443E+00 -0.2622075786393E+01 -0.1565303488610E+01  0.3116096291629E+00
-0.5436085895612E+00 -0.2674653634741E+01 -0.1512583241586E+01  0.3226507295579E+00
-0.3936493035204E+00 -0.2723675411934E+01 -0.1465142612547E+01  0.3274908148766E+00
-0.2578825463981E+00 -0.2769834227291E+01 -0.1423026880025E+01  0.3267366003038E+00
-0.1357742426214E+00 -0.2813827211399E+01 -0.1386312679873E+01  0.3210085322902E+00
-0.2683196328576E-01 -0.2856369023649E+01 -0.1355104460422E+01  0.3109164285695E+00
 0.6939981287766E-01 -0.2898198785447E+01 -0.1329535513735E+01  0.2970473561003E+00
 0.1533367110204E+00 -0.2940080178432E+01 -0.1309769426362E+01  0.2799611338532E+00
 0.2253518535623E+00 -0.2982797689113E+01 -0.1295999539422E+01  0.2601905717886E+00
 0.2857756834009E+00 -0.3027154398203E+01 -0.1288447992689E+01  0.2382467978830E+00
 0.3348975517323E+00 -0.3073974624611E+01 -0.1287366220988E+01  0.2146290947498E+00
 0.3729668780064E+00 -0.3124110316760E+01 -0.1293037412934E+01  0.1898360452987E+00
 0.4001891487972E+00 -0.3178446526864E+01 -0.1305780964379E+01  0.1643729565595E+00
 0.4167040331096E+00 -0.3237896592789E+01 -0.1325960499686E+01  0.1387495121034E+00
 0.4225290400350E+00 -0.3303376332340E+01 -0.1353998223949E+01  0.1134706133690E+00
-0.1811166211629E+01 -0.2311314972603E+01 -0.1937566151674E+01  0.1885855650334E+00
-0.1553317259729E+01 -0.2395623896627E+01 -0.1856002338780E+01  0.2318538739544E+00
-0.1316736299009E+01 -0.2471340668751E+01 -0.1780396170331E+01  0.2684877906152E+00
-0.1099274133163E+01 -0.2539904068618E+01 -0.1710413750499E+01  0.2981040366809E+00
-0.8994165499690E+00 -0.2602397251409E+01 -0.1645852482473E+01  0.3206645095219E+00
-0.7160697962409E+00 -0.2659694942818E+01 -0.1586609423334E+01  0.3363962443136E+00
-0.5484083074418E+00 -0.2712562622238E+01 -0.1532656333062E+01  0.3457164543370E+00
-0.3957671029590E+00 -0.2761720304366E+01 -0.1484019077678E+01  0.3491669867504E+00
-0.2575699736894E+00 -0.2807879863540E+01 -0.1440761419844E+01  0.3473557838667E+00
-0.1332890368481E+00 -0.2851764149231E+01 -0.1402974993899E+01  0.3409108800232E+00
-0.2242916273397E-01 -0.2894116881034E+01 -0.1370776637094E+01  0.3304511555156E+00
 0.7547224556487E-01 -0.2935707758024E+01 -0.1344310687446E+01  0.3165717655950E+00
 0.1608389096786E+00 -0.2977331481669E+01 -0.1323751505478E+01  0.2998391419512E+00
 0.2340505708652E+00 -0.3019802264405E+01 -0.1309303292643E+01  0.2807922164168E+00
 0.2954410617952E+00 -0.3063949213817E+01 -0.1301198828150E+01  0.2599494715379E+00
 0.3452993459231E+00 -0.3110617119570E+01 -0.1299699350317E+01  0.2378203970352E+00
 0.3838721079364E+00 -0.3160672678981E+01 -0.1305096265081E+01  0.2149172114586E+00
 0.4113636023890E+00 -0.3215011774654E+01 -0.1317714637622E+01  0.1917600381900E+00
 0.4279180137895E+00 -0.3274556924746E+01 -0.1337920284756E+01  0.1688665787042E+00
 0.4335644737886E+00 -0.3340231526863E+01 -0.1366133511480E+01  0.1467302384497E+00
-0.1832910776579E+01 -0.2344716151625E+01 -0.1963484651276E+01  0.2288526252163E+00
-0.1572559940362E+01 -0.2429642261896E+01 -0.1881035030290E+01  0.2678443142408E+00
-0.1333123912986E+01 -0.2506013146486E+01 -0.1804394413375E+01  0.3009660470435E+00
-0.1112638721591E+01 -0.2575172007323E+01 -0.1733271038193E+01  0.3276320112986E+00
-0.9097402925622E+00 -0.2638133860981E+01 -0.1667500847936E+01  0.3476823794583E+00
-0.7234477230999E+00 -0.2695733437829E+01 -0.1607015141561E+01  0.3612778155986E+00
-0.5530145114838E+00 -0.2748720717970E+01 -0.1551815553907E+01  0.3688059037125E+00
-0.3978255751059E+00 -0.2797819731229E+01 -0.1501953290168E+01  0.3708023346168E+00
-0.2573307674918E+00 -0.2843760398927E+01 -0.1457512844520E+01  0.3678813577316E+00
-0.1310109935897E+00 -0.2887292120540E+01 -0.1418602460043E+01  0.3606817665254E+00
-0.1836916820010E-01 -0.2929189394987E+01 -0.1385352521184E+01  0.3498329120896E+00
 0.8106467856945E-01 -0.2970254398624E+01 -0.1357919164981E+01  0.3359378355000E+00
 0.1677230155426E+00 -0.3011314113993E+01 -0.1336487812882E+01  0.3195678681625E+00
 0.2419925961931E+00 -0.3053212354138E+01 -0.1321273282883E+01  0.3012650487544E+00
 0.3042104082426E+00 -0.3096802327075E+01 -0.1312518198522E+01  0.2815513621298E+00
 0.3546642935117E+00 -0.3142945641785E+01 -0.1310492230364E+01  0.2609425614061E+00
 0.3935979276146E+00 -0.3192519076113E+01 -0.1315492936457E+01  0.2399614360710E+00
 0.4212166872509E+00 -0.3246425109851E+01 -0.1327847955254E+01  0.2191416100857E+00
 0.4376770645336E+00 -0.3305593403166E+01 -0.1347920675738E+01  0.1990088415530E+00
 0.4430361013792E+00 -0.3370956595556E+01 -0.1376122628773E+01  0.1800443710120E+00
-0.1852976977621E+01 -0.2377324847617E+01 -0.1988241852819E+01  0.2693196865845E+00
-0.1590564733312E+01 -0.2462693122384E+01 -0.1905031187346E+01  0.3040772996815E+00
-0.1348587925984E+01 -0.2539577236480E+01 -0.1827437621723E+01  0.3336800213665E+00
-0.1125312431711E+01 -0.2609199565569E+01 -0.1755220634269E+01  0.3573512237763E+00
-0.9195562460991E+00 -0.2672490223538E+01 -0.1688261836447E+01  0.3748226544187E+00
-0.7304731509843E+00 -0.2730233787454E+01 -0.1626532256940E+01  0.3862007526483E+00
-0.5574101701806E+00 -0.2783159213390E+01 -0.1570067606296E+01  0.3918535140506E+00
-0.3998110294329E+00 -0.2831992260767E+01 -0.1518947542541E+01  0.3923184745718E+00
-0.2571563074421E+00 -0.2877480900718E+01 -0.1473279484098E+01  0.3882219561491E+00
-0.1289374220570E+00 -0.2920402586859E+01 -0.1433189800555E+01  0.3802169853966E+00
-0.1465524197814E-01 -0.2961564938986E+01 -0.1398823481505E+01  0.3689448009947E+00
 0.8616864393326E-01 -0.3001805108986E+01 -0.1370349135099E+01  0.3550159071075E+00
 0.1739767676866E+00 -0.3041984208461E+01 -0.1347963493745E+01  0.3390043895353E+00
 0.2491637630801E+00 -0.3082976064770E+01 -0.1331891778416E+01  0.3214517511536E+00
 0.3120696949119E+00 -0.3125656462261E+01 -0.1322385777300E+01  0.3028788826996E+00
 0.3629802433769E+00 -0.3170900321970E+01 -0.1319722433592E+01  0.2838031843112E+00
 0.4021350049533E+00 -0.3219589615901E+01 -0.1324203663787E+01  0.2647546933882E+00
 0.4297419360984E+00 -0.3272628709924E+01 -0.1336156780309E+01  0.2462798442094E+00
 0.4459774881687E+00 -0.3330952068906E+01 -0.1355938049507E+01  0.2289141855524E+00
 0.4509452838517E+00 -0.3395504220323E+01 -0.1383942696631E+01  0.2131288681838E+00
-0.1871406744391E+01 -0.2409208446219E+01 -0.2011889134484E+01  0.3099227133133E+00
-0.1607351528912E+01 -0.2494849284335E+01 -0.1928034377336E+01  0.3405091735512E+00
-0.1363129548979E+01 -0.2572107644125E+01 -0.1849561476068E+01  0.3665931257417E+00
-0.1137282830788E+01 -0.2642059144861E+01 -0.1776290724050E+01  0.3872229683955E+00
-0.9288436133792E+00 -0.2705532469994E+01 -0.1708156754853E+01  0.4020387524869E+00
-0.7371216244983E+00 -0.2763252634043E+01 -0.1645175897341E+01  0.4111072974213E+00
-0.5615710492975E+00 -0.2815922939642E+01 -0.1587422170775E+01  0.4147886807619E+00
-0.4017024124620E+00 -0.2864269482130E+01 -0.1535006786565E+01  0.4136314114495E+00
-0.2570306707143E+00 -0.2909059134912E+01 -0.1488062204870E+01  0.4082803389730E+00
-0.1270584565222E+00 -0.2951099677715E+01 -0.1446734319422E+01  0.3994064888989E+00
-0.1128353506430E-01 -0.2991234880041E+01 -0.1411183651520E+01  0.3876644071824E+00
 0.9078290042012E-01 -0.3030340022163E+01 -0.1381591843715E+01  0.3736714289203E+00
 0.1795955287398E+00 -0.3069312851259E+01 -0.1358167138139E+01  0.3580018310892E+00
 0.2555582814738E+00 -0.3109058258896E+01 -0.1341144985987E+01  0.3411922968981E+00
 0.3190143862893E+00 -0.3150473587641E+01 -0.1330785821260E+01  0.3237572031510E+00
 0.3702458856695E+00 -0.3194443766157E+01 -0.1327373000462E+01  0.3062101376143E+00
 0.4094860492069E+00 -0.3241850829239E+01 -0.1331211443239E+01  0.2890845733562E+00
 0.4369453521475E+00 -0.3293595670553E+01 -0.1342625646245E+01  0.2729395707749E+00
 0.4528269342873E+00 -0.3350614605204E+01 -0.1361960201876E+01  0.2583241455314E+00
 0.4573016391396E+00 -0.3413867414761E+01 -0.1389585911018E+01  0.2457052920641E+00
-0.1888252236403E+01 -0.2440446757578E+01 -0.2034488522011E+01  0.3506002109097E+00
-0.1622944036563E+01 -0.2526197925166E+01 -0.1950096717067E+01  0.3770978977017E+00
-0.1376749058637E+01 -0.2603694465624E+01 -0.1870808451658E+01  0.3996688315146E+00
-0.1148533359101E+01 -0.2673838759611E+01 -0.1796514891238E+01  0.4172068643550E+00
-0.9375755183294E+00 -0.2737341992435E+01 -0.1727211225679E+01  0.4292808552259E+00
-0.7433615439564E+00 -0.2794861218595E+01 -0.1662964694181E+01  0.4359352239497E+00
-0.5654653200328E+00 -0.2847070576302E+01 -0.1603891867209E+01  0.4375354538765E+00
-0.4034710398529E+00 -0.2894696170895E+01 -0.1550138585120E+01  0.4346512894800E+00
-0.2569305028754E+00 -0.2938525616480E+01 -0.1501864372288E+01  0.4279532465639E+00
-0.1253570795540E+00 -0.2979400144365E+01 -0.1459235891541E+01  0.4181343826656E+00
-0.8243279597576E-02 -0.3018203426610E+01 -0.1422429948310E+01  0.4058639598987E+00
 0.9491305526260E-01 -0.3055852697890E+01 -0.1391641628505E+01  0.3917653194374E+00
 0.1845817174314E+00 -0.3093285549889E+01 -0.1367090797787E+01  0.3764099815042E+00
 0.2611780095641E+00 -0.3131439722143E+01 -0.1349023001491E+01  0.3603248915716E+00
 0.3250486272605E+00 -0.3171233743559E+01 -0.1337707001267E+01  0.3440115940839E+00
 0.3764699808267E+00 -0.3213559567461E+01 -0.1333432102336E+01  0.3279733632719E+00
 0.4156652254513E+00 -0.3259293938098E+01 -0.1336505491554E+01  0.3127425092690E+00
 0.4428449302162E+00 -0.3309328257017E+01 -0.1347247160179E+01  0.2988908004630E+00
 0.4582434926744E+00 -0.3364596706166E+01 -0.1365986006877E+01  0.2869864390005E+00
 0.4621202374980E+00 -0.3426077761830E+01 -0.1393060032903E+01  0.2775033546184E+00
-0.1903576012812E+01 -0.2471132899679E+01 -0.2056113183656E+01  0.3912940367079E+00
-0.1637369520611E+01 -0.2556841537987E+01 -0.1971279192541E+01  0.4138035580999E+00
-0.1389445278146E+01 -0.2634444138253E+01 -0.1891228020911E+01  0.4328708457498E+00
-0.1159042723252E+01 -0.2704642889037E+01 -0.1815932233170E+01  0.4472607496280E+00
-0.9457184348364E+00 -0.2768016123239E+01 -0.1745455237869E+01  0.4564956148495E+00
-0.7491536882694E+00 -0.2825145853800E+01 -0.1679920780512E+01  0.4606174620290E+00
-0.5690532034379E+00 -0.2876674920382E+01 -0.1619492214088E+01  0.4600121592917E+00
-0.4050803800043E+00 -0.2923330381818E+01 -0.1564353054089E+01  0.4552820777051E+00
-0.2568249522595E+00 -0.2965923569144E+01 -0.1514691801218E+01  0.4471311996372E+00
-0.1238092197259E+00 -0.3005333222642E+01 -0.1470696944183E+01  0.4362788659385E+00
-0.5517071542602E-02 -0.3042487393609E+01 -0.1432562094988E+01  0.4234104213877E+00
 0.9857106904465E-01 -0.3078349732180E+01 -0.1400495968121E+01  0.4091542162592E+00
 0.1889440858500E+00 -0.3113901579636E+01 -0.1374730018593E+01  0.3940757434261E+00
 0.2660315261463E+00 -0.3150116128636E+01 -0.1355519759732E+01  0.3786867061710E+00
 0.3301841959751E+00 -0.3187933553676E+01 -0.1343142194713E+01  0.3634685496629E+00
 0.3816703345284E+00 -0.3228250373855E+01 -0.1337892615090E+01  0.3489064712350E+00
 0.4206973292475E+00 -0.3271932522844E+01 -0.1340080537591E+01  0.3355258730485E+00
 0.4474702972899E+00 -0.3319855156768E+01 -0.1350020880531E+01  0.3239112668228E+00
 0.4622549881467E+00 -0.3372945571795E+01 -0.1368024570845E+01  0.3146575970231E+00
 0.4654180895318E+00 -0.3432203041983E+01 -0.1394388924115E+01  0.3082632325463E+00
-0.1917451097945E+01 -0.2501374205256E+01 -0.2076847887237E+01  0.4319503323280E+00
-0.1650658439301E+01 -0.2586898934765E+01 -0.1991651960760E+01  0.4505889695601E+00
-0.1401214940328E+01 -0.2664480454196E+01 -0.1910876830580E+01  0.4661633349676E+00
-0.1168784184796E+01 -0.2734593383291E+01 -0.1834587452347E+01  0.4773405640893E+00
-0.9532315389393E+00 -0.2797668835078E+01 -0.1762923171317E+01  0.4836258084635E+00
-0.7544506906861E+00 -0.2854208370269E+01 -0.1696069754347E+01  0.4850816472289E+00
-0.5722865928925E+00 -0.2904823077461E+01 -0.1634241540921E+01  0.4821309418945E+00
-0.4064858354337E+00 -0.2950243422307E+01 -0.1577662747137E+01  0.4754211860540E+00
-0.2566756141515E+00 -0.2991308747868E+01 -0.1526552646277E+01  0.4656982445299E+00
-0.1223838658244E+00 -0.3028940371432E+01 -0.1481122387754E+01  0.4537121225140E+00
-0.3081180613925E-02 -0.3064115879024E+01 -0.1441582614374E+01  0.4401655052016E+00
 0.1017747067755E+00 -0.3097850310678E+01 -0.1408155530262E+01  0.4256905996425E+00
 0.1926968949253E+00 -0.3131173264057E+01 -0.1381083889989E+01  0.4108433794576E+00
 0.2701330412380E+00 -0.3165096859562E+01 -0.1360632991161E+01  0.3961143329232E+00
 0.3344392380198E+00 -0.3200584449948E+01 -0.1347088246190E+01  0.3819565988420E+00
 0.3858725365356E+00 -0.3238535500799E+01 -0.1340751589803E+01  0.3688280395591E+00
 0.4246166731845E+00 -0.3279799621853E+01 -0.1341935982471E+01  0.3572397861894E+00
 0.4508619769980E+00 -0.3325227921992E+01 -0.1350951990721E+01  0.3477887432818E+00
 0.4648993486540E+00 -0.3375734947335E+01 -0.1368092727910E+01  0.3411058009739E+00
 0.4672097059568E+00 -0.3432343961263E+01 -0.1393613096459E+01  0.3377380554475E+00
-0.1929960943071E+01 -0.2531293100996E+01 -0.2096789395393E+01  0.4725204671071E+00
-0.1662843957428E+01 -0.2616506246121E+01 -0.2011294590567E+01  0.4874202919222E+00
-0.1412051906854E+01 -0.2693945597052E+01 -0.1929818821941E+01  0.4995111109857E+00
-0.1177724724748E+01 -0.2763830393012E+01 -0.1852530900648E+01  0.5074001346319E+00
-0.9600659771060E+00 -0.2826431428565E+01 -0.1779653776152E+01  0.5106098500117E+00
-0.7591964724779E+00 -0.2882166491571E+01 -0.1711440588762E+01  0.5092495114643E+00
-0.5751086701816E+00 -0.2931616516036E+01 -0.1648160833342E+01  0.5037971539665E+00
-0.4076345434987E+00 -0.2975519634994E+01 -0.1590082459858E+01  0.4949589515370E+00
-0.2564365044790E+00 -0.3014749049372E+01 -0.1537457206411E+01  0.4835316058544E+00
-0.1210432054313E+00 -0.3050274827045E+01 -0.1490519471483E+01  0.4703001479030E+00
-0.9058793719703E-03 -0.3083129832753E+01 -0.1449496781022E+01  0.4559856236947E+00
 0.1045469536742E+00 -0.3114385745797E+01 -0.1414624228710E+01  0.4412227832359E+00
 0.1958590033290E+00 -0.3145125283185E+01 -0.1386155148016E+01  0.4265545150392E+00
 0.2735011398630E+00 -0.3176403785932E+01 -0.1364364240192E+01  0.4124438807421E+00
 0.3378367703273E+00 -0.3209210674472E+01 -0.1349545731525E+01  0.3993066926287E+00
 0.3891084327266E+00 -0.3244448120332E+01 -0.1342009649771E+01  0.3875625058211E+00
 0.4274658268676E+00 -0.3282944199689E+01 -0.1342074831822E+01  0.3776985551917E+00
 0.4530701293638E+00 -0.3325517057088E+01 -0.1350050052606E+01  0.3703227521459E+00
 0.4662236895547E+00 -0.3373059138109E+01 -0.1366212657355E+01  0.3661128657616E+00
 0.4675095781638E+00 -0.3426620835732E+01 -0.1390782287530E+01  0.3656963462232E+00
-0.1941199412848E+01 -0.2561028139776E+01 -0.2116046944366E+01  0.5129621722996E+00
-0.1673961397552E+01 -0.2645818063092E+01 -0.2030296341353E+01  0.5242678302229E+00
-0.1421946302392E+01 -0.2723001383441E+01 -0.1948125407400E+01  0.5328799253526E+00
-0.1185824126080E+01 -0.2792513509110E+01 -0.1869818683797E+01  0.5373909681336E+00
-0.9661640885797E+00 -0.2854453380420E+01 -0.1795690205875E+01  0.5373812303506E+00
-0.7633256711173E+00 -0.2909154281160E+01 -0.1726065573192E+01  0.5330361609124E+00
-0.5774535515268E+00 -0.2957171091043E+01 -0.1661273577794E+01  0.5249086237717E+00
-0.4084652328030E+00 -0.2999256059659E+01 -0.1601629003395E+01  0.5137780307622E+00
-0.2560540897389E+00 -0.3036323951202E+01 -0.1547417675317E+01  0.5005012982775E+00
-0.1197427922799E+00 -0.3069401005744E+01 -0.1498897581269E+01  0.4859025895836E+00
 0.1044238083191E-02 -0.3099581577113E+01 -0.1456312545650E+01  0.4707218628202E+00
 0.1069154494110E+00 -0.3127999131463E+01 -0.1419909326963E+01  0.4555948653921E+00
 0.1984529232319E+00 -0.3155794229553E+01 -0.1389950410446E+01  0.4410479444858E+00
 0.2761573874659E+00 -0.3184070267116E+01 -0.1366719049969E+01  0.4275106782251E+00
 0.3404029303372E+00 -0.3213847257904E+01 -0.1350518830531E+01  0.4153520697710E+00
 0.3914143715825E+00 -0.3246032031434E+01 -0.1341670296727E+01  0.4049405608197E+00
 0.4292941788932E+00 -0.3281427082681E+01 -0.1340502461380E+01  0.3967267118170E+00
 0.4541543107754E+00 -0.3320807188571E+01 -0.1347326849146E+01  0.3913257302859E+00
 0.4662829325418E+00 -0.3365029135473E+01 -0.1362410711922E+01  0.3894731082353E+00
 0.4663400336685E+00 -0.3415158691240E+01 -0.1385944765543E+01  0.3919144432185E+00
-0.1951270441921E+01 -0.2590734766445E+01 -0.2134742442517E+01  0.5532407295103E+00
-0.1684047446764E+01 -0.2675008487300E+01 -0.2048756283814E+01  0.5611069444652E+00
-0.1430883350268E+01 -0.2751830517326E+01 -0.1965875512783E+01  0.5662368045556E+00
-0.1193033784814E+01 -0.2820822971019E+01 -0.1886512670456E+01  0.5672619675797E+00
-0.9714584199532E+00 -0.2881903218854E+01 -0.1811079965646E+01  0.5638677804719E+00
-0.7667629294082E+00 -0.2935322510295E+01 -0.1739980152247E+01  0.5563491288230E+00
-0.5792458657612E+00 -0.2981616869665E+01 -0.1673605481406E+01  0.5453546962672E+00
-0.4089080671121E+00 -0.3021561788219E+01 -0.1612320827916E+01  0.5317526075646E+00
-0.2554673260801E+00 -0.3056123580925E+01 -0.1556447722345E+01  0.5164696391561E+00
-0.1184316829962E+00 -0.3086393548910E+01 -0.1506267855175E+01  0.5003725926310E+00
 0.2810040355412E-02 -0.3113534118223E+01 -0.1462040312890E+01  0.4842200329032E+00
 0.1089120813892E+00 -0.3138745068566E+01 -0.1424021500361E+01  0.4686467192064E+00
 0.2005039758511E+00 -0.3163228564529E+01 -0.1392480553147E+01  0.4541592744798E+00
 0.2781248742904E+00 -0.3188140650655E+01 -0.1367707411423E+01  0.4411484958881E+00
 0.3421649923694E+00 -0.3214538183025E+01 -0.1350015396184E+01  0.4299273874357E+00
 0.3928291050779E+00 -0.3243338067048E+01 -0.1339739208728E+01  0.4207988126706E+00
 0.4301566299457E+00 -0.3275315863437E+01 -0.1337224836349E+01  0.4141596337929E+00
 0.4541836201914E+00 -0.3311192084683E+01 -0.1342793974905E+01  0.4106241944604E+00
 0.4651473636800E+00 -0.3351766306995E+01 -0.1356710899917E+01  0.4109925177641E+00
 0.4637347686475E+00 -0.3398095522214E+01 -0.1379149550678E+01  0.4161650731047E+00
-0.1960287821288E+01 -0.2620586177213E+01 -0.2153010773835E+01  0.5933302931889E+00
-0.1693139327577E+01 -0.2704272285674E+01 -0.2066783452986E+01  0.5979191897947E+00
-0.1438842129745E+01 -0.2780638175409E+01 -0.1983155738393E+01  0.5995505187110E+00
-0.1199295446337E+01 -0.2848961297655E+01 -0.1902680664850E+01  0.5969590954239E+00
-0.9758706986227E+00 -0.2908969714549E+01 -0.1825874989560E+01  0.5899907248945E+00
-0.7694222224145E+00 -0.2960839175312E+01 -0.1753222852485E+01  0.5790871458987E+00
-0.5804004372113E+00 -0.3005097905881E+01 -0.1685184216979E+01  0.5650149848614E+00
-0.4088846700246E+00 -0.3042557108065E+01 -0.1622177631588E+01  0.5487473656854E+00
-0.2546078969893E+00 -0.3074247440575E+01 -0.1564562004687E+01  0.5312906400877E+00
-0.1170527182773E+00 -0.3101335982038E+01 -0.1512642685312E+01  0.5135566834075E+00
 0.4437673800174E-02 -0.3125060159421E+01 -0.1466692564522E+01  0.4963209163679E+00
 0.1105727533535E+00 -0.3146689494019E+01 -0.1426974864493E+01  0.4802142212474E+00
 0.2020396659713E+00 -0.3167489253107E+01 -0.1393761302419E+01  0.4657205859363E+00
 0.2794266848392E+00 -0.3188670962709E+01 -0.1367344807131E+01  0.4531882629331E+00
 0.3431490008009E+00 -0.3211335398104E+01 -0.1348047603313E+01  0.4428667991659E+00
 0.3933912473488E+00 -0.3236420210523E+01 -0.1336223609303E+01  0.4349782987478E+00
 0.4301116652051E+00 -0.3264678853211E+01 -0.1332246574984E+01  0.4298435416045E+00
 0.4532378889544E+00 -0.3296767928020E+01 -0.1336459114971E+01  0.4280604758766E+00
 0.4629073103615E+00 -0.3333400459959E+01 -0.1349131776889E+01  0.4304917750529E+00
 0.4597667322703E+00 -0.3375577685147E+01 -0.1370431144376E+01  0.4382228026606E+00
-0.1968374448039E+01 -0.2650773571060E+01 -0.2170999563470E+01  0.6332154576450E+00
-0.1701273594267E+01 -0.2733825814566E+01 -0.2084496716864E+01  0.6346939228908E+00
-0.1445793949243E+01 -0.2809653882637E+01 -0.2000060475911E+01  0.6327923819855E+00
-0.1204539475193E+01 -0.2877155287739E+01 -0.1918396533712E+01  0.6264250646625E+00
-0.9793104744979E+00 -0.2935863379428E+01 -0.1840131706678E+01  0.6156635102232E+00
-0.7712058964562E+00 -0.2985889995061E+01 -0.1765835064534E+01  0.6011385745174E+00
-0.5808218644265E+00 -0.3027771825757E+01 -0.1696039030085E+01  0.5837577762653E+00
-0.4083081550691E+00 -0.3062372243717E+01 -0.1631219783292E+01  0.5646161666076E+00
-0.2534005525800E+00 -0.3090802579882E+01 -0.1571775468271E+01  0.5448092356269E+00
-0.1155428643046E+00 -0.3114318695263E+01 -0.1518034929147E+01  0.5252947041841E+00
 0.5978468563098E-02 -0.3134240494024E+01 -0.1470283148237E+01  0.5068608387711E+00
 0.1119377152631E+00 -0.3151909115965E+01 -0.1428786554706E+01  0.4901300540671E+00
 0.2030896444608E+00 -0.3168651183121E+01 -0.1393813919635E+01  0.4755605645545E+00
 0.2800848059649E+00 -0.3185731432647E+01 -0.1365653911077E+01  0.4634565245200E+00
 0.3433767810468E+00 -0.3204300192567E+01 -0.1344634000004E+01  0.4540006157476E+00
 0.3931359401707E+00 -0.3225331803283E+01 -0.1331132052287E+01  0.4473210636749E+00
 0.4292192825627E+00 -0.3249576278129E+01 -0.1325567784554E+01  0.4436345408493E+00
 0.4514068099902E+00 -0.3277625699518E+01 -0.1328322874709E+01  0.4434952633945E+00
 0.4596789056324E+00 -0.3310065450478E+01 -0.1339681672679E+01  0.4478110731180E+00
 0.4545546094868E+00 -0.3347770558505E+01 -0.1359811492589E+01  0.4578691598918E+00
-0.1975661143817E+01 -0.2681505397142E+01 -0.2188868268699E+01  0.6728929788828E+00
-0.1708485002562E+01 -0.2763907956243E+01 -0.2102024685307E+01  0.6714305062426E+00
-0.1451700335460E+01 -0.2839133836380E+01 -0.2016692055649E+01  0.6659374565689E+00
-0.1208683129369E+01 -0.2905659224053E+01 -0.1933740901204E+01  0.6555989247766E+00
-0.9816733558706E+00 -0.2962818289195E+01 -0.1853911068479E+01  0.6407901528206E+00
-0.7720037329133E+00 -0.3010679144643E+01 -0.1777860947942E+01  0.6223792922472E+00
-0.5804041360040E+00 -0.3049809202463E+01 -0.1706200264752E+01  0.6014379024617E+00
-0.4070834818991E+00 -0.3081145812381E+01 -0.1639467764153E+01  0.5792002698485E+00
-0.2517638377562E+00 -0.3105901194892E+01 -0.1578102561342E+01  0.5568601897860E+00
-0.1138339642820E+00 -0.3125436136063E+01 -0.1522456943301E+01  0.5354196893696E+00
 0.7488652585673E-02 -0.3141161473299E+01 -0.1472826222000E+01  0.5156725707352E+00
 0.1130520144855E+00 -0.3154490231018E+01 -0.1429475958144E+01  0.4982253108065E+00
 0.2036874342821E+00 -0.3166804067228E+01 -0.1392664813952E+01  0.4835058912053E+00
 0.2801193975125E+00 -0.3179412702420E+01 -0.1362667849850E+01  0.4717743760511E+00
 0.3428629471846E+00 -0.3193509086373E+01 -0.1339803682020E+01  0.4631502158692E+00
 0.3920884978098E+00 -0.3210125498928E+01 -0.1324477387166E+01  0.4576628732086E+00
 0.4275379844820E+00 -0.3230046266048E+01 -0.1317178888995E+01  0.4553950060196E+00
 0.4487915894026E+00 -0.3253834188444E+01 -0.1318370018206E+01  0.4568122120064E+00
 0.4556022882863E+00 -0.3281901820120E+01 -0.1328360776593E+01  0.4628189250076E+00
 0.4482868418961E+00 -0.3314862311364E+01 -0.1347290467232E+01  0.4748981979633E+00
-0.1982285141399E+01 -0.2713005264481E+01 -0.2206786485166E+01  0.7123739426978E+00
-0.1714803639751E+01 -0.2794778934916E+01 -0.2119503804718E+01  0.7081421186636E+00
-0.1456512231931E+01 -0.2869366600001E+01 -0.2033163045851E+01  0.6989668151123E+00
-0.1211627139741E+01 -0.2934758426913E+01 -0.1948801211384E+01  0.6844155454625E+00
-0.9828393429560E+00 -0.2990095293535E+01 -0.1867279274415E+01  0.6652630217488E+00
-0.7716910407882E+00 -0.3035429295885E+01 -0.1789346553698E+01  0.6426699625617E+00
-0.5790305005714E+00 -0.3071393143178E+01 -0.1715699108211E+01  0.6178941241958E+00
-0.4051078986738E+00 -0.3099022865940E+01 -0.1646941455191E+01  0.5923260188393E+00
-0.2496111484721E+00 -0.3119657508522E+01 -0.1583556264771E+01  0.5672666061609E+00
-0.1118540079386E+00 -0.3134783037433E+01 -0.1525919407455E+01  0.5437576109854E+00
 0.9028667331711E-02 -0.3145911117547E+01 -0.1474334747862E+01  0.5225865647622E+00
 0.1139661430560E+00 -0.3154525938152E+01 -0.1429063100071E+01  0.5043321455246E+00
 0.2038723564765E+00 -0.3162052974039E+01 -0.1390344886728E+01  0.4893845682994E+00
 0.2795556297500E+00 -0.3169828862920E+01 -0.1358428416145E+01  0.4779596570054E+00
 0.3416073097025E+00 -0.3179075990143E+01 -0.1333610276425E+01  0.4701222954153E+00
 0.3902568489500E+00 -0.3190860223056E+01 -0.1316283582491E+01  0.4658187513564E+00
 0.4251134535800E+00 -0.3206089529606E+01 -0.1307058752417E+01  0.4649817527200E+00
 0.4455106404671E+00 -0.3225396853641E+01 -0.1306546516878E+01  0.4679244870200E+00
 0.4508575279020E+00 -0.3249038876158E+01 -0.1315145230345E+01  0.4754353336160E+00
 0.4412148300831E+00 -0.3277134358275E+01 -0.1332882174870E+01  0.4891246131744E+00
-0.1988376914620E+01 -0.2745494459158E+01 -0.2224919540033E+01  0.7516881221806E+00
-0.1720259737189E+01 -0.2826727988951E+01 -0.2137084225865E+01  0.7448630508213E+00
-0.1460162588168E+01 -0.2900675487603E+01 -0.2049593890414E+01  0.7318712940853E+00
-0.1213257758460E+01 -0.2964782846962E+01 -0.1963679079568E+01  0.7128043324766E+00
-0.9826655283341E+00 -0.3017979645276E+01 -0.1880303226828E+01  0.6889589820100E+00
-0.7701282127782E+00 -0.3060383091554E+01 -0.1800340308470E+01  0.6618529870303E+00
-0.5765734476223E+00 -0.3092719265659E+01 -0.1724567570868E+01  0.6329457519607E+00
-0.4022717623262E+00 -0.3116152629847E+01 -0.1653659460127E+01  0.6038015738103E+00
-0.2468519894252E+00 -0.3132183321416E+01 -0.1588146592067E+01  0.5758377847090E+00
-0.1095293639671E+00 -0.3142449822868E+01 -0.1528430213936E+01  0.5501267808589E+00
 0.1066105685808E-01 -0.3148574244289E+01 -0.1474819194352E+01  0.5274320471500E+00
 0.1147366132677E+00 -0.3152110280827E+01 -0.1427565620132E+01  0.5082872881423E+00
 0.2036922912935E+00 -0.3154516303047E+01 -0.1386887282007E+01  0.4930315095651E+00
 0.2784270304754E+00 -0.3157123710258E+01 -0.1352987436066E+01  0.4818330708900E+00
 0.3396251342073E+00 -0.3161150785564E+01 -0.1326117052774E+01  0.4747131575228E+00
 0.3875757207243E+00 -0.3167694128453E+01 -0.1306655648318E+01  0.4715580040533E+00
 0.4219718269722E+00 -0.3177636914480E+01 -0.1295162587844E+01  0.4722062224887E+00
 0.4417021803279E+00 -0.3192155741032E+01 -0.1292713170252E+01  0.4767761577963E+00
 0.4456946315402E+00 -0.3211521547969E+01 -0.1299938647425E+01  0.4856883903387E+00
 0.4337282615802E+00 -0.3235021416042E+01 -0.1316607779258E+01  0.5004447513373E+00
-0.1994072899709E+01 -0.2779193356884E+01 -0.2243435134909E+01  0.7908863063643E+00
-0.1724837077052E+01 -0.2860020401398E+01 -0.2154883009406E+01  0.7816679451662E+00
-0.1462615450461E+01 -0.2933502487308E+01 -0.2066175425511E+01  0.7646591915477E+00
-0.1213414507208E+01 -0.2996087103425E+01 -0.1978465751980E+01  0.7406791543301E+00
-0.9809832044704E+00 -0.3046778260562E+01 -0.1893047883764E+01  0.7117363880462E+00
-0.7671609690035E+00 -0.3085807535822E+01 -0.1810895192675E+01  0.6797503298131E+00
-0.5728971745504E+00 -0.3114000300559E+01 -0.1732841808906E+01  0.6463875261394E+00
-0.3984567342468E+00 -0.3132681654430E+01 -0.1659635038468E+01  0.6134119268774E+00
-0.2433940883516E+00 -0.3143582259954E+01 -0.1591878879666E+01  0.5823668260335E+00
-0.1067884508081E+00 -0.3148518062962E+01 -0.1529994057591E+01  0.5543369563540E+00
 0.1244719166036E-01 -0.3149226473646E+01 -0.1474286258794E+01  0.5300374828595E+00
 0.1154227542326E+00 -0.3147331213700E+01 -0.1424996972335E+01  0.5099352356568E+00
 0.2032107479395E+00 -0.3144313004322E+01 -0.1382318056994E+01  0.4942973648936E+00
 0.2767792026755E+00 -0.3141477142512E+01 -0.1346408028308E+01  0.4832288184253E+00
 0.3369438879444E+00 -0.3139942704597E+01 -0.1317409440485E+01  0.4767202809898E+00
 0.3840712333698E+00 -0.3140808436151E+01 -0.1295666482021E+01  0.4746233254592E+00
 0.4177419818155E+00 -0.3145031985760E+01 -0.1281826298603E+01  0.4767199465841E+00
 0.4376597429252E+00 -0.3153372948392E+01 -0.1276385203332E+01  0.4832427968494E+00
 0.4406458270935E+00 -0.3168847625848E+01 -0.1282254842163E+01  0.4938770765094E+00
 0.4262696115366E+00 -0.3189497528349E+01 -0.1298717117608E+01  0.5090115780851E+00
-0.1998898665745E+01 -0.2813587629496E+01 -0.2261868553026E+01  0.8301504604420E+00
-0.1728873564763E+01 -0.2895441744563E+01 -0.2173428189871E+01  0.8187787746419E+00
-0.1463735522563E+01 -0.2968360528906E+01 -0.2083085138907E+01  0.7973117777907E+00
-0.1211852334918E+01 -0.3028982404604E+01 -0.1993192322520E+01  0.7679223113466E+00
-0.9775942389609E+00 -0.3076811355953E+01 -0.1905570624776E+01  0.7334469053511E+00
-0.7626491546688E+00 -0.3112046622164E+01 -0.1821107010492E+01  0.6961612977659E+00
-0.5678408647371E+00 -0.3135450320375E+01 -0.1740546852588E+01  0.6579769103474E+00
-0.3935354161756E+00 -0.3148742196291E+01 -0.1664870473636E+01  0.6209136497635E+00
-0.2391487146354E+00 -0.3153945838057E+01 -0.1594754435721E+01  0.5866288537647E+00
-0.1035646794874E+00 -0.3153054572706E+01 -0.1530611044649E+01  0.5561882261912E+00
 0.1444107323175E-01 -0.3147930077967E+01 -0.1472739828490E+01  0.5302299341520E+00
 0.1160819657150E+00 -0.3140260689295E+01 -0.1421363996477E+01  0.5091293512072E+00
 0.2024983945913E+00 -0.3131551426789E+01 -0.1376654921641E+01  0.4930560466272E+00
 0.2747113709211E+00 -0.3123060809744E+01 -0.1338724232851E+01  0.4820190380833E+00
 0.3335720785168E+00 -0.3115793874139E+01 -0.1307644240626E+01  0.4759536647561E+00
 0.3797965052940E+00 -0.3110466826329E+01 -0.1283415047631E+01  0.4747566960095E+00
 0.4126501988648E+00 -0.3108371777297E+01 -0.1266989138649E+01  0.4781416655630E+00
 0.4313207239974E+00 -0.3110629804679E+01 -0.1259275264726E+01  0.4865235337614E+00
 0.4384029646688E+00 -0.3116526617385E+01 -0.1258718113584E+01  0.5003234390239E+00
 0.4229600455878E+00 -0.3140204703119E+01 -0.1277104985800E+01  0.5155406002208E+00
-0.1025018389511E+01 -0.1778113110484E+01 -0.1317471801656E+01 -0.3956379056490E+00
 0.1581743737480E+00 -0.1385532805118E+00  0.9221913797623E-02 -0.5220738772440E-01
 0.7677974840329E-01  0.2430017249381E+00  0.1502972920893E+00 -0.9609489736409E-01
 0.8051246360456E-01  0.4285852751231E+00  0.2392759365951E+00 -0.1523115052537E+00
 0.9299675962107E-01  0.4948741039327E+00  0.2762993051695E+00 -0.1940474243155E+00
 0.9245239125628E-01  0.4884797560583E+00  0.2730381085453E+00 -0.2124140746490E+00
 0.8716611290036E-01  0.4802801823657E+00  0.2666997580986E+00 -0.2018527918900E+00
 0.7302198921034E-01  0.4828991577814E+00  0.2612829384234E+00 -0.1808465080346E+00
 0.5628248474994E-01  0.4844822711544E+00  0.2541594346304E+00 -0.1590514283436E+00
 0.4218079048517E-01  0.4803397570652E+00  0.2455846567258E+00 -0.1366941512040E+00
 0.3042831924992E-01  0.4689907432501E+00  0.2347269587796E+00 -0.1129417373821E+00
 0.2151325503220E-01  0.4508688716725E+00  0.2220195989881E+00 -0.8789404532803E-01
 0.1476531780750E-01  0.4241563688031E+00  0.2062931921837E+00 -0.6245994845200E-01
 0.1013557214061E-01  0.3874181864861E+00  0.1868502660806E+00 -0.3711126173832E-01
 0.8226208070991E-02  0.3415384668355E+00  0.1643893967891E+00 -0.1276371339520E-01
 0.1066463768810E-01  0.2878735473056E+00  0.1403129465912E+00  0.8311577493469E-02
 0.9762416981120E-02  0.2173314398198E+00  0.1067341124257E+00  0.2591059020732E-01
 0.1229097445803E-01  0.1453854347075E+00  0.7410791211981E-01  0.4296508782787E-01
 0.2306431525754E-01  0.8631279970835E-01  0.5140724390358E-01  0.5658891173478E-01
 0.5277836218654E-01  0.4537982790801E-01  0.4613434922743E-01  0.6138106220821E-01
-0.3869506584772E+00 -0.1026376303553E+01 -0.6642636704696E+00 -0.5398541381449E+00
-0.1041483564871E+00 -0.5563161554416E+00 -0.3104183198191E+00 -0.2518579217171E+00
 0.8453474977903E-01  0.2689888215502E-01  0.5237380687616E-01 -0.1400411148680E+00
 0.7502530269666E-01  0.2432933708008E+00  0.1496097761643E+00 -0.1414104607382E+00
 0.8050873558207E-01  0.3498792998483E+00  0.2022823761392E+00 -0.1593087976241E+00
 0.8258703667447E-01  0.3930287182604E+00  0.2235394042524E+00 -0.1726626051911E+00
 0.7553022185549E-01  0.4066322417346E+00  0.2266163573126E+00 -0.1707216330878E+00
 0.5973911216951E-01  0.4120595826033E+00  0.2217453859808E+00 -0.1574387956048E+00
 0.4310230824835E-01  0.4151052201367E+00  0.2153575377948E+00 -0.1395634707484E+00
 0.2897654334376E-01  0.4139924696988E+00  0.2081954356020E+00 -0.1194118949265E+00
 0.1732889971046E-01  0.4073258079789E+00  0.1995877121078E+00 -0.9728138085854E-01
 0.7810189729857E-02  0.3941134122847E+00  0.1889040924677E+00 -0.7329376983915E-01
 0.5767029795569E-03  0.3736730913833E+00  0.1758974029044E+00 -0.4799170206041E-01
-0.3906643558143E-02  0.3452411743769E+00  0.1604272290779E+00 -0.2200536631914E-01
-0.5096381771565E-02  0.3084715180100E+00  0.1425863136704E+00  0.3728595175846E-02
-0.3647251591610E-02  0.2622928615812E+00  0.1215634363868E+00  0.2791854794646E-01
 0.1163350954919E-02  0.2086253715811E+00  0.9860069934183E-01  0.4921284169059E-01
 0.9518023135080E-02  0.1503017772531E+00  0.7511530599194E-01  0.6778029600267E-01
 0.2583931271804E-01  0.9571000958521E-01  0.5712818133763E-01  0.8196321702879E-01
 0.5854390010624E-01  0.5235009296630E-01  0.5212017661190E-01  0.8755621024086E-01
-0.2457695772333E+00 -0.8044610700770E+00 -0.4936084029839E+00 -0.5829253310483E+00
-0.1015744600280E+00 -0.5665522813866E+00 -0.3140195676684E+00 -0.3641254052838E+00
 0.9503443062467E-02 -0.2044154784752E+00 -0.9160865641165E-01 -0.2119967577905E+00
 0.6393371787365E-01  0.6654948487083E-01  0.6132710513436E-01 -0.1505082971095E+00
 0.6909325990192E-01  0.2035023258082E+00  0.1281199249588E+00 -0.1395976462236E+00
 0.7140265303519E-01  0.2800733966104E+00  0.1651937429144E+00 -0.1421132217966E+00
 0.6413864234149E-01  0.3175355030184E+00  0.1793868478642E+00 -0.1414842577705E+00
 0.4868382574433E-01  0.3336499363051E+00  0.1796968677075E+00 -0.1332579512163E+00
 0.3179025387778E-01  0.3407896657803E+00  0.1751125617952E+00 -0.1196437568328E+00
 0.1726630154772E-01  0.3431483784604E+00  0.1693948991742E+00 -0.1025197027349E+00
 0.5117262733553E-02  0.3407206873927E+00  0.1625438361471E+00 -0.8264308116000E-01
-0.5025871997870E-02  0.3327198709295E+00  0.1540161791072E+00 -0.6032904888870E-01
-0.1299933575328E-01  0.3185499686609E+00  0.1436087971023E+00 -0.3603095180803E-01
-0.1810384360201E-01  0.2977539514776E+00  0.1314355503681E+00 -0.1029876974215E-01
-0.1990524852519E-01  0.2695652084223E+00  0.1173401808540E+00  0.1611465433133E-01
-0.1791564442992E-01  0.2338414965626E+00  0.1014851502450E+00  0.4199098158012E-01
-0.1150876560534E-01  0.1918701100329E+00  0.8476983166597E-01  0.6557615358878E-01
 0.1292777761998E-02  0.1452989834745E+00  0.6889812760640E-01  0.8633514167700E-01
 0.2268202584038E-01  0.9709644094124E-01  0.5629587924457E-01  0.1022853057325E+00
 0.5808047337474E-01  0.5422402163449E-01  0.5278311252046E-01  0.1093536879865E+00
-0.1977601490804E+00 -0.7054477686905E+00 -0.4245077202757E+00 -0.6046555866522E+00
-0.1127208725256E+00 -0.5683943989487E+00 -0.3201241767810E+00 -0.4287278183920E+00
-0.2662113866936E-01 -0.3306263470650E+00 -0.1679063178693E+00 -0.2722415730587E+00
 0.3133259293521E-01 -0.1034436313586E+00 -0.3389218797305E-01 -0.1758584687072E+00
 0.5479624072332E-01  0.5754716837176E-01  0.5280140214076E-01 -0.1340966149234E+00
 0.5954580576516E-01  0.1579053947922E+00  0.1022020640027E+00 -0.1214150158105E+00
 0.5305318176805E-01  0.2158428505781E+00  0.1263811348822E+00 -0.1169909501540E+00
 0.3872109169664E-01  0.2453018010692E+00  0.1334907592613E+00 -0.1104633448719E+00
 0.2224893339886E-01  0.2597915813943E+00  0.1325590416166E+00 -0.1000357879541E+00
 0.7250988686037E-02  0.2668646634396E+00  0.1288343561723E+00 -0.8606811842473E-01
-0.5629810169024E-02  0.2689278596558E+00  0.1237500829449E+00 -0.6893108286516E-01
-0.1664813104141E-01  0.2660518510336E+00  0.1172197480990E+00 -0.4889652556091E-01
-0.2561841779452E-01  0.2579940546542E+00  0.1092165490470E+00 -0.2634229455764E-01
-0.3189512041597E-01  0.2444363767198E+00  0.9989439020941E-01 -0.1713345294085E-02
-0.3473533060648E-01  0.2248084117291E+00  0.8933434790107E-01  0.2438051212076E-01
-0.3332334567263E-01  0.1988903044691E+00  0.7781647043698E-01  0.5084203379590E-01
-0.2654451197074E-01  0.1679077623986E+00  0.6644072753256E-01  0.7588471785170E-01
-0.1164309333792E-01  0.1318173262833E+00  0.5648188934105E-01  0.9862661238266E-01
 0.1314377893303E-01  0.9085603249039E-01  0.4887991124503E-01  0.1166618856917E+00
 0.5011826333834E-01  0.5049272522208E-01  0.4728716450346E-01  0.1255606748593E+00
-0.1905696037419E+00 -0.6656389956849E+00 -0.4024180407099E+00 -0.6172936576116E+00
-0.1325972993549E+00 -0.5771085343332E+00 -0.3335617409874E+00 -0.4677507563860E+00
-0.5810550301254E-01 -0.4174263474052E+00 -0.2234999691294E+00 -0.3172988810161E+00
 0.1160095143951E-02 -0.2386378127009E+00 -0.1116145269687E+00 -0.2049123273268E+00
 0.3352257016737E-01 -0.8407284035711E-01 -0.2375862692892E-01 -0.1401913884683E+00
 0.4589976293996E-01  0.3138027597007E-01  0.3632161819559E-01 -0.1105938112117E+00
 0.4186748471549E-01  0.1052065855968E+00  0.6912481287145E-01 -0.9872371776230E-01
 0.2941534583090E-01  0.1476237448354E+00  0.8320837240213E-01 -0.9086364280604E-01
 0.1399338785785E-01  0.1710396231525E+00  0.8696551495427E-01 -0.8191977783354E-01
-0.1077478079822E-02  0.1842234230533E+00  0.8607859391920E-01 -0.7052762266891E-01
-0.1466325777883E-01  0.1913247732306E+00  0.8303091205175E-01 -0.5621786835446E-01
-0.2667299710335E-01  0.1936049390721E+00  0.7845801252631E-01 -0.3888665478860E-01
-0.3686369580547E-01  0.1914129281242E+00  0.7263813900556E-01 -0.1870960020381E-01
-0.4461342166715E-01  0.1847564168655E+00  0.6586720757615E-01  0.4009439798351E-02
-0.4905355608794E-01  0.1732141887245E+00  0.5835549719118E-01  0.2882314084308E-01
-0.4906319192892E-01  0.1565920509254E+00  0.5053856360014E-01  0.5482250834946E-01
-0.4329334015849E-01  0.1358778535457E+00  0.4351472118161E-01  0.8039992202626E-01
-0.2822738940542E-01  0.1099062389821E+00  0.3838905920369E-01  0.1045377515794E+00
-0.2299758410103E-02  0.7671654881067E-01  0.3497589139956E-01  0.1243529640360E+00
 0.3453463575785E-01  0.4045461013604E-01  0.3524494548074E-01  0.1349073940930E+00
-0.2034503220084E+00 -0.6577444840080E+00 -0.4047615578011E+00 -0.6253891923162E+00
-0.1593095769614E+00 -0.5961146366165E+00 -0.3550493794811E+00 -0.4916349452175E+00
-0.8982766886937E-01 -0.4860109101692E+00 -0.2706441314617E+00 -0.3497732359445E+00
-0.2905419381957E-01 -0.3488631197194E+00 -0.1776211369128E+00 -0.2319673126378E+00
 0.9893174243302E-02 -0.2122293177470E+00 -0.9509798720552E-01 -0.1527615846496E+00
 0.2920220811317E-01 -0.9493965127797E-01 -0.3089659820909E-01 -0.1084212192844E+00
 0.2985326069337E-01 -0.1081078381980E-01  0.8949964107880E-02 -0.8724057925273E-01
 0.2024578705749E-01  0.4239363461212E-01  0.2944052811005E-01 -0.7565126066026E-01
 0.6581510301731E-02  0.7473019592256E-01  0.3821650182848E-01 -0.6640841578913E-01
-0.7978848521243E-02  0.9472024389890E-01  0.4076845572410E-01 -0.5659176769612E-01
-0.2194502312717E-01  0.1073642674537E+00  0.4014704473163E-01 -0.4477796606685E-01
-0.3486020348737E-01  0.1148825110639E+00  0.3761048446559E-01 -0.3028691819571E-01
-0.4632507782923E-01  0.1183247796947E+00  0.3383985979096E-01 -0.1294160749227E-01
-0.5573502010609E-01  0.1181253031721E+00  0.2932343296666E-01  0.7176214532330E-02
-0.6216391975913E-01  0.1141019654115E+00  0.2441088139468E-01  0.2982087462713E-01
-0.6433105218079E-01  0.1061125709547E+00  0.1963731377395E-01  0.5432642797280E-01
-0.6070797214451E-01  0.9505051061300E-01  0.1614099303925E-01  0.7938755562332E-01
-0.4730530649064E-01  0.7883927053280E-01  0.1482096306222E-01  0.1039739088321E+00
-0.2249418488617E-01  0.5378384119142E-01  0.1470613842617E-01  0.1247740937466E+00
 0.1211777823680E-01  0.2254866477141E-01  0.1629322817253E-01  0.1363151415332E+00
-0.2279596326087E+00 -0.6692052006280E+00 -0.4216674705518E+00 -0.6307054353460E+00
-0.1904913393947E+00 -0.6239491839748E+00 -0.3827870450128E+00 -0.5060521892172E+00
-0.1232267925139E+00 -0.5466088304069E+00 -0.3148227419743E+00 -0.3725890113440E+00
-0.6034534374596E-01 -0.4424087804567E+00 -0.2362944377759E+00 -0.2549704691491E+00
-0.1571158755709E-01 -0.3268890550332E+00 -0.1610223016090E+00 -0.1678829165851E+00
 0.1012351037580E-01 -0.2162938831888E+00 -0.9690007497634E-01 -0.1124779427665E+00
 0.1630080982970E-01 -0.1286998887668E+00 -0.5282756696647E-01 -0.8212067668265E-01
 0.1062270970077E-01 -0.6807478728840E-01 -0.2700247639770E-01 -0.6535924196346E-01
-0.4904617495260E-03 -0.2809858013612E-01 -0.1343684965217E-01 -0.5429835293325E-01
-0.1382335841343E-01 -0.1482859967893E-02 -0.7193922620975E-02 -0.4493243597396E-01
-0.2763334685410E-01  0.1681055141590E-01 -0.5086713843049E-02 -0.3499470086845E-01
-0.4113202861869E-01  0.2953923645309E-01 -0.5448612304012E-02 -0.2318787933276E-01
-0.5372506165463E-01  0.3833524854395E-01 -0.7233212143673E-02 -0.8893236578717E-02
-0.6479376569168E-01  0.4408515335604E-01 -0.9733047773064E-02  0.8106503142970E-02
-0.7341105630406E-01  0.4690238328615E-01 -0.1245907628681E-01  0.2781297643442E-01
-0.7823026810080E-01  0.4678087241571E-01 -0.1478121593450E-01  0.4984249803102E-01
-0.7762997324710E-01  0.4463585772302E-01 -0.1550723425699E-01  0.7325590393889E-01
-0.6743435133018E-01  0.3767240378951E-01 -0.1398811530864E-01  0.9708856834555E-01
-0.4582673076460E-01  0.2072606390448E-01 -0.1179731339433E-01  0.1177161317650E+00
-0.1541329646795E-01 -0.5133558107975E-02 -0.9657021626193E-02  0.1292317711009E+00
-0.2599044244471E+00 -0.6931706733013E+00 -0.4479452948056E+00 -0.6340192410058E+00
-0.2247658104431E+00 -0.6588525522424E+00 -0.4153006294088E+00 -0.5142733933543E+00
-0.1583126242489E+00 -0.6039557437096E+00 -0.3582661320318E+00 -0.3881373109832E+00
-0.9314047249033E-01 -0.5253099932342E+00 -0.2906717181533E+00 -0.2734788843939E+00
-0.4327979152421E-01 -0.4302405715010E+00 -0.2225545700574E+00 -0.1830883963544E+00
-0.1120026991020E-01 -0.3308676092258E+00 -0.1607719027862E+00 -0.1203181703344E+00
 0.9763760622845E-03 -0.2453553002659E+00 -0.1148580940844E+00 -0.8215265419489E-01
 0.2949688639786E-05 -0.1813281225779E+00 -0.8522283104179E-01 -0.5983968325346E-01
-0.7747569430127E-02 -0.1359001130323E+00 -0.6751441058612E-01 -0.4595162045939E-01
-0.1906143722699E-01 -0.1036559714984E+00 -0.5767718195465E-01 -0.3602818791613E-01
-0.3202385455053E-01 -0.8013891075838E-01 -0.5271649956148E-01 -0.2722782572859E-01
-0.4558077364793E-01 -0.6250220567329E-01 -0.5079900015213E-01 -0.1772685487652E-01
-0.5893948422888E-01 -0.4876460273933E-01 -0.5062092074667E-01 -0.6462910283350E-02
-0.7144948733042E-01 -0.3766643445628E-01 -0.5128448310967E-01  0.7115415615243E-02
-0.8221431765584E-01 -0.2878641260774E-01 -0.5217034309156E-01  0.2328571103480E-01
-0.8989732060049E-01 -0.2193415239516E-01 -0.5256079217464E-01  0.4196774281302E-01
-0.9285354941044E-01 -0.1607068713652E-01 -0.5119439104723E-01  0.6261422646180E-01
-0.8703233838459E-01 -0.1457135671270E-01 -0.4775373657460E-01  0.8437769624263E-01
-0.7033787037148E-01 -0.2384588539177E-01 -0.4426636509645E-01  0.1034881352957E+00
-0.4570768284848E-01 -0.4446418572964E-01 -0.4238077812422E-01  0.1138048325949E+00
-0.2969954541362E+00 -0.7255794094027E+00 -0.4806101846443E+00 -0.6356809909199E+00
-0.2613261391743E+00 -0.6992789140352E+00 -0.4514843738633E+00 -0.5182761641214E+00
-0.1948333851639E+00 -0.6603483884271E+00 -0.4019354325683E+00 -0.3982217939664E+00
-0.1274182107546E+00 -0.6015248144318E+00 -0.3426032209686E+00 -0.2877178346409E+00
-0.7277674050521E-01 -0.5248528414821E+00 -0.2808859028216E+00 -0.1969821425526E+00
-0.3472585622883E-01 -0.4385463126516E+00 -0.2224379188096E+00 -0.1299559774789E+00
-0.1631167034658E-01 -0.3589293505957E+00 -0.1763632793956E+00 -0.8584457639046E-01
-0.1199381874415E-01 -0.2951815054904E+00 -0.1443724020241E+00 -0.5840425664569E-01
-0.1567284762757E-01 -0.2469441983371E+00 -0.1234300112903E+00 -0.4127168798432E-01
-0.2417097702005E-01 -0.2106787827347E+00 -0.1103793868048E+00 -0.3006639619759E-01
-0.3550705662294E-01 -0.1828829363771E+00 -0.1026432964497E+00 -0.2170322408966E-01
-0.4844130136847E-01 -0.1609883308703E+00 -0.9843192690256E-01 -0.1401054142822E-01
-0.6200844748715E-01 -0.1429289961927E+00 -0.9632059828521E-01 -0.5559592293731E-02
-0.7552041329677E-01 -0.1272153754929E+00 -0.9528582048947E-01  0.4514734760335E-02
-0.8813405057250E-01 -0.1131635166291E+00 -0.9460985634478E-01  0.1676118622769E-01
-0.9857967550766E-01 -0.1003643089108E+00 -0.9350367243950E-01  0.3139990273342E-01
-0.1052492786666E+00 -0.8759612822024E-01 -0.9063734100690E-01  0.4827379482308E-01
-0.1045172889318E+00 -0.7869911560020E-01 -0.8611170991165E-01  0.6668945718749E-01
-0.9393931565012E-01 -0.8110197395472E-01 -0.8226940590561E-01  0.8293045369782E-01
-0.7612742610056E-01 -0.9693764429287E-01 -0.8134058287860E-01  0.9089100069700E-01
-0.3378683344664E+00 -0.7638580493276E+00 -0.5178113990698E+00 -0.6358453544025E+00
-0.2997074152967E+00 -0.7439860577734E+00 -0.4905359310988E+00 -0.5192907265651E+00
-0.2325424660800E+00 -0.7168807146856E+00 -0.4462288938280E+00 -0.4041694453887E+00
-0.1630060461318E+00 -0.6736008597843E+00 -0.3932052447833E+00 -0.2981527325478E+00
-0.1040556768801E+00 -0.6129654088010E+00 -0.3369999094154E+00 -0.2088587337189E+00
-0.6038057607870E-01 -0.5400332195549E+00 -0.2821944832321E+00 -0.1399448170038E+00
-0.3568294655240E-01 -0.4686148005522E+00 -0.2370199405380E+00 -0.9176700085467E-01
-0.2565584831018E-01 -0.4080707619770E+00 -0.2038515063179E+00 -0.6008437540732E-01
-0.2466329257561E-01 -0.3596173245139E+00 -0.1806118895740E+00 -0.3978841757180E-01
-0.2960934719314E-01 -0.3212577993074E+00 -0.1649075584370E+00 -0.2692280704384E-01
-0.3852079818714E-01 -0.2905223721625E+00 -0.1546502896721E+00 -0.1844700765826E-01
-0.5005736455476E-01 -0.2653518436754E+00 -0.1482423274922E+00 -0.1204792637620E-01
-0.6312440870327E-01 -0.2438251070709E+00 -0.1442662720479E+00 -0.6059123937288E-02
-0.7700147458787E-01 -0.2243875450925E+00 -0.1416528388905E+00  0.6281895151721E-03
-0.9091570710687E-01 -0.2061780178868E+00 -0.1396340503929E+00  0.8790941162030E-02
-0.1037096274403E+00 -0.1885878000702E+00 -0.1373797905815E+00  0.1891720276314E-01
-0.1138661047660E+00 -0.1701971205394E+00 -0.1335097155549E+00  0.3121410496549E-01
-0.1184535521886E+00 -0.1552020999644E+00 -0.1286181561857E+00  0.4517018657540E-01
-0.1146309525908E+00 -0.1517934852076E+00 -0.1252194854476E+00  0.5733403992550E-01
-0.1040956134846E+00 -0.1634708020472E+00 -0.1257562149810E+00  0.6193673447376E-01
-0.3816491819929E+00 -0.8062951084014E+00 -0.5583338150692E+00 -0.6345726788251E+00
-0.3396370823386E+00 -0.7919915250805E+00 -0.5318654441380E+00 -0.5180938921875E+00
-0.2712660051831E+00 -0.7740333796266E+00 -0.4912907096144E+00 -0.4069464762429E+00
-0.1997137931047E+00 -0.7431567385253E+00 -0.4431491487421E+00 -0.3052988076996E+00
-0.1369161666073E+00 -0.6963441819662E+00 -0.3916323628362E+00 -0.2184301897751E+00
-0.8803019488644E-01 -0.6363028478639E+00 -0.3404365292292E+00 -0.1493050871923E+00
-0.5717124354168E-01 -0.5742864544379E+00 -0.2967851172976E+00 -0.9870985976219E-01
-0.4118169079535E-01 -0.5190505827377E+00 -0.2633091678927E+00 -0.6384675680880E-01
-0.3503634005883E-01 -0.4726274110177E+00 -0.2386019624008E+00 -0.4080333978025E-01
-0.3578365511911E-01 -0.4341285226719E+00 -0.2208587230016E+00 -0.2621161006305E-01
-0.4151021867805E-01 -0.4020035939829E+00 -0.2084514914219E+00 -0.1727261928054E-01
-0.5084392681365E-01 -0.3747834551176E+00 -0.2000448690003E+00 -0.1171199421017E-01
-0.6260929761588E-01 -0.3508496179343E+00 -0.1943256898157E+00 -0.7768638047786E-02
-0.7606379796700E-01 -0.3287323735967E+00 -0.1902542001524E+00 -0.4190524159925E-02
-0.9051584253584E-01 -0.3074964587896E+00 -0.1870657811485E+00 -0.4756336474919E-04
-0.1049556357090E+00 -0.2863827539611E+00 -0.1839290426784E+00  0.5353451623442E-02
-0.1180099277117E+00 -0.2637926487889E+00 -0.1794472105001E+00  0.1253201469715E-01
-0.1276678039461E+00 -0.2441607220603E+00 -0.1747594067797E+00  0.2117704353356E-01
-0.1306850606360E+00 -0.2361474189290E+00 -0.1724112649582E+00  0.2830762030233E-01
-0.1273735641915E+00 -0.2443252388114E+00 -0.1746984369683E+00  0.2879410933276E-01
-0.4277402501058E+00 -0.8517077157736E+00 -0.6013405424381E+00 -0.6318772397646E+00
-0.3809497373304E+00 -0.8425169364558E+00 -0.5750293352210E+00 -0.5151768785748E+00
-0.3109020277045E+00 -0.8319632171919E+00 -0.5371466637389E+00 -0.4072514623167E+00
-0.2373893490594E+00 -0.8112052346027E+00 -0.4928394530712E+00 -0.3096393656992E+00
-0.1711577791198E+00 -0.7763102031839E+00 -0.4453099505533E+00 -0.2256484450299E+00
-0.1175034200816E+00 -0.7283288560377E+00 -0.3975411687678E+00 -0.1574154907450E+00
-0.8073256000362E-01 -0.6761907150535E+00 -0.3557539383745E+00 -0.1057234720992E+00
-0.5868399290415E-01 -0.6276581919579E+00 -0.3225808260670E+00 -0.6872640141329E-01
-0.4703203556905E-01 -0.5850515490353E+00 -0.2970792840106E+00 -0.4352543119699E-01
-0.4304189938906E-01 -0.5481937222586E+00 -0.2778807414696E+00 -0.2737268058338E-01
-0.4490044243389E-01 -0.5162566382047E+00 -0.2637438272312E+00 -0.1781321891181E-01
-0.5125331012810E-01 -0.4883326169493E+00 -0.2536053850832E+00 -0.1273665938099E-01
-0.6088589347022E-01 -0.4631841399530E+00 -0.2463129150842E+00 -0.1041155256977E-01
-0.7304141065423E-01 -0.4395405741594E+00 -0.2409135322513E+00 -0.9548553738111E-02
-0.8711016589479E-01 -0.4164942077023E+00 -0.2366940549903E+00 -0.9157334780799E-02
-0.1022523153328E+00 -0.3932010518501E+00 -0.2328630819854E+00 -0.8428691153767E-02
-0.1172925798388E+00 -0.3679250359713E+00 -0.2280522788523E+00 -0.6612409418095E-02
-0.1313257235905E+00 -0.3452014149306E+00 -0.2239677545369E+00 -0.3816885223865E-02
-0.1407727262735E+00 -0.3338374241728E+00 -0.2230667701440E+00 -0.2368650280285E-02
-0.1442428414775E+00 -0.3391184295966E+00 -0.2271797968286E+00 -0.6477247823597E-02
-0.4757073349038E+00 -0.8992526623979E+00 -0.6462311970927E+00 -0.6277511517734E+00
-0.4235380124611E+00 -0.8949402911091E+00 -0.6196848011063E+00 -0.5108460252450E+00
-0.3514037152073E+00 -0.8906534237560E+00 -0.5837668538321E+00 -0.4055850638553E+00
-0.2759339465643E+00 -0.8783610591474E+00 -0.5425186513085E+00 -0.3115944034469E+00
-0.2066131962008E+00 -0.8538158828945E+00 -0.4984016659107E+00 -0.2305944226357E+00
-0.1486245254838E+00 -0.8169634805230E+00 -0.4538263616721E+00 -0.1639120894945E+00
-0.1062714655969E+00 -0.7747338445914E+00 -0.4140724947383E+00 -0.1121021303722E+00
-0.7820202815790E-01 -0.7337515457619E+00 -0.3816181787744E+00 -0.7389052637570E-01
-0.6081829087553E-01 -0.6962921580264E+00 -0.3558419100814E+00 -0.4716897718441E-01
-0.5167005723090E-01 -0.6625788969994E+00 -0.3356970076368E+00 -0.2975961977768E-01
-0.4908051283102E-01 -0.6322967238576E+00 -0.3202473004314E+00 -0.1957814838504E-01
-0.5174779436263E-01 -0.6050095344351E+00 -0.3086759437520E+00 -0.1474279416578E-01
-0.5844815250255E-01 -0.5798741001734E+00 -0.3000114579967E+00 -0.1363683066778E-01
-0.6841010622399E-01 -0.5558927094675E+00 -0.2934223226308E+00 -0.1502154422362E-01
-0.8108834527457E-01 -0.5322745482699E+00 -0.2882805592347E+00 -0.1793831103554E-01
-0.9581426223862E-01 -0.5081666619994E+00 -0.2838710336719E+00 -0.2156827788459E-01
-0.1116562533529E+00 -0.4817481709194E+00 -0.2789000787006E+00 -0.2504611761154E-01
-0.1289685036143E+00 -0.4574946459594E+00 -0.2756376796005E+00 -0.2830670440796E-01
-0.1440241990658E+00 -0.4440082883093E+00 -0.2763752683653E+00 -0.3287624879287E-01
-0.1535919864698E+00 -0.4468885333909E+00 -0.2822258436187E+00 -0.4179071897876E-01
-0.5252173498205E+00 -0.9483135479998E+00 -0.6925595202190E+00 -0.6221764973439E+00
-0.4673242430748E+00 -0.9487594955121E+00 -0.6655593554477E+00 -0.5052857889887E+00
-0.3927614940377E+00 -0.9499943050590E+00 -0.6310952239747E+00 -0.4023013917382E+00
-0.3152998966478E+00 -0.9449743617708E+00 -0.5923288999544E+00 -0.3115125960721E+00
-0.2431629380214E+00 -0.9295225780228E+00 -0.5511621911428E+00 -0.2334103799950E+00
-0.1812393903719E+00 -0.9028956531753E+00 -0.5095434691748E+00 -0.1686073154469E+00
-0.1336711549649E+00 -0.8703519836677E+00 -0.4718908739604E+00 -0.1173453291603E+00
-0.9972251318455E-01 -0.8373714539637E+00 -0.4404341634426E+00 -0.7865747491537E-01
-0.7650086958899E-01 -0.8059956847580E+00 -0.4147733794911E+00 -0.5101154430544E-01
-0.6189311831780E-01 -0.7766271825162E+00 -0.3941045403924E+00 -0.3270871737078E-01
-0.5439266311333E-01 -0.7492783789823E+00 -0.3777253888269E+00 -0.2201127961113E-01
-0.5277637648844E-01 -0.7238687450129E+00 -0.3650232061798E+00 -0.1727867945127E-01
-0.5583179663073E-01 -0.6999165187921E+00 -0.3552017073478E+00 -0.1704716958117E-01
-0.6275978533518E-01 -0.6767310580881E+00 -0.3475606955274E+00 -0.2018019061922E-01
-0.7304181367983E-01 -0.6537175563207E+00 -0.3415769030339E+00 -0.2582065889888E-01
-0.8613975456021E-01 -0.6300957204944E+00 -0.3366306724219E+00 -0.3324689686455E-01
-0.1013887905294E+00 -0.6040384534023E+00 -0.3315508038070E+00 -0.4162991667673E-01
-0.1205154589927E+00 -0.5797745660276E+00 -0.3291363109248E+00 -0.5081845229119E-01
-0.1400247106914E+00 -0.5653325354681E+00 -0.3315179048541E+00 -0.6146041927926E-01
-0.1549163753721E+00 -0.5661859483260E+00 -0.3389180912785E+00 -0.7517962198874E-01
-0.5760023066909E+00 -0.9984308255789E+00 -0.7399835702899E+00 -0.6151314148886E+00
-0.5122441139107E+00 -0.1003565756524E+01 -0.7124306372975E+00 -0.4985996703680E+00
-0.4349879604934E+00 -0.1009827862546E+01 -0.6790634351062E+00 -0.3976460943661E+00
-0.3554817872741E+00 -0.1011217252132E+01 -0.6423485468917E+00 -0.3096739808227E+00
-0.2807382477972E+00 -0.1003866257928E+01 -0.6037641161596E+00 -0.2342595940781E+00
-0.2152318770969E+00 -0.9866469640886E+00 -0.5648830539244E+00 -0.1714293380404E+00
-0.1628198213189E+00 -0.9634379660590E+00 -0.5293411587250E+00 -0.1211146811019E+00
-0.1232037878071E+00 -0.9386390233657E+00 -0.4990661199854E+00 -0.8249077684920E-01
-0.9413828982574E-01 -0.9139665946564E+00 -0.4738092945048E+00 -0.5442094536923E-01
-0.7387982302985E-01 -0.8898591415414E+00 -0.4529573121996E+00 -0.3558316455344E-01
-0.6112403915289E-01 -0.8665075309373E+00 -0.4359868368366E+00 -0.2453622480901E-01
-0.5475211563585E-01 -0.8440654659504E+00 -0.4224442622741E+00 -0.1985805327176E-01
-0.5357925879444E-01 -0.8223439027703E+00 -0.4116838848912E+00 -0.2023302496081E-01
-0.5676222288908E-01 -0.8009562471406E+00 -0.4031276798915E+00 -0.2463097658583E-01
-0.6373753377036E-01 -0.7795547868140E+00 -0.3963473896693E+00 -0.3231873814666E-01
-0.7402221571805E-01 -0.7575518595673E+00 -0.3908398143928E+00 -0.4275258117127E-01
-0.8713816688710E-01 -0.7332047421913E+00 -0.3855611662889E+00 -0.5531230879671E-01
-0.1062666333136E+00 -0.7103692074071E+00 -0.3838188441652E+00 -0.6994836250569E-01
-0.1287384861640E+00 -0.6960608601008E+00 -0.3876556917612E+00 -0.8648547776814E-01
-0.1482423510730E+00 -0.6951819293731E+00 -0.3964094108042E+00 -0.1048992116333E+00
-0.6278387004155E+00 -0.1049258461951E+01 -0.7882356643128E+00 -0.6065930173160E+00
-0.5582363973457E+00 -0.1059023980091E+01 -0.7601123754672E+00 -0.4908379699228E+00
-0.4781069478673E+00 -0.1069973621586E+01 -0.7275978657978E+00 -0.3917853052867E+00
-0.3965052787639E+00 -0.1077139183191E+01 -0.6926128953623E+00 -0.3062973684224E+00
-0.3193179485715E+00 -0.1077109833772E+01 -0.6563210560367E+00 -0.2333030374792E+00
-0.2505314030443E+00 -0.1068583833730E+01 -0.6199841597115E+00 -0.1723784114573E+00
-0.1936309619519E+00 -0.1054304841353E+01 -0.5865298260658E+00 -0.1231946341957E+00
-0.1485997040068E+00 -0.1037685737787E+01 -0.5575541562291E+00 -0.8498224560261E-01
-0.1137610339689E+00 -0.1020091679416E+01 -0.5329107739391E+00 -0.5686255006981E-01
-0.8775247971812E-01 -0.1001915869508E+01 -0.5121441228372E+00 -0.3779574439882E-01
-0.6950184103138E-01 -0.9834197553540E+00 -0.4948731490459E+00 -0.2658189300645E-01
-0.5802621535298E-01 -0.9648775758818E+00 -0.4807647806609E+00 -0.2198087616933E-01
-0.5219603447598E-01 -0.9462970911289E+00 -0.4692917678440E+00 -0.2279330855267E-01
-0.5111026652773E-01 -0.9275364140918E+00 -0.4599639387245E+00 -0.2805359655389E-01
-0.5409627171752E-01 -0.9085171944366E+00 -0.4524283279449E+00 -0.3710637100924E-01
-0.6052672375483E-01 -0.8889115719078E+00 -0.4462359978296E+00 -0.4958201135083E-01
-0.7000827567507E-01 -0.8673574751423E+00 -0.4405619017667E+00 -0.6522483614149E-01
-0.8689568149280E-01 -0.8471417829155E+00 -0.4389976071584E+00 -0.8438939537645E-01
-0.1104218824429E+00 -0.8340758779041E+00 -0.4439139462371E+00 -0.1064270992032E+00
-0.1339210744785E+00 -0.8317288049620E+00 -0.4538554421859E+00 -0.1294681622572E+00
-0.6805328921372E+00 -0.1100534778004E+01 -0.8371018028432E+00 -0.5965378642667E+00
-0.6052407170709E+00 -0.1114864821454E+01 -0.8084496010563E+00 -0.4820181584756E+00
-0.5221407978519E+00 -0.1130237398897E+01 -0.7766177505023E+00 -0.3848288836316E+00
-0.4384202799626E+00 -0.1142706321384E+01 -0.7431295007483E+00 -0.3015495240335E+00
-0.3589192981361E+00 -0.1149379474667E+01 -0.7089004214192E+00 -0.2306864976592E+00
-0.2871160211787E+00 -0.1148937805417E+01 -0.6749452967879E+00 -0.1714958205370E+00
-0.2260559697282E+00 -0.1143171137433E+01 -0.6435367387333E+00 -0.1234597707970E+00
-0.1758815581230E+00 -0.1134611038567E+01 -0.6159315188823E+00 -0.8583251432014E-01
-0.1353944221653E+00 -0.1124281100297E+01 -0.5920474940558E+00 -0.5789753816942E-01
-0.1036053024373E+00 -0.1112498175622E+01 -0.5715686332382E+00 -0.3881872231460E-01
-0.7969765602132E-01 -0.1099530634006E+01 -0.5542372949069E+00 -0.2759110298928E-01
-0.6286551617156E-01 -0.1085684423817E+01 -0.5398184704255E+00 -0.2312843697298E-01
-0.5208616026468E-01 -0.1071055562746E+01 -0.5278766084763E+00 -0.2431843356236E-01
-0.4643317303392E-01 -0.1055634209594E+01 -0.5179716685215E+00 -0.3019892231976E-01
-0.4505679318236E-01 -0.1039509906235E+01 -0.5097463474334E+00 -0.4007785792011E-01
-0.4708355927378E-01 -0.1022704597003E+01 -0.5028004321747E+00 -0.5361874385234E-01
-0.5151337449530E-01 -0.1004218964390E+01 -0.4961941980178E+00 -0.7087326617157E-01
-0.6381495871180E-01 -0.9876135695969E+00 -0.4941714070517E+00 -0.9302612868711E-01
-0.8532676772152E-01 -0.9765535193968E+00 -0.4990837336797E+00 -0.1197663090637E+00
-0.1123645792963E+00 -0.9734835809837E+00 -0.5103486340372E+00 -0.1475852419429E+00
-0.7339379764983E+00 -0.1152095847295E+01 -0.8864358949343E+00 -0.5849446835470E+00
-0.6531712907706E+00 -0.1170851984330E+01 -0.8572909371227E+00 -0.4721428421194E+00
-0.5671248856333E+00 -0.1190440268045E+01 -0.8260556201336E+00 -0.3768507853632E+00
-0.4812747050287E+00 -0.1207800594409E+01 -0.7938653887223E+00 -0.2955555086516E+00
-0.3996023739567E+00 -0.1220706251772E+01 -0.7615450521608E+00 -0.2265322708000E+00
-0.3250036581304E+00 -0.1227819050583E+01 -0.7298266712443E+00 -0.1688422818987E+00
-0.2600924059202E+00 -0.1230162208934E+01 -0.7004196672047E+00 -0.1218478619214E+00
-0.2050545323028E+00 -0.1229461241615E+01 -0.6742224120314E+00 -0.8483299997807E-01
-0.1590839061465E+00 -0.1226431055329E+01 -0.6511920302420E+00 -0.5718023869006E-01
-0.1215342087923E+00 -0.1221314102635E+01 -0.6311387047700E+00 -0.3819303555255E-01
-0.9185367703549E-01 -0.1214369092666E+01 -0.6139247002027E+00 -0.2702625354772E-01
-0.6945304742739E-01 -0.1205891157568E+01 -0.5994117748273E+00 -0.2274113150277E-01
-0.5349482994097E-01 -0.1195983859278E+01 -0.5872549824436E+00 -0.2431982529449E-01
-0.4312942879339E-01 -0.1184634148716E+01 -0.5770488799659E+00 -0.3078529987983E-01
-0.3741189497074E-01 -0.1171907839531E+01 -0.5683802737743E+00 -0.4129433589293E-01
-0.3503281898049E-01 -0.1157890792471E+01 -0.5606740959601E+00 -0.5527871851250E-01
-0.3447534113814E-01 -0.1142350822019E+01 -0.5531082952812E+00 -0.7267983219929E-01
-0.3874904429055E-01 -0.1127785191301E+01 -0.5482710893372E+00 -0.9524077863661E-01
-0.5468088929363E-01 -0.1120427812660E+01 -0.5523010885176E+00 -0.1249246141635E+00
-0.8263890247934E-01 -0.1116805596127E+01 -0.5637389129153E+00 -0.1578888430328E+00
-0.7878447624848E+00 -0.1203765805872E+01 -0.9360569647535E+00 -0.5717751933029E+00
-0.7020611991705E+00 -0.1226962491864E+01 -0.9066411324869E+00 -0.4612265378341E+00
-0.6129551305251E+00 -0.1250229900866E+01 -0.8756969625327E+00 -0.3679161364548E+00
-0.5252016233766E+00 -0.1272329700121E+01 -0.8448397199010E+00 -0.2883957128193E+00
-0.4414273910991E+00 -0.1291013066214E+01 -0.8142470128718E+00 -0.2209397483907E+00
-0.3642566894938E+00 -0.1305241185746E+01 -0.7846639993727E+00 -0.1644807946145E+00
-0.2957767787366E+00 -0.1315309251320E+01 -0.7572104322060E+00 -0.1183360019486E+00
-0.2361697942442E+00 -0.1322231511100E+01 -0.7324486116543E+00 -0.8184825741649E-01
-0.1849162532366E+00 -0.1326412261931E+01 -0.7103244003269E+00 -0.5445878072666E-01
-0.1416736558289E+00 -0.1328049247003E+01 -0.6907697625787E+00 -0.3554811386961E-01
-0.1061401660252E+00 -0.1327419607012E+01 -0.6737730916186E+00 -0.2439631206930E-01
-0.7795164081664E-01 -0.1324817896660E+01 -0.6593016809416E+00 -0.2021816594424E-01
-0.5652518234373E-01 -0.1320348913958E+01 -0.6471308236205E+00 -0.2214129985216E-01
-0.4123862120138E-01 -0.1313941238391E+01 -0.6369345323928E+00 -0.2925505523715E-01
-0.3132285174401E-01 -0.1305476928215E+01 -0.6282958949872E+00 -0.4061820814000E-01
-0.2534352377966E-01 -0.1294726443691E+01 -0.6204328831375E+00 -0.5525969461975E-01
-0.2075841965380E-01 -0.1281237959931E+01 -0.6119382968528E+00 -0.7243711064198E-01
-0.1984828810183E-01 -0.1268321963380E+01 -0.6054400166610E+00 -0.9301349442365E-01
-0.1663844639710E-01 -0.1254396789869E+01 -0.5973865595301E+00 -0.1202022904608E+00
-0.4348726725183E-01 -0.1258210381118E+01 -0.6117978931822E+00 -0.1576621372274E+00
-0.8434119023656E+00 -0.1257027559816E+01 -0.9872065447214E+00 -0.5571765211544E+00
-0.7509076131846E+00 -0.1281920738398E+01 -0.9554293228207E+00 -0.4494615281548E+00
-0.6600170563274E+00 -0.1309691835348E+01 -0.9257631767393E+00 -0.3579992007601E+00
-0.5702191993170E+00 -0.1336081087412E+01 -0.8959611324900E+00 -0.2801316990899E+00
-0.4845309519174E+00 -0.1360207286645E+01 -0.8670269699251E+00 -0.2139943839974E+00
-0.4049122676319E+00 -0.1381043738091E+01 -0.8393993205606E+00 -0.1584630590020E+00
-0.3332021465884E+00 -0.1398584731673E+01 -0.8139398307182E+00 -0.1129067259398E+00
-0.2693221316496E+00 -0.1412889158278E+01 -0.7906393042606E+00 -0.7679655258242E-01
-0.2130203646124E+00 -0.1424079918688E+01 -0.7694371311995E+00 -0.4957700774202E-01
-0.1642267924611E+00 -0.1432379469688E+01 -0.7504049413069E+00 -0.3063478882751E-01
-0.1228238261747E+00 -0.1438109931460E+01 -0.7336388642273E+00 -0.1932545887145E-01
-0.8864428484885E-01 -0.1441630958861E+01 -0.7192293627194E+00 -0.1500461405442E-01
-0.6134746573160E-01 -0.1443098100178E+01 -0.7070894141839E+00 -0.1699059586413E-01
-0.4060899717591E-01 -0.1442462882488E+01 -0.6970437816743E+00 -0.2456707943966E-01
-0.2607859844927E-01 -0.1439522040631E+01 -0.6888322986207E+00 -0.3696566183054E-01
-0.1707220574320E-01 -0.1433879549211E+01 -0.6819473230988E+00 -0.5322517594098E-01
-0.1110252797509E-01 -0.1424076661891E+01 -0.6745342175264E+00 -0.7189702602343E-01
-0.7940222924437E-02 -0.1410796553132E+01 -0.6668062830554E+00 -0.9222877797502E-01
-0.5435937560970E-02 -0.1397346254271E+01 -0.6593076284886E+00 -0.1140719359408E+00
 0.4002954781622E-01 -0.1349504514784E+01 -0.6154532329140E+00 -0.1443641394858E+00
-0.1991404769410E+01 -0.2846507818946E+01 -0.2273818910760E+01  0.8659045480966E+00
-0.1716844599021E+01 -0.2934088830436E+01 -0.2185938706301E+01  0.8503184646841E+00
-0.1443064364083E+01 -0.3007944439487E+01 -0.2091974132372E+01  0.8230147345624E+00
-0.1184003774941E+01 -0.3067517960515E+01 -0.1998215210596E+01  0.7872939834582E+00
-0.9445165964814E+00 -0.3112318242939E+01 -0.1906712369691E+01  0.7466300192245E+00
-0.7269423121044E+00 -0.3143084483243E+01 -0.1818912589200E+01  0.7038340368130E+00
-0.5317668733157E+00 -0.3160494568005E+01 -0.1735362873019E+01  0.6609946567352E+00
-0.3587812762626E+00 -0.3166593805542E+01 -0.1656926284246E+01  0.6203074593824E+00
-0.2070452008907E+00 -0.3163969327197E+01 -0.1584376824183E+01  0.5835204880701E+00
-0.7506774137096E-01 -0.3154959594846E+01 -0.1518112844171E+01  0.5516517767687E+00
 0.3870605687528E-01 -0.3141618203182E+01 -0.1458368705065E+01  0.5252303616149E+00
 0.1356762743499E+00 -0.3125799602334E+01 -0.1405357960588E+01  0.5045124045385E+00
 0.2170977416751E+00 -0.3109160780923E+01 -0.1359269624999E+01  0.4895375091210E+00
 0.2840786152750E+00 -0.3093051205291E+01 -0.1320217113959E+01  0.4801432329248E+00
 0.3375595494251E+00 -0.3078523432495E+01 -0.1288253021776E+01  0.4760063084811E+00
 0.3784591943709E+00 -0.3066375014736E+01 -0.1263320432368E+01  0.4765769147284E+00
 0.4087680241690E+00 -0.3056499122348E+01 -0.1244433612988E+01  0.4807779988923E+00
 0.4284562848386E+00 -0.3049696923499E+01 -0.1231983097045E+01  0.4881979528574E+00
 0.4384666040589E+00 -0.3048848958682E+01 -0.1226879703561E+01  0.4990981513437E+00
 0.4672297623011E+00 -0.3033934444787E+01 -0.1206351197709E+01  0.5176351753920E+00
-0.1994570596993E+01 -0.2897471788457E+01 -0.2299259915330E+01  0.9058050862036E+00
-0.1699290798529E+01 -0.2985607393713E+01 -0.2201902144769E+01  0.8875486223960E+00
-0.1411350482418E+01 -0.3061458411111E+01 -0.2102220174627E+01  0.8528654229027E+00
-0.1140101026448E+01 -0.3119441223905E+01 -0.2001984852588E+01  0.8081459822740E+00
-0.8919733016719E+00 -0.3159568001394E+01 -0.1904224407611E+01  0.7583347962004E+00
-0.6690450748401E+00 -0.3182452693322E+01 -0.1810203946445E+01  0.7068807570258E+00
-0.4713423448857E+00 -0.3189081689234E+01 -0.1720399291673E+01  0.6561688452379E+00
-0.2986152621898E+00 -0.3182687397556E+01 -0.1636212245931E+01  0.6089633612311E+00
-0.1493583621733E+00 -0.3166746604378E+01 -0.1558569330326E+01  0.5674250541391E+00
-0.2147928557502E-01 -0.3144226627214E+01 -0.1487881775237E+01  0.5326404580624E+00
 0.8696454181474E-01 -0.3117675231633E+01 -0.1424434020602E+01  0.5050347460178E+00
 0.1776555918039E+00 -0.3089282196032E+01 -0.1368464500516E+01  0.4846854550988E+00
 0.2521439209531E+00 -0.3060879007939E+01 -0.1320105487535E+01  0.4713667783113E+00
 0.3118454428069E+00 -0.3033900832316E+01 -0.1279366029824E+01  0.4645943404903E+00
 0.3580441802903E+00 -0.3009506387365E+01 -0.1246187234164E+01  0.4637188371768E+00
 0.3922989343117E+00 -0.2988586831989E+01 -0.1220255308813E+01  0.4679254160314E+00
 0.4170166041081E+00 -0.2971700983196E+01 -0.1200701655126E+01  0.4762688722021E+00
 0.4296910168185E+00 -0.2961962912391E+01 -0.1190167787901E+01  0.4895122909094E+00
 0.4334630401229E+00 -0.2959818409201E+01 -0.1187387020455E+01  0.5100999427705E+00
 0.4122543317988E+00 -0.2976747483025E+01 -0.1205311778019E+01  0.5399785085167E+00
-0.1995616955138E+01 -0.2949389040574E+01 -0.2324152812090E+01  0.9458323134830E+00
-0.1680976257943E+01 -0.3042564881747E+01 -0.2220064330024E+01  0.9231712865444E+00
-0.1376243871075E+01 -0.3118499355561E+01 -0.2112529311161E+01  0.8796574623384E+00
-0.1092687077754E+01 -0.3173126470715E+01 -0.2004932362695E+01  0.8240829010755E+00
-0.8362559915254E+00 -0.3205948627074E+01 -0.1899836165923E+01  0.7633450782710E+00
-0.6088560681545E+00 -0.3218091588097E+01 -0.1798665393876E+01  0.7017458028704E+00
-0.4099672284021E+00 -0.3211190271049E+01 -0.1701944020425E+01  0.6422314759367E+00
-0.2389915731093E+00 -0.3189587792731E+01 -0.1611432297858E+01  0.5882789972940E+00
-0.9371552089695E-01 -0.3157858807420E+01 -0.1528239930433E+01  0.5423156550822E+00
 0.2866709390888E-01 -0.3119755230391E+01 -0.1452811420462E+01  0.5052945091344E+00
 0.1305722168360E+00 -0.3078336953318E+01 -0.1385449422633E+01  0.4773736808949E+00
 0.2140119673609E+00 -0.3036125980897E+01 -0.1326393582998E+01  0.4583292651791E+00
 0.2808685346983E+00 -0.2995133227022E+01 -0.1275704402156E+01  0.4475987532091E+00
 0.3328302363685E+00 -0.2956925298627E+01 -0.1233324676133E+01  0.4443987300384E+00
 0.3713834940424E+00 -0.2922832533685E+01 -0.1199181045591E+01  0.4479142556079E+00
 0.3981323276119E+00 -0.2894004563668E+01 -0.1173059947971E+01  0.4573769984271E+00
 0.4151212676412E+00 -0.2871140906191E+01 -0.1154329227191E+01  0.4720867654376E+00
 0.4179110454501E+00 -0.2857669259125E+01 -0.1146686357519E+01  0.4936682588257E+00
 0.4018873326062E+00 -0.2859303140545E+01 -0.1154985426802E+01  0.5237593265816E+00
 0.3707120998813E+00 -0.2874718837512E+01 -0.1176883163702E+01  0.5586515042593E+00
-0.1996759664645E+01 -0.3005786706791E+01 -0.2351196788612E+01  0.9864718883523E+00
-0.1660193323140E+01 -0.3104120712034E+01 -0.2239227590853E+01  0.9573765925760E+00
-0.1337801117781E+01 -0.3179661297926E+01 -0.2123207329997E+01  0.9026965001293E+00
-0.1041527883949E+01 -0.3228534762732E+01 -0.2006929438850E+01  0.8341071912031E+00
-0.7774776200255E+00 -0.3251104651176E+01 -0.1893433662662E+01  0.7605875709247E+00
-0.5468157729303E+00 -0.3249201647017E+01 -0.1784128182850E+01  0.6874891259527E+00
-0.3483130836812E+00 -0.3225509623118E+01 -0.1679696667935E+01  0.6185051077488E+00
-0.1808029950181E+00 -0.3185778687608E+01 -0.1582293386821E+01  0.5579032962852E+00
-0.4109261530465E-01 -0.3135819697196E+01 -0.1493148783088E+01  0.5081861828697E+00
 0.7444448767343E-01 -0.3080239029581E+01 -0.1412723431113E+01  0.4699212097269E+00
 0.1687155720962E+00 -0.3022606919183E+01 -0.1341328929729E+01  0.4428169467432E+00
 0.2440524403819E+00 -0.2965735823218E+01 -0.1279191186688E+01  0.4262395239452E+00
 0.3026293637215E+00 -0.2911751227484E+01 -0.1226287272858E+01  0.4192433492787E+00
 0.3462905305929E+00 -0.2862261312457E+01 -0.1182506264477E+01  0.4207631302056E+00
 0.3764998008563E+00 -0.2818631734237E+01 -0.1147802005778E+01  0.4298615033046E+00
 0.3946365188815E+00 -0.2781973168994E+01 -0.1122048222707E+01  0.4457467876532E+00
 0.4025244046807E+00 -0.2752393948870E+01 -0.1104438682968E+01  0.4676362518803E+00
 0.3925510615214E+00 -0.2734749553911E+01 -0.1100833288631E+01  0.4970892409280E+00
 0.3636102351032E+00 -0.2734140778325E+01 -0.1114149352489E+01  0.5339887386004E+00
 0.3240757054382E+00 -0.2753287327560E+01 -0.1141729459501E+01  0.5733057540605E+00
-0.1998060944337E+01 -0.3067722585913E+01 -0.2380918253179E+01  0.1027933854609E+01
-0.1636684409615E+01 -0.3171460908130E+01 -0.2259828293608E+01  0.9899004421413E+00
-0.1295434163626E+01 -0.3245161385193E+01 -0.2134079902532E+01  0.9212396560910E+00
-0.9865572826612E+00 -0.3285613507215E+01 -0.2007920266149E+01  0.8371235435341E+00
-0.7158590930276E+00 -0.3294369319659E+01 -0.1884807349182E+01  0.7489304183148E+00
-0.4834983302562E+00 -0.3274581063366E+01 -0.1766297310522E+01  0.6631604823381E+00
-0.2872491830717E+00 -0.3230475889682E+01 -0.1653330780001E+01  0.5844047031832E+00
-0.1250742123817E+00 -0.3169579143985E+01 -0.1548487073565E+01  0.5176966347744E+00
 0.7478471436464E-02 -0.3099076236156E+01 -0.1453050945733E+01  0.4653148890195E+00
 0.1149152027353E+00 -0.3024426983831E+01 -0.1367470533646E+01  0.4271407756085E+00
 0.2005933973703E+00 -0.2949632652592E+01 -0.1292048446677E+01  0.4022380922002E+00
 0.2671052685328E+00 -0.2877675438663E+01 -0.1226967976849E+01  0.3894515147665E+00
 0.3168443797840E+00 -0.2810635691955E+01 -0.1172081913748E+01  0.3873911882835E+00
 0.3516965796833E+00 -0.2749972110981E+01 -0.1127189496851E+01  0.3946732042288E+00
 0.3729873272206E+00 -0.2696864632879E+01 -0.1092222330889E+01  0.4101664558701E+00
 0.3819074624776E+00 -0.2652101033655E+01 -0.1066990975747E+01  0.4328912145266E+00
 0.3799142859224E+00 -0.2615285015488E+01 -0.1050624240231E+01  0.4616902312301E+00
 0.3583903081745E+00 -0.2591982557071E+01 -0.1049788354319E+01  0.4977931776443E+00
 0.3183493107004E+00 -0.2589852501106E+01 -0.1067606496783E+01  0.5403795411190E+00
 0.2727078980879E+00 -0.2613526941527E+01 -0.1100184947626E+01  0.5841063129247E+00
-0.1999666552555E+01 -0.3136471797032E+01 -0.2413985018183E+01  0.1070486067751E+01
-0.1609955285397E+01 -0.3245646095462E+01 -0.2282132643215E+01  0.1020298534415E+01
-0.1248760938274E+01 -0.3315503708139E+01 -0.2145204378373E+01  0.9343236600959E+00
-0.9277003248761E+00 -0.3344078978928E+01 -0.2007736267695E+01  0.8319013522155E+00
-0.6517825786050E+00 -0.3334769347073E+01 -0.1873679400316E+01  0.7271707016412E+00
-0.4196590198414E+00 -0.3292662867102E+01 -0.1744791282438E+01  0.6278569069739E+00
-0.2278141445693E+00 -0.3224223758223E+01 -0.1622457810197E+01  0.5395265727255E+00
-0.7293936532813E-01 -0.3139143305862E+01 -0.1509678851630E+01  0.4678031262046E+00
 0.5093815259543E-01 -0.3046055970970E+01 -0.1407705371066E+01  0.4143101889723E+00
 0.1491794149849E+00 -0.2951178127032E+01 -0.1316939391322E+01  0.3778939572576E+00
 0.2254933407131E+00 -0.2858760503766E+01 -0.1237635563496E+01  0.3567702922354E+00
 0.2826477734625E+00 -0.2771742933056E+01 -0.1169874722042E+01  0.3491469323752E+00
 0.3231810977923E+00 -0.2691931282985E+01 -0.1113312584217E+01  0.3531168508167E+00
 0.3489422921666E+00 -0.2620413200700E+01 -0.1067591324303E+01  0.3669177593674E+00
 0.3611013673854E+00 -0.2557989198878E+01 -0.1032537278183E+01  0.3891446546808E+00
 0.3606749756174E+00 -0.2505060626789E+01 -0.1007861253494E+01  0.4185266378796E+00
 0.3491250722463E+00 -0.2460602771858E+01 -0.9923945163005E+00  0.4534601180996E+00
 0.3170823637590E+00 -0.2431504886439E+01 -0.9937785831389E+00  0.4950546223195E+00
 0.2679018021035E+00 -0.2427902805795E+01 -0.1015200469160E+01  0.5423922956265E+00
 0.2170244355169E+00 -0.2457061435429E+01 -0.1052817387288E+01  0.5903377099503E+00
-0.2001691754002E+01 -0.3213476438065E+01 -0.2451129044055E+01  0.1114433119475E+01
-0.1579486931240E+01 -0.3327898500664E+01 -0.2306471147145E+01  0.1047948937302E+01
-0.1197407642968E+01 -0.3391142394559E+01 -0.2156618512168E+01  0.9407487248506E+00
-0.8650203085074E+00 -0.3403451278721E+01 -0.2006181640909E+01  0.8170250555857E+00
-0.5857964802813E+00 -0.3370945409875E+01 -0.1859668683657E+01  0.6940496772881E+00
-0.3562517992192E+00 -0.3301479539135E+01 -0.1719133724666E+01  0.5807844016452E+00
-0.1712035965317E+00 -0.3204587033305E+01 -0.1586621591999E+01  0.4837346136862E+00
-0.2559942800627E-01 -0.3092497297902E+01 -0.1465505457460E+01  0.4087249624617E+00
 0.8825470535910E-01 -0.2975242130464E+01 -0.1356884086358E+01  0.3561498487292E+00
 0.1764412304866E+00 -0.2859557582829E+01 -0.1261064682403E+01  0.3234398019241E+00
 0.2428716083187E+00 -0.2749642301509E+01 -0.1178182222811E+01  0.3077691792494E+00
 0.2903951827411E+00 -0.2648098992084E+01 -0.1108120787580E+01  0.3066073570156E+00
 0.3216277795640E+00 -0.2556194628806E+01 -0.1050246416480E+01  0.3174729163878E+00
 0.3383333852595E+00 -0.2474435345745E+01 -0.1003967918882E+01  0.3381877854944E+00
 0.3415241731668E+00 -0.2403120803840E+01 -0.9689504139586E+00  0.3670387257495E+00
 0.3321388749350E+00 -0.2342207620621E+01 -0.9447323080763E+00  0.4024536096019E+00
 0.3116970863324E+00 -0.2290136371943E+01 -0.9298664618784E+00  0.4424721737884E+00
 0.2705235982890E+00 -0.2255126725925E+01 -0.9327634676229E+00  0.4882796620785E+00
 0.2137688243065E+00 -0.2250114412145E+01 -0.9570824238568E+00  0.5393185022276E+00
 0.1584579342248E+00 -0.2285059992895E+01 -0.9995029650401E+00  0.5910193305061E+00
-0.2004281369883E+01 -0.3300472138327E+01 -0.2493234142535E+01  0.1160118834720E+01
-0.1544710460852E+01 -0.3419598240744E+01 -0.2333225083832E+01  0.1072012965038E+01
-0.1141058535765E+01 -0.3472459361781E+01 -0.2168353406347E+01  0.9390348950540E+00
-0.7987301225430E+00 -0.3462925595389E+01 -0.2002978182348E+01  0.7908761177029E+00
-0.5186602757138E+00 -0.3401074145632E+01 -0.1842275173360E+01  0.6482819011913E+00
-0.2944309080745E+00 -0.3298611676679E+01 -0.1688730010551E+01  0.5213399969102E+00
-0.1187411090714E+00 -0.3169117374792E+01 -0.1545293483496E+01  0.4172579876723E+00
 0.1573568399147E-01 -0.3027619756445E+01 -0.1415585510463E+01  0.3413957173344E+00
 0.1184924680033E+00 -0.2885292823271E+01 -0.1300396163677E+01  0.2922101614326E+00
 0.1960764759438E+00 -0.2748967949784E+01 -0.1199858989661E+01  0.2653417396231E+00
 0.2524150904135E+00 -0.2622360244212E+01 -0.1113874219460E+01  0.2567725319364E+00
 0.2903451876686E+00 -0.2507377472802E+01 -0.1042005171370E+01  0.2631756826452E+00
 0.3124989020928E+00 -0.2404479197631E+01 -0.9832307364091E+00  0.2814834798733E+00
 0.3205170574056E+00 -0.2313416714452E+01 -0.9366628364362E+00  0.3091126722390E+00
 0.3152726662260E+00 -0.2233902105385E+01 -0.9017558341173E+00  0.3440631682644E+00
 0.2976664530772E+00 -0.2165442847073E+01 -0.8778549029516E+00  0.3845226496389E+00
 0.2693237720212E+00 -0.2105938997649E+01 -0.8632091538555E+00  0.4283098885531E+00
 0.2205417704024E+00 -0.2064958137483E+01 -0.8668756903291E+00  0.4768456423083E+00
 0.1577908998855E+00 -0.2058350623963E+01 -0.8932630680508E+00  0.5302845750902E+00
 0.9881191082923E-01 -0.2098918228450E+01 -0.9400499668976E+00  0.5850218712408E+00
-0.2007642872488E+01 -0.3399591821547E+01 -0.2541400299751E+01  0.1207919149747E+01
-0.1505026091491E+01 -0.3522329323952E+01 -0.2362857039265E+01  0.1091369817796E+01
-0.1079482599641E+01 -0.3559693678346E+01 -0.2180412845123E+01  0.9273613942187E+00
-0.7292340948194E+00 -0.3521245112075E+01 -0.1997725222173E+01  0.7516196644919E+00
-0.4513652315630E+00 -0.3422741347063E+01 -0.1820830087336E+01  0.5886112329877E+00
-0.2355439502338E+00 -0.3281144267109E+01 -0.1652843457959E+01  0.4492217667572E+00
-0.7182865168785E-01 -0.3115140734214E+01 -0.1497875607575E+01  0.3408041426832E+00
 0.4992013119294E-01 -0.2942577103364E+01 -0.1359548773472E+01  0.2672485280343E+00
 0.1408843922666E+00 -0.2775207260278E+01 -0.1238131744825E+01  0.2242753143383E+00
 0.2076935982597E+00 -0.2619301480493E+01 -0.1133455701775E+01  0.2054293367653E+00
 0.2540848132576E+00 -0.2477537880304E+01 -0.1045022938861E+01  0.2054387625613E+00
 0.2827956877643E+00 -0.2350744120169E+01 -0.9719357607651E+00  0.2201983398534E+00
 0.2964158294585E+00 -0.2238337233904E+01 -0.9127030577743E+00  0.2461074066791E+00
 0.2964344324310E+00 -0.2139190984940E+01 -0.8660955774824E+00  0.2802414172029E+00
 0.2836004610741E+00 -0.2052389961017E+01 -0.8313310628647E+00  0.3203794532093E+00
 0.2588078403227E+00 -0.1976989276713E+01 -0.8075452730553E+00  0.3645639220144E+00
 0.2237769192676E+00 -0.1910349961760E+01 -0.7926893279610E+00  0.4105408438598E+00
 0.1690894790057E+00 -0.1863322777253E+01 -0.7962896481567E+00  0.4600743765971E+00
 0.1020294166007E+00 -0.1854742640093E+01 -0.8237752129520E+00  0.5143409169479E+00
 0.4020649732527E-01 -0.1900276105035E+01 -0.8742327134062E+00  0.5711598749067E+00
-0.2012107268962E+01 -0.3513517341570E+01 -0.2597043560363E+01  0.1258228781072E+01
-0.1459830035211E+01 -0.3637929910272E+01 -0.2395947168300E+01  0.1104520387380E+01
-0.1012576884923E+01 -0.3652844465412E+01 -0.2192748029096E+01  0.9034846978381E+00
-0.6571651576045E+00 -0.3576512893286E+01 -0.1989828678871E+01  0.6971998942520E+00
-0.3851460843301E+00 -0.3432786782256E+01 -0.1794428442744E+01  0.5139019498974E+00
-0.1811024752174E+00 -0.3245643639650E+01 -0.1610570669902E+01  0.3645771694517E+00
-0.3187656741657E-01 -0.3039881589094E+01 -0.1443726329898E+01  0.2556850307339E+00
 0.7595628477617E-01 -0.2835731351126E+01 -0.1297094277895E+01  0.1882665689642E+00
 0.1549030422040E+00 -0.2644534266804E+01 -0.1170126672594E+01  0.1545099879815E+00
 0.2111846867731E+00 -0.2471088966039E+01 -0.1062155008561E+01  0.1457200053464E+00
 0.2481440647060E+00 -0.2316408113415E+01 -0.9720841004275E+00  0.1554526883078E+00
 0.2683451181518E+00 -0.2179890795539E+01 -0.8984264660932E+00  0.1789433013915E+00
 0.2742801989972E+00 -0.2059754774353E+01 -0.8391730482888E+00  0.2121808436514E+00
 0.2672676729942E+00 -0.1953945879402E+01 -0.7927387550010E+00  0.2520058290639E+00
 0.2479536442198E+00 -0.1860924664077E+01 -0.7580963774102E+00  0.2960660997202E+00
 0.2172418115063E+00 -0.1779311452250E+01 -0.7341727292875E+00  0.3423635908383E+00
 0.1769250266737E+00 -0.1705929155134E+01 -0.7186319385536E+00  0.3887105927698E+00
 0.1182246551608E+00 -0.1652803401242E+01 -0.7212520088289E+00  0.4372780728268E+00
 0.4873983047729E-01 -0.1641719997756E+01 -0.7487006767221E+00  0.4905461187398E+00
-0.1498788621979E-01 -0.1691100021484E+01 -0.8018613145869E+00  0.5482591087204E+00
-0.2018234199758E+01 -0.3645707465192E+01 -0.2662052575774E+01  0.1311435239111E+01
-0.1408564759047E+01 -0.3768559023384E+01 -0.2433248171571E+01  0.1109445675902E+01
-0.9404192796731E+00 -0.3751506934041E+01 -0.2205205314852E+01  0.8646286763725E+00
-0.5834152596527E+00 -0.3625914780602E+01 -0.1978385113902E+01  0.6253540208837E+00
-0.3214697480478E+00 -0.3427115648307E+01 -0.1761835131818E+01  0.4232842660036E+00
-0.1327273170804E+00 -0.3188195264829E+01 -0.1560833609538E+01  0.2681987570050E+00
-0.2142785516615E-03 -0.2940697000895E+01 -0.1382228297834E+01  0.1639452051022E+00
 0.9308204673177E-01 -0.2706035881926E+01 -0.1228088299426E+01  0.1069913493912E+00
 0.1603244803577E+00 -0.2493602111599E+01 -0.1096640483902E+01  0.8537189986659E-01
 0.2067651086987E+00 -0.2305606585437E+01 -0.9864554915648E+00  0.8828853866489E-01
 0.2351713462926E+00 -0.2140808367961E+01 -0.8956493979123E+00  0.1084001162289E+00
 0.2478763746263E+00 -0.1996959403644E+01 -0.8220690215533E+00  0.1405067852509E+00
 0.2472322905322E+00 -0.1871041776761E+01 -0.7631904565918E+00  0.1803610401981E+00
 0.2343866903845E+00 -0.1760101530943E+01 -0.7170859732435E+00  0.2246933511233E+00
 0.2099132507496E+00 -0.1662023200239E+01 -0.6824916745292E+00  0.2711122177352E+00
 0.1747382093110E+00 -0.1575031223793E+01 -0.6581377151373E+00  0.3176760343178E+00
 0.1307026410034E+00 -0.1495426765347E+01 -0.6414203368144E+00  0.3623836972573E+00
 0.7008201242678E-01 -0.1436245729287E+01 -0.6420969452955E+00  0.4078349180910E+00
 0.3121650753348E-03 -0.1422058557473E+01 -0.6682208027320E+00  0.4580613036279E+00
-0.6417741019707E-01 -0.1473754773427E+01 -0.7228281244699E+00  0.5152349490438E+00
-0.2027001527374E+01 -0.3800760714303E+01 -0.2739048246641E+01  0.1367869027242E+01
-0.1350807046849E+01 -0.3916781319201E+01 -0.2475766525764E+01  0.1103392189202E+01
-0.8633275601207E+00 -0.3854584831183E+01 -0.2217418818289E+01  0.8073371259086E+00
-0.5091403102276E+00 -0.3665299010188E+01 -0.1961986475619E+01  0.5336664790926E+00
-0.2619873203610E+00 -0.3400492422279E+01 -0.1721365474675E+01  0.3163853381407E+00
-0.9206805673553E-01 -0.3104573906795E+01 -0.1502421719049E+01  0.1617726674109E+00
 0.2200638632306E-01 -0.2815479758404E+01 -0.1312932481548E+01  0.6846257621887E-01
 0.1008497698310E+00 -0.2553414700341E+01 -0.1152705514416E+01  0.2644890688704E-01
 0.1572808755920E+00 -0.2323714824341E+01 -0.1018223953329E+01  0.1943963573036E-01
 0.1950005727795E+00 -0.2124882655039E+01 -0.9070445763614E+00  0.3508523387539E-01
 0.2160538956673E+00 -0.1953077612829E+01 -0.8164011449951E+00  0.6563069573981E-01
 0.2225175464719E+00 -0.1804405011582E+01 -0.7434871067161E+00  0.1057337061367E+00
 0.2165914913191E+00 -0.1674698319831E+01 -0.6853102076624E+00  0.1510927847278E+00
 0.1992837101671E+00 -0.1560190776499E+01 -0.6396263195537E+00  0.1984439865892E+00
 0.1711372240163E+00 -0.1458276264846E+01 -0.6049553476556E+00  0.2454364712354E+00
 0.1331096409306E+00 -0.1366852900768E+01 -0.5798593306530E+00  0.2902661108370E+00
 0.8707009455792E-01 -0.1281743324888E+01 -0.5614964168308E+00  0.3312148494253E+00
 0.2681880021075E-01 -0.1216765629812E+01 -0.5592750084942E+00  0.3712883987019E+00
-0.4079367917119E-01 -0.1198930286006E+01 -0.5826702621555E+00  0.4162636173852E+00
-0.1045740004647E+00 -0.1251100758623E+01 -0.6371671351551E+00  0.4711973754328E+00
-0.2040159736174E+01 -0.3985022997194E+01 -0.2831835877500E+01  0.1427707215698E+01
-0.1286421420471E+01 -0.4085666892254E+01 -0.2524881500576E+01  0.1082533426047E+01
-0.7819054184141E+00 -0.3959762474331E+01 -0.2228583903938E+01  0.7272773221455E+00
-0.4357027510548E+00 -0.3688532079243E+01 -0.1938390365323E+01  0.4197087319209E+00
-0.2084333106873E+00 -0.3346376565835E+01 -0.1670760637728E+01  0.1936936789624E+00
-0.6071586883260E-01 -0.2990683209087E+01 -0.1434157562985E+01  0.4816904439362E-01
 0.3388916829637E-01 -0.2663290609268E+01 -0.1235818674122E+01 -0.2704019335136E-01
 0.9918486828330E-01 -0.2379162567273E+01 -0.1071589515807E+01 -0.5006214639289E-01
 0.1463056939556E+00 -0.2137202985792E+01 -0.9357217247900E+00 -0.4085614070577E-01
 0.1768180319884E+00 -0.1931540729604E+01 -0.8247196657877E+00 -0.1226907181526E-01
 0.1919515033565E+00 -0.1755859079543E+01 -0.7350365589433E+00  0.2814898747049E-01
 0.1935716694841E+00 -0.1604835960819E+01 -0.6632942152448E+00  0.7518009563197E-01
 0.1837783288174E+00 -0.1473289462835E+01 -0.6060702314511E+00  0.1246084484420E+00
 0.1635025206999E+00 -0.1356750349340E+01 -0.5608264780382E+00  0.1732701290960E+00
 0.1333004555419E+00 -0.1252249601448E+01 -0.5259060972421E+00  0.2189250896261E+00
 0.9415964697948E-01 -0.1157481543804E+01 -0.4997612902401E+00  0.2599721993657E+00
 0.4796055343927E-01 -0.1067880614272E+01 -0.4793624273757E+00  0.2950439207096E+00
-0.9454910278539E-02 -0.9977514048782E+00 -0.4733869669230E+00  0.3274719659530E+00
-0.7213567674189E-01 -0.9759657883456E+00 -0.4926076873417E+00  0.3648911312836E+00
-0.1332423601608E+00 -0.1026615896452E+01 -0.5451333792254E+00  0.4155999258256E+00
-0.2060929837836E+01 -0.4207669429324E+01 -0.2946241648092E+01  0.1490781349431E+01
-0.1215824543354E+01 -0.4278876609616E+01 -0.2582509535346E+01  0.1041409911101E+01
-0.6970153929245E+00 -0.4062491653002E+01 -0.2236968305912E+01  0.6189874459742E+00
-0.3644736381131E+00 -0.3686513678764E+01 -0.1903964034103E+01  0.2813607621457E+00
-0.1624817917695E+00 -0.3256988092077E+01 -0.1607150841332E+01  0.5712433123345E-01
-0.4017205638513E-01 -0.2843499230234E+01 -0.1355325501273E+01 -0.6828351131926E-01
 0.3480760671556E-01 -0.2485224761128E+01 -0.1151696059653E+01 -0.1181900489347E+00
 0.8843994439763E-01 -0.2186160207030E+01 -0.9859285209366E+00 -0.1193772136033E+00
 0.1283815476047E+00 -0.1937168998780E+01 -0.8501300998961E+00 -0.9356407245621E-01
 0.1534896218463E+00 -0.1728461000470E+01 -0.7402365460758E+00 -0.5263911367460E-01
 0.1642083646486E+00 -0.1551886934153E+01 -0.6522089260128E+00 -0.3415429144671E-02
 0.1624172980726E+00 -0.1400893794826E+01 -0.5820839519977E+00  0.4912973557957E-01
 0.1502303683739E+00 -0.1269352619682E+01 -0.5259874567806E+00  0.1009520895765E+00
 0.1285721217161E+00 -0.1152220869977E+01 -0.4811149104621E+00  0.1490857334100E+00
 0.9803658077977E-01 -0.1046377808920E+01 -0.4457203760956E+00  0.1914785367211E+00
 0.5962414074593E-01 -0.9495250982786E+00 -0.4182534489795E+00  0.2267837133130E+00
 0.1521319926502E-01 -0.8568717674242E+00 -0.3955795260315E+00  0.2540133525322E+00
-0.3676752893939E-01 -0.7828523818774E+00 -0.3852213571068E+00  0.2766646711132E+00
-0.9141857796077E-01 -0.7573230201692E+00 -0.3989085501093E+00  0.3042324220644E+00
-0.1471943069901E+00 -0.8045435439626E+00 -0.4473167888132E+00  0.3484540653583E+00
-0.2095465689389E+01 -0.4482772760072E+01 -0.3091772063405E+01  0.1556177866197E+01
-0.1140446984129E+01 -0.4500628640539E+01 -0.2651305536869E+01  0.9719474114881E+00
-0.6094701408022E+00 -0.4153918478505E+01 -0.2238792645396E+01  0.4755903931218E+00
-0.2963786946132E+00 -0.3645764002820E+01 -0.1852807063094E+01  0.1175215022645E+00
-0.1256493962151E+00 -0.3124088696033E+01 -0.1527376899482E+01 -0.8914256511064E-01
-0.3206030551444E-01 -0.2662896739486E+01 -0.1266629807938E+01 -0.1817179283433E+00
 0.2438023304602E-01 -0.2285216752333E+01 -0.1062593161370E+01 -0.2005457937693E+00
 0.6949718597950E-01 -0.1978505357108E+01 -0.8972338381548E+00 -0.1790597269411E+00
 0.1050180116961E+00 -0.1726789445738E+01 -0.7622325720662E+00 -0.1374719003093E+00
 0.1265178895554E+00 -0.1518442912810E+01 -0.6542047592706E+00 -0.8537332385232E-01
 0.1342128135034E+00 -0.1343889724421E+01 -0.5685481466893E+00 -0.2873983832252E-01
 0.1304020009000E+00 -0.1195217753038E+01 -0.5004634022353E+00  0.2763774372653E-01
 0.1173352402324E+00 -0.1065323315841E+01 -0.4455543944058E+00  0.7999799455326E-01
 0.9595199451288E-01 -0.9488332397383E+00 -0.4008541842392E+00  0.1257291999228E+00
 0.6687740815233E-01 -0.8428374546911E+00 -0.3647012209482E+00  0.1630616230682E+00
 0.3109606682847E-01 -0.7453754159388E+00 -0.3357112932304E+00  0.1909305859952E+00
-0.9514356670872E-02 -0.6516763613382E+00 -0.3107596366760E+00  0.2087067620980E+00
-0.5340885928481E-01 -0.5759308430252E+00 -0.2957896593355E+00  0.2197819726191E+00
-0.9668929795050E-01 -0.5477382078006E+00 -0.3028809269348E+00  0.2353740642050E+00
-0.1435815405320E+00 -0.5900599673112E+00 -0.3448115078118E+00  0.2706373174982E+00
-0.2156288595474E+01 -0.4833733551108E+01 -0.3285310400561E+01  0.1621333613108E+01
-0.1063390161389E+01 -0.4755010649805E+01 -0.2734648374325E+01  0.8616171987293E+00
-0.5189444801478E+00 -0.4216516005925E+01 -0.2225666422809E+01  0.2886149600249E+00
-0.2309027731481E+00 -0.3546608404361E+01 -0.1775430248926E+01 -0.7032987867078E-01
-0.9990568317524E-01 -0.2941996059487E+01 -0.1429693815425E+01 -0.2375723585790E+00
-0.3865493976201E-01 -0.2454363969757E+01 -0.1171718884502E+01 -0.2852859026181E+00
 0.2491427753666E-02 -0.2069942798054E+01 -0.9717021415767E+00 -0.2707451843016E+00
 0.4423301978399E-01 -0.1759815976406E+01 -0.8063239875671E+00 -0.2279460927222E+00
 0.7809688594766E-01 -0.1508674179884E+01 -0.6723713264445E+00 -0.1720266785300E+00
 0.9742390870569E-01 -0.1304157657467E+01 -0.5671648604790E+00 -0.1101055348322E+00
 0.1032381187692E+00 -0.1134704398843E+01 -0.4847891504049E+00 -0.4770892596324E-01
 0.9877691521763E-01 -0.9904450827922E+00 -0.4190840376971E+00  0.1053553912571E-01
 0.8639635632899E-01 -0.8634200717854E+00 -0.3652011453382E+00  0.6143688405027E-01
 0.6698453070408E-01 -0.7484532611726E+00 -0.3202903025078E+00  0.1029809825351E+00
 0.4116991112301E-01 -0.6434090246671E+00 -0.2830523826478E+00  0.1337622875588E+00
 0.9925979281767E-02 -0.5470674427326E+00 -0.2524564871816E+00  0.1529816689958E+00
-0.2487232758311E-01 -0.4550339938073E+00 -0.2255559704814E+00  0.1602994166731E+00
-0.5808800071331E-01 -0.3809212026624E+00 -0.2063343250632E+00  0.1585944053897E+00
-0.8663880909826E-01 -0.3525055197027E+00 -0.2063978340130E+00  0.1605132883341E+00
-0.1200674116625E+00 -0.3894210187563E+00 -0.2394595616895E+00  0.1843263178386E+00
-0.2270777019292E+01 -0.5303519445086E+01 -0.3559919329228E+01  0.1679849313957E+01
-0.9906742077104E+00 -0.5043470777639E+01 -0.2836048135921E+01  0.6896232010919E+00
-0.4192883317107E+00 -0.4212963540738E+01 -0.2177158374529E+01  0.4861145196531E-01
-0.1659976259089E+00 -0.3364008914422E+01 -0.1659103069748E+01 -0.2747384031325E+00
-0.8954542356724E-01 -0.2714769902744E+01 -0.1318028200023E+01 -0.3764568694155E+00
-0.6458489736349E-01 -0.2232383067505E+01 -0.1079574940750E+01 -0.3732883395540E+00
-0.2850576091221E-01 -0.1843966668954E+01 -0.8800620398049E+00 -0.3279392774704E+00
 0.1520914905580E-01 -0.1531917734312E+01 -0.7128530332625E+00 -0.2658982399711E+00
 0.4958581253217E-01 -0.1284853139529E+01 -0.5805756422158E+00 -0.1968327656463E+00
 0.6746083370696E-01 -0.1088621627677E+01 -0.4799455719486E+00 -0.1265123841329E+00
 0.7235843920368E-01 -0.9274795382311E+00 -0.4019069155235E+00 -0.6042999979070E-01
 0.6871000008407E-01 -0.7890901573447E+00 -0.3385786730537E+00 -0.2655641975281E-02
 0.5862720467755E-01 -0.6654170538171E+00 -0.2851912283722E+00  0.4474685254738E-01
 0.4280740522367E-01 -0.5524242220528E+00 -0.2395199033022E+00  0.8060232184930E-01
 0.2198083437215E-01 -0.4493297086371E+00 -0.2008539703951E+00  0.1038666579269E+00
-0.2937784979778E-02 -0.3561679499381E+00 -0.1687796949833E+00  0.1139398887657E+00
-0.2996609973983E-01 -0.2692294201103E+00 -0.1406218939729E+00  0.1106903065202E+00
-0.5017028101472E-01 -0.2015611958678E+00 -0.1183137938347E+00  0.9594028239109E-01
-0.6100829377601E-01 -0.1772105188286E+00 -0.1119628416402E+00  0.8330799213088E-01
-0.7554543690507E-01 -0.2100097001363E+00 -0.1342109140690E+00  0.9357627596925E-01
-0.2512167881956E+01 -0.5988417701848E+01 -0.3995275214254E+01  0.1714343592243E+01
-0.9240790788623E+00 -0.5345178311522E+01 -0.2946550966007E+01  0.4185985264528E+00
-0.2912146999028E+00 -0.4067169994437E+01 -0.2048440801144E+01 -0.2508473684054E+00
-0.9540321064538E-01 -0.3072422565577E+01 -0.1488878111048E+01 -0.4749654052551E+00
-0.1176574892532E+00 -0.2483279527910E+01 -0.1222440394966E+01 -0.4921620562888E+00
-0.1056486361998E+00 -0.2003830140256E+01 -0.9914550224194E+00 -0.4456793311310E+00
-0.6536849620720E-01 -0.1607606492294E+01 -0.7862982426012E+00 -0.3732183745456E+00
-0.1443522387849E-01 -0.1294545665704E+01 -0.6152210165434E+00 -0.2926490744367E+00
 0.2100316729578E-01 -0.1057995761523E+01 -0.4873865180507E+00 -0.2110516835386E+00
 0.3738955552865E-01 -0.8760007293444E+00 -0.3941472506937E+00 -0.1343428786186E+00
 0.4255030730903E-01 -0.7255548990695E+00 -0.3210121573132E+00 -0.6748708801007E-01
 0.4139418920093E-01 -0.5931009907481E+00 -0.2593021960695E+00 -0.1284784004468E-01
 0.3504677325864E-01 -0.4724337531157E+00 -0.2055718800114E+00  0.2922539710262E-01
 0.2427756677449E-01 -0.3614004940629E+00 -0.1584477754237E+00  0.5842287626273E-01
 0.9890643216236E-02 -0.2612933171877E+00 -0.1181592564669E+00  0.7393538062516E-01
-0.6996854399309E-02 -0.1735135633522E+00 -0.8483989612802E-01  0.7530585062659E-01
-0.2473041516226E-01 -0.9601932800027E-01 -0.5675237914244E-01  0.6257257452193E-01
-0.2986146509205E-01 -0.4076619382484E-01 -0.3319499960674E-01  0.3581525406289E-01
-0.2120460081569E-01 -0.2707639147895E-01 -0.2269206632092E-01  0.9157598592254E-02
-0.1124366421875E-01 -0.5982090419654E-01 -0.3340034707047E-01  0.4957017350365E-02
-0.3072282371396E+01 -0.7118000902952E+01 -0.4789433126796E+01  0.1677180717236E+01
-0.8763168643920E+00 -0.5590469620946E+01 -0.3039389640400E+01 -0.3094170042990E-01
 0.4887346052266E-02 -0.3530671397234E+01 -0.1657118499852E+01 -0.5889148738674E+00
-0.1283458330760E+00 -0.2814445003642E+01 -0.1383111689749E+01 -0.6263533107843E+00
-0.1683826395180E+00 -0.2257149718375E+01 -0.1140000205318E+01 -0.5858272714688E+00
-0.1591035622457E+00 -0.1769009929298E+01 -0.9062133387269E+00 -0.5069560664253E+00
-0.1027303444197E+00 -0.1354978534323E+01 -0.6851231712711E+00 -0.4072567064859E+00
-0.4162853871323E-01 -0.1047409503624E+01 -0.5118478786002E+00 -0.3063635236776E+00
-0.7448775346441E-02 -0.8340758411194E+00 -0.3955165687358E+00 -0.2133060247549E+00
 0.7668668981712E-02 -0.6716850729024E+00 -0.3120877090512E+00 -0.1340659428178E+00
 0.1508230540298E-01 -0.5314331958338E+00 -0.2426849178870E+00 -0.7031490927778E-01
 0.1796592355742E-01 -0.4033792277091E+00 -0.1811442524918E+00 -0.2134230048257E-01
 0.1643669895726E-01 -0.2847373807680E+00 -0.1261013201312E+00  0.1417899927239E-01
 0.1147683044236E-01 -0.1757817145260E+00 -0.7722329532346E-01  0.3641292845172E-01
 0.5394691553492E-02 -0.7874071465762E-01 -0.3447263077151E-01  0.4482924466657E-01
-0.2861921697247E-02  0.3446377482032E-03 -0.1183123453050E-02  0.3914132141442E-01
-0.9725027431351E-02  0.6408435095198E-01  0.2554888198990E-01  0.1938447574948E-01
 0.8052149169545E-03  0.9913483937175E-01  0.4697182539655E-01 -0.1681162218848E-01
 0.2982161428653E-01  0.9526678132743E-01  0.5879154578944E-01 -0.5510849517849E-01
 0.6721929052954E-01  0.5399004953941E-01  0.5696838968792E-01 -0.7210605847879E-01
-0.5586246627994E+01 -0.1031726783232E+02 -0.7474651777390E+01  0.1241848771430E+01
 0.3424707414088E+00 -0.4097976759517E+01 -0.1765087824034E+01 -0.7964330249435E+00
-0.8071802015149E-01 -0.3194054500218E+01 -0.1539143080670E+01 -0.7950981502452E+00
-0.1808840691062E+00 -0.2577059456915E+01 -0.1296233453942E+01 -0.7307519052867E+00
-0.2455881580457E+00 -0.2047583544615E+01 -0.1077790697517E+01 -0.6695553764448E+00
-0.2185223351078E+00 -0.1516605186391E+01 -0.8155099330361E+00 -0.5621649727953E+00
-0.1309949372206E+00 -0.1072172593288E+01 -0.5654887379045E+00 -0.4273055010209E+00
-0.6683695887755E-01 -0.7988610164383E+00 -0.4068780473664E+00 -0.3025567426799E+00
-0.3696711092379E-01 -0.6237732727641E+00 -0.3105479795456E+00 -0.2032209736651E+00
-0.2022422405945E-01 -0.4795304577952E+00 -0.2348846998759E+00 -0.1279296245790E+00
-0.8670357924503E-02 -0.3458053004621E+00 -0.1666035590191E+00 -0.7115554038114E-01
-0.5173953629513E-03 -0.2193572470910E+00 -0.1033410816913E+00 -0.2944700853117E-01
 0.2836349453892E-02 -0.1023247640105E+00 -0.4675955472302E-01 -0.7958744972810E-03
 0.4315252955302E-02  0.4617813759337E-02  0.4198541345231E-02  0.1478241614201E-01
 0.6458222221623E-02  0.9772990491222E-01  0.4896841962870E-01  0.1718364772561E-01
 0.1270696058186E-01  0.1719090184335E+00  0.8676950991715E-01  0.8206532514495E-02
 0.8568433031557E-02  0.2049180413956E+00  0.1003386427263E+00 -0.1401224020316E-01
 0.3955120003411E-01  0.2172938093086E+00  0.1207171540849E+00 -0.5777226441042E-01
 0.8823933782017E-01  0.1936451364730E+00  0.1324857025818E+00 -0.1033934141209E+00
 0.1483008967904E+00  0.1311701134063E+00  0.1313513744593E+00 -0.1266385822811E+00
-0.8030805166531E-01 -0.1498704925956E+01 -0.7421360975997E+00 -0.1892055289493E+00
-0.6005457148164E-01 -0.1295934615698E+01 -0.6373149163580E+00 -0.1880315935030E+00
-0.8532605332286E-01 -0.1149011368090E+01 -0.5801385865926E+00 -0.1842391901892E+00
-0.1078591508346E+00 -0.1004289513387E+01 -0.5227098708582E+00 -0.1734291520768E+00
-0.1278045295654E+00 -0.8631070279800E+00 -0.4657284308651E+00 -0.1551397377065E+00
-0.1418855004422E+00 -0.7264938923875E+00 -0.4081383135948E+00 -0.1299306843632E+00
-0.1486657337612E+00 -0.5969424638736E+00 -0.3504358519995E+00 -0.9880577916631E-01
-0.1471024367991E+00 -0.4767624499619E+00 -0.2932164960340E+00 -0.6320030395703E-01
-0.1367854430876E+00 -0.3680353061241E+00 -0.2372657515277E+00 -0.2494416183246E-01
-0.1179697153169E+00 -0.2724333060845E+00 -0.1834894195932E+00  0.1380697511834E-01
-0.9166100984771E-01 -0.1911025503573E+00 -0.1328988729593E+00  0.5069041537986E-01
-0.5963968426694E-01 -0.1245455993796E+00 -0.8656708309433E-01  0.8330562569470E-01
-0.2439909823485E-01 -0.7252758445318E-01 -0.4555554074783E-01  0.1094329785658E+00
 0.1104085839826E-01 -0.3402892600192E-01 -0.1080439174632E-01  0.1272903038914E+00
 0.4346982069836E-01 -0.7288163444168E-02  0.1700537886634E-01  0.1357942970265E+00
 0.6995833094905E-01  0.1000506943609E-01  0.3758279808569E-01  0.1347609747653E+00
 0.8840832929115E-01  0.2034390692806E-01  0.5111355089339E-01  0.1249526881087E+00
 0.9796372009239E-01  0.2583820830293E-01  0.5818690619822E-01  0.1078851360644E+00
 0.9946971727209E-01  0.2791962894166E-01  0.5987299256860E-01  0.8543864673292E-01
 0.9308020587957E-01  0.2511156219645E-01  0.5555013085483E-01  0.5893187982422E-01
-0.3888544345224E-01 -0.1558312505892E+01 -0.7506830342876E+00 -0.2106594625456E+00
-0.5766421681181E-01 -0.1416622257766E+01 -0.6929146412943E+00 -0.2111269743671E+00
-0.7505308527168E-01 -0.1256105236283E+01 -0.6256444095438E+00 -0.2077676994315E+00
-0.1006046497941E+00 -0.1106960296772E+01 -0.5675555234465E+00 -0.2004180976487E+00
-0.1229113252712E+00 -0.9608493672037E+00 -0.5093675241713E+00 -0.1855758829117E+00
-0.1400703809687E+00 -0.8188294194557E+00 -0.4506829050564E+00 -0.1629437961350E+00
-0.1499165040142E+00 -0.6825123287201E+00 -0.3912415503928E+00 -0.1331189117949E+00
-0.1510776618639E+00 -0.5542902950515E+00 -0.3315229389094E+00 -0.9737641663613E-01
-0.1426688309044E+00 -0.4365445666270E+00 -0.2722302961493E+00 -0.5752290161364E-01
-0.1244777350014E+00 -0.3314192753433E+00 -0.2142715943185E+00 -0.1582807738414E-01
-0.9709371499694E-01 -0.2406049032704E+00 -0.1587183501831E+00  0.2508483436624E-01
-0.6202405807327E-01 -0.1651667143027E+00 -0.1067796627459E+00  0.6240948664883E-01
-0.2172884265794E-01 -0.1053900145123E+00 -0.5974586271846E-01  0.9340094259910E-01
 0.2047995712244E-01 -0.6065833309022E-01 -0.1888383665696E-01  0.1156932462510E+00
 0.6074062540738E-01 -0.2940114430576E-01  0.1472955608040E-01  0.1276655612670E+00
 0.9519237205577E-01 -0.9177778906594E-02  0.4042685867757E-01  0.1287874881851E+00
 0.1207159447791E+00  0.2994910333362E-02  0.5814410175539E-01  0.1198111438220E+00
 0.1357577039386E+00  0.1010561625879E-01  0.6855576031891E-01  0.1026579852687E+00
 0.1405714416080E+00  0.1421577919727E-01  0.7274999359394E-01  0.7991291006281E-01
 0.1391495112633E+00  0.1721919361524E-01  0.7349329110650E-01  0.5412490622326E-01
-0.1959897617969E-01 -0.1642561743653E+01 -0.7812155363399E+00 -0.2239247034388E+00
-0.3945969526770E-01 -0.1513105121658E+01 -0.7297054621044E+00 -0.2333515768584E+00
-0.6408570790608E-01 -0.1368719726317E+01 -0.6734185523766E+00 -0.2341191291292E+00
-0.8988897556630E-01 -0.1218837588068E+01 -0.6151014833479E+00 -0.2299095268972E+00
-0.1149501560573E+00 -0.1070543875026E+01 -0.5571821931959E+00 -0.2189061385387E+00
-0.1352585590059E+00 -0.9242791780045E+00 -0.4979827351318E+00 -0.1998534272525E+00
-0.1486539546177E+00 -0.7819545095798E+00 -0.4373859770635E+00 -0.1727192596318E+00
-0.1532682717221E+00 -0.6458710358472E+00 -0.3755954736049E+00 -0.1383303058588E+00
-0.1477471757017E+00 -0.5186437608525E+00 -0.3132037393861E+00 -0.9823498167039E-01
-0.1313160934761E+00 -0.4028355569103E+00 -0.2510512750449E+00 -0.5461581575179E-01
-0.1039898471153E+00 -0.3007104935292E+00 -0.1902091596205E+00 -0.1019757692536E-01
-0.6677634771006E-01 -0.2139988747971E+00 -0.1319643542437E+00  0.3190467488775E-01
-0.2184296427566E-01 -0.1436830973988E+00 -0.7779724878967E-01  0.6842758282193E-01
 0.2743192676629E-01 -0.8980281885926E-01 -0.2931431920934E-01  0.9631124296796E-01
 0.7662796525194E-01 -0.5130044249531E-01  0.1190393566543E-01  0.1131607592495E+00
 0.1207944732443E+00 -0.2596722143822E-01  0.4456880823582E-01  0.1177697704512E+00
 0.1553829426831E+00 -0.1059775930833E-01  0.6804903601355E-01  0.1105616616799E+00
 0.1773719519942E+00 -0.1559207918104E-02  0.8263198950617E-01  0.9368472617818E-01
 0.1864373592006E+00  0.4497916787991E-02  0.8973957948704E-01  0.7053955085339E-01
 0.1849918887416E+00  0.9556172502206E-02  0.9143758855265E-01  0.4506217447236E-01
 0.1513207735222E-03 -0.1733620381657E+01 -0.8147304565487E+00 -0.2338897036180E+00
-0.2256308281252E-01 -0.1614525263566E+01 -0.7694315208465E+00 -0.2516236287326E+00
-0.4857702796603E-01 -0.1480459100052E+01 -0.7186469783460E+00 -0.2592244000032E+00
-0.7678271105880E-01 -0.1337797709480E+01 -0.6648527959671E+00 -0.2600993570756E+00
-0.1038641547517E+00 -0.1190899741726E+01 -0.6085390298010E+00 -0.2538966664613E+00
-0.1272839485090E+00 -0.1043081682924E+01 -0.5500718453783E+00 -0.2395822931027E+00
-0.1443777757679E+00 -0.8964484871818E+00 -0.4891883423456E+00 -0.2166284335802E+00
-0.1529930249636E+00 -0.7534971080653E+00 -0.4260503614430E+00 -0.1853201759692E+00
-0.1512865592245E+00 -0.6169996281043E+00 -0.3610945071287E+00 -0.1467377864664E+00
-0.1378932082459E+00 -0.4898790377413E+00 -0.2950529548656E+00 -0.1027373289009E+00
-0.1121315770055E+00 -0.3749563532817E+00 -0.2289313266543E+00 -0.5590785526839E-01
-0.7428547047333E-01 -0.2746911994978E+00 -0.1640190344704E+00 -0.9473590412545E-02
-0.2590120755349E-01 -0.1909123904717E+00 -0.1019023908134E+00  0.3290151482574E-01
 0.2996136611434E-01 -0.1245520015524E+00 -0.4445759854314E-01  0.6744721260740E-01
 0.8864613780041E-01 -0.7539586028642E-01  0.6227630415778E-02  0.9079358710507E-01
 0.1441932885637E+00 -0.4187822857197E-01  0.4808807807412E-01  0.1006562326060E+00
 0.1902457549387E+00 -0.2102333144306E-01  0.7953453884122E-01  0.9660288457106E-01
 0.2216634727756E+00 -0.8724114545006E-02  0.1000814981145E+00  0.8057973097269E-01
 0.2360940876783E+00 -0.7666213397842E-03  0.1106039088986E+00  0.5667840180784E-01
 0.2345144516124E+00  0.5876134143808E-02  0.1129835750189E+00  0.2997487438730E-01
 0.2115204699767E-01 -0.1829420394621E+01 -0.8498861212274E+00 -0.2410807961191E+00
-0.3738709859864E-02 -0.1719670221959E+01 -0.8100021959004E+00 -0.2660662519929E+00
-0.3116667738720E-01 -0.1596228646090E+01 -0.7648758000941E+00 -0.2809942969970E+00
-0.6059856543427E-01 -0.1462205264569E+01 -0.7157177982863E+00 -0.2884111113931E+00
-0.8971073364092E-01 -0.1320904767079E+01 -0.6629892836570E+00 -0.2884030064770E+00
-0.1158890570202E+00 -0.1175043995176E+01 -0.6067385329934E+00 -0.2802085503783E+00
-0.1366700934757E+00 -0.1027124187210E+01 -0.5469833105350E+00 -0.2631087548555E+00
-0.1496389694094E+00 -0.8796245053193E+00 -0.4837538318955E+00 -0.2368916481496E+00
-0.1525866580332E+00 -0.7353559297524E+00 -0.4173330152007E+00 -0.2020550476144E+00
-0.1435928388917E+00 -0.5974165914111E+00 -0.3482744313590E+00 -0.1598995687573E+00
-0.1212433460270E+00 -0.4690449922265E+00 -0.2774355182755E+00 -0.1125817534994E+00
-0.8493169500782E-01 -0.3533804134487E+00 -0.2060066904521E+00 -0.6311343286989E-01
-0.3524730649276E-01 -0.2531737611905E+00 -0.1355579014673E+00 -0.1527090749587E-01
 0.2558588974766E-01 -0.1704649181107E+00 -0.6809314315791E-01  0.2663981186979E-01
 0.9330805273702E-01 -0.1062449770076E+00 -0.6080354391747E-02  0.5823022589876E-01
 0.1614665769515E+00 -0.6012148397942E-01  0.4763219357606E-01  0.7576453775982E-01
 0.2219371125269E+00 -0.3000221139248E-01  0.9020940330439E-01  0.7721311459876E-01
 0.2666266763650E+00 -0.1197600523480E-01  0.1196858151276E+00  0.6341613814397E-01
 0.2902551107158E+00 -0.8311323623060E-03  0.1360292694811E+00  0.3858618237332E-01
 0.2919459727278E+00  0.8002841090371E-02  0.1409759421370E+00  0.9053356166828E-02
 0.4395761420448E-01 -0.1928251834340E+01 -0.8856182812173E+00 -0.2455073773860E+00
 0.1733726950082E-01 -0.1827988414755E+01 -0.8510060361108E+00 -0.2764360052182E+00
-0.1112074013749E-01 -0.1715370342948E+01 -0.8114508069921E+00 -0.2983392807804E+00
-0.4150509002347E-01 -0.1591664768843E+01 -0.7675898317201E+00 -0.3128037331791E+00
-0.7211597724318E-01 -0.1458759100027E+01 -0.7195112844922E+00 -0.3199468068548E+00
-0.1007548055394E+00 -0.1318651443204E+01 -0.6671209352172E+00 -0.3191132509451E+00
-0.1250414256181E+00 -0.1173344387927E+01 -0.6102413308186E+00 -0.3094725559654E+00
-0.1425468932151E+00 -0.1025033398142E+01 -0.5487627355461E+00 -0.2904267955875E+00
-0.1508265312727E+00 -0.8762393541462E+00 -0.4827209649226E+00 -0.2618800223841E+00
-0.1475329675229E+00 -0.7299006473834E+00 -0.4123937979600E+00 -0.2244303666628E+00
-0.1305821215785E+00 -0.5893206832076E+00 -0.3383543173913E+00 -0.1795213831186E+00
-0.9842898885817E-01 -0.4580170596850E+00 -0.2615296421519E+00 -0.1295591949233E+00
-0.5046623342807E-01 -0.3394779105698E+00 -0.1832737472142E+00 -0.7796900266072E-01
 0.1243640600719E-01 -0.2368409602900E+00 -0.1054701402454E+00 -0.2913934852330E-01
 0.8726398131672E-01 -0.1525120524920E+00 -0.3066659337460E-01  0.1182956347085E-01
 0.1681598080082E+00 -0.8774585206528E-01  0.3779455919731E-01  0.3970158129003E-01
 0.2460554645488E+00 -0.4219508811961E-01  0.9581437667870E-01  0.5018268803265E-01
 0.3096419846624E+00 -0.1333124224879E-01  0.1392660485812E+00  0.4163339742233E-01
 0.3488609596250E+00  0.3948822411403E-02  0.1658205971365E+00  0.1692529558768E-01
 0.3600351609268E+00  0.1651844643310E-01  0.1769801950103E+00 -0.1650949093847E-01
 0.6828544422554E-01 -0.2029262205516E+01 -0.9216590754689E+00 -0.2471041936464E+00
 0.4063098992196E-01 -0.1938755968722E+01 -0.8921187377734E+00 -0.2826223143019E+00
 0.1150399217193E-01 -0.1837387263835E+01 -0.8581651355051E+00 -0.3106267068475E+00
-0.1944108341323E-01 -0.1725201378042E+01 -0.8199819548040E+00 -0.3319118479343E+00
-0.5109338145973E-01 -0.1603020989394E+01 -0.7774337523295E+00 -0.3464643917437E+00
-0.8166904132607E-01 -0.1471964547941E+01 -0.7302077851032E+00 -0.3536639849738E+00
-0.1090573949426E+00 -0.1333344711230E+01 -0.6779289881818E+00 -0.3526197778731E+00
-0.1309305779028E+00 -0.1188714900850E+01 -0.6202333734406E+00 -0.3424673336744E+00
-0.1448014056341E+00 -0.1039992616878E+01 -0.5568531891682E+00 -0.3226125216881E+00
-0.1480798148826E+00 -0.8895565514266E+00 -0.4876890909284E+00 -0.2929457041745E+00
-0.1381877204400E+00 -0.7402952172271E+00 -0.4128869796563E+00 -0.2540470288304E+00
-0.1127573648820E+00 -0.5955726583901E+00 -0.3329151100935E+00 -0.2073906793071E+00
-0.6995842665993E-01 -0.4591043280467E+00 -0.2486594940814E+00 -0.1555383177767E+00
-0.9004212699189E-02 -0.3347324125640E+00 -0.1615562134640E+00 -0.1022880900838E+00
 0.6909617612178E-01 -0.2260995126122E+00 -0.7379156796332E-01 -0.5271151478401E-01
 0.1604813114453E+00 -0.1362318370097E+00  0.1139725295585E-01 -0.1295013024939E-01
 0.2571042503751E+00 -0.6707302516605E-01  0.8931467562170E-01  0.1046654547479E-01
 0.3457082578319E+00 -0.1890823307074E-01  0.1535960112482E+00  0.1222881904487E-01
 0.4099255235717E+00  0.1101954256832E-01  0.1978441805840E+00 -0.8700140220897E-02
 0.4382700690476E+00  0.2986254978760E-01  0.2200223302945E+00 -0.4585646534790E-01
 0.9383552287297E-01 -0.2131574834367E+01 -0.9577374739732E+00 -0.2457691406824E+00
 0.6585988625027E-01 -0.2051152938574E+01 -0.9330877322256E+00 -0.2845532954776E+00
 0.3655827196723E-01 -0.1961378208207E+01 -0.9046653677382E+00 -0.3174915978822E+00
 0.5486305064491E-02 -0.1861616024714E+01 -0.8723809660225E+00 -0.3448122556751E+00
-0.2667255048062E-01 -0.1751922023621E+01 -0.8359394477076E+00 -0.3663570948477E+00
-0.5856409473517E-01 -0.1632692101780E+01 -0.7948904103458E+00 -0.3815354258714E+00
-0.8841534128013E-01 -0.1504536823682E+01 -0.7486875156334E+00 -0.3894727213199E+00
-0.1141420462077E+00 -0.1368293326268E+01 -0.6967446232964E+00 -0.3891892741809E+00
-0.1333836434231E+00 -0.1225100468361E+01 -0.6384875309191E+00 -0.3797753605203E+00
-0.1435272985699E+00 -0.1076501370534E+01 -0.5734134730244E+00 -0.3605680259361E+00
-0.1417529340439E+00 -0.9245365066309E+00 -0.5011560358461E+00 -0.3313435098791E+00
-0.1251350355177E+00 -0.7718078299145E+00 -0.4215631456839E+00 -0.2925383675090E+00
-0.9083976616066E-01 -0.6214918058432E+00 -0.3347958379927E+00 -0.2455060557917E+00
-0.3647847932339E-01 -0.4772815183300E+00 -0.2414671982846E+00 -0.1928046720331E+00
 0.3928560604655E-01 -0.3432357804235E+00 -0.1428565815948E+00 -0.1384911551104E+00
 0.1357077653690E+00 -0.2235279430344E+00 -0.4127548339805E-01 -0.8835599188061E-01
 0.2482594710515E+00 -0.1221032714110E+00  0.5929341368065E-01 -0.4993415506336E-01
 0.3657835195746E+00 -0.4244913606627E-01  0.1519671598635E+00 -0.3189096857211E-01
 0.4672625156729E+00  0.1279355573544E-01  0.2256263529897E+00 -0.4159742294767E-01
 0.5273460522537E+00  0.4596624809701E-01  0.2694567804814E+00 -0.7892369922894E-01
 0.1202502542494E+00 -0.2234372681709E+01 -0.9936375383856E+00 -0.2414201611719E+00
 0.9265950041711E-01 -0.2164289416871E+01 -0.9736660582636E+00 -0.2822358463146E+00
 0.6373612043339E-01 -0.2086325770718E+01 -0.9506171332224E+00 -0.3188124305576E+00
 0.3303921800592E-01 -0.1999533405354E+01 -0.9242522657095E+00 -0.3510182553126E+00
 0.9517615672330E-03 -0.1903510504444E+01 -0.8942026068842E+00 -0.3785893689042E+00
-0.3154811720344E-01 -0.1798152125476E+01 -0.8599591118782E+00 -0.4009871986999E+00
-0.6305466321762E-01 -0.1683537190976E+01 -0.8208981693888E+00 -0.4174290375975E+00
-0.9181015858034E-01 -0.1559905722666E+01 -0.7763064622169E+00 -0.4269720990789E+00
-0.1157234985635E+00 -0.1427694623288E+01 -0.7254065154305E+00 -0.4286143297174E+00
-0.1323613715184E+00 -0.1287605702376E+01 -0.6673845230374E+00 -0.4214081035016E+00
-0.1389374510750E+00 -0.1140690143660E+01 -0.6014249680000E+00 -0.4045954769136E+00
-0.1323206779218E+00 -0.9884352100822E+00 -0.5267552660258E+00 -0.3777791043407E+00
-0.1090903341133E+00 -0.8328420641621E+00 -0.4427082260666E+00 -0.3411457100687E+00
-0.6567991325053E-01 -0.6764809066916E+00 -0.3488155844881E+00 -0.2957605641448E+00
 0.1312618138140E-02 -0.5225079666644E+00 -0.2449618131860E+00 -0.2439516498677E+00
 0.9450198541360E-01 -0.3746246203456E+00 -0.1316576380841E+00 -0.1897977799817E+00
 0.2144301140801E+00 -0.2370081587491E+00 -0.1061168096755E-01 -0.1397146375249E+00
 0.3569788956824E+00 -0.1142423864399E+00  0.1140861590546E+00 -0.1030419788292E+00
 0.5065324579198E+00 -0.1265220488000E-01  0.2321237183399E+00 -0.9219902181361E-01
 0.6245739327759E+00  0.5756982591788E-01  0.3206075657729E+00 -0.1190997705430E+00
 0.1471464667795E+00 -0.2336909794950E+01 -0.1029188761630E+01 -0.2340205870547E+00
 0.1205844784387E+00 -0.2277344699237E+01 -0.1013677301204E+01 -0.2757704689245E+00
 0.9259359073962E-01 -0.2211276256703E+01 -0.9957808504771E+00 -0.3146997698063E+00
 0.6278048163110E-01 -0.2137692524978E+01 -0.9752086578995E+00 -0.3504690502337E+00
 0.3134068927073E-01 -0.2055974965418E+01 -0.9515781073756E+00 -0.3827524841429E+00
-0.1049578627514E-02 -0.1965742672498E+01 -0.9243923556842E+00 -0.4110770812522E+00
-0.3332705560820E-01 -0.1866758166461E+01 -0.8930400521076E+00 -0.4347919447816E+00
-0.6408697813094E-01 -0.1758890050057E+01 -0.8567992010753E+00 -0.4530916603072E+00
-0.9158523343882E-01 -0.1642115142875E+01 -0.8148391748006E+00 -0.4650617739638E+00
-0.1137105862960E+00 -0.1516546861090E+01 -0.7662209983278E+00 -0.4697376309080E+00
-0.1279379408973E+00 -0.1382479133507E+01 -0.7098960231693E+00 -0.4661792735286E+00
-0.1312722667132E+00 -0.1240438167642E+01 -0.6447039025119E+00 -0.4535718442901E+00
-0.1201929101152E+00 -0.1091234584643E+01 -0.5693709210923E+00 -0.4313666640038E+00
-0.9061327698285E-01 -0.9360073860438E+00 -0.4825117103987E+00 -0.3994852006734E+00
-0.3788272423851E-01 -0.7762455527321E+00 -0.3826402892057E+00 -0.3586189695532E+00
 0.4310564723999E-01 -0.6137684756860E+00 -0.2682115286894E+00 -0.3106772809797E+00
 0.1575785027482E+00 -0.4506136007316E+00 -0.1377264957029E+00 -0.2594711603875E+00
 0.3097966689404E+00 -0.2889031273767E+00  0.9819964510053E-02 -0.2117987112979E+00
 0.5005888115877E+00 -0.1302310139404E+00  0.1740681644527E+00 -0.1792975203635E+00
 0.7089745905420E+00  0.1731499168031E-01  0.3413561027787E+00 -0.1819668237740E+00
 0.1741499023555E+00 -0.2438509619322E+01 -0.1064249064275E+01 -0.2235684614420E+00
 0.1491946561921E+00 -0.2389556303638E+01 -0.1052969971629E+01 -0.2653275614953E+00
 0.1226340236156E+00 -0.2335365647687E+01 -0.1039983860676E+01 -0.3054334212868E+00
 0.9416516910851E-01 -0.2274995368787E+01 -0.1024990191249E+01 -0.3434386056723E+00
 0.6388087969475E-01 -0.2207775496228E+01 -0.1007630467215E+01 -0.3789864847061E+00
 0.3223635486887E-01 -0.2133217801852E+01 -0.9874612775775E+00 -0.4116627775881E+00
 0.7676744990803E-05 -0.2050948909180E+01 -0.9639423767995E+00 -0.4409411914014E+00
-0.3172791272943E-01 -0.1960674266840E+01 -0.9364290220225E+00 -0.4661753321874E+00
-0.6158328521797E-01 -0.1862167455070E+01 -0.9041628456423E+00 -0.4866124656472E+00
-0.8782576302931E-01 -0.1755277285626E+01 -0.8662584306706E+00 -0.5014193490076E+00
-0.1083168131896E+00 -0.1639946256185E+01 -0.8216836405218E+00 -0.5097187580289E+00
-0.1204271781751E+00 -0.1516234535942E+01 -0.7692310036841E+00 -0.5106407654301E+00
-0.1209247197710E+00 -0.1384343686303E+01 -0.7074761490602E+00 -0.5033976463787E+00
-0.1058281818881E+00 -0.1244632208159E+01 -0.6347163817120E+00 -0.4873974162186E+00
-0.7021492814699E-01 -0.1097610391987E+01 -0.5488778990709E+00 -0.4624209335381E+00
-0.7956031478767E-02 -0.9438863953567E+00 -0.4473659394780E+00 -0.4289061396154E+00
 0.8865756945032E-01 -0.7840191596157E+00 -0.3268199465488E+00 -0.3884215778498E+00
 0.2296052008080E+00 -0.6180657173144E+00 -0.1825764422949E+00 -0.3445095459291E+00
 0.4281112603193E+00 -0.4447633999218E+00 -0.7826505593319E-02 -0.3043319719994E+00
 0.7082473150958E+00 -0.2546050176820E+00  0.2132118792437E+00 -0.2831772916841E+00
 0.2008807490748E+00 -0.2538539281029E+01 -0.1098699507232E+01 -0.2100947453807E+00
 0.1779501277092E+00 -0.2500253778108E+01 -0.1091482712919E+01 -0.2511158042940E+00
 0.1531765108022E+00 -0.2457890187056E+01 -0.1083215425092E+01 -0.2913813316066E+00
 0.1263703231127E+00 -0.2410638289546E+01 -0.1073605941501E+01 -0.3304023739268E+00
 0.9757809446793E-01 -0.2357870417693E+01 -0.1062337389221E+01 -0.3678093219646E+00
 0.6710279812238E-01 -0.2299093417916E+01 -0.1049035588642E+01 -0.4032270709346E+00
 0.3549702177362E-01 -0.2233907590576E+01 -0.1033252964716E+01 -0.4362164131516E+00
 0.3561864171777E-02 -0.2161980856018E+01 -0.1014456923595E+01 -0.4662515672479E+00
-0.2763743005032E-01 -0.2083038824156E+01 -0.9920178369608E+00 -0.4927167053837E+00
-0.5673519662109E-01 -0.1996868224153E+01 -0.9651936053157E+00 -0.5149129245694E+00
-0.8200586488675E-01 -0.1903330753460E+01 -0.9331082082564E+00 -0.5320725677459E+00
-0.1012770476169E+00 -0.1802384837699E+01 -0.8947210838292E+00 -0.5433814347393E+00
-0.1118071032071E+00 -0.1694113002058E+01 -0.8487824473216E+00 -0.5480123805081E+00
-0.1101124707619E+00 -0.1578752252419E+01 -0.7937664178818E+00 -0.5451770544137E+00
-0.9171735286801E-01 -0.1456722495768E+01 -0.7277667270133E+00 -0.5342071630688E+00
-0.5077532836121E-01 -0.1328644000922E+01 -0.6483270831185E+00 -0.5146840140975E+00
 0.2055499497884E-01 -0.1195309988074E+01 -0.5521348453542E+00 -0.4866483834693E+00
 0.1332152346036E+00 -0.1057566534712E+01 -0.4344451099489E+00 -0.4509402864681E+00
 0.3038197802212E+00 -0.9156510779679E+00 -0.2875607092116E+00 -0.4097742464700E+00
 0.5619553050153E+00 -0.7670449094448E+00 -0.9639211383734E-01 -0.3671316123471E+00
 0.2270325259721E+00 -0.2636315932398E+01 -0.1132363198148E+01 -0.1936378425468E+00
 0.2063523868917E+00 -0.2608666655852E+01 -0.1129087703548E+01 -0.2333017834241E+00
 0.1835716437846E+00 -0.2577993319699E+01 -0.1125378184825E+01 -0.2728487100517E+00
 0.1585954050863E+00 -0.2543648746214E+01 -0.1120975067487E+01 -0.3117939940558E+00
 0.1314515519517E+00 -0.2505095693793E+01 -0.1115612743836E+01 -0.3497666846432E+00
 0.1023360750624E+00 -0.2461891710584E+01 -0.1108991145882E+01 -0.3864127841450E+00
 0.7162713766339E-01 -0.2413667978305E+01 -0.1100759192310E+01 -0.4213408579315E+00
 0.3989526229152E-01 -0.2360114037972E+01 -0.1090502821804E+01 -0.4540933382473E+00
 0.7921677129309E-02 -0.2300971763727E+01 -0.1077733537968E+01 -0.4841321573996E+00
-0.2326954075734E-01 -0.2236038960467E+01 -0.1061874992882E+01 -0.5108318270083E+00
-0.5236152507155E-01 -0.2165182084357E+01 -0.1042245493788E+01 -0.5334761107279E+00
-0.7767204877016E-01 -0.2088357751192E+01 -0.1018034003400E+01 -0.5512563215902E+00
-0.9705077729459E-01 -0.2005643320725E+01 -0.9882662235625E+00 -0.5632703334687E+00
-0.1077337459466E+00 -0.1917277612002E+01 -0.9517553358216E+00 -0.5685217966307E+00
-0.1061340328339E+00 -0.1823714058964E+01 -0.9070286008443E+00 -0.5659185807830E+00
-0.8753153336831E-01 -0.1725689464514E+01 -0.8522138668433E+00 -0.5542671902051E+00
-0.4560087769034E-01 -0.1624318524009E+01 -0.7848621168080E+00 -0.5322513097730E+00
 0.2833758707004E-01 -0.1521229565685E+01 -0.7016592281691E+00 -0.4983575603298E+00
 0.1465140411365E+00 -0.1418840390370E+01 -0.5979933826229E+00 -0.4505868081954E+00
 0.3240969969575E+00 -0.1322825098599E+01 -0.4694022065807E+00 -0.3854467603859E+00
 0.2523781582662E+00 -0.2731138878161E+01 -0.1165017535395E+01 -0.1742634443506E+00
 0.2340253282899E+00 -0.2713934455531E+01 -0.1165557286847E+01 -0.2120330134269E+00
 0.2133193552681E+00 -0.2694660571927E+01 -0.1166230368872E+01 -0.2500931394063E+00
 0.1902242544161E+00 -0.2672836472693E+01 -0.1166827739631E+01 -0.2879911909127E+00
 0.1647531890399E+00 -0.2648037475726E+01 -0.1167143611782E+01 -0.3253647886680E+00
 0.1370183426958E+00 -0.2619900323207E+01 -0.1166954527881E+01 -0.3618715730426E+00
 0.1072535226083E+00 -0.2588116617522E+01 -0.1166005651652E+01 -0.3971427856800E+00
 0.7582898348911E-01 -0.2552426024996E+01 -0.1164000606556E+01 -0.4307531811888E+00
 0.4326839306808E-01 -0.2512613990011E+01 -0.1160592427620E+01 -0.4622003856228E+00
 0.1027321175599E-01 -0.2468515696438E+01 -0.1155373964870E+01 -0.4908885111618E+00
-0.2224206642512E-01 -0.2420027002227E+01 -0.1147866459355E+01 -0.5161121740303E+00
-0.5310053834145E-01 -0.2367123027915E+01 -0.1137505073255E+01 -0.5370377136614E+00
-0.8079523591977E-01 -0.2309885623476E+01 -0.1123620001066E+01 -0.5526782835043E+00
-0.1033973993158E+00 -0.2248542054640E+01 -0.1105411540556E+01 -0.5618583772567E+00
-0.1184326365783E+00 -0.2183519168301E+01 -0.1081917345549E+01 -0.5631607638724E+00
-0.1227156273718E+00 -0.2115521479497E+01 -0.1051971437560E+01 -0.5548434243828E+00
-0.1121399721205E+00 -0.2045651794253E+01 -0.1014162127623E+01 -0.5347036359934E+00
-0.8144891281614E-01 -0.1975615987119E+01 -0.9668205005172E+00 -0.4998429328742E+00
-0.2432607012082E-01 -0.1908252676790E+01 -0.9083120087442E+00 -0.4462529963688E+00
 0.6646453510096E-01 -0.1847828085384E+01 -0.8372408665095E+00 -0.3682680113167E+00
 0.2767328650893E+00 -0.2822340385309E+01 -0.1196435531469E+01 -0.1520870749763E+00
 0.2606710251694E+00 -0.2815212497758E+01 -0.1200634489072E+01 -0.1874864947270E+00
 0.2420168569552E+00 -0.2806873824571E+01 -0.1205482771722E+01 -0.2233897023028E+00
 0.2207575812344E+00 -0.2796994329476E+01 -0.1210831268603E+01 -0.2593880022357E+00
 0.1968833489068E+00 -0.2785264178153E+01 -0.1216538986660E+01 -0.2951351234117E+00
 0.1704308053217E+00 -0.2771408515788E+01 -0.1222459520818E+01 -0.3302978627686E+00
 0.1415059088639E+00 -0.2755189720488E+01 -0.1228431388347E+01 -0.3645184270661E+00
 0.1102981412875E+00 -0.2736406319559E+01 -0.1234270840657E+01 -0.3973859830859E+00
 0.7709307223156E-01 -0.2714893100977E+01 -0.1239766010366E+01 -0.4284136095417E+00
 0.4228710467669E-01 -0.2690524553210E+01 -0.1244671597654E+01 -0.4570170378384E+00
 0.6406515650054E-02 -0.2663222718099E+01 -0.1248703611984E+01 -0.4824919335249E+00
-0.2986801963574E-01 -0.2632970274249E+01 -0.1251533994952E+01 -0.5039865246339E+00
-0.6567087713971E-01 -0.2599829888896E+01 -0.1252785356859E+01 -0.5204659127834E+00
-0.9991525110157E-01 -0.2563971517743E+01 -0.1252026778181E+01 -0.5306632198940E+00
-0.1312535173551E+00 -0.2525710514323E+01 -0.1248773091721E+01 -0.5330105524192E+00
-0.1580416045293E+00 -0.2485561812435E+01 -0.1242493602822E+01 -0.5255393791137E+00
-0.1783243904813E+00 -0.2444317505276E+01 -0.1232641687880E+01 -0.5057354204789E+00
-0.1899023946642E+00 -0.2403173534092E+01 -0.1218745683424E+01 -0.4703322775751E+00
-0.1904585807292E+00 -0.2363818337846E+01 -0.1200510148685E+01 -0.4150552579617E+00
-0.1778400465492E+00 -0.2328529854178E+01 -0.1177993850354E+01 -0.3343383152104E+00
 0.2999404853919E+00 -0.2909301872616E+01 -0.1226399848885E+01 -0.1272751885037E+00
 0.2860468345627E+00 -0.2911714623858E+01 -0.1234063857839E+01 -0.1598836429345E+00
 0.2693334246447E+00 -0.2913677529421E+01 -0.1242841726092E+01 -0.1930523060426E+00
 0.2497827207403E+00 -0.2914986108188E+01 -0.1252645588923E+01 -0.2264179424210E+00
 0.2273500665594E+00 -0.2915434015249E+01 -0.1263399452679E+01 -0.2596552477005E+00
 0.2019974672063E+00 -0.2914829825436E+01 -0.1275031205134E+01 -0.2924420525556E+00
 0.1737122469635E+00 -0.2913003222155E+01 -0.1287466755074E+01 -0.3244295922778E+00
 0.1425175589169E+00 -0.2909806749419E+01 -0.1300625916237E+01 -0.3552174200571E+00
 0.1084790702307E+00 -0.2905116681731E+01 -0.1314419674071E+01 -0.3843309990028E+00
 0.7171013453140E-01 -0.2898834886592E+01 -0.1328748630098E+01 -0.4111996736469E+00
 0.3237630001003E-01 -0.2890892635629E+01 -0.1343502674333E+01 -0.4351327105046E+00
-0.9301202183284E-02 -0.2881256888358E+01 -0.1358562299109E+01 -0.4552910391031E+00
-0.5304465053331E-01 -0.2869939432692E+01 -0.1373802515631E+01 -0.4706520669408E+00
-0.9852518356239E-01 -0.2857009278026E+01 -0.1389101193423E+01 -0.4799644257115E+00
-0.1453807321898E+00 -0.2842608813376E+01 -0.1404355082854E+01 -0.4816887720522E+00
-0.1932568794497E+00 -0.2826973606735E+01 -0.1419508324906E+01 -0.4739200672202E+00
-0.2418884934557E+00 -0.2810455895365E+01 -0.1434601859107E+01 -0.4542871254364E+00
-0.2912206745659E+00 -0.2793528676462E+01 -0.1449832191306E+01 -0.4198296449141E+00
-0.3415785054808E+00 -0.2776769746849E+01 -0.1465623674878E+01 -0.3668592516863E+00
-0.3938758143974E+00 -0.2760807857367E+01 -0.1482701321968E+01 -0.2908285759766E+00
 0.3218695592571E+00 -0.2991458757013E+01 -0.1254706919763E+01 -0.1000382966633E+00
 0.3099553218327E+00 -0.3002727702099E+01 -0.1265603015515E+01 -0.1294893542475E+00
 0.2950001542859E+00 -0.3014203745426E+01 -0.1278025684595E+01 -0.1594344787343E+00
 0.2769630925445E+00 -0.3025780379855E+01 -0.1291944121759E+01 -0.1895526108310E+00
 0.2557546495882E+00 -0.3037335787305E+01 -0.1307343131411E+01 -0.2195424815483E+00
 0.2312613388721E+00 -0.3048747964230E+01 -0.1324218710560E+01 -0.2490973967344E+00
 0.2033588486011E+00 -0.3059901564157E+01 -0.1342575072906E+01 -0.2778821533195E+00
 0.1719177986036E+00 -0.3070690230209E+01 -0.1362423039399E+01 -0.3055121951411E+00
 0.1368046108273E+00 -0.3081016867488E+01 -0.1383779757121E+01 -0.3315340285033E+00
 0.9787871688700E-01 -0.3090793239352E+01 -0.1406669821991E+01 -0.3554055882843E+00
 0.5498620424529E-01 -0.3099939541575E+01 -0.1431128064915E+01 -0.3764752156562E+00
 0.7948936621569E-02 -0.3108384127328E+01 -0.1457204535936E+01 -0.3939579785215E+00
-0.4345300943974E-01 -0.3116063204431E+01 -0.1484972616753E+01 -0.4069081804142E+00
-0.9950928375729E-01 -0.3122919990512E+01 -0.1514541755065E+01 -0.4141871081380E+00
-0.1606231481413E+00 -0.3128902213283E+01 -0.1546076915948E+01 -0.4144255022076E+00
-0.2273794914917E+00 -0.3133956167075E+01 -0.1579827755519E+01 -0.4059811297826E+00
-0.3006438461425E+00 -0.3138011235881E+01 -0.1616167884452E+01 -0.3868933792371E+00
-0.3817059583755E+00 -0.3140953994149E+01 -0.1655650173487E+01 -0.3548370409866E+00
-0.4724412003343E+00 -0.3142559135698E+01 -0.1699050153626E+01 -0.3070713192676E+00
-0.5754434528656E+00 -0.3142367567444E+01 -0.1747371175114E+01 -0.2403827285028E+00
 0.3424116045583E+00 -0.3068303481790E+01 -0.1281169179049E+01 -0.7062263653071E-01
 0.3322382486417E+00 -0.3087617398215E+01 -0.1295028197015E+01 -0.9660553187390E-01
 0.3188030914979E+00 -0.3107683079527E+01 -0.1310773591049E+01 -0.1229231498555E+00
 0.3020312918046E+00 -0.3128465717153E+01 -0.1328424176544E+01 -0.1492926067898E+00
 0.2817826387400E+00 -0.3149906166886E+01 -0.1348018054810E+01 -0.1754392121652E+00
 0.2578689888212E+00 -0.3171933316228E+01 -0.1369610230408E+01 -0.2010776952120E+00
 0.2300624864077E+00 -0.3194469958366E+01 -0.1393271508287E+01 -0.2258946945021E+00
 0.1980970347196E+00 -0.3217434388509E+01 -0.1419088552682E+01 -0.2495325627459E+00
 0.1616645590475E+00 -0.3240739337020E+01 -0.1447165141976E+01 -0.2715739872548E+00
 0.1204067454194E+00 -0.3264289196157E+01 -0.1477624748099E+01 -0.2915267915647E+00
 0.7390218848318E-01 -0.3287975937204E+01 -0.1510614658067E+01 -0.3088083656619E+00
 0.2164817771270E-01 -0.3311673690898E+01 -0.1546311987275E+01 -0.3227293921041E+00
-0.3696433815790E-01 -0.3335231600328E+01 -0.1584932087068E+01 -0.3324769049981E+00
-0.1026847444922E+00 -0.3358464159992E+01 -0.1626739980982E+01 -0.3370973096911E+00
-0.1764485720394E+00 -0.3381137840630E+01 -0.1672065609714E+01 -0.3354809175796E+00
-0.2594381869341E+00 -0.3402951912798E+01 -0.1721323342508E+01 -0.3263509239750E+00
-0.3531640344091E+00 -0.3423512617112E+01 -0.1775038021713E+01 -0.3082613227030E+00
-0.4595715315973E+00 -0.3442296719980E+01 -0.1833878073590E+01 -0.2796095006679E+00
-0.5812277817093E+00 -0.3458634342975E+01 -0.1898735193786E+01 -0.2386674208060E+00
-0.7214902001452E+00 -0.3471592631735E+01 -0.1970748925985E+01 -0.1835913277706E+00
 0.3614794957167E+00 -0.3139388268016E+01 -0.1305617119669E+01 -0.3930222795962E-01
 0.3527714521884E+00 -0.3165831108277E+01 -0.1322138035008E+01 -0.6156291909720E-01
 0.3405762129677E+00 -0.3193450024429E+01 -0.1340850687986E+01 -0.8393016543996E-01
 0.3247809138830E+00 -0.3222258417097E+01 -0.1361814423057E+01 -0.1061568323714E+00
 0.3051933532156E+00 -0.3252237936641E+01 -0.1385110950697E+01 -0.1279978402927E+00
 0.2815547278622E+00 -0.3283348631363E+01 -0.1410843131067E+01 -0.1491961593946E+00
 0.2535444043493E+00 -0.3315533476632E+01 -0.1439134860323E+01 -0.1694702159597E+00
 0.2207784777071E+00 -0.3348718788102E+01 -0.1470131942157E+01 -0.1885025158658E+00
 0.1828032272058E+00 -0.3382811755351E+01 -0.1504004004414E+01 -0.2059291841033E+00
 0.1390841033939E+00 -0.3417695766455E+01 -0.1540947477730E+01 -0.2213302000282E+00
 0.8899039578479E-01 -0.3453223812888E+01 -0.1581189702028E+01 -0.2342202762076E+00
 0.3177541681563E-01 -0.3489209942098E+01 -0.1624994222761E+01 -0.2440406017178E+00
-0.3344810649945E-01 -0.3525418461702E+01 -0.1672667282812E+01 -0.2501520743126E+00
-0.1077376642405E+00 -0.3561550379679E+01 -0.1724565376268E+01 -0.2518312266467E+00
-0.1923553858134E+00 -0.3597226326974E+01 -0.1781103400492E+01 -0.2482708728540E+00
-0.2888065402317E+00 -0.3631965374703E+01 -0.1842762795346E+01 -0.2385886170426E+00
-0.3988800206520E+00 -0.3665158768737E+01 -0.1910098226168E+01 -0.2218480535069E+00
-0.5246943816233E+00 -0.3696042745642E+01 -0.1983746444783E+01 -0.1971004013611E+00
-0.6687415448298E+00 -0.3723660599794E+01 -0.2064429002737E+01 -0.1634630277320E+00
-0.8342802905473E+00 -0.3747063853933E+01 -0.2153231742444E+01 -0.1202746361217E+00
 0.3790051146024E+00 -0.3204327700258E+01 -0.1327901611890E+01 -0.6372112341848E-02
 0.3714596239018E+00 -0.3236899516063E+01 -0.1346756745900E+01 -0.2471323735030E-01
 0.3601933611479E+00 -0.3270945601305E+01 -0.1368053549404E+01 -0.4288381765207E-01
 0.3450562074885E+00 -0.3306506345940E+01 -0.1391881561542E+01 -0.6067269115088E-01
 0.3258065887760E+00 -0.3343583556980E+01 -0.1418355171459E+01 -0.7786838083589E-01
 0.3021221511730E+00 -0.3382149584185E+01 -0.1447612889844E+01 -0.9424924181413E-01
 0.2736031303966E+00 -0.3422150615008E+01 -0.1479817314014E+01 -0.1095755426379E+00
 0.2397696181798E+00 -0.3463506186848E+01 -0.1515156183431E+01 -0.1235829226596E+00
 0.2000541502017E+00 -0.3506105786116E+01 -0.1553844264939E+01 -0.1359770475265E+00
 0.1537903864595E+00 -0.3549803155606E+01 -0.1596125997450E+01 -0.1464294564466E+00
 0.1001984053040E+00 -0.3594408615138E+01 -0.1642278794457E+01 -0.1545747743186E+00
 0.3836706584100E-01 -0.3639679493365E+01 -0.1692616836643E+01 -0.1600096744615E+00
-0.3276591587212E-01 -0.3685308628058E+01 -0.1747495031215E+01 -0.1622942341396E+00
-0.1144350067915E+00 -0.3730910815984E+01 -0.1807312532121E+01 -0.1609566280455E+00
-0.2080669133064E+00 -0.3776007136126E+01 -0.1872514798484E+01 -0.1555024483954E+00
-0.3152958222847E+00 -0.3820007053382E+01 -0.1943592346634E+01 -0.1454303623132E+00
-0.4379675282773E+00 -0.3862188578584E+01 -0.2021073365099E+01 -0.1302564313706E+00
-0.5781172286623E+00 -0.3901673608310E+01 -0.2105501688037E+01 -0.1095512798847E+00
-0.7378995585451E+00 -0.3937400781960E+01 -0.2197391154464E+01 -0.8299843976523E-01
-0.9192152822377E+00 -0.3967941179824E+01 -0.2296963531343E+01 -0.5053543671377E-01
 0.3949350062099E+00 -0.3262799511079E+01 -0.1347896313870E+01  0.2785800672130E-01
 0.3882277847186E+00 -0.3300436891943E+01 -0.1368738276924E+01  0.1357930558494E-01
 0.3775569560575E+00 -0.3339717574508E+01 -0.1392215487141E+01 -0.2195415820680E-03
 0.3627387325308E+00 -0.3380688515590E+01 -0.1418436394440E+01 -0.1336642445903E-01
 0.3434867698060E+00 -0.3423353217900E+01 -0.1447537226933E+01 -0.2568828471322E-01
 0.3194247331015E+00 -0.3467679144607E+01 -0.1479679569655E+01 -0.3700588249746E-01
 0.2900895598587E+00 -0.3513600722430E+01 -0.1515050242566E+01 -0.4713045409034E-01
 0.2549291012698E+00 -0.3561018535194E+01 -0.1553862030003E+01 -0.5586187287126E-01
 0.2132955643383E+00 -0.3609795782791E+01 -0.1596355098624E+01 -0.6298822166283E-01
 0.1644358203854E+00 -0.3659752631278E+01 -0.1642798896953E+01 -0.6828684995271E-01
 0.1074793979261E+00 -0.3710658879891E+01 -0.1693494352228E+01 -0.7152711632524E-01
 0.4142499830002E-01 -0.3762225218041E+01 -0.1748776098843E+01 -0.7247510925531E-01
-0.3487338754609E-01 -0.3814093274461E+01 -0.1809014326555E+01 -0.7090068163619E-01
-0.1227191823961E+00 -0.3865824666384E+01 -0.1874615604172E+01 -0.6658708799888E-01
-0.2235823048627E+00 -0.3916889315288E+01 -0.1946021656535E+01 -0.5934331925856E-01
-0.3391007995835E+00 -0.3966653408731E+01 -0.2023704472775E+01 -0.4901877565830E-01
-0.4710684020586E+00 -0.4014367156246E+01 -0.2108154707056E+01 -0.3551903916361E-01
-0.6213953667414E+00 -0.4059151493462E+01 -0.2199857018716E+01 -0.1881915070482E-01
-0.7920096493837E+00 -0.4099975667241E+01 -0.2299233092982E+01  0.1033708946148E-02
-0.9845151664446E+00 -0.4135532129062E+01 -0.2406422222784E+01  0.2399147668051E-01
 0.4092254990592E+00 -0.3314542009644E+01 -0.1365498756512E+01  0.6307334960027E-01
 0.4030154676932E+00 -0.3356136363359E+01 -0.1387966817442E+01  0.5295137282550E-01
 0.3925954362131E+00 -0.3399408855952E+01 -0.1413202303693E+01  0.4363440019536E-01
 0.3777479954320E+00 -0.3444397053341E+01 -0.1441325053562E+01  0.3525096903700E-01
 0.3581485379400E+00 -0.3491089064231E+01 -0.1472482043622E+01  0.2793015565755E-01
 0.3333778200970E+00 -0.3539432216554E+01 -0.1506845562513E+01  0.2180202227662E-01
 0.3029267486785E+00 -0.3589336322223E+01 -0.1544612495648E+01  0.1699651430827E-01
 0.2661956919604E+00 -0.3640673373947E+01 -0.1586004506511E+01  0.1364088013532E-01
 0.2224901670612E+00 -0.3693274669861E+01 -0.1631268712179E+01  0.1185567968819E-01
 0.1710141194429E+00 -0.3746926175647E+01 -0.1680678662153E+01  0.1174931807885E-01
 0.1108617949599E+00 -0.3801362693573E+01 -0.1734535417949E+01  0.1341097418162E-01
 0.4100912584474E-01 -0.3856261273440E+01 -0.1793168504822E+01  0.1690180715832E-01
-0.3969439705516E-01 -0.3911234228580E+01 -0.1856936449339E+01  0.2224444562079E-01
-0.1325322542886E+00 -0.3965822104487E+01 -0.1926226543739E+01  0.2941104279552E-01
-0.2389245239197E+00 -0.4019486971577E+01 -0.2001453397807E+01  0.3831070027379E-01
-0.3604271731103E+00 -0.4071606511615E+01 -0.2083055826537E+01  0.4877796085906E-01
-0.4987256140718E+00 -0.4121469430582E+01 -0.2171491665480E+01  0.6056572666253E-01
-0.6556250373754E+00 -0.4168275133614E+01 -0.2267233074615E+01  0.7334909327454E-01
-0.8330409112818E+00 -0.4211136345520E+01 -0.2370763304684E+01  0.8675636425472E-01
-0.1033289000230E+01 -0.4249287195789E+01 -0.2482810805832E+01  0.1004635334696E+00
 0.4218470565500E+00 -0.3359356163568E+01 -0.1380629276797E+01  0.9895627609051E-01
 0.4157953000681E+00 -0.3403761411862E+01 -0.1404344068981E+01  0.9304139989869E-01
 0.4052837153307E+00 -0.3449746531705E+01 -0.1430897520067E+01  0.8825773675916E-01
 0.3900651281538E+00 -0.3497322511148E+01 -0.1460410966303E+01  0.8468493534057E-01
 0.3697835521906E+00 -0.3546446543247E+01 -0.1493031602010E+01  0.8240210793778E-01
 0.3439887404030E+00 -0.3597032062789E+01 -0.1528930357644E+01  0.8148399470462E-01
 0.3121433617874E+00 -0.3648953315186E+01 -0.1568300674120E+01  0.8199554041409E-01
 0.2736251167334E+00 -0.3702046147232E+01 -0.1611357880247E+01  0.8398522770517E-01
 0.2277256077298E+00 -0.3756106413169E+01 -0.1658338974350E+01  0.8747729385775E-01
 0.1736473832152E+00 -0.3810886989965E+01 -0.1709502610837E+01  0.9246281570439E-01
 0.1105002211858E+00 -0.3866094142592E+01 -0.1765129138584E+01  0.9888959625388E-01
 0.3729747119662E-01 -0.3921383790496E+01 -0.1825520565440E+01  0.1066508411924E+00
-0.4704697514833E-01 -0.3976358108995E+01 -0.1891000384751E+01  0.1155727774553E+00
-0.1437208540507E+00 -0.4030562819556E+01 -0.1961913321619E+01  0.1254016611487E+00
-0.2540152083308E+00 -0.4083485475401E+01 -0.2038625316183E+01  0.1357910862865E+00
-0.3793269941021E+00 -0.4134554962062E+01 -0.2121524514016E+01  0.1462911939279E+00
-0.5211669852910E+00 -0.4183143062337E+01 -0.2211025716777E+01  0.1563422688880E+00
-0.6811811984436E+00 -0.4228568137134E+01 -0.2307582181869E+01  0.1652760497267E+00
-0.8612357380711E+00 -0.4270125334037E+01 -0.2411739697774E+01  0.1723259790604E+00
-0.1063495957974E+01 -0.4307047253450E+01 -0.2524155302967E+01  0.1766094375521E+00
 0.4327782100698E+00 -0.3397106102387E+01 -0.1393234105855E+01  0.1351885318051E+00
 0.4265538697051E+00 -0.3443157160709E+01 -0.1417803543176E+01  0.1334880184020E+00
 0.4156180434431E+00 -0.3490557931894E+01 -0.1445221743906E+01  0.1332331225080E+00
 0.3996986077680E+00 -0.3539276080957E+01 -0.1475601408656E+01  0.1344477856557E+00
 0.3784153363064E+00 -0.3589222683424E+01 -0.1509079449318E+01  0.1371552077376E+00
 0.3512986084007E+00 -0.3640264775674E+01 -0.1545814094698E+01  0.1413697029360E+00
 0.3178003114787E+00 -0.3692231677845E+01 -0.1585982738169E+01  0.1470869107403E+00
 0.2772994903275E+00 -0.3744917219993E+01 -0.1629780328809E+01  0.1542732824915E+00
 0.2291049074337E+00 -0.3798079646771E+01 -0.1677418123234E+01  0.1628551330194E+00
 0.1724561483338E+00 -0.3851440500102E+01 -0.1729122640945E+01  0.1727072543402E+00
 0.1065244317421E+00 -0.3904683376466E+01 -0.1785134699492E+01  0.1836410025395E+00
 0.3041383642089E-01 -0.3957453185393E+01 -0.1845708489335E+01  0.1953917998351E+00
-0.5683683280933E-01 -0.4009356356124E+01 -0.1911110793951E+01  0.2076060871789E+00
-0.1562519881468E+00 -0.4059962319601E+01 -0.1981620719615E+01  0.2198278801865E+00
-0.2689184473837E+00 -0.4108806463811E+01 -0.2057530703043E+01  0.2314851850079E+00
-0.3959889480890E+00 -0.4155394695771E+01 -0.2139150307189E+01  0.2418765439199E+00
-0.5386945811055E+00 -0.4199208899520E+01 -0.2226814630246E+01  0.2501576537551E+00
-0.6983756712717E+00 -0.4239714305391E+01 -0.2320902283145E+01  0.2553264054250E+00
-0.8765136357000E+00 -0.4276347374856E+01 -0.2421844668819E+01  0.2561972095515E+00
-0.1074724147163E+01 -0.4308472996897E+01 -0.2530102651291E+01  0.2513555478792E+00
 0.4420032852192E+00 -0.3427717630000E+01 -0.1403285738488E+01  0.1714559926134E+00
 0.4352863470909E+00 -0.3474248793687E+01 -0.1428312346277E+01  0.1739351856532E+00
 0.4236073679435E+00 -0.3521770216476E+01 -0.1456136535117E+01  0.1781504300012E+00
 0.4066728832139E+00 -0.3570188914696E+01 -0.1486852531025E+01  0.1840615671307E+00
 0.3840842728482E+00 -0.3619354894310E+01 -0.1520577188230E+01  0.1916303801988E+00
 0.3553631965642E+00 -0.3669077384463E+01 -0.1557445664362E+01  0.2008070920652E+00
 0.3199673408838E+00 -0.3719133056476E+01 -0.1597607882276E+01  0.2115156229779E+00
 0.2772999578507E+00 -0.3769269476546E+01 -0.1641225669624E+01  0.2236392640087E+00
 0.2267160901442E+00 -0.3819206273229E+01 -0.1688470381767E+01  0.2370071301618E+00
 0.1675275642315E+00 -0.3868635659511E+01 -0.1739520800369E+01  0.2513812659905E+00
 0.9900811305408E-01 -0.3917223341844E+01 -0.1794561152980E+01  0.2664441519600E+00
 0.2039939371416E-01 -0.3964610460385E+01 -0.1853779196633E+01  0.2817863635378E+00
-0.6908190032284E-01 -0.4010416984802E+01 -0.1917364471145E+01  0.2968941296880E+00
-0.1702362730996E+00 -0.4054246871237E+01 -0.1985507072802E+01  0.3111364223103E+00
-0.2838743176825E+00 -0.4095695258472E+01 -0.2058397695572E+01  0.3237508793515E+00
-0.4108125298783E+00 -0.4134357807480E+01 -0.2136230053140E+01  0.3338271975517E+00
-0.5518756584739E+00 -0.4169842338881E+01 -0.2219207453128E+01  0.3402855489416E+00
-0.7079036057918E+00 -0.4201777920507E+01 -0.2307550311508E+01  0.3418461308742E+00
-0.8797566703590E+00 -0.4229818526373E+01 -0.2401500336373E+01  0.3369879353100E+00
-0.1068318725152E+01 -0.4253646001781E+01 -0.2501323415314E+01  0.3239061855917E+00
 0.4495118941197E+00 -0.3451175389143E+01 -0.1410781839083E+01  0.2074528403137E+00
 0.4419957854104E+00 -0.3497037462047E+01 -0.1435869584377E+01  0.2140377477069E+00
 0.4292719880891E+00 -0.3543404973495E+01 -0.1463642499428E+01  0.2226123626311E+00
 0.4110258867299E+00 -0.3590105102859E+01 -0.1494167227791E+01  0.2330631074498E+00
 0.3868437231181E+00 -0.3636912010837E+01 -0.1527532091354E+01  0.2452861609980E+00
 0.3562476704551E+00 -0.3683567265153E+01 -0.1563840205542E+01  0.2591659091570E+00
 0.3187170291511E+00 -0.3729789269780E+01 -0.1603203949029E+01  0.2745539224970E+00
 0.2737012885749E+00 -0.3775277103883E+01 -0.1645740629021E+01  0.2912506213985E+00
 0.2206293572659E+00 -0.3819712225003E+01 -0.1691568943546E+01  0.3089896780813E+00
 0.1589177440562E+00 -0.3862760032148E+01 -0.1740805870988E+01  0.3274246106497E+00
 0.8797938982858E-01 -0.3904072358707E+01 -0.1793563690824E+01  0.3461169781388E+00
 0.7234141073450E-02 -0.3943291456029E+01 -0.1849946933337E+01  0.3645256631130E+00
-0.8387857703830E-01 -0.3980055781542E+01 -0.1910049143688E+01  0.3819967259817E+00
-0.1858845888617E+00 -0.4014007850553E+01 -0.1973949441518E+01  0.3977531048603E+00
-0.2992570797140E+00 -0.4044804484288E+01 -0.2041708929902E+01  0.4108828936979E+00
-0.4243959170261E+00 -0.4072130205194E+01 -0.2113367272083E+01  0.4203239339039E+00
-0.5616038016346E+00 -0.4095714741747E+01 -0.2188939709838E+01  0.4248409872690E+00
-0.7110625856289E+00 -0.4115358739265E+01 -0.2268418016946E+01  0.4229909620616E+00
-0.8728174812792E+00 -0.4130969954916E+01 -0.2351780089047E+01  0.4130747735174E+00
-0.1046793187867E+01 -0.4142614485863E+01 -0.2439021600467E+01  0.3930799415735E+00
 0.4552982865975E+00 -0.3467519763539E+01 -0.1415744090572E+01  0.2428857001604E+00
 0.4466928797508E+00 -0.3511596930011E+01 -0.1440504899969E+01  0.2534669598942E+00
 0.4326432890170E+00 -0.3555573707550E+01 -0.1467777292988E+01  0.2662398973524E+00
 0.4128077626353E+00 -0.3599175439499E+01 -0.1497592804327E+01  0.2810089314907E+00
 0.3867571648513E+00 -0.3642086405303E+01 -0.1530004739132E+01  0.2976032373848E+00
 0.3540223440453E+00 -0.3683973152772E+01 -0.1565076876132E+01  0.3158421136633E+00
 0.3141201322618E+00 -0.3724493215248E+01 -0.1602875344938E+01  0.3355056377931E+00
 0.2665684963737E+00 -0.3763297716377E+01 -0.1643462729233E+01  0.3563120773601E+00
 0.2108973211033E+00 -0.3800032468832E+01 -0.1686893515154E+01  0.3779009221337E+00
 0.1466585079206E+00 -0.3834339737951E+01 -0.1733210173718E+01  0.3998200848068E+00
 0.7343740553745E-01 -0.3865861579050E+01 -0.1782439357030E+01  0.4215161348276E+00
-0.9133217017361E-02 -0.3894245036215E+01 -0.1834587774366E+01  0.4423267902152E+00
-0.1013556289079E+00 -0.3919149222294E+01 -0.1889637275272E+01  0.4614751068740E+00
-0.2034446235741E+00 -0.3940254239626E+01 -0.1947538460764E+01  0.4780648021720E+00
-0.3154976904328E+00 -0.3957272094676E+01 -0.2008201793908E+01  0.4910758624292E+00
-0.4374537516754E+00 -0.3969960133103E+01 -0.2071484520592E+01  0.4993588982540E+00
-0.5690352251851E+00 -0.3978139494683E+01 -0.2137172112917E+01  0.5016253614633E+00
-0.7096705468100E+00 -0.3981725541461E+01 -0.2204956155895E+01  0.4964277755579E+00
-0.8584218515876E+00 -0.3980796583457E+01 -0.2274432658702E+01  0.4821174574844E+00
-0.1013945347398E+01 -0.3975701897998E+01 -0.2345134199388E+01  0.4567644292822E+00
 0.4593610241349E+00 -0.3476843199542E+01 -0.1418216618844E+01  0.2774781449906E+00
 0.4493972639986E+00 -0.3518069835235E+01 -0.1442276104823E+01  0.2919159862819E+00
 0.4337658722593E+00 -0.3558472395982E+01 -0.1468612062425E+01  0.3086770308112E+00
 0.4120823893232E+00 -0.3597649571218E+01 -0.1497216571693E+01  0.3274791822172E+00
 0.3838986976084E+00 -0.3635183755489E+01 -0.1528103973328E+01  0.3480880799479E+00
 0.3487628507321E+00 -0.3670663151509E+01 -0.1561293137405E+01  0.3702616963315E+00
 0.3062470477703E+00 -0.3703686034887E+01 -0.1596796319895E+01  0.3937103386578E+00
 0.2559619232401E+00 -0.3733859781085E+01 -0.1634611989041E+01  0.4180699533990E+00
 0.1975666116241E+00 -0.3760799946969E+01 -0.1674719663364E+01  0.4428848736858E+00
 0.1307789945448E+00 -0.3784131350037E+01 -0.1717075602726E+01  0.4675969780657E+00
 0.5538811195444E-01 -0.3803491566464E+01 -0.1761608619151E+01  0.4915393534254E+00
-0.2873019780787E-01 -0.3818536575481E+01 -0.1808215378860E+01  0.5139334638730E+00
-0.1215933434646E+00 -0.3828947972563E+01 -0.1856754413824E+01  0.5338895011967E+00
-0.2230857864978E+00 -0.3834441022274E+01 -0.1907037595286E+01  0.5504101331942E+00
-0.3329227062669E+00 -0.3834772622412E+01 -0.1958816799511E+01  0.5623983962841E+00
-0.4505963711238E+00 -0.3829748345339E+01 -0.2011762011635E+01  0.5686710348390E+00
-0.5752913148902E+00 -0.3819227041860E+01 -0.2065423622434E+01  0.5679789239167E+00
-0.7057443329615E+00 -0.3803123334860E+01 -0.2119167798501E+01  0.5590341979022E+00
-0.8400079623102E+00 -0.3781415306856E+01 -0.2172068930999E+01  0.5405306670866E+00
-0.9752119932309E+00 -0.3754303098148E+01 -0.2222872087310E+01  0.5111004889927E+00
 0.4617043456534E+00 -0.3479285356874E+01 -0.1418263071676E+01  0.3109763909532E+00
 0.4501438163254E+00 -0.3516660816147E+01 -0.1441262986261E+01  0.3291055028393E+00
 0.4327068249243E+00 -0.3552369977306E+01 -0.1466241677901E+01  0.3495941337495E+00
 0.4089386657308E+00 -0.3585857831520E+01 -0.1493152004134E+01  0.3720790872375E+00
 0.3783669465544E+00 -0.3616597590121E+01 -0.1521968398616E+01  0.3962734173262E+00
 0.3405688863807E+00 -0.3644101827325E+01 -0.1552660478306E+01  0.4218807214036E+00
 0.2951945449170E+00 -0.3667916853614E+01 -0.1585179481067E+01  0.4485430361977E+00
 0.2419756287443E+00 -0.3687615190940E+01 -0.1619450590125E+01  0.4758113131602E+00
 0.1807319696381E+00 -0.3702791161732E+01 -0.1655367816085E+01  0.5031297755726E+00
 0.1113799467260E+00 -0.3713060657601E+01 -0.1692789929818E+01  0.5298287782986E+00
 0.3394403625134E-01 -0.3718064506162E+01 -0.1731536616466E+01  0.5551232703106E+00
-0.5142841003048E-01 -0.3717474284612E+01 -0.1771384261989E+01  0.5781156447738E+00
-0.1444490501927E+00 -0.3710999094936E+01 -0.1812060623614E+01  0.5978030175142E+00
-0.2446662458430E+00 -0.3698391428803E+01 -0.1853237102383E+01  0.6130902055815E+00
-0.3514361497395E+00 -0.3679449611134E+01 -0.1894516302805E+01  0.6228112989590E+00
-0.4638807371596E+00 -0.3654012230928E+01 -0.1935409690092E+01  0.6257652921073E+00
-0.5808194247084E+00 -0.3621937587595E+01 -0.1975295790772E+01  0.6207753418977E+00
-0.7006327082218E+00 -0.3583046031778E+01 -0.2013329002693E+01  0.6067888403298E+00
-0.8209338321980E+00 -0.3536969742793E+01 -0.2048214675051E+01  0.5830473202238E+00
-0.9376569366699E+00 -0.3482775060687E+01 -0.2077603033488E+01  0.5493324045286E+00
 0.4623459437422E+00 -0.3475024206084E+01 -0.1415958779709E+01  0.3431572719808E+00
 0.4490027835377E+00 -0.3507618349424E+01 -0.1437549312320E+01  0.3647875944996E+00
 0.4295877122348E+00 -0.3537570667765E+01 -0.1460751985394E+01  0.3886854763767E+00
 0.4035353014529E+00 -0.3564149118834E+01 -0.1485488490402E+01  0.4144311073034E+00
 0.3703474713339E+00 -0.3586718820141E+01 -0.1511694530105E+01  0.4417059897509E+00
 0.3296507704141E+00 -0.3604728394245E+01 -0.1539286479297E+01  0.4701690256028E+00
 0.2812036078089E+00 -0.3617687116074E+01 -0.1568147244907E+01  0.4993936884371E+00
 0.2248936389448E+00 -0.3625147362185E+01 -0.1598119245870E+01  0.5288392071479E+00
 0.1607377000643E+00 -0.3626695684327E+01 -0.1629000248472E+01  0.5578398289645E+00
 0.8888688146681E-01 -0.3621951342258E+01 -0.1660540292360E+01  0.5856037878849E+00
 0.9635723259988E-02 -0.3610570241498E+01 -0.1692439219279E+01  0.6112179826909E+00
-0.7656634919886E-01 -0.3592251831026E+01 -0.1724344540332E+01  0.6336568823720E+00
-0.1691036341087E+00 -0.3566746467620E+01 -0.1755849543359E+01  0.6517958735224E+00
-0.2671854873503E+00 -0.3533860371438E+01 -0.1786491549099E+01  0.6644308623297E+00
-0.3698435639070E+00 -0.3493453993541E+01 -0.1815749847395E+01  0.6703081475795E+00
-0.4759400368952E+00 -0.3445427687170E+01 -0.1843042825636E+01  0.6681723412723E+00
-0.5841887476628E+00 -0.3389678960269E+01 -0.1867717817991E+01  0.6568478026188E+00
-0.6932016519737E+00 -0.3326013373902E+01 -0.1889031057370E+01  0.6353847995129E+00
-0.8015261852238E+00 -0.3253914341159E+01 -0.1906057042565E+01  0.6033523203680E+00
-0.9071814076390E+00 -0.3171672107749E+01 -0.1917061147370E+01  0.5615365622523E+00
 0.4613320605699E+00 -0.3464265612327E+01 -0.1411378765746E+01  0.3738368042188E+00
 0.4461320773585E+00 -0.3491179760331E+01 -0.1431172407367E+01  0.3987376349070E+00
 0.4246692673985E+00 -0.3514298489029E+01 -0.1452125730483E+01  0.4256457596065E+00
 0.3962282783960E+00 -0.3532701592220E+01 -0.1474142453758E+01  0.4541378655349E+00
 0.3602975086177E+00 -0.3545662597273E+01 -0.1497121587871E+01  0.4838966829594E+00
 0.3165869579453E+00 -0.3552591983172E+01 -0.1520922357999E+01  0.5145474525086E+00
 0.2650046578186E+00 -0.3552987345404E+01 -0.1545351859245E+01  0.5455915893697E+00
 0.2056359612332E+00 -0.3546403360885E+01 -0.1570160673854E+01  0.5763859839688E+00
 0.1387352025533E+00 -0.3532438483025E+01 -0.1595040537776E+01  0.6061426417752E+00
 0.6472696029783E-01 -0.3510734196212E+01 -0.1619623396772E+01  0.6339372976749E+00
-0.1578743276284E-01 -0.3480982064147E+01 -0.1643481659379E+01  0.6587221723856E+00
-0.1020231892493E+00 -0.3442934845038E+01 -0.1666130271889E+01  0.6793411810065E+00
-0.1930107608672E+00 -0.3396418322294E+01 -0.1687031664807E+01  0.6945475504264E+00
-0.2876078336521E+00 -0.3341340959952E+01 -0.1705605928668E+01  0.7030248847169E+00
-0.3845378842494E+00 -0.3277698473983E+01 -0.1721251084003E+01  0.7034138113056E+00
-0.4824772439543E+00 -0.3205567687353E+01 -0.1733381113318E+01  0.6943482829449E+00
-0.5802415243351E+00 -0.3125088094333E+01 -0.1741504916357E+01  0.6745093790877E+00
-0.6771436242308E+00 -0.3036400786159E+01 -0.1745365868456E+01  0.6427154887780E+00
-0.7738859254467E+00 -0.2939662275625E+01 -0.1745367650077E+01  0.5980762239311E+00
-0.8751658162653E+00 -0.2835386576693E+01 -0.1743959620267E+01  0.5403762804241E+00
 0.4587404122205E+00 -0.3447228754743E+01 -0.1404589517423E+01  0.4028511797841E+00
 0.4417726316592E+00 -0.3467525519122E+01 -0.1422103853501E+01  0.4307071305665E+00
 0.4183391164679E+00 -0.3482622852989E+01 -0.1440213352512E+01  0.4601076244824E+00
 0.3875553757697E+00 -0.3491426104374E+01 -0.1458819238744E+01  0.4907133994420E+00
 0.3489303579160E+00 -0.3493163855364E+01 -0.1477789740052E+01  0.5222516334422E+00
 0.3023093600525E+00 -0.3487255153852E+01 -0.1496924519289E+01  0.5543233081315E+00
 0.2477997476348E+00 -0.3473225950930E+01 -0.1515950311704E+01  0.5863504548732E+00
 0.1857285802746E+00 -0.3450665226242E+01 -0.1534520219713E+01  0.6175761360842E+00
 0.1166261045624E+00 -0.3419210828269E+01 -0.1552214816205E+01  0.6470823585738E+00
 0.4122505164879E-01 -0.3378553357409E+01 -0.1568544299729E+01  0.6738128358500E+00
-0.3953446488332E-01 -0.3328450815609E+01 -0.1582953077817E+01  0.6965959105103E+00
-0.1245017936763E+00 -0.3268747518728E+01 -0.1594827172785E+01  0.7141661761837E+00
-0.2123232028931E+00 -0.3199394255727E+01 -0.1603507201484E+01  0.7251841317424E+00
-0.3014720564664E+00 -0.3120468341127E+01 -0.1608311982790E+01  0.7282523754285E+00
-0.3903218982570E+00 -0.3032193976435E+01 -0.1608582457025E+01  0.7219245559586E+00
-0.4773034974525E+00 -0.2934969095124E+01 -0.1603768114443E+01  0.7046986074314E+00
-0.5612125442712E+00 -0.2829401688327E+01 -0.1593588685279E+01  0.6749768541018E+00
-0.6418768100089E+00 -0.2716431558147E+01 -0.1578404929030E+01  0.6309521663829E+00
-0.7212828287819E+00 -0.2597424589476E+01 -0.1559792482625E+01  0.5703297678499E+00
-0.8072365888272E+00 -0.2475880697927E+01 -0.1543065120861E+01  0.4892741697209E+00
 0.4546688269406E+00 -0.3424159509425E+01 -0.1395660617228E+01  0.4300222180074E+00
 0.4361461525995E+00 -0.3436859924675E+01 -0.1410335469298E+01  0.4603787045315E+00
 0.4109254084433E+00 -0.3442625811569E+01 -0.1424899185855E+01  0.4916012469068E+00
 0.3779436978151E+00 -0.3440264185317E+01 -0.1439290625475E+01  0.5235624245796E+00
 0.3367960116341E+00 -0.3429045656814E+01 -0.1453357329548E+01  0.5560798131685E+00
 0.2875271207445E+00 -0.3408472604479E+01 -0.1466844373635E+01  0.5887314622498E+00
 0.2304942457462E+00 -0.3378152379786E+01 -0.1479399319246E+01  0.6208469333760E+00
 0.1663021800210E+00 -0.3337745785037E+01 -0.1490578490577E+01  0.6515455571892E+00
 0.9578477240906E-01 -0.3286957108633E+01 -0.1499850994221E+01  0.6797814465312E+00
 0.2000475973038E-01 -0.3225550330861E+01 -0.1506606414610E+01  0.7043836986903E+00
-0.5973879647380E-01 -0.3153373266016E+01 -0.1510162665540E+01  0.7240894737497E+00
-0.1419067092238E+00 -0.3070383746687E+01 -0.1509776510449E+01  0.7375699164004E+00
-0.2247269066892E+00 -0.2976673806192E+01 -0.1504658331238E+01  0.7434474258310E+00
-0.3062237592735E+00 -0.2872493474368E+01 -0.1493997096022E+01  0.7402987317213E+00
-0.3842873018690E+00 -0.2758280087081E+01 -0.1477006669060E+01  0.7266306520398E+00
-0.4568088878172E+00 -0.2634702532550E+01 -0.1453010363887E+01  0.7008016806318E+00
-0.5219545796982E+00 -0.2502762980409E+01 -0.1421617249644E+01  0.6608350137215E+00
-0.5785893494233E+00 -0.2363949647513E+01 -0.1382993325052E+01  0.6040128326240E+00
-0.6273226567647E+00 -0.2220863689158E+01 -0.1338647579188E+01  0.5260149525991E+00
-0.6677726369740E+00 -0.2075241875829E+01 -0.1289216817747E+01  0.4192760610997E+00
 0.4492474396928E+00 -0.3395389589682E+01 -0.1384686806983E+01  0.4551524836962E+00
 0.4295047590308E+00 -0.3399449297285E+01 -0.1395873929439E+01  0.4873590458702E+00
 0.4027507339729E+00 -0.3394434822209E+01 -0.1406091517904E+01  0.5195543776019E+00
 0.3677822126751E+00 -0.3379211511550E+01 -0.1415371766881E+01  0.5519923148129E+00
 0.3243737697130E+00 -0.3353238659094E+01 -0.1423566494398E+01  0.5846132329503E+00
 0.2728407537625E+00 -0.3316197257849E+01 -0.1430377553293E+01  0.6169538217374E+00
 0.2138257817187E+00 -0.3267833380962E+01 -0.1435383568004E+01  0.6482273473301E+00
 0.1482314136047E+00 -0.3207902714778E+01 -0.1438045507904E+01  0.6774208510974E+00
 0.7720140767789E-01 -0.3136187723208E+01 -0.1437723564652E+01  0.7033726589905E+00
 0.2130750881603E-02 -0.3052528679747E+01 -0.1433687022930E+01  0.7248277745011E+00
-0.7532242196022E-01 -0.2956859037435E+01 -0.1425125282301E+01  0.7404759017986E+00
-0.1532237346939E+00 -0.2849229029443E+01 -0.1411152795565E+01  0.7489756248509E+00
-0.2293547620321E+00 -0.2729821737563E+01 -0.1390812951282E+01  0.7489632271483E+00
-0.3012102150695E+00 -0.2598965530183E+01 -0.1363082596812E+01  0.7390363310837E+00
-0.3659951789047E+00 -0.2457149972938E+01 -0.1326878218001E+01  0.7176912584925E+00
-0.4206137997214E+00 -0.2305064680361E+01 -0.1281068882390E+01  0.6831738284693E+00
-0.4615843387158E+00 -0.2143669975528E+01 -0.1224469524589E+01  0.6331678596091E+00
-0.4848690507787E+00 -0.1974441191424E+01 -0.1155875810903E+01  0.5641810849163E+00
-0.4847755320969E+00 -0.1799436099813E+01 -0.1073579464275E+01  0.4703780328206E+00
-0.4551919365637E+00 -0.1624071602360E+01 -0.9772538608156E+00  0.3420465749235E+00
 0.4426425820872E+00 -0.3361345704912E+01 -0.1371790464248E+01  0.4780139512041E+00
 0.4220955011376E+00 -0.3355643448573E+01 -0.1378767531798E+01  0.5111667762262E+00
 0.3940848273755E+00 -0.3338249377031E+01 -0.1383757334828E+01  0.5433049612466E+00
 0.3573573719528E+00 -0.3308394067812E+01 -0.1386987243536E+01  0.5752574706041E+00
 0.3120045688329E+00 -0.3265919005466E+01 -0.1388339781696E+01  0.6070754806305E+00
 0.2586560592710E+00 -0.3210801337507E+01 -0.1387508277252E+01  0.6381973280941E+00
 0.1982614539988E+00 -0.3142941518732E+01 -0.1383999626914E+01  0.6676803815892E+00
 0.1320077763435E+00 -0.3062185650885E+01 -0.1377183597541E+01  0.6943721483910E+00
 0.6133556955771E-01 -0.2968368733179E+01 -0.1366305583437E+01  0.7170142563598E+00
-0.1205330333192E-01 -0.2861386950670E+01 -0.1350516915956E+01  0.7342997373695E+00
-0.8616784560643E-01 -0.2741225401764E+01 -0.1328874822894E+01  0.7449035247939E+00
-0.1587015478957E+00 -0.2607967677123E+01 -0.1300334532460E+01  0.7474972153604E+00
-0.2269953916794E+00 -0.2461790949153E+01 -0.1263729576986E+01  0.7407451996180E+00
-0.2879740283697E+00 -0.2302954966224E+01 -0.1217736624370E+01  0.7232705031201E+00
-0.3380198368454E+00 -0.2131793397845E+01 -0.1160812217360E+01  0.6935688021566E+00
-0.3726990453245E+00 -0.1948710922351E+01 -0.1091062682040E+01  0.6498352736100E+00
-0.3862008516799E+00 -0.1754225582016E+01 -0.1006000421285E+01  0.5896487862169E+00
-0.3699999045849E+00 -0.1548966152927E+01 -0.9019140447431E+00  0.5094267033805E+00
-0.3106472431534E+00 -0.1334171267371E+01 -0.7730646979858E+00  0.4035695912659E+00
-0.1857087760091E+00 -0.1112520346369E+01 -0.6101676859702E+00  0.2626087659181E+00
 0.4350480124203E+00 -0.3322577105414E+01 -0.1357138670265E+01  0.4983236009831E+00
 0.4141747841216E+00 -0.3305827928867E+01 -0.1359076974583E+01  0.5312131935683E+00
 0.3851524853961E+00 -0.3274283660813E+01 -0.1357891649002E+01  0.5621160062531E+00
 0.3469278098577E+00 -0.3227987872154E+01 -0.1354098225845E+01  0.5926116615034E+00
 0.2999865939234E+00 -0.3167490632594E+01 -0.1347726894757E+01  0.6227455896146E+00
 0.2453354443979E+00 -0.3093070340415E+01 -0.1338435397733E+01  0.6517451429111E+00
 0.1841732946354E+00 -0.3004771387147E+01 -0.1325681100118E+01  0.6784585782593E+00
 0.1179649328744E+00 -0.2902431039070E+01 -0.1308699066593E+01  0.7015968845330E+00
 0.4839465283870E-01 -0.2785911357438E+01 -0.1286632847898E+01  0.7198291880914E+00
-0.2257907203311E-01 -0.2655139012458E+01 -0.1258527496519E+01  0.7318108613154E+00
-0.9269453047439E-01 -0.2510116547896E+01 -0.1223321203731E+01  0.7361940817038E+00
-0.1593439611229E+00 -0.2350902607213E+01 -0.1179815884125E+01  0.7316258934558E+00
-0.2195064416446E+00 -0.2177582856854E+01 -0.1126631967437E+01  0.7167287094052E+00
-0.2696213489659E+00 -0.1990236598403E+01 -0.1062133232570E+01  0.6900525791216E+00
-0.3053382745028E+00 -0.1788902738799E+01 -0.9842932737552E+00  0.6499871375206E+00
-0.3210314494349E+00 -0.1573558180952E+01 -0.8904571240235E+00  0.5946244778770E+00
-0.3088005280737E+00 -0.1344079607650E+01 -0.7768536618198E+00  0.5215797140323E+00
-0.2566438850522E+00 -0.1100320741201E+01 -0.6377733727212E+00  0.4278311946219E+00
-0.1443723117859E+00 -0.8418136295439E+00 -0.4635073912494E+00  0.3097231939795E+00
 0.6587829409311E-01 -0.5668155243633E+00 -0.2354404976298E+00  0.1629685088726E+00
 0.4267121305086E+00 -0.3279727748872E+01 -0.1340917337230E+01  0.5156898441417E+00
 0.4059062503048E+00 -0.3250409307242E+01 -0.1336916433370E+01  0.5467630898687E+00
 0.3761769147888E+00 -0.3202599625749E+01 -0.1328418670782E+01  0.5752153148425E+00
 0.3367078396946E+00 -0.3138264715392E+01 -0.1316731728238E+01  0.6033966960767E+00
 0.2886924032311E+00 -0.3058660440920E+01 -0.1301884974412E+01  0.6310578638361E+00
 0.2332435465594E+00 -0.2964505673708E+01 -0.1283693196504E+01  0.6570298490397E+00
 0.1719352155836E+00 -0.2855581082054E+01 -0.1261313554042E+01  0.6799360646254E+00
 0.1063977207035E+00 -0.2731723418574E+01 -0.1233903074869E+01  0.6984017223919E+00
 0.3850700985723E-01 -0.2592839723759E+01 -0.1200536372489E+01  0.7110499893963E+00
-0.2959882109732E-01 -0.2438943258124E+01 -0.1160214774291E+01  0.7164926930575E+00
-0.9547558694466E-01 -0.2270123020563E+01 -0.1111831342709E+01  0.7133201129095E+00
-0.1563259146746E+00 -0.2086522371753E+01 -0.1054138691947E+01  0.7000878368209E+00
-0.2089110429272E+00 -0.1888327621209E+01 -0.9857021696437E+00  0.6752927786970E+00
-0.2493850504202E+00 -0.1675779973619E+01 -0.9048275590034E+00  0.6373365788899E+00
-0.2729902085923E+00 -0.1449230725433E+01 -0.8094438369390E+00  0.5844860874003E+00
-0.2734950041575E+00 -0.1209260614913E+01 -0.6968951391955E+00  0.5148669335651E+00
-0.2422427253001E+00 -0.9569553195955E+00 -0.5636230796714E+00  0.4265919311727E+00
-0.1663198908779E+00 -0.6942560706208E+00 -0.4044707008785E+00  0.3182638185970E+00
-0.2588096989267E-01 -0.4250377910028E+00 -0.2119318170833E+00  0.1904037400439E+00
 0.2143690136606E+00 -0.1543961494432E+00  0.2818724611067E-01  0.4971377299514E-01
 0.4174366269836E+00 -0.3234133289491E+01 -0.1323847428021E+01  0.5295847339323E+00
 0.3971491662019E+00 -0.3190027150361E+01 -0.1312652649225E+01  0.5570518454113E+00
 0.3666352000186E+00 -0.3124006927369E+01 -0.1295964708568E+01  0.5820849073171E+00
 0.3267325908071E+00 -0.3040190486446E+01 -0.1275325207715E+01  0.6075172359318E+00
 0.2777925737389E+00 -0.2942104531305E+01 -0.1252226616880E+01  0.6320598315131E+00
 0.2220695046049E+00 -0.2828878358003E+01 -0.1225200157990E+01  0.6540782276618E+00
 0.1611158137715E+00 -0.2700273425168E+01 -0.1193404074330E+01  0.6721443167378E+00
 0.9673774825361E-01 -0.2556178185317E+01 -0.1155937002488E+01  0.6848763255531E+00
 0.3093081797811E-01 -0.2396713765640E+01 -0.1111917982581E+01  0.6908810544984E+00
-0.3404106885702E-01 -0.2222149071810E+01 -0.1060409363424E+01  0.6887263931940E+00
-0.9562136922393E-01 -0.2032894626584E+01 -0.1000402515492E+01  0.6769351959667E+00
-0.1509060535228E+00 -0.1829524109666E+01 -0.9308021743380E+00  0.6539842726984E+00
-0.1965464722830E+00 -0.1612844046081E+01 -0.8504135414740E+00  0.6183097299923E+00
-0.2285782643830E+00 -0.1384029743805E+01 -0.7579257619260E+00  0.5683330745391E+00
-0.2421369307099E+00 -0.1144861232398E+01 -0.6518891350073E+00  0.5025452502921E+00
-0.2310357983767E+00 -0.8981307631005E+00 -0.5307082825482E+00  0.4197312561475E+00
-0.1871472801938E+00 -0.6482790131091E+00 -0.3926503568564E+00  0.3195071976370E+00
-0.9993267724611E-01 -0.4026365178565E+00 -0.2362075210991E+00  0.2035492338789E+00
 0.4444864951882E-01 -0.1727720094431E+00 -0.6031197901142E-01  0.7831356755594E-01
 0.2554914441482E+00  0.1767711914516E-01  0.1283892244222E+00 -0.3829791260173E-01
 0.4068725423063E+00 -0.3187786946310E+01 -0.1307029766567E+01  0.5391363468215E+00
 0.3856298530169E+00 -0.3126397305646E+01 -0.1288160699468E+01  0.5610090603817E+00
 0.3581617015262E+00 -0.3036063855693E+01 -0.1258614009266E+01  0.5829926599729E+00
 0.3165932539929E+00 -0.2936076694243E+01 -0.1231157213795E+01  0.6056473947614E+00
 0.2673938804685E+00 -0.2820921610982E+01 -0.1200158030298E+01  0.6262327512869E+00
 0.2118021288978E+00 -0.2690206659438E+01 -0.1164850126400E+01  0.6433403155495E+00
 0.1516858182369E+00 -0.2543695226137E+01 -0.1124244418862E+01  0.6556471642267E+00
 0.8890487133373E-01 -0.2381691666082E+01 -0.1077609790798E+01  0.6618300245649E+00
 0.2557304509253E-01 -0.2204718413369E+01 -0.1024198320492E+01  0.6605054454845E+00
-0.3595335743620E-01 -0.2013523305349E+01 -0.9632540290661E+00  0.6502373087821E+00
-0.9303758118472E-01 -0.1809108513031E+01 -0.8940086620141E+00  0.6295566212710E+00
-0.1427135052928E+00 -0.1592819963585E+01 -0.8157007283038E+00  0.5969976346062E+00
-0.1815997884287E+00 -0.1366494240544E+01 -0.7276041917715E+00  0.5511624669769E+00
-0.2057712541291E+00 -0.1132685353055E+01 -0.6290746037809E+00  0.4908427202836E+00
-0.2105981090568E+00 -0.8950064901124E+00 -0.5196341602915E+00  0.4152510607396E+00
-0.1905954463993E+00 -0.6586242793370E+00 -0.3991332700837E+00  0.3244576530032E+00
-0.1395262887866E+00 -0.4310336780770E+00 -0.2681631837457E+00  0.2202089566079E+00
-0.5103689493793E-01 -0.2230100893517E+00 -0.1288020822894E+00  0.1074264957071E+00
 0.7742265202971E-01 -0.5108752324328E-01  0.1237751049823E-01 -0.2897468513011E-02
 0.2396891043452E+00  0.6391999295009E-01  0.1426962753669E+00 -0.8914334336625E-01
 0.3786470852342E+00 -0.3154972153970E+01 -0.1304872778996E+01  0.5406179010797E+00
 0.3821809378052E+00 -0.3041016866337E+01 -0.1249652883240E+01  0.5593988370285E+00
 0.3486714098701E+00 -0.2942635128141E+01 -0.1219162944495E+01  0.5798062897961E+00
 0.3074041229696E+00 -0.2828364942912E+01 -0.1184851582368E+01  0.5984670509508E+00
 0.2581324324308E+00 -0.2698284727340E+01 -0.1146871575698E+01  0.6140242464033E+00
 0.2032263514122E+00 -0.2552022094441E+01 -0.1103933996423E+01  0.6253791909408E+00
 0.1444218249537E+00 -0.2390214993977E+01 -0.1055522786764E+01  0.6313458133110E+00
 0.8372516108358E-01 -0.2213668392410E+01 -0.1001073316184E+01  0.6306574184763E+00
 0.2332634115616E-01 -0.2023445947722E+01 -0.9400562127018E+00  0.6219870160707E+00
-0.3435027440463E-01 -0.1820891264021E+01 -0.8719635208485E+00  0.6039832843829E+00
-0.8663159084890E-01 -0.1607712891469E+01 -0.7963419046695E+00  0.5753205398453E+00
-0.1305643189031E+00 -0.1386099911852E+01 -0.7128321866471E+00  0.5347756999344E+00
-0.1628756300327E+00 -0.1158884890896E+01 -0.6212274432608E+00  0.4813507038940E+00
-0.1799399066100E+00 -0.9297657912298E+00 -0.5215616766619E+00  0.4144700186319E+00
-0.1777953272627E+00 -0.7035990586252E+00 -0.4142553603166E+00  0.3342991901997E+00
-0.1523337514024E+00 -0.4867838166786E+00 -0.3003852562362E+00  0.2422554310383E+00
-0.9986416707735E-01 -0.2876731735799E+00 -0.1821425496469E+00  0.1418026206799E+00
-0.1886370677595E-01 -0.1171184841772E+00 -0.6391162958589E-01  0.3965824313350E-01
 0.8681029902512E-01  0.1224539674070E-01  0.4655617689185E-01 -0.5268911454154E-01
 0.1968487271506E+00  0.8545138665537E-01  0.1326810531523E+00 -0.1172266360278E+00
</DataArray>
<DataArray type="Float64" Name="S_Mises" NumberOfComponents="1" ComponentName0="S_Mises" format="ascii">
 0.1157274703978E+01
 0.1183907205008E+01
 0.1177301639242E+01
 0.1192420642813E+01
 0.1194391614778E+01
 0.1188478454599E+01
 0.1174448911548E+01
 0.1153498952577E+01
 0.1126405900337E+01
 0.1093844067951E+01
 0.1056310520072E+01
 0.1014157271384E+01
 0.9676008718395E+00
 0.9167360920715E+00
 0.8615468595069E+00
 0.8019163283317E+00
 0.7376358348067E+00
 0.6684165492868E+00
 0.5938926546151E+00
 0.5136325167191E+00
 0.4271386663690E+00
 0.3338413403561E+00
 0.2330669442045E+00
 0.1239306643572E+00
 0.5295948428027E-02
 0.1236507239640E+00
 0.2626746185810E+00
 0.4106164638501E+00
 0.5657106704954E+00
 0.7258970711886E+00
 0.8889115987313E+00
 0.1052134476581E+01
 0.1212209577747E+01
 0.1366014165933E+01
 0.1513338025946E+01
 0.1655691174445E+01
 0.1801486831604E+01
 0.1943324376080E+01
 0.2197783047359E+01
 0.2154689967606E+01
 0.3871573805165E+01
 0.1002226183650E+01
 0.1110270934256E+01
 0.1099652836574E+01
 0.1099520089846E+01
 0.1098011790062E+01
 0.1089548666324E+01
 0.1074792602517E+01
 0.1053913862311E+01
 0.1027466281862E+01
 0.9959135942451E+00
 0.9596450136289E+00
 0.9189440092027E+00
 0.8739898322543E+00
 0.8248603320953E+00
 0.7715380659397E+00
 0.7139172621180E+00
 0.6518111327768E+00
 0.5849605351863E+00
 0.5130404095024E+00
 0.4356661382533E+00
 0.3523981334855E+00
 0.2627353778110E+00
 0.1660949983921E+00
 0.6184259197083E-01
 0.5056742587676E-01
 0.1711532774105E+00
 0.2994882624664E+00
 0.4345011512823E+00
 0.5746417303586E+00
 0.7179812291191E+00
 0.8622256641443E+00
 0.1004696565976E+01
 0.1142516871474E+01
 0.1273098580245E+01
 0.1394220798260E+01
 0.1504839101160E+01
 0.1599735722522E+01
 0.1684657671263E+01
 0.1704628617452E+01
 0.1446878549999E+01
 0.2395365890574E+01
 0.8869317886136E+00
 0.1004437718843E+01
 0.1016669642319E+01
 0.1009756867485E+01
 0.1003926701408E+01
 0.9934175855221E+00
 0.9776572619501E+00
 0.9566685256767E+00
 0.9306721539262E+00
 0.8999798770198E+00
 0.8648695143132E+00
 0.8255587545189E+00
 0.7821876735355E+00
 0.7348152204317E+00
 0.6834202062699E+00
 0.6279054518209E+00
 0.5681031027049E+00
 0.5037824754632E+00
 0.4346564319791E+00
 0.3603883540126E+00
 0.2805996234958E+00
 0.1948714425954E+00
 0.1027667284161E+00
 0.4772479577917E-02
 0.1018998513300E+00
 0.2140994228880E+00
 0.3321501121722E+00
 0.4550048059112E+00
 0.5812353597502E+00
 0.7090100043345E+00
 0.8360774818283E+00
 0.9598483353598E+00
 0.1077627613392E+01
 0.1186528509293E+01
 0.1283118749628E+01
 0.1362227951988E+01
 0.1415918182553E+01
 0.1429724416368E+01
 0.1308319407226E+01
 0.1137947212575E+01
 0.2018134591964E+01
 0.7881434814353E+00
 0.8976752883535E+00
 0.9252708126728E+00
 0.9206243346688E+00
 0.9117090642543E+00
 0.8994366894690E+00
 0.8827420922177E+00
 0.8615338933748E+00
 0.8358730012207E+00
 0.8059325301309E+00
 0.7719004118717E+00
 0.7339329301152E+00
 0.6921331502463E+00
 0.6465408027963E+00
 0.5971297466181E+00
 0.5438095362317E+00
 0.4864292737758E+00
 0.4247848700261E+00
 0.3586256913413E+00
 0.2876635365993E+00
 0.2115853416958E+00
 0.1300750266657E+00
 0.4296642539996E-01
 0.5070539690316E-01
 0.1493850336564E+00
 0.2532762221432E+00
 0.3614704035960E+00
 0.4729187023533E+00
 0.5862684885284E+00
 0.6997771064849E+00
 0.8112861411516E+00
 0.9183159544830E+00
 0.1018159456063E+01
 0.1107570766669E+01
 0.1181941743766E+01
 0.1234125433359E+01
 0.1253483638443E+01
 0.1212495087588E+01
 0.1070628776109E+01
 0.1067937451321E+01
 0.1901827135374E+01
 0.6977994871590E+00
 0.7951880118227E+00
 0.8304585366482E+00
 0.8304826594008E+00
 0.8207785737713E+00
 0.8071857217543E+00
 0.7897315958222E+00
 0.7683020715038E+00
 0.7429154491058E+00
 0.7136581946840E+00
 0.6806482965952E+00
 0.6439916098533E+00
 0.6037583757869E+00
 0.5599706047966E+00
 0.5125969993529E+00
 0.4615527747635E+00
 0.4067025335530E+00
 0.3478673557093E+00
 0.2848325588021E+00
 0.2173606146481E+00
 0.1452171976722E+00
 0.6827714248589E-01
 0.1601686918483E-01
 0.1018438642129E+00
 0.1936163775854E+00
 0.2893706317281E+00
 0.3881662773263E+00
 0.4889546618375E+00
 0.5904436613930E+00
 0.6909858989791E+00
 0.7885433204581E+00
 0.8807393700124E+00
 0.9648348627363E+00
 0.1037298023566E+01
 0.1092912767942E+01
 0.1124013216884E+01
 0.1118555909478E+01
 0.1056599713754E+01
 0.9607807989322E+00
 0.1106193554437E+01
 0.1869831399665E+01
 0.6124180573877E+00
 0.6973655794129E+00
 0.7352931293820E+00
 0.7395952455958E+00
 0.7305929310854E+00
 0.7163524753236E+00
 0.6983607804460E+00
 0.6767782851482E+00
 0.6516534087377E+00
 0.6230433803205E+00
 0.5910214443189E+00
 0.5556561272317E+00
 0.5169913282963E+00
 0.4750341438080E+00
 0.4297489440596E+00
 0.3810563534668E+00
 0.3288358658820E+00
 0.2729336692023E+00
 0.2131737700843E+00
 0.1493834544647E+00
 0.8149378734935E-01
 0.1278590531475E-01
 0.6934594231118E-01
 0.1502457363605E+00
 0.2351257181748E+00
 0.3229867248357E+00
 0.4128711720730E+00
 0.5037462794649E+00
 0.5943845840998E+00
 0.6832470577744E+00
 0.7684344695417E+00
 0.8476907831696E+00
 0.9183067429990E+00
 0.9766866771207E+00
 0.1017680048279E+01
 0.1034149838470E+01
 0.1016735047521E+01
 0.9629055675980E+00
 0.9378554052119E+00
 0.1185221420645E+01
 0.1872339573093E+01
 0.5302686032891E+00
 0.6036578952210E+00
 0.6412590836967E+00
 0.6486448735107E+00
 0.6409716885399E+00
 0.6266861934789E+00
 0.6084225343510E+00
 0.5867905678305E+00
 0.5619516805810E+00
 0.5339792218075E+00
 0.5029293254964E+00
 0.4688475657613E+00
 0.4317593604089E+00
 0.3916608958778E+00
 0.3485141322163E+00
 0.3022461731962E+00
 0.2527530209864E+00
 0.1999112334897E+00
 0.1436039729086E+00
 0.8383238980217E-01
 0.2257947451055E-01
 0.5044826487853E-01
 0.1212680915141E+00
 0.1962892513439E+00
 0.2743913926285E+00
 0.3546577632492E+00
 0.4361427880374E+00
 0.5178513658571E+00
 0.5986354001230E+00
 0.6770814805265E+00
 0.7514513767774E+00
 0.8196517923352E+00
 0.8791171036797E+00
 0.9264824496785E+00
 0.9572409141594E+00
 0.9659962099785E+00
 0.9492875498150E+00
 0.9220623805210E+00
 0.9689292327395E+00
 0.1276526791804E+01
 0.1892227243085E+01
 0.4504020037255E+00
 0.5134171113920E+00
 0.5489990673827E+00
 0.5582310498117E+00
 0.5519637340938E+00
 0.5380370197897E+00
 0.5197583335454E+00
 0.4981975648610E+00
 0.4736912592327E+00
 0.4463667557050E+00
 0.4162879316015E+00
 0.3834923358096E+00
 0.3479956310561E+00
 0.3097884106499E+00
 0.2688340918854E+00
 0.2250710080918E+00
 0.1784223361554E+00
 0.1288300624494E+00
 0.7640958117497E-01
 0.2380107863986E-01
 0.4366050571333E-01
 0.1052400278181E+00
 0.1712206371575E+00
 0.2403424056026E+00
 0.3118437751798E+00
 0.3848548154907E+00
 0.4584698373497E+00
 0.5317553639851E+00
 0.6036626449954E+00
 0.6729249666639E+00
 0.7379944846896E+00
 0.7970006356444E+00
 0.8476620751196E+00
 0.8871309148310E+00
 0.9120531531154E+00
 0.9198013244813E+00
 0.9139258879099E+00
 0.9223045574687E+00
 0.1031052007808E+01
 0.1369362569460E+01
 0.1922564387801E+01
 0.3722571216981E+00
 0.4260836409942E+00
 0.4587415195172E+00
 0.4687804154116E+00
 0.4637128774957E+00
 0.4503506610878E+00
 0.4322633478430E+00
 0.4108939197539E+00
 0.3867782218435E+00
 0.3601260934038E+00
 0.3310301472367E+00
 0.2995344292171E+00
 0.2656548603344E+00
 0.2293847545451E+00
 0.1906995712370E+00
 0.1495713372376E+00
 0.1060220717381E+00
 0.6042613709080E-01
 0.1906616269766E-01
 0.4717672166715E-01
 0.1008279217246E+00
 0.1586192673758E+00
 0.2194404909986E+00
 0.2827472734429E+00
 0.3478694125929E+00
 0.4139932184299E+00
 0.4802778651924E+00
 0.5458754322130E+00
 0.6098588537403E+00
 0.6711323480340E+00
 0.7283738495617E+00
 0.7800050409412E+00
 0.8241697010224E+00
 0.8587833493059E+00
 0.8820453077664E+00
 0.8946226460955E+00
 0.9064639703974E+00
 0.9526090420342E+00
 0.1109777974188E+01
 0.1460170899976E+01
 0.1960153227493E+01
 0.2954818862277E+00
 0.3412153080978E+00
 0.3705269013547E+00
 0.3805799386574E+00
 0.3763942580902E+00
 0.3636526596749E+00
 0.3458975200319E+00
 0.3248254458722E+00
 0.3011628611606E+00
 0.2752192277382E+00
 0.2471335912350E+00
 0.2169720426760E+00
 0.1847665501626E+00
 0.1505367618139E+00
 0.1143255507507E+00
 0.7633502351430E-01
 0.3794667379821E-01
 0.2180646188771E-01
 0.5970938579249E-01
 0.1067947126436E+00
 0.1572914694428E+00
 0.2105396203418E+00
 0.2661908281321E+00
 0.3238182726184E+00
 0.3828144107196E+00
 0.4424377571056E+00
 0.5019344566397E+00
 0.5605649562875E+00
 0.6175468823104E+00
 0.6719815089223E+00
 0.7228110512083E+00
 0.7688191916268E+00
 0.8086980880021E+00
 0.8413143107977E+00
 0.8666498931967E+00
 0.8886408369929E+00
 0.9220385233584E+00
 0.1003854526746E+01
 0.1196675733378E+01
 0.1548148837193E+01
 0.2003323423904E+01
 0.2198466406770E+00
 0.2584877812613E+00
 0.2843410019344E+00
 0.2938501536086E+00
 0.2902178273584E+00
 0.2780616392182E+00
 0.2607225567751E+00
 0.2400388111360E+00
 0.2169010970819E+00
 0.1917282862327E+00
 0.1647272113333E+00
 0.1360190839401E+00
 0.1057196051746E+00
 0.7407731871921E-01
 0.4218320239250E-01
 0.2069633506112E-01
 0.4300311567177E-01
 0.8064669036284E-01
 0.1220799076540E+00
 0.1661441673174E+00
 0.2125689488110E+00
 0.2611771467526E+00
 0.3117254278462E+00
 0.3638424292515E+00
 0.4169873842493E+00
 0.4705070543537E+00
 0.5237540223965E+00
 0.5761182335934E+00
 0.6269845444609E+00
 0.6756777300587E+00
 0.7214423141446E+00
 0.7634860845058E+00
 0.8011441111801E+00
 0.8343462683391E+00
 0.8648892143496E+00
 0.8995198451133E+00
 0.9558567360387E+00
 0.1069095316669E+01
 0.1287061481508E+01
 0.1633481862458E+01
 0.2051091071545E+01
 0.1452079470639E+00
 0.1777270773479E+00
 0.2002518592443E+00
 0.2088854211743E+00
 0.2055407289754E+00
 0.1939140406568E+00
 0.1770648471549E+00
 0.1568938342209E+00
 0.1344406448379E+00
 0.1102752868440E+00
 0.8479553438457E-01
 0.5856543584190E-01
 0.3363769837141E-01
 0.2346896360025E-01
 0.4426457586842E-01
 0.7519140501383E-01
 0.1093752054740E+00
 0.1457832901921E+00
 0.1841898430392E+00
 0.2245294300663E+00
 0.2667463662489E+00
 0.3107311784402E+00
 0.3562821952227E+00
 0.4030802826752E+00
 0.4506621639650E+00
 0.4984774786068E+00
 0.5460022877746E+00
 0.5927751785938E+00
 0.6383694321582E+00
 0.6823584351823E+00
 0.7243231235338E+00
 0.7639440313799E+00
 0.8012576676984E+00
 0.8372854203566E+00
 0.8754901246798E+00
 0.9247145446633E+00
 0.1003623897756E+01
 0.1143345189305E+01
 0.1378430231754E+01
 0.1716653581748E+01
 0.2102805224969E+01
 0.7156260037294E-01
 0.9918880055823E-01
 0.1188498917588E+00
 0.1265780453984E+00
 0.1234682173673E+00
 0.1125142960010E+00
 0.9654366764939E-01
 0.7761783997854E-01
 0.5733481662948E-01
 0.3800662708076E-01
 0.2715771261872E-01
 0.3695435043984E-01
 0.5928367251307E-01
 0.8586761391899E-01
 0.1146495388356E+00
 0.1450960861923E+00
 0.1770594434765E+00
 0.2105163900681E+00
 0.2454839623952E+00
 0.2819769192282E+00
 0.3199754164865E+00
 0.3593980569965E+00
 0.4000815426081E+00
 0.4417670792343E+00
 0.4840803436794E+00
 0.5265867245871E+00
 0.5689005354376E+00
 0.6107259647592E+00
 0.6518438377154E+00
 0.6920983727426E+00
 0.7314342470093E+00
 0.7700360054724E+00
 0.8086604572078E+00
 0.8493676742652E+00
 0.8970041032419E+00
 0.9617065852643E+00
 0.1061737545159E+01
 0.1223160757143E+01
 0.1469500703222E+01
 0.1798184033274E+01
 0.2157987810006E+01
 0.8408429163799E-02
 0.2890500973407E-01
 0.4600336585279E-01
 0.5342207925795E-01
 0.5207168790594E-01
 0.4533310812164E-01
 0.3824501510774E-01
 0.3764782306675E-01
 0.4741173143645E-01
 0.6457585616177E-01
 0.8565696534644E-01
 0.1089705321429E+00
 0.1337952194898E+00
 0.1598179450860E+00
 0.1869119609511E+00
 0.2150452003719E+00
 0.2442367034206E+00
 0.2745301156867E+00
 0.3059742074182E+00
 0.3386035486889E+00
 0.3724179890882E+00
 0.4073646783024E+00
 0.4433261839464E+00
 0.4801141296945E+00
 0.5174537201438E+00
 0.5550371619678E+00
 0.5926296399044E+00
 0.6301155672911E+00
 0.6674997386300E+00
 0.7049152217374E+00
 0.7426889267474E+00
 0.7815212096790E+00
 0.8228688911371E+00
 0.8697105609352E+00
 0.9279178025673E+00
 0.1008165210049E+01
 0.1127314362904E+01
 0.1306219800309E+01
 0.1559664319920E+01
 0.1878538545528E+01
 0.2216256647092E+01
 0.7497165966923E-01
 0.6302272100263E-01
 0.5807284926673E-01
 0.5922856572463E-01
 0.6439568879710E-01
 0.7325259897676E-01
 0.8594253535750E-01
 0.1020272550326E+00
 0.1207119724257E+00
 0.1412558505334E+00
 0.1631220049984E+00
 0.1859669724412E+00
 0.2095909858525E+00
 0.2338938009556E+00
 0.2588432341771E+00
 0.2844534150868E+00
 0.3107687116150E+00
 0.3378492846980E+00
 0.3657578446163E+00
 0.3945449605849E+00
 0.4242335035944E+00
 0.4548064769180E+00
 0.4862015273189E+00
 0.5183102807940E+00
 0.5509666664002E+00
 0.5839990181930E+00
 0.6173339307347E+00
 0.6510482041701E+00
 0.6853838359046E+00
 0.7207755870189E+00
 0.7579410555158E+00
 0.7980885369001E+00
 0.8433200715323E+00
 0.8973658854342E+00
 0.9667441055274E+00
 0.1062036696301E+01
 0.1198119842795E+01
 0.1390977658928E+01
 0.1648672344166E+01
 0.1958102934874E+01
 0.2277286671060E+01
 0.1466338182370E+00
 0.1369018443318E+00
 0.1314842784156E+00
 0.1319705706658E+00
 0.1380987845476E+00
 0.1489504763443E+00
 0.1634827744822E+00
 0.1807084527338E+00
 0.1998016466699E+00
 0.2201427726488E+00
 0.2413053147868E+00
 0.2630167230736E+00
 0.2851184911996E+00
 0.3075345150884E+00
 0.3302480037535E+00
 0.3532845570866E+00
 0.3766989004405E+00
 0.4005625160928E+00
 0.4249523923783E+00
 0.4499390504681E+00
 0.4755748814085E+00
 0.5018868497273E+00
 0.5288763709402E+00
 0.5565234503689E+00
 0.5847784417185E+00
 0.6136134194639E+00
 0.6431248987916E+00
 0.6735916730465E+00
 0.7055026333799E+00
 0.7396013294707E+00
 0.7769941643815E+00
 0.8193714510007E+00
 0.8693990119535E+00
 0.9313679627476E+00
 0.1012087948048E+01
 0.1121575509622E+01
 0.1272459032236E+01
 0.1476415389113E+01
 0.1736457046777E+01
 0.2037180831522E+01
 0.2340789208017E+01
 0.2178938237448E+00
 0.2114750484100E+00
 0.2081891791828E+00
 0.2099251429543E+00
 0.2168844381016E+00
 0.2283311036922E+00
 0.2432049783434E+00
 0.2604737243822E+00
 0.2792898163923E+00
 0.2990267877439E+00
 0.3192552936261E+00
 0.3397008034898E+00
 0.3602038592088E+00
 0.3806891437574E+00
 0.4011428795784E+00
 0.4215962364127E+00
 0.4421124755966E+00
 0.4627754309329E+00
 0.4836796334040E+00
 0.5049206839202E+00
 0.5265870840044E+00
 0.5487572117551E+00
 0.5715037996432E+00
 0.5949022194425E+00
 0.6190254628366E+00
 0.6439953279884E+00
 0.6700847794149E+00
 0.6977816055724E+00
 0.7278275584874E+00
 0.7612761701176E+00
 0.7996109974304E+00
 0.8449635461086E+00
 0.9004649296432E+00
 0.9707733895922E+00
 0.1062686379632E+01
 0.1185335892865E+01
 0.1349064141374E+01
 0.1561867327900E+01
 0.1823028814312E+01
 0.2115990312450E+01
 0.2406497348882E+01
 0.2886924096430E+00
 0.2855734228421E+00
 0.2847643300324E+00
 0.2881216600481E+00
 0.2960463479586E+00
 0.3079970321813E+00
 0.3230289494196E+00
 0.3401615107785E+00
 0.3585615637611E+00
 0.3775981077919E+00
 0.3968302429120E+00
 0.4159717806387E+00
 0.4348547950000E+00
 0.4533998260072E+00
 0.4715934439969E+00
 0.4894716025617E+00
 0.5071069258476E+00
 0.5245978949929E+00
 0.5420602661516E+00
 0.5596196663109E+00
 0.5774066363649E+00
 0.5955573795601E+00
 0.6142222083943E+00
 0.6335774555692E+00
 0.6538235333834E+00
 0.6752363849307E+00
 0.6982700231481E+00
 0.7236256403793E+00
 0.7523000960488E+00
 0.7856524546829E+00
 0.8255233303377E+00
 0.8744338439903E+00
 0.9358745818080E+00
 0.1014690315742E+01
 0.1117426324838E+01
 0.1252142460788E+01
 0.1426993626019E+01
 0.1646910182278E+01
 0.1908425863098E+01
 0.2194640527091E+01
 0.2474146713233E+01
 0.3590502550619E+00
 0.3590687193368E+00
 0.3607665572346E+00
 0.3658680453298E+00
 0.3748632886111E+00
 0.3873653964804E+00
 0.4025572095304E+00
 0.4195337541368E+00
 0.4374932805298E+00
 0.4558087527722E+00
 0.4740307040054E+00
 0.4918615946514E+00
 0.5091244346083E+00
 0.5257350732000E+00
 0.5416803947933E+00
 0.5570018431633E+00
 0.5717829782945E+00
 0.5861394498236E+00
 0.6002117394774E+00
 0.6141599067514E+00
 0.6281615984016E+00
 0.6424161343711E+00
 0.6571563955232E+00
 0.6726639371245E+00
 0.6892700173025E+00
 0.7074076547747E+00
 0.7277146506218E+00
 0.7511074988614E+00
 0.7788368777430E+00
 0.8125579146971E+00
 0.8544416036258E+00
 0.9073409068631E+00
 0.9750012344654E+00
 0.1062297173524E+01
 0.1175346046086E+01
 0.1321051491591E+01
 0.1505553813900E+01
 0.1731273124537E+01
 0.1992750921174E+01
 0.2273060404315E+01
 0.2543374180924E+01
 0.4289988107824E+00
 0.4319722416674E+00
 0.4361270433671E+00
 0.4430192119312E+00
 0.4531651369007E+00
 0.4662901590963E+00
 0.4816907891170E+00
 0.4985399095843E+00
 0.5160744301866E+00
 0.5336780564190E+00
 0.5508974439385E+00
 0.5674264767902E+00
 0.5830806668927E+00
 0.5977722090231E+00
 0.6114893019346E+00
 0.6242801710910E+00
 0.6362411092235E+00
 0.6475073711174E+00
 0.6582472941059E+00
 0.6686591292654E+00
 0.6789717928994E+00
 0.6894519123978E+00
 0.7004187125281E+00
 0.7122619800776E+00
 0.7254459670343E+00
 0.7405622863029E+00
 0.7584335030111E+00
 0.7801909555908E+00
 0.8073346687189E+00
 0.8418022446345E+00
 0.8860639729455E+00
 0.9432450181858E+00
 0.1017248852000E+01
 0.1112851888451E+01
 0.1235627403873E+01
 0.1391308417229E+01
 0.1584243576665E+01
 0.1814775816973E+01
 0.2076140460821E+01
 0.2351374422377E+01
 0.2612923024332E+01
 0.4985688707697E+00
 0.5043181478960E+00
 0.5108510412327E+00
 0.5195429003722E+00
 0.5308959063450E+00
 0.5447109356103E+00
 0.5603778470861E+00
 0.5771414336538E+00
 0.5942792211540E+00
 0.6111902882234E+00
 0.6274219300550E+00
 0.6426629267615E+00
 0.6567237575129E+00
 0.6695147859187E+00
 0.6810270892114E+00
 0.6913172819196E+00
 0.7004962555153E+00
 0.7087211276624E+00
 0.7161907870207E+00
 0.7231447398633E+00
 0.7298663918067E+00
 0.7366927203338E+00
 0.7440317796387E+00
 0.7523832095417E+00
 0.7623449089399E+00
 0.7746668891340E+00
 0.7903553239275E+00
 0.8107532034988E+00
 0.8376019993808E+00
 0.8731043353320E+00
 0.9199956486843E+00
 0.9816148522290E+00
 0.1061938501090E+01
 0.1165547760794E+01
 0.1297404812992E+01
 0.1462117729953E+01
 0.1662449699797E+01
 0.1897151503895E+01
 0.2158239133489E+01
 0.2430219302512E+01
 0.2681683136960E+01
 0.5677935683979E+00
 0.5761574881318E+00
 0.5849865590308E+00
 0.5954730771642E+00
 0.6080777884915E+00
 0.6226465981194E+00
 0.6386417921317E+00
 0.6553707435587E+00
 0.6721504044846E+00
 0.6883979847419E+00
 0.7036652297907E+00
 0.7176392942602E+00
 0.7301283970652E+00
 0.7410432413615E+00
 0.7503795999466E+00
 0.7582041826611E+00
 0.7646442637068E+00
 0.7698808041895E+00
 0.7741454575755E+00
 0.7777213628599E+00
 0.7809487691709E+00
 0.7842370515891E+00
 0.7880845184166E+00
 0.7931012007143E+00
 0.8000181886989E+00
 0.8097424826779E+00
 0.8234612454175E+00
 0.8427241191462E+00
 0.8695040643429E+00
 0.9062495017608E+00
 0.9559269348084E+00
 0.1022035674443E+01
 0.1108555529109E+01
 0.1219803676346E+01
 0.1360105162355E+01
 0.1533010583906E+01
 0.1739935795051E+01
 0.1978276817632E+01
 0.2239641190227E+01
 0.2507729207562E+01
 0.2761182101154E+01
 0.6367053759564E+00
 0.6475499705642E+00
 0.6586042453682E+00
 0.6708809654161E+00
 0.6847806084656E+00
 0.7001691260723E+00
 0.7165616413906E+00
 0.7333175068000E+00
 0.7497899765851E+00
 0.7654156224315E+00
 0.7797536023604E+00
 0.7924926145588E+00
 0.8034413763582E+00
 0.8125131817916E+00
 0.8197103644941E+00
 0.8251113825568E+00
 0.8288614869831E+00
 0.8311671181761E+00
 0.8322944030868E+00
 0.8325718362856E+00
 0.8323980922603E+00
 0.8322561571340E+00
 0.8327351854944E+00
 0.8345553540658E+00
 0.8385797674321E+00
 0.8458702840459E+00
 0.8577916224911E+00
 0.8760941755473E+00
 0.9029716844267E+00
 0.9410992678921E+00
 0.9936429936710E+00
 0.1064216991866E+01
 0.1156750365329E+01
 0.1275252980520E+01
 0.1423412451555E+01
 0.1603812960957E+01
 0.1816700089538E+01
 0.2058478859018E+01
 0.2320210255491E+01
 0.2586770566709E+01
 0.2841111730971E+01
 0.7053343444682E+00
 0.7185454102473E+00
 0.7317621230684E+00
 0.7458232290813E+00
 0.7610559276036E+00
 0.7773260547794E+00
 0.7941840471778E+00
 0.8110305185824E+00
 0.8272508296758E+00
 0.8423010524427E+00
 0.8557500014427E+00
 0.8672907634471E+00
 0.8767352466901E+00
 0.8840016262636E+00
 0.8891006908424E+00
 0.8921242460544E+00
 0.8932369350538E+00
 0.8926719858176E+00
 0.8907312213887E+00
 0.8877895761115E+00
 0.8843049651313E+00
 0.8808343462183E+00
 0.8780574182332E+00
 0.8768033521676E+00
 0.8780651734569E+00
 0.8830564889921E+00
 0.8933150393576E+00
 0.9107849036316E+00
 0.9378690067269E+00
 0.9774502889436E+00
 0.1032865813439E+01
 0.1107806839960E+01
 0.1206112731815E+01
 0.1331463329998E+01
 0.1486931121381E+01
 0.1674225373591E+01
 0.1892610689460E+01
 0.2137685251425E+01
 0.2400293876084E+01
 0.2666641703266E+01
 0.2921401618368E+01
 0.7737093260503E+00
 0.7891915884821E+00
 0.8045176383330E+00
 0.8203587111502E+00
 0.8369596704756E+00
 0.8541700426389E+00
 0.8715602603910E+00
 0.8885619360348E+00
 0.9045878115668E+00
 0.9191128252200E+00
 0.9317170846242E+00
 0.9421005707844E+00
 0.9500809426143E+00
 0.9555835116195E+00
 0.9586293821457E+00
 0.9593252062717E+00
 0.9578562249600E+00
 0.9544834192987E+00
 0.9495450470154E+00
 0.9434629487377E+00
 0.9367543687675E+00
 0.9300497993408E+00
 0.9241183527179E+00
 0.9198962101761E+00
 0.9185033936592E+00
 0.9213012886058E+00
 0.9299952158787E+00
 0.9467150457253E+00
 0.9740609541194E+00
 0.1015105875404E+01
 0.1073333173040E+01
 0.1152481960938E+01
 0.1256276476392E+01
 0.1388061234770E+01
 0.1550329088491E+01
 0.1744011457120E+01
 0.1967545456679E+01
 0.2215905788849E+01
 0.2479938270587E+01
 0.2746835200579E+01
 0.3002182326715E+01
 0.8418581227962E+00
 0.8595340487514E+00
 0.8769266476288E+00
 0.8945464149263E+00
 0.9125496173538E+00
 0.9307564686168E+00
 0.9487441919292E+00
 0.9659658869883E+00
 0.9818567935933E+00
 0.9959095767940E+00
 0.1007716794033E+01
 0.1016987511831E+01
 0.1023547538715E+01
 0.1027331497733E+01
 0.1028372592143E+01
 0.1026793684433E+01
 0.1022801586660E+01
 0.1016685646590E+01
 0.1008820817108E+01
 0.9996757162044E+00
 0.9898263170975E+00
 0.9799754624274E+00
 0.9709797783163E+00
 0.9638797088965E+00
 0.9599186018483E+00
 0.9606009102447E+00
 0.9677933762516E+00
 0.9838032480188E+00
 0.1011416168895E+01
 0.1053878929030E+01
 0.1114800965310E+01
 0.1197948326515E+01
 0.1306916989024E+01
 0.1444724247382E+01
 0.1613328441520E+01
 0.1812976136274E+01
 0.2041409940306E+01
 0.2293136366647E+01
 0.2559071162730E+01
 0.2827105110065E+01
 0.3083482137879E+01
 0.9098075943812E+00
 0.9296161640611E+00
 0.9490430236837E+00
 0.9684445215388E+00
 0.9878840412309E+00
 0.1007142034013E+01
 0.1025791222978E+01
 0.1043297575300E+01
 0.1059114041836E+01
 0.1072749589144E+01
 0.1083810030429E+01
 0.1092015442314E+01
 0.1097202018371E+01
 0.1099315763142E+01
 0.1098403655195E+01
 0.1094605971550E+01
 0.1088151820331E+01
 0.1079359173049E+01
 0.1068639468744E+01
 0.1056507401087E+01
 0.1043596419105E+01
 0.1030679831468E+01
 0.1018699164891E+01
 0.1008795679816E+01
 0.1002331713220E+01
 0.1000949448885E+01
 0.1006670353435E+01
 0.1021970400337E+01
 0.1049809461131E+01
 0.1093594188003E+01
 0.1157044603481E+01
 0.1243940751512E+01
 0.1357747768904E+01
 0.1501174280863E+01
 0.1675694610973E+01
 0.1880957318585E+01
 0.2114125450082E+01
 0.2369347079946E+01
 0.2637612131252E+01
 0.2907315986201E+01
 0.3165268873122E+01
 0.9775837480981E+00
 0.9994792960201E+00
 0.1020918566984E+01
 0.1042109921646E+01
 0.1063020948466E+01
 0.1083383914573E+01
 0.1102757441460E+01
 0.1120612681539E+01
 0.1136415781629E+01
 0.1149690477265E+01
 0.1160056415462E+01
 0.1167246400908E+01
 0.1171109098879E+01
 0.1171603850721E+01
 0.1168792961976E+01
 0.1162835151799E+01
 0.1153982290852E+01
 0.1142580874330E+01
 0.1129078159686E+01
 0.1114033664447E+01
 0.1098136441012E+01
 0.1082227721746E+01
 0.1067330656660E+01
 0.1054683235772E+01
 0.1045761858409E+01
 0.1042340582858E+01
 0.1046588526428E+01
 0.1061141730202E+01
 0.1089123898342E+01
 0.1134089972180E+01
 0.1199859835338E+01
 0.1290221946184E+01
 0.1408516971940E+01
 0.1557171284895E+01
 0.1737228177893E+01
 0.1947818229451E+01
 0.2185620079806E+01
 0.2444496232911E+01
 0.2715492477366E+01
 0.2987381236403E+01
 0.3247485013266E+01
 0.1045211814898E+01
 0.1069162983544E+01
 0.1092603069915E+01
 0.1115598027890E+01
 0.1138017667390E+01
 0.1159539247291E+01
 0.1179699150475E+01
 0.1197966963219E+01
 0.1213817903280E+01
 0.1226788980251E+01
 0.1236514138631E+01
 0.1242740488637E+01
 0.1245331131760E+01
 0.1244260589115E+01
 0.1239607911762E+01
 0.1231551102365E+01
 0.1220364996880E+01
 0.1206424159707E+01
 0.1190210552590E+01
 0.1172326737318E+01
 0.1153514909146E+01
 0.1134681062195E+01
 0.1116926073021E+01
 0.1101579987223E+01
 0.1090227816832E+01
 0.1084769214184E+01
 0.1087513633630E+01
 0.1101248704822E+01
 0.1129252614290E+01
 0.1175219560366E+01
 0.1243063158531E+01
 0.1336581324243E+01
 0.1459004097082E+01
 0.1612507798283E+01
 0.1797758385563E+01
 0.2013440909877E+01
 0.2255826285902E+01
 0.2518538846250E+01
 0.2792655641118E+01
 0.3067236380065E+01
 0.3330060902822E+01
 0.1112716314628E+01
 0.1138705121421E+01
 0.1164144431173E+01
 0.1188962709297E+01
 0.1212930597447E+01
 0.1235664767186E+01
 0.1256672481102E+01
 0.1275415903210E+01
 0.1291375666752E+01
 0.1304100715838E+01
 0.1313239745129E+01
 0.1318555675748E+01
 0.1319927922420E+01
 0.1317347927995E+01
 0.1310912773858E+01
 0.1300820397637E+01
 0.1287368538807E+01
 0.1270959027672E+01
 0.1252106983510E+01
 0.1231455726950E+01
 0.1209797576570E+01
 0.1188099541132E+01
 0.1167535746719E+01
 0.1149523079273E+01
 0.1135749249592E+01
 0.1128232879240E+01
 0.1129416314898E+01
 0.1142230604478E+01
 0.1170100220772E+01
 0.1216852114053E+01
 0.1286491793452E+01
 0.1382833523921E+01
 0.1509016733473E+01
 0.1667004129318E+01
 0.1857137580980E+01
 0.2077721434376E+01
 0.2324680051346E+01
 0.2591429978536E+01
 0.2869053460572E+01
 0.3146826689179E+01
 0.3412922282524E+01
 0.1180121116806E+01
 0.1208142139264E+01
 0.1235588816191E+01
 0.1262256331430E+01
 0.1287815106357E+01
 0.1311816602673E+01
 0.1333733148608E+01
 0.1353014475832E+01
 0.1369143500582E+01
 0.1381680013999E+01
 0.1390287996244E+01
 0.1394747680898E+01
 0.1394956625202E+01
 0.1390924852719E+01
 0.1382768631793E+01
 0.1370706297884E+01
 0.1355058170613E+01
 0.1336252202184E+01
 0.1314834704922E+01
 0.1291486988710E+01
 0.1267047943955E+01
 0.1242541292633E+01
 0.1219209387036E+01
 0.1198550235710E+01
 0.1182347917828E+01
 0.1172733117927E+01
 0.1172273578094E+01
 0.1184035980340E+01
 0.1211584067030E+01
 0.1258873440844E+01
 0.1330003563613E+01
 0.1428817030043E+01
 0.1558387761714E+01
 0.1720504408527E+01
 0.1915236913126E+01
 0.2140566721970E+01
 0.2392120477333E+01
 0.2663125686446E+01
 0.2944642855388E+01
 0.3226101978180E+01
 0.3495994976349E+01
 0.1247449495809E+01
 0.1277509164995E+01
 0.1306980822461E+01
 0.1335529835058E+01
 0.1362725489886E+01
 0.1388050136239E+01
 0.1410936257314E+01
 0.1430816935470E+01
 0.1447174797361E+01
 0.1459579726844E+01
 0.1467711692657E+01
 0.1471369805394E+01
 0.1470471589125E+01
 0.1465047246851E+01
 0.1455233272705E+01
 0.1441268679676E+01
 0.1423495788700E+01
 0.1402367199517E+01
 0.1378458051278E+01
 0.1352484410782E+01
 0.1325327682182E+01
 0.1298063472452E+01
 0.1271996819226E+01
 0.1248700664358E+01
 0.1230048744757E+01
 0.1218276664679E+01
 0.1216070060600E+01
 0.1226623878015E+01
 0.1253635243777E+01
 0.1301186512853E+01
 0.1373476607374E+01
 0.1474392802975E+01
 0.1606972833880E+01
 0.1772873217985E+01
 0.1971942856985E+01
 0.2201892096442E+01
 0.2458089114620E+01
 0.2733582757743E+01
 0.3019383383156E+01
 0.3305014551449E+01
 0.3579207782092E+01
 0.1314724186257E+01
 0.1346840180468E+01
 0.1378363652216E+01
 0.1408832848773E+01
 0.1437714987474E+01
 0.1464419928033E+01
 0.1488336160535E+01
 0.1508876643933E+01
 0.1525521730519E+01
 0.1537851045912E+01
 0.1545561496298E+01
 0.1548472761527E+01
 0.1546524196000E+01
 0.1539767746463E+01
 0.1528361067705E+01
 0.1512563955405E+01
 0.1492739906309E+01
 0.1469364375250E+01
 0.1443038577330E+01
 0.1414509662557E+01
 0.1384697008175E+01
 0.1354722775723E+01
 0.1325948653534E+01
 0.1300015878957E+01
 0.1278880779740E+01
 0.1264876525101E+01
 0.1260799158940E+01
 0.1269964914988E+01
 0.1296199441708E+01
 0.1343711875382E+01
 0.1416809076185E+01
 0.1519443066710E+01
 0.1654648243761E+01
 0.1823992842908E+01
 0.2027154491121E+01
 0.2261619397495E+01
 0.2522529198851E+01
 0.2802758114051E+01
 0.3093235770257E+01
 0.3383518706009E+01
 0.3662494521376E+01
 0.1381967439035E+01
 0.1416168174922E+01
 0.1449779295586E+01
 0.1482213834799E+01
 0.1512835851443E+01
 0.1540979702824E+01
 0.1565986382018E+01
 0.1587245950086E+01
 0.1604235112315E+01
 0.1616543351826E+01
 0.1623885779485E+01
 0.1626104526543E+01
 0.1623162724684E+01
 0.1615135621750E+01
 0.1602202880167E+01
 0.1584645019869E+01
 0.1562845652144E+01
 0.1537300990391E+01
 0.1508635208293E+01
 0.1477622445630E+01
 0.1445215052637E+01
 0.1412575934941E+01
 0.1381116922360E+01
 0.1352540476781E+01
 0.1328878105523E+01
 0.1312552983331E+01
 0.1306464078737E+01
 0.1314042275632E+01
 0.1339237743804E+01
 0.1386388041547E+01
 0.1459918923607E+01
 0.1563870348467E+01
 0.1701309240989E+01
 0.1873761135579E+01
 0.2080781433179E+01
 0.2319675543608E+01
 0.2585384959543E+01
 0.2870608302526E+01
 0.3166161249263E+01
 0.3461571071099E+01
 0.3745795642126E+01
 0.1449201079603E+01
 0.1485525289576E+01
 0.1521268707385E+01
 0.1555720238299E+01
 0.1588139428129E+01
 0.1617782349257E+01
 0.1643939540745E+01
 0.1665976057683E+01
 0.1683364223189E+01
 0.1695704020262E+01
 0.1702730418746E+01
 0.1704310133033E+01
 0.1700432145900E+01
 0.1691196584506E+01
 0.1676805895214E+01
 0.1657561112645E+01
 0.1633864678129E+01
 0.1606231178536E+01
 0.1575304281641E+01
 0.1541880626039E+01
 0.1506940098131E+01
 0.1471680077450E+01
 0.1437555566687E+01
 0.1406322756224E+01
 0.1380080577308E+01
 0.1361334434998E+01
 0.1353078708066E+01
 0.1358852536907E+01
 0.1382727275002E+01
 0.1429171802990E+01
 0.1502743709911E+01
 0.1607596668214E+01
 0.1746868635805E+01
 0.1922089764179E+01
 0.2132742132707E+01
 0.2375991253359E+01
 0.2646600842922E+01
 0.2937088939796E+01
 0.3238121186005E+01
 0.3539131065939E+01
 0.3829059313410E+01
 0.1516446572160E+01
 0.1554942967948E+01
 0.1592871998386E+01
 0.1629398666003E+01
 0.1663676282342E+01
 0.1694879970194E+01
 0.1722247327104E+01
 0.1745116939566E+01
 0.1762956680713E+01
 0.1775378261904E+01
 0.1782138619525E+01
 0.1783131489584E+01
 0.1778373948206E+01
 0.1767992627964E+01
 0.1752213482008E+01
 0.1731357712075E+01
 0.1705845095491E+01
 0.1676205935849E+01
 0.1643099604083E+01
 0.1607340372312E+01
 0.1569929812533E+01
 0.1532093067555E+01
 0.1495320896954E+01
 0.1461415300084E+01
 0.1432534521223E+01
 0.1411258177127E+01
 0.1400668452225E+01
 0.1404406472752E+01
 0.1426661869782E+01
 0.1472038629591E+01
 0.1545240602032E+01
 0.1650563053682E+01
 0.1791255852489E+01
 0.1968902979280E+01
 0.2182962646202E+01
 0.2430500104154E+01
 0.2706120932011E+01
 0.3002154397026E+01
 0.3309077105924E+01
 0.3616161598603E+01
 0.3912242494502E+01
 0.1583725089276E+01
 0.1624452106909E+01
 0.1664628629562E+01
 0.1703295074171E+01
 0.1739496336224E+01
 0.1772323947209E+01
 0.1800960486709E+01
 0.1824717248757E+01
 0.1843058293466E+01
 0.1855608936675E+01
 0.1862150707083E+01
 0.1862607162035E+01
 0.1857025920686E+01
 0.1845561820024E+01
 0.1828465005589E+01
 0.1806076373748E+01
 0.1778831348635E+01
 0.1747273040325E+01
 0.1712072427759E+01
 0.1674056201571E+01
 0.1634241378926E+01
 0.1593873733963E+01
 0.1554471929603E+01
 0.1517875427454E+01
 0.1486293298095E+01
 0.1462371065572E+01
 0.1449270946715E+01
 0.1450729761038E+01
 0.1471052687850E+01
 0.1514983090450E+01
 0.1587386494490E+01
 0.1692729286402E+01
 0.1834416302357E+01
 0.2014136726786E+01
 0.2231375694359E+01
 0.2483137735414E+01
 0.2763888391055E+01
 0.3065757503916E+01
 0.3378990772393E+01
 0.3692629686010E+01
 0.3995311781172E+01
 0.1651057590793E+01
 0.1694083215745E+01
 0.1736577618728E+01
 0.1777454975724E+01
 0.1815649032380E+01
 0.1850165029613E+01
 0.1880128823825E+01
 0.1904824240824E+01
 0.1923712917154E+01
 0.1936436362632E+01
 0.1942803906880E+01
 0.1942772141273E+01
 0.1936421920520E+01
 0.1923938079896E+01
 0.1905595619853E+01
 0.1881754546246E+01
 0.1852864060438E+01
 0.1819476934625E+01
 0.1782271380347E+01
 0.1742080968599E+01
 0.1699931557041E+01
 0.1657082017845E+01
 0.1615070635164E+01
 0.1575765551323E+01
 0.1541417772075E+01
 0.1514730083466E+01
 0.1498936697597E+01
 0.1497863649319E+01
 0.1515928841282E+01
 0.1558019364770E+01
 0.1629178320293E+01
 0.1734073940867E+01
 0.1876311123914E+01
 0.2057738139045E+01
 0.2277920030069E+01
 0.2533841243181E+01
 0.2819845000935E+01
 0.3127849315972E+01
 0.3447824321219E+01
 0.3768507038763E+01
 0.4078244222637E+01
 0.1718464912842E+01
 0.1763866588042E+01
 0.1808757765572E+01
 0.1851923672543E+01
 0.1892183526458E+01
 0.1928453452621E+01
 0.1959801229132E+01
 0.1985483713318E+01
 0.2004962320516E+01
 0.2017898129158E+01
 0.2024132126198E+01
 0.2023657611219E+01
 0.2016591640743E+01
 0.2003150954708E+01
 0.1983636059039E+01
 0.1958425382043E+01
 0.1927979867044E+01
 0.1892858590428E+01
 0.1853742366665E+01
 0.1811465814880E+01
 0.1767056692502E+01
 0.1721779057111E+01
 0.1677182112956E+01
 0.1635153457060E+01
 0.1597976700327E+01
 0.1568402839323E+01
 0.1549729671611E+01
 0.1545865606326E+01
 0.1561338064450E+01
 0.1601181876464E+01
 0.1670633584749E+01
 0.1774594743755E+01
 0.1916917306193E+01
 0.2099665408499E+01
 0.2322540117449E+01
 0.2582548773448E+01
 0.2873930797076E+01
 0.3188378940612E+01
 0.3515540429081E+01
 0.3843770643974E+01
 0.4161028145600E+01
 0.1785967869244E+01
 0.1833832485875E+01
 0.1881207891738E+01
 0.1926746504772E+01
 0.1969148895077E+01
 0.2007239064327E+01
 0.2040025705853E+01
 0.2066739931588E+01
 0.2086846026561E+01
 0.2100028876939E+01
 0.2106165696865E+01
 0.2105290674447E+01
 0.2097560333134E+01
 0.2083225348568E+01
 0.2062612377757E+01
 0.2036117491126E+01
 0.2004211187391E+01
 0.1967455297387E+01
 0.1926528382912E+01
 0.1882260017111E+01
 0.1835672612056E+01
 0.1788027144143E+01
 0.1740874629417E+01
 0.1696112439442E+01
 0.1656046983353E+01
 0.1623467937643E+01
 0.1601727783538E+01
 0.1594809911935E+01
 0.1607347384071E+01
 0.1644526012611E+01
 0.1711791082059E+01
 0.1814309208873E+01
 0.1956228141762E+01
 0.2139887977490E+01
 0.2365186042727E+01
 0.2629199223534E+01
 0.2926083702768E+01
 0.3247293287734E+01
 0.3582102364508E+01
 0.3918403201416E+01
 0.4243663891945E+01
 0.1853587368031E+01
 0.1904011344893E+01
 0.1953967108305E+01
 0.2001969131922E+01
 0.2046594375247E+01
 0.2086571478711E+01
 0.2120849413107E+01
 0.2148635562442E+01
 0.2169401154189E+01
 0.2182860074037E+01
 0.2188931112837E+01
 0.2187694073425E+01
 0.2179348528105E+01
 0.2164181249160E+01
 0.2142545687267E+01
 0.2114854687112E+01
 0.2081585978750E+01
 0.2043300428933E+01
 0.2000669296292E+01
 0.1954510787910E+01
 0.1905834457095E+01
 0.1855889608526E+01
 0.1806219570622E+01
 0.1758721348004E+01
 0.1715713825534E+01
 0.1680015272498E+01
 0.1655023333244E+01
 0.1644788240810E+01
 0.1654043847553E+01
 0.1688128986728E+01
 0.1752711858766E+01
 0.1853255615371E+01
 0.1994254079968E+01
 0.2178387116296E+01
 0.2405813729626E+01
 0.2673732124740E+01
 0.2976239230607E+01
 0.3304536818004E+01
 0.3647474006314E+01
 0.3992393536285E+01
 0.4326164610382E+01
 0.1921344545496E+01
 0.1974434002787E+01
 0.2027075112459E+01
 0.2077637844993E+01
 0.2124569630348E+01
 0.2166500245021E+01
 0.2202318712532E+01
 0.2231211598621E+01
 0.2252662241359E+01
 0.2266419768393E+01
 0.2272450742706E+01
 0.2270885887308E+01
 0.2261971731145E+01
 0.2246033430849E+01
 0.2223451866048E+01
 0.2194655702733E+01
 0.2160127453819E+01
 0.2120423159090E+01
 0.2076201562702E+01
 0.2028262999908E+01
 0.1977596425055E+01
 0.1925430592793E+01
 0.1873291275628E+01
 0.1823064506367E+01
 0.1777070771375E+01
 0.1738146210483E+01
 0.1709723360981E+01
 0.1695910211286E+01
 0.1701535284261E+01
 0.1732090824516E+01
 0.1793480405374E+01
 0.1891494315375E+01
 0.2031023970414E+01
 0.2215156878073E+01
 0.2444385438835E+01
 0.2716087670016E+01
 0.3024330197395E+01
 0.3360051219364E+01
 0.3711619757178E+01
 0.4065736924274E+01
 0.4408557039663E+01
 0.1989260920964E+01
 0.2045131956578E+01
 0.2100572519790E+01
 0.2153799915066E+01
 0.2203125045391E+01
 0.2247075032827E+01
 0.2284479214639E+01
 0.2314507268994E+01
 0.2336661044707E+01
 0.2350732312818E+01
 0.2356742514856E+01
 0.2354879203658E+01
 0.2345440096557E+01
 0.2328791135820E+01
 0.2305341246567E+01
 0.2275533876539E+01
 0.2239853760831E+01
 0.2198848131038E+01
 0.2153157882291E+01
 0.2103558831809E+01
 0.2051011415828E+01
 0.1996714716577E+01
 0.1942166744099E+01
 0.1889231497169E+01
 0.1840219607761E+01
 0.1797973653047E+01
 0.1765949911861E+01
 0.1748303892458E+01
 0.1749951095551E+01
 0.1776535471759E+01
 0.1834206082236E+01
 0.1929109387429E+01
 0.2066586724721E+01
 0.2250205464933E+01
 0.2480870580589E+01
 0.2756206900173E+01
 0.3070286448360E+01
 0.3413774998242E+01
 0.3774504341988E+01
 0.4138435327474E+01
 0.4490882292326E+01
 0.2057358576160E+01
 0.2116137655595E+01
 0.2174501240793E+01
 0.2230503986335E+01
 0.2282312056849E+01
 0.2328345834522E+01
 0.2367375823872E+01
 0.2398559932396E+01
 0.2421426314248E+01
 0.2435818063091E+01
 0.2441819578486E+01
 0.2439681770858E+01
 0.2429758086294E+01
 0.2412457742599E+01
 0.2388218288441E+01
 0.2357496821405E+01
 0.2320777637252E+01
 0.2278595087704E+01
 0.2231566802514E+01
 0.2180437345063E+01
 0.2126130590391E+01
 0.2069806634482E+01
 0.2012925221193E+01
 0.1957316813025E+01
 0.1905270130232E+01
 0.1859621974510E+01
 0.1823840205373E+01
 0.1802116266268E+01
 0.1799443072387E+01
 0.1821612026894E+01
 0.1875024789864E+01
 0.1966210659784E+01
 0.2101013438164E+01
 0.2283557058428E+01
 0.2515246889946E+01
 0.2794032079499E+01
 0.3114034600310E+01
 0.3465642986338E+01
 0.3836092498174E+01
 0.4210497556747E+01
 0.4573196660781E+01
 0.2125660363581E+01
 0.2187484837474E+01
 0.2248904910209E+01
 0.2307800520793E+01
 0.2362183520325E+01
 0.2410363183741E+01
 0.2451052777005E+01
 0.2483404947957E+01
 0.2506983536453E+01
 0.2521693044460E+01
 0.2527689938362E+01
 0.2525295631525E+01
 0.2514924116135E+01
 0.2497030425334E+01
 0.2472081241994E+01
 0.2440546078921E+01
 0.2402906040859E+01
 0.2359678467566E+01
 0.2311452271013E+01
 0.2258933992247E+01
 0.2203002841104E+01
 0.2144770484869E+01
 0.2085647654072E+01
 0.2027419364484E+01
 0.1972339760813E+01
 0.1923226820404E+01
 0.1883546692927E+01
 0.1857513627538E+01
 0.1850186225255E+01
 0.1867496087105E+01
 0.1916100881617E+01
 0.2002936119129E+01
 0.2134400010715E+01
 0.2315254171931E+01
 0.2547502019679E+01
 0.2829507290951E+01
 0.3155497803828E+01
 0.3515585749911E+01
 0.3896348551392E+01
 0.4281939358641E+01
 0.4655572438765E+01
 0.2194190148728E+01
 0.2259208913481E+01
 0.2323829375365E+01
 0.2385742297000E+01
 0.2442794111633E+01
 0.2493178377405E+01
 0.2535553656073E+01
 0.2569075499356E+01
 0.2593354622020E+01
 0.2608368563477E+01
 0.2614356041538E+01
 0.2611716716216E+01
 0.2600930168830E+01
 0.2582499783129E+01
 0.2556921780417E+01
 0.2524676736340E+01
 0.2486239733011E+01
 0.2442106938391E+01
 0.2392833108734E+01
 0.2339080025054E+01
 0.2281674138644E+01
 0.2221669191137E+01
 0.2160415977558E+01
 0.2099641798029E+01
 0.2041552965774E+01
 0.1988934710523E+01
 0.1945236945478E+01
 0.1914681864313E+01
 0.1902379571922E+01
 0.1914391160185E+01
 0.1957629284198E+01
 0.2039454694391E+01
 0.2166870291022E+01
 0.2345360576602E+01
 0.2577635603374E+01
 0.2862579270546E+01
 0.3194595498230E+01
 0.3563528849986E+01
 0.3955235825249E+01
 0.4352783370003E+01
 0.4738098678496E+01
 0.2262973094143E+01
 0.2331347418552E+01
 0.2399323263992E+01
 0.2464384984371E+01
 0.2524200780300E+01
 0.2576843717166E+01
 0.2620921390460E+01
 0.2655602389822E+01
 0.2680557560498E+01
 0.2695850794492E+01
 0.2701814352861E+01
 0.2698934441120E+01
 0.2687761423773E+01
 0.2668849493687E+01
 0.2642724658613E+01
 0.2609877067296E+01
 0.2570772877954E+01
 0.2525882934960E+01
 0.2475722471098E+01
 0.2420901870810E+01
 0.2362186824766E+01
 0.2300563683683E+01
 0.2237312294591E+01
 0.2174089685424E+01
 0.2113040528788E+01
 0.2056902495436E+01
 0.2009093413599E+01
 0.1973826655960E+01
 0.1956246918021E+01
 0.1962530178030E+01
 0.1999837869463E+01
 0.2075969480634E+01
 0.2198579845938E+01
 0.2373964941837E+01
 0.2605661940183E+01
 0.2893198602402E+01
 0.3231243235640E+01
 0.3609392018702E+01
 0.4012715988885E+01
 0.4423059065404E+01
 0.4820882024489E+01
 0.2332035991158E+01
 0.2403940533164E+01
 0.2475438636518E+01
 0.2543787790428E+01
 0.2606463240674E+01
 0.2661412742402E+01
 0.2707198210026E+01
 0.2743013764017E+01
 0.2768605996001E+01
 0.2784140295270E+01
 0.2790054874379E+01
 0.2786931264806E+01
 0.2775395857021E+01
 0.2756055942813E+01
 0.2729467347229E+01
 0.2696128141239E+01
 0.2656492599257E+01
 0.2611002137899E+01
 0.2560127230248E+01
 0.2504420406344E+01
 0.2444578775169E+01
 0.2381511961709E+01
 0.2316417864681E+01
 0.2250870490657E+01
 0.2186938577974E+01
 0.2127296557300E+01
 0.2075312944863E+01
 0.2035173471582E+01
 0.2012037515664E+01
 0.2012177005412E+01
 0.2042989988334E+01
 0.2112721347218E+01
 0.2229720353603E+01
 0.2401185244413E+01
 0.2631613373546E+01
 0.2921321298619E+01
 0.3265352509208E+01
 0.3653088131068E+01
 0.4068748232518E+01
 0.4492802590857E+01
 0.4904047404087E+01
 0.2401407651330E+01
 0.2477031695348E+01
 0.2552231744697E+01
 0.2624014199179E+01
 0.2689644510000E+01
 0.2746940454911E+01
 0.2794425544339E+01
 0.2831334752404E+01
 0.2857508724641E+01
 0.2873231459456E+01
 0.2879060623379E+01
 0.2875682224458E+01
 0.2863803836249E+01
 0.2844087857139E+01
 0.2817119671013E+01
 0.2783403431940E+01
 0.2743378524648E+01
 0.2697452925567E+01
 0.2646047310837E+01
 0.2589650161768E+01
 0.2528882464459E+01
 0.2464568025160E+01
 0.2397811927181E+01
 0.2330092335653E+01
 0.2263387380090E+01
 0.2200291758629E+01
 0.2144106052505E+01
 0.2098967355275E+01
 0.2070026583715E+01
 0.2063627930581E+01
 0.2087387165068E+01
 0.2149992958749E+01
 0.2260524708008E+01
 0.2427174108825E+01
 0.2655544566026E+01
 0.2946910923785E+01
 0.3296830640965E+01
 0.3694521967111E+01
 0.4123288329902E+01
 0.4562056584529E+01
 0.4987738636439E+01
 0.2471119368914E+01
 0.2550668324624E+01
 0.2629763922166E+01
 0.2705132821673E+01
 0.2773811503688E+01
 0.2833483535138E+01
 0.2882643863307E+01
 0.2920587036150E+01
 0.2947269119705E+01
 0.2963111921851E+01
 0.2968807094330E+01
 0.2965154484243E+01
 0.2952947748588E+01
 0.2932905981660E+01
 0.2905643495683E+01
 0.2871668471165E+01
 0.2831402366862E+01
 0.2785215847859E+01
 0.2733475029100E+01
 0.2676598504356E+01
 0.2615123982961E+01
 0.2549780724635E+01
 0.2481570403126E+01
 0.2411862601422E+01
 0.2342529927985E+01
 0.2276070151524E+01
 0.2215695932753E+01
 0.2165472481967E+01
 0.2130515664386E+01
 0.2117213109876E+01
 0.2133371930937E+01
 0.2188113215021E+01
 0.2291272905778E+01
 0.2452125244421E+01
 0.2677537901695E+01
 0.2969941456475E+01
 0.3325580777506E+01
 0.3733588708418E+01
 0.4176287628121E+01
 0.4630870149338E+01
 0.5072118949852E+01
 0.2541205469314E+01
 0.2624902674059E+01
 0.2708102618922E+01
 0.2787218354062E+01
 0.2859035658512E+01
 0.2921100497258E+01
 0.2971892391233E+01
 0.3010788258630E+01
 0.3037884410899E+01
 0.3053761845024E+01
 0.3059261634287E+01
 0.3055306824075E+01
 0.3042781585975E+01
 0.3022462721477E+01
 0.2994992376497E+01
 0.2960880454150E+01
 0.2920527440476E+01
 0.2874263015354E+01
 0.2822394322306E+01
 0.2765264683431E+01
 0.2703321880123E+01
 0.2637192397437E+01
 0.2567764336193E+01
 0.2496286215835E+01
 0.2424510161033E+01
 0.2354819273757E+01
 0.2290317043962E+01
 0.2234971287336E+01
 0.2193832618272E+01
 0.2173297778454E+01
 0.2181330632719E+01
 0.2227461991460E+01
 0.2322298687347E+01
 0.2476281087359E+01
 0.2697710236211E+01
 0.2990401078132E+01
 0.3351501962780E+01
 0.3770171901775E+01
 0.4227691765481E+01
 0.4699298948983E+01
 0.5157371064481E+01
 0.2611703966035E+01
 0.2699792853129E+01
 0.2787322632506E+01
 0.2870352691614E+01
 0.2945393619488E+01
 0.3009851809640E+01
 0.3062208723090E+01
 0.3101951326232E+01
 0.3129344880817E+01
 0.3145153171756E+01
 0.3150382834980E+01
 0.3146089186969E+01
 0.3133250618114E+01
 0.3112701887722E+01
 0.3085111317408E+01
 0.3050987954204E+01
 0.3010708280405E+01
 0.2964557577732E+01
 0.2912780050590E+01
 0.2855638925875E+01
 0.2793486030703E+01
 0.2726837490634E+01
 0.2656458275018E+01
 0.2583463826766E+01
 0.2509471007264E+01
 0.2436730203036E+01
 0.2368213394658E+01
 0.2307763291153E+01
 0.2260331351175E+01
 0.2232283301008E+01
 0.2231696279822E+01
 0.2268475254259E+01
 0.2353997069621E+01
 0.2499941923920E+01
 0.2716221430504E+01
 0.3008297354070E+01
 0.3374489521620E+01
 0.3804140798290E+01
 0.4277439181214E+01
 0.4767406001362E+01
 0.5243697052239E+01
 0.2682657347083E+01
 0.2775404047767E+01
 0.2867507554015E+01
 0.2954626188329E+01
 0.3032967940658E+01
 0.3099799897466E+01
 0.3153628242272E+01
 0.3194083495121E+01
 0.3221632880325E+01
 0.3237248750316E+01
 0.3242119850159E+01
 0.3237442190729E+01
 0.3224291052504E+01
 0.3203558438818E+01
 0.3175936522664E+01
 0.3141930618740E+01
 0.3101890224750E+01
 0.3056053144631E+01
 0.3004597215000E+01
 0.2947701417052E+01
 0.2885616349719E+01
 0.2818740988032E+01
 0.2747708403746E+01
 0.2673489655246E+01
 0.2597552026202E+01
 0.2521995128670E+01
 0.2449636276766E+01
 0.2384163328075E+01
 0.2330390972513E+01
 0.2294607763855E+01
 0.2284951152212E+01
 0.2311650319159E+01
 0.2386832643899E+01
 0.2523476568752E+01
 0.2733284987597E+01
 0.3023664231672E+01
 0.3394435879326E+01
 0.3835346523995E+01
 0.4325458776044E+01
 0.4835263333413E+01
 0.5331317333819E+01
 0.2754113527757E+01
 0.2851809993192E+01
 0.2948751487460E+01
 0.3040139096875E+01
 0.3121847799313E+01
 0.3191009002417E+01
 0.3246183312004E+01
 0.3287185231610E+01
 0.3314721673268E+01
 0.3330001363940E+01
 0.3334411684524E+01
 0.3329296659276E+01
 0.3315829741798E+01
 0.3294958280322E+01
 0.3267395206563E+01
 0.3233638914985E+01
 0.3194009033084E+01
 0.3148693223253E+01
 0.3097800169607E+01
 0.3041421248766E+01
 0.2979701441477E+01
 0.2912916729354E+01
 0.2841560509895E+01
 0.2766449114388E+01
 0.2688886728385E+01
 0.2610804498085E+01
 0.2534841473241E+01
 0.2464499179662E+01
 0.2404414344053E+01
 0.2360746042747E+01
 0.2341629096311E+01
 0.2357551197337E+01
 0.2421348659473E+01
 0.2547334820267E+01
 0.2749181328112E+01
 0.3036571646943E+01
 0.3411232419251E+01
 0.3863616705153E+01
 0.4371665881371E+01
 0.4902955206907E+01
 0.5420468623306E+01
 0.2826127009692E+01
 0.2929094766700E+01
 0.3031161108920E+01
 0.3127003221297E+01
 0.3212129709567E+01
 0.3283544856564E+01
 0.3339902199054E+01
 0.3381248828468E+01
 0.3408574123344E+01
 0.3423352703079E+01
 0.3427186509830E+01
 0.3421573238677E+01
 0.3407784008469E+01
 0.3386818196341E+01
 0.3359405536952E+01
 0.3326034003856E+01
 0.3286990621985E+01
 0.3242410758013E+01
 0.3192331916646E+01
 0.3136755427029E+01
 0.3075717279228E+01
 0.3009365721131E+01
 0.2938047889739E+01
 0.2862416290404E+01
 0.2783599656300E+01
 0.2703343800317E+01
 0.2624085966064E+01
 0.2549108584721E+01
 0.2482825941892E+01
 0.2431209223755E+01
 0.2402317360501E+01
 0.2406813879509E+01
 0.2458176804177E+01
 0.2572061814794E+01
 0.2764274201200E+01
 0.3047138658196E+01
 0.3424773394317E+01
 0.3888748257744E+01
 0.4415954606338E+01
 0.4970583547241E+01
 0.5511400024463E+01
 0.2898760301447E+01
 0.3007354969428E+01
 0.3114858115654E+01
 0.3215343766562E+01
 0.3303918139684E+01
 0.3377474023104E+01
 0.3434807571776E+01
 0.3476256635416E+01
 0.3503141102836E+01
 0.3517232173274E+01
 0.3520360902433E+01
 0.3514181984589E+01
 0.3500061461196E+01
 0.3479045772943E+01
 0.3451876558922E+01
 0.3419027574851E+01
 0.3380750737304E+01
 0.3337127578631E+01
 0.3288123278254E+01
 0.3233647721009E+01
 0.3173625685612E+01
 0.3108074199301E+01
 0.3037188941361E+01
 0.2961451024594E+01
 0.2881802950369E+01
 0.2799789687465E+01
 0.2717623812286E+01
 0.2638335251401E+01
 0.2566068607480E+01
 0.2506542919828E+01
 0.2467657513067E+01
 0.2460151141157E+01
 0.2498047369822E+01
 0.2598314245336E+01
 0.2779030683895E+01
 0.3055551110355E+01
 0.3434963526043E+01
 0.3910498815819E+01
 0.4458182796462E+01
 0.5038274834201E+01
 0.5604364970292E+01
 0.2972085679603E+01
 0.3086702425308E+01
 0.3199982193247E+01
 0.3305301454051E+01
 0.3397326032290E+01
 0.3472862877740E+01
 0.3530914576315E+01
 0.3572178967298E+01
 0.3598359746671E+01
 0.3611555706763E+01
 0.3613839198585E+01
 0.3607022134901E+01
 0.3592560029622E+01
 0.3571539552683E+01
 0.3544708351598E+01
 0.3512521910446E+01
 0.3475194848754E+01
 0.3432754060285E+01
 0.3385092267201E+01
 0.3332027695090E+01
 0.3273372976120E+01
 0.3209011826086E+01
 0.3138984846466E+01
 0.3063596010923E+01
 0.2983592818257E+01
 0.2900305839662E+01
 0.2815701556845E+01
 0.2732524172510E+01
 0.2654599392993E+01
 0.2587324579896E+01
 0.2538345446312E+01
 0.2518356807647E+01
 0.2541799730223E+01
 0.2626878545061E+01
 0.2794045379421E+01
 0.3062084964364E+01
 0.3441731526977E+01
 0.3928580119318E+01
 0.4498144993557E+01
 0.5106185032765E+01
 0.5699603828811E+01
 0.3046187384187E+01
 0.3167267516963E+01
 0.3286694580341E+01
 0.3397034860486E+01
 0.3492475053047E+01
 0.3569775995460E+01
 0.3628228268838E+01
 0.3668971514298E+01
 0.3694151417038E+01
 0.3706224461239E+01
 0.3707512848245E+01
 0.3699981933551E+01
 0.3685168064337E+01
 0.3664189247698E+01
 0.3637792227281E+01
 0.3606409972022E+01
 0.3570218041892E+01
 0.3529188753633E+01
 0.3483143396778E+01
 0.3431809646763E+01
 0.3374888472022E+01
 0.3312129713290E+01
 0.3243417020503E+01
 0.3168873576116E+01
 0.3089045558634E+01
 0.3005038200474E+01
 0.2918552768857E+01
 0.2832015766744E+01
 0.2748883935466E+01
 0.2674159130502E+01
 0.2615129745514E+01
 0.2582308762138E+01
 0.2590392481569E+01
 0.2658690679303E+01
 0.2810069113708E+01
 0.3067136419455E+01
 0.3445050820864E+01
 0.3942660177256E+01
 0.4535532221908E+01
 0.5174488871521E+01
 0.5797293242233E+01
 0.3121164398433E+01
 0.3249203341808E+01
 0.3375182391576E+01
 0.3490722988351E+01
 0.3589495426941E+01
 0.3668273766855E+01
 0.3726740284686E+01
 0.3766572225461E+01
 0.3790419421255E+01
 0.3801123485365E+01
 0.3801259857451E+01
 0.3792938593410E+01
 0.3777764585035E+01
 0.3756876091415E+01
 0.3731011053268E+01
 0.3700575590626E+01
 0.3665704995388E+01
 0.3626318077859E+01
 0.3582167028530E+01
 0.3532891555380E+01
 0.3478082996016E+01
 0.3417358396094E+01
 0.3350444467985E+01
 0.3277282291641E+01
 0.3198213296469E+01
 0.3114109735384E+01
 0.3026391826054E+01
 0.2937138904334E+01
 0.2849389302309E+01
 0.2767672737833E+01
 0.2698808057745E+01
 0.2652970244511E+01
 0.2644912772235E+01
 0.2694857222800E+01
 0.2828042674430E+01
 0.3071260043376E+01
 0.3444969105005E+01
 0.3952377986200E+01
 0.4569900688162E+01
 0.5243336327622E+01
 0.5897355659455E+01
 0.3197134031981E+01
 0.3332690861389E+01
 0.3465663949568E+01
 0.3586568023339E+01
 0.3688525162197E+01
 0.3768409019726E+01
 0.3826424622520E+01
 0.3864897672565E+01
 0.3887046580109E+01
 0.3896120489373E+01
 0.3894944466653E+01
 0.3885758542323E+01
 0.3870219817309E+01
 0.3849473469820E+01
 0.3824239842402E+01
 0.3794893917309E+01
 0.3761530208985E+01
 0.3724016253398E+01
 0.3682038945666E+01
 0.3635154241182E+01
 0.3582847563426E+01
 0.3524605986614E+01
 0.3460001291798E+01
 0.3388793686159E+01
 0.3311119714062E+01
 0.3227615000666E+01
 0.3139407211211E+01
 0.3048203009725E+01
 0.2956575360056E+01
 0.2868504523348E+01
 0.2790221053830E+01
 0.2731388815230E+01
 0.2706584172432E+01
 0.2736676950978E+01
 0.2849135917460E+01
 0.3075216702601E+01
 0.3441645842097E+01
 0.3957379463555E+01
 0.4600631251689E+01
 0.5313030032055E+01
 0.5998274843404E+01
 0.3274239025488E+01
 0.3417956271068E+01
 0.3558413992698E+01
 0.3684825773492E+01
 0.3789744752453E+01
 0.3870266917611E+01
 0.3927284361009E+01
 0.3963897562533E+01
 0.3983957659213E+01
 0.3991135855221E+01
 0.3988494384184E+01
 0.3978381749293E+01
 0.3962486758380E+01
 0.3941946112537E+01
 0.3917453135357E+01
 0.3889347692369E+01
 0.3857683949634E+01
 0.3822281782460E+01
 0.3782768267291E+01
 0.3738621616017E+01
 0.3689226810571E+01
 0.3633945464645E+01
 0.3572198261078E+01
 0.3503568125754E+01
 0.3427989795562E+01
 0.3345862708276E+01
 0.3258015097488E+01
 0.3165759905294E+01
 0.3071160946222E+01
 0.2977571797012E+01
 0.2890509936829E+01
 0.2818937694984E+01
 0.2776981873065E+01
 0.2785821175602E+01
 0.2874885252490E+01
 0.3080068553969E+01
 0.3435387142523E+01
 0.3957337128513E+01
 0.4627266242880E+01
 0.5382712255964E+01
 0.6108557702239E+01
 0.3352645556049E+01
 0.3505258135715E+01
 0.3653733090799E+01
 0.3785752894329E+01
 0.3893301036084E+01
 0.3973869080712E+01
 0.4029240626978E+01
 0.4063431765408E+01
 0.4080985743445E+01
 0.4085998293379E+01
 0.4081744979691E+01
 0.4070653420852E+01
 0.4054419200023E+01
 0.4034153147823E+01
 0.4010511664123E+01
 0.3983795956008E+01
 0.3954021318732E+01
 0.3920965090943E+01
 0.3884201863460E+01
 0.3843140152506E+01
 0.3797072002850E+01
 0.3745240034552E+01
 0.3686919781248E+01
 0.3621523273177E+01
 0.3548790475378E+01
 0.3468890388706E+01
 0.3382351426139E+01
 0.3290078964899E+01
 0.3193590998501E+01
 0.3095542554676E+01
 0.3000613507877E+01
 0.2916863047042E+01
 0.2857661618114E+01
 0.2844076898442E+01
 0.2907077643385E+01
 0.3087179165132E+01
 0.3426721356141E+01
 0.3951826075630E+01
 0.4649432289773E+01
 0.5450871008197E+01
 0.6238166156626E+01
 0.3432557476009E+01
 0.3594901808168E+01
 0.3751961476624E+01
 0.3889612556030E+01
 0.3999304594909E+01
 0.4079166830259E+01
 0.4132126168571E+01
 0.4163266443900E+01
 0.4177871064668E+01
 0.4180445549112E+01
 0.4174440950632E+01
 0.4162325943644E+01
 0.4145773513507E+01
 0.4125849461116E+01
 0.4103163093287E+01
 0.4077973994865E+01
 0.4050261200730E+01
 0.4019766233483E+01
 0.3986020535422E+01
 0.3948373245586E+01
 0.3906033284592E+01
 0.3858132958449E+01
 0.3803810949234E+01
 0.3742317907362E+01
 0.3673210653168E+01
 0.3596439940979E+01
 0.3512242329128E+01
 0.3421111935415E+01
 0.3323995889947E+01
 0.3222790780905E+01
 0.3121223369204E+01
 0.3026246887465E+01
 0.2950142980468E+01
 0.2913370319162E+01
 0.2947836983539E+01
 0.3098391045168E+01
 0.3416569140959E+01
 0.3940709087409E+01
 0.4665939488615E+01
 0.5520269476088E+01
 0.6373907983853E+01
 0.3514225983564E+01
 0.3687270987432E+01
 0.3853522307965E+01
 0.3996724585683E+01
 0.4107887991918E+01
 0.4186113237657E+01
 0.4235775462279E+01
 0.4263182953494E+01
 0.4274387215698E+01
 0.4274266123102E+01
 0.4266392416693E+01
 0.4253229071627E+01
 0.4236393330528E+01
 0.4216885741248E+01
 0.4195258614184E+01
 0.4171727869561E+01
 0.4146240233769E+01
 0.4118509877914E+01
 0.4088036586423E+01
 0.4054122872094E+01
 0.4015906748119E+01
 0.3972420990877E+01
 0.3922677696388E+01
 0.3865778226976E+01
 0.3801111951974E+01
 0.3728429649534E+01
 0.3647692232080E+01
 0.3558989357462E+01
 0.3462685190764E+01
 0.3359873018906E+01
 0.3253225509313E+01
 0.3148393775164E+01
 0.3056221511639E+01
 0.2995989156353E+01
 0.2999761106404E+01
 0.3116088259840E+01
 0.3406319608020E+01
 0.3923878258513E+01
 0.4676218168978E+01
 0.5590325234465E+01
 0.6517480186499E+01
 0.3597963004122E+01
 0.3782838345113E+01
 0.3958919052851E+01
 0.4107439162789E+01
 0.4219158572638E+01
 0.4294604872291E+01
 0.4339962785072E+01
 0.4362914376900E+01
 0.4370275129024E+01
 0.4367228962610E+01
 0.4357398953565E+01
 0.4343187389331E+01
 0.4326119779693E+01
 0.4307110913440E+01
 0.4286646974524E+01
 0.4264899367650E+01
 0.4241787922611E+01
 0.4217009740225E+01
 0.4190046722672E+01
 0.4160170181268E+01
 0.4126462125133E+01
 0.4087868837857E+01
 0.4043287948818E+01
 0.3991685914429E+01
 0.3932304196279E+01
 0.3864717994678E+01
 0.3788637472707E+01
 0.3703766261877E+01
 0.3609888932882E+01
 0.3507270708349E+01
 0.3397452627990E+01
 0.3284607513852E+01
 0.3177791185181E+01
 0.3094479237663E+01
 0.3065922090363E+01
 0.3143334052636E+01
 0.3398000752457E+01
 0.3901544633165E+01
 0.4679333612411E+01
 0.5660105530611E+01
 0.6670451365073E+01
 0.3684160530048E+01
 0.3882191870809E+01
 0.4068751672957E+01
 0.4222131140658E+01
 0.4333178033513E+01
 0.4404460772831E+01
 0.4444388644726E+01
 0.4462139833127E+01
 0.4465242425925E+01
 0.4459085150295E+01
 0.4447252029943E+01
 0.4432022779652E+01
 0.4414793737505E+01
 0.4396374131130E+01
 0.4377176234416E+01
 0.4357327539235E+01
 0.4336727919195E+01
 0.4315069507320E+01
 0.4291832465699E+01
 0.4266275256542E+01
 0.4237441843296E+01
 0.4204207549906E+01
 0.4165369404614E+01
 0.4119775219005E+01
 0.4066541498962E+01
 0.4005098139227E+01
 0.3934938179390E+01
 0.3855409918341E+01
 0.3765739172424E+01
 0.3665363262816E+01
 0.3554647278259E+01
 0.3436146279569E+01
 0.3316800960110E+01
 0.3211622500274E+01
 0.3149901412528E+01
 0.3184004937313E+01
 0.3394535179174E+01
 0.3874374073405E+01
 0.4673985228554E+01
 0.5728542200122E+01
 0.6834573297160E+01
 0.3773317890011E+01
 0.3986070521711E+01
 0.4183734939525E+01
 0.4341186974014E+01
 0.4449932295962E+01
 0.4515395703209E+01
 0.4548665062141E+01
 0.4560479945230E+01
 0.4558964337432E+01
 0.4549570832779E+01
 0.4535738269792E+01
 0.4519557412475E+01
 0.4502258414316E+01
 0.4484527007162E+01
 0.4466695729985E+01
 0.4448850451913E+01
 0.4430879557277E+01
 0.4412484043520E+01
 0.4393160839613E+01
 0.4372177087304E+01
 0.4348560197251E+01
 0.4321132968229E+01
 0.4288607397064E+01
 0.4249730268979E+01
 0.4203518800929E+01
 0.4149293105673E+01
 0.4086370979297E+01
 0.4013788274183E+01
 0.3930251514020E+01
 0.3834399233670E+01
 0.3725419183487E+01
 0.3604165211231E+01
 0.3475190038191E+01
 0.3350388364070E+01
 0.3255801138722E+01
 0.3242933195858E+01
 0.3400054802182E+01
 0.3843761180448E+01
 0.4658651964568E+01
 0.5794285139892E+01
 0.7011926575888E+01
 0.3866080956243E+01
 0.4095413070765E+01
 0.4304717663730E+01
 0.4464979122048E+01
 0.4569287925763E+01
 0.4626987193427E+01
 0.4652300866557E+01
 0.4657494599909E+01
 0.4651086811848E+01
 0.4638411636184E+01
 0.4622643619714E+01
 0.4605617270757E+01
 0.4588362272556E+01
 0.4571426080723E+01
 0.4555058249105E+01
 0.4539307185166E+01
 0.4524059685310E+01
 0.4509040954181E+01
 0.4493785427542E+01
 0.4477593838567E+01
 0.4459502683615E+01
 0.4438304227204E+01
 0.4412642831118E+01
 0.4381182641390E+01
 0.4342868997451E+01
 0.4296951936144E+01
 0.4242623025283E+01
 0.4178659813535E+01
 0.4103307633571E+01
 0.4014466917645E+01
 0.3910198125564E+01
 0.3789646579857E+01
 0.3654797863127E+01
 0.3513846746622E+01
 0.3388216143121E+01
 0.3326037165023E+01
 0.3420288897013E+01
 0.3812315840056E+01
 0.4631751524217E+01
 0.5855523181501E+01
 0.7205053490223E+01
 0.3963299819208E+01
 0.4211425709390E+01
 0.4432699653715E+01
 0.4593819573642E+01
 0.4690930367122E+01
 0.4738636744960E+01
 0.4754689092301E+01
 0.4752684463681E+01
 0.4741232411403E+01
 0.4725328732469E+01
 0.4707758427009E+01
 0.4690036169292E+01
 0.4672962220674E+01
 0.4656935465586E+01
 0.4642122372335E+01
 0.4628540030768E+01
 0.4616084788004E+01
 0.4604522531369E+01
 0.4593447851650E+01
 0.4582223466502E+01
 0.4569925488181E+01
 0.4555342215823E+01
 0.4537070042572E+01
 0.4513709064008E+01
 0.4484160640901E+01
 0.4447647008400E+01
 0.4403287734977E+01
 0.4349665497329E+01
 0.4284639846259E+01
 0.4205466011976E+01
 0.4109184545729E+01
 0.3993319287418E+01
 0.3857246436552E+01
 0.3705029574810E+01
 0.3552142209948E+01
 0.3440409703326E+01
 0.3463027507025E+01
 0.3784606173926E+01
 0.4591933398247E+01
 0.5909746819962E+01
 0.7417119337087E+01
 0.4066115850464E+01
 0.4335676347315E+01
 0.4568839078344E+01
 0.4727879099069E+01
 0.4814278689571E+01
 0.4849527497629E+01
 0.4855099886837E+01
 0.4845497993285E+01
 0.4829009510488E+01
 0.4810046631428E+01
 0.4790883385271E+01
 0.4772660196323E+01
 0.4755927015810E+01
 0.4740929622559E+01
 0.4727754932688E+01
 0.4716396867536E+01
 0.4706773392501E+01
 0.4698708124762E+01
 0.4691879771986E+01
 0.4685744785263E+01
 0.4679455157891E+01
 0.4671827900502E+01
 0.4661434382740E+01
 0.4646829062666E+01
 0.4626896176379E+01
 0.4600872698981E+01
 0.4567862691226E+01
 0.4526323515275E+01
 0.4473818893444E+01
 0.4407082273667E+01
 0.4322300948058E+01
 0.4215571684159E+01
 0.4083796440521E+01
 0.3926728810818E+01
 0.3752783513409E+01
 0.3594318247303E+01
 0.3538624519503E+01
 0.3768249816097E+01
 0.4538674219077E+01
 0.5953445980328E+01
 0.7652143045993E+01
 0.4176097005665E+01
 0.4470226691730E+01
 0.4714434382752E+01
 0.4867051117318E+01
 0.4938372389708E+01
 0.4958584271468E+01
 0.4952683917636E+01
 0.4935345671822E+01
 0.4914025081984E+01
 0.4892302667474E+01
 0.4871836262465E+01
 0.4853352498429E+01
 0.4837140818657E+01
 0.4823296220053E+01
 0.4811833573899E+01
 0.4802733706697E+01
 0.4795948786271E+01
 0.4791377027867E+01
 0.4788805582412E+01
 0.4787819211307E+01
 0.4787688607449E+01
 0.4787300469643E+01
 0.4785229317625E+01
 0.4780002329897E+01
 0.4770510677646E+01
 0.4756045680701E+01
 0.4735750305104E+01
 0.4708027726122E+01
 0.4670246263194E+01
 0.4618767468301E+01
 0.4549148109205E+01
 0.4456364137017E+01
 0.4335184730137E+01
 0.4181226236444E+01
 0.3995214008398E+01
 0.3797034397178E+01
 0.3660463563541E+01
 0.3775447982689E+01
 0.4473476204560E+01
 0.5981758653751E+01
 0.7915340721022E+01
 0.4295455127431E+01
 0.4617816590074E+01
 0.4870847285268E+01
 0.5010727933147E+01
 0.5061730380407E+01
 0.5064447986286E+01
 0.5046492521286E+01
 0.5021622567149E+01
 0.4995900950324E+01
 0.4971857978471E+01
 0.4950459214476E+01
 0.4931998253440E+01
 0.4916506785635E+01
 0.4903938992045E+01
 0.4894249329676E+01
 0.4887417338694E+01
 0.4883441997515E+01
 0.4882311894675E+01
 0.4883945942342E+01
 0.4888093425948E+01
 0.4894193624418E+01
 0.4901255172190E+01
 0.4907892600399E+01
 0.4912625290558E+01
 0.4914370800979E+01
 0.4912507001456E+01
 0.4906261757721E+01
 0.4894050513293E+01
 0.4873152075578E+01
 0.4839726664443E+01
 0.4788970412866E+01
 0.4715149417009E+01
 0.4611457292157E+01
 0.4469966328300E+01
 0.4283849867528E+01
 0.4058356104285E+01
 0.3845237720840E+01
 0.3825000043889E+01
 0.4402204197134E+01
 0.5988175033722E+01
 0.8213661650428E+01
 0.4427408290179E+01
 0.4782116344854E+01
 0.5039296924142E+01
 0.5157443304406E+01
 0.5182195785498E+01
 0.5165485467684E+01
 0.5135520506313E+01
 0.5103738912334E+01
 0.5074293036026E+01
 0.5048509648579E+01
 0.5026626418227E+01
 0.5008509666041E+01
 0.4993950593501E+01
 0.4982780521655E+01
 0.4974909169089E+01
 0.4970328032158E+01
 0.4969094998480E+01
 0.4971302709711E+01
 0.4977022342932E+01
 0.4986203369152E+01
 0.4998510264236E+01
 0.5013140828865E+01
 0.5028800963698E+01
 0.5044026123753E+01
 0.5057773569019E+01
 0.5069526196947E+01
 0.5078624959777E+01
 0.5083550932437E+01
 0.5081599468346E+01
 0.5068914664635E+01
 0.5040634931788E+01
 0.4990810301493E+01
 0.4911816756598E+01
 0.4793208049019E+01
 0.4621725442568E+01
 0.4387621723217E+01
 0.4112746482063E+01
 0.3944675213052E+01
 0.4339463588564E+01
 0.5964666378178E+01
 0.8556685827783E+01
 0.4576811784017E+01
 0.4968052498751E+01
 0.5220379104275E+01
 0.5304325613100E+01
 0.5296812440694E+01
 0.5259865300316E+01
 0.5218773005204E+01
 0.5181156553345E+01
 0.5148912964572E+01
 0.5122103463794E+01
 0.5100251659465E+01
 0.5082830784398E+01
 0.5069423761386E+01
 0.5059764855382E+01
 0.5053738428151E+01
 0.5051362202850E+01
 0.5052764036798E+01
 0.5058151247178E+01
 0.5067762854106E+01
 0.5081780098127E+01
 0.5100153792099E+01
 0.5122357096258E+01
 0.5147262480533E+01
 0.5173456984989E+01
 0.5199944256145E+01
 0.5226307680350E+01
 0.5251997418484E+01
 0.5275589046307E+01
 0.5294496050061E+01
 0.5305042398384E+01
 0.5302628163486E+01
 0.5281624821890E+01
 0.5234503796014E+01
 0.5149712302564E+01
 0.5009655097301E+01
 0.4792006559928E+01
 0.4484596120317E+01
 0.4173504028105E+01
 0.4316336409448E+01
 0.5903346316985E+01
 0.8958292787019E+01
 0.4751314632825E+01
 0.5182158300072E+01
 0.5413005168186E+01
 0.5446328739032E+01
 0.5401846097107E+01
 0.5345729899587E+01
 0.5295346565458E+01
 0.5253428774817E+01
 0.5219551345484E+01
 0.5192546352135E+01
 0.5171295491856E+01
 0.5154941897161E+01
 0.5142906610688E+01
 0.5134859834590E+01
 0.5130683024173E+01
 0.5130434940902E+01
 0.5134322946649E+01
 0.5142675834210E+01
 0.5155909059316E+01
 0.5174458158862E+01
 0.5198620302156E+01
 0.5228251873754E+01
 0.5262505333106E+01
 0.5300081339813E+01
 0.5340032155718E+01
 0.5381999720306E+01
 0.5425485198609E+01
 0.5469147468975E+01
 0.5510612578252E+01
 0.5546592815146E+01
 0.5573071870222E+01
 0.5585270818897E+01
 0.5576731324243E+01
 0.5536514203822E+01
 0.5445497203660E+01
 0.5274109751786E+01
 0.4980637927996E+01
 0.4562900989625E+01
 0.4392792737744E+01
 0.5802776377368E+01
 0.9440223674706E+01
 0.4963615719104E+01
 0.5432683463802E+01
 0.5612126878731E+01
 0.5575362556363E+01
 0.5493174527506E+01
 0.5421451607960E+01
 0.5364502233889E+01
 0.5320245256555E+01
 0.5286100511233E+01
 0.5259817512086E+01
 0.5239771682333E+01
 0.5224863246220E+01
 0.5214410758744E+01
 0.5208059069570E+01
 0.5205711395812E+01
 0.5207482329181E+01
 0.5213666331505E+01
 0.5224716185910E+01
 0.5241223986300E+01
 0.5263887217852E+01
 0.5293397063092E+01
 0.5330120161030E+01
 0.5373661311112E+01
 0.5422953062120E+01
 0.5477102505487E+01
 0.5535706831390E+01
 0.5598169893687E+01
 0.5663161830437E+01
 0.5728608920312E+01
 0.5791844868246E+01
 0.5849755994953E+01
 0.5898878154754E+01
 0.5934704947003E+01
 0.5948782093197E+01
 0.5923783756693E+01
 0.5829545148000E+01
 0.5611579626476E+01
 0.5173554317615E+01
 0.4674654102783E+01
 0.5687294013231E+01
 0.1004103053133E+02
 0.5236228574166E+01
 0.5728355675873E+01
 0.5804005354330E+01
 0.5680049977911E+01
 0.5567336386789E+01
 0.5485823170490E+01
 0.5425731413332E+01
 0.5381485294679E+01
 0.5348570669456E+01
 0.5323978729865E+01
 0.5305752153248E+01
 0.5292657890411E+01
 0.5283981002763E+01
 0.5279383461633E+01
 0.5278816086553E+01
 0.5282463446444E+01
 0.5290712474476E+01
 0.5304137988614E+01
 0.5323500333885E+01
 0.5349747232744E+01
 0.5383980848757E+01
 0.5427207554470E+01
 0.5479741540767E+01
 0.5540981257342E+01
 0.5610121862058E+01
 0.5686507198059E+01
 0.5769146168773E+01
 0.5856562297330E+01
 0.5947067902815E+01
 0.6038900860052E+01
 0.6130186049992E+01
 0.6219118939051E+01
 0.6303784929244E+01
 0.6379780801849E+01
 0.6435622335534E+01
 0.6446357697560E+01
 0.6367887315122E+01
 0.6059138048339E+01
 0.5331467188003E+01
 0.5660207817962E+01
 0.1084247434306E+02
 0.5612683009375E+01
 0.6071151163761E+01
 0.5957254497965E+01
 0.5748737510825E+01
 0.5622933911053E+01
 0.5537911998891E+01
 0.5478927278156E+01
 0.5437237088017E+01
 0.5407105876554E+01
 0.5385181845306E+01
 0.5369370019796E+01
 0.5358433636196E+01
 0.5351696455756E+01
 0.5348882242108E+01
 0.5350014929153E+01
 0.5355361998482E+01
 0.5365405852715E+01
 0.5380837058833E+01
 0.5402567891760E+01
 0.5431765882474E+01
 0.5469908995847E+01
 0.5518726408141E+01
 0.5579600984262E+01
 0.5652869368266E+01
 0.5737933404686E+01
 0.5833478960185E+01
 0.5937573643069E+01
 0.6048328429966E+01
 0.6164540259295E+01
 0.6285710933742E+01
 0.6411631177889E+01
 0.6542343275943E+01
 0.6678735178608E+01
 0.6821297981180E+01
 0.6968058087257E+01
 0.7107526364479E+01
 0.7213279540085E+01
 0.7218782400063E+01
 0.6600161324228E+01
 0.6030826842098E+01
 0.1206433017852E+02
 0.6188273733430E+01
 0.6421085083897E+01
 0.6013525515733E+01
 0.5781692016934E+01
 0.5658814315895E+01
 0.5577523518908E+01
 0.5524468308289E+01
 0.5487791942827E+01
 0.5462004967980E+01
 0.5443668199225E+01
 0.5430822099835E+01
 0.5422343253730E+01
 0.5417670984955E+01
 0.5416633372681E+01
 0.5419351741746E+01
 0.5426187461373E+01
 0.5437719015134E+01
 0.5454742824390E+01
 0.5478299537118E+01
 0.5509733086981E+01
 0.5550806646255E+01
 0.5603905296106E+01
 0.5671886974164E+01
 0.5757003507498E+01
 0.5859219564449E+01
 0.5975743152809E+01
 0.6102747332830E+01
 0.6237559314421E+01
 0.6379602873137E+01
 0.6530102033067E+01
 0.6691118193810E+01
 0.6864797533769E+01
 0.7053999353644E+01
 0.7264466457870E+01
 0.7504486813602E+01
 0.7788801590863E+01
 0.8107046990549E+01
 0.8514491718483E+01
 0.8692397744390E+01
 0.7517846247729E+01
 0.1447742984295E+02
 0.7216952196069E+01
 0.6503794929668E+01
 0.5959943097740E+01
 0.5787488184401E+01
 0.5672522317782E+01
 0.5606433760007E+01
 0.5562848624945E+01
 0.5533771091455E+01
 0.5513690304049E+01
 0.5499776631452E+01
 0.5490365763042E+01
 0.5484584210356E+01
 0.5482052534592E+01
 0.5482743366450E+01
 0.5486896446625E+01
 0.5494975729772E+01
 0.5507653699057E+01
 0.5525820637209E+01
 0.5550616385602E+01
 0.5583507957199E+01
 0.5626432112930E+01
 0.5682131374140E+01
 0.5754969304042E+01
 0.5851222766694E+01
 0.5972468289023E+01
 0.6112533142193E+01
 0.6264192804982E+01
 0.6423560379046E+01
 0.6590931754510E+01
 0.6769824146343E+01
 0.6965371542627E+01
 0.7182646868192E+01
 0.7424764551603E+01
 0.7699102703628E+01
 0.8030031888059E+01
 0.8449098462072E+01
 0.9025493790575E+01
 0.9738340175318E+01
 0.1127353802840E+02
 0.1125689919701E+02
 0.2188811402983E+02
 0.3658517723589E+00
 0.4723923746731E+00
 0.5809069893276E+00
 0.6868161947382E+00
 0.7874337432434E+00
 0.8805749225636E+00
 0.9649437857280E+00
 0.1040124084871E+01
 0.1106112013460E+01
 0.1163095236586E+01
 0.1211422320599E+01
 0.1251532086091E+01
 0.1283799788778E+01
 0.1308419118474E+01
 0.1325413823357E+01
 0.1334691229514E+01
 0.1335748134292E+01
 0.1328484913813E+01
 0.1314803745814E+01
 0.1297403694814E+01
 0.3667251931970E+00
 0.4832168516325E+00
 0.5995851841759E+00
 0.7124091820125E+00
 0.8191188520488E+00
 0.9179340648543E+00
 0.1007810706040E+01
 0.1088288357626E+01
 0.1159285999872E+01
 0.1220979639496E+01
 0.1273721230700E+01
 0.1317967206994E+01
 0.1354140748750E+01
 0.1382532214573E+01
 0.1403300398419E+01
 0.1416416197662E+01
 0.1421294813640E+01
 0.1417691490575E+01
 0.1404170627021E+01
 0.1378240786378E+01
 0.3669397352934E+00
 0.4941784771270E+00
 0.6187519480182E+00
 0.7385259577183E+00
 0.8514354052135E+00
 0.9559872560538E+00
 0.1051309781685E+01
 0.1136994540602E+01
 0.1212953909905E+01
 0.1279356393144E+01
 0.1336563524430E+01
 0.1385050338730E+01
 0.1425279696023E+01
 0.1457602314871E+01
 0.1482209908900E+01
 0.1499004742007E+01
 0.1507350920322E+01
 0.1506252123144E+01
 0.1493804943676E+01
 0.1470057807795E+01
 0.3670994484472E+00
 0.5049939770494E+00
 0.6381399454622E+00
 0.7650414326611E+00
 0.8842307809560E+00
 0.9945460686917E+00
 0.1095286984574E+01
 0.1186125328332E+01
 0.1267006690222E+01
 0.1338113466985E+01
 0.1399820443690E+01
 0.1452619266883E+01
 0.1496996707112E+01
 0.1533324011165E+01
 0.1561771190999E+01
 0.1582170135403E+01
 0.1593774012618E+01
 0.1595494591262E+01
 0.1586291074891E+01
 0.1566983197989E+01
 0.3673568315102E+00
 0.5157949095722E+00
 0.6576269646933E+00
 0.7918094480445E+00
 0.9173560772305E+00
 0.1033453137260E+01
 0.1139591998386E+01
 0.1235546191305E+01
 0.1321317098638E+01
 0.1397117268006E+01
 0.1463340154621E+01
 0.1520490033313E+01
 0.1569062977932E+01
 0.1609427539713E+01
 0.1641725355502E+01
 0.1665742977579E+01
 0.1680791566782E+01
 0.1686080338065E+01
 0.1681194663659E+01
 0.1667223785525E+01
 0.3678085549561E+00
 0.5266371562210E+00
 0.6771773439904E+00
 0.8187135088265E+00
 0.9506717484313E+00
 0.1072561577429E+01
 0.1184078656222E+01
 0.1285115304411E+01
 0.1375743977996E+01
 0.1456218525800E+01
 0.1526955329075E+01
 0.1588468797515E+01
 0.1641256514050E+01
 0.1685680155590E+01
 0.1721868739043E+01
 0.1749632977007E+01
 0.1768458966878E+01
 0.1777881788185E+01
 0.1777916874343E+01
 0.1769717469877E+01
 0.3685192408492E+00
 0.5375585674574E+00
 0.6967608698949E+00
 0.8456645352477E+00
 0.9840525331625E+00
 0.1111732334442E+01
 0.1228603280025E+01
 0.1334686976684E+01
 0.1430137326476E+01
 0.1515257193388E+01
 0.1590489433926E+01
 0.1656358761888E+01
 0.1713364291295E+01
 0.1761868404616E+01
 0.1802016737483E+01
 0.1833698400497E+01
 0.1856602812926E+01
 0.1870552555345E+01
 0.1875849053601E+01
 0.1873662108133E+01
 0.3695381375801E+00
 0.5485803290411E+00
 0.7163486015359E+00
 0.8725844048054E+00
 0.1017386052612E+01
 0.1150833952227E+01
 0.1273024996792E+01
 0.1384113867059E+01
 0.1484342112100E+01
 0.1574066947030E+01
 0.1653761183315E+01
 0.1723962730963E+01
 0.1785177574730E+01
 0.1837782277548E+01
 0.1881964971147E+01
 0.1917719449114E+01
 0.1944931719330E+01
 0.1963659340596E+01
 0.1974402544031E+01
 0.1978341827997E+01
 0.3709050749615E+00
 0.5597134680664E+00
 0.7359096783961E+00
 0.8994012748470E+00
 0.1050568657051E+01
 0.1189742122646E+01
 0.1317206566628E+01
 0.1433249006218E+01
 0.1538201313497E+01
 0.1632478610047E+01
 0.1716587246013E+01
 0.1791083022423E+01
 0.1856486707373E+01
 0.1913202388947E+01
 0.1961477582437E+01
 0.2001419248325E+01
 0.2033089532445E+01
 0.2056734659582E+01
 0.2072996951698E+01
 0.2083067017630E+01
 0.3726538015178E+00
 0.5709620831174E+00
 0.7554114478917E+00
 0.9260470022161E+00
 0.1083503244640E+01
 0.1228338777716E+01
 0.1361015019969E+01
 0.1481947391033E+01
 0.1591558135775E+01
 0.1690322391163E+01
 0.1778783506583E+01
 0.1857520544154E+01
 0.1927077102346E+01
 0.1987895209004E+01
 0.2040290833767E+01
 0.2084482484159E+01
 0.2120685209066E+01
 0.2149295622530E+01
 0.2171057605158E+01
 0.2187165857188E+01
 0.3748138499901E+00
 0.5823256879735E+00
 0.7748200746646E+00
 0.9524563488993E+00
 0.1116098157308E+01
 0.1266511744834E+01
 0.1404322275379E+01
 0.1530067407881E+01
 0.1644257830763E+01
 0.1747429576212E+01
 0.1840165980081E+01
 0.1923074426224E+01
 0.1996728147895E+01
 0.2061614133248E+01
 0.2118120240054E+01
 0.2166569972820E+01
 0.2207309207565E+01
 0.2240854129439E+01
 0.2268019048918E+01
 0.2289989860761E+01
 0.3774117150998E+00
 0.5938008378069E+00
 0.7941013630605E+00
 0.9785668990288E+00
 0.1148266815346E+01
 0.1304154710093E+01
 0.1447005724043E+01
 0.1577471956165E+01
 0.1696149084638E+01
 0.1803633802129E+01
 0.1900551648785E+01
 0.1987542472172E+01
 0.2065214209386E+01
 0.2134102841313E+01
 0.2194667881407E+01
 0.2247329160685E+01
 0.2292543811131E+01
 0.2330923113252E+01
 0.2363328365242E+01
 0.2390917521348E+01
 0.3804716148135E+00
 0.6053823544522E+00
 0.8132216179077E+00
 0.1004319403035E+01
 0.1179927834778E+01
 0.1341167501655E+01
 0.1488948892513E+01
 0.1624029480366E+01
 0.1747085251844E+01
 0.1858772289519E+01
 0.1959759619255E+01
 0.2050722522275E+01
 0.2132306965170E+01
 0.2205099614764E+01
 0.2269629136805E+01
 0.2326402360961E+01
 0.2375970747382E+01
 0.2419021283396E+01
 0.2456444902864E+01
 0.2489354782615E+01
 0.3840160429393E+00
 0.6170643196132E+00
 0.8321485348788E+00
 0.1029658384717E+01
 0.1211005481827E+01
 0.1377456621970E+01
 0.1530042205661E+01
 0.1669614980500E+01
 0.1796925539220E+01
 0.1912687130538E+01
 0.2017612577740E+01
 0.2112414380333E+01
 0.2197778334978E+01
 0.2274341764521E+01
 0.2342698639955E+01
 0.2403433509637E+01
 0.2457177557320E+01
 0.2504677816267E+01
 0.2546841904666E+01
 0.2584730255896E+01
 0.3880661652868E+00
 0.6288408837941E+00
 0.8508520397878E+00
 0.1054532833471E+01
 0.1241430261393E+01
 0.1412935868257E+01
 0.1570183746762E+01
 0.1714110948167E+01
 0.1845536110613E+01
 0.1965226578839E+01
 0.2073938384088E+01
 0.2172421969620E+01
 0.2261403534441E+01
 0.2341569818526E+01
 0.2413575511239E+01
 0.2478073979879E+01
 0.2535763471885E+01
 0.2587438199737E+01
 0.2634013252030E+01
 0.2676496122815E+01
 0.3926421397453E+00
 0.6407069961436E+00
 0.8693051450295E+00
 0.1078897017705E+01
 0.1271139678233E+01
 0.1447527114507E+01
 0.1609280134910E+01
 0.1757408383867E+01
 0.1892791275328E+01
 0.2016246468276E+01
 0.2128571847589E+01
 0.2230555662553E+01
 0.2322964165733E+01
 0.2406531478034E+01
 0.2481968084524E+01
 0.2549987825952E+01
 0.2611345043623E+01
 0.2666870662818E+01
 0.2717481164808E+01
 0.2764135237033E+01
 0.3977633793241E+00
 0.6526590619059E+00
 0.8874847820578E+00
 0.1102711329967E+01
 0.1300079057821E+01
 0.1481161143705E+01
 0.1647247422142E+01
 0.1799407807197E+01
 0.1938574662417E+01
 0.2065611626846E+01
 0.2181356496524E+01
 0.2286634550806E+01
 0.2382251115899E+01
 0.2468985189437E+01
 0.2547598078372E+01
 0.2618856416822E+01
 0.2683561226035E+01
 0.2742571832722E+01
 0.2796802470600E+01
 0.2847168863956E+01
 0.4034487729203E+00
 0.6646955597699E+00
 0.9053726233397E+00
 0.1125943160170E+01
 0.1328202415798E+01
 0.1513778524109E+01
 0.1684012013930E+01
 0.1840020267503E+01
 0.1982780377962E+01
 0.2113197256309E+01
 0.2232146277883E+01
 0.2340488570062E+01
 0.2439067185902E+01
 0.2528703293844E+01
 0.2610204205060E+01
 0.2684382404195E+01
 0.2752077620949E+01
 0.2814171170388E+01
 0.2871573272942E+01
 0.2925162946722E+01
 0.4097168987867E+00
 0.6768176515943E+00
 0.9229559194639E+00
 0.1148567811193E+01
 0.1355473385332E+01
 0.1545330541268E+01
 0.1719511630151E+01
 0.1879168373887E+01
 0.2025314157613E+01
 0.2158890275180E+01
 0.2280807169517E+01
 0.2391960456698E+01
 0.2493229440789E+01
 0.2585474769995E+01
 0.2669545245672E+01
 0.2746293020641E+01
 0.2816589864692E+01
 0.2881334296646E+01
 0.2941432265881E+01
 0.2997732548659E+01
 0.4165862173441E+00
 0.6890297736262E+00
 0.9402283225471E+00
 0.1170569410751E+01
 0.1381866143731E+01
 0.1575780120779E+01
 0.1753696238310E+01
 0.1916787272129E+01
 0.2066094434244E+01
 0.2202590534682E+01
 0.2327218606208E+01
 0.2440907437916E+01
 0.2544571193495E+01
 0.2639107500260E+01
 0.2725402534051E+01
 0.2804342661789E+01
 0.2876826154564E+01
 0.2943765339527E+01
 0.3006062927681E+01
 0.3064544593083E+01
 0.4240752698822E+00
 0.7013402418637E+00
 0.9571907301593E+00
 0.1191941852098E+01
 0.1407366369261E+01
 0.1605102772262E+01
 0.1786528989121E+01
 0.1952825596258E+01
 0.2105053343108E+01
 0.2244211922868E+01
 0.2371274728814E+01
 0.2487202662816E+01
 0.2592943633762E+01
 0.2689430079779E+01
 0.2777581882450E+01
 0.2858314812430E+01
 0.2932549013010E+01
 0.3001208405072E+01
 0.3065194786321E+01
 0.3125318863691E+01
 0.4322028860691E+00
 0.7137618722563E+00
 0.9738521434507E+00
 0.1212689748185E+01
 0.1431972204956E+01
 0.1633287525903E+01
 0.1817987121999E+01
 0.1987246359004E+01
 0.2142137625350E+01
 0.2283683314899E+01
 0.2412885413648E+01
 0.2530736334298E+01
 0.2638217069366E+01
 0.2736293148580E+01
 0.2825914951223E+01
 0.2908023352691E+01
 0.2983556375596E+01
 0.3053448181417E+01
 0.3118603258358E+01
 0.3179826064734E+01
 0.4409884083111E+00
 0.7263126255316E+00
 0.9902305468038E+00
 0.1232829401990E+01
 0.1455695227224E+01
 0.1660337855499E+01
 0.1848062831656E+01
 0.2020027770144E+01
 0.2177309417145E+01
 0.2320949355796E+01
 0.2451977068757E+01
 0.2571416530712E+01
 0.2680281773388E+01
 0.2779570249778E+01
 0.2870260081642E+01
 0.2953313296184E+01
 0.3029682094107E+01
 0.3100309955075E+01
 0.3166108418294E+01
 0.3227885915971E+01
 0.4504519447692E+00
 0.7390162898523E+00
 0.1006353821178E+01
 0.1252389801671E+01
 0.1478561423443E+01
 0.1686272588414E+01
 0.1876764093517E+01
 0.2051163978867E+01
 0.2210546920065E+01
 0.2355971071850E+01
 0.2488493194873E+01
 0.2609169717278E+01
 0.2719048440499E+01
 0.2819158221349E+01
 0.2910502609877E+01
 0.2994060995879E+01
 0.3070795966793E+01
 0.3141659303735E+01
 0.3207574398392E+01
 0.3269366304580E+01
 0.4606146629979E+00
 0.7519032123759E+00
 0.1022260701888E+01
 0.1271413647502E+01
 0.1500612180519E+01
 0.1711126800112E+01
 0.1904115442838E+01
 0.2080665734046E+01
 0.2241844947636E+01
 0.2388726308529E+01
 0.2522394712661E+01
 0.2643940952299E+01
 0.2754448259290E+01
 0.2854977129498E+01
 0.2946554671572E+01
 0.3030173841013E+01
 0.3106803331000E+01
 0.3177401593570E+01
 0.3242908847943E+01
 0.3304182299208E+01
 0.4714991262314E+00
 0.7650110821187E+00
 0.1038001782207E+01
 0.1289958407233E+01
 0.1521905274951E+01
 0.1734952678461E+01
 0.1930158689521E+01
 0.2108560943995E+01
 0.2271215332521E+01
 0.2419209985188E+01
 0.2553660053782E+01
 0.2675693791719E+01
 0.2786432606520E+01
 0.2886969746599E+01
 0.2978354494146E+01
 0.3061589433908E+01
 0.3137644206722E+01
 0.3207481115403E+01
 0.3272061801131E+01
 0.3332294063606E+01
 0.4831296968168E+00
 0.7783857957182E+00
 0.1053640597929E+01
 0.1308097435499E+01
 0.1542515896651E+01
 0.1757820386077E+01
 0.1954953593828E+01
 0.2134895160282E+01
 0.2298687221893E+01
 0.2447434200683E+01
 0.2582285057776E+01
 0.2704409939430E+01
 0.2814972409527E+01
 0.2915100609634E+01
 0.3005865191021E+01
 0.3088274230092E+01
 0.3163291926415E+01
 0.3231879739108E+01
 0.3295023993068E+01
 0.3353703853443E+01
 0.4955330107409E+00
 0.7920824027878E+00
 0.1069254793075E+01
 0.1325921151659E+01
 0.1562537691959E+01
 0.1779818896816E+01
 0.1978578472295E+01
 0.2159731952624E+01
 0.2324307232606E+01
 0.2473428173248E+01
 0.2608282673965E+01
 0.2730088656302E+01
 0.2840057194744E+01
 0.2939354668593E+01
 0.3029073043969E+01
 0.3110221581873E+01
 0.3183751127636E+01
 0.3250614984096E+01
 0.3311824661740E+01
 0.3368452063174E+01
 0.5087385246899E+00
 0.8061661491739E+00
 0.1084937389825E+01
 0.1343538300638E+01
 0.1582083844740E+01
 0.1801056817515E+01
 0.2001130737934E+01
 0.2183153176233E+01
 0.2348139473067E+01
 0.2497238037196E+01
 0.2631682513449E+01
 0.2752745993798E+01
 0.2861693896424E+01
 0.2959735587793E+01
 0.3047985307403E+01
 0.3127449177416E+01
 0.3199055017801E+01
 0.3263737327588E+01
 0.3322528767301E+01
 0.3376612132880E+01
 0.5227791724904E+00
 0.8207136550242E+00
 0.1100798215486E+01
 0.1361077351385E+01
 0.1601288241948E+01
 0.1821663227343E+01
 0.2022727391974E+01
 0.2205259137736E+01
 0.2370265437655E+01
 0.2518926517573E+01
 0.2652530300929E+01
 0.2772413932298E+01
 0.2879905520148E+01
 0.2976263779989E+01
 0.3062627575465E+01
 0.3139995881175E+01
 0.3209261897772E+01
 0.3271326485717E+01
 0.3327233011790E+01
 0.3378283872370E+01
 0.5376920897882E+00
 0.8358141996369E+00
 0.1116965473900E+01
 0.1378688023215E+01
 0.1620306701266E+01
 0.1841788491993E+01
 0.2043505402718E+01
 0.2226168579002E+01
 0.2390783691949E+01
 0.2538572424173E+01
 0.2670887216530E+01
 0.2789139474827E+01
 0.2894729755452E+01
 0.2988974265156E+01
 0.3073040756583E+01
 0.3147917976544E+01
 0.3214451011530E+01
 0.3273486933077E+01
 0.3326059860675E+01
 0.3373584068382E+01
 0.5535194550650E+00
 0.8515711833018E+00
 0.1133587568897E+01
 0.1396543065785E+01
 0.1639318377974E+01
 0.1861605145251E+01
 0.2063622032018E+01
 0.2246018508425E+01
 0.2409809360830E+01
 0.2556269989118E+01
 0.2686829204724E+01
 0.2802983858636E+01
 0.2906217774521E+01
 0.2997914596572E+01
 0.3079277807396E+01
 0.3151284850578E+01
 0.3214717780350E+01
 0.3270343509571E+01
 0.3319152991214E+01
 0.3362640367710E+01
 0.5703093883245E+00
 0.8681037213530E+00
 0.1150835196993E+01
 0.1414840333270E+01
 0.1658527375302E+01
 0.1881308822553E+01
 0.2083255049264E+01
 0.2264963777136E+01
 0.2427473288223E+01
 0.2572127921228E+01
 0.2700446191018E+01
 0.2814021965539E+01
 0.2914433464042E+01
 0.3003143168467E+01
 0.3081400425774E+01
 0.3150174064956E+01
 0.3210168256953E+01
 0.3262037231142E+01
 0.3306678361992E+01
 0.3345601488956E+01
 0.5881168307057E+00
 0.8855483620911E+00
 0.1168903796312E+01
 0.1433805290591E+01
 0.1678164664639E+01
 0.1901119291935E+01
 0.2102602810894E+01
 0.2283176315867E+01
 0.2443920726554E+01
 0.2586268000954E+01
 0.2711841067066E+01
 0.2822341973637E+01
 0.2919453434315E+01
 0.3004728490620E+01
 0.3079476148799E+01
 0.3144665792683E+01
 0.3200912217765E+01
 0.3248720489340E+01
 0.3288826580054E+01
 0.3322657349010E+01
 0.6070043652483E+00
 0.9040609289364E+00
 0.1188016579160E+01
 0.1453694243092E+01
 0.1698490559619E+01
 0.1921281716994E+01
 0.2121884266272E+01
 0.2300844019276E+01
 0.2459309460873E+01
 0.2598823035362E+01
 0.2721128216643E+01
 0.2828045153009E+01
 0.2921368216543E+01
 0.3002750431615E+01
 0.3073576959652E+01
 0.3134836647810E+01
 0.3187053742223E+01
 0.3230549698610E+01
 0.3265814081743E+01
 0.3294053906910E+01
 0.6270425537292E+00
 0.9238183147667E+00
 0.1208428286256E+01
 0.1474798607390E+01
 0.1719797822171E+01
 0.1942068104138E+01
 0.2141338749854E+01
 0.2318169100949E+01
 0.2473807099165E+01
 0.2609933776030E+01
 0.2728431074252E+01
 0.2831245230822E+01
 0.2920284536840E+01
 0.2997304968626E+01
 0.3063781802845E+01
 0.3120754149012E+01
 0.3168676468221E+01
 0.3207672002594E+01
 0.3237883860329E+01
 0.3260117205297E+01
 0.6483094184725E+00
 0.9450199371324E+00
 0.1230430821002E+01
 0.1497450946707E+01
 0.1742415888399E+01
 0.1963778988446E+01
 0.2161225738129E+01
 0.2335366015895E+01
 0.2487587457074E+01
 0.2619744553515E+01
 0.2733878163657E+01
 0.2832066536618E+01
 0.2916327441816E+01
 0.2988512731398E+01
 0.3050189220294E+01
 0.3102476213358E+01
 0.3145820524842E+01
 0.3180192818667E+01
 0.3205303712305E+01
 0.3221308540192E+01
 0.6708865911262E+00
 0.9678902743802E+00
 0.1254361701938E+01
 0.1522034994328E+01
 0.1766715119293E+01
 0.1986745100292E+01
 0.2181824849133E+01
 0.2352658794299E+01
 0.2500825616474E+01
 0.2628397366275E+01
 0.2737597051425E+01
 0.2830639423817E+01
 0.2909640931294E+01
 0.2976527318004E+01
 0.3032942290452E+01
 0.3080083428810E+01
 0.3118448595097E+01
 0.3148094827086E+01
 0.3168328811373E+01
 0.3178341653654E+01
 0.6948498143607E+00
 0.9926730139864E+00
 0.1280634520613E+01
 0.1548996159993E+01
 0.1793106937042E+01
 0.2011330966573E+01
 0.2203437704003E+01
 0.2370276667605E+01
 0.2513691115024E+01
 0.2636024771184E+01
 0.2739706320203E+01
 0.2827091405335E+01
 0.2900382996919E+01
 0.2961544052772E+01
 0.3012246073238E+01
 0.3053755418169E+01
 0.3086537389738E+01
 0.3110992515501E+01
 0.3126984332741E+01
 0.3132443278596E+01
 0.7201615126540E+00
 0.1019758232618E+01
 0.1309809694787E+01
 0.1578815214096E+01
 0.1822039726141E+01
 0.2037955663626E+01
 0.2226388705401E+01
 0.2388444317837E+01
 0.2526339938613E+01
 0.2642742225312E+01
 0.2740306616450E+01
 0.2821534459658E+01
 0.2888708634614E+01
 0.2943797484445E+01
 0.2988404388527E+01
 0.3023766607718E+01
 0.3050366706041E+01
 0.3068472093508E+01
 0.3079707512444E+01
 0.3086867724251E+01
 0.6575983091636E+00
 0.2569743607648E+00
 0.1442717688645E+00
 0.3018265628870E+00
 0.3484825431279E+00
 0.3434122729635E+00
 0.3408721160494E+00
 0.3553556155438E+00
 0.3711865793609E+00
 0.3797804431059E+00
 0.3801016012680E+00
 0.3721028279356E+00
 0.3547874878184E+00
 0.3269539301167E+00
 0.2888475344984E+00
 0.2402369605785E+00
 0.1798891016520E+00
 0.1153602062177E+00
 0.5487299069487E-01
 0.7051614002946E-02
 0.5553796995031E+00
 0.3920897612462E+00
 0.5002594963977E-01
 0.1460369856063E+00
 0.2336387942059E+00
 0.2692287458227E+00
 0.2871073723710E+00
 0.3054465911391E+00
 0.3224571034731E+00
 0.3336982874787E+00
 0.3379874107356E+00
 0.3347656242096E+00
 0.3233059586640E+00
 0.3025442239090E+00
 0.2717102384206E+00
 0.2304415666649E+00
 0.1797775783633E+00
 0.1220165447849E+00
 0.6061957213279E-01
 0.6311906682949E-02
 0.4848657795536E+00
 0.4031811439127E+00
 0.1853514779493E+00
 0.4522715836094E-02
 0.1166885824392E+00
 0.1810215216463E+00
 0.2197466368321E+00
 0.2470542942991E+00
 0.2678346722213E+00
 0.2824292033703E+00
 0.2908262152725E+00
 0.2926615539801E+00
 0.2872764017809E+00
 0.2736694973952E+00
 0.2508006303312E+00
 0.2181242882170E+00
 0.1762143651561E+00
 0.1247905472956E+00
 0.6454487644363E-01
 0.4743968334650E-02
 0.4405045351365E+00
 0.3951535122672E+00
 0.2634942850373E+00
 0.1167396803929E+00
 0.4127304266511E-02
 0.8543133553161E-01
 0.1412105937146E+00
 0.1791069351607E+00
 0.2058918997557E+00
 0.2249823783017E+00
 0.2379050836494E+00
 0.2449396699136E+00
 0.2457145182792E+00
 0.2393950263524E+00
 0.2248437916428E+00
 0.2011642504575E+00
 0.1684540010469E+00
 0.1242926653551E+00
 0.6737306680117E-01
 0.3035701058734E-02
 0.4122232153487E+00
 0.3855463560790E+00
 0.3115078159760E+00
 0.2077932471444E+00
 0.1018519034154E+00
 0.1278618828273E-01
 0.5503043685842E-01
 0.1025091593679E+00
 0.1361192620875E+00
 0.1605693188825E+00
 0.1784695773894E+00
 0.1908320112617E+00
 0.1977477172939E+00
 0.1986845947122E+00
 0.1925255491241E+00
 0.1781318764171E+00
 0.1551916627707E+00
 0.1196523245079E+00
 0.6846653692371E-01
 0.5598716029663E-02
 0.3942776688043E+00
 0.3789625236277E+00
 0.3435393741641E+00
 0.2771946088408E+00
 0.1924594684924E+00
 0.1075280903319E+00
 0.3522072886080E-01
 0.1927243345274E-01
 0.5906888308213E-01
 0.8897808354412E-01
 0.1120144467289E+00
 0.1297032136614E+00
 0.1426073183561E+00
 0.1505790898523E+00
 0.1526586863265E+00
 0.1476138293880E+00
 0.1348947374149E+00
 0.1092485042744E+00
 0.6606537735549E-01
 0.9093081521302E-02
 0.3830765625750E+00
 0.3761798231538E+00
 0.3672098505289E+00
 0.3312202255448E+00
 0.2696835180120E+00
 0.1961807398417E+00
 0.1256195531901E+00
 0.6817582189900E-01
 0.2392471004378E-01
 0.1069704532658E-01
 0.3849091437853E-01
 0.6120409899419E-01
 0.7972790413101E-01
 0.9429395644337E-01
 0.1041975299532E+00
 0.1082669344631E+00
 0.1058899420043E+00
 0.9102949892796E-01
 0.5764132977190E-01
 0.8923828858852E-02
 0.3763073860422E+00
 0.3768636064680E+00
 0.3866151707342E+00
 0.3747293742196E+00
 0.3354188177891E+00
 0.2770301703204E+00
 0.2134554286707E+00
 0.1571315030980E+00
 0.1110669933701E+00
 0.7335345955502E-01
 0.4180450231306E-01
 0.1500882688802E-01
 0.9385430951172E-02
 0.2943954233549E-01
 0.4638959824314E-01
 0.5895336992735E-01
 0.6657615185228E-01
 0.6282703541590E-01
 0.4036225988488E-01
 0.2911629043950E-02
 0.3724301928215E+00
 0.3803714772216E+00
 0.4039633226284E+00
 0.4111703125425E+00
 0.3919196930966E+00
 0.3500068694703E+00
 0.2969290847424E+00
 0.2454208028308E+00
 0.2004417600969E+00
 0.1616740862569E+00
 0.1277993044720E+00
 0.9767087633565E-01
 0.7034842446953E-01
 0.4518039907235E-01
 0.2250165039973E-01
 0.6165186790454E-02
 0.1634612214049E-01
 0.2302487749889E-01
 0.1229526397866E-01
 0.1875513942317E-01
 0.3703955303250E+00
 0.3860284972094E+00
 0.4204151737269E+00
 0.4428997830776E+00
 0.4412533782117E+00
 0.4157817226316E+00
 0.3752350959997E+00
 0.3314365422743E+00
 0.2903076937970E+00
 0.2527942082076E+00
 0.2184628971689E+00
 0.1866904369103E+00
 0.1567620904567E+00
 0.1279599239905E+00
 0.1002172062789E+00
 0.7402784716148E-01
 0.4952282538076E-01
 0.3286701237465E-01
 0.3316133533039E-01
 0.5204317799484E-01
 0.3694769447284E+00
 0.3932186814834E+00
 0.4365371237424E+00
 0.4714846557573E+00
 0.4851233542654E+00
 0.4753150208660E+00
 0.4482353968347E+00
 0.4141877383716E+00
 0.3792708917006E+00
 0.3452646967971E+00
 0.3124798222204E+00
 0.2808302980676E+00
 0.2499314208989E+00
 0.2191541256542E+00
 0.1882897057636E+00
 0.1575584989793E+00
 0.1267700564826E+00
 0.1015006443104E+00
 0.9199370214005E-01
 0.1018951159640E+00
 0.3691674382490E+00
 0.4014105046211E+00
 0.4525528691293E+00
 0.4979338294350E+00
 0.5248476144053E+00
 0.5295985970287E+00
 0.5161816060384E+00
 0.4931761231655E+00
 0.4663242695524E+00
 0.4378337318441E+00
 0.4085534298392E+00
 0.3788677579773E+00
 0.3487550627904E+00
 0.3177698757250E+00
 0.2856547582219E+00
 0.2524070167675E+00
 0.2175416364476E+00
 0.1857726536072E+00
 0.1678040896783E+00
 0.1693890358223E+00
 0.3691130544448E+00
 0.4101580523329E+00
 0.4684881232011E+00
 0.5228651612423E+00
 0.5613960697910E+00
 0.5795229446376E+00
 0.5795084274406E+00
 0.5682448585917E+00
 0.5508050213310E+00
 0.5294963119123E+00
 0.5054935302071E+00
 0.4795436497045E+00
 0.4519739748878E+00
 0.4225875589529E+00
 0.3911717461579E+00
 0.3575670424949E+00
 0.3210030164047E+00
 0.2850554591670E+00
 0.2603920973451E+00
 0.2546402708174E+00
 0.3690690434279E+00
 0.4190938924629E+00
 0.4842561287278E+00
 0.5466231894279E+00
 0.5954450762691E+00
 0.6258183723973E+00
 0.6386949497392E+00
 0.6394410062939E+00
 0.6323155337537E+00
 0.6194888147577E+00
 0.6022714645945E+00
 0.5816498820100E+00
 0.5582543210730E+00
 0.5321773246769E+00
 0.5033523615422E+00
 0.4715694685022E+00
 0.4358214973612E+00
 0.3982845227826E+00
 0.3689347304850E+00
 0.3568262686106E+00
 0.3688703648626E+00
 0.4279201200537E+00
 0.4997093438985E+00
 0.5693617739855E+00
 0.6274318905328E+00
 0.6690373598732E+00
 0.6941784146020E+00
 0.7069057410741E+00
 0.7106359722362E+00
 0.7072500263400E+00
 0.6980375183237E+00
 0.6840970395615E+00
 0.6662880950999E+00
 0.6450043970608E+00
 0.6204319322949E+00
 0.5924794886436E+00
 0.5600510522102E+00
 0.5237414865696E+00
 0.4919382802660E+00
 0.4743389134884E+00
 0.3684119313529E+00
 0.4364001953212E+00
 0.5146712716585E+00
 0.5911018095453E+00
 0.6576027794895E+00
 0.7095585903539E+00
 0.7463050679961E+00
 0.7707931159091E+00
 0.7856420871026E+00
 0.7923633427342E+00
 0.7921062082628E+00
 0.7859556231709E+00
 0.7748934212986E+00
 0.7595749262330E+00
 0.7405135361140E+00
 0.7179675357014E+00
 0.6910970254435E+00
 0.6589884555098E+00
 0.6273429662803E+00
 0.6050131844260E+00
 0.3676359206699E+00
 0.4443539499041E+00
 0.5289550318146E+00
 0.6117712697418E+00
 0.6860524300972E+00
 0.7476019104586E+00
 0.7953065307434E+00
 0.8312143612745E+00
 0.8572343617316E+00
 0.8744882155756E+00
 0.8839094969292E+00
 0.8864570710082E+00
 0.8830964189050E+00
 0.8746188578444E+00
 0.8618360644940E+00
 0.8455219151836E+00
 0.8256749175899E+00
 0.8006546427387E+00
 0.7724821506201E+00
 0.7464620626590E+00
 0.3665288735723E+00
 0.4516517800452E+00
 0.5423759594845E+00
 0.6312270423465E+00
 0.7127563004620E+00
 0.7832476347477E+00
 0.8412938488620E+00
 0.8882054276266E+00
 0.9252838155542E+00
 0.9532889272057E+00
 0.9729163581728E+00
 0.9849276807501E+00
 0.9901343161533E+00
 0.9892580211322E+00
 0.9831719051473E+00
 0.9730818473507E+00
 0.9600976454450E+00
 0.9437820294585E+00
 0.9236369259690E+00
 0.8963371927939E+00
 0.3651199767519E+00
 0.4582467072774E+00
 0.5547194448981E+00
 0.6492751955056E+00
 0.7375961494470E+00
 0.8164541430357E+00
 0.8842629052219E+00
 0.9417182662320E+00
 0.9896037368838E+00
 0.1028377051243E+01
 0.1058533036395E+01
 0.1080637580898E+01
 0.1095282622262E+01
 0.1102942348987E+01
 0.1104178331772E+01
 0.1100030942471E+01
 0.1092305899842E+01
 0.1081900334067E+01
 0.1072608160167E+01
 0.1052705636792E+01
 0.3637019325251E+00
 0.4638969246006E+00
 0.5657294114284E+00
 0.6657168367196E+00
 0.7603746023484E+00
 0.8470508608769E+00
 0.9241099593001E+00
 0.9916430859123E+00
 0.1049957627923E+01
 0.1099296432338E+01
 0.1140033340309E+01
 0.1172619833236E+01
 0.1197481996867E+01
 0.1214856077468E+01
 0.1224867323447E+01
 0.1227763015172E+01
 0.1224428721021E+01
 0.1215654533650E+01
 0.1206164070744E+01
 0.1204012846978E+01
 0.7546295641306E+00
 0.1063358220131E+01
 0.1361788372196E+01
 0.1636150103169E+01
 0.1881312069537E+01
 0.2095658999240E+01
 0.2279238137117E+01
 0.2433935874893E+01
 0.2562767563088E+01
 0.2669024192754E+01
 0.2755814227670E+01
 0.2825945049899E+01
 0.2881930680243E+01
 0.2925893993909E+01
 0.2959557196570E+01
 0.2984403533205E+01
 0.3002060414119E+01
 0.3013195333567E+01
 0.3021119008335E+01
 0.3033074723750E+01
 0.7955889602695E+00
 0.1122813979614E+01
 0.1435321410396E+01
 0.1718915368602E+01
 0.1967552484958E+01
 0.2179739439726E+01
 0.2356191671431E+01
 0.2499862312959E+01
 0.2615027868086E+01
 0.2706045591825E+01
 0.2776788386857E+01
 0.2830599176029E+01
 0.2870399064520E+01
 0.2898651795342E+01
 0.2917468910964E+01
 0.2928968771398E+01
 0.2935716085795E+01
 0.2938240705415E+01
 0.2939645126628E+01
 0.2935969846361E+01
 0.8392071680070E+00
 0.1187654555735E+01
 0.1514850842943E+01
 0.1806252612689E+01
 0.2055793731813E+01
 0.2262578943478E+01
 0.2428361465145E+01
 0.2557360588595E+01
 0.2655418238822E+01
 0.2728190186383E+01
 0.2780403555708E+01
 0.2815975036707E+01
 0.2838269044182E+01
 0.2850099278608E+01
 0.2853901422869E+01
 0.2852057226641E+01
 0.2846940135658E+01
 0.2837679849339E+01
 0.2825235827372E+01
 0.2811629335858E+01
 0.8866366808364E+00
 0.1258619700038E+01
 0.1600844593917E+01
 0.1898330690026E+01
 0.2145630337615E+01
 0.2343103888821E+01
 0.2494030860613E+01
 0.2604344384025E+01
 0.2681806346276E+01
 0.2733523804894E+01
 0.2765092161092E+01
 0.2780957088446E+01
 0.2784835489672E+01
 0.2779712358444E+01
 0.2768034817859E+01
 0.2751956807599E+01
 0.2733148744902E+01
 0.2709233131212E+01
 0.2683673504704E+01
 0.2666070777430E+01
 0.9387374334323E+00
 0.1336959465432E+01
 0.1693998963254E+01
 0.1995161883903E+01
 0.2236293804828E+01
 0.2419776428301E+01
 0.2551092812205E+01
 0.2638470575231E+01
 0.2691953527310E+01
 0.2720150870227E+01
 0.2729422030409E+01
 0.2724585811036E+01
 0.2709510250098E+01
 0.2687087280564E+01
 0.2659483720243E+01
 0.2628410939577E+01
 0.2594785412284E+01
 0.2555976344617E+01
 0.2519498380251E+01
 0.2500538972474E+01
 0.9964871048943E+00
 0.1424019838197E+01
 0.1795081758491E+01
 0.2096565677412E+01
 0.2326610590021E+01
 0.2490585579975E+01
 0.2597032506451E+01
 0.2657158384821E+01
 0.2683580278166E+01
 0.2686303918755E+01
 0.2672210137647E+01
 0.2646233734335E+01
 0.2612130716797E+01
 0.2572440019653E+01
 0.2528865553051E+01
 0.2482633472413E+01
 0.2434120051074E+01
 0.2381191426288E+01
 0.2335534394354E+01
 0.2316801118663E+01
 0.1061034765542E+01
 0.1521309124536E+01
 0.1904810603200E+01
 0.2202072139811E+01
 0.2414928807828E+01
 0.2553001357152E+01
 0.2628938506855E+01
 0.2657658214189E+01
 0.2654479398050E+01
 0.2630483947562E+01
 0.2592683963620E+01
 0.2545793373888E+01
 0.2493168730962E+01
 0.2436771960882E+01
 0.2377736781113E+01
 0.2316836900331E+01
 0.2254035449707E+01
 0.2188087510830E+01
 0.2134659805558E+01
 0.2117110079360E+01
 0.1133758903809E+01
 0.1630516196470E+01
 0.2023790614870E+01
 0.2310800440964E+01
 0.2499011839780E+01
 0.2603928863905E+01
 0.2643544123841E+01
 0.2637171506439E+01
 0.2602678278887E+01
 0.2551632914819E+01
 0.2490643470041E+01
 0.2423811620769E+01
 0.2353808879136E+01
 0.2281836939907E+01
 0.2208400334509E+01
 0.2133851048786E+01
 0.2057775682361E+01
 0.1980074255303E+01
 0.1920081601154E+01
 0.1904235727756E+01
 0.1216328811636E+01
 0.1753533895540E+01
 0.2152430024094E+01
 0.2421312465955E+01
 0.2575910489031E+01
 0.2639676373140E+01
 0.2637319173127E+01
 0.2593031139929E+01
 0.2526645718398E+01
 0.2449318302958E+01
 0.2366594869116E+01
 0.2281555984395E+01
 0.2195933462631E+01
 0.2110037809398E+01
 0.2023722855029E+01
 0.1936943079784E+01
 0.1848900547410E+01
 0.1760854357569E+01
 0.1695429876135E+01
 0.1681433442288E+01
 0.1310783518123E+01
 0.1892479258005E+01
 0.2290818459576E+01
 0.2531417592873E+01
 0.2641818373587E+01
 0.2655960794563E+01
 0.2606638215568E+01
 0.2522954298025E+01
 0.2425534038725E+01
 0.2323906283052E+01
 0.2221833893564E+01
 0.2121009882878E+01
 0.2022043167283E+01
 0.1924292760795E+01
 0.1826983113647E+01
 0.1729700770898E+01
 0.1631244607928E+01
 0.1534446063349E+01
 0.1464760953387E+01
 0.1452457772208E+01
 0.1419638734410E+01
 0.2049707795586E+01
 0.2438539133665E+01
 0.2637906199233E+01
 0.2691918283971E+01
 0.2647987718947E+01
 0.2548060643736E+01
 0.2425374333862E+01
 0.2299433524384E+01
 0.2176688601850E+01
 0.2058452819323E+01
 0.1944792820860E+01
 0.1835125840327E+01
 0.1727883813838E+01
 0.1621729730421E+01
 0.1515926957470E+01
 0.1408864386491E+01
 0.1305161757100E+01
 0.1232547395008E+01
 0.1221601395394E+01
 0.1546037765973E+01
 0.2227810744933E+01
 0.2594368492611E+01
 0.2736181034768E+01
 0.2720245042108E+01
 0.2610668552512E+01
 0.2458763685438E+01
 0.2299837706428E+01
 0.2149588062885E+01
 0.2009911849726E+01
 0.1879245633847E+01
 0.1756007808524E+01
 0.1638489038853E+01
 0.1524296465027E+01
 0.1411641701213E+01
 0.1299532850747E+01
 0.1185968866690E+01
 0.1077567191483E+01
 0.1003665045788E+01
 0.9937538800721E+00
 0.1693972365453E+01
 0.2429568852717E+01
 0.2755778778395E+01
 0.2819748634470E+01
 0.2719630289438E+01
 0.2539076878431E+01
 0.2337157769945E+01
 0.2147401447644E+01
 0.1978478259413E+01
 0.1826650937503E+01
 0.1687505785629E+01
 0.1558042041763E+01
 0.1435584133650E+01
 0.1317064177666E+01
 0.1200391004165E+01
 0.1084422353625E+01
 0.9668310850309E+00
 0.8564230783358E+00
 0.7833711240994E+00
 0.7744662359737E+00
 0.1868618195660E+01
 0.2657797685927E+01
 0.2918083354030E+01
 0.2879536763675E+01
 0.2681883746488E+01
 0.2429293402906E+01
 0.2183649798267E+01
 0.1970866503404E+01
 0.1789642097131E+01
 0.1630501790911E+01
 0.1486765076498E+01
 0.1354376838854E+01
 0.1229853278332E+01
 0.1109624299858E+01
 0.9915001954389E+00
 0.8743565470489E+00
 0.7556696977684E+00
 0.6465961297473E+00
 0.5772519993353E+00
 0.5699967008846E+00
 0.2076865953639E+01
 0.2914919404738E+01
 0.3072906832240E+01
 0.2903062675585E+01
 0.2598554096931E+01
 0.2279805204701E+01
 0.2001319294893E+01
 0.1774546616353E+01
 0.1587137690733E+01
 0.1425189721010E+01
 0.1280588661895E+01
 0.1148464735388E+01
 0.1024607123978E+01
 0.9051722516243E+00
 0.7881800247382E+00
 0.6727853656176E+00
 0.5564822423573E+00
 0.4529110058965E+00
 0.3910979384586E+00
 0.3872875496304E+00
 0.2328198442999E+01
 0.3201798679569E+01
 0.3205340624675E+01
 0.2873720673150E+01
 0.2463013627773E+01
 0.2093401828985E+01
 0.1795852063836E+01
 0.1563199759498E+01
 0.1374854067863E+01
 0.1214344988373E+01
 0.1072536147725E+01
 0.9436731349769E+00
 0.8228953910730E+00
 0.7064857068733E+00
 0.5931379791217E+00
 0.4826395373388E+00
 0.3728090307418E+00
 0.2798917887271E+00
 0.2306239229501E+00
 0.2337672878614E+00
 0.2636243148924E+01
 0.3514489983719E+01
 0.3288356835396E+01
 0.2771582941848E+01
 0.2275067128926E+01
 0.1878632517519E+01
 0.1573238465530E+01
 0.1340623571154E+01
 0.1156252041955E+01
 0.1001665356117E+01
 0.8662650257153E+00
 0.7431910154291E+00
 0.6273049025391E+00
 0.5157123771747E+00
 0.4083681982367E+00
 0.3060959381020E+00
 0.2074024313397E+00
 0.1313256969994E+00
 0.1008875176464E+00
 0.1167641474650E+00
 0.3021302462950E+01
 0.3833400846635E+01
 0.3272686168353E+01
 0.2579925345544E+01
 0.2050174165492E+01
 0.1645091084928E+01
 0.1336559945686E+01
 0.1109303450571E+01
 0.9349581994119E+00
 0.7914191691237E+00
 0.6655141259417E+00
 0.5497381580454E+00
 0.4396868660009E+00
 0.3341600838639E+00
 0.2349732713817E+00
 0.1443093426724E+00
 0.6184419351636E-01
 0.9678546972157E-02
 0.5287380557216E-02
 0.4212310932080E-01
 0.3517006755858E+01
 0.4087182961012E+01
 0.3063710129756E+01
 0.2327904762297E+01
 0.1810388306195E+01
 0.1395419199647E+01
 0.1085360111044E+01
 0.8716443744953E+00
 0.7163250496555E+00
 0.5886747455061E+00
 0.4735497347228E+00
 0.3650787469245E+00
 0.2609485705253E+00
 0.1622455499702E+00
 0.7289661589753E-01
 0.2777988598787E-02
 0.6394159597367E-01
 0.8520871726405E-01
 0.5680127475615E-01
 0.1202007269695E-01
 0.4124869796722E+01
 0.3847190396936E+01
 0.2698017744735E+01
 0.2076797533377E+01
 0.1562089403044E+01
 0.1125377233454E+01
 0.8158825811409E+00
 0.6344831797419E+00
 0.5085754848404E+00
 0.3980533149555E+00
 0.2921610254842E+00
 0.1896356266746E+00
 0.9112108970860E-01
 0.3748026129130E-03
 0.7910537084110E-01
 0.1379842243676E+00
 0.1701643187013E+00
 0.1541223500711E+00
 0.9167496806150E-01
 0.1704087588971E-01
 0.1229280774970E+01
 0.1071076303962E+01
 0.9219224841224E+00
 0.7770480895373E+00
 0.6374841475243E+00
 0.5069555241799E+00
 0.3888629045512E+00
 0.2861067631041E+00
 0.2008400706383E+00
 0.1342811369207E+00
 0.8653568453411E-01
 0.5648110446627E-01
 0.4178179859171E-01
 0.3903767033999E-01
 0.4397110320248E-01
 0.5197643606336E-01
 0.5903573950207E-01
 0.6257284806520E-01
 0.6208193454786E-01
 0.5896926961332E-01
 0.1316734554076E+01
 0.1177722966792E+01
 0.1023600469867E+01
 0.8722821550666E+00
 0.7264036103896E+00
 0.5885260523173E+00
 0.4619170687533E+00
 0.3498329748128E+00
 0.2550963551342E+00
 0.1797377498742E+00
 0.1246965604939E+00
 0.8958381403233E-01
 0.7255299471180E-01
 0.7027815788563E-01
 0.7807072391173E-01
 0.9042402871289E-01
 0.1020169368411E+00
 0.1089058485693E+00
 0.1095256967314E+00
 0.1056989017338E+00
 0.1406411251762E+01
 0.1277064032840E+01
 0.1130663557347E+01
 0.9784861859377E+00
 0.8283322844051E+00
 0.6840508103778E+00
 0.5491644777758E+00
 0.4272796200769E+00
 0.3218274023160E+00
 0.2356881424153E+00
 0.1707971419110E+00
 0.1277763891338E+00
 0.1056334346736E+00
 0.1015455085272E+00
 0.1107918564998E+00
 0.1271311891596E+00
 0.1438091149791E+00
 0.1550486668816E+00
 0.1576682630821E+00
 0.1520438487915E+00
 0.1502390648537E+01
 0.1379554182094E+01
 0.1240894378169E+01
 0.1092895262052E+01
 0.9422014369677E+00
 0.7938809092099E+00
 0.6520603911304E+00
 0.5207623424848E+00
 0.4039773932231E+00
 0.3054098988997E+00
 0.2280815127802E+00
 0.1738719310949E+00
 0.1430518269442E+00
 0.1338425875456E+00
 0.1420650937603E+00
 0.1611718916312E+00
 0.1830348129544E+00
 0.1996237439536E+00
 0.2052488434222E+00
 0.1981378788512E+00
 0.1603560607669E+01
 0.1486939420550E+01
 0.1356262437209E+01
 0.1214686396901E+01
 0.1067084773392E+01
 0.9180722981960E+00
 0.7719458175922E+00
 0.6329396551207E+00
 0.5053955044684E+00
 0.3936510946010E+00
 0.3017251814802E+00
 0.2328549797452E+00
 0.1889280889382E+00
 0.1698406028825E+00
 0.1728184289589E+00
 0.1919249731175E+00
 0.2182618205528E+00
 0.2413979140723E+00
 0.2522375671927E+00
 0.2460665537437E+00
 0.1708918690338E+01
 0.1599021817480E+01
 0.1476831989780E+01
 0.1343371427408E+01
 0.1201746056076E+01
 0.1055588654665E+01
 0.9086922200938E+00
 0.7650579997585E+00
 0.6289810813269E+00
 0.5050316690450E+00
 0.3978658505385E+00
 0.3118595108655E+00
 0.2505646881465E+00
 0.2159854756187E+00
 0.2076613622507E+00
 0.2216339322116E+00
 0.2497072065159E+00
 0.2798442406640E+00
 0.2988901371322E+00
 0.2977086045445E+00
 0.1817481910323E+01
 0.1715144932619E+01
 0.1602123472892E+01
 0.1478158664302E+01
 0.1344924518445E+01
 0.1204933025754E+01
 0.1061146571506E+01
 0.9169231556132E+00
 0.7760727039425E+00
 0.6428917743367E+00
 0.5221059637327E+00
 0.4186699344945E+00
 0.3373837816244E+00
 0.2822773184824E+00
 0.2556903518516E+00
 0.2569621539895E+00
 0.2808036327497E+00
 0.3159193053880E+00
 0.3456934502514E+00
 0.3539699982918E+00
 0.1928231206892E+01
 0.1834354034882E+01
 0.1731227042586E+01
 0.1617916570292E+01
 0.1495062328951E+01
 0.1364178708929E+01
 0.1227327905171E+01
 0.1087036994902E+01
 0.9463324736557E+00
 0.8088078185097E+00
 0.6786647678121E+00
 0.5606811332395E+00
 0.4600547414084E+00
 0.3820576446279E+00
 0.3313987107315E+00
 0.3111184047751E+00
 0.3207658719415E+00
 0.3536728947309E+00
 0.3938450648733E+00
 0.4172417826696E+00
 0.2040149367203E+01
 0.1955562910571E+01
 0.1862996614096E+01
 0.1761247850716E+01
 0.1650300017890E+01
 0.1530908329866E+01
 0.1404356878464E+01
 0.1272373289557E+01
 0.1137143394565E+01
 0.1001377438317E+01
 0.8683922184394E+00
 0.7421789229064E+00
 0.6274240496695E+00
 0.5294375436681E+00
 0.4539113172733E+00
 0.4063624625879E+00
 0.3909575992644E+00
 0.4081545680984E+00
 0.4498711610186E+00
 0.4914662053748E+00
 0.2152258625493E+01
 0.2077675313753E+01
 0.1996221966717E+01
 0.1906681888493E+01
 0.1808688533601E+01
 0.1702496889773E+01
 0.1588820795561E+01
 0.1468761046058E+01
 0.1343805192560E+01
 0.1215875888406E+01
 0.1087409043044E+01
 0.9614469187306E+00
 0.8417316979151E+00
 0.7327802909390E+00
 0.6399072388163E+00
 0.5691272269959E+00
 0.5267831704500E+00
 0.5184896117269E+00
 0.5464189671193E+00
 0.5993909387556E+00
 0.2263649028661E+01
 0.2199649887066E+01
 0.2129724947396E+01
 0.2052796058893E+01
 0.1968363196604E+01
 0.1876397210000E+01
 0.1777245878391E+01
 0.1671585543088E+01
 0.1560419254568E+01
 0.1445113580783E+01
 0.1327466513547E+01
 0.1209801401305E+01
 0.1095084409342E+01
 0.9870650063478E+00
 0.8904400675047E+00
 0.8110423159067E+00
 0.7560480673156E+00
 0.7341970447361E+00
 0.7559317951592E+00
 0.8339656307469E+00
 0.2373443649860E+01
 0.2320438731373E+01
 0.2262306900156E+01
 0.2198182344127E+01
 0.2127561650463E+01
 0.2050279737954E+01
 0.1966468326566E+01
 0.1876532533784E+01
 0.1781155699907E+01
 0.1681333602234E+01
 0.1578437730138E+01
 0.1474309099573E+01
 0.1371387684453E+01
 0.1272888111364E+01
 0.1183041495320E+01
 0.1107440190840E+01
 0.1053559579342E+01
 0.1031620036377E+01
 0.1056252235164E+01
 0.1150964392629E+01
 0.2480785657374E+01
 0.2438943041798E+01
 0.2392663937061E+01
 0.2341305666040E+01
 0.2284427018433E+01
 0.2221814316145E+01
 0.2153475214683E+01
 0.2079634235881E+01
 0.2000743352389E+01
 0.1917512817788E+01
 0.1830965260962E+01
 0.1742516933164E+01
 0.1654092897381E+01
 0.1568288033677E+01
 0.1488594216762E+01
 0.1419728864648E+01
 0.1368127122392E+01
 0.1342711668470E+01
 0.1356173958310E+01
 0.1426591042918E+01
 0.2584871420335E+01
 0.2554091838611E+01
 0.2519484429795E+01
 0.2480601655418E+01
 0.2437087098167E+01
 0.2388723221908E+01
 0.2335445216270E+01
 0.2277347903214E+01
 0.2214698392208E+01
 0.2147960544207E+01
 0.2077834848967E+01
 0.2005317131031E+01
 0.1931780729484E+01
 0.1859089199547E+01
 0.1789750226123E+01
 0.1727126257217E+01
 0.1675721168290E+01
 0.1641557200872E+01
 0.1632558105951E+01
 0.1658687164099E+01
 0.2684962451292E+01
 0.2664895438728E+01
 0.2641537702462E+01
 0.2614592366437E+01
 0.2583782624201E+01
 0.2548902218691E+01
 0.2509837123416E+01
 0.2466576882198E+01
 0.2419225554621E+01
 0.2368017422663E+01
 0.2313340223545E+01
 0.2255767640625E+01
 0.2196102417479E+01
 0.2135431251020E+01
 0.2075191977945E+01
 0.2017251227359E+01
 0.1963984221723E+01
 0.1918327003262E+01
 0.1883743977662E+01
 0.1864069121036E+01
 0.2780387612362E+01
 0.2770462682914E+01
 0.2757709620491E+01
 0.2741936229038E+01
 0.2722925275315E+01
 0.2700478252664E+01
 0.2674436881766E+01
 0.2644693718280E+01
 0.2611198686710E+01
 0.2573965163593E+01
 0.2533077171587E+01
 0.2488697830509E+01
 0.2441077961328E+01
 0.2390562180898E+01
 0.2337587381354E+01
 0.2282664553391E+01
 0.2226328592082E+01
 0.2169037370275E+01
 0.2111011362703E+01
 0.2052006895432E+01
 0.2870543926661E+01
 0.2870004796875E+01
 0.2867015434086E+01
 0.2861448275040E+01
 0.2853120562469E+01
 0.2841828668251E+01
 0.2827365424622E+01
 0.2809527133779E+01
 0.2788114568590E+01
 0.2762930223083E+01
 0.2733772469251E+01
 0.2700425939240E+01
 0.2662646117478E+01
 0.2620134514184E+01
 0.2572498656284E+01
 0.2519188301569E+01
 0.2459396713222E+01
 0.2391914612377E+01
 0.2314931693848E+01
 0.2225817707135E+01
 0.2954897712035E+01
 0.2962835194097E+01
 0.2968603320950E+01
 0.2972107359320E+01
 0.2973174997187E+01
 0.2971582151517E+01
 0.2967065181304E+01
 0.2959323560579E+01
 0.2948015745548E+01
 0.2932749658695E+01
 0.2913068080697E+01
 0.2888428266667E+01
 0.2858174196098E+01
 0.2821498945457E+01
 0.2777393699324E+01
 0.2724578995111E+01
 0.2661412646205E+01
 0.2585766671882E+01
 0.2494852666525E+01
 0.2384978257491E+01
 0.3032985562831E+01
 0.3048367589156E+01
 0.3061752943270E+01
 0.3073055783831E+01
 0.3082094190929E+01
 0.3088609988503E+01
 0.3092276813357E+01
 0.3092699251170E+01
 0.3089405072620E+01
 0.3081831703335E+01
 0.3069307313669E+01
 0.3051026367022E+01
 0.3026019117626E+01
 0.2993114433702E+01
 0.2950895530529E+01
 0.2897648780071E+01
 0.2831306662388E+01
 0.2749385566896E+01
 0.2648917081113E+01
 0.2526285991253E+01
 0.3104414558344E+01
 0.3126112831299E+01
 0.3145870762576E+01
 0.3163593681252E+01
 0.3179074442668E+01
 0.3192010585468E+01
 0.3202010122852E+01
 0.3208588785828E+01
 0.3211160706915E+01
 0.3209023754493E+01
 0.3201340239961E+01
 0.3187113486491E+01
 0.3165160796820E+01
 0.3134083753821E+01
 0.3092237642513E+01
 0.3037703288365E+01
 0.2968267097253E+01
 0.2881420124055E+01
 0.2774396988624E+01
 0.2644341708087E+01
 0.3168859184620E+01
 0.3195671789928E+01
 0.3220480462338E+01
 0.3243167108081E+01
 0.3263487343321E+01
 0.3281087806107E+01
 0.3295511605991E+01
 0.3306195620130E+01
 0.3312461800467E+01
 0.3313503961353E+01
 0.3308371131609E+01
 0.3295948444081E+01
 0.3274936687362E+01
 0.3243832090779E+01
 0.3200908724235E+01
 0.3144207216104E+01
 0.3071535734196E+01
 0.2980493609906E+01
 0.2868539306248E+01
 0.2733180257828E+01
 0.3226054885210E+01
 0.3256726223989E+01
 0.3285210685594E+01
 0.3311352968783E+01
 0.3334862272101E+01
 0.3355330697866E+01
 0.3372240249403E+01
 0.3384962010731E+01
 0.3392749976786E+01
 0.3394731292778E+01
 0.3389894268952E+01
 0.3377075355830E+01
 0.3354946252138E+01
 0.3322002433101E+01
 0.3276554589564E+01
 0.3216724684152E+01
 0.3140448400085E+01
 0.3045484532418E+01
 0.2929427576458E+01
 0.2789641257853E+01
 0.3275803627855E+01
 0.3309047484505E+01
 0.3339803217749E+01
 0.3367866763685E+01
 0.3392893409763E+01
 0.3414419100070E+01
 0.3431870631980E+01
 0.3444568211528E+01
 0.3451723149811E+01
 0.3452432792974E+01
 0.3445674257481E+01
 0.3430298166882E+01
 0.3405023274621E+01
 0.3368432503350E+01
 0.3318970385087E+01
 0.3254940926845E+01
 0.3174502964709E+01
 0.3075656132600E+01
 0.2956195864587E+01
 0.2813614617853E+01
 0.3317969092924E+01
 0.3352489746548E+01
 0.3384105168754E+01
 0.3412552190305E+01
 0.3437425191605E+01
 0.3458203183185E+01
 0.3474264746059E+01
 0.3484894888644E+01
 0.3489287233627E+01
 0.3486544078628E+01
 0.3475676117209E+01
 0.3455602988351E+01
 0.3425155247893E+01
 0.3383077678975E+01
 0.3328032904473E+01
 0.3258602809032E+01
 0.3173283278333E+01
 0.3070465071000E+01
 0.2948397678615E+01
 0.2805161252011E+01
 0.3352473417201E+01
 0.3386983986804E+01
 0.3418061141225E+01
 0.3445370716017E+01
 0.3468438287327E+01
 0.3486685263254E+01
 0.3499449658246E+01
 0.3505997376985E+01
 0.3505528664253E+01
 0.3497182946104E+01
 0.3480044139994E+01
 0.3453147661903E+01
 0.3415489681925E+01
 0.3366038528919E+01
 0.3303747377079E+01
 0.3227566388673E+01
 0.3136451392220E+01
 0.3029366727951E+01
 0.2905285324031E+01
 0.2763190795829E+01
 0.3379294297241E+01
 0.3412533830716E+01
 0.3441707384910E+01
 0.3466393340031E+01
 0.3486038483027E+01
 0.3500006069478E+01
 0.3507602359539E+01
 0.3508091282691E+01
 0.3500703948455E+01
 0.3484647142196E+01
 0.3459113207496E+01
 0.3423292664030E+01
 0.3376390323123E+01
 0.3317645395178E+01
 0.3246356081065E+01
 0.3161909383854E+01
 0.3063817334426E+01
 0.2951760345359E+01
 0.2825633072026E+01
 0.2685576118932E+01
 0.3398461743482E+01
 0.3429212436898E+01
 0.3455167656488E+01
 0.3475794090054E+01
 0.3490447369171E+01
 0.3498433283654E+01
 0.3499037854747E+01
 0.3491542735539E+01
 0.3475235537020E+01
 0.3449420149788E+01
 0.3413429595218E+01
 0.3366642706385E+01
 0.3308505547187E+01
 0.3238558753124E+01
 0.3156472954950E+01
 0.3062096303180E+01
 0.2955520776420E+01
 0.2837175742728E+01
 0.2707950185637E+01
 0.2569320595453E+01
 0.3410054610608E+01
 0.3437160378061E+01
 0.3458650344467E+01
 0.3473844534764E+01
 0.3481993910596E+01
 0.3482351297737E+01
 0.3474199307592E+01
 0.3456861889236E+01
 0.3429712280742E+01
 0.3392182857782E+01
 0.3343778959791E+01
 0.3284097380059E+01
 0.3212849959080E+01
 0.3129893313170E+01
 0.3035267260649E+01
 0.2929247388962E+01
 0.2812422419258E+01
 0.2685817270662E+01
 0.2551103618862E+01
 0.2410942141647E+01
 0.3414197576717E+01
 0.3436585139159E+01
 0.3452446510639E+01
 0.3460907803656E+01
 0.3461104413572E+01
 0.3452248907622E+01
 0.3433646268748E+01
 0.3404695022649E+01
 0.3364889053990E+01
 0.3313824730805E+01
 0.3251213857470E+01
 0.3176901545797E+01
 0.3090887809298E+01
 0.2993351994690E+01
 0.2884679953928E+01
 0.2765495534277E+01
 0.2636701843515E+01
 0.2499548927380E+01
 0.2355786597573E+01
 0.2208122708872E+01
 0.3411060154921E+01
 0.3427762784861E+01
 0.3436924906357E+01
 0.3437423493940E+01
 0.3428278105299E+01
 0.3408688615780E+01
 0.3378021694477E+01
 0.3335793359376E+01
 0.3281661211952E+01
 0.3215427581664E+01
 0.3137050920506E+01
 0.3046661699380E+01
 0.2944578668921E+01
 0.2831320673191E+01
 0.2707607643174E+01
 0.2574341098669E+01
 0.2432548861381E+01
 0.2283267801634E+01
 0.2127312315994E+01
 0.1964920339544E+01
 0.3400860724385E+01
 0.3411035541433E+01
 0.3412505160167E+01
 0.3403853869547E+01
 0.3384010218366E+01
 0.3352213271140E+01
 0.3307949054991E+01
 0.3250906636767E+01
 0.3180959395032E+01
 0.3098165478379E+01
 0.3002779551204E+01
 0.2895268221505E+01
 0.2776321416084E+01
 0.2646850363800E+01
 0.2507958218767E+01
 0.2360859521667E+01
 0.2206703326329E+01
 0.2046211655462E+01
 0.1878923041651E+01
 0.1701246734706E+01
 0.3383856425280E+01
 0.3386768177321E+01
 0.3379582676510E+01
 0.3360586794789E+01
 0.3328687961097E+01
 0.3283249746250E+01
 0.3223955214415E+01
 0.3150732259014E+01
 0.3063727055685E+01
 0.2963306811704E+01
 0.2850076676992E+01
 0.2724898826059E+01
 0.2588903424474E+01
 0.2443479844200E+01
 0.2290231060909E+01
 0.2130861184389E+01
 0.1966941314356E+01
 0.1799439764110E+01
 0.1627833949606E+01
 0.1448440832793E+01
 0.3360344928024E+01
 0.3355329478818E+01
 0.3338512369485E+01
 0.3307940991897E+01
 0.3262633661879E+01
 0.3202198736490E+01
 0.3126605959861E+01
 0.3036085696399E+01
 0.2931104262703E+01
 0.2812377793869E+01
 0.2680899542002E+01
 0.2537965769849E+01
 0.2385190322358E+01
 0.2224499720747E+01
 0.2058098507288E+01
 0.1888390119939E+01
 0.1717828706707E+01
 0.1548685322552E+01
 0.1382689667256E+01
 0.1221678746658E+01
 0.3330726226300E+01
 0.3317168278543E+01
 0.3289683688139E+01
 0.3246249114511E+01
 0.3186201736129E+01
 0.3109538744603E+01
 0.3016596950315E+01
 0.2907946465475E+01
 0.2784389329474E+01
 0.2646995015727E+01
 0.2497141298037E+01
 0.2336545882916E+01
 0.2167286869664E+01
 0.1991815637583E+01
 0.1812972535291E+01
 0.1634029599655E+01
 0.1458824075309E+01
 0.1292115419865E+01
 0.1140589832984E+01
 0.1014199565333E+01
 0.3295513937379E+01
 0.3272801370835E+01
 0.3233502784143E+01
 0.3175868065593E+01
 0.3099839653550E+01
 0.3005943215903E+01
 0.2894914852975E+01
 0.2767649017969E+01
 0.2625249869966E+01
 0.2469100578953E+01
 0.2300911277684E+01
 0.2122749971646E+01
 0.1937069953069E+01
 0.1746754921895E+01
 0.1555219492938E+01
 0.1366641916376E+01
 0.1186483050963E+01
 0.1022636420713E+01
 0.8877702160166E+00
 0.8035867248183E+00
 0.3255351584248E+01
 0.3222784608254E+01
 0.3170349673583E+01
 0.3097174043719E+01
 0.3004155298810E+01
 0.2892406182276E+01
 0.2763003136880E+01
 0.2617073135662E+01
 0.2455954502509E+01
 0.2281278597012E+01
 0.2095004551589E+01
 0.1899438911611E+01
 0.1697268060636E+01
 0.1491637988911E+01
 0.1286339730003E+01
 0.1086208052360E+01
 0.8979481561429E+00
 0.7317787889993E+00
 0.6047260539255E+00
 0.5481349699212E+00
 0.3211012015469E+01
 0.3167611824502E+01
 0.3100471084320E+01
 0.3010587906597E+01
 0.2900083403735E+01
 0.2770543966597E+01
 0.2623141810784E+01
 0.2459146559870E+01
 0.2280101177339E+01
 0.2087867283284E+01
 0.1884636582183E+01
 0.1672952809897E+01
 0.1455777662242E+01
 0.1236643639976E+01
 0.1019963605114E+01
 0.8116166993508E+00
 0.6200039014328E+00
 0.4579344815048E+00
 0.3459445343543E+00
 0.3193650672968E+00
 0.3163481080048E+01
 0.3107715494673E+01
 0.3024116339631E+01
 0.2916977001110E+01
 0.2789657994844E+01
 0.2643355453379E+01
 0.2479206298846E+01
 0.2298677049069E+01
 0.2103599511489E+01
 0.1896165559586E+01
 0.1678942607088E+01
 0.1454939458313E+01
 0.1227750226242E+01
 0.1001819118049E+01
 0.7828887285532E+00
 0.5787134735535E+00
 0.4001374760734E+00
 0.2625824243444E+00
 0.1881579953318E+00
 0.2061162265456E+00
 0.3114184125306E+01
 0.3042615930171E+01
 0.2940583172506E+01
 0.2817990750296E+01
 0.2675656533452E+01
 0.2514312927271E+01
 0.2335371227299E+01
 0.2140704702324E+01
 0.1932595094604E+01
 0.1713729119085E+01
 0.1487256173762E+01
 0.1256907882178E+01
 0.1027199144651E+01
 0.8037348006022E+00
 0.5936423582499E+00
 0.4061247322261E+00
 0.2530324155907E+00
 0.1491599017084E+00
 0.1112958806366E+00
 0.1524927737063E+00
 0.3061337269741E+01
 0.2965649148646E+01
 0.2851417161490E+01
 0.2716708568372E+01
 0.2561378676858E+01
 0.2387155348207E+01
 0.2196093595805E+01
 0.1990626998562E+01
 0.1773572110960E+01
 0.1548190640710E+01
 0.1318275375416E+01
 0.1088277291129E+01
 0.8634802729109E+00
 0.6502210740085E+00
 0.4561264555458E+00
 0.2902761767539E+00
 0.1630623619193E+00
 0.8518886666452E-01
 0.6464343986820E-01
 0.9684394470787E-01
</DataArray>
<DataArray type="Float64" Name="S_Hyd" NumberOfComponents="1" ComponentName0="S_Hyd" format="ascii">
-0.6153427094865E+00
-0.4984245788287E+00
-0.5167619358268E+00
-0.5197010487870E+00
-0.5213594684698E+00
-0.5186441220039E+00
-0.5125742952713E+00
-0.5034326891480E+00
-0.4916165395521E+00
-0.4774081773252E+00
-0.4610282854435E+00
-0.4426300978856E+00
-0.4223084762859E+00
-0.4001048040193E+00
-0.3760120760903E+00
-0.3499793056192E+00
-0.3219150921827E+00
-0.2916936352065E+00
-0.2591547550249E+00
-0.2241099535120E+00
-0.1863417312739E+00
-0.1456009711874E+00
-0.1015946131428E+00
-0.5390803759887E-01
-0.1958118424872E-02
 0.5467818671665E-01
 0.1159385800162E+00
 0.1813288271004E+00
 0.2501121665492E+00
 0.3214558197212E+00
 0.3944752404457E+00
 0.4681629358433E+00
 0.5410564291933E+00
 0.6116914247816E+00
 0.6798436150804E+00
 0.7472837329563E+00
 0.8146230337461E+00
 0.8980731263600E+00
 0.9619564807225E+00
 0.1338346354101E+01
 0.4819950516626E+00
-0.5514789808505E+00
-0.4905451740900E+00
-0.4764533070874E+00
-0.4791742961330E+00
-0.4779254383910E+00
-0.4745666309976E+00
-0.4682361040957E+00
-0.4592475498964E+00
-0.4477909744923E+00
-0.4340847263791E+00
-0.4182989597098E+00
-0.4005604655448E+00
-0.3809491838764E+00
-0.3595006219503E+00
-0.3362084535759E+00
-0.3110275869600E+00
-0.2838774757609E+00
-0.2546459970932E+00
-0.2231917529317E+00
-0.1893469597804E+00
-0.1529185993785E+00
-0.1136853130936E+00
-0.7137904942447E-01
-0.2563918556310E-01
 0.2392542726709E-01
 0.7751885891694E-01
 0.1349921847882E+00
 0.1958562285778E+00
 0.2593983199029E+00
 0.3247760799348E+00
 0.3910418739010E+00
 0.4570467310265E+00
 0.5213695395974E+00
 0.5826603293527E+00
 0.6403540150799E+00
 0.6940128397315E+00
 0.7460253369699E+00
 0.7889627814426E+00
 0.8558476761020E+00
 0.8476195750320E+00
 0.2179523987556E-01
-0.5016597988131E+00
-0.4597693769658E+00
-0.4413363976424E+00
-0.4376702647060E+00
-0.4352050048526E+00
-0.4308446671386E+00
-0.4243132508483E+00
-0.4154288027596E+00
-0.4043102502100E+00
-0.3910847080030E+00
-0.3758797978157E+00
-0.3587943416363E+00
-0.3398936643181E+00
-0.3192071235841E+00
-0.2967288651279E+00
-0.2724196203019E+00
-0.2462091393920E+00
-0.2179994908710E+00
-0.1876673516961E+00
-0.1550663599940E+00
-0.1200287012764E+00
-0.8236162723451E-01
-0.4183215393209E-01
 0.1842958789997E-02
 0.4890605779612E-01
 0.9940610074574E-01
 0.1531133856843E+00
 0.2095259310208E+00
 0.2679357822817E+00
 0.3274845515705E+00
 0.3871626756814E+00
 0.4457488356303E+00
 0.5018139724630E+00
 0.5539778962806E+00
 0.6009670301131E+00
 0.6418719032154E+00
 0.6738367135862E+00
 0.6947129781743E+00
 0.6923523789297E+00
 0.5161547263030E+00
-0.1775168317248E+00
-0.4545800128928E+00
-0.4222866892730E+00
-0.4040826638426E+00
-0.3968246772105E+00
-0.3925782975346E+00
-0.3875157593534E+00
-0.3807276263147E+00
-0.3719509286189E+00
-0.3611506864766E+00
-0.3483927878982E+00
-0.3337587599008E+00
-0.3173219115255E+00
-0.2991329718346E+00
-0.2792153235425E+00
-0.2575635415519E+00
-0.2341440575691E+00
-0.2088967887009E+00
-0.1817379727611E+00
-0.1525622758457E+00
-0.1212450776535E+00
-0.8764436334857E-01
-0.5159807071151E-01
-0.1291697756536E-01
 0.2860283798123E-01
 0.7308429234231E-01
 0.1204589855052E+00
 0.1704272450489E+00
 0.2224643431913E+00
 0.2758554498674E+00
 0.3297209548447E+00
 0.3830040964391E+00
 0.4344318650385E+00
 0.4825429919006E+00
 0.5257671338788E+00
 0.5624250860883E+00
 0.5901524045834E+00
 0.6048774122798E+00
 0.5988343498349E+00
 0.5368117583543E+00
 0.2992156709971E+00
-0.2597661827064E+00
-0.4080021542981E+00
-0.3818155299172E+00
-0.3648147414731E+00
-0.3558515437980E+00
-0.3501483164046E+00
-0.3444377885069E+00
-0.3374507669398E+00
-0.3287773289876E+00
-0.3182914377450E+00
-0.3059924776542E+00
-0.2919233536450E+00
-0.2761325894201E+00
-0.2586573797866E+00
-0.2395154139900E+00
-0.2187018276941E+00
-0.1961887284153E+00
-0.1719261398645E+00
-0.1458444145504E+00
-0.1178562032660E+00
-0.8785883348876E-01
-0.5573667897118E-01
-0.2136068788430E-01
 0.1541068600588E-01
 0.5470664795783E-01
 0.9655221869863E-01
 0.1407866047240E+00
 0.1870502063201E+00
 0.2347915502039E+00
 0.2832821018852E+00
 0.3316207770715E+00
 0.3787142978390E+00
 0.4232492508655E+00
 0.4636958820092E+00
 0.4983087146447E+00
 0.5249080970357E+00
 0.5402162933957E+00
 0.5386286131309E+00
 0.5068863154355E+00
 0.4062871817306E+00
 0.1571554309245E+00
-0.2981227186883E+00
-0.3614314032797E+00
-0.3396614299030E+00
-0.3240959896893E+00
-0.3144675860932E+00
-0.3078035869401E+00
-0.3015628334369E+00
-0.2944318648823E+00
-0.2858801540308E+00
-0.2757100803095E+00
-0.2638676658782E+00
-0.2503605471426E+00
-0.2352152632883E+00
-0.2184565063068E+00
-0.2000968830923E+00
-0.1801323285087E+00
-0.1585406975355E+00
-0.1352821010589E+00
-0.1103009604811E+00
-0.8352790077132E-01
-0.5488232330716E-01
-0.2427554273125E-01
 0.8387011959237E-02
 0.4319863387291E-01
 0.8022039541980E-01
 0.1193958847043E+00
 0.1604896759331E+00
 0.2030909500864E+00
 0.2466208893683E+00
 0.2903344986900E+00
 0.3333111091698E+00
 0.3744297462896E+00
 0.4123393439919E+00
 0.4454392657438E+00
 0.4718023724835E+00
 0.4888433132601E+00
 0.4926062477235E+00
 0.4760245977078E+00
 0.4235754205747E+00
 0.3018899380343E+00
 0.6142930967443E-01
-0.3155809271295E+00
-0.3147861703510E+00
-0.2964502365502E+00
-0.2823486729285E+00
-0.2726410622484E+00
-0.2654447137211E+00
-0.2588419239657E+00
-0.2516320423183E+00
-0.2432307573371E+00
-0.2333858856052E+00
-0.2220020941119E+00
-0.2090571703812E+00
-0.1945583904645E+00
-0.1785194516279E+00
-0.1609486234016E+00
-0.1418430117458E+00
-0.1211863590538E+00
-0.9894887980820E-01
-0.7508902164649E-01
-0.4955534061295E-01
-0.2228936032055E-01
 0.6770346808871E-02
 0.3768343764526E-01
 0.7049634734484E-01
 0.1052089380550E+00
 0.1416963427621E+00
 0.1796618548845E+00
 0.2186509789371E+00
 0.2580590162302E+00
 0.2971244967098E+00
 0.3349104877165E+00
 0.3702749930413E+00
 0.4018354053220E+00
 0.4279252847045E+00
 0.4464628587049E+00
 0.4545690955591E+00
 0.4477861298253E+00
 0.4182477470610E+00
 0.3508377040185E+00
 0.2196666099157E+00
-0.4636196486600E-02
-0.3220264160126E+00
-0.2680903876222E+00
-0.2525446576460E+00
-0.2398656131504E+00
-0.2304222278627E+00
-0.2230204595040E+00
-0.2162304275384E+00
-0.2090186426294E+00
-0.2008031976396E+00
-0.1912989973725E+00
-0.1803799395059E+00
-0.1679999692387E+00
-0.1541501572328E+00
-0.1388348966931E+00
-0.1220590294177E+00
-0.1038212945980E+00
-0.8411152186969E-01
-0.6291007084286E-01
-0.4018936679944E-01
-0.1591580981184E-01
 0.9947016767424E-02
 0.3743330533956E-01
 0.6656823756814E-01
 0.9735386264112E-01
 0.1297354705762E+00
 0.1635302312498E+00
 0.1983906341754E+00
 0.2338251549849E+00
 0.2692059012161E+00
 0.3037567415492E+00
 0.3365284965983E+00
 0.3663648960941E+00
 0.3918602732176E+00
 0.4112970089331E+00
 0.4224838375195E+00
 0.4223541606722E+00
 0.4061836684308E+00
 0.3660630315568E+00
 0.2886940972923E+00
 0.1551496565568E+00
-0.5103217378822E-01
-0.3221980511064E+00
-0.2213904676163E+00
-0.2081786658315E+00
-0.1968540941959E+00
-0.1878810781597E+00
-0.1805143064105E+00
-0.1736954719384E+00
-0.1665637536546E+00
-0.1585745719821E+00
-0.1494308212644E+00
-0.1389859133873E+00
-0.1271757945614E+00
-0.1139785949508E+00
-0.9939122052443E-01
-0.8341610095538E-01
-0.6605414403228E-01
-0.4730150939594E-01
-0.2714875942303E-01
-0.5582234208877E-02
 0.1741396369889E-01
 0.4185439263992E-01
 0.6774637835040E-01
 0.9508170259290E-01
 0.1238210312944E+00
 0.1538612147394E+00
 0.1849701244570E+00
 0.2167579568130E+00
 0.2487021124785E+00
 0.2801549067492E+00
 0.3103284806237E+00
 0.3382660475844E+00
 0.3628043598413E+00
 0.3825256861719E+00
 0.3956830658189E+00
 0.4000268241739E+00
 0.3924118414710E+00
 0.3681057259346E+00
 0.3197203310549E+00
 0.2362706611816E+00
 0.1045001457986E+00
-0.8396066937922E-01
-0.3186436015711E+00
-0.1747315117095E+00
-0.1635126844925E+00
-0.1534651959467E+00
-0.1450865355342E+00
-0.1379293701476E+00
-0.1312162642940E+00
-0.1242446361630E+00
-0.1165248402507E+00
-0.1077642577648E+00
-0.9780539594312E-01
-0.8657172714130E-01
-0.7403169546702E-01
-0.6017660206649E-01
-0.4500754040849E-01
-0.2852817093865E-01
-0.1074125478391E-01
 0.8352378765353E-02
 0.2875255865871E-01
 0.5045768445205E-01
 0.7346080472344E-01
 0.9774304619619E-01
 0.1232642895358E+00
 0.1499470255562E+00
 0.1776452356069E+00
 0.2060847771214E+00
 0.2348406584185E+00
 0.2633646019114E+00
 0.2909929058317E+00
 0.3169296077128E+00
 0.3402154617611E+00
 0.3596881913649E+00
 0.3739310956576E+00
 0.3811933332344E+00
 0.3792192748774E+00
 0.3648934897291E+00
 0.3336978938523E+00
 0.2790891795117E+00
 0.1923842119382E+00
 0.6467001126071E-01
-0.1074235387066E+00
-0.3128537333949E+00
-0.1281510452640E+00
-0.1186607533928E+00
-0.1098116282700E+00
-0.1021000713723E+00
-0.9527855504946E-01
-0.8878153438974E-01
-0.8204373822077E-01
-0.7463675186720E-01
-0.6628376277419E-01
-0.5682455112885E-01
-0.4617517990094E-01
-0.3429751243043E-01
-0.2117911609185E-01
-0.6820845670808E-02
 0.8770277446197E-02
 0.2558460445449E-01
 0.4361097712739E-01
 0.6283550381240E-01
 0.8323935721114E-01
 0.1047945620997E+00
 0.1274569467286E+00
 0.1511562453432E+00
 0.1757799957548E+00
 0.2011443312250E+00
 0.2269393078466E+00
 0.2527108024694E+00
 0.2778897825298E+00
 0.3018004555749E+00
 0.3236427806438E+00
 0.3424605551876E+00
 0.3571009450109E+00
 0.3661625345777E+00
 0.3679170123028E+00
 0.3601534314462E+00
 0.3398821548411E+00
 0.3029574352561E+00
 0.2438129710599E+00
 0.1558255935912E+00
 0.3330031700147E-01
-0.1240953928955E+00
-0.3057585091036E+00
-0.8167820903757E-01
-0.7370572400313E-01
-0.6597885367351E-01
-0.5897433239099E-01
-0.5257887633748E-01
-0.4638665232569E-01
-0.3994810681576E-01
-0.3289572839093E-01
-0.2497533504714E-01
-0.1603038735406E-01
-0.5973974148767E-02
 0.5235759645412E-02
 0.1761318747700E-01
 0.3115661116938E-01
 0.4585503800486E-01
 0.6169164388225E-01
 0.7864488927409E-01
 0.9668730229077E-01
 0.1157831640570E+00
 0.1358840780459E+00
 0.1569216401473E+00
 0.1787973244177E+00
 0.2013668404713E+00
 0.2244129808429E+00
 0.2475953585052E+00
 0.2704359590455E+00
 0.2923494953140E+00
 0.3126520105561E+00
 0.3305435950031E+00
 0.3450767665303E+00
 0.3551168155232E+00
 0.3592920317010E+00
 0.3559220619711E+00
 0.3428859996476E+00
 0.3173953454657E+00
 0.2757690520101E+00
 0.2134245182582E+00
 0.1254799430730E+00
 0.8575945647287E-02
-0.1358196986873E+00
-0.2979636522171E+00
-0.3533458716488E-01
-0.2870854057446E-01
-0.2203235272100E-01
-0.1575348964131E-01
-0.9848335880095E-02
-0.4031262853945E-02
 0.2051475694070E-02
 0.8710365588059E-02
 0.1617353817179E-01
 0.2458921896878E-01
 0.3404360375611E-01
 0.4457971769338E-01
 0.5621221127727E-01
 0.6893750913327E-01
 0.8274005448801E-01
 0.9759557075146E-01
 0.1134721006467E+00
 0.1303287637232E+00
 0.1481133422191E+00
 0.1667577114467E+00
 0.1861704064946E+00
 0.2062265697050E+00
 0.2267530466963E+00
 0.2475033257909E+00
 0.2681112346106E+00
 0.2880794448844E+00
 0.3068105218214E+00
 0.3236161610888E+00
 0.3377008055203E+00
 0.3481313437464E+00
 0.3537997005430E+00
 0.3533775975202E+00
 0.3452555509570E+00
 0.3274399411597E+00
 0.2973949981826E+00
 0.2519429749166E+00
 0.1874202386341E+00
 0.1003674228040E+00
-0.1090369076912E-01
-0.1439010490329E+00
-0.2898734397860E+00
 0.1086459307636E-01
 0.1628573260933E-01
 0.2197741750772E-01
 0.2752586847923E-01
 0.3289573729782E-01
 0.3828244510010E-01
 0.4396137281515E-01
 0.5019153606004E-01
 0.5717397348307E-01
 0.6504552572533E-01
 0.7388876231527E-01
 0.8374569144061E-01
 0.9462974317079E-01
 0.1065345059576E+00
 0.1194393009103E+00
 0.1333121423037E+00
 0.1481106393719E+00
 0.1637807053270E+00
 0.1802540638411E+00
 0.1974436191780E+00
 0.2152360724130E+00
 0.2334821419961E+00
 0.2519825785325E+00
 0.2704651727580E+00
 0.2885420348751E+00
 0.3057005405138E+00
 0.3213348364002E+00
 0.3347558931969E+00
 0.3451765933708E+00
 0.3516836140555E+00
 0.3532034817002E+00
 0.3484636932632E+00
 0.3359448801240E+00
 0.3138083846354E+00
 0.2798004935050E+00
 0.2312468067107E+00
 0.1653035866419E+00
 0.7964760789539E-01
-0.2622676552407E-01
-0.1492841622627E+00
-0.2817598869800E+00
 0.5690930301888E-01
 0.6124382001679E-01
 0.6601151554309E-01
 0.7083373494771E-01
 0.7563752093615E-01
 0.8055093705374E-01
 0.8578587047768E-01
 0.9155600838085E-01
 0.9803581726329E-01
 0.1053489513315E+00
 0.1135721831378E+00
 0.1227446981045E+00
 0.1328773990340E+00
 0.1439601739017E+00
 0.1559667120271E+00
 0.1688570906571E+00
 0.1825784937802E+00
 0.1970638586139E+00
 0.2122293269985E+00
 0.2279696282556E+00
 0.2441508711846E+00
 0.2606011939031E+00
 0.2770978082709E+00
 0.2933460205717E+00
 0.3089397819986E+00
 0.3233547004270E+00
 0.3359798622048E+00
 0.3461288733400E+00
 0.3530268831338E+00
 0.3557853523973E+00
 0.3533725200296E+00
 0.3445821098038E+00
 0.3279997774872E+00
 0.3019598613034E+00
 0.2645016094594E+00
 0.2134291793344E+00
 0.1466083619679E+00
 0.6260880613588E-01
-0.3824648540155E-01
-0.1526682409483E+00
-0.2738046398644E+00
 0.1027937131625E+00
 0.1061413621137E+00
 0.1100399600092E+00
 0.1141457306170E+00
 0.1183630652872E+00
 0.1227701310852E+00
 0.1275278051873E+00
 0.1328105635827E+00
 0.1387677861030E+00
 0.1455091136113E+00
 0.1531040081556E+00
 0.1615874024651E+00
 0.1709665680578E+00
 0.1812269361263E+00
 0.1923361131637E+00
 0.2042460464465E+00
 0.2168935287804E+00
 0.2301987762496E+00
 0.2440628505431E+00
 0.2583631190867E+00
 0.2729463236876E+00
 0.2876197716992E+00
 0.3021394725025E+00
 0.3161910988250E+00
 0.3293535508441E+00
 0.3410937561341E+00
 0.3507987290376E+00
 0.3577877532719E+00
 0.3613017067935E+00
 0.3604812470850E+00
 0.3543423412163E+00
 0.3417531861831E+00
 0.3214148463781E+00
 0.2918439795978E+00
 0.2513698193218E+00
 0.1982360517368E+00
 0.1309096529548E+00
 0.4865262869961E-01
-0.4763895780727E-01
-0.1545839168620E+00
-0.2661269162071E+00
 0.1485153673423E+00
 0.1509608452511E+00
 0.1540398264599E+00
 0.1574422536178E+00
 0.1610603985837E+00
 0.1649359154484E+00
 0.1691890519898E+00
 0.1739608431999E+00
 0.1793776149734E+00
 0.1855348834874E+00
 0.1924938414872E+00
 0.2002840902121E+00
 0.2089083699466E+00
 0.2183470140498E+00
 0.2285611606008E+00
 0.2394944731047E+00
 0.2510734136131E+00
 0.2632057521419E+00
 0.2757779859187E+00
 0.2886509317589E+00
 0.3016531493727E+00
 0.3145727511067E+00
 0.3271466589173E+00
 0.3390434271119E+00
 0.3498296066547E+00
 0.3589661255854E+00
 0.3658405435019E+00
 0.3697805011750E+00
 0.3700456173716E+00
 0.3658094550174E+00
 0.3561404775458E+00
 0.3399872691017E+00
 0.3161723908083E+00
 0.2833968524266E+00
 0.2402673754289E+00
 0.1854212878862E+00
 0.1178273071157E+00
 0.3727851805954E-01
-0.5494498736510E-01
-0.1554501232375E+00
-0.2588043384573E+00
 0.1940745112857E+00
 0.1956900783640E+00
 0.1979938031267E+00
 0.2007077405774E+00
 0.2037194879664E+00
 0.2070444706931E+00
 0.2107708895807E+00
 0.2150116093904E+00
 0.2198721998171E+00
 0.2254344451466E+00
 0.2317507600599E+00
 0.2388446497785E+00
 0.2467136197826E+00
 0.2553323816667E+00
 0.2646552885733E+00
 0.2746176078673E+00
 0.2851355570940E+00
 0.2961047508246E+00
 0.3073976415922E+00
 0.3188592897544E+00
 0.3303011995963E+00
 0.3414937976815E+00
 0.3521568147901E+00
 0.3619438886488E+00
 0.3704115504478E+00
 0.3770170276943E+00
 0.3811506694101E+00
 0.3821507553113E+00
 0.3792981448114E+00
 0.3718022312431E+00
 0.3587874213105E+00
 0.3392863233304E+00
 0.3122452309859E+00
 0.2765460040030E+00
 0.2310539538787E+00
 0.1747536048829E+00
 0.1070244953913E+00
 0.2806975135799E-01
-0.6059686340286E-01
-0.1556182019640E+00
-0.2519089915228E+00
 0.2394735447057E+00
 0.2403210566835E+00
 0.2418890736120E+00
 0.2439300311104E+00
 0.2463321210889E+00
 0.2490924538627E+00
 0.2522742613694E+00
 0.2559669532597E+00
 0.2602577219194E+00
 0.2652153516242E+00
 0.2708833235022E+00
 0.2772785538592E+00
 0.2843927919890E+00
 0.2921947182537E+00
 0.3006316541742E+00
 0.3096304006303E+00
 0.3190970413035E+00
 0.3289153368322E+00
 0.3389442102103E+00
 0.3490137300948E+00
 0.3589194008687E+00
 0.3684153384114E+00
 0.3772057643790E+00
 0.3849313077333E+00
 0.3911404636512E+00
 0.3952886954714E+00
 0.3967710118600E+00
 0.3949381918820E+00
 0.3890942829553E+00
 0.3784866085168E+00
 0.3622976533884E+00
 0.3396455608438E+00
 0.3095994408530E+00
 0.2712142295054E+00
 0.2235923001824E+00
 0.1660178981008E+00
 0.9821169758623E-01
 0.2066340350536E-01
-0.6490445002599E-01
-0.1554352752275E+00
-0.2455282290235E+00
 0.2847165477793E+00
 0.2848491387796E+00
 0.2857164145468E+00
 0.2870998404998E+00
 0.2888917456331E+00
 0.2910770937858E+00
 0.2936999580727E+00
 0.2968304597366E+00
 0.3005397561214E+00
 0.3048845784647E+00
 0.3098995877712E+00
 0.3155948465480E+00
 0.3219559904070E+00
 0.3289453672867E+00
 0.3365030886210E+00
 0.3445474595992E+00
 0.3529745630014E+00
 0.3616566134341E+00
 0.3704395075377E+00
 0.3791390481508E+00
 0.3875357151073E+00
 0.3953685507340E+00
 0.4023277414497E+00
 0.4080425379962E+00
 0.4120550596123E+00
 0.4138205948802E+00
 0.4127403097951E+00
 0.4081789082203E+00
 0.3994650002634E+00
 0.3858851119630E+00
 0.3666806862491E+00
 0.3410550661451E+00
 0.3081966593484E+00
 0.2673232227525E+00
 0.2177502847209E+00
 0.1590218509387E+00
 0.9112534957749E-01
 0.1479901827747E-01
-0.6825650807308E-01
-0.1547462346640E+00
-0.2409143792495E+00
 0.3298081537039E+00
 0.3292670014325E+00
 0.3294611618662E+00
 0.3301985686208E+00
 0.3313784141582E+00
 0.3329782358785E+00
 0.3350277370010E+00
 0.3375814001625E+00
 0.3406965949975E+00
 0.3444190830228E+00
 0.3487750315752E+00
 0.3537675867534E+00
 0.3593760738765E+00
 0.3655563263028E+00
 0.3722411538489E+00
 0.3793404018156E+00
 0.3867403346773E+00
 0.3943019661562E+00
 0.4018586917882E+00
 0.4092127735634E+00
 0.4161306065037E+00
 0.4223373115034E+00
 0.4275103686478E+00
 0.4312690741220E+00
 0.4331505742596E+00
 0.4326112784589E+00
 0.4290596648204E+00
 0.4218753536102E+00
 0.4104122943004E+00
 0.3939966182849E+00
 0.3719283436628E+00
 0.3434938887594E+00
 0.3079953182984E+00
 0.2648005716866E+00
 0.2134152876544E+00
 0.1536013320608E+00
 0.8557123672286E-01
 0.1019724098547E-01
-0.7066742774793E-01
-0.1544893570472E+00
-0.2354150077727E+00
 0.3747542442926E+00
 0.3735743747800E+00
 0.3731191041014E+00
 0.3732210312968E+00
 0.3737880520067E+00
 0.3747939854057E+00
 0.3762581052883E+00
 0.3782224321652E+00
 0.3807326459448E+00
 0.3838246744350E+00
 0.3875166542409E+00
 0.3918048973347E+00
 0.3966623417597E+00
 0.4020382109210E+00
 0.4078579789404E+00
 0.4140231008144E+00
 0.4204102198356E+00
 0.4268694893433E+00
 0.4332223024916E+00
 0.4392580498641E+00
 0.4447298858648E+00
 0.4493500165015E+00
 0.4527843413520E+00
 0.4546433674461E+00
 0.4544603703982E+00
 0.4516938444608E+00
 0.4457603625548E+00
 0.4360550088723E+00
 0.4219572807194E+00
 0.4028325606518E+00
 0.3780380432389E+00
 0.3469398567458E+00
 0.3089466847143E+00
 0.2635636110033E+00
 0.2104630127044E+00
 0.1495934784577E+00
 0.8133558097909E-01
 0.6704681221529E-02
-0.7257671797700E-01
-0.1536125423714E+00
-0.2343509456193E+00
 0.4195640156102E+00
 0.4177784273350E+00
 0.4166971105744E+00
 0.4161761711085E+00
 0.4161333839645E+00
 0.4165417704388E+00
 0.4174134186832E+00
 0.4187806383593E+00
 0.4206793472866E+00
 0.4231367765294E+00
 0.4261635772861E+00
 0.4297494098782E+00
 0.4338608329789E+00
 0.4384404227147E+00
 0.4434063138556E+00
 0.4486516460313E+00
 0.4540436205058E+00
 0.4594218291233E+00
 0.4645960925806E+00
 0.4693434971883E+00
 0.4734046573594E+00
 0.4764796785041E+00
 0.4782237616051E+00
 0.4782394984772E+00
 0.4760570739116E+00
 0.4711376882031E+00
 0.4629064197740E+00
 0.4507739422116E+00
 0.4341450090222E+00
 0.4124232914057E+00
 0.3850210486586E+00
 0.3513799804586E+00
 0.3110079099887E+00
 0.2635339995454E+00
 0.2087775344323E+00
 0.1468421066137E+00
 0.7825279796872E-01
 0.4084311137280E-02
-0.7388032372897E-01
-0.1533280440523E+00
-0.2318428216086E+00
 0.4642457290275E+00
 0.4618821054156E+00
 0.4601948417234E+00
 0.4590622243565E+00
 0.4584128115449E+00
 0.4582210961216E+00
 0.4584946706905E+00
 0.4592585169376E+00
 0.4605405537852E+00
 0.4623604343567E+00
 0.4647219306700E+00
 0.4676083211904E+00
 0.4709798764340E+00
 0.4747725543780E+00
 0.4788971935580E+00
 0.4832387212550E+00
 0.4876550863835E+00
 0.4919756105213E+00
 0.4959989429395E+00
 0.4994903772068E+00
 0.5021785989600E+00
 0.5037522973424E+00
 0.5038566818240E+00
 0.5020870841220E+00
 0.4979711237548E+00
 0.4909730422116E+00
 0.4805265047828E+00
 0.4660575050495E+00
 0.4469952729161E+00
 0.4227802046508E+00
 0.3928768009500E+00
 0.3567974910479E+00
 0.3141412001126E+00
 0.2646486530244E+00
 0.2082667874566E+00
 0.1452315754284E+00
 0.7617580446736E-01
 0.2242311046211E-02
-0.7486260859769E-01
-0.1529838712295E+00
-0.2297237184768E+00
 0.5088081271967E+00
 0.5058894742770E+00
 0.5036132178819E+00
 0.5018785969264E+00
 0.5006255707319E+00
 0.4998319102567E+00
 0.4995029445226E+00
 0.4996583943879E+00
 0.5003197824559E+00
 0.5015002645610E+00
 0.5031973737153E+00
 0.5053883400270E+00
 0.5080273033659E+00
 0.5110436882308E+00
 0.5143411201775E+00
 0.5177964411428E+00
 0.5212585451206E+00
 0.5245467649030E+00
 0.5274489490433E+00
 0.5297190540331E+00
 0.5310743604374E+00
 0.5311927006434E+00
 0.5297098339570E+00
 0.5262142810022E+00
 0.5202313817679E+00
 0.5112284830851E+00
 0.4986476055816E+00
 0.4819294212434E+00
 0.4605264088698E+00
 0.4339135977069E+00
 0.4016043358346E+00
 0.3631764153805E+00
 0.3183116823810E+00
 0.2668502177362E+00
 0.2088501369374E+00
 0.1446574906274E+00
 0.7499503736126E-01
 0.1042630699972E-02
-0.7554316610474E-01
-0.1527045887925E+00
-0.2280975644555E+00
 0.5532603404669E+00
 0.5498054633687E+00
 0.5469542041393E+00
 0.5446256605926E+00
 0.5427716103958E+00
 0.5413745500317E+00
 0.5404394114188E+00
 0.5399824504287E+00
 0.5400202452879E+00
 0.5405604846621E+00
 0.5415951164177E+00
 0.5430956999460E+00
 0.5450104531358E+00
 0.5472623968614E+00
 0.5497480604854E+00
 0.5523363474805E+00
 0.5548672995198E+00
 0.5571505307848E+00
 0.5589634289312E+00
 0.5600490140309E+00
 0.5601136008180E+00
 0.5588246056653E+00
 0.5558087228554E+00
 0.5506479174943E+00
 0.5428653106015E+00
 0.5319311632459E+00
 0.5172953252285E+00
 0.4984121589636E+00
 0.4747557588310E+00
 0.4458332407207E+00
 0.4112029475629E+00
 0.3705023406570E+00
 0.3234879736297E+00
 0.2700879309648E+00
 0.2104563763303E+00
 0.1450322991624E+00
 0.7461015611002E-01
 0.3954952932903E-03
-0.7598908024755E-01
-0.1525596529402E+00
-0.2270548983837E+00
 0.5976117911315E+00
 0.5936356785993E+00
 0.5902206072593E+00
 0.5873045755000E+00
 0.5848514646527E+00
 0.5828496692079E+00
 0.5813052977150E+00
 0.5802327072300E+00
 0.5796448450638E+00
 0.5795449056836E+00
 0.5799199042816E+00
 0.5807361353093E+00
 0.5819361412162E+00
 0.5834367046919E+00
 0.5851274028691E+00
 0.5868693635591E+00
 0.5884939816112E+00
 0.5898014104738E+00
 0.5905588861142E+00
 0.5904988397228E+00
 0.5893169790739E+00
 0.5866706333981E+00
 0.5821776709017E+00
 0.5754135761771E+00
 0.5658991014877E+00
 0.5531069921917E+00
 0.5364941260992E+00
 0.5155272487858E+00
 0.4897000736250E+00
 0.4585488686932E+00
 0.4216727664829E+00
 0.3787629955182E+00
 0.3296427748343E+00
 0.2743175680910E+00
 0.2130244177210E+00
 0.1462806196886E+00
 0.7493870465784E-01
 0.2246452159900E-03
-0.7626409909672E-01
-0.1526073482496E+00
-0.2266334706799E+00
 0.6418721092725E+00
 0.6373862525945E+00
 0.6334159049211E+00
 0.6299171374206E+00
 0.6268661387316E+00
 0.6242581670658E+00
 0.6221018479565E+00
 0.6204110129973E+00
 0.6191961670677E+00
 0.6184569234483E+00
 0.6181760047255E+00
 0.6183148613024E+00
 0.6188106330795E+00
 0.6195740568371E+00
 0.6204879226439E+00
 0.6214057576837E+00
 0.6221505164603E+00
 0.6225131368352E+00
 0.6222509827324E+00
 0.6210861936840E+00
 0.6187041540157E+00
 0.6147523304716E+00
 0.6088398684256E+00
 0.6005356794946E+00
 0.5893578021191E+00
 0.5747808140590E+00
 0.5562675652963E+00
 0.5332955855169E+00
 0.5053758873207E+00
 0.4720706288018E+00
 0.4330152546628E+00
 0.3879487591945E+00
 0.3367532195407E+00
 0.2795016822153E+00
 0.2165025096665E+00
 0.1483391458738E+00
 0.7591228227270E-01
 0.4653160382435E-03
-0.7642419507568E-01
-0.1528918310424E+00
-0.2268529838234E+00
 0.6860510652241E+00
 0.6810637269798E+00
 0.6765441097067E+00
 0.6724656547526E+00
 0.6688170173174E+00
 0.6656011327906E+00
 0.6628302997926E+00
 0.6605190372365E+00
 0.6586764848127E+00
 0.6572995274464E+00
 0.6563672148129E+00
 0.6558365786993E+00
 0.6556396457381E+00
 0.6556813180167E+00
 0.6558377793861E+00
 0.6559551403022E+00
 0.6558481208496E+00
 0.6552986758195E+00
 0.6540545489189E+00
 0.6518278385347E+00
 0.6482938195065E+00
 0.6430902248544E+00
 0.6358174556068E+00
 0.6260376038437E+00
 0.6132654691195E+00
 0.5969766049686E+00
 0.5766385435856E+00
 0.5517377346768E+00
 0.5217998842190E+00
 0.4864095011004E+00
 0.4452336588792E+00
 0.3980530836555E+00
 0.3448011925066E+00
 0.2856096107189E+00
 0.2208478958711E+00
 0.1511556703260E+00
 0.7747447330592E-01
 0.1063290069337E-02
-0.7651597983917E-01
-0.1534467130004E+00
-0.2277224551027E+00
 0.7301585124951E+00
 0.7246749495193E+00
 0.7196096451642E+00
 0.7149528281524E+00
 0.7107057638479E+00
 0.7068797696555E+00
 0.7034918300277E+00
 0.7005582315092E+00
 0.6980877278818E+00
 0.6960752697840E+00
 0.6944968275735E+00
 0.6933054357924E+00
 0.6924283048907E+00
 0.6917647253639E+00
 0.6911844663642E+00
 0.6905264114186E+00
 0.6895972504738E+00
 0.6881701757969E+00
 0.6859835373196E+00
 0.6827396004713E+00
 0.6781036816028E+00
 0.6717038218779E+00
 0.6631315431635E+00
 0.6519417310447E+00
 0.6376452566498E+00
 0.6197176052833E+00
 0.5976294876085E+00
 0.5708741696100E+00
 0.5389891915078E+00
 0.5015776384673E+00
 0.4583333712947E+00
 0.4090728248070E+00
 0.3537735412666E+00
 0.2926174500640E+00
 0.2260264458548E+00
 0.1546881617804E+00
 0.7957952868058E-01
 0.1974249548131E-02
-0.7657714474708E-01
-0.1542972223984E+00
-0.2292455411425E+00
 0.7742043427024E+00
 0.7682269944244E+00
 0.7626172491951E+00
 0.7573816569034E+00
 0.7525342434547E+00
 0.7480953399222E+00
 0.7440875201243E+00
 0.7405298105007E+00
 0.7374314726646E+00
 0.7347862606016E+00
 0.7325676287011E+00
 0.7307250244794E+00
 0.7291811396516E+00
 0.7278298818072E+00
 0.7265348030853E+00
 0.7251277532226E+00
 0.7234075939996E+00
 0.7211389649132E+00
 0.7180510262326E+00
 0.7138363813585E+00
 0.7081504834516E+00
 0.7006116463887E+00
 0.6908022766767E+00
 0.6782695400676E+00
 0.6625195409489E+00
 0.6430264823691E+00
 0.6192625557413E+00
 0.5907255234306E+00
 0.5569616757174E+00
 0.5175886967188E+00
 0.4723222669707E+00
 0.4210085387703E+00
 0.3636622549264E+00
 0.3005080252403E+00
 0.2320123078627E+00
 0.1589040220200E+00
 0.8219144995384E-01
 0.3163048938812E-02
-0.7663728165600E-01
-0.1554620527047E+00
-0.2314231698257E+00
 0.8181984508867E+00
 0.8117270948773E+00
 0.8055718887589E+00
 0.7997553514298E+00
 0.7943044450627E+00
 0.7892491019882E+00
 0.7846183084434E+00
 0.7804347161331E+00
 0.7767089140276E+00
 0.7734341433690E+00
 0.7705818725837E+00
 0.7680983552733E+00
 0.7659020557104E+00
 0.7638817272227E+00
 0.7618949047779E+00
 0.7597665986661E+00
 0.7572880419467E+00
 0.7542155220073E+00
 0.7502691948961E+00
 0.7451321413844E+00
 0.7384499989699E+00
 0.7298312517185E+00
 0.7188488656117E+00
 0.7050416612271E+00
 0.6879100050212E+00
 0.6669254510307E+00
 0.6415597988265E+00
 0.6113127924848E+00
 0.5757361866388E+00
 0.5344581079689E+00
 0.4872109818647E+00
 0.4338647207723E+00
 0.3744646004995E+00
 0.3092708462331E+00
 0.2387876054700E+00
 0.1637795083283E+00
 0.8528327773474E-01
 0.4603002748171E-02
-0.7671876422011E-01
-0.1569547400394E+00
-0.2342549824889E+00
 0.8621507082237E+00
 0.8551825876461E+00
 0.8484786870728E+00
 0.8420772558993E+00
 0.8360184094707E+00
 0.8303422493890E+00
 0.8250849412488E+00
 0.8202735787910E+00
 0.8159208337457E+00
 0.8120200674761E+00
 0.8085412566118E+00
 0.8054278316653E+00
 0.8025943087983E+00
 0.7999245106206E+00
 0.7972701533721E+00
 0.7944496017248E+00
 0.7912466571574E+00
 0.7874094487172E+00
 0.7826492992327E+00
 0.7766398810588E+00
 0.7690170243390E+00
 0.7593792244958E+00
 0.7472896057716E+00
 0.7322779209797E+00
 0.7138377106864E+00
 0.6914363776196E+00
 0.6645433003628E+00
 0.6326575144873E+00
 0.5953327707308E+00
 0.5522033186572E+00
 0.5030131527666E+00
 0.4476500089219E+00
 0.3861832373664E+00
 0.3189020701671E+00
 0.2463421935475E+00
 0.1692992853700E+00
 0.8883651641777E-01
 0.6275235575091E-02
-0.7683754223880E-01
-0.1587846680874E+00
-0.2377401564454E+00
 0.9060709448004E+00
 0.8986008719563E+00
 0.8913428670169E+00
 0.8843507864869E+00
 0.8776781711687E+00
 0.8713758614871E+00
 0.8654879341189E+00
 0.8600466887933E+00
 0.8550675800604E+00
 0.8505446735561E+00
 0.8464469101806E+00
 0.8427152411933E+00
 0.8392604967168E+00
 0.8359617824809E+00
 0.8326651898915E+00
 0.8291826299881E+00
 0.8252906681463E+00
 0.8207294646257E+00
 0.8152016703562E+00
 0.8083716452234E+00
 0.7998653902424E+00
 0.7892712083977E+00
 0.7761419183487E+00
 0.7599974004580E+00
 0.7403231810150E+00
 0.7165808907130E+00
 0.6882353190205E+00
 0.6547819444270E+00
 0.6157728778127E+00
 0.5708440173565E+00
 0.5197456462646E+00
 0.4623773819067E+00
 0.3988263395100E+00
 0.3294044983101E+00
 0.2546734925348E+00
 0.1754560981226E+00
 0.9284068476286E-01
 0.8168136817167E-02
-0.7700379300906E-01
-0.1609577917377E+00
-0.2418778512680E+00
 0.9499689385807E+00
 0.9419893737722E+00
 0.9341696975217E+00
 0.9265793682261E+00
 0.9192856934226E+00
 0.9123508421347E+00
 0.9058275168091E+00
 0.8997539478732E+00
 0.8941490248278E+00
 0.8890080547501E+00
 0.8842993584362E+00
 0.8799617202431E+00
 0.8759025240824E+00
 0.8719963586786E+00
 0.8680838771524E+00
 0.8639707261004E+00
 0.8594264296689E+00
 0.8541833678086E+00
 0.8479356764772E+00
 0.8403384882541E+00
 0.8310079328881E+00
 0.8195218840940E+00
 0.8054223424367E+00
 0.7882184446693E+00
 0.7673864306604E+00
 0.7423804370611E+00
 0.7126583741085E+00
 0.6777091717104E+00
 0.6370795084476E+00
 0.5904023048966E+00
 0.5374287354843E+00
 0.4780643160260E+00
 0.4124076973277E+00
 0.3407875840440E+00
 0.2637863744629E+00
 0.1822505327902E+00
 0.9729296982207E-01
 0.1027692587172E-01
-0.7722242724121E-01
-0.1634771406530E+00
-0.2466674553888E+00
 0.9938544123375E+00
 0.9853555219886E+00
 0.9769644533570E+00
 0.9687663854489E+00
 0.9608428162116E+00
 0.9532678704334E+00
 0.9461035900155E+00
 0.9393948331799E+00
 0.9331645345802E+00
 0.9274097338228E+00
 0.9220985040863E+00
 0.9171677391465E+00
 0.9125215894447E+00
 0.9080303085878E+00
 0.9035292881102E+00
 0.8988180959464E+00
 0.8936594107257E+00
 0.8877780230783E+00
 0.8808597122865E+00
 0.8725504660058E+00
 0.8624564904822E+00
 0.8501449727703E+00
 0.8351465486709E+00
 0.8169586898271E+00
 0.7950470108590E+00
 0.7688563484044E+00
 0.7378353379898E+00
 0.7014632406030E+00
 0.6592773619006E+00
 0.6109028643363E+00
 0.5560862794783E+00
 0.4947329530881E+00
 0.4269468458448E+00
 0.3530674909795E+00
 0.2736931277461E+00
 0.1896908804271E+00
 0.1021979954759E+00
 0.1260333914840E-01
-0.7749345628123E-01
-0.1663431624133E+00
-0.2521087306636E+00
 0.1037737038143E+01
 0.1028706731034E+01
 0.1019732379643E+01
 0.1010915133879E+01
 0.1002351202284E+01
 0.9941273462033E+00
 0.9863156740749E+00
 0.9789683512722E+00
 0.9721129304097E+00
 0.9657486284999E+00
 0.9598435971470E+00
 0.9543330750275E+00
 0.9491181598923E+00
 0.9440649302402E+00
 0.9390036806038E+00
 0.9337280823250E+00
 0.9279941668851E+00
 0.9215193330924E+00
 0.9139811694584E+00
 0.9050166068250E+00
 0.8942218764024E+00
 0.8811532136822E+00
 0.8653293239738E+00
 0.8462350586915E+00
 0.8233240193175E+00
 0.7960298702403E+00
 0.7637894880434E+00
 0.7260692288667E+00
 0.6823929427893E+00
 0.6323730930755E+00
 0.5757458725588E+00
 0.5124102518977E+00
 0.4424691971331E+00
 0.3662671825085E+00
 0.2844134835677E+00
 0.1977930884693E+00
 0.1075676970441E+00
 0.1515543561795E-01
-0.7781222902901E-01
-0.1695539390177E+00
-0.2582018723179E+00
 0.1081626448300E+01
 0.1072050390667E+01
 0.1062478662475E+01
 0.1053028777024E+01
 0.1043812285311E+01
 0.1034929335599E+01
 0.1026462856484E+01
 0.1018472990368E+01
 0.1010992446224E+01
 0.1004023015770E+01
 0.9975332044795E+00
 0.9914567852833E+00
 0.9856919470077E+00
 0.9801007273182E+00
 0.9745084741338E+00
 0.9687031405439E+00
 0.9624343140733E+00
 0.9554122101232E+00
 0.9473064066202E+00
 0.9377448804177E+00
 0.9263138481799E+00
 0.9125583350266E+00
 0.8959845467052E+00
 0.8760637430560E+00
 0.8522360937822E+00
 0.8239221708506E+00
 0.7905445358897E+00
 0.7515533016944E+00
 0.7064546429594E+00
 0.6548432131580E+00
 0.5964389791340E+00
 0.5311281381324E+00
 0.4590061901768E+00
 0.3804165530405E+00
 0.2959747098860E+00
 0.2065808024456E+00
 0.1134213016472E+00
 0.1794751663954E-01
-0.7816955504741E-01
-0.1731053027397E+00
-0.2649475426755E+00
 0.1125532254923E+01
 0.1115393864575E+01
 0.1105208407723E+01
 0.1095110309351E+01
 0.1085227223276E+01
 0.1075673520745E+01
 0.1066543742881E+01
 0.1057906676221E+01
 0.1049800691411E+01
 0.1042230501763E+01
 0.1035165186236E+01
 0.1028537189269E+01
 0.1022241892138E+01
 0.1016137396310E+01
 0.1010044237335E+01
 0.1003744824901E+01
 0.9969825130875E+00
 0.9894605580014E+00
 0.9808407285415E+00
 0.9707421745473E+00
 0.9587410824589E+00
 0.9443710284696E+00
 0.9271251627033E+00
 0.9064601839888E+00
 0.8818014000172E+00
 0.8525543414525E+00
 0.8181246449678E+00
 0.7779427524072E+00
 0.7314928106545E+00
 0.6783463726777E+00
 0.6182010679629E+00
 0.5509236674237E+00
 0.4765954733346E+00
 0.3955526154107E+00
 0.3084117859816E+00
 0.2160855088835E+00
 0.1197854230819E+00
 0.2100016382265E-01
-0.7855171733641E-01
-0.1769908722436E+00
-0.2723468718193E+00
 0.1169464076591E+01
 0.1158744493954E+01
 0.1147926621816E+01
 0.1137162517965E+01
 0.1126596847020E+01
 0.1116359141757E+01
 0.1106556398452E+01
 0.1097266717288E+01
 0.1088534602286E+01
 0.1080367980315E+01
 0.1072736661037E+01
 0.1065571838722E+01
 0.1058766140244E+01
 0.1052173801832E+01
 0.1045610662927E+01
 0.1038853761652E+01
 0.1031640439295E+01
 0.1023667237624E+01
 0.1014588346920E+01
 0.1004014250992E+01
 0.9915111264955E+00
 0.9766008971046E+00
 0.9587631312897E+00
 0.9374390183109E+00
 0.9120375822115E+00
 0.8819473552172E+00
 0.8465544041792E+00
 0.8052659979607E+00
 0.7575397758301E+00
 0.7029187085229E+00
 0.6410717180710E+00
 0.5718391764296E+00
 0.4952810970597E+00
 0.4117197251139E+00
 0.3217676413232E+00
 0.2263467665682E+00
 0.1266942614288E+00
 0.2434038732471E-01
-0.7894038358744E-01
-0.1812020122400E+00
-0.2804014433316E+00
 0.1213431573895E+01
 0.1202109609248E+01
 0.1190638198906E+01
 0.1179187948613E+01
 0.1167921611311E+01
 0.1156984940215E+01
 0.1146498290606E+01
 0.1136549751770E+01
 0.1127190396617E+01
 0.1118431596094E+01
 0.1110243977251E+01
 0.1102557495667E+01
 0.1095262022346E+01
 0.1088207961344E+01
 0.1081206552500E+01
 0.1074029631907E+01
 0.1066408761975E+01
 0.1058034041421E+01
 0.1048552349025E+01
 0.1037565707808E+01
 0.1024630353912E+01
 0.1009256405103E+01
 0.9909093698965E+00
 0.9690140201807E+00
 0.9429617046996E+00
 0.9121220138417E+00
 0.8758587858974E+00
 0.8335525570112E+00
 0.7846298587214E+00
 0.7285993968926E+00
 0.6650947220714E+00
 0.5939224468896E+00
 0.5151137408900E+00
 0.4289698639776E+00
 0.3360934793709E+00
 0.2374125438809E+00
 0.1341899208809E+00
 0.2800189153322E-01
-0.7931241624450E-01
-0.1857277286093E+00
-0.2891132684770E+00
 0.1257444494212E+01
 0.1245496548729E+01
 0.1233347911664E+01
 0.1221188871953E+01
 0.1209201543393E+01
 0.1197549098311E+01
 0.1186366226596E+01
 0.1175751689793E+01
 0.1165763524061E+01
 0.1156416704680E+01
 0.1147682682240E+01
 0.1139490109133E+01
 0.1131726037321E+01
 0.1124237029418E+01
 0.1116829800706E+01
 0.1109271153422E+01
 0.1101287121706E+01
 0.1092561664670E+01
 0.1082734661587E+01
 0.1071399934803E+01
 0.1058103911181E+01
 0.1042344815119E+01
 0.1023573682990E+01
 0.1001198023090E+01
 0.9745901699437E+00
 0.9430988662990E+00
 0.9060630727073E+00
 0.8628329947977E+00
 0.8127993460770E+00
 0.7554306765680E+00
 0.6903181730159E+00
 0.6172268705969E+00
 0.5361509651287E+00
 0.4473629767250E+00
 0.3514491830288E+00
 0.2493396618946E+00
 0.1423228473749E+00
 0.3202546035091E-01
-0.7963958028207E-01
-0.1905544965312E+00
-0.2984847489116E+00
 0.1301512726649E+01
 0.1288912684206E+01
 0.1276060405297E+01
 0.1263167249170E+01
 0.1250436187864E+01
 0.1238049172583E+01
 0.1226156285273E+01
 0.1214867650264E+01
 0.1204248612418E+01
 0.1194317829801E+01
 0.1185047490028E+01
 0.1176364791239E+01
 0.1168153833662E+01
 0.1160257282171E+01
 0.1152477379454E+01
 0.1144576061883E+01
 0.1136274106368E+01
 0.1127249674148E+01
 0.1117136010374E+01
 0.1105519062614E+01
 0.1091935655127E+01
 0.1075872113620E+01
 0.1056764675265E+01
 0.1034002821973E+01
 0.1006938612100E+01
 0.9748980985849E+00
 0.9371927510900E+00
 0.8931388323994E+00
 0.8420864320300E+00
 0.7834578415754E+00
 0.7167945315612E+00
 0.6418116129259E+00
 0.5584574865283E+00
 0.4669673621441E+00
 0.3679038061764E+00
 0.2621943498963E+00
 0.1511523936317E+00
 0.3645946880117E-01
-0.7988814383205E-01
-0.1956660192648E+00
-0.3085186259865E+00
 0.1345646368500E+01
 0.1332365454759E+01
 0.1318780195066E+01
 0.1305124696844E+01
 0.1291624547736E+01
 0.1278482022379E+01
 0.1265863743652E+01
 0.1253891893730E+01
 0.1242639411660E+01
 0.1232128620245E+01
 0.1222332250299E+01
 0.1213175795922E+01
 0.1204540194738E+01
 0.1196264105627E+01
 0.1188145326045E+01
 0.1179941095766E+01
 0.1171367229993E+01
 0.1162096478556E+01
 0.1151755880032E+01
 0.1139923910088E+01
 0.1126128086280E+01
 0.1109842929019E+01
 0.1090489654007E+01
 0.1067439060218E+01
 0.1040021770704E+01
 0.1007539398567E+01
 0.9692733755207E+00
 0.9245024230419E+00
 0.8725311254484E+00
 0.8127292044272E+00
 0.7445806744508E+00
 0.6677417765441E+00
 0.5821054813016E+00
 0.4878601248927E+00
 0.3855361604701E+00
 0.2760529250950E+00
 0.1607475241685E+00
 0.4136053202023E-01
-0.8001836356904E-01
-0.2010429127696E+00
-0.3192179152082E+00
 0.1389855804819E+01
 0.1375862409156E+01
 0.1361511666940E+01
 0.1347062449888E+01
 0.1332765020116E+01
 0.1318843731549E+01
 0.1305482997136E+01
 0.1292817750583E+01
 0.1280928735573E+01
 0.1269841806651E+01
 0.1259529919248E+01
 0.1249916500953E+01
 0.1240879028260E+01
 0.1232251988716E+01
 0.1223828735965E+01
 0.1215361985495E+01
 0.1206562915202E+01
 0.1197099301441E+01
 0.1186592474941E+01
 0.1174613930753E+01
 0.1160682278864E+01
 0.1144260443424E+01
 0.1124754521358E+01
 0.1101516102170E+01
 0.1073853344768E+01
 0.1041041795708E+01
 0.1002330402016E+01
 0.9569567935483E+00
 0.9041751208365E+00
 0.8432960261722E+00
 0.7737379203139E+00
 0.6950885621797E+00
 0.6071749147210E+00
 0.5101276911690E+00
 0.4044355055394E+00
 0.2910026090324E+00
 0.1711876750237E+00
 0.4679430584045E-01
-0.7998384342425E-01
-0.2066623061920E+00
-0.3305858211380E+00
 0.1434151802882E+01
 0.1419411256357E+01
 0.1404259078740E+01
 0.1388981318068E+01
 0.1373855320750E+01
 0.1359129516873E+01
 0.1345007466595E+01
 0.1331637537644E+01
 0.1319108393877E+01
 0.1307449150802E+01
 0.1296632524444E+01
 0.1286579384874E+01
 0.1277163350956E+01
 0.1268214511246E+01
 0.1259521749960E+01
 0.1250833435820E+01
 0.1241856467442E+01
 0.1232254144130E+01
 0.1221642667918E+01
 0.1209587144495E+01
 0.1195597792840E+01
 0.1179126282662E+01
 0.1159563640368E+01
 0.1136241874124E+01
 0.1108445809244E+01
 0.1075423456398E+01
 0.1036388970389E+01
 0.9905354285144E+00
 0.9370616086745E+00
 0.8752123877931E+00
 0.8043320068926E+00
 0.7239294018288E+00
 0.6337538764066E+00
 0.5338663738170E+00
 0.4247023367150E+00
 0.3071424836507E+00
 0.1825637779108E+00
 0.5283645193117E-01
-0.7973075127071E-01
-0.2124973421037E+00
-0.3426256062705E+00
 0.1478545623813E+01
 0.1463019927666E+01
 0.1447026565298E+01
 0.1430881640223E+01
 0.1414892402695E+01
 0.1399333630274E+01
 0.1384429501482E+01
 0.1370342474606E+01
 0.1357169128486E+01
 0.1344941403037E+01
 0.1333631141114E+01
 0.1323156017840E+01
 0.1313385288904E+01
 0.1304144348681E+01
 0.1295217558622E+01
 0.1286349126031E+01
 0.1277242067047E+01
 0.1267555766140E+01
 0.1256901965632E+01
 0.1244840084770E+01
 0.1230872599755E+01
 0.1214440417722E+01
 0.1194919709267E+01
 0.1171622709333E+01
 0.1143810230186E+01
 0.1110701471553E+01
 0.1071473671585E+01
 0.1025272032606E+01
 0.9712350589173E+00
 0.9085350345542E+00
 0.8364330492595E+00
 0.7543480927796E+00
 0.6619389502062E+00
 0.5591830184344E+00
 0.4464493058689E+00
 0.3245846254145E+00
 0.1949794852489E+00
 0.5957379573036E-01
-0.7919687858198E-01
-0.2185165675745E+00
-0.3553404302538E+00
 0.1523049155270E+01
 0.1506696649385E+01
 0.1489818142936E+01
 0.1472763228025E+01
 0.1455872358496E+01
 0.1439449242545E+01
 0.1423740265682E+01
 0.1408922586156E+01
 0.1395100538833E+01
 0.1382308251643E+01
 0.1370515862390E+01
 0.1359637047442E+01
 0.1349536073021E+01
 0.1340033271627E+01
 0.1330908400755E+01
 0.1321901702668E+01
 0.1312712752191E+01
 0.1302997654539E+01
 0.1292364460677E+01
 0.1280367729708E+01
 0.1266502989209E+01
 0.1250201042884E+01
 0.1230823607668E+01
 0.1207663159172E+01
 0.1179956039026E+01
 0.1146891594966E+01
 0.1107608256416E+01
 0.1061200224814E+01
 0.1006740928941E+01
 0.9433231424234E+00
 0.8701154272655E+00
 0.7864348823761E+00
 0.6918355743425E+00
 0.5861956971161E+00
 0.4698022577541E+00
 0.3434554172201E+00
 0.2085526094865E+00
 0.6710569673571E-01
-0.7831051944724E-01
-0.2246831869536E+00
-0.3687330925181E+00
 0.1567675066863E+01
 0.1550450027516E+01
 0.1532637712753E+01
 0.1514625297817E+01
 0.1496790304461E+01
 0.1479468308331E+01
 0.1462929607542E+01
 0.1447366593129E+01
 0.1432891001334E+01
 0.1419538270664E+01
 0.1407275771034E+01
 0.1396012187847E+01
 0.1385606038752E+01
 0.1375872149701E+01
 0.1366585565837E+01
 0.1357482775699E+01
 0.1348260404375E+01
 0.1338571994593E+01
 0.1328022783302E+01
 0.1316163430825E+01
 0.1302483470319E+01
 0.1286404445565E+01
 0.1267274230269E+01
 0.1244365786343E+01
 0.1216890781862E+01
 0.1184007947778E+01
 0.1144815299671E+01
 0.1098353176339E+01
 0.1043625304269E+01
 0.9796380108935E+00
 0.9054576026619E+00
 0.8202865016162E+00
 0.7235583909423E+00
 0.6150344550603E+00
 0.4949013983514E+00
 0.3638970672186E+00
 0.2234168117604E+00
 0.7554565944159E-01
-0.7698915595563E-01
-0.2309541601882E+00
-0.3828056673685E+00
 0.1612436995526E+01
 0.1594289149402E+01
 0.1575489065869E+01
 0.1556466392487E+01
 0.1537640249245E+01
 0.1519381415968E+01
 0.1501985919782E+01
 0.1485661800568E+01
 0.1470527592726E+01
 0.1456618877366E+01
 0.1443898924996E+01
 0.1432270225492E+01
 0.1421584643929E+01
 0.1411650974468E+01
 0.1402239416032E+01
 0.1393082934425E+01
 0.1383875753594E+01
 0.1374269659772E+01
 0.1363868071867E+01
 0.1352218859442E+01
 0.1338806689404E+01
 0.1323044890255E+01
 0.1304268331658E+01
 0.1281730964895E+01
 0.1254619869464E+01
 0.1222062715261E+01
 0.1183115845633E+01
 0.1136763216917E+01
 0.1081934494610E+01
 0.1017542701538E+01
 0.9425418819782E+00
 0.8560061619011E+00
 0.7572316012075E+00
 0.6458421343347E+00
 0.5219026346202E+00
 0.3860693917124E+00
 0.2397236052564E+00
 0.8502323634335E-01
-0.7513792715261E-01
-0.2372791343975E+00
-0.3975589712017E+00
 0.1657349764366E+01
 0.1638223698741E+01
 0.1618375880058E+01
 0.1598284277076E+01
 0.1578414926773E+01
 0.1559177600326E+01
 0.1540895966467E+01
 0.1523793959062E+01
 0.1507995992570E+01
 0.1493536273019E+01
 0.1480372328397E+01
 0.1468399010559E+01
 0.1457460471528E+01
 0.1447358865647E+01
 0.1437859389357E+01
 0.1428691742175E+01
 0.1419548359642E+01
 0.1410080174955E+01
 0.1399889913186E+01
 0.1388523919199E+01
 0.1375463309435E+01
 0.1360114459182E+01
 0.1341800321811E+01
 0.1319756623499E+01
 0.1293146261010E+01
 0.1261065765022E+01
 0.1222528959438E+01
 0.1176461328472E+01
 0.1121714497508E+01
 0.1057101527570E+01
 0.9814540241737E+00
 0.8937034108919E+00
 0.7929892257287E+00
 0.6787751885965E+00
 0.5509790279724E+00
 0.4101518444734E+00
 0.2576446901013E+00
 0.9568624457633E-01
-0.7264788170768E-01
-0.2435991903146E+00
-0.4129917355356E+00
 0.1702429643022E+01
 0.1682264093560E+01
 0.1661301716339E+01
 0.1640075817755E+01
 0.1619105606398E+01
 0.1598844136677E+01
 0.1579644700995E+01
 0.1561747129144E+01
 0.1545280399823E+01
 0.1530275406297E+01
 0.1516681931045E+01
 0.1504385480819E+01
 0.1493221267299E+01
 0.1482984113959E+01
 0.1473434040992E+01
 0.1464297770473E+01
 0.1455266634141E+01
 0.1445991721450E+01
 0.1436076325537E+01
 0.1425066701840E+01
 0.1412441932975E+01
 0.1397602936213E+01
 0.1379862103778E+01
 0.1358438028458E+01
 0.1332470182852E+01
 0.1301024292157E+01
 0.1263071292889E+01
 0.1217476635884E+01
 0.1163010438157E+01
 0.1098379498814E+01
 0.1022282791003E+01
 0.9334939383591E+00
 0.8309753562955E+00
 0.7140045771693E+00
 0.5823224634329E+00
 0.4363459199295E+00
 0.2773747625366E+00
 0.1077033982584E+00
-0.6939402094451E-01
-0.2498454667402E+00
-0.4290994220557E+00
 0.1747694660502E+01
 0.1726421645142E+01
 0.1704270003509E+01
 0.1681836823725E+01
 0.1659701855099E+01
 0.1638366288276E+01
 0.1618215046883E+01
 0.1599503519470E+01
 0.1582363432419E+01
 0.1566819925589E+01
 0.1552812619513E+01
 0.1540215677256E+01
 0.1528853967936E+01
 0.1518514212572E+01
 0.1508951070918E+01
 0.1499888617164E+01
 0.1491017844009E+01
 0.1481991120701E+01
 0.1472413717286E+01
 0.1461833415075E+01
 0.1449728993210E+01
 0.1435497654270E+01
 0.1418442869474E+01
 0.1397767517976E+01
 0.1372588789251E+01
 0.1341942393295E+01
 0.1304756560892E+01
 0.1259835784125E+01
 0.1205865866092E+01
 0.1141441592996E+01
 0.1065119301091E+01
 0.9754991861593E+00
 0.8713442547488E+00
 0.7517166100550E+00
 0.6161454448516E+00
 0.4648779115762E+00
 0.2991348639069E+00
 0.1212674350601E+00
-0.6523317009887E-01
-0.2559377730522E+00
-0.4458724058527E+00
 0.1793164977999E+01
 0.1770708741991E+01
 0.1747284007221E+01
 0.1723561845523E+01
 0.1700191246356E+01
 0.1677727006670E+01
 0.1656587645839E+01
 0.1637043308309E+01
 0.1619226023137E+01
 0.1603152136024E+01
 0.1588748217232E+01
 0.1575874770206E+01
 0.1564344739721E+01
 0.1553935898344E+01
 0.1544397360570E+01
 0.1535450932780E+01
 0.1526788122383E+01
 0.1518063824502E+01
 0.1508886850771E+01
 0.1498808314138E+01
 0.1487308646729E+01
 0.1473783342131E+01
 0.1457528891782E+01
 0.1437734228312E+01
 0.1413495807955E+01
 0.1383820614051E+01
 0.1347594973400E+01
 0.1303562244729E+01
 0.1250321946618E+01
 0.1186351881948E+01
 0.1110056203311E+01
 0.1019845763637E+01
 0.9142602901452E+00
 0.7921137367326E+00
 0.6526830294753E+00
 0.4960020978465E+00
 0.3231764446581E+00
 0.1365989291870E+00
-0.6000175540288E-01
-0.2617835495839E+00
-0.4632933590006E+00
 0.1838863342592E+01
 0.1815139069226E+01
 0.1790346785327E+01
 0.1765243926740E+01
 0.1740559013794E+01
 0.1716906587791E+01
 0.1694740582240E+01
 0.1674344462514E+01
 0.1655847329324E+01
 0.1639252980657E+01
 0.1624471514092E+01
 0.1611347117198E+01
 0.1599679049586E+01
 0.1589235225821E+01
 0.1579759042670E+01
 0.1570970480760E+01
 0.1562562514194E+01
 0.1554193940664E+01
 0.1545478842280E+01
 0.1535973669833E+01
 0.1525162703016E+01
 0.1512442008034E+01
 0.1497103353276E+01
 0.1478323855404E+01
 0.1455181217767E+01
 0.1426655520437E+01
 0.1391592675933E+01
 0.1348675605346E+01
 0.1296416598064E+01
 0.1233172556703E+01
 0.1157186701533E+01
 0.1066664686188E+01
 0.9598977213473E+00
 0.8354152896030E+00
 0.6921949358978E+00
 0.5300044487321E+00
 0.3497864031768E+00
 0.1539511902749E+00
-0.5351350894577E-01
-0.2672780005757E+00
-0.4813336212757E+00
 0.1884815636970E+01
 0.1859727858587E+01
 0.1833461105028E+01
 0.1806874272090E+01
 0.1780787608348E+01
 0.1755882243690E+01
 0.1732649046295E+01
 0.1711382517257E+01
 0.1692204618382E+01
 0.1675102004465E+01
 0.1659964279780E+01
 0.1646616301965E+01
 0.1634841713304E+01
 0.1624397613999E+01
 0.1615021539665E+01
 0.1606432162342E+01
 0.1598324982546E+01
 0.1590364215332E+01
 0.1582171114030E+01
 0.1573309683352E+01
 0.1563270494950E+01
 0.1551452758150E+01
 0.1537146103197E+01
 0.1519518337025E+01
 0.1497630836262E+01
 0.1470439164900E+01
 0.1436751060636E+01
 0.1395190693343E+01
 0.1344183411300E+01
 0.1281962668458E+01
 0.1206603223140E+01
 0.1116090202694E+01
 0.1008440071069E+01
 0.8818579297436E+00
 0.7349676160797E+00
 0.5672067039112E+00
 0.3792931810453E+00
 0.1736168429447E+00
-0.4555689552096E-01
-0.2723071811577E+00
-0.4999487268555E+00
 0.1931051552856E+01
 0.1904492186994E+01
 0.1876629327445E+01
 0.1848441835405E+01
 0.1820856170270E+01
 0.1794627615214E+01
 0.1770284975720E+01
 0.1748130368034E+01
 0.1728273188918E+01
 0.1710677366987E+01
 0.1695207331584E+01
 0.1681665230081E+01
 0.1669817001351E+01
 0.1659407952053E+01
 0.1650169663163E+01
 0.1641820105204E+01
 0.1634058482050E+01
 0.1626556085670E+01
 0.1618943419863E+01
 0.1610794478054E+01
 0.1601608829631E+01
 0.1590791699169E+01
 0.1577633502946E+01
 0.1561295627934E+01
 0.1540826003410E+01
 0.1515158646504E+01
 0.1483066160685E+01
 0.1443116757475E+01
 0.1393650582131E+01
 0.1332776814244E+01
 0.1258395947559E+01
 0.1168258402870E+01
 0.1060079253761E+01
 0.9316959378232E+00
 0.7813164470074E+00
 0.6079710268002E+00
 0.4120740571460E+00
 0.1959372714204E+00
-0.3589087407280E-01
-0.2767576165274E+00
-0.5190758054836E+00
 0.1977605427131E+01
 0.1949451322311E+01
 0.1919853229015E+01
 0.1889932778895E+01
 0.1860739863910E+01
 0.1833112179129E+01
 0.1807616634829E+01
 0.1784558035442E+01
 0.1764026285305E+01
 0.1745955855719E+01
 0.1730180601974E+01
 0.1716476219703E+01
 0.1704588734431E+01
 0.1694250689859E+01
 0.1685187694166E+01
 0.1677117729635E+01
 0.1669745006730E+01
 0.1662749703963E+01
 0.1655773838641E+01
 0.1648404054507E+01
 0.1640151897539E+01
 0.1630431794356E+01
 0.1618538220600E+01
 0.1603629419691E+01
 0.1584743203901E+01
 0.1560795599004E+01
 0.1530527951896E+01
 0.1492456519659E+01
 0.1444839652539E+01
 0.1385663541132E+01
 0.1312650934069E+01
 0.1223305306902E+01
 0.1115014105616E+01
 0.9852010066476E+00
 0.8315876947309E+00
 0.6527050963847E+00
 0.4485634298470E+00
 0.2213148543192E+00
-0.2423281333653E-01
-0.2805402563583E+00
-0.5386397114649E+00
 0.2024517283673E+01
 0.1994627116750E+01
 0.1963133737180E+01
 0.1931329766098E+01
 0.1900409045803E+01
 0.1871300540004E+01
 0.1844608137531E+01
 0.1820632420157E+01
 0.1799435027425E+01
 0.1780912922982E+01
 0.1764863228458E+01
 0.1751031109961E+01
 0.1739140391908E+01
 0.1728909937868E+01
 0.1720059470518E+01
 0.1712307820836E+01
 0.1705365643532E+01
 0.1698923966743E+01
 0.1692638771537E+01
 0.1686112247613E+01
 0.1678871181589E+01
 0.1670342717709E+01
 0.1659829022936E+01
 0.1646488858446E+01
 0.1629353687328E+01
 0.1607325672309E+01
 0.1579119633098E+01
 0.1543205172486E+01
 0.1497764136214E+01
 0.1440663532225E+01
 0.1369447890081E+01
 0.1281364412739E+01
 0.1173448280936E+01
 0.1042661299046E+01
 0.8861603922514E+00
 0.7018670388225E+00
 0.4892634770272E+00
 0.2502245913243E+00
-0.1023024704486E-01
-0.2836151268376E+00
-0.5586437611838E+00
 0.2071834184346E+01
 0.2040044424591E+01
 0.2006470595112E+01
 0.1972611034416E+01
 0.1939828253494E+01
 0.1909151608662E+01
 0.1881218940640E+01
 0.1856317085028E+01
 0.1834468396505E+01
 0.1815522786968E+01
 0.1799233705828E+01
 0.1785311427410E+01
 0.1773455275047E+01
 0.1763369620692E+01
 0.1754768529006E+01
 0.1747372658411E+01
 0.1740900686443E+01
 0.1735056608183E+01
 0.1729513006872E+01
 0.1723890753939E+01
 0.1717735438972E+01
 0.1710490784541E+01
 0.1701470650022E+01
 0.1689838354219E+01
 0.1674623190198E+01
 0.1654718123517E+01
 0.1628817014642E+01
 0.1595349464923E+01
 0.1552428179742E+01
 0.1497807728920E+01
 0.1428857705634E+01
 0.1342563817392E+01
 0.1235587425255E+01
 0.1104380050909E+01
 0.9454470130929E+00
 0.7559732215662E+00
 0.5347500601556E+00
 0.2832423797836E+00
 0.6541411287036E-02
-0.2859065055705E+00
-0.5794535413715E+00
 0.2119611582125E+01
 0.2085736714344E+01
 0.2049869487932E+01
 0.2013760028945E+01
 0.1978968426746E+01
 0.1946633663119E+01
 0.1917421742405E+01
 0.1891592904569E+01
 0.1869116533683E+01
 0.1849784325241E+01
 0.1833298381029E+01
 0.1819329539863E+01
 0.1807550414610E+01
 0.1797650262226E+01
 0.1789337919684E+01
 0.1782337043842E+01
 0.1776376101428E+01
 0.1771174377697E+01
 0.1766423949136E+01
 0.1761767827862E+01
 0.1756774369455E+01
 0.1750908193771E+01
 0.1743499327882E+01
 0.1733720140779E+01
 0.1720602375615E+01
 0.1703035003216E+01
 0.1679697320411E+01
 0.1648986943741E+01
 0.1608956950470E+01
 0.1557259348346E+01
 0.1491096230716E+01
 0.1407191330024E+01
 0.1301814597606E+01
 0.1170858660926E+01
 0.1010081949994E+01
 0.8157789365290E+00
 0.5858571642440E+00
 0.3211423735000E+00
 0.2676056987540E-01
-0.2872329883401E+00
-0.6033269799028E+00
 0.2167918853331E+01
 0.2131738701929E+01
 0.2093327684445E+01
 0.2054743674514E+01
 0.2017779296275E+01
 0.1983691590400E+01
 0.1953164965819E+01
 0.1926415827033E+01
 0.1903343657007E+01
 0.1883668969306E+01
 0.1867034141545E+01
 0.1853065950504E+01
 0.1841408264742E+01
 0.1831734838982E+01
 0.1823749927057E+01
 0.1817181528429E+01
 0.1811769810837E+01
 0.1807251820316E+01
 0.1803342204963E+01
 0.1799709838384E+01
 0.1795950155981E+01
 0.1791553414790E+01
 0.1785870722766E+01
 0.1778088395694E+01
 0.1767245614347E+01
 0.1752232995485E+01
 0.1731722434027E+01
 0.1704089006648E+01
 0.1667338132532E+01
 0.1619032998662E+01
 0.1556221212404E+01
 0.1475371297980E+01
 0.1372351917857E+01
 0.1242453258966E+01
 0.1080586377993E+01
 0.8819814488164E+00
 0.6434098611393E+00
 0.3648124755498E+00
 0.5102888223273E-01
-0.2866642267278E+00
-0.6327896231374E+00
 0.2216832943661E+01
 0.2178082024871E+01
 0.2136827066682E+01
 0.2095505565786E+01
 0.2056183832648E+01
 0.2020243260689E+01
 0.1988370964965E+01
 0.1960716493052E+01
 0.1937088624997E+01
 0.1917121852247E+01
 0.1900389915185E+01
 0.1886471016402E+01
 0.1874978569221E+01
 0.1865570760134E+01
 0.1857948151378E+01
 0.1851844594708E+01
 0.1847013976677E+01
 0.1843213659715E+01
 0.1840184052737E+01
 0.1837623793544E+01
 0.1835159989163E+01
 0.1832313627176E+01
 0.1828462171062E+01
 0.1822811066697E+01
 0.1814412109445E+01
 0.1802163430121E+01
 0.1784737246796E+01
 0.1760496844982E+01
 0.1727414466105E+01
 0.1682982477377E+01
 0.1624113647869E+01
 0.1547037515376E+01
 0.1447223408793E+01
 0.1319326360945E+01
 0.1157312613846E+01
 0.9551533773175E+00
 0.7081921506217E+00
 0.4151062214590E+00
 0.8029732983160E-01
-0.2845189657237E+00
-0.6615629901014E+00
 0.2266450681319E+01
 0.2224810671782E+01
 0.2180353629859E+01
 0.2135989532690E+01
 0.2094106651940E+01
 0.2056212991737E+01
 0.2022974411441E+01
 0.1994443291677E+01
 0.1970312529848E+01
 0.1950113982986E+01
 0.1933343599502E+01
 0.1919526874027E+01
 0.1908245554359E+01
 0.1899142620604E+01
 0.1891916143862E+01
 0.1886307540253E+01
 0.1882086563985E+01
 0.1879033557747E+01
 0.1876918024995E+01
 0.1875472510848E+01
 0.1874360756750E+01
 0.1873140050643E+01
 0.1871219967060E+01
 0.1867830617326E+01
 0.1862041748006E+01
 0.1852764963392E+01
 0.1838680892875E+01
 0.1818152868766E+01
 0.1789136762068E+01
 0.1749076304465E+01
 0.1694775926817E+01
 0.1622252847677E+01
 0.1526593181407E+01
 0.1401799450688E+01
 0.1240802397451E+01
 0.1036104655382E+01
 0.7812589927663E+00
 0.4732391875407E+00
 0.1155120383221E+00
-0.2794855444773E+00
-0.6908698978126E+00
 0.2316890809626E+01
 0.2271975471555E+01
 0.2223885315482E+01
 0.2176123405104E+01
 0.2131455973387E+01
 0.2091512637368E+01
 0.2056902390168E+01
 0.2027540928502E+01
 0.2002975244742E+01
 0.1982616459419E+01
 0.1965873762082E+01
 0.1952216508661E+01
 0.1941194263908E+01
 0.1932435690016E+01
 0.1925637918037E+01
 0.1920551849399E+01
 0.1916965369209E+01
 0.1914684541918E+01
 0.1913511411762E+01
 0.1913216800215E+01
 0.1913506439432E+01
 0.1913980026173E+01
 0.1914085552042E+01
 0.1913083693542E+01
 0.1910067541544E+01
 0.1903968006200E+01
 0.1893482304472E+01
 0.1876986487454E+01
 0.1852439018414E+01
 0.1817261359274E+01
 0.1768183371577E+01
 0.1701048497583E+01
 0.1610593636964E+01
 0.1490173735617E+01
 0.1331611374917E+01
 0.1125719822423E+01
 0.8638404881188E+00
 0.5406313303595E+00
 0.1580709510767E+00
-0.2707153801084E+00
-0.7209267620002E+00
 0.2368300444099E+01
 0.2319635117001E+01
 0.2267388235185E+01
 0.2215813864468E+01
 0.2168119727473E+01
 0.2126039736399E+01
 0.2090074085516E+01
 0.2059950842298E+01
 0.2035036017811E+01
 0.2014601004770E+01
 0.1997960066452E+01
 0.1984524083204E+01
 0.1973810818481E+01
 0.1965436128837E+01
 0.1959098143440E+01
 0.1954559379198E+01
 0.1951628205473E+01
 0.1950139186246E+01
 0.1949930419468E+01
 0.1950815571343E+01
 0.1952548136750E+01
 0.1954776950867E+01
 0.1956995383985E+01
 0.1958500980164E+01
 0.1958415509693E+01
 0.1955694619282E+01
 0.1949060020374E+01
 0.1936913641068E+01
 0.1917237368059E+01
 0.1887460757929E+01
 0.1844280239053E+01
 0.1783416936277E+01
 0.1699313875441E+01
 0.1584714251529E+01
 0.1430291451976E+01
 0.1224955616070E+01
 0.9573461244353E+00
 0.6190270223077E+00
 0.2096737410418E+00
-0.2571738187083E+00
-0.7519912599621E+00
 0.2420863980232E+01
 0.2367857091425E+01
 0.2310811052747E+01
 0.2254939436377E+01
 0.2203960779263E+01
 0.2159675648841E+01
 0.2122400813415E+01
 0.2091611951431E+01
 0.2066454270961E+01
 0.2046040610145E+01
 0.2029583749424E+01
 0.2016435291170E+01
 0.2006082686382E+01
 0.1998131211073E+01
 0.1992282345842E+01
 0.1988312555557E+01
 0.1986053104985E+01
 0.1985369818237E+01
 0.1986140363054E+01
 0.1988225973344E+01
 0.1991434112247E+01
 0.1995470211414E+01
 0.1999880793134E+01
 0.2004007055732E+01
 0.2007004604801E+01
 0.2007858510898E+01
 0.2005322161870E+01
 0.1997836558940E+01
 0.1983429310628E+01
 0.1959572051882E+01
 0.1922975999322E+01
 0.1869304687250E+01
 0.1792786787841E+01
 0.1685629359084E+01
 0.1537366722357E+01
 0.1334822980531E+01
 0.1063389602439E+01
 0.7105444068477E+00
 0.2724618905039E+00
-0.2375392575785E+00
-0.7843045737438E+00
 0.2474815578132E+01
 0.2416718273009E+01
 0.2354076500548E+01
 0.2293340918026E+01
 0.2238811174917E+01
 0.2192283919868E+01
 0.2153786624574E+01
 0.2122461831794E+01
 0.2097190628330E+01
 0.2076910285040E+01
 0.2060728149021E+01
 0.2047937734332E+01
 0.2037998968143E+01
 0.2030509557398E+01
 0.2025177119245E+01
 0.2021794586318E+01
 0.2020218547660E+01
 0.2020348764786E+01
 0.2022105908956E+01
 0.2025403587615E+01
 0.2030109876675E+01
 0.2035995126788E+01
 0.2042667825518E+01
 0.2049520247560E+01
 0.2055746690854E+01
 0.2060365169187E+01
 0.2062166627407E+01
 0.2059643817249E+01
 0.2050893329459E+01
 0.2033465915921E+01
 0.2004142174261E+01
 0.1958605511365E+01
 0.1890975311642E+01
 0.1793046317033E+01
 0.1653298412371E+01
 0.1456357511125E+01
 0.1183796472545E+01
 0.8177600891405E+00
 0.3491836020447E+00
-0.2100385653221E+00
-0.8181239407990E+00
 0.2530457027371E+01
 0.2466304711248E+01
 0.2397068392119E+01
 0.2330808251890E+01
 0.2272465440960E+01
 0.2223709302205E+01
 0.2184129774825E+01
 0.2152438412144E+01
 0.2127208171166E+01
 0.2107187898654E+01
 0.2091379267511E+01
 0.2079021311561E+01
 0.2069550682780E+01
 0.2062561367599E+01
 0.2057770338693E+01
 0.2054989680275E+01
 0.2054103705623E+01
 0.2055048629436E+01
 0.2057791366247E+01
 0.2062302674762E+01
 0.2068518305973E+01
 0.2076282882418E+01
 0.2085277039463E+01
 0.2094952445639E+01
 0.2104546545372E+01
 0.2113112116616E+01
 0.2119481509582E+01
 0.2122210709731E+01
 0.2119488928005E+01
 0.2108985412979E+01
 0.2087609968494E+01
 0.2051154490041E+01
 0.1993758901307E+01
 0.1906983303487E+01
 0.1778438068484E+01
 0.1590567403335E+01
 0.1320594304243E+01
 0.9438100790409E+00
 0.4434238851865E+00
-0.1722221673519E+00
-0.8537386828537E+00
 0.2588183933476E+01
 0.2516709535201E+01
 0.2439611423259E+01
 0.2367062515098E+01
 0.2304673275146E+01
 0.2253778182276E+01
 0.2213325426072E+01
 0.2181482233569E+01
 0.2156473890186E+01
 0.2136855089292E+01
 0.2121526353952E+01
 0.2109678607216E+01
 0.2100731047019E+01
 0.2094278644986E+01
 0.2090051367055E+01
 0.2087883265318E+01
 0.2087688697421E+01
 0.2089442598217E+01
 0.2093161030725E+01
 0.2098876488211E+01
 0.2106599804574E+01
 0.2116260447799E+01
 0.2127623222020E+01
 0.2140208832310E+01
 0.2153301855899E+01
 0.2165989285205E+01
 0.2177145753949E+01
 0.2185399958847E+01
 0.2189057122462E+01
 0.2185945924338E+01
 0.2173168915127E+01
 0.2146723594056E+01
 0.2100921538675E+01
 0.2027319999812E+01
 0.1912967996737E+01
 0.1738350119974E+01
 0.1475967840987E+01
 0.1092498916564E+01
 0.5599252429732E+00
-0.1206158181590E+00
-0.8914785685923E+00
 0.2648525212007E+01
 0.2568026860266E+01
 0.2481439180640E+01
 0.2401731348040E+01
 0.2335132668700E+01
 0.2282301621424E+01
 0.2241269941774E+01
 0.2209539232159E+01
 0.2184960283434E+01
 0.2165898221914E+01
 0.2151162496227E+01
 0.2139905276003E+01
 0.2131535749327E+01
 0.2125655417346E+01
 0.2122011261925E+01
 0.2120462212624E+01
 0.2120954859828E+01
 0.2123504786197E+01
 0.2128179605647E+01
 0.2135077693739E+01
 0.2144292556833E+01
 0.2155850497556E+01
 0.2169615009126E+01
 0.2185187496995E+01
 0.2201903204142E+01
 0.2218879548017E+01
 0.2235030126457E+01
 0.2249062841887E+01
 0.2259421463101E+01
 0.2264135858231E+01
 0.2260566796135E+01
 0.2245019320786E+01
 0.2212142929646E+01
 0.2153770443599E+01
 0.2056831520873E+01
 0.1900367703206E+01
 0.1652150162155E+01
 0.1268395390697E+01
 0.7050378471469E+00
-0.5015652572827E-01
-0.9316951919831E+00
 0.2712204723148E+01
 0.2620337206235E+01
 0.2522142373834E+01
 0.2434316035022E+01
 0.2363485973027E+01
 0.2309082786817E+01
 0.2267866927871E+01
 0.2236563844629E+01
 0.2212647024573E+01
 0.2194309359959E+01
 0.2180285195918E+01
 0.2169700407357E+01
 0.2161963205957E+01
 0.2156687943071E+01
 0.2153642971525E+01
 0.2152715054722E+01
 0.2153885023031E+01
 0.2157210611392E+01
 0.2162812697506E+01
 0.2170858916261E+01
 0.2181532897873E+01
 0.2194971334228E+01
 0.2211154346320E+01
 0.2229778841795E+01
 0.2250233972557E+01
 0.2271659397219E+01
 0.2292998514374E+01
 0.2313040752549E+01
 0.2330389569717E+01
 0.2343318115743E+01
 0.2349510960315E+01
 0.2345682778353E+01
 0.2326994125231E+01
 0.2285863152267E+01
 0.2209661522739E+01
 0.2076873745232E+01
 0.1851203711131E+01
 0.1476863457127E+01
 0.8873460601259E+00
 0.4675329870877E-01
-0.9746702598626E+00
 0.2780241610120E+01
 0.2673674639139E+01
 0.2561082976577E+01
 0.2464149465241E+01
 0.2389324423186E+01
 0.2333930930251E+01
 0.2293034555498E+01
 0.2262522104411E+01
 0.2239522662376E+01
 0.2222087213814E+01
 0.2208896903597E+01
 0.2199066862492E+01
 0.2192014795899E+01
 0.2187374902225E+01
 0.2184941520570E+01
 0.2184632198073E+01
 0.2186463787449E+01
 0.2190537192342E+01
 0.2197027396139E+01
 0.2206173461395E+01
 0.2218255881646E+01
 0.2233536851822E+01
 0.2252135733233E+01
 0.2273864670580E+01
 0.2298170114732E+01
 0.2324199798689E+01
 0.2350909642925E+01
 0.2377167274797E+01
 0.2401755205308E+01
 0.2423232262170E+01
 0.2439671121873E+01
 0.2448292674003E+01
 0.2444938103449E+01
 0.2422933235430E+01
 0.2370724785694E+01
 0.2267499596772E+01
 0.2074625402175E+01
 0.1723912907094E+01
 0.1118511979745E+01
 0.1818793681194E+00
-0.1020328028226E+01
 0.2854122701418E+01
 0.2727953048033E+01
 0.2597247875699E+01
 0.2490349110650E+01
 0.2412212230447E+01
 0.2356683154095E+01
 0.2316712492973E+01
 0.2287394507945E+01
 0.2265586354136E+01
 0.2249237986674E+01
 0.2237005494426E+01
 0.2228011572019E+01
 0.2221695065135E+01
 0.2217717566458E+01
 0.2215904179988E+01
 0.2216206123442E+01
 0.2218677791389E+01
 0.2223463749493E+01
 0.2230792924867E+01
 0.2240976252726E+01
 0.2254396154672E+01
 0.2271456605456E+01
 0.2292445156022E+01
 0.2317316772535E+01
 0.2345579678609E+01
 0.2376367245210E+01
 0.2408619297352E+01
 0.2441270839856E+01
 0.2473300882305E+01
 0.2503597243656E+01
 0.2530683393717E+01
 0.2552371790156E+01
 0.2565335446375E+01
 0.2564126613635E+01
 0.2538906943879E+01
 0.2471045174047E+01
 0.2322702985507E+01
 0.2015623176913E+01
 0.1414312038223E+01
 0.3740558161860E+00
-0.1067432523305E+01
 0.2936120522947E+01
 0.2782795140971E+01
 0.2628992557528E+01
 0.2511786683501E+01
 0.2431749896680E+01
 0.2377229922427E+01
 0.2338865646575E+01
 0.2311179191858E+01
 0.2290849471252E+01
 0.2275776015576E+01
 0.2264624685758E+01
 0.2256545766745E+01
 0.2251011888024E+01
 0.2247719935143E+01
 0.2246530607389E+01
 0.2247431559794E+01
 0.2250515951644E+01
 0.2255971975521E+01
 0.2264081310031E+01
 0.2275225003487E+01
 0.2289889297826E+01
 0.2308636121372E+01
 0.2331958563397E+01
 0.2359994681117E+01
 0.2392321905565E+01
 0.2428025039454E+01
 0.2465983156109E+01
 0.2505178054130E+01
 0.2544800948398E+01
 0.2584114466878E+01
 0.2622154847536E+01
 0.2657396975011E+01
 0.2687457594645E+01
 0.2708408324065E+01
 0.2712751669113E+01
 0.2685392262007E+01
 0.2593614376113E+01
 0.2356644369232E+01
 0.1795584076846E+01
 0.6544652665404E+00
-0.1111421129901E+01
 0.3029938822303E+01
 0.2837107283380E+01
 0.2653585340600E+01
 0.2527153271395E+01
 0.2447699924125E+01
 0.2395524874642E+01
 0.2359485024895E+01
 0.2333896768807E+01
 0.2315336207636E+01
 0.2301724380725E+01
 0.2291774358143E+01
 0.2284685129038E+01
 0.2279976595257E+01
 0.2277388838060E+01
 0.2276822965073E+01
 0.2278305635601E+01
 0.2281969683040E+01
 0.2288046365804E+01
 0.2296868003267E+01
 0.2308881611597E+01
 0.2324673921025E+01
 0.2344977790881E+01
 0.2370539728995E+01
 0.2401742117215E+01
 0.2438245706063E+01
 0.2479034974238E+01
 0.2522860426931E+01
 0.2568717930036E+01
 0.2616025218721E+01
 0.2664470982419E+01
 0.2713668387747E+01
 0.2762809917739E+01
 0.2810514387904E+01
 0.2854572178771E+01
 0.2890504902486E+01
 0.2907731686851E+01
 0.2882568436335E+01
 0.2746901340067E+01
 0.2287908557790E+01
 0.1076472964340E+01
-0.1138601127394E+01
 0.3142206005888E+01
 0.2887896621891E+01
 0.2666431250068E+01
 0.2535372747761E+01
 0.2460143188698E+01
 0.2411538319010E+01
 0.2378603757642E+01
 0.2355592618969E+01
 0.2339082992549E+01
 0.2327115988969E+01
 0.2318480449773E+01
 0.2312449983036E+01
 0.2308604014217E+01
 0.2306734013224E+01
 0.2306786005209E+01
 0.2308828000199E+01
 0.2313033085714E+01
 0.2319674509459E+01
 0.2329132342386E+01
 0.2341913579522E+01
 0.2358694871514E+01
 0.2380383079779E+01
 0.2408037254648E+01
 0.2442381156714E+01
 0.2483187225225E+01
 0.2529259702809E+01
 0.2579118556443E+01
 0.2631726973978E+01
 0.2686743924440E+01
 0.2744341278923E+01
 0.2804788909962E+01
 0.2868025562045E+01
 0.2933688446579E+01
 0.3001303339456E+01
 0.3070023783979E+01
 0.3135101561420E+01
 0.3182210065542E+01
 0.3175500128444E+01
 0.2916004750735E+01
 0.1733925186888E+01
-0.1109705789472E+01
 0.3286607453627E+01
 0.2926380895477E+01
 0.2660194472134E+01
 0.2537037621076E+01
 0.2469287726132E+01
 0.2425206856453E+01
 0.2396353735127E+01
 0.2376313858613E+01
 0.2362147418158E+01
 0.2351991015494E+01
 0.2344775801208E+01
 0.2339865094876E+01
 0.2336912556658E+01
 0.2335768132245E+01
 0.2336427141521E+01
 0.2339000928472E+01
 0.2343703092468E+01
 0.2350847384708E+01
 0.2360857853912E+01
 0.2374294888006E+01
 0.2391907831488E+01
 0.2414757858025E+01
 0.2444280427537E+01
 0.2481702155538E+01
 0.2526966322394E+01
 0.2578566563759E+01
 0.2634639213513E+01
 0.2694055531109E+01
 0.2756733246623E+01
 0.2823392495007E+01
 0.2895055240999E+01
 0.2972470613956E+01
 0.3056103599102E+01
 0.3147394968597E+01
 0.3248634981645E+01
 0.3364169314691E+01
 0.3486652337588E+01
 0.3614421530453E+01
 0.3678978802753E+01
 0.2794710772945E+01
-0.9132268407216E+00
 0.3498456317446E+01
 0.2921813733119E+01
 0.2628303634372E+01
 0.2537079496820E+01
 0.2473636214959E+01
 0.2437185867024E+01
 0.2412717968740E+01
 0.2396183558609E+01
 0.2384587389503E+01
 0.2376402404365E+01
 0.2370698580119E+01
 0.2366959989119E+01
 0.2364924084877E+01
 0.2364506818428E+01
 0.2365756469441E+01
 0.2368829384328E+01
 0.2373979577676E+01
 0.2381559490109E+01
 0.2392032829810E+01
 0.2406005299655E+01
 0.2424283974285E+01
 0.2448025668001E+01
 0.2479073678162E+01
 0.2519444285345E+01
 0.2569382984372E+01
 0.2626833838535E+01
 0.2689325953389E+01
 0.2755574403525E+01
 0.2825783866013E+01
 0.2901286766602E+01
 0.2983985994993E+01
 0.3075535816913E+01
 0.3177075430544E+01
 0.3291166408280E+01
 0.3425155867850E+01
 0.3586656151808E+01
 0.3799248147773E+01
 0.4028759724796E+01
 0.4481418848734E+01
 0.4517037888609E+01
-0.1632922043255E+00
 0.3905186065963E+01
 0.2730455153527E+01
 0.2622324171096E+01
 0.2522541045814E+01
 0.2476925310662E+01
 0.2446892659250E+01
 0.2428049854464E+01
 0.2415265645033E+01
 0.2406494636748E+01
 0.2400406948899E+01
 0.2396294173052E+01
 0.2393768256165E+01
 0.2392663942690E+01
 0.2392968566893E+01
 0.2394786736012E+01
 0.2398321075028E+01
 0.2403865354436E+01
 0.2411809004552E+01
 0.2422650332225E+01
 0.2437031779810E+01
 0.2455802650956E+01
 0.2480164456900E+01
 0.2512191503097E+01
 0.2555248769776E+01
 0.2610224286975E+01
 0.2673957574139E+01
 0.2743113770214E+01
 0.2816184893150E+01
 0.2893702453257E+01
 0.2977707019805E+01
 0.3071039182784E+01
 0.3176631934240E+01
 0.3295878457999E+01
 0.3431840997179E+01
 0.3595113525748E+01
 0.3806509195513E+01
 0.4079692585784E+01
 0.4516922737426E+01
 0.4927150289230E+01
 0.7211661650065E+01
 0.2095117796346E+01
 0.1063786601112E+01
 0.1037847335646E+01
 0.1007694340056E+01
 0.9782697817067E+00
 0.9496085657744E+00
 0.9222310945914E+00
 0.8960814267044E+00
 0.8716248224754E+00
 0.8491322851704E+00
 0.8287539038076E+00
 0.8106523817422E+00
 0.7949063379784E+00
 0.7815164766721E+00
 0.7703655356651E+00
 0.7612678430415E+00
 0.7539345622229E+00
 0.7490425763790E+00
 0.7474464454498E+00
 0.7461171802562E+00
 0.7676520449317E+00
 0.1118371389040E+01
 0.1084871466358E+01
 0.1052932278132E+01
 0.1021219102989E+01
 0.9907733764523E+00
 0.9617578582544E+00
 0.9344239966969E+00
 0.9089528160553E+00
 0.8855714848972E+00
 0.8644525428459E+00
 0.8457313990183E+00
 0.8294994670956E+00
 0.8157646835329E+00
 0.8044571612453E+00
 0.7954530454795E+00
 0.7888152882051E+00
 0.7850016242188E+00
 0.7840623059216E+00
 0.7905261511947E+00
 0.7982427947860E+00
 0.1169660222620E+01
 0.1132908903559E+01
 0.1097616402125E+01
 0.1063810244511E+01
 0.1031463068572E+01
 0.1000894990660E+01
 0.9722610712838E+00
 0.9457297604229E+00
 0.9214572125698E+00
 0.8995966964101E+00
 0.8802803689684E+00
 0.8635993684581E+00
 0.8495838916384E+00
 0.8382060303933E+00
 0.8294515737802E+00
 0.8234434174696E+00
 0.8204518251915E+00
 0.8215291462147E+00
 0.8260918712882E+00
 0.8320822246911E+00
 0.1220238571721E+01
 0.1180171726407E+01
 0.1142094229432E+01
 0.1105912503809E+01
 0.1071689276208E+01
 0.1039527324509E+01
 0.1009572517948E+01
 0.9819437297869E+00
 0.9567673713621E+00
 0.9341710742447E+00
 0.9142781750363E+00
 0.8971845924109E+00
 0.8829405598260E+00
 0.8715631032748E+00
 0.8630890724193E+00
 0.8576295932066E+00
 0.8555369494923E+00
 0.8568846573880E+00
 0.8612641019115E+00
 0.8673841063102E+00
 0.1270047235990E+01
 0.1226832493724E+01
 0.1186020532547E+01
 0.1147537746204E+01
 0.1111382293467E+01
 0.1077615785525E+01
 0.1046315814118E+01
 0.1017572288371E+01
 0.9914818981413E+00
 0.9681534879002E+00
 0.9477008827156E+00
 0.9302235063104E+00
 0.9157895828394E+00
 0.9044443191747E+00
 0.8962403933995E+00
 0.8912943805515E+00
 0.8897275216808E+00
 0.8914934049609E+00
 0.8962137656805E+00
 0.9031558413454E+00
 0.1319106878524E+01
 0.1272814654339E+01
 0.1229342751877E+01
 0.1188583192360E+01
 0.1150502860600E+01
 0.1115114580935E+01
 0.1082457477984E+01
 0.1052586980048E+01
 0.1025576868512E+01
 0.1001519091522E+01
 0.9805191458770E+00
 0.9626781145051E+00
 0.9480757283055E+00
 0.9367706768143E+00
 0.9288216065823E+00
 0.9242926275804E+00
 0.9232261896669E+00
 0.9255293997252E+00
 0.9309369939704E+00
 0.9389909065996E+00
 0.1367372211472E+01
 0.1318072146914E+01
 0.1271992687344E+01
 0.1228990832531E+01
 0.1188996096858E+01
 0.1151985137487E+01
 0.1117963190904E+01
 0.1086958977154E+01
 0.1059025264449E+01
 0.1034239729011E+01
 0.1012699803796E+01
 0.9945059599466E+00
 0.9797431902984E+00
 0.9684761515524E+00
 0.9607550586303E+00
 0.9566180921439E+00
 0.9560721401841E+00
 0.9590370493935E+00
 0.9653275562935E+00
 0.9746380744895E+00
 0.1414791000010E+01
 0.1362550740473E+01
 0.1313916324675E+01
 0.1268706772916E+01
 0.1226816045852E+01
 0.1188187973651E+01
 0.1152800105647E+01
 0.1120658480612E+01
 0.1091798371566E+01
 0.1066284735098E+01
 0.1044207149882E+01
 0.1025663355295E+01
 0.1010739802950E+01
 0.9995019253358E+00
 0.9919954652085E+00
 0.9882480322034E+00
 0.9882613415704E+00
 0.9919793272305E+00
 0.9992770971499E+00
 0.1009954515591E+01
 0.1461306416476E+01
 0.1406197719029E+01
 0.1355063208418E+01
 0.1307684230460E+01
 0.1263920518330E+01
 0.1223686511842E+01
 0.1186935839997E+01
 0.1153655646820E+01
 0.1123866436495E+01
 0.1097622081086E+01
 0.1075004463357E+01
 0.1056107412891E+01
 0.1041016756149E+01
 0.1029798731064E+01
 0.1022499505962E+01
 0.1019148413268E+01
 0.1019755667647E+01
 0.1024293051292E+01
 0.1032686153468E+01
 0.1044813060780E+01
 0.1506861265773E+01
 0.1448961840552E+01
 0.1395386682155E+01
 0.1345880590269E+01
 0.1300271191760E+01
 0.1258446409348E+01
 0.1220339175831E+01
 0.1185920742904E+01
 0.1155199311032E+01
 0.1128219170421E+01
 0.1105055022863E+01
 0.1085796461391E+01
 0.1070528538196E+01
 0.1059319845856E+01
 0.1052221812066E+01
 0.1049272961583E+01
 0.1050499466786E+01
 0.1055902959276E+01
 0.1065453792717E+01
 0.1079094350203E+01
 0.1551399835111E+01
 0.1490794449350E+01
 0.1434843492833E+01
 0.1383257009013E+01
 0.1335833002629E+01
 0.1292435735351E+01
 0.1252980295809E+01
 0.1217424700377E+01
 0.1185767047755E+01
 0.1158043584136E+01
 0.1134322690342E+01
 0.1114690217804E+01
 0.1099231259904E+01
 0.1088018820314E+01
 0.1081113252963E+01
 0.1078566997960E+01
 0.1080426608172E+01
 0.1086725049756E+01
 0.1097476591213E+01
 0.1112675713260E+01
 0.1594868887205E+01
 0.1531649911138E+01
 0.1473393742093E+01
 0.1419777987739E+01
 0.1370573848238E+01
 0.1325624835290E+01
 0.1284830935210E+01
 0.1248139396270E+01
 0.1215540305826E+01
 0.1187063470161E+01
 0.1162772134464E+01
 0.1142749417383E+01
 0.1127081724127E+01
 0.1115848406067E+01
 0.1109121405289E+01
 0.1106970076108E+01
 0.1109464076879E+01
 0.1116669137198E+01
 0.1128643850480E+01
 0.1145438407967E+01
 0.1637218541599E+01
 0.1571486086756E+01
 0.1511001023168E+01
 0.1455411324772E+01
 0.1404464510103E+01
 0.1357986381872E+01
 0.1315864570393E+01
 0.1278037968884E+01
 0.1244490714345E+01
 0.1215247867420E+01
 0.1190368949261E+01
 0.1169935639829E+01
 0.1154037049341E+01
 0.1142760526567E+01
 0.1136191467694E+01
 0.1134418015757E+01
 0.1137534594114E+01
 0.1145640556147E+01
 0.1158839979612E+01
 0.1177246134728E+01
 0.1678402941295E+01
 0.1610264739431E+01
 0.1547632605446E+01
 0.1490128158892E+01
 0.1437478668949E+01
 0.1389495441532E+01
 0.1346056576749E+01
 0.1307095049027E+01
 0.1272591130095E+01
 0.1242566909437E+01
 0.1217079733734E+01
 0.1196211258444E+01
 0.1180054655868E+01
 0.1168706603913E+01
 0.1162267209237E+01
 0.1160844493329E+01
 0.1164558463980E+01
 0.1173542280237E+01
 0.1187945668953E+01
 0.1207944274709E+01
 0.1718380782799E+01
 0.1647951867936E+01
 0.1583259603373E+01
 0.1523903037327E+01
 0.1469592940214E+01
 0.1420129535529E+01
 0.1375384341764E+01
 0.1335286919653E+01
 0.1299815809072E+01
 0.1268991964288E+01
 0.1242872175024E+01
 0.1221539507940E+01
 0.1205092446265E+01
 0.1193638031466E+01
 0.1187291859142E+01
 0.1186182310470E+01
 0.1190455069634E+01
 0.1200276411961E+01
 0.1215839487242E+01
 0.1237377266494E+01
 0.1757115911990E+01
 0.1684518099253E+01
 0.1617857237853E+01
 0.1556714086311E+01
 0.1500787004797E+01
 0.1449868771029E+01
 0.1403827418570E+01
 0.1362591691303E+01
 0.1326140586935E+01
 0.1294495801393E+01
 0.1267715205272E+01
 0.1245884678510E+01
 0.1229109129216E+01
 0.1217506731121E+01
 0.1211208955442E+01
 0.1210364512936E+01
 0.1215144187782E+01
 0.1225745670341E+01
 0.1242401837252E+01
 0.1265395980737E+01
 0.1794577793862E+01
 0.1719939026332E+01
 0.1651405053992E+01
 0.1588543155342E+01
 0.1531043715778E+01
 0.1478695940762E+01
 0.1431367636229E+01
 0.1388989427082E+01
 0.1351543013586E+01
 0.1319052733498E+01
 0.1291579166142E+01
 0.1269212345146E+01
 0.1252064577527E+01
 0.1240265702969E+01
 0.1233963122249E+01
 0.1233325404404E+01
 0.1238547250095E+01
 0.1249855323667E+01
 0.1267517769814E+01
 0.1291860702929E+01
 0.1830742060796E+01
 0.1754195585428E+01
 0.1683887192013E+01
 0.1619376011796E+01
 0.1560349249549E+01
 0.1506596655244E+01
 0.1457989229547E+01
 0.1414462278021E+01
 0.1376002497646E+01
 0.1342638777377E+01
 0.1314436004996E+01
 0.1291489634368E+01
 0.1273920210903E+01
 0.1261869567464E+01
 0.1255500804222E+01
 0.1255001503420E+01
 0.1260588628692E+01
 0.1272514888632E+01
 0.1291078931017E+01
 0.1316642350873E+01
 0.1865591008806E+01
 0.1787274424333E+01
 0.1715292648829E+01
 0.1649202531193E+01
 0.1588693251297E+01
 0.1533559465526E+01
 0.1483678954881E+01
 0.1438994602648E+01
 0.1399500438293E+01
 0.1365231809428E+01
 0.1336259473405E+01
 0.1312685493834E+01
 0.1294639370450E+01
 0.1282275078518E+01
 0.1275770950759E+01
 0.1275332440011E+01
 0.1281196790772E+01
 0.1293639540434E+01
 0.1312984931910E+01
 0.1339623093626E+01
 0.1899114094223E+01
 0.1819168261069E+01
 0.1745615536572E+01
 0.1678016884379E+01
 0.1616068976769E+01
 0.1559575979630E+01
 0.1508426197022E+01
 0.1462573076693E+01
 0.1422020348905E+01
 0.1386811716184E+01
 0.1357025321931E+01
 0.1332770953924E+01
 0.1314187673030E+01
 0.1301441598477E+01
 0.1294725640472E+01
 0.1294261761077E+01
 0.1300305273503E+01
 0.1313151221658E+01
 0.1333144489271E+01
 0.1360696709343E+01
 0.1931308442460E+01
 0.1849876257900E+01
 0.1774855354591E+01
 0.1705817736633E+01
 0.1642473442585E+01
 0.1584640983853E+01
 0.1532223077556E+01
 0.1485186802099E+01
 0.1443547979156E+01
 0.1407360542496E+01
 0.1376711489440E+01
 0.1351719375721E+01
 0.1332533337780E+01
 0.1319331524497E+01
 0.1312320631582E+01
 0.1311737615213E+01
 0.1317853515380E+01
 0.1330979440317E+01
 0.1351476304744E+01
 0.1379769962306E+01
 0.1962179345046E+01
 0.1879404387568E+01
 0.1803017253837E+01
 0.1732608438305E+01
 0.1667907566973E+01
 0.1608752552984E+01
 0.1555064550855E+01
 0.1506827403017E+01
 0.1464071423775E+01
 0.1426862625211E+01
 0.1395298273883E+01
 0.1369506671662E+01
 0.1349647470030E+01
 0.1335910650814E+01
 0.1328515815523E+01
 0.1327713317668E+01
 0.1333787499763E+01
 0.1347062123178E+01
 0.1367909388591E+01
 0.1396765032342E+01
 0.1991740753362E+01
 0.1907765795585E+01
 0.1830112296109E+01
 0.1758397208777E+01
 0.1692376302183E+01
 0.1631912150516E+01
 0.1576948488629E+01
 0.1527489109334E+01
 0.1483581217905E+01
 0.1445304711298E+01
 0.1412768482452E+01
 0.1386111495435E+01
 0.1365504297925E+01
 0.1351148458324E+01
 0.1343275569164E+01
 0.1342147764622E+01
 0.1348060283896E+01
 0.1361346114149E+01
 0.1382384353122E+01
 0.1411615172085E+01
 0.2020015778635E+01
 0.1934981165045E+01
 0.1856157712697E+01
 0.1783197317426E+01
 0.1715888761284E+01
 0.1654124720798E+01
 0.1597875754247E+01
 0.1547168828334E+01
 0.1502070419024E+01
 0.1462676059993E+01
 0.1429107560288E+01
 0.1401515399968E+01
 0.1380081359156E+01
 0.1365018328727E+01
 0.1356568993390E+01
 0.1355005707988E+01
 0.1360632278709E+01
 0.1373787603296E+01
 0.1394853065237E+01
 0.1424266854851E+01
 0.2047037193160E+01
 0.1961079077516E+01
 0.1881177157616E+01
 0.1807027255702E+01
 0.1738458333826E+01
 0.1675398767497E+01
 0.1617850261120E+01
 0.1565866198834E+01
 0.1519534670313E+01
 0.1478968524724E+01
 0.1444303694791E+01
 0.1415702961679E+01
 0.1393359637111E+01
 0.1377497680276E+01
 0.1368370039118E+01
 0.1366257859546E+01
 0.1371471361652E+01
 0.1384352125951E+01
 0.1405279004790E+01
 0.1434681040983E+01
 0.2072847892686E+01
 0.1986096347681E+01
 0.1905200928062E+01
 0.1829910877183E+01
 0.1760102768695E+01
 0.1695746398460E+01
 0.1636878996622E+01
 0.1583583610914E+01
 0.1535972230753E+01
 0.1494176603157E+01
 0.1458347887490E+01
 0.1428661866717E+01
 0.1405323644840E+01
 0.1388568026702E+01
 0.1378657514883E+01
 0.1375880837395E+01
 0.1380552758245E+01
 0.1393014518045E+01
 0.1413637543415E+01
 0.1442833877701E+01
 0.2097501441698E+01
 0.2010078396861E+01
 0.1928266223057E+01
 0.1851877566566E+01
 0.1780844279409E+01
 0.1715183385294E+01
 0.1654972053238E+01
 0.1600326227052E+01
 0.1551384003499E+01
 0.1508297484553E+01
 0.1471234022208E+01
 0.1440382988486E+01
 0.1415961486886E+01
 0.1398214987803E+01
 0.1387415007537E+01
 0.1383856960316E+01
 0.1387858741090E+01
 0.1399758654883E+01
 0.1419915957598E+01
 0.1448717228880E+01
 0.2121062505331E+01
 0.2033079559599E+01
 0.1950417325306E+01
 0.1872962336650E+01
 0.1800709578814E+01
 0.1733729152244E+01
 0.1672142587848E+01
 0.1616101931956E+01
 0.1565773497215E+01
 0.1521331038487E+01
 0.1482958884839E+01
 0.1450860423711E+01
 0.1425264876748E+01
 0.1406428238023E+01
 0.1394630705855E+01
 0.1390173896323E+01
 0.1393378068067E+01
 0.1404576828993E+01
 0.1424113073456E+01
 0.1452339185745E+01
 0.2143607365382E+01
 0.2055163417046E+01
 0.1971705812437E+01
 0.1893205948486E+01
 0.1819729931981E+01
 0.1751406774194E+01
 0.1688406779303E+01
 0.1630921271970E+01
 0.1579146774207E+01
 0.1533279795517E+01
 0.1493522186713E+01
 0.1460091543752E+01
 0.1433229170793E+01
 0.1413201454074E+01
 0.1400297184138E+01
 0.1394824218139E+01
 0.1397105243729E+01
 0.1407468580003E+01
 0.1426238384831E+01
 0.1453724625522E+01
 0.2165224396813E+01
 0.2076403111609E+01
 0.1992190741701E+01
 0.1912655006811E+01
 0.1837941181778E+01
 0.1768242938434E+01
 0.1703783737092E+01
 0.1644797334959E+01
 0.1591512336099E+01
 0.1544148875003E+01
 0.1502926558004E+01
 0.1468077044721E+01
 0.1439853419707E+01
 0.1418532269828E+01
 0.1404411152706E+01
 0.1397804851356E+01
 0.1399039643713E+01
 0.1408439311905E+01
 0.1426309442197E+01
 0.1452915783922E+01
 0.2186014479820E+01
 0.2096881598039E+01
 0.2011938775282E+01
 0.1931362006136E+01
 0.1855383727274E+01
 0.1784267850937E+01
 0.1718295339853E+01
 0.1657745546117E+01
 0.1602880920087E+01
 0.1553945834653E+01
 0.1511177497716E+01
 0.1474821006944E+01
 0.1445140475957E+01
 0.1422422295420E+01
 0.1406973211890E+01
 0.1399116445792E+01
 0.1399184401548E+01
 0.1407498993444E+01
 0.1424349368637E+01
 0.1449964515033E+01
 0.2206091498997E+01
 0.2116691933999E+01
 0.2031024364411E+01
 0.1949385439662E+01
 0.1872102558292E+01
 0.1799515175157E+01
 0.1731966073455E+01
 0.1669783431952E+01
 0.1613265238753E+01
 0.1562680459764E+01
 0.1518283294893E+01
 0.1480331003005E+01
 0.1449097238922E+01
 0.1424877309873E+01
 0.1407987719366E+01
 0.1398762652193E+01
 0.1397545121723E+01
 0.1404659908981E+01
 0.1420385638285E+01
 0.1444921141038E+01
 0.2225582550294E+01
 0.2135937405959E+01
 0.2049529793459E+01
 0.1966789808763E+01
 0.1888147201484E+01
 0.1814021863984E+01
 0.1744822738944E+01
 0.1680930227749E+01
 0.1622679543117E+01
 0.1570364362360E+01
 0.1524254796919E+01
 0.1484618162513E+01
 0.1451735047275E+01
 0.1425907729262E+01
 0.1407462862280E+01
 0.1396749390233E+01
 0.1394128023280E+01
 0.1399934146466E+01
 0.1414443281077E+01
 0.1437836768082E+01
 0.2244628257445E+01
 0.2154731688746E+01
 0.2067545347849E+01
 0.1983645802947E+01
 0.1903571800911E+01
 0.1827828083404E+01
 0.1756894186690E+01
 0.1691206469892E+01
 0.1631139114084E+01
 0.1577010461876E+01
 0.1529105016714E+01
 0.1487697201720E+01
 0.1453070296518E+01
 0.1425529695000E+01
 0.1405411333539E+01
 0.1393084190826E+01
 0.1388937920996E+01
 0.1393329718012E+01
 0.1406541642162E+01
 0.1428747365751E+01
 0.2263382527523E+01
 0.2173198708565E+01
 0.2085169435931E+01
 0.2000030432215E+01
 0.1918435186868E+01
 0.1840976985351E+01
 0.1768210906756E+01
 0.1700633394026E+01
 0.1638659533578E+01
 0.1582632162905E+01
 0.1532848391233E+01
 0.1489585985136E+01
 0.1453125152765E+01
 0.1423766845920E+01
 0.1401852470508E+01
 0.1387775971800E+01
 0.1381974926707E+01
 0.1384847254746E+01
 0.1396689405842E+01
 0.1417675813869E+01
 0.2282011603219E+01
 0.2191472548037E+01
 0.2102508742496E+01
 0.2016027751542E+01
 0.1932800904515E+01
 0.1853514608499E+01
 0.1778804534406E+01
 0.1709232352811E+01
 0.1645255864664E+01
 0.1587242347882E+01
 0.1535499680905E+01
 0.1490304724892E+01
 0.1451927148966E+01
 0.1420653718253E+01
 0.1396816607069E+01
 0.1380838129428E+01
 0.1373229056854E+01
 0.1374470872416E+01
 0.1384886769475E+01
 0.1404621978900E+01
 0.2300692297015E+01
 0.2209695459795E+01
 0.2119680625928E+01
 0.2031728926013E+01
 0.1946737970302E+01
 0.1865488963457E+01
 0.1788707583987E+01
 0.1717024073268E+01
 0.1650941640588E+01
 0.1590852150942E+01
 0.1537072399359E+01
 0.1489874298389E+01
 0.1449508501430E+01
 0.1416233883105E+01
 0.1390359652288E+01
 0.1372295652199E+01
 0.1362678276148E+01
 0.1362144243351E+01
 0.1371108859534E+01
 0.1389600567687E+01
 0.2319596971270E+01
 0.2228023984001E+01
 0.2136810655395E+01
 0.2047239894996E+01
 0.1960316133479E+01
 0.1876950537601E+01
 0.1797953428050E+01
 0.1724027950767E+01
 0.1655727300969E+01
 0.1593469800257E+01
 0.1537577460594E+01
 0.1488313095897E+01
 0.1445903764587E+01
 0.1410561371949E+01
 0.1382547568044E+01
 0.1362258018682E+01
 0.1350275891784E+01
 0.1347722243652E+01
 0.1355255187951E+01
 0.1372633644573E+01
 0.2338900463834E+01
 0.2246580162619E+01
 0.2154097787760E+01
 0.2062655787538E+01
 0.1973603116265E+01
 0.1887954565834E+01
 0.1806579761339E+01
 0.1730257809048E+01
 0.1659618409324E+01
 0.1595100190454E+01
 0.1537021846927E+01
 0.1485635143934E+01
 0.1441140104459E+01
 0.1403701989382E+01
 0.1373469419046E+01
 0.1350801228267E+01
 0.1336372100849E+01
 0.1330699469600E+01
 0.1336818880306E+01
 0.1353981678140E+01
 0.2358118282756E+01
 0.2265914499732E+01
 0.2171727063459E+01
 0.2078009020681E+01
 0.1986658739897E+01
 0.1898600929108E+01
 0.1814612679234E+01
 0.1735716028701E+01
 0.1662616329471E+01
 0.1595743432281E+01
 0.1535409611075E+01
 0.1481847573352E+01
 0.1435235984613E+01
 0.1395691223891E+01
 0.1363288678749E+01
 0.1338028456222E+01
 0.1320903572360E+01
 0.1312861448469E+01
 0.1312280588767E+01
 0.1331449881111E+01
 0.1373534433884E+01
-0.9614335677941E-02
-0.1566929218102E+00
-0.2494578917743E+00
-0.2880567229077E+00
-0.2846567519533E+00
-0.2780486844549E+00
-0.2724013618051E+00
-0.2649747301782E+00
-0.2560350680920E+00
-0.2447153404265E+00
-0.2314672418976E+00
-0.2150716262648E+00
-0.1948013415691E+00
-0.1713846905652E+00
-0.1462837105283E+00
-0.1112759897422E+00
-0.7726144042843E-01
-0.5359478628982E-01
-0.4809751310733E-01
 0.6925302108334E+00
 0.3236276105826E+00
-0.5460247960340E-01
-0.1559761498873E+00
-0.2108901371899E+00
-0.2330517197291E+00
-0.2362596069675E+00
-0.2311813602512E+00
-0.2245216887266E+00
-0.2170548162149E+00
-0.2080808065990E+00
-0.1969425648274E+00
-0.1833823990891E+00
-0.1672539199656E+00
-0.1486538166363E+00
-0.1267363487921E+00
-0.1027964739593E+00
-0.7831170212672E-01
-0.5955916788029E-01
-0.5433805656148E-01
 0.5146130167648E+00
 0.3273821030277E+00
 0.9550689727481E-01
-0.6393676929295E-01
-0.1335718368896E+00
-0.1722232641867E+00
-0.1870203310747E+00
-0.1873435432523E+00
-0.1825641604844E+00
-0.1766031930608E+00
-0.1694605954244E+00
-0.1605700593463E+00
-0.1497198100033E+00
-0.1370285527479E+00
-0.1223333802504E+00
-0.1058036674592E+00
-0.8837705869786E-01
-0.7182996294763E-01
-0.5869144867540E-01
-0.5502920250990E-01
 0.4425718793489E+00
 0.3337464827518E+00
 0.1750512678679E+00
 0.3533440879883E-01
-0.5504827041195E-01
-0.1065510881867E+00
-0.1317590557428E+00
-0.1391712173424E+00
-0.1381998521366E+00
-0.1343166694326E+00
-0.1290160441439E+00
-0.1222078226971E+00
-0.1138640619689E+00
-0.1041452155044E+00
-0.9313580967458E-01
-0.8112780974449E-01
-0.6926799265347E-01
-0.5888537409546E-01
-0.5095990755615E-01
-0.4929938435462E-01
 0.4195422133789E+00
 0.3477558582252E+00
 0.2330106065157E+00
 0.1163640815085E+00
 0.2476963237289E-01
-0.3786721903520E-01
-0.7206629439458E-01
-0.8674915435616E-01
-0.9066617532153E-01
-0.8974151296422E-01
-0.8656414250118E-01
-0.8179665149835E-01
-0.7572912377476E-01
-0.6867006759149E-01
-0.6083870994259E-01
-0.5268914086553E-01
-0.4536641152293E-01
-0.4002263626014E-01
-0.3646422726671E-01
-0.3674473045821E-01
 0.4219854546058E+00
 0.3701578643530E+00
 0.2821609035001E+00
 0.1851794834839E+00
 0.9914471023640E-01
 0.3221134712463E-01
-0.9330813660485E-02
-0.3069331659322E-01
-0.3984273601759E-01
-0.4250328370058E-01
-0.4185542968605E-01
-0.3921093068072E-01
-0.3527985388549E-01
-0.3057123867756E-01
-0.2544964234900E-01
-0.2047294418264E-01
-0.1682784383591E-01
-0.1545164236813E-01
-0.1533193157714E-01
-0.1698655706025E-01
 0.4396107679295E+00
 0.3990758561274E+00
 0.3282194549650E+00
 0.2463495206596E+00
 0.1678743147331E+00
 0.1010234825964E+00
 0.5507554863454E-01
 0.2815151799511E-01
 0.1400863051261E-01
 0.7500047000766E-02
 0.5303169760414E-02
 0.5680468156537E-02
 0.7541008418117E-02
 0.1014722003623E-01
 0.1298924976824E-01
 0.1541020387320E-01
 0.1616711659369E-01
 0.1458335428311E-01
 0.1229932675148E-01
 0.1006795873404E-01
 0.4670067975180E+00
 0.4329729973647E+00
 0.3735114999968E+00
 0.3030407279593E+00
 0.2320249776942E+00
 0.1676132606407E+00
 0.1197456727627E+00
 0.8884933464368E-01
 0.7038736434953E-01
 0.6013153022669E-01
 0.5495975495680E-01
 0.5296065982445E-01
 0.5277500257163E-01
 0.5346680163212E-01
 0.5439035778505E-01
 0.5479742172343E-01
 0.5337287586473E-01
 0.4978581055730E-01
 0.4615004028657E-01
 0.4418421556745E-01
 0.5010616827277E+00
 0.4706964756910E+00
 0.4190390687198E+00
 0.3571820820517E+00
 0.2928384949363E+00
 0.2319033625633E+00
 0.1838681001126E+00
 0.1505159087529E+00
 0.1286823524183E+00
 0.1150763821865E+00
 0.1070110964832E+00
 0.1026205197138E+00
 0.1004193473217E+00
 0.9934053642638E-01
 0.9863580784879E-01
 0.9748255228598E-01
 0.9449424929790E-01
 0.8977603814790E-01
 0.8577023183682E-01
 0.8480188442401E-01
 0.5398459276213E+00
 0.5114098013896E+00
 0.4652173581979E+00
 0.4099373835665E+00
 0.3513403316988E+00
 0.2942027596219E+00
 0.2471058958809E+00
 0.2125260388684E+00
 0.1882975022211E+00
 0.1719249016458E+00
 0.1612311533406E+00
 0.1545505119075E+00
 0.1504052626074E+00
 0.1476806195236E+00
 0.1455759251289E+00
 0.1432257393640E+00
 0.1391909802868E+00
 0.1340912694462E+00
 0.1305479744153E+00
 0.1311075435043E+00
 0.5820927018211E+00
 0.5544980171857E+00
 0.5121966981414E+00
 0.4620065601241E+00
 0.4082975704699E+00
 0.3549231906598E+00
 0.3094142717591E+00
 0.2745138138086E+00
 0.2487552378258E+00
 0.2302569669309E+00
 0.2173217680276E+00
 0.2085574169772E+00
 0.2025948684553E+00
 0.1983501239054E+00
 0.1950260274913E+00
 0.1917558107828E+00
 0.1870832623336E+00
 0.1821959775954E+00
 0.1797479148411E+00
 0.1821324133237E+00
 0.6269295027725E+00
 0.5994986696691E+00
 0.5600039695451E+00
 0.5138113455778E+00
 0.4642593109523E+00
 0.4144578149623E+00
 0.3708924044772E+00
 0.3363076703097E+00
 0.3097209562050E+00
 0.2897054543724E+00
 0.2749669692899E+00
 0.2643971040535E+00
 0.2567943161691E+00
 0.2511651723550E+00
 0.2467661428624E+00
 0.2427721497228E+00
 0.2377566315542E+00
 0.2334982976860E+00
 0.2325589735301E+00
 0.2368470226342E+00
 0.6737303981315E+00
 0.6460543682255E+00
 0.6086079975985E+00
 0.5656045523400E+00
 0.5196102483353E+00
 0.4731381225596E+00
 0.4316926016422E+00
 0.3978572508981E+00
 0.3709841196611E+00
 0.3499819872890E+00
 0.3338748457067E+00
 0.3218110908499E+00
 0.3127779035575E+00
 0.3059083794407E+00
 0.3005478175931E+00
 0.2959506526366E+00
 0.2907681676576E+00
 0.2873669430581E+00
 0.2881359185801E+00
 0.2942354544931E+00
 0.7220301393464E+00
 0.6938810313449E+00
 0.6579503410238E+00
 0.6175343861244E+00
 0.5746159023956E+00
 0.5312261709073E+00
 0.4919713375310E+00
 0.4591760435303E+00
 0.4324233112794E+00
 0.4108749470755E+00
 0.3937988103075E+00
 0.3805561092271E+00
 0.3703166742569E+00
 0.3623505129836E+00
 0.3561120910115E+00
 0.3509553824922E+00
 0.3456593492462E+00
 0.3431421119817E+00
 0.3456250503378E+00
 0.3533401383255E+00
 0.7714722341866E+00
 0.7427468359109E+00
 0.7079597527152E+00
 0.6696825287659E+00
 0.6294562072950E+00
 0.5889206317033E+00
 0.5518663153676E+00
 0.5203029770527E+00
 0.4939713929957E+00
 0.4722320922569E+00
 0.4545394689756E+00
 0.4404206146201E+00
 0.4292023488187E+00
 0.4202820499737E+00
 0.4132132367512E+00
 0.4074712965594E+00
 0.4019680251224E+00
 0.4001515616287E+00
 0.4041516793420E+00
 0.4132778970834E+00
 0.8217776088929E+00
 0.7924575843012E+00
 0.7585594784172E+00
 0.7220857857726E+00
 0.6842496127933E+00
 0.6463664654954E+00
 0.6114885431237E+00
 0.5812798660078E+00
 0.5555878291079E+00
 0.5339374906877E+00
 0.5159315818104E+00
 0.5012228572986E+00
 0.4892616311496E+00
 0.4795368731147E+00
 0.4716805980330E+00
 0.4652247644974E+00
 0.4593092175280E+00
 0.4576783571889E+00
 0.4628039021947E+00
 0.4731684405421E+00
 0.8727231576615E+00
 0.8428517131938E+00
 0.8096653157504E+00
 0.7747520340318E+00
 0.7390663980740E+00
 0.7036663744610E+00
 0.6709212819647E+00
 0.6421413718576E+00
 0.6172410055061E+00
 0.5958907037659E+00
 0.5778218616446E+00
 0.5627894701380E+00
 0.5503394438292E+00
 0.5400130170499E+00
 0.5314376822836E+00
 0.5241961961504E+00
 0.5173088456345E+00
 0.5151999784534E+00
 0.5203213402660E+00
 0.5320655981057E+00
 0.9241565729091E+00
 0.8937714040743E+00
 0.8612069246039E+00
 0.8276468960534E+00
 0.7939512259631E+00
 0.7608831266527E+00
 0.7302247606862E+00
 0.7029127286498E+00
 0.6789023305726E+00
 0.6579956720657E+00
 0.6400491566348E+00
 0.6249186599408E+00
 0.6122445572210E+00
 0.6016041524918E+00
 0.5925666694255E+00
 0.5845325691372E+00
 0.5766448194796E+00
 0.5716017749761E+00
 0.5758032634906E+00
 0.5877278038406E+00
 0.9758891777034E+00
 0.9452216078406E+00
 0.9129606646412E+00
 0.8807903477995E+00
 0.8488958233949E+00
 0.8180539582043E+00
 0.7894321540876E+00
 0.7636166389997E+00
 0.7405509718314E+00
 0.7201642218034E+00
 0.7024442882187E+00
 0.6873570728059E+00
 0.6746683066408E+00
 0.6640381306616E+00
 0.6550318916488E+00
 0.6468342835360E+00
 0.6379782254792E+00
 0.6312034227143E+00
 0.6228072652656E+00
 0.6378318471841E+00
 0.1029215335634E+01
 0.9960858914679E+00
 0.9651573561382E+00
 0.9340871397396E+00
 0.9039217361625E+00
 0.8751184420944E+00
 0.8485755696597E+00
 0.8242835313961E+00
 0.8021791381666E+00
 0.7823370678188E+00
 0.7648575406205E+00
 0.7498348688098E+00
 0.7371783266977E+00
 0.7267052204462E+00
 0.7181443125670E+00
 0.7109663593510E+00
 0.7032378024643E+00
 0.6951810197041E+00
 0.6873632734400E+00
 0.6416427332940E+00
 0.2370577166372E+01
 0.2278957378586E+01
 0.2180994311981E+01
 0.2083245648684E+01
 0.1987849069704E+01
 0.1896313128182E+01
 0.1809208104780E+01
 0.1727433788683E+01
 0.1651797117423E+01
 0.1582713393463E+01
 0.1520426950457E+01
 0.1465160429524E+01
 0.1417110888082E+01
 0.1376396567992E+01
 0.1343072301615E+01
 0.1317078750911E+01
 0.1297388237056E+01
 0.1284407911902E+01
 0.1279087352728E+01
 0.1257685293398E+01
 0.2397100766927E+01
 0.2295600112337E+01
 0.2191676356052E+01
 0.2087175700980E+01
 0.1985255236892E+01
 0.1887233904869E+01
 0.1793607775264E+01
 0.1705838301892E+01
 0.1624891432292E+01
 0.1551195896009E+01
 0.1485048236807E+01
 0.1426697034915E+01
 0.1376280191507E+01
 0.1333807139778E+01
 0.1299216480413E+01
 0.1272181068830E+01
 0.1251795344738E+01
 0.1240813227825E+01
 0.1237914129844E+01
 0.1256601643082E+01
 0.2423052935934E+01
 0.2314535156572E+01
 0.2202424179266E+01
 0.2090248637055E+01
 0.1980680261508E+01
 0.1875204350042E+01
 0.1774367173292E+01
 0.1680003887899E+01
 0.1593271419583E+01
 0.1514633185648E+01
 0.1444404719705E+01
 0.1382835865511E+01
 0.1329989698160E+01
 0.1285806579464E+01
 0.1250210028411E+01
 0.1222977394676E+01
 0.1203449621914E+01
 0.1195481523731E+01
 0.1204133744913E+01
 0.1226963300444E+01
 0.2451247720016E+01
 0.2334513875342E+01
 0.2213556581901E+01
 0.2092330695177E+01
 0.1974005311288E+01
 0.1860048534266E+01
 0.1751173124912E+01
 0.1649625023149E+01
 0.1556687031863E+01
 0.1472839324340E+01
 0.1398406758939E+01
 0.1333624856508E+01
 0.1278469712207E+01
 0.1232825682114E+01
 0.1196644646386E+01
 0.1169794957606E+01
 0.1151436075719E+01
 0.1147677260340E+01
 0.1161559965237E+01
 0.1190313693874E+01
 0.2482233927809E+01
 0.2355991203785E+01
 0.2224891817117E+01
 0.2093363685342E+01
 0.1965011920623E+01
 0.1841458901381E+01
 0.1723685284252E+01
 0.1614380143310E+01
 0.1514882903484E+01
 0.1425660771581E+01
 0.1347029233966E+01
 0.1279179382326E+01
 0.1221957741973E+01
 0.1175155009383E+01
 0.1138699878849E+01
 0.1112394848975E+01
 0.1095331656599E+01
 0.1094460201072E+01
 0.1113036562396E+01
 0.1147001330355E+01
 0.2516707789256E+01
 0.2379244674691E+01
 0.2236489674929E+01
 0.2093171857166E+01
 0.1953410441998E+01
 0.1819037723127E+01
 0.1691498570997E+01
 0.1573920507607E+01
 0.1467607729814E+01
 0.1372979367790E+01
 0.1290300908850E+01
 0.1219656627212E+01
 0.1160687589803E+01
 0.1113020744279E+01
 0.1076475036558E+01
 0.1050748968222E+01
 0.1034624071971E+01
 0.1036067035273E+01
 0.1058400490950E+01
 0.1097618129067E+01
 0.2555432412041E+01
 0.2404618859683E+01
 0.2248389516565E+01
 0.2091551076046E+01
 0.1938803524604E+01
 0.1792288354340E+01
 0.1654137407279E+01
 0.1527867394456E+01
 0.1414623837154E+01
 0.1314727011582E+01
 0.1228317638667E+01
 0.1155274865641E+01
 0.1094937755240E+01
 0.1046689959789E+01
 0.1010182348210E+01
 0.9849336845875E+00
 0.9694352491629E+00
 0.9724555317528E+00
 0.9978093372319E+00
 0.1042035007904E+01
 0.2599329216915E+01
 0.2432511261810E+01
 0.2260623767964E+01
 0.2088211300093E+01
 0.1920669864902E+01
 0.1760590865101E+01
 0.1611050655787E+01
 0.1475823194305E+01
 0.1355732172982E+01
 0.1250916821167E+01
 0.1161273124419E+01
 0.1086345818834E+01
 0.1025070343982E+01
 0.9765208311610E+00
 0.9401284244253E+00
 0.9152104323159E+00
 0.8999414598277E+00
 0.9037640191365E+00
 0.9312742640428E+00
 0.9800520948395E+00
 0.2649544997929E+01
 0.2463404151569E+01
 0.2273196374370E+01
 0.2082734809689E+01
 0.1898312221988E+01
 0.1723177225101E+01
 0.1561614997826E+01
 0.1417401915214E+01
 0.1290818204279E+01
 0.1181687861336E+01
 0.1089492001969E+01
 0.1013294731057E+01
 0.9515414874065E+00
 0.9029507099971E+00
 0.8667068542692E+00
 0.8419089031486E+00
 0.8264207901512E+00
 0.8301743154681E+00
 0.8588294788148E+00
 0.9114341070387E+00
 0.2707556056965E+01
 0.2497902371261E+01
 0.2286056459810E+01
 0.2074502243254E+01
 0.1870787103110E+01
 0.1679105594923E+01
 0.1505161495470E+01
 0.1352289781415E+01
 0.1219919299065E+01
 0.1107353095942E+01
 0.1013449383045E+01
 0.9366573811601E+00
 0.8748825412149E+00
 0.8264723204696E+00
 0.7903557990892E+00
 0.7654141233438E+00
 0.7492120223379E+00
 0.7519435849701E+00
 0.7805602813337E+00
 0.8359830740969E+00
 0.2775331413575E+01
 0.2536790651334E+01
 0.2299043842855E+01
 0.2062571718052E+01
 0.1836806842724E+01
 0.1627252063816E+01
 0.1441046525760E+01
 0.1280347378207E+01
 0.1143306038381E+01
 0.1028432322768E+01
 0.9337621398601E+00
 0.8570506835237E+00
 0.7956666476069E+00
 0.7476002712672E+00
 0.7115338746731E+00
 0.6861435765398E+00
 0.6687148203858E+00
 0.6694202207184E+00
 0.6966557317099E+00
 0.7535867693646E+00
 0.2855603496106E+01
 0.2581118297271E+01
 0.2311777069864E+01
 0.2045475265345E+01
 0.1794615072438E+01
 0.1566354560860E+01
 0.1368801951209E+01
 0.1201756814975E+01
 0.1061552634026E+01
 0.9456422195403E+00
 0.8511416207188E+00
 0.7751248572755E+00
 0.7144723453914E+00
 0.6668444619619E+00
 0.6306981294952E+00
 0.6045341968302E+00
 0.5853898823868E+00
 0.5830739460319E+00
 0.6074647424443E+00
 0.6642806314143E+00
 0.2952339536956E+01
 0.2632323271100E+01
 0.2323417265561E+01
 0.2020875065207E+01
 0.1741856838083E+01
 0.1495185546968E+01
 0.1288406705031E+01
 0.1117189071599E+01
 0.9755396722090E+00
 0.8598141211345E+00
 0.7663147117099E+00
 0.6915195021931E+00
 0.6318604551562E+00
 0.5846914355593E+00
 0.5482850810495E+00
 0.5210277290216E+00
 0.4997608294030E+00
 0.4935310940266E+00
 0.5135697174764E+00
 0.5683305452794E+00
 0.3071613638417E+01
 0.2692403562772E+01
 0.2332158450613E+01
 0.1984983783660E+01
 0.1675540241726E+01
 0.1412998929297E+01
 0.1200704404689E+01
 0.1027882927856E+01
 0.8863058503571E+00
 0.7717359749000E+00
 0.6799624985057E+00
 0.6068534829171E+00
 0.5483699026962E+00
 0.5015878862409E+00
 0.4646872014121E+00
 0.4360514688374E+00
 0.4124126980635E+00
 0.4016137559746E+00
 0.4158833827464E+00
 0.4663515465886E+00
 0.3223336837622E+01
 0.2764127053845E+01
 0.2334060421567E+01
 0.1931649920176E+01
 0.1592371663910E+01
 0.1320528950979E+01
 0.1107809893552E+01
 0.9354140030945E+00
 0.7946680020359E+00
 0.6820432608419E+00
 0.5927416858690E+00
 0.5217597181243E+00
 0.4645141566714E+00
 0.4179118098215E+00
 0.3802204224957E+00
 0.3499968807802E+00
 0.3239834515617E+00
 0.3083764538818E+00
 0.3157694775619E+00
 0.3594843385517E+00
 0.3425110849047E+01
 0.2851016395173E+01
 0.2320375636294E+01
 0.1850980475478E+01
 0.1490531852696E+01
 0.1221579264674E+01
 0.1013051170626E+01
 0.8406356480630E+00
 0.7009828734601E+00
 0.5912995364133E+00
 0.5054184768261E+00
 0.4369174017572E+00
 0.3807416202649E+00
 0.3339196776588E+00
 0.2950971653973E+00
 0.2631993168774E+00
 0.2351540972906E+00
 0.2151145094796E+00
 0.2151807209380E+00
 0.2496493307028E+00
 0.3711405264535E+01
 0.2956731040424E+01
 0.2269803415659E+01
 0.1729703203360E+01
 0.1374114508778E+01
 0.1125514301873E+01
 0.9175114898903E+00
 0.7431872061731E+00
 0.6052809897374E+00
 0.5003687886396E+00
 0.4190093381836E+00
 0.3529862767714E+00
 0.2973270258373E+00
 0.2497122400438E+00
 0.2094009482200E+00
 0.1759618099671E+00
 0.1466058046077E+00
 0.1233484235724E+00
 0.1167272180816E+00
 0.1399220170368E+00
 0.4165286932686E+01
 0.3071936118797E+01
 0.2135608498494E+01
 0.1552234629090E+01
 0.1274459137376E+01
 0.1033644599625E+01
 0.8197577437007E+00
 0.6414006353753E+00
 0.5081263707593E+00
 0.4109194748365E+00
 0.3346722496912E+00
 0.2703363325389E+00
 0.2143196199562E+00
 0.1651902342374E+00
 0.1231873101461E+00
 0.8845010462651E-01
 0.5916737410166E-01
 0.3460755284121E-01
 0.2365768620519E-01
 0.3482163849525E-01
 0.4993238800381E+01
 0.3168725375246E+01
 0.1727634183678E+01
 0.1441967508822E+01
 0.1188510854404E+01
 0.9447756100901E+00
 0.7142773500044E+00
 0.5336286403125E+00
 0.4123470617339E+00
 0.3253680376573E+00
 0.2530119361059E+00
 0.1888525188812E+00
 0.1314673339806E+00
 0.8050939313571E-01
 0.3593955129188E-01
 0.1233469134031E-02
-0.2663606850351E-01
-0.4897062656175E-01
-0.6129331380113E-01
-0.5939257658562E-01
 0.7792722079235E+01
 0.1840197947381E+01
 0.1604638533680E+01
 0.1351392326654E+01
 0.1123654133393E+01
 0.8502124848450E+00
 0.5895520894709E+00
 0.4241920075608E+00
 0.3237627877445E+00
 0.2448797939102E+00
 0.1736930724686E+00
 0.1077385747151E+00
 0.4874932309322E-01
-0.4377202686623E-02
-0.5105218225418E-01
-0.9046182964417E-01
-0.1046083723845E+00
-0.1258540544759E+00
-0.1381233922916E+00
-0.1369407948854E+00
 0.7737163584070E+00
 0.6644347011792E+00
 0.6048253360019E+00
 0.5449528450265E+00
 0.4855466628035E+00
 0.4255059021415E+00
 0.3653480165448E+00
 0.3056937942650E+00
 0.2473621669131E+00
 0.1912974803315E+00
 0.1385541443881E+00
 0.9025078891364E-01
 0.4749407447862E-01
 0.1126415311666E-01
-0.1772901204018E-01
-0.3918206615694E-01
-0.5328859570420E-01
-0.6066294486451E-01
-0.6242077959412E-01
-0.5791396631028E-01
 0.7826269945438E+00
 0.7224003719575E+00
 0.6522675770328E+00
 0.5917068233375E+00
 0.5310427388821E+00
 0.4698609018270E+00
 0.4078901277090E+00
 0.3456302986083E+00
 0.2838145645602E+00
 0.2233895348877E+00
 0.1654723228168E+00
 0.1113234783739E+00
 0.6228823996289E-01
 0.1968740420824E-01
-0.1535634572734E-01
-0.4214715060892E-01
-0.6061831895595E-01
-0.7147302683878E-01
-0.7584573813306E-01
-0.7662066532834E-01
 0.8144587520576E+00
 0.7607567596768E+00
 0.7020746621998E+00
 0.6412760156607E+00
 0.5808920747597E+00
 0.5191734907140E+00
 0.4559981470870E+00
 0.3915782603914E+00
 0.3265315586468E+00
 0.2617343084771E+00
 0.1983031667550E+00
 0.1375798589170E+00
 0.8110777015471E-01
 0.3056173710077E-01
-0.1241048614069E-01
-0.4646535334730E-01
-0.7094473979612E-01
-0.8614824452742E-01
-0.9355828515856E-01
-0.9532854993214E-01
 0.8493998391441E+00
 0.8021732890751E+00
 0.7492277021215E+00
 0.6931444055021E+00
 0.6344343087595E+00
 0.5734791589371E+00
 0.5100048684318E+00
 0.4441801648240E+00
 0.3764602314858E+00
 0.3076084002843E+00
 0.2386730856472E+00
 0.1709985681472E+00
 0.1062386629462E+00
 0.4634941132707E-01
-0.6492635976588E-02
-0.5013437935527E-01
-0.8291898744561E-01
-0.1043402854484E+00
-0.1153104584124E+00
-0.1177913869250E+00
 0.8860514896169E+00
 0.8444703759064E+00
 0.7974237078569E+00
 0.7461738760966E+00
 0.6912015947924E+00
 0.6325571950632E+00
 0.5702591970736E+00
 0.5043391022081E+00
 0.4350918676621E+00
 0.3630946205539E+00
 0.2892412855096E+00
 0.2147729329695E+00
 0.1413263230502E+00
 0.7099072384031E-01
 0.6339092887440E-02
-0.4965909551604E-01
-0.9404810147961E-01
-0.1247788287526E+00
-0.1418177492782E+00
-0.1469749186517E+00
 0.9233041671175E+00
 0.8872190604548E+00
 0.8459806300259E+00
 0.8002532301954E+00
 0.7501287872542E+00
 0.6955090613201E+00
 0.6362090481213E+00
 0.5721143423012E+00
 0.5032622834472E+00
 0.4299424709554E+00
 0.3527523740591E+00
 0.2726585635650E+00
 0.1910726304040E+00
 0.1099582315094E+00
 0.3197155484996E-01
-0.3940283838008E-01
-0.9989158436929E-01
-0.1451922636649E+00
-0.1728767930576E+00
-0.1845112674567E+00
 0.9608786122532E+00
 0.9300812388579E+00
 0.8946828023894E+00
 0.8548748054196E+00
 0.8105160410611E+00
 0.7612804581233E+00
 0.7067770314516E+00
 0.6466262840644E+00
 0.5805490705601E+00
 0.5084418190792E+00
 0.4304566391078E+00
 0.3470817111219E+00
 0.2592407495960E+00
 0.1684309462424E+00
 0.7693163481790E-01
-0.1188224246383E-01
-0.9311530027690E-01
-0.1601320120031E+00
-0.2062630822414E+00
-0.2293849830432E+00
 0.9984922618225E+00
 0.9727935948498E+00
 0.9431617679927E+00
 0.9095035618906E+00
 0.8715113406031E+00
 0.8287155356202E+00
 0.7805465601986E+00
 0.7263933319241E+00
 0.6656572142344E+00
 0.5978140473761E+00
 0.5224818255070E+00
 0.4395020037054E+00
 0.3490424699988E+00
 0.2517423986460E+00
 0.1489355853239E+00
 0.4303188702115E-01
-0.6181653777372E-01
-0.1584338477906E+00
-0.2352274747994E+00
-0.2809230269440E+00
 0.1035919988615E+01
 0.1015098658239E+01
 0.9910689278355E+00
 0.9635821510193E+00
 0.9322537832537E+00
 0.8965531181859E+00
 0.8558300078607E+00
 0.8093407811545E+00
 0.7562748790941E+00
 0.6957838656438E+00
 0.6270175209117E+00
 0.5491703846766E+00
 0.4615468747807E+00
 0.3636588014768E+00
 0.2553857205707E+00
 0.1372600910054E+00
 0.1106324187888E-01
-0.1189408894324E+00
-0.2420013237932E+00
-0.3342504414889E+00
 0.1072984029933E+01
 0.1056812507334E+01
 0.1038154505480E+01
 0.1016706900415E+01
 0.9920707945076E+00
 0.9637282022698E+00
 0.9310417580590E+00
 0.8932587430878E+00
 0.8495131837047E+00
 0.7988261485711E+00
 0.7401043658578E+00
 0.6721381122891E+00
 0.5935994719503E+00
 0.5030441244751E+00
 0.3989228553921E+00
 0.2796247857118E+00
 0.1435871978954E+00
-0.1023783535793E-01
-0.1814753207000E+00
-0.3558818950003E+00
 0.1109536260414E+01
 0.1097777206358E+01
 0.1084238494916E+01
 0.1068606796976E+01
 0.1050508361249E+01
 0.1029480908187E+01
 0.1004961203078E+01
 0.9762770671973E+00
 0.9426378619769E+00
 0.9031204931085E+00
 0.8566489032987E+00
 0.8019642392671E+00
 0.7375815183779E+00
 0.6617255905862E+00
 0.5722344064017E+00
 0.4664027887712E+00
 0.3407271789047E+00
 0.1903456529338E+00
 0.8159548398603E-02
-0.2222847255525E+00
 0.1145452679728E+01
 0.1137928787773E+01
 0.1129309700449E+01
 0.1119291302645E+01
 0.1107543237482E+01
 0.1093675402812E+01
 0.1077221177839E+01
 0.1057625305147E+01
 0.1034231363722E+01
 0.1006265675363E+01
 0.9728149422011E+00
 0.9327943230484E+00
 0.8849008508621E+00
 0.8275437136876E+00
 0.7587355252166E+00
 0.6759154708004E+00
 0.5756299461497E+00
 0.4529321366856E+00
 0.2997973356527E+00
 0.1004939060889E+00
 0.1180548868191E+01
 0.1177133990836E+01
 0.1173266620247E+01
 0.1168676136205E+01
 0.1163085628559E+01
 0.1156182260468E+01
 0.1147600010984E+01
 0.1136907199161E+01
 0.1123594541522E+01
 0.1107061164702E+01
 0.1086596367739E+01
 0.1061354601121E+01
 0.1030320107194E+01
 0.9922555645899E+00
 0.9456255642139E+00
 0.8884782882419E+00
 0.8182605061691E+00
 0.7315170689279E+00
 0.6234399106188E+00
 0.4893767694073E+00
 0.1214592751763E+01
 0.1215155471363E+01
 0.1215857195177E+01
 0.1216479985969E+01
 0.1216809299489E+01
 0.1216612169464E+01
 0.1215622915522E+01
 0.1213532549354E+01
 0.1209979341521E+01
 0.1204538816517E+01
 0.1196711842669E+01
 0.1185909546504E+01
 0.1171433620154E+01
 0.1152450331504E+01
 0.1127956383476E+01
 0.1096736181476E+01
 0.1057317964666E+01
 0.1007961800151E+01
 0.9469635852183E+00
 0.8728681389308E+00
 0.1247347683896E+01
 0.1251725320554E+01
 0.1256779913113E+01
 0.1262356005615E+01
 0.1268306605302E+01
 0.1274479077095E+01
 0.1280705066657E+01
 0.1286793006310E+01
 0.1292522013037E+01
 0.1297636348729E+01
 0.1301839938144E+01
 0.1304790762945E+01
 0.1306095374298E+01
 0.1305304515675E+01
 0.1301912374466E+01
 0.1295365673262E+01
 0.1285094527879E+01
 0.1270607204060E+01
 0.1251595689087E+01
 0.1228121250360E+01
 0.1278587078703E+01
 0.1286577215711E+01
 0.1295728610289E+01
 0.1305949658790E+01
 0.1317161133790E+01
 0.1329287854455E+01
 0.1342252576755E+01
 0.1355971702246E+01
 0.1370352428524E+01
 0.1385291127386E+01
 0.1400673003317E+01
 0.1416373463217E+01
 0.1432262199619E+01
 0.1448211885004E+01
 0.1464114876140E+01
 0.1479912937030E+01
 0.1495648749309E+01
 0.1511527180778E+01
 0.1527990642402E+01
 0.1545794997911E+01
 0.1308098705839E+01
 0.1319458465260E+01
 0.1332409758578E+01
 0.1346920469690E+01
 0.1362974756376E+01
 0.1380568445306E+01
 0.1399705929487E+01
 0.1420398490335E+01
 0.1442664004594E+01
 0.1466528114819E+01
 0.1492027134082E+01
 0.1519213242214E+01
 0.1548162943541E+01
 0.1578990343111E+01
 0.1611867425791E+01
 0.1647054471362E+01
 0.1684940988825E+01
 0.1726103375337E+01
 0.1771350163219E+01
 0.1821727398474E+01
 0.1335687018760E+01
 0.1350135782196E+01
 0.1366551193026E+01
 0.1384952867298E+01
 0.1405380527652E+01
 0.1427891519272E+01
 0.1452559660082E+01
 0.1479475302157E+01
 0.1508746639983E+01
 0.1540502399612E+01
 0.1574896135596E+01
 0.1612112500153E+01
 0.1652376008518E+01
 0.1695962961822E+01
 0.1743217340795E+01
 0.1794571147413E+01
 0.1850571557745E+01
 0.1911915441722E+01
 0.1979532439490E+01
 0.2054610585955E+01
 0.1361175297323E+01
 0.1378399230365E+01
 0.1397908166482E+01
 0.1419763975424E+01
 0.1444051844708E+01
 0.1470879011522E+01
 0.1500374644202E+01
 0.1532690750850E+01
 0.1568004177520E+01
 0.1606519713597E+01
 0.1648474373044E+01
 0.1694142916014E+01
 0.1743844617004E+01
 0.1797951140063E+01
 0.1856895037760E+01
 0.1921178236760E+01
 0.1991379005186E+01
 0.2068161190683E+01
 0.2152277049120E+01
 0.2244858628975E+01
 0.1384408065849E+01
 0.1404065546020E+01
 0.1426268596520E+01
 0.1451110566665E+01
 0.1478710713221E+01
 0.1509213440952E+01
 0.1542788266208E+01
 0.1579630917366E+01
 0.1619965300284E+01
 0.1664046255532E+01
 0.1712163001430E+01
 0.1764643088056E+01
 0.1821856525048E+01
 0.1884219451632E+01
 0.1952196282639E+01
 0.2026298407433E+01
 0.2107076490653E+01
 0.2195097508336E+01
 0.2290897164990E+01
 0.2394706664468E+01
 0.1405253606246E+01
 0.1426982461383E+01
 0.1451458701864E+01
 0.1478795392500E+01
 0.1509134558342E+01
 0.1542644660387E+01
 0.1579520468379E+01
 0.1619983821309E+01
 0.1664285105692E+01
 0.1712705235949E+01
 0.1765557944731E+01
 0.1823192106194E+01
 0.1885993662854E+01
 0.1954386484317E+01
 0.2028831092229E+01
 0.2109819560363E+01
 0.2197863421787E+01
 0.2293467959640E+01
 0.2397072803202E+01
 0.2508823172764E+01
 0.1423605089032E+01
 0.1447029237703E+01
 0.1473338574477E+01
 0.1502658037157E+01
 0.1535140856637E+01
 0.1570966652990E+01
 0.1610340689731E+01
 0.1653494062833E+01
 0.1700684404993E+01
 0.1752196906119E+01
 0.1808345438854E+01
 0.1869473550806E+01
 0.1935955024991E+01
 0.2008193634171E+01
 0.2086621631101E+01
 0.2171696503754E+01
 0.2263895570044E+01
 0.2363711081868E+01
 0.2471646853829E+01
 0.2588462333950E+01
 0.1439379461272E+01
 0.1464103393592E+01
 0.1491786778814E+01
 0.1522556116432E+01
 0.1556564864356E+01
 0.1593991226677E+01
 0.1635036875840E+01
 0.1679926303582E+01
 0.1728906593263E+01
 0.1782247405862E+01
 0.1840241019997E+01
 0.1903202294913E+01
 0.1971468489631E+01
 0.2045398998408E+01
 0.2125375333305E+01
 0.2211802156727E+01
 0.2305111921468E+01
 0.2405777172482E+01
 0.2514366923294E+01
 0.2631566171464E+01
 0.1452520666057E+01
 0.1478135611393E+01
 0.1506720544119E+01
 0.1538392960615E+01
 0.1573295598812E+01
 0.1611593420657E+01
 0.1653471368179E+01
 0.1699132686158E+01
 0.1748797620857E+01
 0.1802702330905E+01
 0.1861097881405E+01
 0.1924249279436E+01
 0.1992434660962E+01
 0.2065945009121E+01
 0.2145085204746E+01
 0.2230177983683E+01
 0.2321572703624E+01
 0.2419664086602E+01
 0.2524901893125E+01
 0.2637766598451E+01
 0.1463000027756E+01
 0.1489091597624E+01
 0.1518099794550E+01
 0.1550122854169E+01
 0.1585282603231E+01
 0.1623719950754E+01
 0.1665591199289E+01
 0.1711065062773E+01
 0.1760320188284E+01
 0.1813542965216E+01
 0.1870925460590E+01
 0.1932663421101E+01
 0.1998954452090E+01
 0.2069996739047E+01
 0.2145989090575E+01
 0.2227133463499E+01
 0.2313641816827E+01
 0.2405743945936E+01
 0.2503691844368E+01
 0.2607762714082E+01
 0.1470815111369E+01
 0.1496970420338E+01
 0.1525925161611E+01
 0.1557748814640E+01
 0.1592533459691E+01
 0.1630386600080E+01
 0.1671425396553E+01
 0.1715772148110E+01
 0.1763550603761E+01
 0.1814882719693E+01
 0.1869885553234E+01
 0.1928668082764E+01
 0.1991327834090E+01
 0.2057947293645E+01
 0.2128590164635E+01
 0.2203297798101E+01
 0.2282086084406E+01
 0.2364946447280E+01
 0.2451855841747E+01
 0.2542809758066E+01
 0.1475988522504E+01
 0.1501802983410E+01
 0.1530235903840E+01
 0.1561320160397E+01
 0.1595111326528E+01
 0.1631675894953E+01
 0.1671082809308E+01
 0.1713397316412E+01
 0.1758676220961E+01
 0.1806963801250E+01
 0.1858287843514E+01
 0.1912655342533E+01
 0.1970047375491E+01
 0.2030412441322E+01
 0.2093657193005E+01
 0.2159632801790E+01
 0.2228115610929E+01
 0.2298784081389E+01
 0.2371217031249E+01
 0.2444927148261E+01
 0.1478566264751E+01
 0.1503649558686E+01
 0.1531106195382E+01
 0.1560927917863E+01
 0.1593129677069E+01
 0.1627731146060E+01
 0.1664745102337E+01
 0.1704169948962E+01
 0.1745984332903E+01
 0.1790142652740E+01
 0.1836570691220E+01
 0.1885160717383E+01
 0.1935765243284E+01
 0.1988188134686E+01
 0.2042170709397E+01
 0.2097368909366E+01
 0.2153313993061E+01
 0.2209345155441E+01
 0.2264497400055E+01
 0.2317462392896E+01
 0.1478614694299E+01
 0.1502593328694E+01
 0.1528634943428E+01
 0.1556690389974E+01
 0.1586733014061E+01
 0.1618731139750E+01
 0.1652633929921E+01
 0.1688363384107E+01
 0.1725809002726E+01
 0.1764823546898E+01
 0.1805219028792E+01
 0.1846762318877E+01
 0.1889169589581E+01
 0.1932098259010E+01
 0.1975134021226E+01
 0.2017767552726E+01
 0.2059350934358E+01
 0.2099002580898E+01
 0.2135372750014E+01
 0.2166011676948E+01
 0.1476212347350E+01
 0.1498721626069E+01
 0.1522911646975E+01
 0.1548700769261E+01
 0.1576021959637E+01
 0.1604788034376E+01
 0.1634876917724E+01
 0.1666124323037E+01
 0.1698319410911E+01
 0.1731201584384E+01
 0.1764457912506E+01
 0.1797720906852E+01
 0.1830566548362E+01
 0.1862512469296E+01
 0.1893015801614E+01
 0.1921470183234E+01
 0.1947195175308E+01
 0.1969415361082E+01
 0.1987165856316E+01
 0.1998638220919E+01
 0.1471437439168E+01
 0.1492073363446E+01
 0.1513918317371E+01
 0.1536871922527E+01
 0.1560828892175E+01
 0.1585642461075E+01
 0.1611111515610E+01
 0.1636976024502E+01
 0.1662914606083E+01
 0.1688543544229E+01
 0.1713417052096E+01
 0.1737029435392E+01
 0.1758820249323E+01
 0.1778184907424E+01
 0.1794495814079E+01
 0.1807142014875E+01
 0.1815611511675E+01
 0.1819636759615E+01
 0.1819638617050E+01
 0.1818170671075E+01
 0.1464359286649E+01
 0.1482618913655E+01
 0.1501499029678E+01
 0.1520896655783E+01
 0.1540674412500E+01
 0.1560623437696E+01
 0.1580458838333E+01
 0.1599818955227E+01
 0.1618266513304E+01
 0.1635290868496E+01
 0.1650312786103E+01
 0.1662692161730E+01
 0.1671741553368E+01
 0.1676750793461E+01
 0.1677032777239E+01
 0.1672013569006E+01
 0.1661400972626E+01
 0.1645571099062E+01
 0.1626166633628E+01
 0.1608727469205E+01
 0.1455050433237E+01
 0.1470349747125E+01
 0.1485533196327E+01
 0.1500537037659E+01
 0.1515202324909E+01
 0.1529263285790E+01
 0.1542352484429E+01
 0.1554007365198E+01
 0.1563674443482E+01
 0.1570717328580E+01
 0.1574424909343E+01
 0.1574022322120E+01
 0.1568686348040E+01
 0.1557571443221E+01
 0.1539858019337E+01
 0.1514840594751E+01
 0.1482111603250E+01
 0.1441844107330E+01
 0.1395611308370E+01
 0.1344077110183E+01
 0.1443609652324E+01
 0.1455272822565E+01
 0.1465925202047E+01
 0.1475600355252E+01
 0.1484143794593E+01
 0.1491244685793E+01
 0.1496463722416E+01
 0.1499238936359E+01
 0.1498903293394E+01
 0.1494694983932E+01
 0.1485768913899E+01
 0.1471201853234E+01
 0.1449996483626E+01
 0.1421086114021E+01
 0.1383341123281E+01
 0.1335582454158E+01
 0.1276574612944E+01
 0.1205062017702E+01
 0.1119263698728E+01
 0.1018839133247E+01
 0.1430164529025E+01
 0.1437438493078E+01
 0.1442640628161E+01
 0.1446007979799E+01
 0.1447418072777E+01
 0.1446551185162E+01
 0.1442893230549E+01
 0.1435787157361E+01
 0.1424446249019E+01
 0.1407985723319E+01
 0.1385422690088E+01
 0.1355667919160E+01
 0.1317505305939E+01
 0.1269555206321E+01
 0.1210208484017E+01
 0.1137490883239E+01
 0.1048808951660E+01
 0.9402933674184E+00
 0.8059610695035E+00
 0.6361322694495E+00
 0.1414889254419E+01
 0.1416910039776E+01
 0.1415674274806E+01
 0.1411719429381E+01
 0.1405076977809E+01
 0.1395390097917E+01
 0.1382093064210E+01
 0.1364388390929E+01
 0.1341383184166E+01
 0.1312081860337E+01
 0.1275377427367E+01
 0.1230020817487E+01
 0.1174573755312E+01
 0.1107330393313E+01
 0.1026178095686E+01
 0.9283489181369E+00
 0.8099112658478E+00
 0.6649126663246E+00
 0.4832311108597E+00
 0.2454592426333E+00
 0.1397977651864E+01
 0.1393806496769E+01
 0.1384947127247E+01
 0.1372762867979E+01
 0.1357284337367E+01
 0.1338318441217E+01
 0.1314986473504E+01
 0.1286409590913E+01
 0.1251623028797E+01
 0.1209585617838E+01
 0.1159143316739E+01
 0.1098995659458E+01
 0.1027646944593E+01
 0.9433308610142E+00
 0.8438882569882E+00
 0.7265502527553E+00
 0.5876070415223E+00
 0.4216822207924E+00
 0.2209501926596E+00
-0.2938670344268E-01
 0.1380181363509E+01
 0.1368510211128E+01
 0.1351112145306E+01
 0.1329594367785E+01
 0.1305512858149E+01
 0.1277336337129E+01
 0.1244187228576E+01
 0.1205125813184E+01
 0.1159233643414E+01
 0.1105533168030E+01
 0.1042972837100E+01
 0.9704107791757E+00
 0.8866013532792E+00
 0.7901779233714E+00
 0.6796290993718E+00
 0.5532916146752E+00
 0.4093588833864E+00
 0.2462589054006E+00
 0.6287844631189E-01
-0.1338525959052E+00
 0.1362648056857E+01
 0.1342976050699E+01
 0.1312172054478E+01
 0.1283546884682E+01
 0.1251228586937E+01
 0.1214418218980E+01
 0.1172084608921E+01
 0.1123465528515E+01
 0.1067781229590E+01
 0.1004243563951E+01
 0.9320515854101E+00
 0.8504113990607E+00
 0.7585660735813E+00
 0.6558437369882E+00
 0.5417462531536E+00
 0.4161176652733E+00
 0.2795743835364E+00
 0.1342830221930E+00
-0.1290421309489E-01
-0.1487684575541E+00
 0.1360399282577E+01
 0.1302829603924E+01
 0.1271042220922E+01
 0.1235270800770E+01
 0.1195674623536E+01
 0.1150909913151E+01
 0.1100438651929E+01
 0.1043672182504E+01
 0.9800586064227E+00
 0.9090683530914E+00
 0.8302287956624E+00
 0.7431654724675E+00
 0.6476626547298E+00
 0.5437557915006E+00
 0.4318832487348E+00
 0.3131676081057E+00
 0.1898932967680E+00
 0.6663127351302E-01
-0.4853729088589E-01
-0.1383270556527E+00
</DataArray>
<DataArray type="Float64" Name="S_Oct" NumberOfComponents="1" ComponentName0="S_Oct" format="ascii">
 0.5455445272524E+00
 0.5580992086378E+00
 0.5549853150733E+00
 0.5621124817066E+00
 0.5630416068011E+00
 0.5602541163608E+00
 0.5536405263418E+00
 0.5437646209725E+00
 0.5309928336646E+00
 0.5156430386726E+00
 0.4979495545210E+00
 0.4780783225234E+00
 0.4561314253065E+00
 0.4321535381748E+00
 0.4061370844448E+00
 0.3780269824717E+00
 0.3477248672253E+00
 0.3150945831053E+00
 0.2799636822501E+00
 0.2421286904066E+00
 0.2013550983310E+00
 0.1573743170708E+00
 0.1098688111449E+00
 0.5842147544263E-01
 0.2496534030848E-02
 0.5828951027571E-01
 0.1238260026962E+00
 0.1935664573702E+00
 0.2666785675313E+00
 0.3421911609873E+00
 0.4190369462255E+00
 0.4959809487405E+00
 0.5714410750959E+00
 0.6439452532855E+00
 0.7133943869160E+00
 0.7805003046671E+00
 0.8492290365637E+00
 0.9160918962474E+00
 0.1036044864243E+01
 0.1015730591633E+01
 0.1825077394331E+01
 0.4724539538276E+00
 0.5233867377110E+00
 0.5183813184617E+00
 0.5183187410539E+00
 0.5176077217173E+00
 0.5136181669271E+00
 0.5066620917394E+00
 0.4968197592177E+00
 0.4843522502303E+00
 0.4694781706444E+00
 0.4523809977792E+00
 0.4331943602920E+00
 0.4120027580501E+00
 0.3888428895709E+00
 0.3637065322463E+00
 0.3365438248332E+00
 0.3072667146929E+00
 0.2757530407712E+00
 0.2418495683879E+00
 0.2053749871282E+00
 0.1661220732434E+00
 0.1238546448719E+00
 0.7829793312280E-01
 0.2915287743248E-01
 0.2383771316307E-01
 0.8068242871952E-01
 0.1411801208505E+00
 0.2048258070034E+00
 0.2708887095262E+00
 0.3384595972498E+00
 0.4064570760197E+00
 0.4736185032241E+00
 0.5385876182927E+00
 0.6001444261403E+00
 0.6572419872807E+00
 0.7093879553501E+00
 0.7541226516680E+00
 0.7941552422188E+00
 0.8035696365367E+00
 0.6820650895053E+00
 0.1129186309765E+01
 0.4181036547857E+00
 0.4734964815157E+00
 0.4792626655403E+00
 0.4760039522324E+00
 0.4732555855864E+00
 0.4683015408484E+00
 0.4608720530674E+00
 0.4509778679025E+00
 0.4387230607351E+00
 0.4242545826481E+00
 0.4077033989416E+00
 0.3891721290588E+00
 0.3687268054117E+00
 0.3463952168576E+00
 0.3221673748356E+00
 0.2959974686177E+00
 0.2678063708905E+00
 0.2374853364286E+00
 0.2048990070258E+00
 0.1698886993220E+00
 0.1322759310482E+00
 0.9186327901254E-01
 0.4844470036224E-01
 0.2249768448413E-02
 0.4803605058492E-01
 0.1009274358482E+00
 0.1565770644592E+00
 0.2144913224882E+00
 0.2739969762298E+00
 0.3342305213294E+00
 0.3941307046654E+00
 0.4524768445624E+00
 0.5079985286821E+00
 0.5593349033280E+00
 0.6048679792862E+00
 0.6421604149152E+00
 0.6674702323256E+00
 0.6739785533614E+00
 0.6167476832051E+00
 0.5364334604293E+00
 0.9513577702168E+00
 0.3715344001806E+00
 0.4231681891322E+00
 0.4361768440500E+00
 0.4339864733131E+00
 0.4297837745357E+00
 0.4239985215810E+00
 0.4161286129639E+00
 0.4061309721516E+00
 0.3940343115826E+00
 0.3799202381563E+00
 0.3638773437568E+00
 0.3459793012137E+00
 0.3262746960154E+00
 0.3047822573141E+00
 0.2814896620546E+00
 0.2563542738289E+00
 0.2293049587030E+00
 0.2002455080939E+00
 0.1690577721701E+00
 0.1356058916196E+00
 0.9974228660851E-01
 0.6131795561221E-01
 0.2025456717577E-01
 0.2390275332866E-01
 0.7042078020413E-01
 0.1193955561272E+00
 0.1703987823873E+00
 0.2229360142560E+00
 0.2763696158896E+00
 0.3298780915430E+00
 0.3824439545940E+00
 0.4328982924578E+00
 0.4799649704740E+00
 0.5221138665039E+00
 0.5571726813227E+00
 0.5817723085086E+00
 0.5908978538994E+00
 0.5715756657258E+00
 0.5046992451466E+00
 0.5034305424746E+00
 0.8965299093784E+00
 0.3289458328524E+00
 0.3748552236521E+00
 0.3914819085055E+00
 0.3914932800801E+00
 0.3869187302442E+00
 0.3805109983529E+00
 0.3722830444821E+00
 0.3621810698400E+00
 0.3502137012740E+00
 0.3364216992736E+00
 0.3208606840837E+00
 0.3035805562364E+00
 0.2846144278114E+00
 0.2639726746112E+00
 0.2416405428389E+00
 0.2175780646072E+00
 0.1917214129340E+00
 0.1639862441170E+00
 0.1342713558878E+00
 0.1024647763870E+00
 0.6845604347928E-01
 0.3218615363454E-01
 0.7550424542650E-02
 0.4800965800478E-01
 0.9127163569295E-01
 0.1364106239808E+00
 0.1829833379502E+00
 0.2304954380521E+00
 0.2783378112531E+00
 0.3257338765816E+00
 0.3717228861035E+00
 0.4151845206625E+00
 0.4548275161107E+00
 0.4889869777166E+00
 0.5152040196382E+00
 0.5298649118678E+00
 0.5272923124855E+00
 0.4980858817300E+00
 0.4529164121058E+00
 0.5214646424317E+00
 0.8814469749191E+00
 0.2886966408666E+00
 0.3287412867793E+00
 0.3466205052973E+00
 0.3486485423294E+00
 0.3444048105716E+00
 0.3376917953474E+00
 0.3292104290454E+00
 0.3190363431920E+00
 0.3071923628678E+00
 0.2937054661320E+00
 0.2786101807364E+00
 0.2619388103822E+00
 0.2437120493686E+00
 0.2239332429212E+00
 0.2025855950349E+00
 0.1796316877004E+00
 0.1550147137750E+00
 0.1286621655381E+00
 0.1004910789318E+00
 0.7042003576604E-01
 0.3841653977287E-01
 0.6027333567779E-02
 0.3268999070400E-01
 0.7082651934994E-01
 0.1108393265018E+00
 0.1522574022431E+00
 0.1946293370195E+00
 0.2374682734714E+00
 0.2801955800331E+00
 0.3220857518520E+00
 0.3622434828736E+00
 0.3996052674190E+00
 0.4328939501226E+00
 0.4604145149911E+00
 0.4797389754775E+00
 0.4875029090303E+00
 0.4792934978483E+00
 0.4539180376605E+00
 0.4421092778652E+00
 0.5587187358303E+00
 0.8826293392118E+00
 0.2499710168240E+00
 0.2845670608184E+00
 0.3022924310529E+00
 0.3057741257609E+00
 0.3021569516768E+00
 0.2954227047233E+00
 0.2868131332442E+00
 0.2766157264328E+00
 0.2649065626920E+00
 0.2517202191685E+00
 0.2370831576774E+00
 0.2210168620618E+00
 0.2035333143906E+00
 0.1846307169339E+00
 0.1642911374863E+00
 0.1424802124365E+00
 0.1191489167366E+00
 0.9423905922396E-01
 0.6769556203268E-01
 0.3951896754146E-01
 0.1064406636136E-01
 0.2378154012980E-01
 0.5716632656744E-01
 0.9253164046621E-01
 0.1293493429512E+00
 0.1671872729293E+00
 0.2055996819912E+00
 0.2441174749628E+00
 0.2821994339235E+00
 0.3191792708641E+00
 0.3542375761675E+00
 0.3863875603813E+00
 0.4144197769793E+00
 0.4367480152120E+00
 0.4512476944209E+00
 0.4553749804509E+00
 0.4474984425134E+00
 0.4346643746289E+00
 0.4567576206400E+00
 0.6017605005671E+00
 0.8920044767543E+00
 0.2123215407295E+00
 0.2420271473617E+00
 0.2588006422743E+00
 0.2631526405271E+00
 0.2601981995645E+00
 0.2536330834818E+00
 0.2450164281521E+00
 0.2348525843225E+00
 0.2233002010615E+00
 0.2104193065702E+00
 0.1962400129077E+00
 0.1807800207893E+00
 0.1640467136954E+00
 0.1460356572690E+00
 0.1267296062575E+00
 0.1060994907135E+00
 0.8410909587374E-01
 0.6073107385245E-01
 0.3601982199763E-01
 0.1121993607053E-01
 0.2058175977328E-01
 0.4961062488164E-01
 0.8071418240875E-01
 0.1132984965389E+00
 0.1470045654003E+00
 0.1814222998705E+00
 0.2161247539730E+00
 0.2506718825375E+00
 0.2845692998835E+00
 0.3172198714385E+00
 0.3478939364015E+00
 0.3757097027161E+00
 0.3995917343145E+00
 0.4181975237848E+00
 0.4299459795803E+00
 0.4335985025901E+00
 0.4308287952287E+00
 0.4347785379369E+00
 0.4860425776515E+00
 0.6455237058455E+00
 0.9063055439213E+00
 0.1754836900651E+00
 0.2008577545998E+00
 0.2162528261750E+00
 0.2209852070833E+00
 0.2185963468005E+00
 0.2122973375780E+00
 0.2037708963455E+00
 0.1936972513376E+00
 0.1823290023206E+00
 0.1697650684854E+00
 0.1560491079255E+00
 0.1412018840655E+00
 0.1252309021317E+00
 0.1081330102931E+00
 0.8989663999405E-01
 0.7050860455458E-01
 0.4997928392096E-01
 0.2848515419854E-01
 0.8987875289812E-02
 0.2223931986999E-01
 0.4753073812294E-01
 0.7477383972552E-01
 0.1034452395014E+00
 0.1332883429423E+00
 0.1639872137412E+00
 0.1951582747447E+00
 0.2264051568876E+00
 0.2573281465340E+00
 0.2874902206976E+00
 0.3163748229123E+00
 0.3433587255093E+00
 0.3676979025395E+00
 0.3885173229610E+00
 0.4048343532429E+00
 0.4158001456236E+00
 0.4217291597715E+00
 0.4273112135795E+00
 0.4490642089614E+00
 0.5231543541064E+00
 0.6883311633764E+00
 0.9240250928836E+00
 0.1392914969796E+00
 0.1608504388004E+00
 0.1746680563733E+00
 0.1794071036055E+00
 0.1774339548635E+00
 0.1714275077684E+00
 0.1630576546735E+00
 0.1531241836521E+00
 0.1419695342455E+00
 0.1297395881644E+00
 0.1164998921475E+00
 0.1022816018027E+00
 0.8709978703763E-01
 0.7096371006431E-01
 0.5389358146581E-01
 0.3598467517933E-01
 0.1788823357746E-01
 0.1027966471632E-01
 0.2814727439624E-01
 0.5034351033676E-01
 0.7414790977720E-01
 0.9924932883473E-01
 0.1254835597746E+00
 0.1526493976270E+00
 0.1804604438372E+00
 0.2085671588682E+00
 0.2366141720007E+00
 0.2642528545909E+00
 0.2911143921215E+00
 0.3167751211940E+00
 0.3407363972173E+00
 0.3624248426038E+00
 0.3812239346393E+00
 0.3965993695162E+00
 0.4085426775960E+00
 0.4189093079180E+00
 0.4346531282546E+00
 0.4732215621246E+00
 0.5641183506354E+00
 0.7298043607100E+00
 0.9443757186349E+00
 0.1036367002959E+00
 0.1218523086558E+00
 0.1340396337581E+00
 0.1385222908462E+00
 0.1368099958309E+00
 0.1310795137860E+00
 0.1229057919360E+00
 0.1131553807348E+00
 0.1022481577290E+00
 0.9038158089360E-01
 0.7765315211982E-01
 0.6412001108324E-01
 0.4983669981556E-01
 0.3492038293231E-01
 0.1988535230927E-01
 0.9756345911617E-02
 0.2027186313577E-01
 0.3801721442388E-01
 0.5754902036585E-01
 0.7832111157648E-01
 0.1002059634493E+00
 0.1231200877065E+00
 0.1469487759322E+00
 0.1715169660047E+00
 0.1965697380480E+00
 0.2217991524864E+00
 0.2469000139402E+00
 0.2715847398261E+00
 0.2955633487250E+00
 0.3185175365475E+00
 0.3400911683777E+00
 0.3599107917971E+00
 0.3776629558154E+00
 0.3933146028002E+00
 0.4077126856278E+00
 0.4240377215277E+00
 0.4505951865972E+00
 0.5039763654341E+00
 0.6067266009189E+00
 0.7700307345930E+00
 0.9668936036806E+00
 0.6845168270072E-01
 0.8378134772877E-01
 0.9439963174457E-01
 0.9846953186889E-01
 0.9689282884568E-01
 0.9141195541048E-01
 0.8346916942200E-01
 0.7396046273595E-01
 0.6337592775467E-01
 0.5198426874980E-01
 0.3997299825178E-01
 0.2760801121797E-01
 0.1585696308129E-01
 0.1106337553944E-01
 0.2086652117527E-01
 0.3544556824815E-01
 0.5155996632287E-01
 0.6872290205232E-01
 0.8682792469248E-01
 0.1058441883839E+00
 0.1257454429543E+00
 0.1464800822674E+00
 0.1679530375053E+00
 0.1900138674948E+00
 0.2124441814425E+00
 0.2349845369278E+00
 0.2573879468192E+00
 0.2794368990018E+00
 0.3009302362542E+00
 0.3216668511448E+00
 0.3414491949473E+00
 0.3601266700238E+00
 0.3777164868715E+00
 0.3947001323485E+00
 0.4127100026820E+00
 0.4359146167955E+00
 0.4731128425762E+00
 0.5389780910631E+00
 0.6497982428440E+00
 0.8092382590679E+00
 0.9912718893934E+00
 0.3373493333537E-01
 0.4675804899499E-01
 0.5602637627061E-01
 0.5966946283368E-01
 0.5820347584095E-01
 0.5303974778849E-01
 0.4551112138367E-01
 0.3658940065992E-01
 0.2702789175786E-01
 0.1791649582589E-01
 0.1280226850281E-01
 0.1742044786024E-01
 0.2794659123176E-01
 0.4047838139095E-01
 0.5404631091373E-01
 0.6839895098015E-01
 0.8346662210359E-01
 0.9923837797871E-01
 0.1157222496548E+00
 0.1329251944829E+00
 0.1508378578737E+00
 0.1694218688317E+00
 0.1886002478705E+00
 0.2082509982877E+00
 0.2281976624366E+00
 0.2482353625589E+00
 0.2681822842857E+00
 0.2878989807520E+00
 0.3072821319488E+00
 0.3262583017430E+00
 0.3448014107016E+00
 0.3629984541516E+00
 0.3812061953127E+00
 0.4003957614624E+00
 0.4228517894364E+00
 0.4533528319681E+00
 0.5005078786813E+00
 0.5766035105715E+00
 0.6927292748044E+00
 0.8476720824998E+00
 0.1017285209449E+01
 0.3963771520566E-02
 0.1362595226215E-01
 0.2168619463461E-01
 0.2518340967225E-01
 0.2454682908408E-01
 0.2137023211005E-01
 0.1802887301951E-01
 0.1774735399161E-01
 0.2235010453767E-01
 0.3044135052861E-01
 0.4037908070155E-01
 0.5136920148516E-01
 0.6307167132770E-01
 0.7533890181708E-01
 0.8811114338228E-01
 0.1013732796297E+00
 0.1151342861355E+00
 0.1294147376280E+00
 0.1442376246224E+00
 0.1596192436078E+00
 0.1755595236801E+00
 0.1920335509623E+00
 0.2089859672974E+00
 0.2263279712336E+00
 0.2439300229759E+00
 0.2616470273586E+00
 0.2793682914057E+00
 0.2970393270418E+00
 0.3146623944170E+00
 0.3323002223014E+00
 0.3501069176102E+00
 0.3684126313368E+00
 0.3879041153003E+00
 0.4099854902046E+00
 0.4374246470527E+00
 0.4752536377215E+00
 0.5314210870256E+00
 0.6157579190125E+00
 0.7352328113265E+00
 0.8855515628421E+00
 0.1044753402672E+01
 0.3534197929928E-01
 0.2970919559319E-01
 0.2737580367955E-01
 0.2792061364256E-01
 0.3035641881841E-01
 0.3453160631734E-01
 0.4051369969577E-01
 0.4809610926625E-01
 0.5690416951506E-01
 0.6658864652961E-01
 0.7689645059676E-01
 0.8766567152661E-01
 0.9880213824792E-01
 0.1102585951555E+00
 0.1220198707673E+00
 0.1340926258264E+00
 0.1464977755757E+00
 0.1592636801526E+00
 0.1724199014669E+00
 0.1859902780750E+00
 0.1999855914654E+00
 0.2143978293042E+00
 0.2291975979937E+00
 0.2443338095388E+00
 0.2597281773462E+00
 0.2752997773137E+00
 0.2910140057860E+00
 0.3069070666987E+00
 0.3230930387225E+00
 0.3397768701965E+00
 0.3572968400633E+00
 0.3762225442862E+00
 0.3975448941941E+00
 0.4230223351973E+00
 0.4557275417937E+00
 0.5006488998821E+00
 0.5647991103429E+00
 0.6557131567379E+00
 0.7771915963430E+00
 0.9230585756739E+00
 0.1073523231875E+01
 0.6912384481779E-01
 0.6453614832262E-01
 0.6198228325804E-01
 0.6221152362322E-01
 0.6510039135151E-01
 0.7021592792266E-01
 0.7706651896235E-01
 0.8518678156385E-01
 0.9418739950170E-01
 0.1037762982461E+00
 0.1137524162814E+00
 0.1239872723006E+00
 0.1344061457126E+00
 0.1449731607119E+00
 0.1556804019516E+00
 0.1665399373363E+00
 0.1775775646447E+00
 0.1888269809456E+00
 0.2003244788881E+00
 0.2121033024711E+00
 0.2241881490706E+00
 0.2365917298870E+00
 0.2493147122008E+00
 0.2623476704301E+00
 0.2756672010872E+00
 0.2892601399533E+00
 0.3031719847237E+00
 0.3175341598413E+00
 0.3325771308053E+00
 0.3486514102955E+00
 0.3662785617177E+00
 0.3862554062088E+00
 0.4098386246061E+00
 0.4390510681592E+00
 0.4771028341480E+00
 0.5287157656441E+00
 0.5998429403174E+00
 0.6959888889933E+00
 0.8185737020099E+00
 0.9603362536482E+00
 0.1103458614878E+01
 0.1027161335658E+00
 0.9969029385499E-01
 0.9814132024655E-01
 0.9895966141635E-01
 0.1022403046103E+00
 0.1076363145177E+00
 0.1146479262700E+00
 0.1227884912211E+00
 0.1316584820582E+00
 0.1409625795801E+00
 0.1504983887018E+00
 0.1601364944814E+00
 0.1698017276374E+00
 0.1794585833833E+00
 0.1891005669164E+00
 0.1987423717934E+00
 0.2084138196943E+00
 0.2181544302528E+00
 0.2280087658012E+00
 0.2380218930409E+00
 0.2482355319898E+00
 0.2586866304380E+00
 0.2694094748011E+00
 0.2804395956738E+00
 0.2918114016659E+00
 0.3035823089821E+00
 0.3158809943294E+00
 0.3289374033917E+00
 0.3431012014273E+00
 0.3588690281639E+00
 0.3769402390629E+00
 0.3983196355392E+00
 0.4244832386476E+00
 0.4576269645174E+00
 0.5009551635416E+00
 0.5587726985523E+00
 0.6359549350809E+00
 0.7362713192481E+00
 0.8593840245988E+00
 0.9974873992389E+00
 0.1134433729535E+01
 0.1360909070238E+00
 0.1346206025455E+00
 0.1342391925373E+00
 0.1358218530845E+00
 0.1395575867914E+00
 0.1451911933605E+00
 0.1522773071028E+00
 0.1603536739801E+00
 0.1690275421389E+00
 0.1780014550552E+00
 0.1870675704953E+00
 0.1960909779146E+00
 0.2049925162506E+00
 0.2137347277056E+00
 0.2223112814755E+00
 0.2307391262464E+00
 0.2390524973690E+00
 0.2472978192971E+00
 0.2555296600051E+00
 0.2638072406225E+00
 0.2721920987172E+00
 0.2807484411151E+00
 0.2895471258073E+00
 0.2986712768266E+00
 0.3082153694365E+00
 0.3183094844589E+00
 0.3291676456449E+00
 0.3411203982351E+00
 0.3546376662689E+00
 0.3703601189081E+00
 0.3891554299397E+00
 0.4122120671897E+00
 0.4411755087577E+00
 0.4783296020434E+00
 0.5267598211794E+00
 0.5902656166896E+00
 0.6726912464454E+00
 0.7763609052626E+00
 0.8996405794589E+00
 0.1034563465982E+01
 0.1166323945718E+01
 0.1692579134274E+00
 0.1692666175700E+00
 0.1700669860306E+00
 0.1724718505815E+00
 0.1767122489299E+00
 0.1826057990989E+00
 0.1897672884497E+00
 0.1977701083245E+00
 0.2062363102574E+00
 0.2148703066729E+00
 0.2234602168619E+00
 0.2318657793222E+00
 0.2400035601195E+00
 0.2478338902449E+00
 0.2553505869294E+00
 0.2625731869561E+00
 0.2695410808794E+00
 0.2763087864608E+00
 0.2829425274215E+00
 0.2895177565312E+00
 0.2961182172738E+00
 0.3028378699716E+00
 0.3097864957164E+00
 0.3170968209336E+00
 0.3249250022021E+00
 0.3334751665030E+00
 0.3430479761490E+00
 0.3540754705633E+00
 0.3671472251268E+00
 0.3830434743928E+00
 0.4027876347011E+00
 0.4277246053939E+00
 0.4596199897038E+00
 0.5007716900228E+00
 0.5540634396189E+00
 0.6227496453338E+00
 0.7097248741665E+00
 0.8161299776306E+00
 0.9393917930519E+00
 0.1071530950625E+01
 0.1198958086951E+01
 0.2022319788168E+00
 0.2036336675782E+00
 0.2055922598825E+00
 0.2088412593017E+00
 0.2136240941999E+00
 0.2198112889984E+00
 0.2270712156132E+00
 0.2350139671728E+00
 0.2432798194546E+00
 0.2515782484429E+00
 0.2596955455649E+00
 0.2674874063754E+00
 0.2748668623591E+00
 0.2817925217367E+00
 0.2882588213473E+00
 0.2942884948925E+00
 0.2999269352010E+00
 0.3052379019903E+00
 0.3103007502400E+00
 0.3152089364039E+00
 0.3200703726623E+00
 0.3250107483724E+00
 0.3301805475324E+00
 0.3357635173962E+00
 0.3419785084496E+00
 0.3491044096905E+00
 0.3575289820388E+00
 0.3677855435458E+00
 0.3805812126254E+00
 0.3968293837328E+00
 0.4176945625566E+00
 0.4446499657864E+00
 0.4795357076023E+00
 0.5246034111868E+00
 0.5824803441991E+00
 0.6558690776966E+00
 0.7468195840742E+00
 0.8554935243431E+00
 0.9787019990281E+00
 0.1108448532781E+01
 0.1231743726149E+01
 0.2350276196065E+00
 0.2377378548351E+00
 0.2408174902879E+00
 0.2449148719803E+00
 0.2502667303205E+00
 0.2567791975710E+00
 0.2641646504675E+00
 0.2720670809602E+00
 0.2801459114642E+00
 0.2881178649321E+00
 0.2957695342713E+00
 0.3029542090202E+00
 0.3095825482024E+00
 0.3156122968185E+00
 0.3210392486354E+00
 0.3258900919979E+00
 0.3302171016471E+00
 0.3340943435602E+00
 0.3376155747505E+00
 0.3408936995578E+00
 0.3440623166711E+00
 0.3472802787992E+00
 0.3507399445339E+00
 0.3546768463452E+00
 0.3593728364763E+00
 0.3651814736449E+00
 0.3725770727307E+00
 0.3821927253752E+00
 0.3948493691317E+00
 0.4115853307978E+00
 0.4336901078978E+00
 0.4627376790164E+00
 0.5006026102157E+00
 0.5494444836364E+00
 0.6116024941405E+00
 0.6892489078285E+00
 0.7836863040718E+00
 0.8943257955617E+00
 0.1017403684475E+01
 0.1145616365718E+01
 0.1264157554092E+01
 0.2676604550188E+00
 0.2716032445930E+00
 0.2757653085291E+00
 0.2807087005846E+00
 0.2866506184875E+00
 0.2935184212086E+00
 0.3010586279770E+00
 0.3089447313078E+00
 0.3168547393256E+00
 0.3245139221108E+00
 0.3317109704468E+00
 0.3382984076116E+00
 0.3441858271344E+00
 0.3493311340794E+00
 0.3537323357242E+00
 0.3574208793891E+00
 0.3604567627083E+00
 0.3629252915652E+00
 0.3649356684509E+00
 0.3666213663679E+00
 0.3681427802934E+00
 0.3696928914909E+00
 0.3715066047470E+00
 0.3738714914615E+00
 0.3771321908677E+00
 0.3817162670109E+00
 0.3881833537860E+00
 0.3972639595451E+00
 0.4098881467774E+00
 0.4272101120947E+00
 0.4506282786146E+00
 0.4817922373420E+00
 0.5225780879699E+00
 0.5750209675071E+00
 0.6411597222853E+00
 0.7226681196738E+00
 0.8202135996732E+00
 0.9325686352076E+00
 0.1055776982023E+01
 0.1182154885365E+01
 0.1301633725211E+01
 0.3001457926378E+00
 0.3052579835621E+00
 0.3104690186787E+00
 0.3162563200098E+00
 0.3228086745807E+00
 0.3300628913488E+00
 0.3377903971770E+00
 0.3456891878807E+00
 0.3534543846060E+00
 0.3608203846983E+00
 0.3675793732558E+00
 0.3735846011965E+00
 0.3787458970058E+00
 0.3830223870988E+00
 0.3864151715618E+00
 0.3889612358934E+00
 0.3907290520734E+00
 0.3918159370411E+00
 0.3923473442442E+00
 0.3924781275083E+00
 0.3923962237893E+00
 0.3923293149291E+00
 0.3925551310638E+00
 0.3934131667570E+00
 0.3953102934114E+00
 0.3987470759020E+00
 0.4043668487390E+00
 0.4129947549917E+00
 0.4256649341850E+00
 0.4436384493974E+00
 0.4684077992688E+00
 0.5016767010684E+00
 0.5452973516427E+00
 0.6011600201695E+00
 0.6710030646130E+00
 0.7560446802984E+00
 0.8564006351295E+00
 0.9703762400939E+00
 0.1093757603624E+01
 0.1219415339396E+01
 0.1339312914052E+01
 0.3324977986515E+00
 0.3387255547842E+00
 0.3449559729581E+00
 0.3515844418999E+00
 0.3587652048471E+00
 0.3664350163517E+00
 0.3743819501798E+00
 0.3823234529593E+00
 0.3899697809373E+00
 0.3970645239885E+00
 0.4034044193470E+00
 0.4088447867292E+00
 0.4132969588266E+00
 0.4167223630073E+00
 0.4191260851015E+00
 0.4205514026973E+00
 0.4210759293219E+00
 0.4208096096979E+00
 0.4198947245723E+00
 0.4185080196901E+00
 0.4168653583209E+00
 0.4152292928753E+00
 0.4139202364692E+00
 0.4133290640566E+00
 0.4139238923168E+00
 0.4162768210248E+00
 0.4211127480438E+00
 0.4293481210402E+00
 0.4421156896808E+00
 0.4607744850565E+00
 0.4868976138255E+00
 0.5222251525202E+00
 0.5685669943611E+00
 0.6276578330286E+00
 0.7009460527239E+00
 0.7892374099337E+00
 0.8921852351090E+00
 0.1007714491550E+01
 0.1131509384413E+01
 0.1257066954250E+01
 0.1377161929945E+01
 0.3647300740783E+00
 0.3720284825807E+00
 0.3792532517663E+00
 0.3867208051065E+00
 0.3945465723820E+00
 0.4026596196242E+00
 0.4108574468901E+00
 0.4188721136497E+00
 0.4264267838251E+00
 0.4332739409257E+00
 0.4392156457901E+00
 0.4441104681076E+00
 0.4478724514658E+00
 0.4504663873708E+00
 0.4519022245066E+00
 0.4522302391453E+00
 0.4515377547140E+00
 0.4499477988775E+00
 0.4476198278578E+00
 0.4447526992338E+00
 0.4415902443077E+00
 0.4384296799700E+00
 0.4356335692172E+00
 0.4336432321356E+00
 0.4329866521329E+00
 0.4343055924594E+00
 0.4384039490793E+00
 0.4462857524558E+00
 0.4591767372979E+00
 0.4785254987470E+00
 0.5059741100861E+00
 0.5432852065161E+00
 0.5922144103348E+00
 0.6543383412055E+00
 0.7308321410287E+00
 0.8221348851978E+00
 0.9275098231402E+00
 0.1044588006510E+01
 0.1169054112037E+01
 0.1294870531421E+01
 0.1415242321053E+01
 0.3968557249508E+00
 0.4051882363553E+00
 0.4133871860943E+00
 0.4216932240537E+00
 0.4301800150667E+00
 0.4387628070615E+00
 0.4472423011497E+00
 0.4553606860562E+00
 0.4628517312693E+00
 0.4694762767998E+00
 0.4750422523842E+00
 0.4794125106651E+00
 0.4825049369950E+00
 0.4842887123823E+00
 0.4847794889940E+00
 0.4840351847615E+00
 0.4821532918238E+00
 0.4792702100261E+00
 0.4755626938530E+00
 0.4712516519438E+00
 0.4666086006777E+00
 0.4619648632526E+00
 0.4577242570950E+00
 0.4543772522726E+00
 0.4525099685027E+00
 0.4528316117653E+00
 0.4562221727566E+00
 0.4637692986850E+00
 0.4767861544185E+00
 0.4968032915113E+00
 0.5255222148294E+00
 0.5647182567931E+00
 0.6160865769246E+00
 0.6810495415124E+00
 0.7605303208533E+00
 0.8546451467257E+00
 0.9623298746480E+00
 0.1080994850028E+01
 0.1206357715137E+01
 0.1332710129636E+01
 0.1453567419574E+01
 0.4288874130413E+00
 0.4382252623388E+00
 0.4473831717897E+00
 0.4565291255887E+00
 0.4656930030536E+00
 0.4747713079124E+00
 0.4835626198995E+00
 0.4918151935265E+00
 0.4992711473547E+00
 0.5056990059993E+00
 0.5109129480228E+00
 0.5147810162805E+00
 0.5172259916810E+00
 0.5182224205219E+00
 0.5177924487125E+00
 0.5160022034735E+00
 0.5129596874109E+00
 0.5088147937325E+00
 0.5037614766617E+00
 0.4980423651215E+00
 0.4919560698473E+00
 0.4858671320422E+00
 0.4802193916555E+00
 0.4755508440195E+00
 0.4725037009441E+00
 0.4718520952875E+00
 0.4745489555556E+00
 0.4817614668333E+00
 0.4948849259463E+00
 0.5155252441356E+00
 0.5454360568376E+00
 0.5863992938591E+00
 0.6400484363553E+00
 0.7076603424940E+00
 0.7899300150781E+00
 0.8866917833961E+00
 0.9966082946882E+00
 0.1116920924809E+01
 0.1243382282765E+01
 0.1370521899263E+01
 0.1492122056309E+01
 0.4608373983053E+00
 0.4711590585809E+00
 0.4812656278357E+00
 0.4912553282251E+00
 0.5011128808026E+00
 0.5107120750822E+00
 0.5198448432401E+00
 0.5282618841332E+00
 0.5357115369582E+00
 0.5419692884931E+00
 0.5468558386215E+00
 0.5502452302652E+00
 0.5520661235512E+00
 0.5522993518059E+00
 0.5509742861444E+00
 0.5481657474929E+00
 0.5439924688203E+00
 0.5386177895287E+00
 0.5322525488022E+00
 0.5251605057339E+00
 0.5176664827386E+00
 0.5101670405563E+00
 0.5031444967282E+00
 0.4971824453454E+00
 0.4929768677251E+00
 0.4913640629633E+00
 0.4933665627663E+00
 0.5002270088170E+00
 0.5134179293799E+00
 0.5346151398692E+00
 0.5656193506940E+00
 0.6082164582551E+00
 0.6639812681836E+00
 0.7340575833456E+00
 0.8189372167043E+00
 0.9182103190425E+00
 0.1030311186352E+01
 0.1152346575251E+01
 0.1280095430004E+01
 0.1408265020167E+01
 0.1530879116455E+01
 0.4927175747271E+00
 0.5040082639050E+00
 0.5150580265881E+00
 0.5258979537331E+00
 0.5364666731478E+00
 0.5466120432076E+00
 0.5561155127073E+00
 0.5647270422198E+00
 0.5721992470231E+00
 0.5783138713470E+00
 0.5828983549728E+00
 0.5858334845133E+00
 0.5870547253936E+00
 0.5865500667507E+00
 0.5843567736131E+00
 0.5805587572401E+00
 0.5752855765442E+00
 0.5687138028772E+00
 0.5610706351841E+00
 0.5526401238157E+00
 0.5437721429714E+00
 0.5348937823746E+00
 0.5265240002117E+00
 0.5192897859896E+00
 0.5139383215469E+00
 0.5113651115815E+00
 0.5126588433152E+00
 0.5191336179681E+00
 0.5323347874913E+00
 0.5540038136788E+00
 0.5859855925602E+00
 0.6300704786530E+00
 0.6877811272172E+00
 0.7601434659215E+00
 0.8474714302442E+00
 0.9491451472616E+00
 0.1063406709294E+01
 0.1187250597910E+01
 0.1316470494236E+01
 0.1445909095897E+01
 0.1569805764100E+01
 0.5245395010734E+00
 0.5367907420855E+00
 0.5487829477089E+00
 0.5604823962146E+00
 0.5717809670421E+00
 0.5824979574339E+00
 0.5924010887453E+00
 0.6012368226619E+00
 0.6087603273467E+00
 0.6147589730129E+00
 0.6190671527364E+00
 0.6215731064624E+00
 0.6222199897471E+00
 0.6210037687114E+00
 0.6179702079592E+00
 0.6132126161831E+00
 0.6068713491179E+00
 0.5991358313847E+00
 0.5902488925405E+00
 0.5805137968381E+00
 0.5703040468371E+00
 0.5600754948393E+00
 0.5503816291883E+00
 0.5418903763229E+00
 0.5353973307428E+00
 0.5318540797787E+00
 0.5324119566983E+00
 0.5384526707367E+00
 0.5515905338504E+00
 0.5736295876989E+00
 0.6064580473937E+00
 0.6518739746779E+00
 0.7113573101085E+00
 0.7858332827377E+00
 0.8754630514048E+00
 0.9794472771094E+00
 0.1095864685597E+01
 0.1221611807195E+01
 0.1352484771705E+01
 0.1483428327425E+01
 0.1608866993090E+01
 0.5563144295431E+00
 0.5695236662074E+00
 0.5824621537913E+00
 0.5950333410334E+00
 0.6070818630794E+00
 0.6183962769490E+00
 0.6287278357825E+00
 0.6378171406029E+00
 0.6454204357862E+00
 0.6513302048857E+00
 0.6553880466308E+00
 0.6574903621383E+00
 0.6575888594277E+00
 0.6556882636522E+00
 0.6518433842351E+00
 0.6461571454990E+00
 0.6387805475617E+00
 0.6299153290266E+00
 0.6198190239930E+00
 0.6088128050206E+00
 0.5972921288392E+00
 0.5857395826169E+00
 0.5747408168397E+00
 0.5650019995087E+00
 0.5573641536122E+00
 0.5528316934719E+00
 0.5526150643175E+00
 0.5581599139116E+00
 0.5711462065163E+00
 0.5934386311174E+00
 0.6269696925555E+00
 0.6735508073457E+00
 0.7346310360172E+00
 0.8110535562207E+00
 0.9028513392332E+00
 0.1009072829791E+01
 0.1127656407292E+01
 0.1255409488025E+01
 0.1388117954145E+01
 0.1520799057047E+01
 0.1648027836514E+01
 0.5880533317828E+00
 0.6022235957304E+00
 0.6161166682951E+00
 0.6295748018977E+00
 0.6423949565294E+00
 0.6543331093079E+00
 0.6651217302459E+00
 0.6744935718047E+00
 0.6822047418510E+00
 0.6880524816892E+00
 0.6918859271362E+00
 0.6936103780183E+00
 0.6931869548083E+00
 0.6906298953378E+00
 0.6860035435585E+00
 0.6794205712740E+00
 0.6710423501203E+00
 0.6610822376614E+00
 0.6498113570931E+00
 0.6375672655419E+00
 0.6247654609101E+00
 0.6119129891874E+00
 0.5996250510151E+00
 0.5886431382933E+00
 0.5798505390716E+00
 0.5743011273038E+00
 0.5732609241654E+00
 0.5782360414066E+00
 0.5909693213392E+00
 0.6133852045511E+00
 0.6474630819167E+00
 0.6950354327443E+00
 0.7575342586795E+00
 0.8357404497477E+00
 0.9295827775245E+00
 0.1037981888557E+01
 0.1158754321139E+01
 0.1288623269957E+01
 0.1423350976821E+01
 0.1557998800833E+01
 0.1687254729329E+01
 0.6197669249950E+00
 0.6349065498554E+00
 0.6497668569488E+00
 0.6641301739506E+00
 0.6777453447044E+00
 0.6903341744111E+00
 0.7016083945328E+00
 0.7112912712661E+00
 0.7191378403316E+00
 0.7249499353459E+00
 0.7285846765153E+00
 0.7299570601058E+00
 0.7290384975070E+00
 0.7258534766506E+00
 0.7204763167171E+00
 0.7130294865635E+00
 0.7036843401990E+00
 0.6926650091821E+00
 0.6802549090294E+00
 0.6668062496320E+00
 0.6527524295797E+00
 0.6386224408943E+00
 0.6250581896128E+00
 0.6128333624405E+00
 0.6028701811224E+00
 0.5962685121752E+00
 0.5943464233338E+00
 0.5986672021715E+00
 0.6110342766678E+00
 0.6334318526958E+00
 0.6678902036113E+00
 0.7162723307317E+00
 0.7800086624281E+00
 0.8598384720373E+00
 0.9556097914562E+00
 0.1066137608288E+01
 0.1189131668166E+01
 0.1321232845647E+01
 0.1458165325972E+01
 0.1595006014194E+01
 0.1726516474749E+01
 0.6514656983470E+00
 0.6675880798587E+00
 0.6834325140887E+00
 0.6987223025033E+00
 0.7131576595850E+00
 0.7264247983584E+00
 0.7382130599803E+00
 0.7482349164780E+00
 0.7562436843570E+00
 0.7620458441052E+00
 0.7655070976977E+00
 0.7665530250912E+00
 0.7651662463954E+00
 0.7613822337835E+00
 0.7552856809350E+00
 0.7470088262152E+00
 0.7367325057194E+00
 0.7246906366867E+00
 0.7111774574138E+00
 0.6965579008923E+00
 0.6812809093283E+00
 0.6658946816917E+00
 0.6510647609415E+00
 0.6375936953076E+00
 0.6264391465236E+00
 0.6187434101200E+00
 0.6158730729676E+00
 0.6194454692434E+00
 0.6313227268433E+00
 0.6535495903557E+00
 0.6882123805769E+00
 0.7372155521982E+00
 0.8020048674659E+00
 0.8832994701947E+00
 0.9808897743785E+00
 0.1093505538025E+01
 0.1218762157914E+01
 0.1353217731231E+01
 0.1492542726456E+01
 0.1631800251956E+01
 0.1765784999658E+01
 0.6831599404602E+00
 0.7002833372555E+00
 0.7171329459993E+00
 0.7333735534203E+00
 0.7486561060666E+00
 0.7626299130955E+00
 0.7749605314143E+00
 0.7853486451215E+00
 0.7935455049491E+00
 0.7993625410750E+00
 0.8026748170855E+00
 0.8034195015419E+00
 0.8015914008757E+00
 0.7972377154824E+00
 0.7904538794930E+00
 0.7813818019884E+00
 0.7702111956307E+00
 0.7571846389975E+00
 0.7426055599871E+00
 0.7268494976347E+00
 0.7103783748205E+00
 0.6937566416680E+00
 0.6776701930245E+00
 0.6629469049754E+00
 0.6505762231991E+00
 0.6417392069668E+00
 0.6378474199683E+00
 0.6405692289865E+00
 0.6518238884568E+00
 0.6737180489164E+00
 0.7084001784421E+00
 0.7578283370045E+00
 0.8234817721465E+00
 0.9060818042001E+00
 0.1005384283040E+01
 0.1120053018193E+01
 0.1247619602083E+01
 0.1384557004185E+01
 0.1526464965952E+01
 0.1668362384156E+01
 0.1805035870719E+01
 0.7148597696541E+00
 0.7330071446631E+00
 0.7508870610804E+00
 0.7681058973248E+00
 0.7842645206286E+00
 0.7989740801478E+00
 0.8118751759169E+00
 0.8226560146204E+00
 0.8310657492468E+00
 0.8369213387758E+00
 0.8401082019206E+00
 0.8405762453548E+00
 0.8383335188415E+00
 0.8334397175475E+00
 0.8260013568095E+00
 0.8161698525785E+00
 0.8041430897836E+00
 0.7901710559360E+00
 0.7745645814747E+00
 0.7577075179576E+00
 0.7400720109525E+00
 0.7222355983182E+00
 0.7049010308572E+00
 0.6889177792127E+00
 0.6753032494937E+00
 0.6652734847010E+00
 0.6602814405083E+00
 0.6620435602834E+00
 0.6725348550554E+00
 0.6939256647682E+00
 0.7284334055080E+00
 0.7780828853562E+00
 0.8444061067568E+00
 0.9281497654317E+00
 0.1029058460138E+01
 0.1145748736881E+01
 0.1275677641157E+01
 0.1415229154871E+01
 0.1559913907379E+01
 0.1704674925492E+01
 0.1844248798339E+01
 0.7465751667747E+00
 0.7657740670053E+00
 0.7847134614137E+00
 0.8029409982053E+00
 0.8200064367956E+00
 0.8354815210207E+00
 0.8489809152006E+00
 0.8601799602293E+00
 0.8688260116212E+00
 0.8747424415687E+00
 0.8778262617129E+00
 0.8780414366412E+00
 0.8754104142373E+00
 0.8700061853585E+00
 0.8619466697430E+00
 0.8513925674785E+00
 0.8385491394714E+00
 0.8236724102656E+00
 0.8070786823673E+00
 0.7891576614789E+00
 0.7703887740896E+00
 0.7513592837602E+00
 0.7327850950575E+00
 0.7155333384995E+00
 0.7006453799436E+00
 0.6893683313847E+00
 0.6831928761327E+00
 0.6838805677995E+00
 0.6934608873745E+00
 0.7141698777602E+00
 0.7483011697450E+00
 0.7979602380852E+00
 0.8647521379437E+00
 0.9494731584982E+00
 0.1051880589904E+01
 0.1170562354221E+01
 0.1302909482505E+01
 0.1445211946995E+01
 0.1592871525817E+01
 0.1740722327592E+01
 0.1883408035614E+01
 0.7783160123862E+00
 0.7985984864985E+00
 0.8186305401731E+00
 0.8379003110587E+00
 0.8559051620340E+00
 0.8721761591691E+00
 0.8863012272207E+00
 0.8979427584369E+00
 0.9068469658505E+00
 0.9128448555688E+00
 0.9158465447136E+00
 0.9158315702628E+00
 0.9128380474921E+00
 0.9069531085848E+00
 0.8983063899985E+00
 0.8870676001193E+00
 0.8734484945018E+00
 0.8577096524572E+00
 0.8401707859721E+00
 0.8212248441814E+00
 0.8013554210245E+00
 0.7811559545337E+00
 0.7613515988132E+00
 0.7428230046005E+00
 0.7266313061836E+00
 0.7140506091242E+00
 0.7066055356269E+00
 0.7060996958176E+00
 0.7146157089780E+00
 0.7344573720325E+00
 0.7680020253609E+00
 0.8174502951107E+00
 0.8845015462235E+00
 0.9700270613498E+00
 0.1073821800175E+01
 0.1194464217002E+01
 0.1329287681371E+01
 0.1474482307903E+01
 0.1625319971916E+01
 0.1776491254705E+01
 0.1922502763441E+01
 0.8100921287347E+00
 0.8314946836751E+00
 0.8526565877065E+00
 0.8730051913965E+00
 0.8919838685386E+00
 0.9090816757008E+00
 0.9238591592644E+00
 0.9359659984151E+00
 0.9451483019070E+00
 0.9512463005808E+00
 0.9541850349682E+00
 0.9539613464619E+00
 0.9506304160358E+00
 0.9442944158764E+00
 0.9350950058353E+00
 0.9232105787269E+00
 0.9088584253185E+00
 0.8923020967459E+00
 0.8738625320277E+00
 0.8539331743930E+00
 0.8329985133393E+00
 0.8116544313253E+00
 0.7906312302373E+00
 0.7708187318451E+00
 0.7532934406528E+00
 0.7393521888782E+00
 0.7305495732013E+00
 0.7287280353576E+00
 0.7360218220646E+00
 0.7548043751739E+00
 0.7875442244358E+00
 0.8365519847780E+00
 0.9036434841220E+00
 0.9897917657148E+00
 0.1094855911084E+01
 0.1217425166966E+01
 0.1354783970182E+01
 0.1503016246599E+01
 0.1657241651292E+01
 0.1811970858453E+01
 0.1961527478975E+01
 0.8419133275492E+00
 0.8644769242149E+00
 0.8868099047130E+00
 0.9082770127676E+00
 0.9282656912498E+00
 0.9462215692321E+00
 0.9616773402692E+00
 0.9742705470497E+00
 0.9837486511156E+00
 0.9899631063806E+00
 0.9928560310374E+00
 0.9924435415136E+00
 0.9887994236714E+00
 0.9820418471413E+00
 0.9723247995142E+00
 0.9598349901786E+00
 0.9447942143561E+00
 0.9274673216423E+00
 0.9081741891368E+00
 0.8873058813701E+00
 0.8653443680154E+00
 0.8428840790463E+00
 0.8206561704375E+00
 0.7995550717229E+00
 0.7806680345950E+00
 0.7653101251644E+00
 0.7550617182362E+00
 0.7518006022883E+00
 0.7577108233326E+00
 0.7752369969034E+00
 0.8069460547324E+00
 0.8552735631753E+00
 0.9221747897251E+00
 0.1008752866575E+01
 0.1114959393053E+01
 0.1239416400034E+01
 0.1379369085698E+01
 0.1530788736172E+01
 0.1688619248565E+01
 0.1847152983430E+01
 0.2000482343381E+01
 0.8737894649712E+00
 0.8975595556198E+00
 0.9211089283321E+00
 0.9437372992723E+00
 0.9647738407172E+00
 0.9836192280180E+00
 0.9997780012558E+00
 0.1012876517668E+01
 0.1022665511494E+01
 0.1029010107155E+01
 0.1031872022292E+01
 0.1031288876320E+01
 0.1027354748528E+01
 0.1020204824665E+01
 0.1010005722979E+01
 0.9969520603208E+00
 0.9812690407979E+00
 0.9632210595332E+00
 0.9431245508798E+00
 0.9213652213554E+00
 0.8984189789539E+00
 0.8748747515484E+00
 0.8514600711324E+00
 0.8290691942609E+00
 0.8087952537403E+00
 0.7919667944535E+00
 0.7801854813059E+00
 0.7753606124620E+00
 0.7797237473232E+00
 0.7957916360221E+00
 0.8262362938665E+00
 0.8736330752673E+00
 0.9401003889027E+00
 0.1026901534655E+01
 0.1134111468327E+01
 0.1260409410987E+01
 0.1403012628264E+01
 0.1557773595128E+01
 0.1719435736044E+01
 0.1882032361781E+01
 0.2039373555020E+01
 0.9057305047442E+00
 0.9307571149174E+00
 0.9555723719962E+00
 0.9794078726962E+00
 0.1001531728481E+01
 0.1021298009798E+01
 0.1038182997310E+01
 0.1051803234431E+01
 0.1061915164392E+01
 0.1068400524831E+01
 0.1071243553387E+01
 0.1070505873478E+01
 0.1066303699963E+01
 0.1058790313150E+01
 0.1048145261416E+01
 0.1034570619848E+01
 0.1018293847215E+01
 0.9995770631850E+00
 0.9787308027312E+00
 0.9561323475096E+00
 0.9322478950712E+00
 0.9076566859120E+00
 0.8830779760896E+00
 0.8594008499950E+00
 0.8377191953917E+00
 0.8193699814175E+00
 0.8059713216687E+00
 0.7994597404558E+00
 0.8021114252860E+00
 0.8165154450977E+00
 0.8454547710434E+00
 0.8916589713183E+00
 0.9574338814881E+00
 0.1044234966585E+01
 0.1152294346423E+01
 0.1280376006510E+01
 0.1425682927417E+01
 0.1583943334898E+01
 0.1749674332991E+01
 0.1916606766450E+01
 0.2078213718662E+01
 0.9377465911752E+00
 0.9640844499453E+00
 0.9902193820785E+00
 0.1015311016841E+01
 0.1038563106265E+01
 0.1059281329031E+01
 0.1076913829434E+01
 0.1091069190007E+01
 0.1101512580031E+01
 0.1108145839432E+01
 0.1110979075844E+01
 0.1110100702521E+01
 0.1105651064761E+01
 0.1097802669404E+01
 0.1086748285598E+01
 0.1072696956614E+01
 0.1055877188767E+01
 0.1036546949504E+01
 0.1015008359689E+01
 0.9916271430648E+00
 0.9668560536152E+00
 0.9412603441245E+00
 0.9155461832981E+00
 0.8905922685865E+00
 0.8674878423469E+00
 0.8475729083097E+00
 0.8324767719416E+00
 0.8241583586212E+00
 0.8249348576062E+00
 0.8374668527330E+00
 0.8646530392286E+00
 0.9093908863344E+00
 0.9741983246403E+00
 0.1060757028878E+01
 0.1169493607187E+01
 0.1299288392977E+01
 0.1447346911880E+01
 0.1609268967135E+01
 0.1779318410559E+01
 0.1950877122373E+01
 0.2117022214943E+01
 0.9698481336899E+00
 0.9975568574637E+00
 0.1025069715376E+01
 0.1051469662801E+01
 0.1075892221455E+01
 0.1097592752358E+01
 0.1115991665785E+01
 0.1130691995520E+01
 0.1141471311299E+01
 0.1148255646766E+01
 0.1151084788254E+01
 0.1150077016074E+01
 0.1145398946308E+01
 0.1137243486078E+01
 0.1125816897807E+01
 0.1111334659361E+01
 0.1094025069951E+01
 0.1074140025396E+01
 0.1051970679152E+01
 0.1027868021764E+01
 0.1002267572102E+01
 0.9757162046580E+00
 0.9489020492848E+00
 0.9226879942801E+00
 0.8981529527194E+00
 0.8766342057464E+00
 0.8597665180134E+00
 0.8495257549096E+00
 0.8482655992292E+00
 0.8587161446051E+00
 0.8838951625370E+00
 0.9268805938498E+00
 0.9904272329931E+00
 0.1076479120827E+01
 0.1185698754826E+01
 0.1317119353511E+01
 0.1467969988486E+01
 0.1633719771207E+01
 0.1808351345812E+01
 0.1984847583030E+01
 0.2155825580359E+01
 0.1002045905058E+01
 0.1031190241547E+01
 0.1060143941501E+01
 0.1087907598586E+01
 0.1113543990419E+01
 0.1136256101564E+01
 0.1155437359777E+01
 0.1170688319422E+01
 0.1181803372633E+01
 0.1188737501206E+01
 0.1191564464102E+01
 0.1190435777035E+01
 0.1185546597792E+01
 0.1177111431055E+01
 0.1165350273239E+01
 0.1150484454802E+01
 0.1132740770697E+01
 0.1112363097224E+01
 0.1089629050148E+01
 0.1064871696114E+01
 0.1038505498612E+01
 0.1011054502626E+01
 0.9831837329070E+00
 0.9557346539570E+00
 0.9297698797831E+00
 0.9066178176448E+00
 0.8879124261666E+00
 0.8756403214524E+00
 0.8721861508905E+00
 0.8803460980208E+00
 0.9032586178858E+00
 0.9441931414130E+00
 0.1006165814228E+01
 0.1091421283428E+01
 0.1200903968801E+01
 0.1333842528565E+01
 0.1487515930071E+01
 0.1657263015737E+01
 0.1836756321704E+01
 0.2018525571416E+01
 0.2194657894504E+01
 0.1034351155586E+01
 0.1065001295226E+01
 0.1095463673094E+01
 0.1124649704248E+01
 0.1151544187586E+01
 0.1175295558247E+01
 0.1195271456181E+01
 0.1211073804650E+01
 0.1222519092835E+01
 0.1229596732712E+01
 0.1232419256938E+01
 0.1231175067050E+01
 0.1226090239848E+01
 0.1217402072709E+01
 0.1205344486598E+01
 0.1190144027047E+01
 0.1172024649912E+01
 0.1151220251013E+01
 0.1127992344956E+01
 0.1102652898303E+01
 0.1075591503929E+01
 0.1047304900404E+01
 0.1018429858610E+01
 0.9897806356325E+00
 0.9623972975003E+00
 0.9375928140989E+00
 0.9169934901083E+00
 0.9025896867137E+00
 0.8967903304645E+00
 0.9024526474737E+00
 0.9228352946040E+00
 0.9614081628846E+00
 0.1021472451155E+01
 0.1105613578695E+01
 0.1215109076382E+01
 0.1349432809258E+01
 0.1505946759964E+01
 0.1679863609853E+01
 0.1864516048817E+01
 0.2051921758643E+01
 0.2233561136997E+01
 0.1066775747007E+01
 0.1099007712640E+01
 0.1131051833485E+01
 0.1161722222602E+01
 0.1189919659218E+01
 0.1214735777644E+01
 0.1235514192101E+01
 0.1251862971986E+01
 0.1263626952259E+01
 0.1270836251902E+01
 0.1273647500277E+01
 0.1272289896862E+01
 0.1267022885974E+01
 0.1258107716635E+01
 0.1245792351276E+01
 0.1230307848232E+01
 0.1211873956595E+01
 0.1190712634529E+01
 0.1167066765099E+01
 0.1141224086291E+01
 0.1113545548148E+01
 0.1084496120856E+01
 0.1054679130092E+01
 0.1024875706314E+01
 0.9960968578852E+00
 0.9696331351750E+00
 0.9470957178621E+00
 0.9304708088773E+00
 0.9221836409386E+00
 0.9251455981120E+00
 0.9427326125138E+00
 0.9786213981953E+00
 0.1036420478695E+01
 0.1119097805782E+01
 0.1228320818255E+01
 0.1363866900719E+01
 0.1523222669056E+01
 0.1701483714923E+01
 0.1891612457811E+01
 0.2085050039157E+01
 0.2272585580544E+01
 0.1099332308879E+01
 0.1133228435046E+01
 0.1166932964195E+01
 0.1199153064341E+01
 0.1228698554929E+01
 0.1254601998459E+01
 0.1276185474884E+01
 0.1293069088950E+01
 0.1305133382804E+01
 0.1312456321707E+01
 0.1315244481037E+01
 0.1313771997363E+01
 0.1308334153984E+01
 0.1299217230995E+01
 0.1286683246835E+01
 0.1270966994412E+01
 0.1252282620738E+01
 0.1230838211601E+01
 0.1206855550139E+01
 0.1180595101512E+01
 0.1152385486044E+01
 0.1122655505068E+01
 0.1091969853452E+01
 0.1061070525011E+01
 0.1030932732349E+01
 0.1002817214174E+01
 0.9783119042645E+00
 0.9593899750976E+00
 0.9484835808852E+00
 0.9485493369828E+00
 0.9630747164314E+00
 0.9959463942501E+00
 0.1051100254788E+01
 0.1131929579473E+01
 0.1240554441264E+01
 0.1377124066852E+01
 0.1539301934817E+01
 0.1722082259834E+01
 0.1918026310770E+01
 0.2117927452352E+01
 0.2311790116460E+01
 0.1132034423099E+01
 0.1167683939330E+01
 0.1203133582556E+01
 0.1236972156113E+01
 0.1267910581335E+01
 0.1294920148789E+01
 0.1317304834615E+01
 0.1334704002156E+01
 0.1347042530995E+01
 0.1354454299266E+01
 0.1357202193492E+01
 0.1355609600968E+01
 0.1350010075067E+01
 0.1340715873382E+01
 0.1328002948525E+01
 0.1312108961002E+01
 0.1293241038760E+01
 0.1271591503733E+01
 0.1247358664555E+01
 0.1220772793525E+01
 0.1192126626295E+01
 0.1161808508858E+01
 0.1130339382480E+01
 0.1098416060887E+01
 0.1066971043276E+01
 0.1037227482077E+01
 0.1010741286206E+01
 0.9894627002694E+00
 0.9758198897211E+00
 0.9728035357067E+00
 0.9840037462541E+00
 0.1013516400423E+01
 0.1065621566715E+01
 0.1144180847647E+01
 0.1251835713587E+01
 0.1389187131841E+01
 0.1554140868433E+01
 0.1741614357458E+01
 0.1943736759241E+01
 0.2150574098052E+01
 0.2351242541742E+01
 0.1164896841920E+01
 0.1202396579266E+01
 0.1239682601522E+01
 0.1275211841477E+01
 0.1307587282661E+01
 0.1335716948051E+01
 0.1358891348993E+01
 0.1376777932205E+01
 0.1389355987017E+01
 0.1396824355570E+01
 0.1399509085623E+01
 0.1397787228716E+01
 0.1392032918344E+01
 0.1382585138810E+01
 0.1369733479672E+01
 0.1353717499520E+01
 0.1334735875917E+01
 0.1312963342060E+01
 0.1288572486187E+01
 0.1261760635296E+01
 0.1232781267997E+01
 0.1201978160619E+01
 0.1169823506695E+01
 0.1136962933837E+01
 0.1104279198141E+01
 0.1072949759066E+01
 0.1044489079398E+01
 0.1020813517648E+01
 0.1004334715808E+01
 0.9980638314736E+00
 0.1005681172773E+01
 0.1031486461563E+01
 0.1080116406150E+01
 0.1155942925766E+01
 0.1262203471448E+01
 0.1400043829067E+01
 0.1567693812772E+01
 0.1760030595923E+01
 0.1968720868020E+01
 0.2183013123594E+01
 0.2391019802950E+01
 0.1197935746493E+01
 0.1237390987188E+01
 0.1276611817326E+01
 0.1313907332537E+01
 0.1347762334526E+01
 0.1377019980092E+01
 0.1400963508532E+01
 0.1419299196263E+01
 0.1432072444938E+01
 0.1439557139164E+01
 0.1442149764685E+01
 0.1440285449273E+01
 0.1434380995408E+01
 0.1424802590827E+01
 0.1411852946015E+01
 0.1395772431608E+01
 0.1376749838535E+01
 0.1354940579381E+01
 0.1330489442990E+01
 0.1303558272953E+01
 0.1274358155443E+01
 0.1243184418348E+01
 0.1210455716407E+01
 0.1176760607333E+01
 0.1142925050615E+01
 0.1110072451295E+01
 0.1079665808569E+01
 0.1053575568688E+01
 0.1034182614112E+01
 0.1024502397788E+01
 0.1028289121604E+01
 0.1050035652664E+01
 0.1094742099843E+01
 0.1167330099330E+01
 0.1271712801134E+01
 0.1409688587210E+01
 0.1579913176695E+01
 0.1777276078656E+01
 0.1992953010759E+01
 0.2215270769099E+01
 0.2431208035193E+01
 0.1231169056557E+01
 0.1272694556165E+01
 0.1313956489867E+01
 0.1353097235092E+01
 0.1388471867736E+01
 0.1418857749975E+01
 0.1443539035670E+01
 0.1462273878459E+01
 0.1475187323932E+01
 0.1482639423746E+01
 0.1485104710632E+01
 0.1483080665549E+01
 0.1477028506150E+01
 0.1467341741747E+01
 0.1454335422170E+01
 0.1438249514491E+01
 0.1419261494166E+01
 0.1397505844288E+01
 0.1373097683918E+01
 0.1346161099404E+01
 0.1316861943640E+01
 0.1285443520547E+01
 0.1252266440136E+01
 0.1217856527238E+01
 0.1182975977618E+01
 0.1148685633659E+01
 0.1116386500440E+01
 0.1087890048365E+01
 0.1065530417430E+01
 0.1052308439781E+01
 0.1052031715341E+01
 0.1069369490160E+01
 0.1109684860548E+01
 0.1178483924651E+01
 0.1280439061809E+01
 0.1418124972592E+01
 0.1590749615853E+01
 0.1793289170040E+01
 0.2016404167433E+01
 0.2247376741488E+01
 0.2471902496084E+01
 0.1264616801148E+01
 0.1308338015139E+01
 0.1351756024365E+01
 0.1392824142426E+01
 0.1429754798640E+01
 0.1461259685213E+01
 0.1486634610301E+01
 0.1505705399384E+01
 0.1518692304114E+01
 0.1526053695824E+01
 0.1528349954311E+01
 0.1526144884509E+01
 0.1519945378497E+01
 0.1510171930677E+01
 0.1497150834529E+01
 0.1481120297686E+01
 0.1462245074944E+01
 0.1440637268157E+01
 0.1416380710307E+01
 0.1389559773940E+01
 0.1360292592526E+01
 0.1328767244697E+01
 0.1295282163341E+01
 0.1260295109771E+01
 0.1224497768142E+01
 0.1188879905068E+01
 0.1154769615161E+01
 0.1123905371159E+01
 0.1098556839653E+01
 0.1081688473323E+01
 0.1077136302939E+01
 0.1089722410940E+01
 0.1125163698706E+01
 0.1189578262620E+01
 0.1288482899764E+01
 0.1425368988164E+01
 0.1600152419050E+01
 0.1807999690212E+01
 0.2039040821522E+01
 0.2279364994586E+01
 0.2513207092934E+01
 0.1298301567756E+01
 0.1344356123228E+01
 0.1390054781878E+01
 0.1433135314100E+01
 0.1471653165818E+01
 0.1504256069624E+01
 0.1530265488595E+01
 0.1549593978859E+01
 0.1562574781943E+01
 0.1569777697201E+01
 0.1571856742263E+01
 0.1569445496237E+01
 0.1563097130457E+01
 0.1553258229162E+01
 0.1540264871585E+01
 0.1524352003130E+01
 0.1505670297643E+01
 0.1484308220026E+01
 0.1460317004460E+01
 0.1433739726298E+01
 0.1404644730120E+01
 0.1373162114905E+01
 0.1339524470466E+01
 0.1304116619061E+01
 0.1267553359656E+01
 0.1230745043299E+01
 0.1194935729974E+01
 0.1161776054778E+01
 0.1133451791641E+01
 0.1112866356990E+01
 0.1103854542017E+01
 0.1111360292421E+01
 0.1141434704487E+01
 0.1200825150242E+01
 0.1295976506546E+01
 0.1431453602075E+01
 0.1608070383904E+01
 0.1821326381413E+01
 0.2060823059866E+01
 0.2311275249772E+01
 0.2555233413832E+01
 0.1332249048698E+01
 0.1380788514848E+01
 0.1428903049991E+01
 0.1474083455048E+01
 0.1514212466457E+01
 0.1547877889604E+01
 0.1574444995634E+01
 0.1593935983659E+01
 0.1606817251196E+01
 0.1613783940494E+01
 0.1615591214328E+01
 0.1612945092930E+01
 0.1606444787471E+01
 0.1596561408853E+01
 0.1583638957290E+01
 0.1567907465722E+01
 0.1549502239001E+01
 0.1528487089589E+01
 0.1504879697373E+01
 0.1478680688917E+01
 0.1449907030103E+01
 0.1418628605655E+01
 0.1385009057524E+01
 0.1349355979682E+01
 0.1312201462052E+01
 0.1274368488722E+01
 0.1237005987347E+01
 0.1201661310825E+01
 0.1170415373345E+01
 0.1146083019067E+01
 0.1132463264115E+01
 0.1134582943503E+01
 0.1158795658393E+01
 0.1212481567248E+01
 0.1303091355152E+01
 0.1436434938951E+01
 0.1614453660766E+01
 0.1833173508919E+01
 0.2081700965036E+01
 0.2343155555139E+01
 0.2598098887420E+01
 0.1366488710792E+01
 0.1417680728212E+01
 0.1468358197342E+01
 0.1515727587454E+01
 0.1557481947370E+01
 0.1592156523346E+01
 0.1619183817382E+01
 0.1638723093365E+01
 0.1651396552846E+01
 0.1658039147153E+01
 0.1659514044223E+01
 0.1656601274418E+01
 0.1649944795854E+01
 0.1640037905404E+01
 0.1627230215089E+01
 0.1611745055494E+01
 0.1593701181233E+01
 0.1573137027023E+01
 0.1550036178287E+01
 0.1524356154329E+01
 0.1496061495496E+01
 0.1465160228504E+01
 0.1431744597454E+01
 0.1396041401095E+01
 0.1358494938833E+01
 0.1319833515935E+01
 0.1281100150921E+01
 0.1243723164873E+01
 0.1209656342226E+01
 0.1181595663964E+01
 0.1163264907424E+01
 0.1159726369771E+01
 0.1177590823284E+01
 0.1224857081687E+01
 0.1310047627805E+01
 0.1440400606929E+01
 0.1619257334929E+01
 0.1843426820325E+01
 0.2101607524765E+01
 0.2375065533830E+01
 0.2641922983158E+01
 0.1401054625543E+01
 0.1455085477627E+01
 0.1508486072347E+01
 0.1558134048017E+01
 0.1601514850222E+01
 0.1637123260654E+01
 0.1664489093802E+01
 0.1683941314259E+01
 0.1696283052013E+01
 0.1702503687257E+01
 0.1703580135625E+01
 0.1700366540986E+01
 0.1693549039177E+01
 0.1683639891319E+01
 0.1670991541829E+01
 0.1655818707962E+01
 0.1638222562332E+01
 0.1618215782782E+01
 0.1595747798053E+01
 0.1570732918866E+01
 0.1543082819178E+01
 0.1512742682089E+01
 0.1479731647319E+01
 0.1444193009427E+01
 0.1406479142726E+01
 0.1367217284493E+01
 0.1327334443095E+01
 0.1288124248092E+01
 0.1251390154746E+01
 0.1219676503717E+01
 0.1196587518721E+01
 0.1187164784090E+01
 0.1198215883772E+01
 0.1238322421711E+01
 0.1317125623154E+01
 0.1443480695247E+01
 0.1622447801166E+01
 0.1851950428536E+01
 0.2120445885136E+01
 0.2407078708441E+01
 0.2686819011619E+01
 0.1435986504083E+01
 0.1493064226051E+01
 0.1549362683632E+01
 0.1601377590518E+01
 0.1646368528756E+01
 0.1682808542471E+01
 0.1710363208392E+01
 0.1729569758494E+01
 0.1741439678479E+01
 0.1747130966094E+01
 0.1747738317553E+01
 0.1744188210321E+01
 0.1737204885403E+01
 0.1727315376399E+01
 0.1714871701639E+01
 0.1700077964637E+01
 0.1683016925158E+01
 0.1663675533187E+01
 0.1641969543805E+01
 0.1617770581978E+01
 0.1590937682877E+01
 0.1561352920291E+01
 0.1528961446275E+01
 0.1493821329596E+01
 0.1456190041270E+01
 0.1416588592853E+01
 0.1375818969406E+01
 0.1335025035394E+01
 0.1295836314309E+01
 0.1260610703433E+01
 0.1232783984491E+01
 0.1217312024550E+01
 0.1221122726435E+01
 0.1253318805608E+01
 0.1324679283937E+01
 0.1445861974014E+01
 0.1624012531310E+01
 0.1858587831501E+01
 0.2138070393601E+01
 0.2439277446818E+01
 0.2732870242740E+01
 0.1471331007553E+01
 0.1531689144298E+01
 0.1591076237883E+01
 0.1645542597538E+01
 0.1692104371619E+01
 0.1729240837195E+01
 0.1756802218015E+01
 0.1775579174968E+01
 0.1786820850874E+01
 0.1791866795086E+01
 0.1791931081504E+01
 0.1788008400016E+01
 0.1780855303870E+01
 0.1771008373545E+01
 0.1758815477632E+01
 0.1744468062950E+01
 0.1728029906712E+01
 0.1709462735729E+01
 0.1688649731478E+01
 0.1665421050671E+01
 0.1639584048009E+01
 0.1610958197082E+01
 0.1579414668867E+01
 0.1544925688188E+01
 0.1507652206410E+01
 0.1468005407499E+01
 0.1426654788487E+01
 0.1384580557694E+01
 0.1343214998602E+01
 0.1304693440685E+01
 0.1272230319168E+01
 0.1250622166786E+01
 0.1246823837929E+01
 0.1270367877714E+01
 0.1333152101716E+01
 0.1447805868972E+01
 0.1623974010085E+01
 0.1863168850570E+01
 0.2154271843965E+01
 0.2471732448869E+01
 0.2780040118579E+01
 0.1507143436251E+01
 0.1571045538458E+01
 0.1633729653369E+01
 0.1690724380327E+01
 0.1738787436511E+01
 0.1776445048089E+01
 0.1803793865522E+01
 0.1821930235242E+01
 0.1832371330389E+01
 0.1836648812237E+01
 0.1836094429810E+01
 0.1831764143553E+01
 0.1824439118335E+01
 0.1814659196338E+01
 0.1802763950297E+01
 0.1788930148542E+01
 0.1773202345608E+01
 0.1755518097351E+01
 0.1735729804716E+01
 0.1713628143066E+01
 0.1688970538704E+01
 0.1661515196097E+01
 0.1631060250897E+01
 0.1597492663684E+01
 0.1560876802089E+01
 0.1521512302687E+01
 0.1479930751969E+01
 0.1436936679073E+01
 0.1393742990790E+01
 0.1352226000216E+01
 0.1315322818782E+01
 0.1287589035537E+01
 0.1275896014786E+01
 0.1290081886635E+01
 0.1343095551839E+01
 0.1449671056018E+01
 0.1622407408926E+01
 0.1865526569606E+01
 0.2168758370539E+01
 0.2504586376209E+01
 0.2827613878128E+01
 0.1543491078766E+01
 0.1611240038048E+01
 0.1677452443004E+01
 0.1737043527952E+01
 0.1786502808951E+01
 0.1824461321630E+01
 0.1851339602211E+01
 0.1868599230931E+01
 0.1878055651193E+01
 0.1881439485243E+01
 0.1880194283854E+01
 0.1875427142049E+01
 0.1867934171475E+01
 0.1858251218165E+01
 0.1846705117994E+01
 0.1833456085111E+01
 0.1818529653641E+01
 0.1801840911989E+01
 0.1783214062306E+01
 0.1762403131318E+01
 0.1739118196727E+01
 0.1713058320342E+01
 0.1683950409434E+01
 0.1651597853380E+01
 0.1615969886853E+01
 0.1577254806627E+01
 0.1535843045761E+01
 0.1492353531094E+01
 0.1447759154126E+01
 0.1403640806091E+01
 0.1362599451612E+01
 0.1328859973244E+01
 0.1309081809118E+01
 0.1313248696294E+01
 0.1355233904779E+01
 0.1451958240687E+01
 0.1619457029653E+01
 0.1865506612675E+01
 0.2181314225798E+01
 0.2537434891579E+01
 0.2879601716348E+01
 0.1580452271731E+01
 0.1652394531715E+01
 0.1722386296766E+01
 0.1784621028984E+01
 0.1835319709210E+01
 0.1873299849679E+01
 0.1899402246912E+01
 0.1915520104139E+01
 0.1923795128744E+01
 0.1926158067443E+01
 0.1924153036142E+01
 0.1918924425163E+01
 0.1911271540073E+01
 0.1901718031447E+01
 0.1890573329153E+01
 0.1877979423571E+01
 0.1863943524954E+01
 0.1848360669734E+01
 0.1831030318100E+01
 0.1811673641925E+01
 0.1789956907912E+01
 0.1765523083735E+01
 0.1738030652674E+01
 0.1707202443126E+01
 0.1672915873433E+01
 0.1635250611365E+01
 0.1594455753186E+01
 0.1550958097813E+01
 0.1505473234251E+01
 0.1459252754575E+01
 0.1414502772760E+01
 0.1375022426904E+01
 0.1347114605670E+01
 0.1340710707403E+01
 0.1370409543382E+01
 0.1455310214935E+01
 0.1615371938776E+01
 0.1862908677432E+01
 0.2191763400511E+01
 0.2569565235513E+01
 0.2940699727679E+01
 0.1618123112065E+01
 0.1694652964170E+01
 0.1768691601914E+01
 0.1833580943038E+01
 0.1885290266061E+01
 0.1922937684845E+01
 0.1947902956343E+01
 0.1962582622912E+01
 0.1969467307166E+01
 0.1970680930772E+01
 0.1967850335903E+01
 0.1962139266839E+01
 0.1954336376443E+01
 0.1944944088073E+01
 0.1934249631718E+01
 0.1922375376848E+01
 0.1909311440409E+01
 0.1894935974987E+01
 0.1879028100364E+01
 0.1861280997740E+01
 0.1841321748717E+01
 0.1818741318426E+01
 0.1793133677703E+01
 0.1764145579768E+01
 0.1731568107721E+01
 0.1695378046931E+01
 0.1655686912065E+01
 0.1612727632487E+01
 0.1566946689612E+01
 0.1519238143683E+01
 0.1471358806641E+01
 0.1426586463781E+01
 0.1390710737972E+01
 0.1373375939191E+01
 0.1389623680595E+01
 0.1460595545870E+01
 0.1610586138643E+01
 0.1857668078927E+01
 0.2199544968671E+01
 0.2602279987013E+01
 0.3004689038695E+01
 0.1656622015734E+01
 0.1738196212857E+01
 0.1816567836944E+01
 0.1884074038048E+01
 0.1936476970294E+01
 0.1973352704774E+01
 0.1996763701974E+01
 0.2009683717236E+01
 0.2014965457091E+01
 0.2014908373494E+01
 0.2011196672698E+01
 0.2004991412325E+01
 0.1997054967860E+01
 0.1987859002083E+01
 0.1977663876614E+01
 0.1966571377221E+01
 0.1954556390485E+01
 0.1941484175371E+01
 0.1927118927999E+01
 0.1911131849748E+01
 0.1893116596138E+01
 0.1872617213585E+01
 0.1849167999683E+01
 0.1822345332572E+01
 0.1791861358193E+01
 0.1757598592242E+01
 0.1719538608657E+01
 0.1677723672555E+01
 0.1632325453002E+01
 0.1583859330396E+01
 0.1533585212243E+01
 0.1484167058843E+01
 0.1440716637126E+01
 0.1412322832546E+01
 0.1414100946852E+01
 0.1468938092873E+01
 0.1605754462480E+01
 0.1849733950096E+01
 0.2204390385062E+01
 0.2635304588219E+01
 0.3072369624081E+01
 0.1696096025782E+01
 0.1783247097308E+01
 0.1866252338959E+01
 0.1936265390213E+01
 0.1988930425076E+01
 0.2024496151809E+01
 0.2045878076948E+01
 0.2056697561095E+01
 0.2060167452923E+01
 0.2058731476304E+01
 0.2054097565601E+01
 0.2047398169973E+01
 0.2039352421631E+01
 0.2030391556144E+01
 0.2020744762826E+01
 0.2010492842629E+01
 0.1999598002956E+01
 0.1987917455762E+01
 0.1975206967393E+01
 0.1961123030710E+01
 0.1945232900661E+01
 0.1927039850567E+01
 0.1906024217933E+01
 0.1881698785640E+01
 0.1853705975251E+01
 0.1821845534273E+01
 0.1785980832272E+01
 0.1745972159802E+01
 0.1701717962514E+01
 0.1653343267554E+01
 0.1601574528008E+01
 0.1548378831054E+01
 0.1498025130824E+01
 0.1458751502129E+01
 0.1445289533790E+01
 0.1481781882769E+01
 0.1601832916360E+01
 0.1839205778142E+01
 0.2205859019180E+01
 0.2668199335285E+01
 0.3144480929212E+01
 0.1736729929185E+01
 0.1830082798477E+01
 0.1918027932608E+01
 0.1990331707079E+01
 0.2042679714390E+01
 0.2076282719959E+01
 0.2095104899276E+01
 0.2103472889738E+01
 0.2104935466009E+01
 0.2102032898441E+01
 0.2096454712012E+01
 0.2089275574577E+01
 0.2081153726220E+01
 0.2072470640504E+01
 0.2063420665203E+01
 0.2054063900563E+01
 0.2044353146549E+01
 0.2034143273278E+01
 0.2023189226808E+01
 0.2011141442873E+01
 0.1997549241519E+01
 0.1981882445369E+01
 0.1963573968100E+01
 0.1942080662882E+01
 0.1916986046595E+01
 0.1888021369044E+01
 0.1854947646798E+01
 0.1817457665009E+01
 0.1775186470000E+01
 0.1727868812433E+01
 0.1675676796789E+01
 0.1619814890288E+01
 0.1563554967160E+01
 0.1513973365704E+01
 0.1484877765912E+01
 0.1500954321670E+01
 0.1600199229447E+01
 0.1826397453439E+01
 0.2203337766851E+01
 0.2700460690680E+01
 0.3221848749959E+01
 0.1778759111733E+01
 0.1879051664127E+01
 0.1972231564284E+01
 0.2046455165149E+01
 0.2097718201531E+01
 0.2128577947653E+01
 0.2144261273857E+01
 0.2149830863158E+01
 0.2149116398791E+01
 0.2144688258231E+01
 0.2138167525505E+01
 0.2130539796215E+01
 0.2122384970278E+01
 0.2114026304786E+01
 0.2105620560113E+01
 0.2097208215355E+01
 0.2088736654381E+01
 0.2080064926034E+01
 0.2070955880356E+01
 0.2061064044654E+01
 0.2049930935916E+01
 0.2037001616162E+01
 0.2021668914874E+01
 0.2003342060939E+01
 0.1981557765988E+01
 0.1955995528101E+01
 0.1926333753270E+01
 0.1892117937948E+01
 0.1852738331555E+01
 0.1807553133270E+01
 0.1756179444937E+01
 0.1699019774252E+01
 0.1638220294611E+01
 0.1579388221228E+01
 0.1534799375590E+01
 0.1528733369151E+01
 0.1602801204686E+01
 0.1811966397304E+01
 0.2196109596890E+01
 0.2731452209697E+01
 0.3305453887329E+01
 0.1822488040517E+01
 0.1930596236065E+01
 0.2029263367411E+01
 0.2104811343371E+01
 0.2153982985000E+01
 0.2181182680624E+01
 0.2193115660575E+01
 0.2195564009957E+01
 0.2192543349697E+01
 0.2186568214587E+01
 0.2179135100339E+01
 0.2171108802468E+01
 0.2162974718310E+01
 0.2154990920915E+01
 0.2147275051094E+01
 0.2139849928347E+01
 0.2132662187983E+01
 0.2125582290233E+01
 0.2118390766008E+01
 0.2110757977767E+01
 0.2102229725536E+01
 0.2092236677350E+01
 0.2080139779225E+01
 0.2065309303562E+01
 0.2047248078602E+01
 0.2025602568320E+01
 0.1999991674131E+01
 0.1969839126948E+01
 0.1934317768662E+01
 0.1892437853544E+01
 0.1843285073579E+01
 0.1786456529945E+01
 0.1722888235256E+01
 0.1656443241724E+01
 0.1597220407284E+01
 0.1567908955911E+01
 0.1612339648463E+01
 0.1797142921686E+01
 0.2183428607697E+01
 0.2760320099356E+01
 0.3396494787832E+01
 0.1868317452025E+01
 0.1985285118382E+01
 0.2089594656070E+01
 0.2165547314713E+01
 0.2211325781777E+01
 0.2233814783961E+01
 0.2241381933067E+01
 0.2240436942073E+01
 0.2235038392856E+01
 0.2227541326710E+01
 0.2219258605284E+01
 0.2210904252878E+01
 0.2202855516311E+01
 0.2195300431509E+01
 0.2188317472384E+01
 0.2181914695166E+01
 0.2176043237420E+01
 0.2170592737372E+01
 0.2165372083286E+01
 0.2160080857384E+01
 0.2154283534807E+01
 0.2147408914289E+01
 0.2138795329214E+01
 0.2127782858309E+01
 0.2113853598074E+01
 0.2096640906643E+01
 0.2075729744612E+01
 0.2050451979370E+01
 0.2019798593488E+01
 0.1982475690079E+01
 0.1937088171621E+01
 0.1882468765051E+01
 0.1818323407996E+01
 0.1746567691230E+01
 0.1674495896262E+01
 0.1621824687521E+01
 0.1632486822435E+01
 0.1784080459802E+01
 0.2164658163105E+01
 0.2785881367661E+01
 0.3496463586750E+01
 0.1916785393969E+01
 0.2043857430811E+01
 0.2153771396298E+01
 0.2228743581055E+01
 0.2269472738612E+01
 0.2286089186083E+01
 0.2288716035547E+01
 0.2284189659519E+01
 0.2276416914187E+01
 0.2267477727271E+01
 0.2258444086400E+01
 0.2249853592746E+01
 0.2241965495805E+01
 0.2234895656826E+01
 0.2228685048461E+01
 0.2223330805201E+01
 0.2218794255564E+01
 0.2214992251890E+01
 0.2211773335522E+01
 0.2208881275046E+01
 0.2205916316269E+01
 0.2202320792654E+01
 0.2197421241394E+01
 0.2190536227484E+01
 0.2181139774776E+01
 0.2168872189884E+01
 0.2153311122997E+01
 0.2133729367663E+01
 0.2108978451570E+01
 0.2077518507305E+01
 0.2037552207134E+01
 0.1987239549631E+01
 0.1925120104052E+01
 0.1851077713340E+01
 0.1769079113771E+01
 0.1694377870940E+01
 0.1668123595876E+01
 0.1776369998778E+01
 0.2139551545271E+01
 0.2806481349412E+01
 0.3607254825621E+01
 0.1968631007733E+01
 0.2107285071442E+01
 0.2222405681002E+01
 0.2294349899625E+01
 0.2327971069858E+01
 0.2337499042293E+01
 0.2334717588822E+01
 0.2326544261363E+01
 0.2316493638928E+01
 0.2306253594525E+01
 0.2296605638680E+01
 0.2287892308752E+01
 0.2280250049618E+01
 0.2273723643247E+01
 0.2268320100030E+01
 0.2264030381492E+01
 0.2260831939331E+01
 0.2258676791751E+01
 0.2257464600739E+01
 0.2256999620940E+01
 0.2256938053691E+01
 0.2256755083775E+01
 0.2255778733350E+01
 0.2253314707705E+01
 0.2248840299924E+01
 0.2242021434971E+01
 0.2232454103164E+01
 0.2219385554103E+01
 0.2201575201677E+01
 0.2177307865040E+01
 0.2144488984427E+01
 0.2100750200481E+01
 0.2043625680251E+01
 0.1971048950310E+01
 0.1883361945086E+01
 0.1789939180429E+01
 0.1725559072044E+01
 0.1779763247051E+01
 0.2108816906480E+01
 0.2819828071659E+01
 0.3731327399491E+01
 0.2024896965926E+01
 0.2176859616745E+01
 0.2296139430358E+01
 0.2362079800139E+01
 0.2386122584349E+01
 0.2387403676046E+01
 0.2378939388672E+01
 0.2367215579860E+01
 0.2355090293407E+01
 0.2343756327782E+01
 0.2333668853695E+01
 0.2324966273205E+01
 0.2317663525248E+01
 0.2311739010534E+01
 0.2307171259888E+01
 0.2303950628453E+01
 0.2302076634650E+01
 0.2301543899062E+01
 0.2302314196519E+01
 0.2304269339041E+01
 0.2307145000177E+01
 0.2310473845721E+01
 0.2313602759385E+01
 0.2315833770922E+01
 0.2316656612425E+01
 0.2315778008904E+01
 0.2312833972774E+01
 0.2307077536946E+01
 0.2297225918930E+01
 0.2281469029011E+01
 0.2257542302560E+01
 0.2222742751383E+01
 0.2173861814958E+01
 0.2107162334944E+01
 0.2019426193943E+01
 0.1913127414540E+01
 0.1812662445120E+01
 0.1803122312715E+01
 0.2075218959974E+01
 0.2822852782184E+01
 0.3871957234260E+01
 0.2087100283378E+01
 0.2254311263913E+01
 0.2375547351649E+01
 0.2431242089420E+01
 0.2442910520908E+01
 0.2435033201547E+01
 0.2420907583291E+01
 0.2405925596211E+01
 0.2392044677001E+01
 0.2379890271597E+01
 0.2369574417880E+01
 0.2361034098997E+01
 0.2354170886384E+01
 0.2348905264017E+01
 0.2345194672833E+01
 0.2343035104174E+01
 0.2342453846523E+01
 0.2343494571578E+01
 0.2346190832536E+01
 0.2350518809802E+01
 0.2356320335781E+01
 0.2363217250089E+01
 0.2370599508445E+01
 0.2377776717725E+01
 0.2384257325573E+01
 0.2389797567509E+01
 0.2394086765441E+01
 0.2396408891222E+01
 0.2395488962227E+01
 0.2389509288413E+01
 0.2376178094502E+01
 0.2352690538534E+01
 0.2315452624357E+01
 0.2259539943399E+01
 0.2178702267481E+01
 0.2068344715845E+01
 0.1938767284512E+01
 0.1859537728485E+01
 0.2045642753457E+01
 0.2811770695683E+01
 0.4033660382205E+01
 0.2157529765795E+01
 0.2341962407438E+01
 0.2460910309998E+01
 0.2500483073763E+01
 0.2496941330325E+01
 0.2479524281321E+01
 0.2460153187635E+01
 0.2442420622173E+01
 0.2427220848659E+01
 0.2414582728792E+01
 0.2404281689444E+01
 0.2396069410181E+01
 0.2389749278923E+01
 0.2385196026967E+01
 0.2382355141926E+01
 0.2381234978576E+01
 0.2381895809437E+01
 0.2384435364764E+01
 0.2388966319723E+01
 0.2395574111923E+01
 0.2404235554325E+01
 0.2414702292282E+01
 0.2426442803021E+01
 0.2438791010842E+01
 0.2451277230208E+01
 0.2463705067562E+01
 0.2475815326256E+01
 0.2486936526265E+01
 0.2495849373309E+01
 0.2500820969586E+01
 0.2499682888341E+01
 0.2489781818161E+01
 0.2467568753539E+01
 0.2427597660202E+01
 0.2361574060472E+01
 0.2258973556010E+01
 0.2114058885039E+01
 0.1967408666388E+01
 0.2034740496669E+01
 0.2782864141622E+01
 0.4222979718371E+01
 0.2239791197614E+01
 0.2442892850109E+01
 0.2551715107348E+01
 0.2567423989294E+01
 0.2546454670794E+01
 0.2520001241593E+01
 0.2496250310112E+01
 0.2476490074103E+01
 0.2460520100762E+01
 0.2447789824814E+01
 0.2437772073207E+01
 0.2430062914737E+01
 0.2424389426285E+01
 0.2420596139654E+01
 0.2418627172341E+01
 0.2418510224765E+01
 0.2420343048252E+01
 0.2424280637210E+01
 0.2430518839349E+01
 0.2439262968732E+01
 0.2450653112312E+01
 0.2464621569122E+01
 0.2480768804713E+01
 0.2498482304148E+01
 0.2517315299375E+01
 0.2537098999048E+01
 0.2557598250109E+01
 0.2578180841748E+01
 0.2597727681716E+01
 0.2614688928047E+01
 0.2627171274316E+01
 0.2632921913870E+01
 0.2628896357485E+01
 0.2609937825106E+01
 0.2567031999760E+01
 0.2486239180140E+01
 0.2347895235681E+01
 0.2150972154431E+01
 0.2070782355471E+01
 0.2735455017431E+01
 0.4450164117535E+01
 0.2339870889455E+01
 0.2560991544863E+01
 0.2645581981887E+01
 0.2628251114118E+01
 0.2589507305761E+01
 0.2555696797242E+01
 0.2528850604849E+01
 0.2507987665657E+01
 0.2491891678351E+01
 0.2479501753733E+01
 0.2470052058965E+01
 0.2463024154783E+01
 0.2458096804933E+01
 0.2455102589942E+01
 0.2453995885919E+01
 0.2454830711915E+01
 0.2457745878567E+01
 0.2462954829888E+01
 0.2470736681620E+01
 0.2481420231430E+01
 0.2495331305883E+01
 0.2512642740269E+01
 0.2533168235258E+01
 0.2556404589521E+01
 0.2581930881922E+01
 0.2609557226091E+01
 0.2639002596040E+01
 0.2669640088839E+01
 0.2700492142879E+01
 0.2730301854612E+01
 0.2757601421545E+01
 0.2780757829747E+01
 0.2797646741578E+01
 0.2804282771934E+01
 0.2792498443093E+01
 0.2748073936923E+01
 0.2645324004700E+01
 0.2438836893882E+01
 0.2203653077186E+01
 0.2681016108905E+01
 0.4733387185872E+01
 0.2468381821757E+01
 0.2700372762306E+01
 0.2736034362727E+01
 0.2677601237906E+01
 0.2624467541497E+01
 0.2586041842829E+01
 0.2557714316843E+01
 0.2536856496482E+01
 0.2521340393352E+01
 0.2509747641853E+01
 0.2501155551238E+01
 0.2494982856540E+01
 0.2490892532477E+01
 0.2488725230803E+01
 0.2488457767626E+01
 0.2490177149567E+01
 0.2494065778674E+01
 0.2500394626732E+01
 0.2509522123826E+01
 0.2521895030605E+01
 0.2538032911956E+01
 0.2558410176448E+01
 0.2583174935084E+01
 0.2612043614329E+01
 0.2644636807963E+01
 0.2680645200676E+01
 0.2719601585064E+01
 0.2760809943256E+01
 0.2803474694838E+01
 0.2846765166037E+01
 0.2889797417256E+01
 0.2931720783206E+01
 0.2971632713740E+01
 0.3007457511648E+01
 0.3033781463074E+01
 0.3038842161266E+01
 0.3001850868236E+01
 0.2856305068084E+01
 0.2513277734874E+01
 0.2668247554004E+01
 0.5111191421881E+01
 0.2645844144387E+01
 0.2861968105003E+01
 0.2808276701843E+01
 0.2709980851444E+01
 0.2650676465779E+01
 0.2610596752020E+01
 0.2582791088008E+01
 0.2563138143904E+01
 0.2548934154604E+01
 0.2538599067159E+01
 0.2531145301132E+01
 0.2525989840461E+01
 0.2522813903145E+01
 0.2521487270109E+01
 0.2522021223902E+01
 0.2524541856557E+01
 0.2529276574848E+01
 0.2536550915174E+01
 0.2546794928056E+01
 0.2560558992877E+01
 0.2578539828958E+01
 0.2601552577807E+01
 0.2630249128191E+01
 0.2664788175642E+01
 0.2704887746967E+01
 0.2749928353770E+01
 0.2798999057873E+01
 0.2851209365115E+01
 0.2905992146830E+01
 0.2963112550552E+01
 0.3022471922902E+01
 0.3084090196847E+01
 0.3148385956362E+01
 0.3215590705991E+01
 0.3284774083467E+01
 0.3350520059857E+01
 0.3400372584926E+01
 0.3402966657996E+01
 0.3111345886191E+01
 0.2842959037473E+01
 0.5687179786468E+01
 0.2917180213831E+01
 0.3026928536933E+01
 0.2834803114009E+01
 0.2725515754604E+01
 0.2667590650830E+01
 0.2629269801632E+01
 0.2604259335494E+01
 0.2586969931009E+01
 0.2574813834489E+01
 0.2566169798801E+01
 0.2560114089474E+01
 0.2556117123089E+01
 0.2553914594466E+01
 0.2553425459349E+01
 0.2554706910816E+01
 0.2557929299951E+01
 0.2563365326526E+01
 0.2571390427170E+01
 0.2582495168045E+01
 0.2597313085555E+01
 0.2616675347081E+01
 0.2641706290669E+01
 0.2673753161037E+01
 0.2713877479644E+01
 0.2762062590988E+01
 0.2816992337320E+01
 0.2876862681941E+01
 0.2940413659520E+01
 0.3007373635248E+01
 0.3078319619614E+01
 0.3154223365709E+01
 0.3236096591734E+01
 0.3325287184965E+01
 0.3424502329375E+01
 0.3537649010149E+01
 0.3671676281477E+01
 0.3821698601610E+01
 0.4013769888331E+01
 0.4097635593219E+01
 0.3543946707791E+01
 0.6824725877400E+01
 0.3402103891560E+01
 0.3065918332143E+01
 0.2809544119932E+01
 0.2728248094151E+01
 0.2674052664891E+01
 0.2642898219983E+01
 0.2622351990275E+01
 0.2608644709535E+01
 0.2599178535570E+01
 0.2592619567407E+01
 0.2588183241494E+01
 0.2585457791421E+01
 0.2584264348021E+01
 0.2584590009281E+01
 0.2586547790051E+01
 0.2590356400652E+01
 0.2596332852687E+01
 0.2604896829461E+01
 0.2616585657350E+01
 0.2632090892896E+01
 0.2652325533959E+01
 0.2678582417498E+01
 0.2712918546939E+01
 0.2758292864375E+01
 0.2815448551726E+01
 0.2881475756715E+01
 0.2952968807375E+01
 0.3028095402257E+01
 0.3106995025301E+01
 0.3191325707546E+01
 0.3283507634184E+01
 0.3385932204911E+01
 0.3500067575435E+01
 0.3629391820525E+01
 0.3785393334127E+01
 0.3982943211629E+01
 0.4254658575248E+01
 0.4590697583646E+01
 0.5314396791896E+01
 0.5306553171562E+01
 0.1031815590525E+02
 0.1724641794294E+00
 0.2226879010081E+00
 0.2738421809281E+00
 0.3237682591521E+00
 0.3711998263883E+00
 0.4151069993917E+00
 0.4548788629014E+00
 0.4903191957918E+00
 0.5214262036461E+00
 0.5482883526369E+00
 0.5710699585175E+00
 0.5899778832985E+00
 0.6051890242204E+00
 0.6167946875382E+00
 0.6248060682496E+00
 0.6291794794530E+00
 0.6296777091436E+00
 0.6262537941740E+00
 0.6198044297298E+00
 0.6116019670262E+00
 0.1728759139610E+00
 0.2277906083820E+00
 0.2826471664198E+00
 0.3358329090537E+00
 0.3861363299210E+00
 0.4327182679604E+00
 0.4750865229287E+00
 0.5130240517094E+00
 0.5464926612295E+00
 0.5755753218520E+00
 0.6004379463793E+00
 0.6212956996312E+00
 0.6383480707482E+00
 0.6517319360891E+00
 0.6615221518424E+00
 0.6677049988993E+00
 0.6700048005269E+00
 0.6683061777441E+00
 0.6619323815398E+00
 0.6497089374374E+00
 0.1729770500752E+00
 0.2329579681953E+00
 0.2916824655441E+00
 0.3481444751899E+00
 0.4013704991792E+00
 0.4506567143224E+00
 0.4955921838380E+00
 0.5359843665545E+00
 0.5717919566402E+00
 0.6030943874309E+00
 0.6300620877409E+00
 0.6529189912005E+00
 0.6718832920969E+00
 0.6871203207457E+00
 0.6987204518167E+00
 0.7066376120693E+00
 0.7105720382581E+00
 0.7100540603010E+00
 0.7041864036288E+00
 0.6929918964185E+00
 0.1730523395779E+00
 0.2380564437533E+00
 0.3008220551882E+00
 0.3606439899489E+00
 0.4168303875653E+00
 0.4688335129162E+00
 0.5163232360917E+00
 0.5591448420003E+00
 0.5972726816431E+00
 0.6307927376679E+00
 0.6598816854511E+00
 0.6847712893967E+00
 0.7056910153420E+00
 0.7228158707005E+00
 0.7362259998781E+00
 0.7458421544896E+00
 0.7513122746675E+00
 0.7521233632186E+00
 0.7477847839942E+00
 0.7386829635355E+00
 0.1731736711174E+00
 0.2431480521733E+00
 0.3100083241505E+00
 0.3732625534132E+00
 0.4324458019816E+00
 0.4871744809300E+00
 0.5372088198962E+00
 0.5824420602274E+00
 0.6228748536963E+00
 0.6586073962133E+00
 0.6898251643432E+00
 0.7167658755216E+00
 0.7396633812029E+00
 0.7586914181061E+00
 0.7739167544810E+00
 0.7852387701064E+00
 0.7923327430886E+00
 0.7948258937805E+00
 0.7925227647786E+00
 0.7859368296666E+00
 0.1733866155919E+00
 0.2482591362591E+00
 0.3192244613343E+00
 0.3859452492935E+00
 0.4481509599988E+00
 0.5056103764268E+00
 0.5581800315152E+00
 0.6058091642370E+00
 0.6485319306786E+00
 0.6864679963215E+00
 0.7198136451717E+00
 0.7488113722840E+00
 0.7736957405007E+00
 0.7946372459529E+00
 0.8116967077936E+00
 0.8247848950863E+00
 0.8336595518198E+00
 0.8381015123823E+00
 0.8381180521561E+00
 0.8342528158230E+00
 0.1737216361348E+00
 0.2534075388894E+00
 0.3284562239787E+00
 0.3986500849884E+00
 0.4638868128287E+00
 0.5240756483655E+00
 0.5791691404626E+00
 0.6291774746500E+00
 0.6741732010528E+00
 0.7142990911242E+00
 0.7497639094231E+00
 0.7808150084059E+00
 0.8076876726782E+00
 0.8305527309750E+00
 0.8494788365907E+00
 0.8644137157614E+00
 0.8752109593266E+00
 0.8817869309669E+00
 0.8842837241892E+00
 0.8832527882086E+00
 0.1742019486599E+00
 0.2586032471270E+00
 0.3376899692264E+00
 0.4113402331970E+00
 0.4796003845909E+00
 0.5425083277594E+00
 0.6001097385677E+00
 0.6524775342210E+00
 0.6997255820446E+00
 0.7420222748576E+00
 0.7795904981235E+00
 0.8126838250512E+00
 0.8415407791427E+00
 0.8663388738656E+00
 0.8871667953692E+00
 0.9040216179213E+00
 0.9168496051218E+00
 0.9256778904504E+00
 0.9307422851175E+00
 0.9325992813877E+00
 0.1748463291212E+00
 0.2638514591941E+00
 0.3469111492898E+00
 0.4239818269681E+00
 0.4952428143351E+00
 0.5608498151909E+00
 0.6209371303243E+00
 0.6756400609506E+00
 0.7251150530693E+00
 0.7695577968710E+00
 0.8092069881027E+00
 0.8443246338823E+00
 0.8751562266443E+00
 0.9018922553377E+00
 0.9246493997912E+00
 0.9434780816584E+00
 0.9584075967675E+00
 0.9695540165948E+00
 0.9772201346162E+00
 0.9819672092214E+00
 0.1756706867255E+00
 0.2691541071818E+00
 0.3561043715934E+00
 0.4365427433096E+00
 0.5107683278149E+00
 0.5790444528782E+00
 0.6415886332779E+00
 0.6985966997076E+00
 0.7502677003061E+00
 0.7968256167887E+00
 0.8385265865119E+00
 0.8756435819762E+00
 0.9084328579589E+00
 0.9371027883835E+00
 0.9618023227661E+00
 0.9826344665422E+00
 0.9997005947284E+00
 0.1013187672977E+01
 0.1023446369969E+01
 0.1031039872798E+01
 0.1766889433404E+00
 0.2745109618835E+00
 0.3652536859966E+00
 0.4489922287273E+00
 0.5261337170018E+00
 0.5970393621499E+00
 0.6620038692612E+00
 0.7212806931901E+00
 0.7751105747678E+00
 0.8237462019902E+00
 0.8674625620159E+00
 0.9065459783395E+00
 0.9412666757086E+00
 0.9718542225398E+00
 0.9984914567404E+00
 0.1021330879798E+01
 0.1040535539230E+01
 0.1056348767051E+01
 0.1069154432900E+01
 0.1079511572928E+01
 0.1779135886975E+00
 0.2799203993917E+00
 0.3743429725130E+00
 0.4613008600986E+00
 0.5412981678283E+00
 0.6147844261487E+00
 0.6821250399245E+00
 0.7436274115574E+00
 0.7995723464338E+00
 0.8502411281753E+00
 0.8959286392342E+00
 0.9369365066462E+00
 0.9735513147062E+00
 0.1006025727228E+01
 0.1034576360930E+01
 0.1059401126052E+01
 0.1080715516679E+01
 0.1098807693203E+01
 0.1114083675489E+01
 0.1127089328402E+01
 0.1793560392558E+00
 0.2853799786959E+00
 0.3833563470867E+00
 0.4734407069090E+00
 0.5562233155217E+00
 0.6322324234183E+00
 0.7018972391575E+00
 0.7655748389426E+00
 0.8235838859267E+00
 0.8762336604006E+00
 0.9238395441806E+00
 0.9667198678884E+00
 0.1005179143096E+01
 0.1039493927194E+01
 0.1069913435609E+01
 0.1096676590136E+01
 0.1120043351583E+01
 0.1140337568883E+01
 0.1157979232284E+01
 0.1173493098378E+01
 0.1810268986978E+00
 0.2908869098845E+00
 0.3922785813115E+00
 0.4853856174262E+00
 0.5708734588358E+00
 0.6493392787902E+00
 0.7212688127495E+00
 0.7870640497880E+00
 0.8470788227131E+00
 0.9016493601945E+00
 0.9511116903513E+00
 0.9958016886731E+00
 0.1036042642805E+01
 0.1072134989619E+01
 0.1104358729726E+01
 0.1132989421864E+01
 0.1158324608907E+01
 0.1180716445713E+01
 0.1200592787600E+01
 0.1218453527655E+01
 0.1829361446822E+00
 0.2964384354788E+00
 0.4010954980803E+00
 0.4971115450209E+00
 0.5852158374674E+00
 0.6660643558843E+00
 0.7401917166962E+00
 0.8080396501032E+00
 0.8699940658261E+00
 0.9264166936435E+00
 0.9776639301012E+00
 0.1024089537544E+01
 0.1066035849468E+01
 0.1103826598201E+01
 0.1137770407269E+01
 0.1168175276970E+01
 0.1195370364303E+01
 0.1219730064623E+01
 0.1241685754830E+01
 0.1261712372175E+01
 0.1850932797290E+00
 0.3020321744845E+00
 0.4097943753138E+00
 0.5085969316142E+00
 0.5992209908759E+00
 0.6823708257462E+00
 0.7586219308156E+00
 0.8284502570309E+00
 0.8922703641033E+00
 0.9504677001741E+00
 0.1003418391782E+01
 0.1051494023203E+01
 0.1095055809362E+01
 0.1134449818171E+01
 0.1170010975504E+01
 0.1202075789116E+01
 0.1230999858909E+01
 0.1257174886818E+01
 0.1281032906255E+01
 0.1303025846815E+01
 0.1875074552185E+00
 0.3076664323177E+00
 0.4183643383953E+00
 0.5198231060739E+00
 0.6128631452423E+00
 0.6982260591627E+00
 0.7765198816590E+00
 0.8482489750595E+00
 0.9138528597544E+00
 0.9737386590938E+00
 0.1028301313919E+01
 0.1077929864647E+01
 0.1123003945694E+01
 0.1163890780067E+01
 0.1200949251303E+01
 0.1234540754192E+01
 0.1265042893773E+01
 0.1292860760539E+01
 0.1318425328400E+01
 0.1342168273924E+01
 0.1901875754622E+00
 0.3133404918253E+00
 0.4267967476428E+00
 0.5307746958579E+00
 0.6261206233330E+00
 0.7136020397414E+00
 0.7938508764330E+00
 0.8673938724482E+00
 0.9346916339069E+00
 0.9961707399471E+00
 0.1052243846461E+01
 0.1103316892787E+01
 0.1149787297947E+01
 0.1192042164457E+01
 0.1230462062453E+01
 0.1265430000869E+01
 0.1297341832083E+01
 0.1326613012001E+01
 0.1353672622648E+01
 0.1378935037135E+01
 0.1931423983325E+00
 0.3190549007127E+00
 0.4350855929261E+00
 0.5414400586312E+00
 0.6389762816575E+00
 0.7284758032700E+00
 0.8105855560057E+00
 0.8858484667778E+00
 0.9547422499207E+00
 0.1017710635612E+01
 0.1075182810763E+01
 0.1127580972841E+01
 0.1175319629757E+01
 0.1218804494967E+01
 0.1258435697266E+01
 0.1294614945347E+01
 0.1327753195430E+01
 0.1358274013349E+01
 0.1386604467737E+01
 0.1413144675560E+01
 0.1963806261552E+00
 0.3248117502470E+00
 0.4432278818245E+00
 0.5518117121276E+00
 0.6514179472829E+00
 0.7428298727078E+00
 0.8267003348337E+00
 0.9035821854765E+00
 0.9739662566837E+00
 0.1038311135501E+01
 0.1097061371835E+01
 0.1150654801066E+01
 0.1199522364088E+01
 0.1244087206476E+01
 0.1284767075527E+01
 0.1321979808615E+01
 0.1356148854792E+01
 0.1387704289201E+01
 0.1417071653891E+01
 0.1444640175345E+01
 0.1999109993781E+00
 0.3306149606272E+00
 0.4512240374564E+00
 0.5618867775989E+00
 0.6634388688788E+00
 0.7566527031784E+00
 0.8421778419958E+00
 0.9205708143925E+00
 0.9923316624475E+00
 0.1057931646053E+01
 0.1117829627200E+01
 0.1172478579375E+01
 0.1222325351112E+01
 0.1267809497959E+01
 0.1309364656254E+01
 0.1347422524423E+01
 0.1382416862174E+01
 0.1414783209987E+01
 0.1444946679377E+01
 0.1473289441257E+01
 0.2037423943919E+00
 0.3364705733499E+00
 0.4590783030047E+00
 0.5716674296111E+00
 0.6750381710635E+00
 0.7699391234622E+00
 0.8570073480501E+00
 0.9367969175598E+00
 0.1009813360747E+01
 0.1076538638699E+01
 0.1137445092145E+01
 0.1193000548918E+01
 0.1243667453327E+01
 0.1289900960450E+01
 0.1332149083377E+01
 0.1370855355024E+01
 0.1406461963491E+01
 0.1439409276721E+01
 0.1470123674544E+01
 0.1498984382245E+01
 0.2078839292943E+00
 0.3423870551832E+00
 0.4667991563887E+00
 0.5811613534621E+00
 0.6862213110074E+00
 0.7826907711228E+00
 0.8711851735487E+00
 0.9522502229695E+00
 0.1026393502403E+01
 0.1094106018849E+01
 0.1155873075088E+01
 0.1212177377415E+01
 0.1263496944969E+01
 0.1310301981602E+01
 0.1353053578332E+01
 0.1392205239133E+01
 0.1428205835722E+01
 0.1461500128676E+01
 0.1492517821699E+01
 0.1521640013386E+01
 0.2123450831633E+00
 0.3483756199746E+00
 0.4743997408187E+00
 0.5903822143004E+00
 0.6970005392783E+00
 0.7949165214645E+00
 0.8847150781420E+00
 0.9669279725217E+00
 0.1042061811539E+01
 0.1110615414123E+01
 0.1173086942021E+01
 0.1229974400236E+01
 0.1281771727101E+01
 0.1328963930369E+01
 0.1372024088070E+01
 0.1411413888982E+01
 0.1447587101173E+01
 0.1480992398566E+01
 0.1512065072176E+01
 0.1541194056101E+01
 0.2171358344798E+00
 0.3544505735113E+00
 0.4818983162970E+00
 0.5993501412279E+00
 0.7073953658509E+00
 0.8066329092193E+00
 0.8976086278619E+00
 0.9808352332841E+00
 0.1056815843228E+01
 0.1126056380773E+01
 0.1189068270768E+01
 0.1246365717618E+01
 0.1298459361714E+01
 0.1345849125600E+01
 0.1389019192937E+01
 0.1428437647436E+01
 0.1464561135442E+01
 0.1497841475578E+01
 0.1528721891434E+01
 0.1557606473364E+01
 0.2222668196545E+00
 0.3606296825660E+00
 0.4893187327216E+00
 0.6080922248022E+00
 0.7174330268275E+00
 0.8178645359850E+00
 0.9098855320845E+00
 0.9939851613628E+00
 0.1070661175441E+01
 0.1140426523760E+01
 0.1203806893916E+01
 0.1261334149669E+01
 0.1313536927593E+01
 0.1360930589934E+01
 0.1404009773059E+01
 0.1443247099950E+01
 0.1479099663683E+01
 0.1512021098153E+01
 0.1542464725361E+01
 0.1570858486189E+01
 0.2277495232078E+00
 0.3669345830211E+00
 0.4966909411527E+00
 0.6166430447296E+00
 0.7271489670735E+00
 0.8286444767355E+00
 0.9215739620673E+00
 0.1006399229972E+01
 0.1083611548285E+01
 0.1153731546541E+01
 0.1217300850207E+01
 0.1274871071519E+01
 0.1326990719753E+01
 0.1374191605942E+01
 0.1416978439936E+01
 0.1455826433508E+01
 0.1491190114694E+01
 0.1523522719669E+01
 0.1553289206447E+01
 0.1580951157908E+01
 0.2335965014645E+00
 0.3733912255132E+00
 0.5040515433329E+00
 0.6250452251047E+00
 0.7365873318958E+00
 0.8390146741482E+00
 0.9327108365797E+00
 0.1018107406164E+01
 0.1095688937158E+01
 0.1165985222721E+01
 0.1229556244008E+01
 0.1286976134741E+01
 0.1338815800908E+01
 0.1385625078983E+01
 0.1427918726733E+01
 0.1466172514357E+01
 0.1500834674641E+01
 0.1532354598854E+01
 0.1561209117611E+01
 0.1587903530648E+01
 0.2398216404394E+00
 0.3800303672293E+00
 0.5114443903386E+00
 0.6333500287769E+00
 0.7458014766808E+00
 0.8490263259780E+00
 0.9433420765562E+00
 0.1029148276856E+01
 0.1106923563052E+01
 0.1177209300226E+01
 0.1240587034127E+01
 0.1297656906066E+01
 0.1349015439895E+01
 0.1395232736432E+01
 0.1436834053214E+01
 0.1474293680778E+01
 0.1508048997650E+01
 0.1538540530899E+01
 0.1566255081364E+01
 0.1591750224397E+01
 0.2464404652874E+00
 0.3868881272533E+00
 0.5189212552587E+00
 0.6416180165893E+00
 0.7548545163440E+00
 0.8587402807282E+00
 0.9535228369044E+00
 0.1039569127044E+01
 0.1117353842785E+01
 0.1187433347924E+01
 0.1250414775393E+01
 0.1306928461189E+01
 0.1357600481649E+01
 0.1403024200953E+01
 0.1443736484573E+01
 0.1480208253651E+01
 0.1512860567012E+01
 0.1542118094351E+01
 0.1568472683483E+01
 0.1592538289951E+01
 0.2534704819197E+00
 0.3940065922502E+00
 0.5265425739638E+00
 0.6499197669040E+00
 0.7638199040450E+00
 0.8682274214662E+00
 0.9633176851024E+00
 0.1049425932184E+01
 0.1127026240618E+01
 0.1196694517111E+01
 0.1259068308395E+01
 0.1314812957550E+01
 0.1364588693189E+01
 0.1409015981123E+01
 0.1448645305228E+01
 0.1483942765222E+01
 0.1515306738697E+01
 0.1543136539003E+01
 0.1567919654744E+01
 0.1590322781104E+01
 0.2609315734634E+00
 0.4014345055838E+00
 0.5343783046906E+00
 0.6583367146906E+00
 0.7727820943927E+00
 0.8775690813990E+00
 0.9728007550973E+00
 0.1058783278652E+01
 0.1135995026940E+01
 0.1205037229233E+01
 0.1266583433700E+01
 0.1321339262665E+01
 0.1370004197312E+01
 0.1413230493770E+01
 0.1451585479178E+01
 0.1485529924863E+01
 0.1515432494724E+01
 0.1541654714952E+01
 0.1564663725255E+01
 0.1585163871133E+01
 0.2688464239058E+00
 0.4092280187613E+00
 0.5425089145480E+00
 0.6669621293011E+00
 0.7818373025728E+00
 0.8868574839556E+00
 0.9820558481840E+00
 0.1067714163970E+01
 0.1144321882168E+01
 0.1212512730120E+01
 0.1273002542599E+01
 0.1326542676160E+01
 0.1373877110494E+01
 0.1415695266198E+01
 0.1452586091077E+01
 0.1485006295499E+01
 0.1513287828827E+01
 0.1537739097749E+01
 0.1558783128645E+01
 0.1577131666659E+01
 0.2772409327480E+00
 0.4174515012688E+00
 0.5510265339515E+00
 0.6759022959185E+00
 0.7910944095427E+00
 0.8961962287811E+00
 0.9911764704835E+00
 0.1076299637063E+01
 0.1152075278952E+01
 0.1219178427627E+01
 0.1278374138682E+01
 0.1330464765591E+01
 0.1376243547175E+01
 0.1416442594228E+01
 0.1451678978212E+01
 0.1482409671048E+01
 0.1508924490110E+01
 0.1531461525461E+01
 0.1550367717935E+01
 0.1566315695363E+01
 0.2861446019179E+00
 0.4261784089712E+00
 0.5600363861905E+00
 0.6852780380416E+00
 0.8006761283255E+00
 0.9057008871041E+00
 0.1000265835716E+01
 0.1084628272322E+01
 0.1159329597879E+01
 0.1225096927605E+01
 0.1282752142978E+01
 0.1333153270129E+01
 0.1377146184174E+01
 0.1415510128270E+01
 0.1448898073779E+01
 0.1477776167719E+01
 0.1502391542088E+01
 0.1522895732565E+01
 0.1539519522197E+01
 0.1552831903447E+01
 0.2955906945563E+00
 0.4354921299706E+00
 0.5696585571929E+00
 0.6952267307797E+00
 0.8107204682181E+00
 0.9154996839749E+00
 0.1009436767226E+01
 0.1092795394146E+01
 0.1166163850112E+01
 0.1230334580986E+01
 0.1286194743069E+01
 0.1334661801278E+01
 0.1376635332662E+01
 0.1412943112400E+01
 0.1444280592579E+01
 0.1471137614122E+01
 0.1493728412044E+01
 0.1512111083238E+01
 0.1526353089555E+01
 0.1536833988886E+01
 0.3056159907393E+00
 0.4454866706019E+00
 0.5800306515409E+00
 0.7059051459404E+00
 0.8213827268892E+00
 0.9257342929878E+00
 0.1018811583404E+01
 0.1100902097595E+01
 0.1172659973128E+01
 0.1234959425844E+01
 0.1288762525640E+01
 0.1335048968543E+01
 0.1374769940179E+01
 0.1408798412023E+01
 0.1437872987715E+01
 0.1462521312624E+01
 0.1482954017008E+01
 0.1499157271707E+01
 0.1510994660489E+01
 0.1518539408709E+01
 0.3162589719950E+00
 0.4562678509725E+00
 0.5913117770006E+00
 0.7174941771282E+00
 0.8328374941844E+00
 0.9365606219372E+00
 0.1028522097455E+01
 0.1109053991511E+01
 0.1178900501316E+01
 0.1239038400897E+01
 0.1290515626146E+01
 0.1334376221117E+01
 0.1371617888891E+01
 0.1403148433965E+01
 0.1429742707017E+01
 0.1451965252754E+01
 0.1470050765583E+01
 0.1484026133367E+01
 0.1493564525034E+01
 0.1498284624151E+01
 0.3275553437604E+00
 0.4679505464605E+00
 0.6036969024982E+00
 0.7302037925088E+00
 0.8452787163832E+00
 0.9481505104496E+00
 0.1038710494949E+01
 0.1117359136634E+01
 0.1184965355495E+01
 0.1242633994053E+01
 0.1291509944984E+01
 0.1332703669164E+01
 0.1367253656773E+01
 0.1396085254998E+01
 0.1419986416660E+01
 0.1439554109515E+01
 0.1455007679113E+01
 0.1466535935954E+01
 0.1474074550897E+01
 0.1476647922652E+01
 0.3394873927648E+00
 0.4807186409701E+00
 0.6174502114985E+00
 0.7442606294187E+00
 0.8589177639638E+00
 0.9607015130050E+00
 0.1049529700764E+01
 0.1125923449086E+01
 0.1190928068117E+01
 0.1245800632297E+01
 0.1291792927348E+01
 0.1330084099850E+01
 0.1361750309605E+01
 0.1387719442461E+01
 0.1408747338703E+01
 0.1425417248695E+01
 0.1437956655298E+01
 0.1446491616801E+01
 0.1451788044080E+01
 0.1455163400296E+01
 0.3099948158043E+00
 0.1211388753919E+00
 0.6801036406526E-01
 0.1422824062398E+00
 0.1642762462473E+00
 0.1618860979701E+00
 0.1606886565173E+00
 0.1675162436558E+00
 0.1749790315677E+00
 0.1790302177882E+00
 0.1791816131976E+00
 0.1754109552880E+00
 0.1672484256777E+00
 0.1541275607474E+00
 0.1361640335819E+00
 0.1132487892778E+00
 0.8480053575977E-01
 0.5438132273043E-01
 0.2586737588289E-01
 0.3324162719862E-02
 0.2618085011013E+00
 0.1848328860073E+00
 0.2358245881705E-01
 0.6884249521751E-01
 0.1101383838208E+00
 0.1269156479077E+00
 0.1353437132881E+00
 0.1439889039232E+00
 0.1520077363384E+00
 0.1573068812977E+00
 0.1593287933912E+00
 0.1578100286578E+00
 0.1524078905129E+00
 0.1426207148899E+00
 0.1280854347367E+00
 0.1086311963040E+00
 0.8474796317731E-01
 0.5751915082290E-01
 0.2857634035181E-01
 0.2975461345153E-02
 0.2285679204584E+00
 0.1900614139381E+00
 0.8737552464061E-01
 0.2132028691388E-02
 0.5500752528654E-01
 0.8533436366453E-01
 0.1035895580313E+00
 0.1164625112134E+00
 0.1262584753097E+00
 0.1331384032722E+00
 0.1370967926440E+00
 0.1379619796080E+00
 0.1354233945161E+00
 0.1290090382747E+00
 0.1182285509554E+00
 0.1028247755598E+00
 0.8306824836289E-01
 0.5882682814713E-01
 0.3042674654942E-01
 0.2236328119443E-02
 0.2076558292923E+00
 0.1862771520892E+00
 0.1242123971692E+00
 0.5503161309290E-01
 0.1945629889913E-02
 0.4027271778681E-01
 0.6656731226066E-01
 0.8443181893979E-01
 0.9705837233908E-01
 0.1060577102298E+00
 0.1121495319515E+00
 0.1154656677183E+00
 0.1158309347408E+00
 0.1128518976774E+00
 0.1059923798522E+00
 0.9482973708721E-01
 0.7940997763882E-01
 0.5859212434958E-01
 0.3175996826963E-01
 0.1431043202857E-02
 0.1943238872904E+00
 0.1817482952301E+00
 0.1468461927128E+00
 0.9795467609370E-01
 0.4801344772118E-01
 0.6027466960162E-02
 0.2594159671616E-01
 0.4832328114852E-01
 0.6416723551480E-01
 0.7569310282156E-01
 0.8413136560501E-01
 0.8995907282043E-01
 0.9321916790844E-01
 0.9366081615888E-01
 0.9075741422489E-01
 0.8397217184001E-01
 0.7315805141921E-01
 0.5640464669616E-01
 0.3227543502874E-01
 0.2639260047008E-02
 0.1858642755213E+00
 0.1786446468485E+00
 0.1619460140507E+00
 0.1306707917464E+00
 0.9072626351636E-01
 0.5068922789447E-01
 0.1660321081054E-01
 0.9085112256267E-02
 0.2784533852299E-01
 0.4194467083402E-01
 0.5280411658192E-01
 0.6114268128111E-01
 0.6722573457097E-01
 0.7098366369299E-01
 0.7196399487236E-01
 0.6958582650477E-01
 0.6358998904829E-01
 0.5150023880459E-01
 0.3114351755314E-01
 0.4286519737063E-02
 0.1805840234070E+00
 0.1773328692651E+00
 0.1731043836183E+00
 0.1561387116993E+00
 0.1271300295737E+00
 0.9248048765352E-01
 0.5921762527354E-01
 0.3213839065183E-01
 0.1127821647325E-01
 0.5042635526058E-02
 0.1814479104742E-01
 0.2885188895681E-01
 0.3758409444055E-01
 0.4445059735067E-01
 0.4911918667518E-01
 0.5103752235810E-01
 0.4991699736714E-01
 0.4291171731998E-01
 0.2717238343888E-01
 0.4206733266828E-02
 0.1773930029873E+00
 0.1776552078106E+00
 0.1822521392905E+00
 0.1766491210803E+00
 0.1581179470641E+00
 0.1305932746846E+00
 0.1006238540628E+00
 0.7407250091909E-01
 0.5235748278533E-01
 0.3457915244990E-01
 0.1970683137980E-01
 0.7075228846781E-02
 0.4424334579954E-02
 0.1387793334697E-01
 0.2186826632949E-01
 0.2779088509962E-01
 0.3138429896003E-01
 0.2961694852296E-01
 0.1902695177908E-01
 0.1372555094184E-02
 0.1755652765751E+00
 0.1793088339422E+00
 0.1904301365208E+00
 0.1938275441476E+00
 0.1847527151128E+00
 0.1649948205762E+00
 0.1399737129019E+00
 0.1156924759506E+00
 0.9448915186498E-01
 0.7621389515625E-01
 0.6024516988207E-01
 0.4604249265425E-01
 0.3316256532546E-01
 0.2129824437385E-01
 0.1060737972369E-01
 0.2906296924541E-02
 0.7705635874429E-02
 0.1085403134363E-01
 0.5796043023859E-02
 0.8841257512147E-02
 0.1746061274760E+00
 0.1819755787387E+00
 0.1981856135040E+00
 0.2087849600002E+00
 0.2080088373033E+00
 0.1960013837108E+00
 0.1768875206137E+00
 0.1562406843835E+00
 0.1368523592763E+00
 0.1191683325789E+00
 0.1029843973505E+00
 0.8800671594797E-01
 0.7389835812995E-01
 0.6032088664920E-01
 0.4724284410094E-01
 0.3489706181635E-01
 0.2334528376683E-01
 0.1549365821830E-01
 0.1563240339021E-01
 0.2453338938310E-01
 0.1741731020730E+00
 0.1853650641107E+00
 0.2057855736253E+00
 0.2222599982076E+00
 0.2286893423420E+00
 0.2240656496361E+00
 0.2113001924465E+00
 0.1952499723246E+00
 0.1787900129521E+00
 0.1627593389397E+00
 0.1473044008507E+00
 0.1323846720842E+00
 0.1178188016995E+00
 0.1033102455834E+00
 0.8876061851536E-01
 0.7427378870787E-01
 0.5975997772683E-01
 0.4784786259115E-01
 0.4336624707312E-01
 0.4803381831196E-01
 0.1740271993194E+00
 0.1892267265714E+00
 0.2133354684045E+00
 0.2347282582505E+00
 0.2474155381571E+00
 0.2496551728439E+00
 0.2433303426357E+00
 0.2324854540064E+00
 0.2198273688216E+00
 0.2063968005461E+00
 0.1925939338109E+00
 0.1785999738925E+00
 0.1644047132482E+00
 0.1497981559880E+00
 0.1346589444113E+00
 0.1189858087836E+00
 0.1025501108817E+00
 0.8757406874979E-01
 0.7910360648157E-01
 0.7985075725909E-01
 0.1740015625483E+00
 0.1933503601086E+00
 0.2208474192139E+00
 0.2464810007737E+00
 0.2646446452538E+00
 0.2731897360043E+00
 0.2731828925320E+00
 0.2678731952564E+00
 0.2596519771298E+00
 0.2496069551776E+00
 0.2382919353702E+00
 0.2260590443873E+00
 0.2130625750420E+00
 0.1992096857204E+00
 0.1844001295445E+00
 0.1685587203180E+00
 0.1513222731207E+00
 0.1343764321275E+00
 0.1227500118667E+00
 0.1200385748388E+00
 0.1739808155559E+00
 0.1975627555429E+00
 0.2282805283030E+00
 0.2576806426655E+00
 0.2806955008360E+00
 0.2950136099422E+00
 0.3010836867135E+00
 0.3014353811461E+00
 0.2980764011779E+00
 0.2920298278563E+00
 0.2839134911533E+00
 0.2741923838971E+00
 0.2631636107050E+00
 0.2508707967152E+00
 0.2372825787818E+00
 0.2222999793190E+00
 0.2054482241140E+00
 0.1877531246008E+00
 0.1739174998275E+00
 0.1682095161600E+00
 0.1738871575821E+00
 0.2017234791308E+00
 0.2355652437953E+00
 0.2683997142224E+00
 0.2957742296856E+00
 0.3153872360223E+00
 0.3272388428790E+00
 0.3332385621155E+00
 0.3349970099489E+00
 0.3334008597463E+00
 0.3290580418196E+00
 0.3224864371091E+00
 0.3140912201793E+00
 0.3040579887046E+00
 0.2924744177269E+00
 0.2792975094225E+00
 0.2640105978856E+00
 0.2468941044947E+00
 0.2319019292676E+00
 0.2236055082056E+00
 0.1736710499531E+00
 0.2057210249485E+00
 0.2426183641811E+00
 0.2786480652674E+00
 0.3099969231361E+00
 0.3344891272589E+00
 0.3518115829426E+00
 0.3633553594341E+00
 0.3703552315839E+00
 0.3735236618740E+00
 0.3734024475217E+00
 0.3705030339039E+00
 0.3652882619314E+00
 0.3580670541058E+00
 0.3490814286311E+00
 0.3384531421108E+00
 0.3257862620993E+00
 0.3106501370764E+00
 0.2957323103910E+00
 0.2852059502766E+00
 0.1733052350090E+00
 0.2094704608162E+00
 0.2493517932926E+00
 0.2883917422464E+00
 0.3234082170475E+00
 0.3524229203422E+00
 0.3749110940071E+00
 0.3918382076513E+00
 0.4041041534977E+00
 0.4122376982008E+00
 0.4166789328225E+00
 0.4178798707604E+00
 0.4162956441662E+00
 0.4122992835569E+00
 0.4062734169832E+00
 0.3985828532454E+00
 0.3892268888556E+00
 0.3774322181794E+00
 0.3641515780327E+00
 0.3518855909364E+00
 0.1727833680024E+00
 0.2129106909366E+00
 0.2556784792694E+00
 0.2975632814077E+00
 0.3359965422601E+00
 0.3692264759190E+00
 0.3965897236672E+00
 0.4187040539743E+00
 0.4361829736670E+00
 0.4493847099048E+00
 0.4586371695942E+00
 0.4642993613578E+00
 0.4667537928250E+00
 0.4663407033905E+00
 0.4634716808012E+00
 0.4587151819408E+00
 0.4525943704636E+00
 0.4449031153281E+00
 0.4354066224713E+00
 0.4225374048362E+00
 0.1721192076719E+00
 0.2160195694482E+00
 0.2614972540956E+00
 0.3060712623988E+00
 0.3477061593674E+00
 0.3848801740456E+00
 0.4168455310894E+00
 0.4439302480132E+00
 0.4665036753587E+00
 0.4847815910338E+00
 0.4989972587635E+00
 0.5094174409718E+00
 0.5163211796781E+00
 0.5199320094842E+00
 0.5205146573569E+00
 0.5185595592908E+00
 0.5149179392722E+00
 0.5100127085243E+00
 0.5056323357401E+00
 0.4962501962459E+00
 0.1714507352128E+00
 0.2186831074378E+00
 0.2666874020918E+00
 0.3138219263963E+00
 0.3584440250417E+00
 0.3993036051573E+00
 0.4356296125221E+00
 0.4674650337102E+00
 0.4949547724419E+00
 0.5182133078938E+00
 0.5374168704744E+00
 0.5527782905565E+00
 0.5644984268890E+00
 0.5726886470291E+00
 0.5774079936423E+00
 0.5787730358122E+00
 0.5772012344757E+00
 0.5730650428826E+00
 0.5685911957642E+00
 0.5675770991559E+00
 0.3557357880537E+00
 0.5012718721901E+00
 0.6419531950137E+00
 0.7712885553264E+00
 0.8868590145987E+00
 0.9879031262780E+00
 0.1074443161796E+01
 0.1147368374740E+01
 0.1208100214976E+01
 0.1258190070565E+01
 0.1299103285384E+01
 0.1332163272030E+01
 0.1358555151273E+01
 0.1379279656084E+01
 0.1395148642003E+01
 0.1406861317417E+01
 0.1415184850903E+01
 0.1420433902270E+01
 0.1424169158377E+01
 0.1429805136673E+01
 0.3750442325625E+00
 0.5292995859976E+00
 0.6766170016489E+00
 0.8103044756161E+00
 0.9275131363030E+00
 0.1027539026033E+01
 0.1110719405763E+01
 0.1178446395684E+01
 0.1232735959010E+01
 0.1275642125453E+01
 0.1308990598845E+01
 0.1334357248127E+01
 0.1353119095489E+01
 0.1366437560523E+01
 0.1375308033896E+01
 0.1380729120093E+01
 0.1383909834602E+01
 0.1385099951705E+01
 0.1385762002214E+01
 0.1384029458481E+01
 0.3956060528788E+00
 0.5598657267116E+00
 0.7141075356875E+00
 0.8514756473124E+00
 0.9691104589904E+00
 0.1066589942602E+01
 0.1144740572784E+01
 0.1205551342756E+01
 0.1251776162371E+01
 0.1286081187439E+01
 0.1310694805784E+01
 0.1327463362738E+01
 0.1337972858648E+01
 0.1343549684639E+01
 0.1345342032632E+01
 0.1344472670193E+01
 0.1342060450371E+01
 0.1337695109536E+01
 0.1331828941324E+01
 0.1325414779712E+01
 0.4179645396454E+00
 0.5933190165548E+00
 0.7546453786564E+00
 0.8948816692346E+00
 0.1011459841098E+01
 0.1104549765873E+01
 0.1175697422685E+01
 0.1227699716326E+01
 0.1264215635520E+01
 0.1288595479317E+01
 0.1303476945143E+01
 0.1310955743619E+01
 0.1312784039491E+01
 0.1310368972269E+01
 0.1304864126846E+01
 0.1297284880124E+01
 0.1288418674341E+01
 0.1277144745930E+01
 0.1265095822445E+01
 0.1256797817229E+01
 0.4425250699558E+00
 0.6302487361188E+00
 0.7985587694934E+00
 0.9405283317820E+00
 0.1054199009413E+01
 0.1140693547605E+01
 0.1202596684631E+01
 0.1243786957138E+01
 0.1268999062533E+01
 0.1282291417458E+01
 0.1286661884281E+01
 0.1284382068606E+01
 0.1277275381026E+01
 0.1266705091818E+01
 0.1253692648693E+01
 0.1239044799413E+01
 0.1223193573833E+01
 0.1204898803887E+01
 0.1187702926576E+01
 0.1178765376038E+01
 0.4697485261571E+00
 0.6712893894221E+00
 0.8462096561424E+00
 0.9883305384673E+00
 0.1096774750256E+01
 0.1174073301817E+01
 0.1224252864182E+01
 0.1252596475062E+01
 0.1265051875033E+01
 0.1266335811520E+01
 0.1259691939390E+01
 0.1247446545435E+01
 0.1231370228795E+01
 0.1212659854728E+01
 0.1192118654181E+01
 0.1170324642362E+01
 0.1147455196224E+01
 0.1122504403221E+01
 0.1100981471961E+01
 0.1092150521111E+01
 0.5001765851929E+00
 0.7171519988269E+00
 0.8979363295990E+00
 0.1038066761815E+01
 0.1138408357399E+01
 0.1203496381347E+01
 0.1239293497013E+01
 0.1252832096886E+01
 0.1251333588588E+01
 0.1240022024749E+01
 0.1222202941433E+01
 0.1200098505451E+01
 0.1175291010870E+01
 0.1148705318497E+01
 0.1120875867868E+01
 0.1092167388752E+01
 0.1062562501015E+01
 0.1031474344491E+01
 0.1006288282691E+01
 0.9980152624224E+00
 0.5344590727425E+00
 0.7686327062388E+00
 0.9540240449840E+00
 0.1089321774516E+01
 0.1178045478783E+01
 0.1227503838263E+01
 0.1246178650889E+01
 0.1243174570237E+01
 0.1226914306832E+01
 0.1202851291445E+01
 0.1174100591456E+01
 0.1142595755576E+01
 0.1109596146703E+01
 0.1075668249180E+01
 0.1041049901404E+01
 0.1005907031093E+01
 0.9700447594387E+00
 0.9334159554516E+00
 0.9051351470718E+00
 0.8976653307160E+00
 0.5733829005734E+00
 0.8266238057177E+00
 0.1014665244044E+01
 0.1141417642699E+01
 0.1214295849682E+01
 0.1244355375723E+01
 0.1243244180981E+01
 0.1222366601915E+01
 0.1191072214090E+01
 0.1154619720870E+01
 0.1115623520182E+01
 0.1075535805482E+01
 0.1035172961641E+01
 0.9946813623904E+00
 0.9539921026887E+00
 0.9130837243252E+00
 0.8715800765420E+00
 0.8300747046128E+00
 0.7992333082944E+00
 0.7926353261040E+00
 0.6179092762215E+00
 0.8921232777270E+00
 0.1079902178156E+01
 0.1193321697290E+01
 0.1245365124418E+01
 0.1252031925601E+01
 0.1228781038885E+01
 0.1189332061838E+01
 0.1143407711188E+01
 0.1095499927726E+01
 0.1047382541873E+01
 0.9998536474309E+00
 0.9532002902920E+00
 0.9071203067644E+00
 0.8612480991819E+00
 0.8153887630169E+00
 0.7689760826930E+00
 0.7233448111729E+00
 0.6904949353048E+00
 0.6846951600768E+00
 0.6692241172910E+00
 0.9662415211401E+00
 0.1149538371735E+01
 0.1243520907741E+01
 0.1268982448664E+01
 0.1248273381711E+01
 0.1201167306707E+01
 0.1143332425593E+01
 0.1083963358653E+01
 0.1026100847266E+01
 0.9703639648640E+00
 0.9167841277554E+00
 0.8650866173507E+00
 0.8145322412448E+00
 0.7644907264217E+00
 0.7146148209402E+00
 0.6641450409733E+00
 0.6152591526605E+00
 0.5810284140959E+00
 0.5758684203932E+00
 0.7288091921931E+00
 0.1050200056628E+01
 0.1222997036015E+01
 0.1289848109492E+01
 0.1282335810509E+01
 0.1230680957941E+01
 0.1159072316872E+01
 0.1084153891896E+01
 0.1013325530682E+01
 0.9474815323522E+00
 0.8858848874722E+00
 0.8277900194827E+00
 0.7723911401821E+00
 0.7185602446394E+00
 0.6654542796889E+00
 0.6126056607588E+00
 0.5590710852749E+00
 0.5079700455210E+00
 0.4731322399446E+00
 0.4684600716196E+00
 0.7985462311696E+00
 0.1145309740744E+01
 0.1299086574436E+01
 0.1329242253784E+01
 0.1282046013322E+01
 0.1196932319128E+01
 0.1101746738554E+01
 0.1012294750373E+01
 0.9326635957742E+00
 0.8610915098460E+00
 0.7954978562067E+00
 0.7344680620695E+00
 0.6767408505783E+00
 0.6208700075238E+00
 0.5658697460803E+00
 0.5112015999457E+00
 0.4557685443249E+00
 0.4037217108373E+00
 0.3692846893576E+00
 0.3650868848380E+00
 0.8808750650666E+00
 0.1252897844494E+01
 0.1375597685135E+01
 0.1357426648180E+01
 0.1264252122331E+01
 0.1145179892458E+01
 0.1029382386728E+01
 0.9290753795804E+00
 0.8436453751857E+00
 0.7686259153935E+00
 0.7008677784156E+00
 0.6384593646905E+00
 0.5797583953155E+00
 0.5230819113327E+00
 0.4673976744951E+00
 0.4121756290621E+00
 0.3562261117528E+00
 0.3048083386888E+00
 0.2721192021223E+00
 0.2686990216330E+00
 0.9790439996223E+00
 0.1374106185135E+01
 0.1448582172688E+01
 0.1368516869411E+01
 0.1224970148813E+01
 0.1074710480019E+01
 0.9434309631588E+00
 0.8365292973031E+00
 0.7481838825295E+00
 0.6718408774689E+00
 0.6036752844912E+00
 0.5413914682312E+00
 0.4830044302779E+00
 0.4267022915103E+00
 0.3715516268588E+00
 0.3171540628742E+00
 0.2623282447872E+00
 0.2135042956956E+00
 0.1843653362614E+00
 0.1825691017418E+00
 0.1097523271328E+01
 0.1509342372211E+01
 0.1511012061147E+01
 0.1354684916813E+01
 0.1161075758902E+01
 0.9868390860159E+00
 0.8465727815640E+00
 0.7368994335267E+00
 0.6481124230187E+00
 0.5724477173188E+00
 0.5055983887495E+00
 0.4448517819772E+00
 0.3879166074899E+00
 0.3330405560943E+00
 0.2796079248108E+00
 0.2275184598140E+00
 0.1757438624834E+00
 0.1319422545383E+00
 0.1087171598812E+00
 0.1101989563109E+00
 0.1242736938307E+01
 0.1656746466600E+01
 0.1550146278180E+01
 0.1306536728534E+01
 0.1072476929679E+01
 0.8855958616633E+00
 0.7416317249330E+00
 0.6319760121211E+00
 0.5450624397513E+00
 0.4721895771933E+00
 0.4083612493254E+00
 0.3503436044846E+00
 0.2957143669713E+00
 0.2431091460280E+00
 0.1925066147961E+00
 0.1442950090171E+00
 0.9777044375660E-01
 0.6190752726154E-01
 0.4755883190990E-01
 0.5504314698133E-01
 0.1424255639712E+01
 0.1807082489108E+01
 0.1542759054892E+01
 0.1216188471193E+01
 0.9664613700217E+00
 0.7755033745482E+00
 0.6300604007044E+00
 0.5229306615281E+00
 0.4407435219534E+00
 0.3730785741656E+00
 0.3137263676192E+00
 0.2591490529539E+00
 0.2072703763653E+00
 0.1575245742013E+00
 0.1107674623944E+00
 0.6802807652814E-01
 0.2915363240829E-01
 0.4562510797363E-02
 0.2492495097814E-02
 0.1985702416360E-01
 0.1657932884364E+01
 0.1926716525121E+01
 0.1444246805560E+01
 0.1097384828918E+01
 0.8534252319273E+00
 0.6578069191124E+00
 0.5116436630325E+00
 0.4108970986591E+00
 0.3376788667635E+00
 0.2775039363071E+00
 0.2232334857677E+00
 0.1720997717450E+00
 0.1230123358396E+00
 0.7648328573418E-01
 0.3436379428446E-01
 0.1309556384174E-02
 0.3014235740858E-01
 0.4016777452908E-01
 0.2677637770674E-01
 0.5666316609578E-02
 0.1944482269849E+01
 0.1813582945460E+01
 0.1271857762043E+01
 0.9790117460018E+00
 0.7363760064747E+00
 0.5305079154455E+00
 0.3846107371845E+00
 0.2990982392962E+00
 0.2397447827173E+00
 0.1876441321859E+00
 0.1377260282122E+00
 0.8939509171747E-01
 0.4295489362804E-01
 0.1766836461315E-03
 0.3729062943335E-01
 0.6504638716473E-01
 0.8021622911313E-01
 0.7265397257847E-01
 0.4321599438757E-01
 0.8033145932648E-02
 0.5794885146425E+00
 0.5049102117998E+00
 0.4345984268342E+00
 0.3663039822799E+00
 0.3005129090756E+00
 0.2389811259384E+00
 0.1833117311733E+00
 0.1348720215562E+00
 0.9467691725489E-01
 0.6330073500139E-01
 0.4079331289913E-01
 0.2662544798467E-01
 0.1969612874291E-01
 0.1840253427942E-01
 0.2072817683382E-01
 0.2450192693488E-01
 0.2782971448952E-01
 0.2949712345671E-01
 0.2926570460532E-01
 0.2779838028346E-01
 0.6207146214732E+00
 0.5551839307854E+00
 0.4825298889792E+00
 0.4111977513037E+00
 0.3424299458566E+00
 0.2774338416657E+00
 0.2177497944408E+00
 0.1649128458485E+00
 0.1202535750476E+00
 0.8472918784749E-01
 0.5878252234393E-01
 0.4223021492454E-01
 0.3420180970407E-01
 0.3312944134015E-01
 0.3680289219342E-01
 0.4262629592340E-01
 0.4809124522413E-01
 0.5133870935617E-01
 0.5163090858197E-01
 0.4982694011998E-01
 0.6629886221722E+00
 0.6020137584204E+00
 0.5329999124272E+00
 0.4612628115826E+00
 0.3904795835857E+00
 0.3224646444629E+00
 0.2588786174813E+00
 0.2014215445461E+00
 0.1517108923662E+00
 0.1111044558314E+00
 0.8051454483505E-01
 0.6023436748805E-01
 0.4979607865182E-01
 0.4786901178577E-01
 0.5222778202084E-01
 0.5993021730335E-01
 0.6779226693210E-01
 0.7309064251061E-01
 0.7432553200218E-01
 0.7167415767879E-01
 0.7082337437147E+00
 0.6503280781152E+00
 0.5849632196931E+00
 0.5151957672824E+00
 0.4441580168824E+00
 0.3742390495712E+00
 0.3073842162076E+00
 0.2454897225051E+00
 0.1904367694628E+00
 0.1439716070356E+00
 0.1075186562334E+00
 0.8196401435679E-01
 0.6743527792893E-01
 0.6309400084338E-01
 0.6697012744521E-01
 0.7597715833937E-01
 0.8628343828882E-01
 0.9410353535696E-01
 0.9675523267635E-01
 0.9340309183039E-01
 0.7559257198177E+00
 0.7009499649896E+00
 0.6393482442792E+00
 0.5726086588423E+00
 0.5030285862442E+00
 0.4327834317826E+00
 0.3638987482187E+00
 0.2983706148118E+00
 0.2382457255939E+00
 0.1855689056093E+00
 0.1422346145863E+00
 0.1097688901406E+00
 0.8906155522990E-01
 0.8006362801271E-01
 0.8146738868721E-01
 0.9047429998029E-01
 0.1028896089247E+00
 0.1137960680032E+00
 0.1189059294880E+00
 0.1159968858502E+00
 0.8055919962896E+00
 0.7537861136035E+00
 0.6961852764311E+00
 0.6332713639818E+00
 0.5665085236768E+00
 0.4976092639050E+00
 0.4283616205598E+00
 0.3606517997535E+00
 0.2965045252295E+00
 0.2380742119304E+00
 0.1875557606122E+00
 0.1470119832737E+00
 0.1181173267429E+00
 0.1018165296319E+00
 0.9789250495858E-01
 0.1044792376052E+00
 0.1177131060257E+00
 0.1319198401664E+00
 0.1408981618640E+00
 0.1403411820607E+00
 0.8567691889820E+00
 0.8085270750483E+00
 0.7552482479869E+00
 0.6968106767986E+00
 0.6340034981176E+00
 0.5680108755910E+00
 0.5002292910297E+00
 0.4322417207740E+00
 0.3658441811010E+00
 0.3030620888017E+00
 0.2461231116355E+00
 0.1973628998400E+00
 0.1590442398993E+00
 0.1330668040494E+00
 0.1205335877855E+00
 0.1211331210628E+00
 0.1323721019327E+00
 0.1489257887651E+00
 0.1629614552564E+00
 0.1668630574191E+00
 0.9089769080593E+00
 0.8647227847747E+00
 0.8161082543908E+00
 0.7626931854986E+00
 0.7047791407318E+00
 0.6430800105561E+00
 0.5785679229908E+00
 0.5124341536639E+00
 0.4461054062526E+00
 0.3812756620966E+00
 0.3199256396482E+00
 0.2643076209314E+00
 0.2168718849113E+00
 0.1801037008804E+00
 0.1562228504231E+00
 0.1466626225123E+00
 0.1512104821487E+00
 0.1667230014574E+00
 0.1856603440725E+00
 0.1966896626134E+00
 0.9617356347885E+00
 0.9218611967345E+00
 0.8782250261030E+00
 0.8302601990610E+00
 0.7779588890949E+00
 0.7216771076155E+00
 0.6620201813120E+00
 0.5998025208311E+00
 0.5360545369857E+00
 0.4720538514406E+00
 0.4093640175921E+00
 0.3498664994939E+00
 0.2957705334672E+00
 0.2495792515616E+00
 0.2139758470008E+00
 0.1915611019437E+00
 0.1842991797309E+00
 0.1924059085831E+00
 0.2120712990777E+00
 0.2316793910297E+00
 0.1014584445969E+01
 0.9794255356390E+00
 0.9410280596127E+00
 0.8988184619461E+00
 0.8526239514426E+00
 0.8025647304715E+00
 0.7489773057543E+00
 0.6923805970734E+00
 0.6334758428354E+00
 0.5731693905156E+00
 0.5126095388399E+00
 0.4532304239902E+00
 0.3967961276903E+00
 0.3454359418952E+00
 0.3016551652649E+00
 0.2682891477111E+00
 0.2483279680268E+00
 0.2444183469512E+00
 0.2575843713460E+00
 0.2825555982506E+00
 0.1067094385595E+01
 0.1036924900920E+01
 0.1003961968244E+01
 0.9676973424240E+00
 0.9278953094377E+00
 0.8845421275938E+00
 0.8378017416307E+00
 0.7879929819008E+00
 0.7355886909328E+00
 0.6812330750375E+00
 0.6257737156849E+00
 0.5703058498344E+00
 0.5162277412114E+00
 0.4653069063070E+00
 0.4197574733152E+00
 0.3823290142713E+00
 0.3564044768679E+00
 0.3461038060400E+00
 0.3563496656477E+00
 0.3931351685184E+00
 0.1118852066387E+01
 0.1093865308188E+01
 0.1066461700150E+01
 0.1036233094544E+01
 0.1002942180290E+01
 0.9665111373578E+00
 0.9270020591354E+00
 0.8846059198371E+00
 0.8396448491690E+00
 0.7925882610509E+00
 0.7440826817743E+00
 0.6949959745822E+00
 0.6464783542084E+00
 0.6000452101581E+00
 0.5576911091771E+00
 0.5220523124675E+00
 0.4966527486245E+00
 0.4863103488868E+00
 0.4979220787520E+00
 0.5425698179549E+00
 0.1169453573999E+01
 0.1149728775855E+01
 0.1127912596664E+01
 0.1103702075525E+01
 0.1076889223907E+01
 0.1047373312989E+01
 0.1015157951613E+01
 0.9803489803862E+00
 0.9431594612588E+00
 0.9039242109801E+00
 0.8631253014289E+00
 0.8214303598486E+00
 0.7797468696339E+00
 0.7392980689780E+00
 0.7017300434051E+00
 0.6692666050928E+00
 0.6449413105125E+00
 0.6329603506356E+00
 0.6393065349264E+00
 0.6725014669515E+00
 0.1218520073209E+01
 0.1204010439237E+01
 0.1187696350268E+01
 0.1169366834646E+01
 0.1148853875637E+01
 0.1126054925726E+01
 0.1100939433009E+01
 0.1073552096989E+01
 0.1044018834275E+01
 0.1012558311020E+01
 0.9795007412600E+00
 0.9453155611879E+00
 0.9106501690556E+00
 0.8763830532201E+00
 0.8436963476810E+00
 0.8141751256290E+00
 0.7899425343169E+00
 0.7738374856281E+00
 0.7695952715992E+00
 0.7819126277345E+00
 0.1265703437693E+01
 0.1256243757252E+01
 0.1245232814781E+01
 0.1232530661564E+01
 0.1218006809790E+01
 0.1201564028945E+01
 0.1183148566428E+01
 0.1162755493147E+01
 0.1140433863262E+01
 0.1116294118355E+01
 0.1090519039507E+01
 0.1063379063645E+01
 0.1035252607720E+01
 0.1006651945569E+01
 0.9782548799127E+00
 0.9509413481482E+00
 0.9258310408826E+00
 0.9043080216931E+00
 0.8880054270826E+00
 0.8787306107233E+00
 0.1310687290019E+01
 0.1306008633408E+01
 0.1299996782128E+01
 0.1292561134089E+01
 0.1283599284560E+01
 0.1273017656604E+01
 0.1260741636635E+01
 0.1246720574905E+01
 0.1230930865599E+01
 0.1213378814476E+01
 0.1194104030199E+01
 0.1173183408185E+01
 0.1150735186573E+01
 0.1126921819307E+01
 0.1101949259314E+01
 0.1076058389918E+01
 0.1049501363074E+01
 0.1022494022112E+01
 0.9951402998196E+00
 0.9673253272010E+00
 0.1353187384157E+01
 0.1352933235939E+01
 0.1351524036806E+01
 0.1348899652864E+01
 0.1344973931510E+01
 0.1339650881527E+01
 0.1332832843095E+01
 0.1324423792149E+01
 0.1314329812117E+01
 0.1302457797791E+01
 0.1288712700819E+01
 0.1272992995819E+01
 0.1255183417046E+01
 0.1235143255067E+01
 0.1212687496301E+01
 0.1187556754083E+01
 0.1159370729031E+01
 0.1127559361621E+01
 0.1091269265803E+01
 0.1049260529600E+01
 0.1392952139928E+01
 0.1396693904856E+01
 0.1399413025931E+01
 0.1401064845460E+01
 0.1401568134777E+01
 0.1400817260127E+01
 0.1398687939948E+01
 0.1395038504940E+01
 0.1389707949814E+01
 0.1382511447457E+01
 0.1373233462613E+01
 0.1361618142888E+01
 0.1347356237249E+01
 0.1330067358296E+01
 0.1309275945878E+01
 0.1284378855547E+01
 0.1254601953111E+01
 0.1218942098836E+01
 0.1176084825707E+01
 0.1124289532570E+01
 0.1429763105812E+01
 0.1437014262561E+01
 0.1443324179003E+01
 0.1448652389141E+01
 0.1452913135108E+01
 0.1455984711541E+01
 0.1457713269354E+01
 0.1457912408449E+01
 0.1456359517788E+01
 0.1452789397269E+01
 0.1446885343360E+01
 0.1438267622467E+01
 0.1426479092049E+01
 0.1410967675292E+01
 0.1391065493474E+01
 0.1365964734590E+01
 0.1334690760395E+01
 0.1296072785632E+01
 0.1248711487237E+01
 0.1190902637088E+01
 0.1463435057213E+01
 0.1473663721177E+01
 0.1482977699303E+01
 0.1491332363288E+01
 0.1498630064205E+01
 0.1504728220402E+01
 0.1509442047531E+01
 0.1512543258999E+01
 0.1513755674226E+01
 0.1512748305194E+01
 0.1509126261708E+01
 0.1502419705806E+01
 0.1492071108652E+01
 0.1477421250089E+01
 0.1457694804041E+01
 0.1431987062957E+01
 0.1399254528560E+01
 0.1358314472778E+01
 0.1307863282906E+01
 0.1246554635708E+01
 0.1493814545380E+01
 0.1506454128736E+01
 0.1518149049065E+01
 0.1528843636430E+01
 0.1538422687186E+01
 0.1546719624911E+01
 0.1553519069383E+01
 0.1558555561949E+01
 0.1561509467688E+01
 0.1562000747041E+01
 0.1559581107895E+01
 0.1553724996834E+01
 0.1543819959727E+01
 0.1529157112280E+01
 0.1508922843244E+01
 0.1482193495975E+01
 0.1447935830871E+01
 0.1405018161898E+01
 0.1352242397032E+01
 0.1288433529677E+01
 0.1520776857208E+01
 0.1535235464967E+01
 0.1548663168940E+01
 0.1560986759419E+01
 0.1572069151284E+01
 0.1581718059723E+01
 0.1589689298762E+01
 0.1595686394564E+01
 0.1599357676971E+01
 0.1600291678286E+01
 0.1598011483388E+01
 0.1591968589790E+01
 0.1581536830269E+01
 0.1566006965043E+01
 0.1544582646139E+01
 0.1516378558250E+01
 0.1480421573111E+01
 0.1435655176581E+01
 0.1380945402872E+01
 0.1315049500337E+01
 0.1544228639395E+01
 0.1559899943708E+01
 0.1574398335399E+01
 0.1587627617823E+01
 0.1599425291924E+01
 0.1609572599648E+01
 0.1617799330685E+01
 0.1623785027087E+01
 0.1627157897340E+01
 0.1627492426335E+01
 0.1624306422150E+01
 0.1617058063530E+01
 0.1605143365055E+01
 0.1587894310059E+01
 0.1564577643902E+01
 0.1534393867822E+01
 0.1496475048828E+01
 0.1449878205307E+01
 0.1393564094910E+01
 0.1326350650620E+01
 0.1564105630249E+01
 0.1580378822428E+01
 0.1595282475383E+01
 0.1608692529945E+01
 0.1620417775204E+01
 0.1630212614368E+01
 0.1637784107717E+01
 0.1642795204988E+01
 0.1644865776270E+01
 0.1643572640602E+01
 0.1638449434458E+01
 0.1628986870768E+01
 0.1614633668268E+01
 0.1594798112056E+01
 0.1568849756510E+01
 0.1536120095640E+01
 0.1495900083157E+01
 0.1447431115400E+01
 0.1389887994789E+01
 0.1322365695746E+01
 0.1580371124700E+01
 0.1596639563226E+01
 0.1611289474313E+01
 0.1624163331331E+01
 0.1635037488731E+01
 0.1643639195674E+01
 0.1649656389178E+01
 0.1652743013392E+01
 0.1652522060091E+01
 0.1648587850827E+01
 0.1640508540146E+01
 0.1627829418780E+01
 0.1610077276775E+01
 0.1586765779689E+01
 0.1557401449107E+01
 0.1521489386774E+01
 0.1478537365534E+01
 0.1428057170690E+01
 0.1369564635936E+01
 0.1302580632962E+01
 0.1593014608803E+01
 0.1608683875152E+01
 0.1622436420486E+01
 0.1634073491330E+01
 0.1643334300551E+01
 0.1649918683948E+01
 0.1653499609424E+01
 0.1653730090008E+01
 0.1650247667253E+01
 0.1642678416193E+01
 0.1630641603942E+01
 0.1613755637814E+01
 0.1591645662275E+01
 0.1563953037668E+01
 0.1530346932711E+01
 0.1490538377880E+01
 0.1444297342327E+01
 0.1391473171094E+01
 0.1332016204249E+01
 0.1265992723393E+01
 0.1602050229613E+01
 0.1616546245507E+01
 0.1628781653359E+01
 0.1638505047390E+01
 0.1645412669410E+01
 0.1649177265601E+01
 0.1649462263147E+01
 0.1645929030068E+01
 0.1638241742965E+01
 0.1626072252718E+01
 0.1609106142588E+01
 0.1587050591678E+01
 0.1559644472006E+01
 0.1526671237070E+01
 0.1487975620718E+01
 0.1443486040416E+01
 0.1393245855296E+01
 0.1337457471400E+01
 0.1276539959586E+01
 0.1211189344058E+01
 0.1607515159585E+01
 0.1620292940902E+01
 0.1630423408217E+01
 0.1637586018213E+01
 0.1641427670822E+01
 0.1641596144736E+01
 0.1637753259728E+01
 0.1629580322336E+01
 0.1616781874154E+01
 0.1599090334508E+01
 0.1576272518171E+01
 0.1548138351678E+01
 0.1514551995334E+01
 0.1475445857422E+01
 0.1430838708479E+01
 0.1380860461672E+01
 0.1325788642812E+01
 0.1266106403409E+01
 0.1202601778938E+01
 0.1136529024938E+01
 0.1609468172538E+01
 0.1620021770683E+01
 0.1627498892904E+01
 0.1631487584684E+01
 0.1631580267488E+01
 0.1627405741949E+01
 0.1618636373885E+01
 0.1604988625592E+01
 0.1586223912011E+01
 0.1562151959211E+01
 0.1532636910470E+01
 0.1497605750797E+01
 0.1457058486561E+01
 0.1411079662616E+01
 0.1359851171317E+01
 0.1303667097086E+01
 0.1242953169011E+01
 0.1178298664305E+01
 0.1110528452115E+01
 0.1040919027424E+01
 0.1607989177720E+01
 0.1615862872983E+01
 0.1620181938476E+01
 0.1620416974917E+01
 0.1616105797367E+01
 0.1606871223447E+01
 0.1592414698107E+01
 0.1572508070035E+01
 0.1546989931019E+01
 0.1515767098272E+01
 0.1478819985878E+01
 0.1436210098408E+01
 0.1388087696354E+01
 0.1334697365151E+01
 0.1276378483520E+01
 0.1213556031971E+01
 0.1146714530300E+01
 0.1076342763867E+01
 0.1002824642894E+01
 0.9262723310552E+00
 0.1603181120056E+01
 0.1607977574811E+01
 0.1608670359726E+01
 0.1604592102217E+01
 0.1595237715341E+01
 0.1580248490671E+01
 0.1559382139069E+01
 0.1532492085242E+01
 0.1499518639271E+01
 0.1460489212666E+01
 0.1415523855376E+01
 0.1364842528520E+01
 0.1308770466711E+01
 0.1247737227353E+01
 0.1182262842282E+01
 0.1112919851466E+01
 0.1040249924076E+01
 0.9645934248800E+00
 0.8857328160529E+00
 0.8019754017216E+00
 0.1595165216585E+01
 0.1596537829660E+01
 0.1593150552094E+01
 0.1584195807574E+01
 0.1569158553164E+01
 0.1547738773268E+01
 0.1519787062903E+01
 0.1485269430701E+01
 0.1444254784520E+01
 0.1396916227528E+01
 0.1343539030135E+01
 0.1284529625302E+01
 0.1220420778189E+01
 0.1151867445018E+01
 0.1079625275768E+01
 0.1004497595499E+01
 0.9272250277179E+00
 0.8482640396927E+00
 0.7673682829412E+00
 0.6828015566770E+00
 0.1584081790488E+01
 0.1581717485058E+01
 0.1573789823692E+01
 0.1559378338090E+01
 0.1538020257895E+01
 0.1509530960853E+01
 0.1473896184211E+01
 0.1431224522791E+01
 0.1381735800348E+01
 0.1325767606202E+01
 0.1263788163886E+01
 0.1196408537520E+01
 0.1124389500906E+01
 0.1048639224859E+01
 0.9701969405686E+00
 0.8901956395565E+00
 0.8097922182861E+00
 0.7300572623340E+00
 0.6518061599955E+00
 0.5759048841288E+00
 0.1570119400595E+01
 0.1563728122730E+01
 0.1550771762561E+01
 0.1530296508194E+01
 0.1501989902563E+01
 0.1465850621781E+01
 0.1422037439783E+01
 0.1370819110043E+01
 0.1312573717556E+01
 0.1247805416925E+01
 0.1177163696949E+01
 0.1101458292242E+01
 0.1021668828211E+01
 0.9389508961389E+00
 0.8546434492063E+00
 0.7702889403838E+00
 0.6876962641395E+00
 0.6091090503081E+00
 0.5376792036368E+00
 0.4780982600823E+00
 0.1553520168410E+01
 0.1542813361863E+01
 0.1524287830435E+01
 0.1497118563556E+01
 0.1461278426411E+01
 0.1417015221218E+01
 0.1364675948997E+01
 0.1304682259033E+01
 0.1237554656908E+01
 0.1163945175206E+01
 0.1084659978239E+01
 0.1000673933143E+01
 0.9131435329651E+00
 0.8234281668955E+00
 0.7331374997935E+00
 0.6442411776824E+00
 0.5593134740658E+00
 0.4820754318496E+00
 0.4184988932539E+00
 0.3788144149270E+00
 0.1534587453579E+01
 0.1519235233867E+01
 0.1494517168615E+01
 0.1460021845886E+01
 0.1416172389017E+01
 0.1363493350289E+01
 0.1302492169685E+01
 0.1233700107392E+01
 0.1157748055340E+01
 0.1075405043815E+01
 0.9875946166968E+00
 0.8954040898996E+00
 0.8000998367780E+00
 0.7031648913561E+00
 0.6063863639966E+00
 0.5120433864022E+00
 0.4232968202417E+00
 0.3449638293533E+00
 0.2850705956606E+00
 0.2583933028245E+00
 0.1513685580406E+01
 0.1493226534181E+01
 0.1461576085730E+01
 0.1419204749409E+01
 0.1367112427192E+01
 0.1306046950904E+01
 0.1236560908280E+01
 0.1159252805610E+01
 0.1074850002859E+01
 0.9842300761517E+00
 0.8884262048892E+00
 0.7886375176554E+00
 0.6862601712475E+00
 0.5829594024922E+00
 0.4808154544930E+00
 0.3825997812235E+00
 0.2922726420435E+00
 0.2158723848075E+00
 0.1630798174376E+00
 0.1505501365065E+00
 0.1491279282572E+01
 0.1464991133521E+01
 0.1425582113900E+01
 0.1375076145367E+01
 0.1315057390230E+01
 0.1246089710780E+01
 0.1168709057250E+01
 0.1083606752770E+01
 0.9916463196498E+00
 0.8938610169570E+00
 0.7914611351301E+00
 0.6858650381261E+00
 0.5787670070525E+00
 0.4722620612634E+00
 0.3690572859163E+00
 0.2728081476758E+00
 0.1886266151589E+00
 0.1237825419162E+00
 0.8869852962239E-01
 0.9716412100199E-01
 0.1468040475245E+01
 0.1434302904514E+01
 0.1386204201281E+01
 0.1328413579237E+01
 0.1261316585953E+01
 0.1185258480599E+01
 0.1100904554274E+01
 0.1009137874354E+01
 0.9110340644549E+00
 0.8078596541479E+00
 0.7010992838858E+00
 0.5925120578766E+00
 0.4842263205410E+00
 0.3788842185209E+00
 0.2798456914121E+00
 0.1914490347764E+00
 0.1192806246161E+00
 0.7031465198608E-01
 0.5246538127751E-01
 0.7188578291311E-01
 0.1443128228622E+01
 0.1398020415752E+01
 0.1344170940588E+01
 0.1280668700802E+01
 0.1207445487729E+01
 0.1125315822975E+01
 0.1035248449143E+01
 0.9383905663307E+00
 0.8360699110553E+00
 0.7298240670768E+00
 0.6214409716188E+00
 0.5130188349123E+00
 0.4070485042641E+00
 0.3065171538012E+00
 0.2150200731967E+00
 0.1368375019997E+00
 0.7686833457962E-01
 0.4015841686672E-01
 0.3047320979335E-01
 0.4565267334653E-01
</DataArray>
<DataArray type="Float64" Name="OI" NumberOfComponents="1" ComponentName0="OI" format="ascii">
 0.5455445272524E+00
 0.5580992086378E+00
 0.5549853150733E+00
 0.5621124817066E+00
 0.5630416068011E+00
 0.5602541163608E+00
 0.5536405263418E+00
 0.5437646209725E+00
 0.5309928336646E+00
 0.5156430386726E+00
 0.4979495545210E+00
 0.4780783225234E+00
 0.4561314253065E+00
 0.4321535381748E+00
 0.4061370844448E+00
 0.3780269824717E+00
 0.3477248672253E+00
 0.3150945831053E+00
 0.2799636822501E+00
 0.2421286904066E+00
 0.2013550983310E+00
 0.1573743170708E+00
 0.1098688111449E+00
 0.5842147544263E-01
 0.2496534030848E-02
 0.5828951027571E-01
 0.1238260026962E+00
 0.1935664573702E+00
 0.2666785675313E+00
 0.3421911609873E+00
 0.4190369462255E+00
 0.4959809487405E+00
 0.5714410750959E+00
 0.6439452532855E+00
 0.7133943869160E+00
 0.7805003046671E+00
 0.8492290365637E+00
 0.9160918962474E+00
 0.1036044864243E+01
 0.1015730591633E+01
 0.1825077394331E+01
 0.4724539538276E+00
 0.5233867377110E+00
 0.5183813184617E+00
 0.5183187410539E+00
 0.5176077217173E+00
 0.5136181669271E+00
 0.5066620917394E+00
 0.4968197592177E+00
 0.4843522502303E+00
 0.4694781706444E+00
 0.4523809977792E+00
 0.4331943602920E+00
 0.4120027580501E+00
 0.3888428895709E+00
 0.3637065322463E+00
 0.3365438248332E+00
 0.3072667146929E+00
 0.2757530407712E+00
 0.2418495683879E+00
 0.2053749871282E+00
 0.1661220732434E+00
 0.1238546448719E+00
 0.7829793312280E-01
 0.2915287743248E-01
 0.2383771316307E-01
 0.8068242871952E-01
 0.1411801208505E+00
 0.2048258070034E+00
 0.2708887095262E+00
 0.3384595972498E+00
 0.4064570760197E+00
 0.4736185032241E+00
 0.5385876182927E+00
 0.6001444261403E+00
 0.6572419872807E+00
 0.7093879553501E+00
 0.7541226516680E+00
 0.7941552422188E+00
 0.8035696365367E+00
 0.6820650895053E+00
 0.1129186309765E+01
 0.4181036547857E+00
 0.4734964815157E+00
 0.4792626655403E+00
 0.4760039522324E+00
 0.4732555855864E+00
 0.4683015408484E+00
 0.4608720530674E+00
 0.4509778679025E+00
 0.4387230607351E+00
 0.4242545826481E+00
 0.4077033989416E+00
 0.3891721290588E+00
 0.3687268054117E+00
 0.3463952168576E+00
 0.3221673748356E+00
 0.2959974686177E+00
 0.2678063708905E+00
 0.2374853364286E+00
 0.2048990070258E+00
 0.1698886993220E+00
 0.1322759310482E+00
 0.9186327901254E-01
 0.4844470036224E-01
 0.2249768448413E-02
 0.4803605058492E-01
 0.1009274358482E+00
 0.1565770644592E+00
 0.2144913224882E+00
 0.2739969762298E+00
 0.3342305213294E+00
 0.3941307046654E+00
 0.4524768445624E+00
 0.5079985286821E+00
 0.5593349033280E+00
 0.6048679792862E+00
 0.6421604149152E+00
 0.6674702323256E+00
 0.6739785533614E+00
 0.6167476832051E+00
 0.5364334604293E+00
 0.9513577702168E+00
 0.3715344001806E+00
 0.4231681891322E+00
 0.4361768440500E+00
 0.4339864733131E+00
 0.4297837745357E+00
 0.4239985215810E+00
 0.4161286129639E+00
 0.4061309721516E+00
 0.3940343115826E+00
 0.3799202381563E+00
 0.3638773437568E+00
 0.3459793012137E+00
 0.3262746960154E+00
 0.3047822573141E+00
 0.2814896620546E+00
 0.2563542738289E+00
 0.2293049587030E+00
 0.2002455080939E+00
 0.1690577721701E+00
 0.1356058916196E+00
 0.9974228660851E-01
 0.6131795561221E-01
 0.2025456717577E-01
 0.2390275332866E-01
 0.7042078020413E-01
 0.1193955561272E+00
 0.1703987823873E+00
 0.2229360142560E+00
 0.2763696158896E+00
 0.3298780915430E+00
 0.3824439545940E+00
 0.4328982924578E+00
 0.4799649704740E+00
 0.5221138665039E+00
 0.5571726813227E+00
 0.5817723085086E+00
 0.5908978538994E+00
 0.5715756657258E+00
 0.5046992451466E+00
 0.5034305424746E+00
 0.8965299093784E+00
 0.3289458328524E+00
 0.3748552236521E+00
 0.3914819085055E+00
 0.3914932800801E+00
 0.3869187302442E+00
 0.3805109983529E+00
 0.3722830444821E+00
 0.3621810698400E+00
 0.3502137012740E+00
 0.3364216992736E+00
 0.3208606840837E+00
 0.3035805562364E+00
 0.2846144278114E+00
 0.2639726746112E+00
 0.2416405428389E+00
 0.2175780646072E+00
 0.1917214129340E+00
 0.1639862441170E+00
 0.1342713558878E+00
 0.1024647763870E+00
 0.6845604347928E-01
 0.3218615363454E-01
 0.7550424542650E-02
 0.4800965800478E-01
 0.9127163569295E-01
 0.1364106239808E+00
 0.1829833379502E+00
 0.2304954380521E+00
 0.2783378112531E+00
 0.3257338765816E+00
 0.3717228861035E+00
 0.4151845206625E+00
 0.4548275161107E+00
 0.4889869777166E+00
 0.5152040196382E+00
 0.5298649118678E+00
 0.5272923124855E+00
 0.4980858817300E+00
 0.4529164121058E+00
 0.5214646424317E+00
 0.8814469749191E+00
 0.2886966408666E+00
 0.3287412867793E+00
 0.3466205052973E+00
 0.3486485423294E+00
 0.3444048105716E+00
 0.3376917953474E+00
 0.3292104290454E+00
 0.3190363431920E+00
 0.3071923628678E+00
 0.2937054661320E+00
 0.2786101807364E+00
 0.2619388103822E+00
 0.2437120493686E+00
 0.2239332429212E+00
 0.2025855950349E+00
 0.1796316877004E+00
 0.1550147137750E+00
 0.1286621655381E+00
 0.1004910789318E+00
 0.7042003576604E-01
 0.3841653977287E-01
 0.6027333567779E-02
 0.3268999070400E-01
 0.7082651934994E-01
 0.1108393265018E+00
 0.1522574022431E+00
 0.1946293370195E+00
 0.2374682734714E+00
 0.2801955800331E+00
 0.3220857518520E+00
 0.3622434828736E+00
 0.3996052674190E+00
 0.4328939501226E+00
 0.4604145149911E+00
 0.4797389754775E+00
 0.4875029090303E+00
 0.4792934978483E+00
 0.4539180376605E+00
 0.4421092778652E+00
 0.5587187358303E+00
 0.8826293392118E+00
 0.2499710168240E+00
 0.2845670608184E+00
 0.3022924310529E+00
 0.3057741257609E+00
 0.3021569516768E+00
 0.2954227047233E+00
 0.2868131332442E+00
 0.2766157264328E+00
 0.2649065626920E+00
 0.2517202191685E+00
 0.2370831576774E+00
 0.2210168620618E+00
 0.2035333143906E+00
 0.1846307169339E+00
 0.1642911374863E+00
 0.1424802124365E+00
 0.1191489167366E+00
 0.9423905922396E-01
 0.6769556203268E-01
 0.3951896754146E-01
 0.1064406636136E-01
 0.2378154012980E-01
 0.5716632656744E-01
 0.9253164046621E-01
 0.1293493429512E+00
 0.1671872729293E+00
 0.2055996819912E+00
 0.2441174749628E+00
 0.2821994339235E+00
 0.3191792708641E+00
 0.3542375761675E+00
 0.3863875603813E+00
 0.4144197769793E+00
 0.4367480152120E+00
 0.4512476944209E+00
 0.4553749804509E+00
 0.4474984425134E+00
 0.4346643746289E+00
 0.4567576206400E+00
 0.6017605005671E+00
 0.8920044767543E+00
 0.2123215407295E+00
 0.2420271473617E+00
 0.2588006422743E+00
 0.2631526405271E+00
 0.2601981995645E+00
 0.2536330834818E+00
 0.2450164281521E+00
 0.2348525843225E+00
 0.2233002010615E+00
 0.2104193065702E+00
 0.1962400129077E+00
 0.1807800207893E+00
 0.1640467136954E+00
 0.1460356572690E+00
 0.1267296062575E+00
 0.1060994907135E+00
 0.8410909587374E-01
 0.6073107385245E-01
 0.3601982199763E-01
 0.1121993607053E-01
 0.2058175977328E-01
 0.4961062488164E-01
 0.8071418240875E-01
 0.1132984965389E+00
 0.1470045654003E+00
 0.1814222998705E+00
 0.2161247539730E+00
 0.2506718825375E+00
 0.2845692998835E+00
 0.3172198714385E+00
 0.3478939364015E+00
 0.3757097027161E+00
 0.3995917343145E+00
 0.4181975237848E+00
 0.4299459795803E+00
 0.4335985025901E+00
 0.4308287952287E+00
 0.4347785379369E+00
 0.4860425776515E+00
 0.6455237058455E+00
 0.9063055439213E+00
 0.1754836900651E+00
 0.2008577545998E+00
 0.2162528261750E+00
 0.2209852070833E+00
 0.2185963468005E+00
 0.2122973375780E+00
 0.2037708963455E+00
 0.1936972513376E+00
 0.1823290023206E+00
 0.1697650684854E+00
 0.1560491079255E+00
 0.1412018840655E+00
 0.1252309021317E+00
 0.1081330102931E+00
 0.8989663999405E-01
 0.7050860455458E-01
 0.4997928392096E-01
 0.2848515419854E-01
 0.8987875289812E-02
 0.2223931986999E-01
 0.4753073812294E-01
 0.7477383972552E-01
 0.1034452395014E+00
 0.1332883429423E+00
 0.1639872137412E+00
 0.1951582747447E+00
 0.2264051568876E+00
 0.2573281465340E+00
 0.2874902206976E+00
 0.3163748229123E+00
 0.3433587255093E+00
 0.3676979025395E+00
 0.3885173229610E+00
 0.4048343532429E+00
 0.4158001456236E+00
 0.4217291597715E+00
 0.4273112135795E+00
 0.4490642089614E+00
 0.5231543541064E+00
 0.6883311633764E+00
 0.9240250928836E+00
 0.1392914969796E+00
 0.1608504388004E+00
 0.1746680563733E+00
 0.1794071036055E+00
 0.1774339548635E+00
 0.1714275077684E+00
 0.1630576546735E+00
 0.1531241836521E+00
 0.1419695342455E+00
 0.1297395881644E+00
 0.1164998921475E+00
 0.1022816018027E+00
 0.8709978703763E-01
 0.7096371006431E-01
 0.5389358146581E-01
 0.3598467517933E-01
 0.1788823357746E-01
 0.1027966471632E-01
 0.2814727439624E-01
 0.5034351033676E-01
 0.7414790977720E-01
 0.9924932883473E-01
 0.1254835597746E+00
 0.1526493976270E+00
 0.1804604438372E+00
 0.2085671588682E+00
 0.2366141720007E+00
 0.2642528545909E+00
 0.2911143921215E+00
 0.3167751211940E+00
 0.3407363972173E+00
 0.3624248426038E+00
 0.3812239346393E+00
 0.3965993695162E+00
 0.4085426775960E+00
 0.4189093079180E+00
 0.4346531282546E+00
 0.4732215621246E+00
 0.5641183506354E+00
 0.7298043607100E+00
 0.9443757186349E+00
 0.1036367002959E+00
 0.1218523086558E+00
 0.1340396337581E+00
 0.1385222908462E+00
 0.1368099958309E+00
 0.1310795137860E+00
 0.1229057919360E+00
 0.1131553807348E+00
 0.1022481577290E+00
 0.9038158089360E-01
 0.7765315211982E-01
 0.6412001108324E-01
 0.4983669981556E-01
 0.3492038293231E-01
 0.1988535230927E-01
 0.9756345911617E-02
 0.2027186313577E-01
 0.3801721442388E-01
 0.5754902036585E-01
 0.7832111157648E-01
 0.1002059634493E+00
 0.1231200877065E+00
 0.1469487759322E+00
 0.1715169660047E+00
 0.1965697380480E+00
 0.2217991524864E+00
 0.2469000139402E+00
 0.2715847398261E+00
 0.2955633487250E+00
 0.3185175365475E+00
 0.3400911683777E+00
 0.3599107917971E+00
 0.3776629558154E+00
 0.3933146028002E+00
 0.4077126856278E+00
 0.4240377215277E+00
 0.4505951865972E+00
 0.5039763654341E+00
 0.6067266009189E+00
 0.7700307345930E+00
 0.9668936036806E+00
 0.6845168270072E-01
 0.8378134772877E-01
 0.9439963174457E-01
 0.9846953186889E-01
 0.9689282884568E-01
 0.9141195541048E-01
 0.8346916942200E-01
 0.7396046273595E-01
 0.6337592775467E-01
 0.5198426874980E-01
 0.3997299825178E-01
 0.2760801121797E-01
 0.1585696308129E-01
 0.1106337553944E-01
 0.2086652117527E-01
 0.3544556824815E-01
 0.5155996632287E-01
 0.6872290205232E-01
 0.8682792469248E-01
 0.1058441883839E+00
 0.1257454429543E+00
 0.1464800822674E+00
 0.1679530375053E+00
 0.1900138674948E+00
 0.2124441814425E+00
 0.2349845369278E+00
 0.2573879468192E+00
 0.2794368990018E+00
 0.3009302362542E+00
 0.3216668511448E+00
 0.3414491949473E+00
 0.3601266700238E+00
 0.3777164868715E+00
 0.3947001323485E+00
 0.4127100026820E+00
 0.4359146167955E+00
 0.4731128425762E+00
 0.5389780910631E+00
 0.6497982428440E+00
 0.8092382590679E+00
 0.9912718893934E+00
 0.3373493333537E-01
 0.4675804899499E-01
 0.5602637627061E-01
 0.5966946283368E-01
 0.5820347584095E-01
 0.5303974778849E-01
 0.4551112138367E-01
 0.3658940065992E-01
 0.2702789175786E-01
 0.1791649582589E-01
 0.1280226850281E-01
 0.1742044786024E-01
 0.2794659123176E-01
 0.4047838139095E-01
 0.5404631091373E-01
 0.6839895098015E-01
 0.8346662210359E-01
 0.9923837797871E-01
 0.1157222496548E+00
 0.1329251944829E+00
 0.1508378578737E+00
 0.1694218688317E+00
 0.1886002478705E+00
 0.2082509982877E+00
 0.2281976624366E+00
 0.2482353625589E+00
 0.2681822842857E+00
 0.2878989807520E+00
 0.3072821319488E+00
 0.3262583017430E+00
 0.3448014107016E+00
 0.3629984541516E+00
 0.3812061953127E+00
 0.4003957614624E+00
 0.4228517894364E+00
 0.4533528319681E+00
 0.5005078786813E+00
 0.5766035105715E+00
 0.6927292748044E+00
 0.8476720824998E+00
 0.1017285209449E+01
 0.3963771520566E-02
 0.1362595226215E-01
 0.2168619463461E-01
 0.2518340967225E-01
 0.2454682908408E-01
 0.2137023211005E-01
 0.1802887301951E-01
 0.1774735399161E-01
 0.2235010453767E-01
 0.3044135052861E-01
 0.4037908070155E-01
 0.5136920148516E-01
 0.6307167132770E-01
 0.7533890181708E-01
 0.8811114338228E-01
 0.1013732796297E+00
 0.1151342861355E+00
 0.1294147376280E+00
 0.1442376246224E+00
 0.1596192436078E+00
 0.1755595236801E+00
 0.1920335509623E+00
 0.2089859672974E+00
 0.2263279712336E+00
 0.2439300229759E+00
 0.2616470273586E+00
 0.2793682914057E+00
 0.2970393270418E+00
 0.3146623944170E+00
 0.3323002223014E+00
 0.3501069176102E+00
 0.3684126313368E+00
 0.3879041153003E+00
 0.4099854902046E+00
 0.4374246470527E+00
 0.4752536377215E+00
 0.5314210870256E+00
 0.6157579190125E+00
 0.7352328113265E+00
 0.8855515628421E+00
 0.1044753402672E+01
 0.3534197929928E-01
 0.2970919559319E-01
 0.2737580367955E-01
 0.2792061364256E-01
 0.3035641881841E-01
 0.3453160631734E-01
 0.4051369969577E-01
 0.4809610926625E-01
 0.5690416951506E-01
 0.6658864652961E-01
 0.7689645059676E-01
 0.8766567152661E-01
 0.9880213824792E-01
 0.1102585951555E+00
 0.1220198707673E+00
 0.1340926258264E+00
 0.1464977755757E+00
 0.1592636801526E+00
 0.1724199014669E+00
 0.1859902780750E+00
 0.1999855914654E+00
 0.2143978293042E+00
 0.2291975979937E+00
 0.2443338095388E+00
 0.2597281773462E+00
 0.2752997773137E+00
 0.2910140057860E+00
 0.3069070666987E+00
 0.3230930387225E+00
 0.3397768701965E+00
 0.3572968400633E+00
 0.3762225442862E+00
 0.3975448941941E+00
 0.4230223351973E+00
 0.4557275417937E+00
 0.5006488998821E+00
 0.5647991103429E+00
 0.6557131567379E+00
 0.7771915963430E+00
 0.9230585756739E+00
 0.1073523231875E+01
 0.6912384481779E-01
 0.6453614832262E-01
 0.6198228325804E-01
 0.6221152362322E-01
 0.6510039135151E-01
 0.7021592792266E-01
 0.7706651896235E-01
 0.8518678156385E-01
 0.9418739950170E-01
 0.1037762982461E+00
 0.1137524162814E+00
 0.1239872723006E+00
 0.1344061457126E+00
 0.1449731607119E+00
 0.1556804019516E+00
 0.1665399373363E+00
 0.1775775646447E+00
 0.1888269809456E+00
 0.2003244788881E+00
 0.2121033024711E+00
 0.2241881490706E+00
 0.2365917298870E+00
 0.2493147122008E+00
 0.2623476704301E+00
 0.2756672010872E+00
 0.2892601399533E+00
 0.3031719847237E+00
 0.3175341598413E+00
 0.3325771308053E+00
 0.3486514102955E+00
 0.3662785617177E+00
 0.3862554062088E+00
 0.4098386246061E+00
 0.4390510681592E+00
 0.4771028341480E+00
 0.5287157656441E+00
 0.5998429403174E+00
 0.6959888889933E+00
 0.8185737020099E+00
 0.9603362536482E+00
 0.1103458614878E+01
 0.1027161335658E+00
 0.9969029385499E-01
 0.9814132024655E-01
 0.9895966141635E-01
 0.1022403046103E+00
 0.1076363145177E+00
 0.1146479262700E+00
 0.1227884912211E+00
 0.1316584820582E+00
 0.1409625795801E+00
 0.1504983887018E+00
 0.1601364944814E+00
 0.1698017276374E+00
 0.1794585833833E+00
 0.1891005669164E+00
 0.1987423717934E+00
 0.2084138196943E+00
 0.2181544302528E+00
 0.2280087658012E+00
 0.2380218930409E+00
 0.2482355319898E+00
 0.2586866304380E+00
 0.2694094748011E+00
 0.2804395956738E+00
 0.2918114016659E+00
 0.3035823089821E+00
 0.3158809943294E+00
 0.3289374033917E+00
 0.3431012014273E+00
 0.3588690281639E+00
 0.3769402390629E+00
 0.3983196355392E+00
 0.4244832386476E+00
 0.4576269645174E+00
 0.5009551635416E+00
 0.5587726985523E+00
 0.6359549350809E+00
 0.7362713192481E+00
 0.8593840245988E+00
 0.9974873992389E+00
 0.1134433729535E+01
 0.1360909070238E+00
 0.1346206025455E+00
 0.1342391925373E+00
 0.1358218530845E+00
 0.1395575867914E+00
 0.1451911933605E+00
 0.1522773071028E+00
 0.1603536739801E+00
 0.1690275421389E+00
 0.1780014550552E+00
 0.1870675704953E+00
 0.1960909779146E+00
 0.2049925162506E+00
 0.2137347277056E+00
 0.2223112814755E+00
 0.2307391262464E+00
 0.2390524973690E+00
 0.2472978192971E+00
 0.2555296600051E+00
 0.2638072406225E+00
 0.2721920987172E+00
 0.2807484411151E+00
 0.2895471258073E+00
 0.2986712768266E+00
 0.3082153694365E+00
 0.3183094844589E+00
 0.3291676456449E+00
 0.3411203982351E+00
 0.3546376662689E+00
 0.3703601189081E+00
 0.3891554299397E+00
 0.4122120671897E+00
 0.4411755087577E+00
 0.4783296020434E+00
 0.5267598211794E+00
 0.5902656166896E+00
 0.6726912464454E+00
 0.7763609052626E+00
 0.8996405794589E+00
 0.1034563465982E+01
 0.1166323945718E+01
 0.1692579134274E+00
 0.1692666175700E+00
 0.1700669860306E+00
 0.1724718505815E+00
 0.1767122489299E+00
 0.1826057990989E+00
 0.1897672884497E+00
 0.1977701083245E+00
 0.2062363102574E+00
 0.2148703066729E+00
 0.2234602168619E+00
 0.2318657793222E+00
 0.2400035601195E+00
 0.2478338902449E+00
 0.2553505869294E+00
 0.2625731869561E+00
 0.2695410808794E+00
 0.2763087864608E+00
 0.2829425274215E+00
 0.2895177565312E+00
 0.2961182172738E+00
 0.3028378699716E+00
 0.3097864957164E+00
 0.3170968209336E+00
 0.3249250022021E+00
 0.3334751665030E+00
 0.3430479761490E+00
 0.3540754705633E+00
 0.3671472251268E+00
 0.3830434743928E+00
 0.4027876347011E+00
 0.4277246053939E+00
 0.4596199897038E+00
 0.5007716900228E+00
 0.5540634396189E+00
 0.6227496453338E+00
 0.7097248741665E+00
 0.8161299776306E+00
 0.9393917930519E+00
 0.1071530950625E+01
 0.1198958086951E+01
 0.2022319788168E+00
 0.2036336675782E+00
 0.2055922598825E+00
 0.2088412593017E+00
 0.2136240941999E+00
 0.2198112889984E+00
 0.2270712156132E+00
 0.2350139671728E+00
 0.2432798194546E+00
 0.2515782484429E+00
 0.2596955455649E+00
 0.2674874063754E+00
 0.2748668623591E+00
 0.2817925217367E+00
 0.2882588213473E+00
 0.2942884948925E+00
 0.2999269352010E+00
 0.3052379019903E+00
 0.3103007502400E+00
 0.3152089364039E+00
 0.3200703726623E+00
 0.3250107483724E+00
 0.3301805475324E+00
 0.3357635173962E+00
 0.3419785084496E+00
 0.3491044096905E+00
 0.3575289820388E+00
 0.3677855435458E+00
 0.3805812126254E+00
 0.3968293837328E+00
 0.4176945625566E+00
 0.4446499657864E+00
 0.4795357076023E+00
 0.5246034111868E+00
 0.5824803441991E+00
 0.6558690776966E+00
 0.7468195840742E+00
 0.8554935243431E+00
 0.9787019990281E+00
 0.1108448532781E+01
 0.1231743726149E+01
 0.2350276196065E+00
 0.2377378548351E+00
 0.2408174902879E+00
 0.2449148719803E+00
 0.2502667303205E+00
 0.2567791975710E+00
 0.2641646504675E+00
 0.2720670809602E+00
 0.2801459114642E+00
 0.2881178649321E+00
 0.2957695342713E+00
 0.3029542090202E+00
 0.3095825482024E+00
 0.3156122968185E+00
 0.3210392486354E+00
 0.3258900919979E+00
 0.3302171016471E+00
 0.3340943435602E+00
 0.3376155747505E+00
 0.3408936995578E+00
 0.3440623166711E+00
 0.3472802787992E+00
 0.3507399445339E+00
 0.3546768463452E+00
 0.3593728364763E+00
 0.3651814736449E+00
 0.3725770727307E+00
 0.3821927253752E+00
 0.3948493691317E+00
 0.4115853307978E+00
 0.4336901078978E+00
 0.4627376790164E+00
 0.5006026102157E+00
 0.5494444836364E+00
 0.6116024941405E+00
 0.6892489078285E+00
 0.7836863040718E+00
 0.8943257955617E+00
 0.1017403684475E+01
 0.1145616365718E+01
 0.1264157554092E+01
 0.2676604550188E+00
 0.2716032445930E+00
 0.2757653085291E+00
 0.2807087005846E+00
 0.2866506184875E+00
 0.2935184212086E+00
 0.3010586279770E+00
 0.3089447313078E+00
 0.3168547393256E+00
 0.3245139221108E+00
 0.3317109704468E+00
 0.3382984076116E+00
 0.3441858271344E+00
 0.3493311340794E+00
 0.3537323357242E+00
 0.3574208793891E+00
 0.3604567627083E+00
 0.3629252915652E+00
 0.3649356684509E+00
 0.3666213663679E+00
 0.3681427802934E+00
 0.3696928914909E+00
 0.3715066047470E+00
 0.3738714914615E+00
 0.3771321908677E+00
 0.3817162670109E+00
 0.3881833537860E+00
 0.3972639595451E+00
 0.4098881467774E+00
 0.4272101120947E+00
 0.4506282786146E+00
 0.4817922373420E+00
 0.5225780879699E+00
 0.5750209675071E+00
 0.6411597222853E+00
 0.7226681196738E+00
 0.8202135996732E+00
 0.9325686352076E+00
 0.1055776982023E+01
 0.1182154885365E+01
 0.1301633725211E+01
 0.3001457926378E+00
 0.3052579835621E+00
 0.3104690186787E+00
 0.3162563200098E+00
 0.3228086745807E+00
 0.3300628913488E+00
 0.3377903971770E+00
 0.3456891878807E+00
 0.3534543846060E+00
 0.3608203846983E+00
 0.3675793732558E+00
 0.3735846011965E+00
 0.3787458970058E+00
 0.3830223870988E+00
 0.3864151715618E+00
 0.3889612358934E+00
 0.3907290520734E+00
 0.3918159370411E+00
 0.3923473442442E+00
 0.3924781275083E+00
 0.3923962237893E+00
 0.3923293149291E+00
 0.3925551310638E+00
 0.3934131667570E+00
 0.3953102934114E+00
 0.3987470759020E+00
 0.4043668487390E+00
 0.4129947549917E+00
 0.4256649341850E+00
 0.4436384493974E+00
 0.4684077992688E+00
 0.5016767010684E+00
 0.5452973516427E+00
 0.6011600201695E+00
 0.6710030646130E+00
 0.7560446802984E+00
 0.8564006351295E+00
 0.9703762400939E+00
 0.1093757603624E+01
 0.1219415339396E+01
 0.1339312914052E+01
 0.3324977986515E+00
 0.3387255547842E+00
 0.3449559729581E+00
 0.3515844418999E+00
 0.3587652048471E+00
 0.3664350163517E+00
 0.3743819501798E+00
 0.3823234529593E+00
 0.3899697809373E+00
 0.3970645239885E+00
 0.4034044193470E+00
 0.4088447867292E+00
 0.4132969588266E+00
 0.4167223630073E+00
 0.4191260851015E+00
 0.4205514026973E+00
 0.4210759293219E+00
 0.4208096096979E+00
 0.4198947245723E+00
 0.4185080196901E+00
 0.4168653583209E+00
 0.4152292928753E+00
 0.4139202364692E+00
 0.4133290640566E+00
 0.4139238923168E+00
 0.4162768210248E+00
 0.4211127480438E+00
 0.4293481210402E+00
 0.4421156896808E+00
 0.4607744850565E+00
 0.4868976138255E+00
 0.5222251525202E+00
 0.5685669943611E+00
 0.6276578330286E+00
 0.7009460527239E+00
 0.7892374099337E+00
 0.8921852351090E+00
 0.1007714491550E+01
 0.1131509384413E+01
 0.1257066954250E+01
 0.1377161929945E+01
 0.3647300740783E+00
 0.3720284825807E+00
 0.3792532517663E+00
 0.3867208051065E+00
 0.3945465723820E+00
 0.4026596196242E+00
 0.4108574468901E+00
 0.4188721136497E+00
 0.4264267838251E+00
 0.4332739409257E+00
 0.4392156457901E+00
 0.4441104681076E+00
 0.4478724514658E+00
 0.4504663873708E+00
 0.4519022245066E+00
 0.4522302391453E+00
 0.4515377547140E+00
 0.4499477988775E+00
 0.4476198278578E+00
 0.4447526992338E+00
 0.4415902443077E+00
 0.4384296799700E+00
 0.4356335692172E+00
 0.4336432321356E+00
 0.4329866521329E+00
 0.4343055924594E+00
 0.4384039490793E+00
 0.4462857524558E+00
 0.4591767372979E+00
 0.4785254987470E+00
 0.5059741100861E+00
 0.5432852065161E+00
 0.5922144103348E+00
 0.6543383412055E+00
 0.7308321410287E+00
 0.8221348851978E+00
 0.9275098231402E+00
 0.1044588006510E+01
 0.1169054112037E+01
 0.1294870531421E+01
 0.1415242321053E+01
 0.3968557249508E+00
 0.4051882363553E+00
 0.4133871860943E+00
 0.4216932240537E+00
 0.4301800150667E+00
 0.4387628070615E+00
 0.4472423011497E+00
 0.4553606860562E+00
 0.4628517312693E+00
 0.4694762767998E+00
 0.4750422523842E+00
 0.4794125106651E+00
 0.4825049369950E+00
 0.4842887123823E+00
 0.4847794889940E+00
 0.4840351847615E+00
 0.4821532918238E+00
 0.4792702100261E+00
 0.4755626938530E+00
 0.4712516519438E+00
 0.4666086006777E+00
 0.4619648632526E+00
 0.4577242570950E+00
 0.4543772522726E+00
 0.4525099685027E+00
 0.4528316117653E+00
 0.4562221727566E+00
 0.4637692986850E+00
 0.4767861544185E+00
 0.4968032915113E+00
 0.5255222148294E+00
 0.5647182567931E+00
 0.6160865769246E+00
 0.6810495415124E+00
 0.7605303208533E+00
 0.8546451467257E+00
 0.9623298746480E+00
 0.1080994850028E+01
 0.1206357715137E+01
 0.1332710129636E+01
 0.1453567419574E+01
 0.4288874130413E+00
 0.4382252623388E+00
 0.4473831717897E+00
 0.4565291255887E+00
 0.4656930030536E+00
 0.4747713079124E+00
 0.4835626198995E+00
 0.4918151935265E+00
 0.4992711473547E+00
 0.5056990059993E+00
 0.5109129480228E+00
 0.5147810162805E+00
 0.5172259916810E+00
 0.5182224205219E+00
 0.5177924487125E+00
 0.5160022034735E+00
 0.5129596874109E+00
 0.5088147937325E+00
 0.5037614766617E+00
 0.4980423651215E+00
 0.4919560698473E+00
 0.4858671320422E+00
 0.4802193916555E+00
 0.4755508440195E+00
 0.4725037009441E+00
 0.4718520952875E+00
 0.4745489555556E+00
 0.4817614668333E+00
 0.4948849259463E+00
 0.5155252441356E+00
 0.5454360568376E+00
 0.5863992938591E+00
 0.6400484363553E+00
 0.7076603424940E+00
 0.7899300150781E+00
 0.8866917833961E+00
 0.9966082946882E+00
 0.1116920924809E+01
 0.1243382282765E+01
 0.1370521899263E+01
 0.1492122056309E+01
 0.4608373983053E+00
 0.4711590585809E+00
 0.4812656278357E+00
 0.4912553282251E+00
 0.5011128808026E+00
 0.5107120750822E+00
 0.5198448432401E+00
 0.5282618841332E+00
 0.5357115369582E+00
 0.5419692884931E+00
 0.5468558386215E+00
 0.5502452302652E+00
 0.5520661235512E+00
 0.5522993518059E+00
 0.5509742861444E+00
 0.5481657474929E+00
 0.5439924688203E+00
 0.5386177895287E+00
 0.5322525488022E+00
 0.5251605057339E+00
 0.5176664827386E+00
 0.5101670405563E+00
 0.5031444967282E+00
 0.4971824453454E+00
 0.4929768677251E+00
 0.4913640629633E+00
 0.4933665627663E+00
 0.5002270088170E+00
 0.5134179293799E+00
 0.5346151398692E+00
 0.5656193506940E+00
 0.6082164582551E+00
 0.6639812681836E+00
 0.7340575833456E+00
 0.8189372167043E+00
 0.9182103190425E+00
 0.1030311186352E+01
 0.1152346575251E+01
 0.1280095430004E+01
 0.1408265020167E+01
 0.1530879116455E+01
 0.4927175747271E+00
 0.5040082639050E+00
 0.5150580265881E+00
 0.5258979537331E+00
 0.5364666731478E+00
 0.5466120432076E+00
 0.5561155127073E+00
 0.5647270422198E+00
 0.5721992470231E+00
 0.5783138713470E+00
 0.5828983549728E+00
 0.5858334845133E+00
 0.5870547253936E+00
 0.5865500667507E+00
 0.5843567736131E+00
 0.5805587572401E+00
 0.5752855765442E+00
 0.5687138028772E+00
 0.5610706351841E+00
 0.5526401238157E+00
 0.5437721429714E+00
 0.5348937823746E+00
 0.5265240002117E+00
 0.5192897859896E+00
 0.5139383215469E+00
 0.5113651115815E+00
 0.5126588433152E+00
 0.5191336179681E+00
 0.5323347874913E+00
 0.5540038136788E+00
 0.5859855925602E+00
 0.6300704786530E+00
 0.6877811272172E+00
 0.7601434659215E+00
 0.8474714302442E+00
 0.9491451472616E+00
 0.1063406709294E+01
 0.1187250597910E+01
 0.1316470494236E+01
 0.1445909095897E+01
 0.1569805764100E+01
 0.5245395010734E+00
 0.5367907420855E+00
 0.5487829477089E+00
 0.5604823962146E+00
 0.5717809670421E+00
 0.5824979574339E+00
 0.5924010887453E+00
 0.6012368226619E+00
 0.6087603273467E+00
 0.6147589730129E+00
 0.6190671527364E+00
 0.6215731064624E+00
 0.6222199897471E+00
 0.6210037687114E+00
 0.6179702079592E+00
 0.6132126161831E+00
 0.6068713491179E+00
 0.5991358313847E+00
 0.5902488925405E+00
 0.5805137968381E+00
 0.5703040468371E+00
 0.5600754948393E+00
 0.5503816291883E+00
 0.5418903763229E+00
 0.5353973307428E+00
 0.5318540797787E+00
 0.5324119566983E+00
 0.5384526707367E+00
 0.5515905338504E+00
 0.5736295876989E+00
 0.6064580473937E+00
 0.6518739746779E+00
 0.7113573101085E+00
 0.7858332827377E+00
 0.8754630514048E+00
 0.9794472771094E+00
 0.1095864685597E+01
 0.1221611807195E+01
 0.1352484771705E+01
 0.1483428327425E+01
 0.1608866993090E+01
 0.5563144295431E+00
 0.5695236662074E+00
 0.5824621537913E+00
 0.5950333410334E+00
 0.6070818630794E+00
 0.6183962769490E+00
 0.6287278357825E+00
 0.6378171406029E+00
 0.6454204357862E+00
 0.6513302048857E+00
 0.6553880466308E+00
 0.6574903621383E+00
 0.6575888594277E+00
 0.6556882636522E+00
 0.6518433842351E+00
 0.6461571454990E+00
 0.6387805475617E+00
 0.6299153290266E+00
 0.6198190239930E+00
 0.6088128050206E+00
 0.5972921288392E+00
 0.5857395826169E+00
 0.5747408168397E+00
 0.5650019995087E+00
 0.5573641536122E+00
 0.5528316934719E+00
 0.5526150643175E+00
 0.5581599139116E+00
 0.5711462065163E+00
 0.5934386311174E+00
 0.6269696925555E+00
 0.6735508073457E+00
 0.7346310360172E+00
 0.8110535562207E+00
 0.9028513392332E+00
 0.1009072829791E+01
 0.1127656407292E+01
 0.1255409488025E+01
 0.1388117954145E+01
 0.1520799057047E+01
 0.1648027836514E+01
 0.5880533317828E+00
 0.6022235957304E+00
 0.6161166682951E+00
 0.6295748018977E+00
 0.6423949565294E+00
 0.6543331093079E+00
 0.6651217302459E+00
 0.6744935718047E+00
 0.6822047418510E+00
 0.6880524816892E+00
 0.6918859271362E+00
 0.6936103780183E+00
 0.6931869548083E+00
 0.6906298953378E+00
 0.6860035435585E+00
 0.6794205712740E+00
 0.6710423501203E+00
 0.6610822376614E+00
 0.6498113570931E+00
 0.6375672655419E+00
 0.6247654609101E+00
 0.6119129891874E+00
 0.5996250510151E+00
 0.5886431382933E+00
 0.5798505390716E+00
 0.5743011273038E+00
 0.5732609241654E+00
 0.5782360414066E+00
 0.5909693213392E+00
 0.6133852045511E+00
 0.6474630819167E+00
 0.6950354327443E+00
 0.7575342586795E+00
 0.8357404497477E+00
 0.9295827775245E+00
 0.1037981888557E+01
 0.1158754321139E+01
 0.1288623269957E+01
 0.1423350976821E+01
 0.1557998800833E+01
 0.1687254729329E+01
 0.6197669249950E+00
 0.6349065498554E+00
 0.6497668569488E+00
 0.6641301739506E+00
 0.6777453447044E+00
 0.6903341744111E+00
 0.7016083945328E+00
 0.7112912712661E+00
 0.7191378403316E+00
 0.7249499353459E+00
 0.7285846765153E+00
 0.7299570601058E+00
 0.7290384975070E+00
 0.7258534766506E+00
 0.7204763167171E+00
 0.7130294865635E+00
 0.7036843401990E+00
 0.6926650091821E+00
 0.6802549090294E+00
 0.6668062496320E+00
 0.6527524295797E+00
 0.6386224408943E+00
 0.6250581896128E+00
 0.6128333624405E+00
 0.6028701811224E+00
 0.5962685121752E+00
 0.5943464233338E+00
 0.5986672021715E+00
 0.6110342766678E+00
 0.6334318526958E+00
 0.6678902036113E+00
 0.7162723307317E+00
 0.7800086624281E+00
 0.8598384720373E+00
 0.9556097914562E+00
 0.1066137608288E+01
 0.1189131668166E+01
 0.1321232845647E+01
 0.1458165325972E+01
 0.1595006014194E+01
 0.1726516474749E+01
 0.6514656983470E+00
 0.6675880798587E+00
 0.6834325140887E+00
 0.6987223025033E+00
 0.7131576595850E+00
 0.7264247983584E+00
 0.7382130599803E+00
 0.7482349164780E+00
 0.7562436843570E+00
 0.7620458441052E+00
 0.7655070976977E+00
 0.7665530250912E+00
 0.7651662463954E+00
 0.7613822337835E+00
 0.7552856809350E+00
 0.7470088262152E+00
 0.7367325057194E+00
 0.7246906366867E+00
 0.7111774574138E+00
 0.6965579008923E+00
 0.6812809093283E+00
 0.6658946816917E+00
 0.6510647609415E+00
 0.6375936953076E+00
 0.6264391465236E+00
 0.6187434101200E+00
 0.6158730729676E+00
 0.6194454692434E+00
 0.6313227268433E+00
 0.6535495903557E+00
 0.6882123805769E+00
 0.7372155521982E+00
 0.8020048674659E+00
 0.8832994701947E+00
 0.9808897743785E+00
 0.1093505538025E+01
 0.1218762157914E+01
 0.1353217731231E+01
 0.1492542726456E+01
 0.1631800251956E+01
 0.1765784999658E+01
 0.6831599404602E+00
 0.7002833372555E+00
 0.7171329459993E+00
 0.7333735534203E+00
 0.7486561060666E+00
 0.7626299130955E+00
 0.7749605314143E+00
 0.7853486451215E+00
 0.7935455049491E+00
 0.7993625410750E+00
 0.8026748170855E+00
 0.8034195015419E+00
 0.8015914008757E+00
 0.7972377154824E+00
 0.7904538794930E+00
 0.7813818019884E+00
 0.7702111956307E+00
 0.7571846389975E+00
 0.7426055599871E+00
 0.7268494976347E+00
 0.7103783748205E+00
 0.6937566416680E+00
 0.6776701930245E+00
 0.6629469049754E+00
 0.6505762231991E+00
 0.6417392069668E+00
 0.6378474199683E+00
 0.6405692289865E+00
 0.6518238884568E+00
 0.6737180489164E+00
 0.7084001784421E+00
 0.7578283370045E+00
 0.8234817721465E+00
 0.9060818042001E+00
 0.1005384283040E+01
 0.1120053018193E+01
 0.1247619602083E+01
 0.1384557004185E+01
 0.1526464965952E+01
 0.1668362384156E+01
 0.1805035870719E+01
 0.7148597696541E+00
 0.7330071446631E+00
 0.7508870610804E+00
 0.7681058973248E+00
 0.7842645206286E+00
 0.7989740801478E+00
 0.8118751759169E+00
 0.8226560146204E+00
 0.8310657492468E+00
 0.8369213387758E+00
 0.8401082019206E+00
 0.8405762453548E+00
 0.8383335188415E+00
 0.8334397175475E+00
 0.8260013568095E+00
 0.8161698525785E+00
 0.8041430897836E+00
 0.7901710559360E+00
 0.7745645814747E+00
 0.7577075179576E+00
 0.7400720109525E+00
 0.7222355983182E+00
 0.7049010308572E+00
 0.6889177792127E+00
 0.6753032494937E+00
 0.6652734847010E+00
 0.6602814405083E+00
 0.6620435602834E+00
 0.6725348550554E+00
 0.6939256647682E+00
 0.7284334055080E+00
 0.7780828853562E+00
 0.8444061067568E+00
 0.9281497654317E+00
 0.1029058460138E+01
 0.1145748736881E+01
 0.1275677641157E+01
 0.1415229154871E+01
 0.1559913907379E+01
 0.1704674925492E+01
 0.1844248798339E+01
 0.7465751667747E+00
 0.7657740670053E+00
 0.7847134614137E+00
 0.8029409982053E+00
 0.8200064367956E+00
 0.8354815210207E+00
 0.8489809152006E+00
 0.8601799602293E+00
 0.8688260116212E+00
 0.8747424415687E+00
 0.8778262617129E+00
 0.8780414366412E+00
 0.8754104142373E+00
 0.8700061853585E+00
 0.8619466697430E+00
 0.8513925674785E+00
 0.8385491394714E+00
 0.8236724102656E+00
 0.8070786823673E+00
 0.7891576614789E+00
 0.7703887740896E+00
 0.7513592837602E+00
 0.7327850950575E+00
 0.7155333384995E+00
 0.7006453799436E+00
 0.6893683313847E+00
 0.6831928761327E+00
 0.6838805677995E+00
 0.6934608873745E+00
 0.7141698777602E+00
 0.7483011697450E+00
 0.7979602380852E+00
 0.8647521379437E+00
 0.9494731584982E+00
 0.1051880589904E+01
 0.1170562354221E+01
 0.1302909482505E+01
 0.1445211946995E+01
 0.1592871525817E+01
 0.1740722327592E+01
 0.1883408035614E+01
 0.7783160123862E+00
 0.7985984864985E+00
 0.8186305401731E+00
 0.8379003110587E+00
 0.8559051620340E+00
 0.8721761591691E+00
 0.8863012272207E+00
 0.8979427584369E+00
 0.9068469658505E+00
 0.9128448555688E+00
 0.9158465447136E+00
 0.9158315702628E+00
 0.9128380474921E+00
 0.9069531085848E+00
 0.8983063899985E+00
 0.8870676001193E+00
 0.8734484945018E+00
 0.8577096524572E+00
 0.8401707859721E+00
 0.8212248441814E+00
 0.8013554210245E+00
 0.7811559545337E+00
 0.7613515988132E+00
 0.7428230046005E+00
 0.7266313061836E+00
 0.7140506091242E+00
 0.7066055356269E+00
 0.7060996958176E+00
 0.7146157089780E+00
 0.7344573720325E+00
 0.7680020253609E+00
 0.8174502951107E+00
 0.8845015462235E+00
 0.9700270613498E+00
 0.1073821800175E+01
 0.1194464217002E+01
 0.1329287681371E+01
 0.1474482307903E+01
 0.1625319971916E+01
 0.1776491254705E+01
 0.1922502763441E+01
 0.8100921287347E+00
 0.8314946836751E+00
 0.8526565877065E+00
 0.8730051913965E+00
 0.8919838685386E+00
 0.9090816757008E+00
 0.9238591592644E+00
 0.9359659984151E+00
 0.9451483019070E+00
 0.9512463005808E+00
 0.9541850349682E+00
 0.9539613464619E+00
 0.9506304160358E+00
 0.9442944158764E+00
 0.9350950058353E+00
 0.9232105787269E+00
 0.9088584253185E+00
 0.8923020967459E+00
 0.8738625320277E+00
 0.8539331743930E+00
 0.8329985133393E+00
 0.8116544313253E+00
 0.7906312302373E+00
 0.7708187318451E+00
 0.7532934406528E+00
 0.7393521888782E+00
 0.7305495732013E+00
 0.7287280353576E+00
 0.7360218220646E+00
 0.7548043751739E+00
 0.7875442244358E+00
 0.8365519847780E+00
 0.9036434841220E+00
 0.9897917657148E+00
 0.1094855911084E+01
 0.1217425166966E+01
 0.1354783970182E+01
 0.1503016246599E+01
 0.1657241651292E+01
 0.1811970858453E+01
 0.1961527478975E+01
 0.8419133275492E+00
 0.8644769242149E+00
 0.8868099047130E+00
 0.9082770127676E+00
 0.9282656912498E+00
 0.9462215692321E+00
 0.9616773402692E+00
 0.9742705470497E+00
 0.9837486511156E+00
 0.9899631063806E+00
 0.9928560310374E+00
 0.9924435415136E+00
 0.9887994236714E+00
 0.9820418471413E+00
 0.9723247995142E+00
 0.9598349901786E+00
 0.9447942143561E+00
 0.9274673216423E+00
 0.9081741891368E+00
 0.8873058813701E+00
 0.8653443680154E+00
 0.8428840790463E+00
 0.8206561704375E+00
 0.7995550717229E+00
 0.7806680345950E+00
 0.7653101251644E+00
 0.7550617182362E+00
 0.7518006022883E+00
 0.7577108233326E+00
 0.7752369969034E+00
 0.8069460547324E+00
 0.8552735631753E+00
 0.9221747897251E+00
 0.1008752866575E+01
 0.1114959393053E+01
 0.1239416400034E+01
 0.1379369085698E+01
 0.1530788736172E+01
 0.1688619248565E+01
 0.1847152983430E+01
 0.2000482343381E+01
 0.8737894649712E+00
 0.8975595556198E+00
 0.9211089283321E+00
 0.9437372992723E+00
 0.9647738407172E+00
 0.9836192280180E+00
 0.9997780012558E+00
 0.1012876517668E+01
 0.1022665511494E+01
 0.1029010107155E+01
 0.1031872022292E+01
 0.1031288876320E+01
 0.1027354748528E+01
 0.1020204824665E+01
 0.1010005722979E+01
 0.9969520603208E+00
 0.9812690407979E+00
 0.9632210595332E+00
 0.9431245508798E+00
 0.9213652213554E+00
 0.8984189789539E+00
 0.8748747515484E+00
 0.8514600711324E+00
 0.8290691942609E+00
 0.8087952537403E+00
 0.7919667944535E+00
 0.7801854813059E+00
 0.7753606124620E+00
 0.7797237473232E+00
 0.7957916360221E+00
 0.8262362938665E+00
 0.8736330752673E+00
 0.9401003889027E+00
 0.1026901534655E+01
 0.1134111468327E+01
 0.1260409410987E+01
 0.1403012628264E+01
 0.1557773595128E+01
 0.1719435736044E+01
 0.1882032361781E+01
 0.2039373555020E+01
 0.9057305047442E+00
 0.9307571149174E+00
 0.9555723719962E+00
 0.9794078726962E+00
 0.1001531728481E+01
 0.1021298009798E+01
 0.1038182997310E+01
 0.1051803234431E+01
 0.1061915164392E+01
 0.1068400524831E+01
 0.1071243553387E+01
 0.1070505873478E+01
 0.1066303699963E+01
 0.1058790313150E+01
 0.1048145261416E+01
 0.1034570619848E+01
 0.1018293847215E+01
 0.9995770631850E+00
 0.9787308027312E+00
 0.9561323475096E+00
 0.9322478950712E+00
 0.9076566859120E+00
 0.8830779760896E+00
 0.8594008499950E+00
 0.8377191953917E+00
 0.8193699814175E+00
 0.8059713216687E+00
 0.7994597404558E+00
 0.8021114252860E+00
 0.8165154450977E+00
 0.8454547710434E+00
 0.8916589713183E+00
 0.9574338814881E+00
 0.1044234966585E+01
 0.1152294346423E+01
 0.1280376006510E+01
 0.1425682927417E+01
 0.1583943334898E+01
 0.1749674332991E+01
 0.1916606766450E+01
 0.2078213718662E+01
 0.9377465911752E+00
 0.9640844499453E+00
 0.9902193820785E+00
 0.1015311016841E+01
 0.1038563106265E+01
 0.1059281329031E+01
 0.1076913829434E+01
 0.1091069190007E+01
 0.1101512580031E+01
 0.1108145839432E+01
 0.1110979075844E+01
 0.1110100702521E+01
 0.1105651064761E+01
 0.1097802669404E+01
 0.1086748285598E+01
 0.1072696956614E+01
 0.1055877188767E+01
 0.1036546949504E+01
 0.1015008359689E+01
 0.9916271430648E+00
 0.9668560536152E+00
 0.9412603441245E+00
 0.9155461832981E+00
 0.8905922685865E+00
 0.8674878423469E+00
 0.8475729083097E+00
 0.8324767719416E+00
 0.8241583586212E+00
 0.8249348576062E+00
 0.8374668527330E+00
 0.8646530392286E+00
 0.9093908863344E+00
 0.9741983246403E+00
 0.1060757028878E+01
 0.1169493607187E+01
 0.1299288392977E+01
 0.1447346911880E+01
 0.1609268967135E+01
 0.1779318410559E+01
 0.1950877122373E+01
 0.2117022214943E+01
 0.9698481336899E+00
 0.9975568574637E+00
 0.1025069715376E+01
 0.1051469662801E+01
 0.1075892221455E+01
 0.1097592752358E+01
 0.1115991665785E+01
 0.1130691995520E+01
 0.1141471311299E+01
 0.1148255646766E+01
 0.1151084788254E+01
 0.1150077016074E+01
 0.1145398946308E+01
 0.1137243486078E+01
 0.1125816897807E+01
 0.1111334659361E+01
 0.1094025069951E+01
 0.1074140025396E+01
 0.1051970679152E+01
 0.1027868021764E+01
 0.1002267572102E+01
 0.9757162046580E+00
 0.9489020492848E+00
 0.9226879942801E+00
 0.8981529527194E+00
 0.8766342057464E+00
 0.8597665180134E+00
 0.8495257549096E+00
 0.8482655992292E+00
 0.8587161446051E+00
 0.8838951625370E+00
 0.9268805938498E+00
 0.9904272329931E+00
 0.1076479120827E+01
 0.1185698754826E+01
 0.1317119353511E+01
 0.1467969988486E+01
 0.1633719771207E+01
 0.1808351345812E+01
 0.1984847583030E+01
 0.2155825580359E+01
 0.1002045905058E+01
 0.1031190241547E+01
 0.1060143941501E+01
 0.1087907598586E+01
 0.1113543990419E+01
 0.1136256101564E+01
 0.1155437359777E+01
 0.1170688319422E+01
 0.1181803372633E+01
 0.1188737501206E+01
 0.1191564464102E+01
 0.1190435777035E+01
 0.1185546597792E+01
 0.1177111431055E+01
 0.1165350273239E+01
 0.1150484454802E+01
 0.1132740770697E+01
 0.1112363097224E+01
 0.1089629050148E+01
 0.1064871696114E+01
 0.1038505498612E+01
 0.1011054502626E+01
 0.9831837329070E+00
 0.9557346539570E+00
 0.9297698797831E+00
 0.9066178176448E+00
 0.8879124261666E+00
 0.8756403214524E+00
 0.8721861508905E+00
 0.8803460980208E+00
 0.9032586178858E+00
 0.9441931414130E+00
 0.1006165814228E+01
 0.1091421283428E+01
 0.1200903968801E+01
 0.1333842528565E+01
 0.1487515930071E+01
 0.1657263015737E+01
 0.1836756321704E+01
 0.2018525571416E+01
 0.2194657894504E+01
 0.1034351155586E+01
 0.1065001295226E+01
 0.1095463673094E+01
 0.1124649704248E+01
 0.1151544187586E+01
 0.1175295558247E+01
 0.1195271456181E+01
 0.1211073804650E+01
 0.1222519092835E+01
 0.1229596732712E+01
 0.1232419256938E+01
 0.1231175067050E+01
 0.1226090239848E+01
 0.1217402072709E+01
 0.1205344486598E+01
 0.1190144027047E+01
 0.1172024649912E+01
 0.1151220251013E+01
 0.1127992344956E+01
 0.1102652898303E+01
 0.1075591503929E+01
 0.1047304900404E+01
 0.1018429858610E+01
 0.9897806356325E+00
 0.9623972975003E+00
 0.9375928140989E+00
 0.9169934901083E+00
 0.9025896867137E+00
 0.8967903304645E+00
 0.9024526474737E+00
 0.9228352946040E+00
 0.9614081628846E+00
 0.1021472451155E+01
 0.1105613578695E+01
 0.1215109076382E+01
 0.1349432809258E+01
 0.1505946759964E+01
 0.1679863609853E+01
 0.1864516048817E+01
 0.2051921758643E+01
 0.2233561136997E+01
 0.1066775747007E+01
 0.1099007712640E+01
 0.1131051833485E+01
 0.1161722222602E+01
 0.1189919659218E+01
 0.1214735777644E+01
 0.1235514192101E+01
 0.1251862971986E+01
 0.1263626952259E+01
 0.1270836251902E+01
 0.1273647500277E+01
 0.1272289896862E+01
 0.1267022885974E+01
 0.1258107716635E+01
 0.1245792351276E+01
 0.1230307848232E+01
 0.1211873956595E+01
 0.1190712634529E+01
 0.1167066765099E+01
 0.1141224086291E+01
 0.1113545548148E+01
 0.1084496120856E+01
 0.1054679130092E+01
 0.1024875706314E+01
 0.9960968578852E+00
 0.9696331351750E+00
 0.9470957178621E+00
 0.9304708088773E+00
 0.9221836409386E+00
 0.9251455981120E+00
 0.9427326125138E+00
 0.9786213981953E+00
 0.1036420478695E+01
 0.1119097805782E+01
 0.1228320818255E+01
 0.1363866900719E+01
 0.1523222669056E+01
 0.1701483714923E+01
 0.1891612457811E+01
 0.2085050039157E+01
 0.2272585580544E+01
 0.1099332308879E+01
 0.1133228435046E+01
 0.1166932964195E+01
 0.1199153064341E+01
 0.1228698554929E+01
 0.1254601998459E+01
 0.1276185474884E+01
 0.1293069088950E+01
 0.1305133382804E+01
 0.1312456321707E+01
 0.1315244481037E+01
 0.1313771997363E+01
 0.1308334153984E+01
 0.1299217230995E+01
 0.1286683246835E+01
 0.1270966994412E+01
 0.1252282620738E+01
 0.1230838211601E+01
 0.1206855550139E+01
 0.1180595101512E+01
 0.1152385486044E+01
 0.1122655505068E+01
 0.1091969853452E+01
 0.1061070525011E+01
 0.1030932732349E+01
 0.1002817214174E+01
 0.9783119042645E+00
 0.9593899750976E+00
 0.9484835808852E+00
 0.9485493369828E+00
 0.9630747164314E+00
 0.9959463942501E+00
 0.1051100254788E+01
 0.1131929579473E+01
 0.1240554441264E+01
 0.1377124066852E+01
 0.1539301934817E+01
 0.1722082259834E+01
 0.1918026310770E+01
 0.2117927452352E+01
 0.2311790116460E+01
 0.1132034423099E+01
 0.1167683939330E+01
 0.1203133582556E+01
 0.1236972156113E+01
 0.1267910581335E+01
 0.1294920148789E+01
 0.1317304834615E+01
 0.1334704002156E+01
 0.1347042530995E+01
 0.1354454299266E+01
 0.1357202193492E+01
 0.1355609600968E+01
 0.1350010075067E+01
 0.1340715873382E+01
 0.1328002948525E+01
 0.1312108961002E+01
 0.1293241038760E+01
 0.1271591503733E+01
 0.1247358664555E+01
 0.1220772793525E+01
 0.1192126626295E+01
 0.1161808508858E+01
 0.1130339382480E+01
 0.1098416060887E+01
 0.1066971043276E+01
 0.1037227482077E+01
 0.1010741286206E+01
 0.9894627002694E+00
 0.9758198897211E+00
 0.9728035357067E+00
 0.9840037462541E+00
 0.1013516400423E+01
 0.1065621566715E+01
 0.1144180847647E+01
 0.1251835713587E+01
 0.1389187131841E+01
 0.1554140868433E+01
 0.1741614357458E+01
 0.1943736759241E+01
 0.2150574098052E+01
 0.2351242541742E+01
 0.1164896841920E+01
 0.1202396579266E+01
 0.1239682601522E+01
 0.1275211841477E+01
 0.1307587282661E+01
 0.1335716948051E+01
 0.1358891348993E+01
 0.1376777932205E+01
 0.1389355987017E+01
 0.1396824355570E+01
 0.1399509085623E+01
 0.1397787228716E+01
 0.1392032918344E+01
 0.1382585138810E+01
 0.1369733479672E+01
 0.1353717499520E+01
 0.1334735875917E+01
 0.1312963342060E+01
 0.1288572486187E+01
 0.1261760635296E+01
 0.1232781267997E+01
 0.1201978160619E+01
 0.1169823506695E+01
 0.1136962933837E+01
 0.1104279198141E+01
 0.1072949759066E+01
 0.1044489079398E+01
 0.1020813517648E+01
 0.1004334715808E+01
 0.9980638314736E+00
 0.1005681172773E+01
 0.1031486461563E+01
 0.1080116406150E+01
 0.1155942925766E+01
 0.1262203471448E+01
 0.1400043829067E+01
 0.1567693812772E+01
 0.1760030595923E+01
 0.1968720868020E+01
 0.2183013123594E+01
 0.2391019802950E+01
 0.1197935746493E+01
 0.1237390987188E+01
 0.1276611817326E+01
 0.1313907332537E+01
 0.1347762334526E+01
 0.1377019980092E+01
 0.1400963508532E+01
 0.1419299196263E+01
 0.1432072444938E+01
 0.1439557139164E+01
 0.1442149764685E+01
 0.1440285449273E+01
 0.1434380995408E+01
 0.1424802590827E+01
 0.1411852946015E+01
 0.1395772431608E+01
 0.1376749838535E+01
 0.1354940579381E+01
 0.1330489442990E+01
 0.1303558272953E+01
 0.1274358155443E+01
 0.1243184418348E+01
 0.1210455716407E+01
 0.1176760607333E+01
 0.1142925050615E+01
 0.1110072451295E+01
 0.1079665808569E+01
 0.1053575568688E+01
 0.1034182614112E+01
 0.1024502397788E+01
 0.1028289121604E+01
 0.1050035652664E+01
 0.1094742099843E+01
 0.1167330099330E+01
 0.1271712801134E+01
 0.1409688587210E+01
 0.1579913176695E+01
 0.1777276078656E+01
 0.1992953010759E+01
 0.2215270769099E+01
 0.2431208035193E+01
 0.1231169056557E+01
 0.1272694556165E+01
 0.1313956489867E+01
 0.1353097235092E+01
 0.1388471867736E+01
 0.1418857749975E+01
 0.1443539035670E+01
 0.1462273878459E+01
 0.1475187323932E+01
 0.1482639423746E+01
 0.1485104710632E+01
 0.1483080665549E+01
 0.1477028506150E+01
 0.1467341741747E+01
 0.1454335422170E+01
 0.1438249514491E+01
 0.1419261494166E+01
 0.1397505844288E+01
 0.1373097683918E+01
 0.1346161099404E+01
 0.1316861943640E+01
 0.1285443520547E+01
 0.1252266440136E+01
 0.1217856527238E+01
 0.1182975977618E+01
 0.1148685633659E+01
 0.1116386500440E+01
 0.1087890048365E+01
 0.1065530417430E+01
 0.1052308439781E+01
 0.1052031715341E+01
 0.1069369490160E+01
 0.1109684860548E+01
 0.1178483924651E+01
 0.1280439061809E+01
 0.1418124972592E+01
 0.1590749615853E+01
 0.1793289170040E+01
 0.2016404167433E+01
 0.2247376741488E+01
 0.2471902496084E+01
 0.1264616801148E+01
 0.1308338015139E+01
 0.1351756024365E+01
 0.1392824142426E+01
 0.1429754798640E+01
 0.1461259685213E+01
 0.1486634610301E+01
 0.1505705399384E+01
 0.1518692304114E+01
 0.1526053695824E+01
 0.1528349954311E+01
 0.1526144884509E+01
 0.1519945378497E+01
 0.1510171930677E+01
 0.1497150834529E+01
 0.1481120297686E+01
 0.1462245074944E+01
 0.1440637268157E+01
 0.1416380710307E+01
 0.1389559773940E+01
 0.1360292592526E+01
 0.1328767244697E+01
 0.1295282163341E+01
 0.1260295109771E+01
 0.1224497768142E+01
 0.1188879905068E+01
 0.1154769615161E+01
 0.1123905371159E+01
 0.1098556839653E+01
 0.1081688473323E+01
 0.1077136302939E+01
 0.1089722410940E+01
 0.1125163698706E+01
 0.1189578262620E+01
 0.1288482899764E+01
 0.1425368988164E+01
 0.1600152419050E+01
 0.1807999690212E+01
 0.2039040821522E+01
 0.2279364994586E+01
 0.2513207092934E+01
 0.1298301567756E+01
 0.1344356123228E+01
 0.1390054781878E+01
 0.1433135314100E+01
 0.1471653165818E+01
 0.1504256069624E+01
 0.1530265488595E+01
 0.1549593978859E+01
 0.1562574781943E+01
 0.1569777697201E+01
 0.1571856742263E+01
 0.1569445496237E+01
 0.1563097130457E+01
 0.1553258229162E+01
 0.1540264871585E+01
 0.1524352003130E+01
 0.1505670297643E+01
 0.1484308220026E+01
 0.1460317004460E+01
 0.1433739726298E+01
 0.1404644730120E+01
 0.1373162114905E+01
 0.1339524470466E+01
 0.1304116619061E+01
 0.1267553359656E+01
 0.1230745043299E+01
 0.1194935729974E+01
 0.1161776054778E+01
 0.1133451791641E+01
 0.1112866356990E+01
 0.1103854542017E+01
 0.1111360292421E+01
 0.1141434704487E+01
 0.1200825150242E+01
 0.1295976506546E+01
 0.1431453602075E+01
 0.1608070383904E+01
 0.1821326381413E+01
 0.2060823059866E+01
 0.2311275249772E+01
 0.2555233413832E+01
 0.1332249048698E+01
 0.1380788514848E+01
 0.1428903049991E+01
 0.1474083455048E+01
 0.1514212466457E+01
 0.1547877889604E+01
 0.1574444995634E+01
 0.1593935983659E+01
 0.1606817251196E+01
 0.1613783940494E+01
 0.1615591214328E+01
 0.1612945092930E+01
 0.1606444787471E+01
 0.1596561408853E+01
 0.1583638957290E+01
 0.1567907465722E+01
 0.1549502239001E+01
 0.1528487089589E+01
 0.1504879697373E+01
 0.1478680688917E+01
 0.1449907030103E+01
 0.1418628605655E+01
 0.1385009057524E+01
 0.1349355979682E+01
 0.1312201462052E+01
 0.1274368488722E+01
 0.1237005987347E+01
 0.1201661310825E+01
 0.1170415373345E+01
 0.1146083019067E+01
 0.1132463264115E+01
 0.1134582943503E+01
 0.1158795658393E+01
 0.1212481567248E+01
 0.1303091355152E+01
 0.1436434938951E+01
 0.1614453660766E+01
 0.1833173508919E+01
 0.2081700965036E+01
 0.2343155555139E+01
 0.2598098887420E+01
 0.1366488710792E+01
 0.1417680728212E+01
 0.1468358197342E+01
 0.1515727587454E+01
 0.1557481947370E+01
 0.1592156523346E+01
 0.1619183817382E+01
 0.1638723093365E+01
 0.1651396552846E+01
 0.1658039147153E+01
 0.1659514044223E+01
 0.1656601274418E+01
 0.1649944795854E+01
 0.1640037905404E+01
 0.1627230215089E+01
 0.1611745055494E+01
 0.1593701181233E+01
 0.1573137027023E+01
 0.1550036178287E+01
 0.1524356154329E+01
 0.1496061495496E+01
 0.1465160228504E+01
 0.1431744597454E+01
 0.1396041401095E+01
 0.1358494938833E+01
 0.1319833515935E+01
 0.1281100150921E+01
 0.1243723164873E+01
 0.1209656342226E+01
 0.1181595663964E+01
 0.1163264907424E+01
 0.1159726369771E+01
 0.1177590823284E+01
 0.1224857081687E+01
 0.1310047627805E+01
 0.1440400606929E+01
 0.1619257334929E+01
 0.1843426820325E+01
 0.2101607524765E+01
 0.2375065533830E+01
 0.2641922983158E+01
 0.1401054625543E+01
 0.1455085477627E+01
 0.1508486072347E+01
 0.1558134048017E+01
 0.1601514850222E+01
 0.1637123260654E+01
 0.1664489093802E+01
 0.1683941314259E+01
 0.1696283052013E+01
 0.1702503687257E+01
 0.1703580135625E+01
 0.1700366540986E+01
 0.1693549039177E+01
 0.1683639891319E+01
 0.1670991541829E+01
 0.1655818707962E+01
 0.1638222562332E+01
 0.1618215782782E+01
 0.1595747798053E+01
 0.1570732918866E+01
 0.1543082819178E+01
 0.1512742682089E+01
 0.1479731647319E+01
 0.1444193009427E+01
 0.1406479142726E+01
 0.1367217284493E+01
 0.1327334443095E+01
 0.1288124248092E+01
 0.1251390154746E+01
 0.1219676503717E+01
 0.1196587518721E+01
 0.1187164784090E+01
 0.1198215883772E+01
 0.1238322421711E+01
 0.1317125623154E+01
 0.1443480695247E+01
 0.1622447801166E+01
 0.1851950428536E+01
 0.2120445885136E+01
 0.2407078708441E+01
 0.2686819011619E+01
 0.1435986504083E+01
 0.1493064226051E+01
 0.1549362683632E+01
 0.1601377590518E+01
 0.1646368528756E+01
 0.1682808542471E+01
 0.1710363208392E+01
 0.1729569758494E+01
 0.1741439678479E+01
 0.1747130966094E+01
 0.1747738317553E+01
 0.1744188210321E+01
 0.1737204885403E+01
 0.1727315376399E+01
 0.1714871701639E+01
 0.1700077964637E+01
 0.1683016925158E+01
 0.1663675533187E+01
 0.1641969543805E+01
 0.1617770581978E+01
 0.1590937682877E+01
 0.1561352920291E+01
 0.1528961446275E+01
 0.1493821329596E+01
 0.1456190041270E+01
 0.1416588592853E+01
 0.1375818969406E+01
 0.1335025035394E+01
 0.1295836314309E+01
 0.1260610703433E+01
 0.1232783984491E+01
 0.1217312024550E+01
 0.1221122726435E+01
 0.1253318805608E+01
 0.1324679283937E+01
 0.1445861974014E+01
 0.1624012531310E+01
 0.1858587831501E+01
 0.2138070393601E+01
 0.2439277446818E+01
 0.2732870242740E+01
 0.1471331007553E+01
 0.1531689144298E+01
 0.1591076237883E+01
 0.1645542597538E+01
 0.1692104371619E+01
 0.1729240837195E+01
 0.1756802218015E+01
 0.1775579174968E+01
 0.1786820850874E+01
 0.1791866795086E+01
 0.1791931081504E+01
 0.1788008400016E+01
 0.1780855303870E+01
 0.1771008373545E+01
 0.1758815477632E+01
 0.1744468062950E+01
 0.1728029906712E+01
 0.1709462735729E+01
 0.1688649731478E+01
 0.1665421050671E+01
 0.1639584048009E+01
 0.1610958197082E+01
 0.1579414668867E+01
 0.1544925688188E+01
 0.1507652206410E+01
 0.1468005407499E+01
 0.1426654788487E+01
 0.1384580557694E+01
 0.1343214998602E+01
 0.1304693440685E+01
 0.1272230319168E+01
 0.1250622166786E+01
 0.1246823837929E+01
 0.1270367877714E+01
 0.1333152101716E+01
 0.1447805868972E+01
 0.1623974010085E+01
 0.1863168850570E+01
 0.2154271843965E+01
 0.2471732448869E+01
 0.2780040118579E+01
 0.1507143436251E+01
 0.1571045538458E+01
 0.1633729653369E+01
 0.1690724380327E+01
 0.1738787436511E+01
 0.1776445048089E+01
 0.1803793865522E+01
 0.1821930235242E+01
 0.1832371330389E+01
 0.1836648812237E+01
 0.1836094429810E+01
 0.1831764143553E+01
 0.1824439118335E+01
 0.1814659196338E+01
 0.1802763950297E+01
 0.1788930148542E+01
 0.1773202345608E+01
 0.1755518097351E+01
 0.1735729804716E+01
 0.1713628143066E+01
 0.1688970538704E+01
 0.1661515196097E+01
 0.1631060250897E+01
 0.1597492663684E+01
 0.1560876802089E+01
 0.1521512302687E+01
 0.1479930751969E+01
 0.1436936679073E+01
 0.1393742990790E+01
 0.1352226000216E+01
 0.1315322818782E+01
 0.1287589035537E+01
 0.1275896014786E+01
 0.1290081886635E+01
 0.1343095551839E+01
 0.1449671056018E+01
 0.1622407408926E+01
 0.1865526569606E+01
 0.2168758370539E+01
 0.2504586376209E+01
 0.2827613878128E+01
 0.1543491078766E+01
 0.1611240038048E+01
 0.1677452443004E+01
 0.1737043527952E+01
 0.1786502808951E+01
 0.1824461321630E+01
 0.1851339602211E+01
 0.1868599230931E+01
 0.1878055651193E+01
 0.1881439485243E+01
 0.1880194283854E+01
 0.1875427142049E+01
 0.1867934171475E+01
 0.1858251218165E+01
 0.1846705117994E+01
 0.1833456085111E+01
 0.1818529653641E+01
 0.1801840911989E+01
 0.1783214062306E+01
 0.1762403131318E+01
 0.1739118196727E+01
 0.1713058320342E+01
 0.1683950409434E+01
 0.1651597853380E+01
 0.1615969886853E+01
 0.1577254806627E+01
 0.1535843045761E+01
 0.1492353531094E+01
 0.1447759154126E+01
 0.1403640806091E+01
 0.1362599451612E+01
 0.1328859973244E+01
 0.1309081809118E+01
 0.1313248696294E+01
 0.1355233904779E+01
 0.1451958240687E+01
 0.1619457029653E+01
 0.1865506612675E+01
 0.2181314225798E+01
 0.2537434891579E+01
 0.2879601716348E+01
 0.1580452271731E+01
 0.1652394531715E+01
 0.1722386296766E+01
 0.1784621028984E+01
 0.1835319709210E+01
 0.1873299849679E+01
 0.1899402246912E+01
 0.1915520104139E+01
 0.1923795128744E+01
 0.1926158067443E+01
 0.1924153036142E+01
 0.1918924425163E+01
 0.1911271540073E+01
 0.1901718031447E+01
 0.1890573329153E+01
 0.1877979423571E+01
 0.1863943524954E+01
 0.1848360669734E+01
 0.1831030318100E+01
 0.1811673641925E+01
 0.1789956907912E+01
 0.1765523083735E+01
 0.1738030652674E+01
 0.1707202443126E+01
 0.1672915873433E+01
 0.1635250611365E+01
 0.1594455753186E+01
 0.1550958097813E+01
 0.1505473234251E+01
 0.1459252754575E+01
 0.1414502772760E+01
 0.1375022426904E+01
 0.1347114605670E+01
 0.1340710707403E+01
 0.1370409543382E+01
 0.1455310214935E+01
 0.1615371938776E+01
 0.1862908677432E+01
 0.2191763400511E+01
 0.2569565235513E+01
 0.2940699727679E+01
 0.1618123112065E+01
 0.1694652964170E+01
 0.1768691601914E+01
 0.1833580943038E+01
 0.1885290266061E+01
 0.1922937684845E+01
 0.1947902956343E+01
 0.1962582622912E+01
 0.1969467307166E+01
 0.1970680930772E+01
 0.1967850335903E+01
 0.1962139266839E+01
 0.1954336376443E+01
 0.1944944088073E+01
 0.1934249631718E+01
 0.1922375376848E+01
 0.1909311440409E+01
 0.1894935974987E+01
 0.1879028100364E+01
 0.1861280997740E+01
 0.1841321748717E+01
 0.1818741318426E+01
 0.1793133677703E+01
 0.1764145579768E+01
 0.1731568107721E+01
 0.1695378046931E+01
 0.1655686912065E+01
 0.1612727632487E+01
 0.1566946689612E+01
 0.1519238143683E+01
 0.1471358806641E+01
 0.1426586463781E+01
 0.1390710737972E+01
 0.1373375939191E+01
 0.1389623680595E+01
 0.1460595545870E+01
 0.1610586138643E+01
 0.1857668078927E+01
 0.2199544968671E+01
 0.2602279987013E+01
 0.3004689038695E+01
 0.1656622015734E+01
 0.1738196212857E+01
 0.1816567836944E+01
 0.1884074038048E+01
 0.1936476970294E+01
 0.1973352704774E+01
 0.1996763701974E+01
 0.2009683717236E+01
 0.2014965457091E+01
 0.2014908373494E+01
 0.2011196672698E+01
 0.2004991412325E+01
 0.1997054967860E+01
 0.1987859002083E+01
 0.1977663876614E+01
 0.1966571377221E+01
 0.1954556390485E+01
 0.1941484175371E+01
 0.1927118927999E+01
 0.1911131849748E+01
 0.1893116596138E+01
 0.1872617213585E+01
 0.1849167999683E+01
 0.1822345332572E+01
 0.1791861358193E+01
 0.1757598592242E+01
 0.1719538608657E+01
 0.1677723672555E+01
 0.1632325453002E+01
 0.1583859330396E+01
 0.1533585212243E+01
 0.1484167058843E+01
 0.1440716637126E+01
 0.1412322832546E+01
 0.1414100946852E+01
 0.1468938092873E+01
 0.1605754462480E+01
 0.1849733950096E+01
 0.2204390385062E+01
 0.2635304588219E+01
 0.3072369624081E+01
 0.1696096025782E+01
 0.1783247097308E+01
 0.1866252338959E+01
 0.1936265390213E+01
 0.1988930425076E+01
 0.2024496151809E+01
 0.2045878076948E+01
 0.2056697561095E+01
 0.2060167452923E+01
 0.2058731476304E+01
 0.2054097565601E+01
 0.2047398169973E+01
 0.2039352421631E+01
 0.2030391556144E+01
 0.2020744762826E+01
 0.2010492842629E+01
 0.1999598002956E+01
 0.1987917455762E+01
 0.1975206967393E+01
 0.1961123030710E+01
 0.1945232900661E+01
 0.1927039850567E+01
 0.1906024217933E+01
 0.1881698785640E+01
 0.1853705975251E+01
 0.1821845534273E+01
 0.1785980832272E+01
 0.1745972159802E+01
 0.1701717962514E+01
 0.1653343267554E+01
 0.1601574528008E+01
 0.1548378831054E+01
 0.1498025130824E+01
 0.1458751502129E+01
 0.1445289533790E+01
 0.1481781882769E+01
 0.1601832916360E+01
 0.1839205778142E+01
 0.2205859019180E+01
 0.2668199335285E+01
 0.3144480929212E+01
 0.1736729929185E+01
 0.1830082798477E+01
 0.1918027932608E+01
 0.1990331707079E+01
 0.2042679714390E+01
 0.2076282719959E+01
 0.2095104899276E+01
 0.2103472889738E+01
 0.2104935466009E+01
 0.2102032898441E+01
 0.2096454712012E+01
 0.2089275574577E+01
 0.2081153726220E+01
 0.2072470640504E+01
 0.2063420665203E+01
 0.2054063900563E+01
 0.2044353146549E+01
 0.2034143273278E+01
 0.2023189226808E+01
 0.2011141442873E+01
 0.1997549241519E+01
 0.1981882445369E+01
 0.1963573968100E+01
 0.1942080662882E+01
 0.1916986046595E+01
 0.1888021369044E+01
 0.1854947646798E+01
 0.1817457665009E+01
 0.1775186470000E+01
 0.1727868812433E+01
 0.1675676796789E+01
 0.1619814890288E+01
 0.1563554967160E+01
 0.1513973365704E+01
 0.1484877765912E+01
 0.1500954321670E+01
 0.1600199229447E+01
 0.1826397453439E+01
 0.2203337766851E+01
 0.2700460690680E+01
 0.3221848749959E+01
 0.1778759111733E+01
 0.1879051664127E+01
 0.1972231564284E+01
 0.2046455165149E+01
 0.2097718201531E+01
 0.2128577947653E+01
 0.2144261273857E+01
 0.2149830863158E+01
 0.2149116398791E+01
 0.2144688258231E+01
 0.2138167525505E+01
 0.2130539796215E+01
 0.2122384970278E+01
 0.2114026304786E+01
 0.2105620560113E+01
 0.2097208215355E+01
 0.2088736654381E+01
 0.2080064926034E+01
 0.2070955880356E+01
 0.2061064044654E+01
 0.2049930935916E+01
 0.2037001616162E+01
 0.2021668914874E+01
 0.2003342060939E+01
 0.1981557765988E+01
 0.1955995528101E+01
 0.1926333753270E+01
 0.1892117937948E+01
 0.1852738331555E+01
 0.1807553133270E+01
 0.1756179444937E+01
 0.1699019774252E+01
 0.1638220294611E+01
 0.1579388221228E+01
 0.1534799375590E+01
 0.1528733369151E+01
 0.1602801204686E+01
 0.1811966397304E+01
 0.2196109596890E+01
 0.2731452209697E+01
 0.3305453887329E+01
 0.1822488040517E+01
 0.1930596236065E+01
 0.2029263367411E+01
 0.2104811343371E+01
 0.2153982985000E+01
 0.2181182680624E+01
 0.2193115660575E+01
 0.2195564009957E+01
 0.2192543349697E+01
 0.2186568214587E+01
 0.2179135100339E+01
 0.2171108802468E+01
 0.2162974718310E+01
 0.2154990920915E+01
 0.2147275051094E+01
 0.2139849928347E+01
 0.2132662187983E+01
 0.2125582290233E+01
 0.2118390766008E+01
 0.2110757977767E+01
 0.2102229725536E+01
 0.2092236677350E+01
 0.2080139779225E+01
 0.2065309303562E+01
 0.2047248078602E+01
 0.2025602568320E+01
 0.1999991674131E+01
 0.1969839126948E+01
 0.1934317768662E+01
 0.1892437853544E+01
 0.1843285073579E+01
 0.1786456529945E+01
 0.1722888235256E+01
 0.1656443241724E+01
 0.1597220407284E+01
 0.1567908955911E+01
 0.1612339648463E+01
 0.1797142921686E+01
 0.2183428607697E+01
 0.2760320099356E+01
 0.3396494787832E+01
 0.1868317452025E+01
 0.1985285118382E+01
 0.2089594656070E+01
 0.2165547314713E+01
 0.2211325781777E+01
 0.2233814783961E+01
 0.2241381933067E+01
 0.2240436942073E+01
 0.2235038392856E+01
 0.2227541326710E+01
 0.2219258605284E+01
 0.2210904252878E+01
 0.2202855516311E+01
 0.2195300431509E+01
 0.2188317472384E+01
 0.2181914695166E+01
 0.2176043237420E+01
 0.2170592737372E+01
 0.2165372083286E+01
 0.2160080857384E+01
 0.2154283534807E+01
 0.2147408914289E+01
 0.2138795329214E+01
 0.2127782858309E+01
 0.2113853598074E+01
 0.2096640906643E+01
 0.2075729744612E+01
 0.2050451979370E+01
 0.2019798593488E+01
 0.1982475690079E+01
 0.1937088171621E+01
 0.1882468765051E+01
 0.1818323407996E+01
 0.1746567691230E+01
 0.1674495896262E+01
 0.1621824687521E+01
 0.1632486822435E+01
 0.1784080459802E+01
 0.2164658163105E+01
 0.2785881367661E+01
 0.3496463586750E+01
 0.1916785393969E+01
 0.2043857430811E+01
 0.2153771396298E+01
 0.2228743581055E+01
 0.2269472738612E+01
 0.2286089186083E+01
 0.2288716035547E+01
 0.2284189659519E+01
 0.2276416914187E+01
 0.2267477727271E+01
 0.2258444086400E+01
 0.2249853592746E+01
 0.2241965495805E+01
 0.2234895656826E+01
 0.2228685048461E+01
 0.2223330805201E+01
 0.2218794255564E+01
 0.2214992251890E+01
 0.2211773335522E+01
 0.2208881275046E+01
 0.2205916316269E+01
 0.2202320792654E+01
 0.2197421241394E+01
 0.2190536227484E+01
 0.2181139774776E+01
 0.2168872189884E+01
 0.2153311122997E+01
 0.2133729367663E+01
 0.2108978451570E+01
 0.2077518507305E+01
 0.2037552207134E+01
 0.1987239549631E+01
 0.1925120104052E+01
 0.1851077713340E+01
 0.1769079113771E+01
 0.1694377870940E+01
 0.1668123595876E+01
 0.1776369998778E+01
 0.2139551545271E+01
 0.2806481349412E+01
 0.3607254825621E+01
 0.1968631007733E+01
 0.2107285071442E+01
 0.2222405681002E+01
 0.2294349899625E+01
 0.2327971069858E+01
 0.2337499042293E+01
 0.2334717588822E+01
 0.2326544261363E+01
 0.2316493638928E+01
 0.2306253594525E+01
 0.2296605638680E+01
 0.2287892308752E+01
 0.2280250049618E+01
 0.2273723643247E+01
 0.2268320100030E+01
 0.2264030381492E+01
 0.2260831939331E+01
 0.2258676791751E+01
 0.2257464600739E+01
 0.2256999620940E+01
 0.2256938053691E+01
 0.2256755083775E+01
 0.2255778733350E+01
 0.2253314707705E+01
 0.2248840299924E+01
 0.2242021434971E+01
 0.2232454103164E+01
 0.2219385554103E+01
 0.2201575201677E+01
 0.2177307865040E+01
 0.2144488984427E+01
 0.2100750200481E+01
 0.2043625680251E+01
 0.1971048950310E+01
 0.1883361945086E+01
 0.1789939180429E+01
 0.1725559072044E+01
 0.1779763247051E+01
 0.2108816906480E+01
 0.2819828071659E+01
 0.3731327399491E+01
 0.2024896965926E+01
 0.2176859616745E+01
 0.2296139430358E+01
 0.2362079800139E+01
 0.2386122584349E+01
 0.2387403676046E+01
 0.2378939388672E+01
 0.2367215579860E+01
 0.2355090293407E+01
 0.2343756327782E+01
 0.2333668853695E+01
 0.2324966273205E+01
 0.2317663525248E+01
 0.2311739010534E+01
 0.2307171259888E+01
 0.2303950628453E+01
 0.2302076634650E+01
 0.2301543899062E+01
 0.2302314196519E+01
 0.2304269339041E+01
 0.2307145000177E+01
 0.2310473845721E+01
 0.2313602759385E+01
 0.2315833770922E+01
 0.2316656612425E+01
 0.2315778008904E+01
 0.2312833972774E+01
 0.2307077536946E+01
 0.2297225918930E+01
 0.2281469029011E+01
 0.2257542302560E+01
 0.2222742751383E+01
 0.2173861814958E+01
 0.2107162334944E+01
 0.2019426193943E+01
 0.1913127414540E+01
 0.1812662445120E+01
 0.1803122312715E+01
 0.2075218959974E+01
 0.2822852782184E+01
 0.3871957234260E+01
 0.2087100283378E+01
 0.2254311263913E+01
 0.2375547351649E+01
 0.2431242089420E+01
 0.2442910520908E+01
 0.2435033201547E+01
 0.2420907583291E+01
 0.2405925596211E+01
 0.2392044677001E+01
 0.2379890271597E+01
 0.2369574417880E+01
 0.2361034098997E+01
 0.2354170886384E+01
 0.2348905264017E+01
 0.2345194672833E+01
 0.2343035104174E+01
 0.2342453846523E+01
 0.2343494571578E+01
 0.2346190832536E+01
 0.2350518809802E+01
 0.2356320335781E+01
 0.2363217250089E+01
 0.2370599508445E+01
 0.2377776717725E+01
 0.2384257325573E+01
 0.2389797567509E+01
 0.2394086765441E+01
 0.2396408891222E+01
 0.2395488962227E+01
 0.2389509288413E+01
 0.2376178094502E+01
 0.2352690538534E+01
 0.2315452624357E+01
 0.2259539943399E+01
 0.2178702267481E+01
 0.2068344715845E+01
 0.1938767284512E+01
 0.1859537728485E+01
 0.2045642753457E+01
 0.2811770695683E+01
 0.4033660382205E+01
 0.2157529765795E+01
 0.2341962407438E+01
 0.2460910309998E+01
 0.2500483073763E+01
 0.2496941330325E+01
 0.2479524281321E+01
 0.2460153187635E+01
 0.2442420622173E+01
 0.2427220848659E+01
 0.2414582728792E+01
 0.2404281689444E+01
 0.2396069410181E+01
 0.2389749278923E+01
 0.2385196026967E+01
 0.2382355141926E+01
 0.2381234978576E+01
 0.2381895809437E+01
 0.2384435364764E+01
 0.2388966319723E+01
 0.2395574111923E+01
 0.2404235554325E+01
 0.2414702292282E+01
 0.2426442803021E+01
 0.2438791010842E+01
 0.2451277230208E+01
 0.2463705067562E+01
 0.2475815326256E+01
 0.2486936526265E+01
 0.2495849373309E+01
 0.2500820969586E+01
 0.2499682888341E+01
 0.2489781818161E+01
 0.2467568753539E+01
 0.2427597660202E+01
 0.2361574060472E+01
 0.2258973556010E+01
 0.2114058885039E+01
 0.1967408666388E+01
 0.2034740496669E+01
 0.2782864141622E+01
 0.4222979718371E+01
 0.2239791197614E+01
 0.2442892850109E+01
 0.2551715107348E+01
 0.2567423989294E+01
 0.2546454670794E+01
 0.2520001241593E+01
 0.2496250310112E+01
 0.2476490074103E+01
 0.2460520100762E+01
 0.2447789824814E+01
 0.2437772073207E+01
 0.2430062914737E+01
 0.2424389426285E+01
 0.2420596139654E+01
 0.2418627172341E+01
 0.2418510224765E+01
 0.2420343048252E+01
 0.2424280637210E+01
 0.2430518839349E+01
 0.2439262968732E+01
 0.2450653112312E+01
 0.2464621569122E+01
 0.2480768804713E+01
 0.2498482304148E+01
 0.2517315299375E+01
 0.2537098999048E+01
 0.2557598250109E+01
 0.2578180841748E+01
 0.2597727681716E+01
 0.2614688928047E+01
 0.2627171274316E+01
 0.2632921913870E+01
 0.2628896357485E+01
 0.2609937825106E+01
 0.2567031999760E+01
 0.2486239180140E+01
 0.2347895235681E+01
 0.2150972154431E+01
 0.2070782355471E+01
 0.2735455017431E+01
 0.4450164117535E+01
 0.2339870889455E+01
 0.2560991544863E+01
 0.2645581981887E+01
 0.2628251114118E+01
 0.2589507305761E+01
 0.2555696797242E+01
 0.2528850604849E+01
 0.2507987665657E+01
 0.2491891678351E+01
 0.2479501753733E+01
 0.2470052058965E+01
 0.2463024154783E+01
 0.2458096804933E+01
 0.2455102589942E+01
 0.2453995885919E+01
 0.2454830711915E+01
 0.2457745878567E+01
 0.2462954829888E+01
 0.2470736681620E+01
 0.2481420231430E+01
 0.2495331305883E+01
 0.2512642740269E+01
 0.2533168235258E+01
 0.2556404589521E+01
 0.2581930881922E+01
 0.2609557226091E+01
 0.2639002596040E+01
 0.2669640088839E+01
 0.2700492142879E+01
 0.2730301854612E+01
 0.2757601421545E+01
 0.2780757829747E+01
 0.2797646741578E+01
 0.2804282771934E+01
 0.2792498443093E+01
 0.2748073936923E+01
 0.2645324004700E+01
 0.2438836893882E+01
 0.2203653077186E+01
 0.2681016108905E+01
 0.4733387185872E+01
 0.2468381821757E+01
 0.2700372762306E+01
 0.2736034362727E+01
 0.2677601237906E+01
 0.2624467541497E+01
 0.2586041842829E+01
 0.2557714316843E+01
 0.2536856496482E+01
 0.2521340393352E+01
 0.2509747641853E+01
 0.2501155551238E+01
 0.2494982856540E+01
 0.2490892532477E+01
 0.2488725230803E+01
 0.2488457767626E+01
 0.2490177149567E+01
 0.2494065778674E+01
 0.2500394626732E+01
 0.2509522123826E+01
 0.2521895030605E+01
 0.2538032911956E+01
 0.2558410176448E+01
 0.2583174935084E+01
 0.2612043614329E+01
 0.2644636807963E+01
 0.2680645200676E+01
 0.2719601585064E+01
 0.2760809943256E+01
 0.2803474694838E+01
 0.2846765166037E+01
 0.2889797417256E+01
 0.2931720783206E+01
 0.2971632713740E+01
 0.3007457511648E+01
 0.3033781463074E+01
 0.3038842161266E+01
 0.3001850868236E+01
 0.2856305068084E+01
 0.2513277734874E+01
 0.2668247554004E+01
 0.5111191421881E+01
 0.2645844144387E+01
 0.2861968105003E+01
 0.2808276701843E+01
 0.2709980851444E+01
 0.2650676465779E+01
 0.2610596752020E+01
 0.2582791088008E+01
 0.2563138143904E+01
 0.2548934154604E+01
 0.2538599067159E+01
 0.2531145301132E+01
 0.2525989840461E+01
 0.2522813903145E+01
 0.2521487270109E+01
 0.2522021223902E+01
 0.2524541856557E+01
 0.2529276574848E+01
 0.2536550915174E+01
 0.2546794928056E+01
 0.2560558992877E+01
 0.2578539828958E+01
 0.2601552577807E+01
 0.2630249128191E+01
 0.2664788175642E+01
 0.2704887746967E+01
 0.2749928353770E+01
 0.2798999057873E+01
 0.2851209365115E+01
 0.2905992146830E+01
 0.2963112550552E+01
 0.3022471922902E+01
 0.3084090196847E+01
 0.3148385956362E+01
 0.3215590705991E+01
 0.3284774083467E+01
 0.3350520059857E+01
 0.3400372584926E+01
 0.3402966657996E+01
 0.3111345886191E+01
 0.2842959037473E+01
 0.5687179786468E+01
 0.2917180213831E+01
 0.3026928536933E+01
 0.2834803114009E+01
 0.2725515754604E+01
 0.2667590650830E+01
 0.2629269801632E+01
 0.2604259335494E+01
 0.2586969931009E+01
 0.2574813834489E+01
 0.2566169798801E+01
 0.2560114089474E+01
 0.2556117123089E+01
 0.2553914594466E+01
 0.2553425459349E+01
 0.2554706910816E+01
 0.2557929299951E+01
 0.2563365326526E+01
 0.2571390427170E+01
 0.2582495168045E+01
 0.2597313085555E+01
 0.2616675347081E+01
 0.2641706290669E+01
 0.2673753161037E+01
 0.2713877479644E+01
 0.2762062590988E+01
 0.2816992337320E+01
 0.2876862681941E+01
 0.2940413659520E+01
 0.3007373635248E+01
 0.3078319619614E+01
 0.3154223365709E+01
 0.3236096591734E+01
 0.3325287184965E+01
 0.3424502329375E+01
 0.3537649010149E+01
 0.3671676281477E+01
 0.3821698601610E+01
 0.4013769888331E+01
 0.4097635593219E+01
 0.3543946707791E+01
 0.6824725877400E+01
 0.3402103891560E+01
 0.3065918332143E+01
 0.2809544119932E+01
 0.2728248094151E+01
 0.2674052664891E+01
 0.2642898219983E+01
 0.2622351990275E+01
 0.2608644709535E+01
 0.2599178535570E+01
 0.2592619567407E+01
 0.2588183241494E+01
 0.2585457791421E+01
 0.2584264348021E+01
 0.2584590009281E+01
 0.2586547790051E+01
 0.2590356400652E+01
 0.2596332852687E+01
 0.2604896829461E+01
 0.2616585657350E+01
 0.2632090892896E+01
 0.2652325533959E+01
 0.2678582417498E+01
 0.2712918546939E+01
 0.2758292864375E+01
 0.2815448551726E+01
 0.2881475756715E+01
 0.2952968807375E+01
 0.3028095402257E+01
 0.3106995025301E+01
 0.3191325707546E+01
 0.3283507634184E+01
 0.3385932204911E+01
 0.3500067575435E+01
 0.3629391820525E+01
 0.3785393334127E+01
 0.3982943211629E+01
 0.4254658575248E+01
 0.4590697583646E+01
 0.5314396791896E+01
 0.5306553171562E+01
 0.1031815590525E+02
 0.1724641794294E+00
 0.2226879010081E+00
 0.2738421809281E+00
 0.3237682591521E+00
 0.3711998263883E+00
 0.4151069993917E+00
 0.4548788629014E+00
 0.4903191957918E+00
 0.5214262036461E+00
 0.5482883526369E+00
 0.5710699585175E+00
 0.5899778832985E+00
 0.6051890242204E+00
 0.6167946875382E+00
 0.6248060682496E+00
 0.6291794794530E+00
 0.6296777091436E+00
 0.6262537941740E+00
 0.6198044297298E+00
 0.6116019670262E+00
 0.1728759139610E+00
 0.2277906083820E+00
 0.2826471664198E+00
 0.3358329090537E+00
 0.3861363299210E+00
 0.4327182679604E+00
 0.4750865229287E+00
 0.5130240517094E+00
 0.5464926612295E+00
 0.5755753218520E+00
 0.6004379463793E+00
 0.6212956996312E+00
 0.6383480707482E+00
 0.6517319360891E+00
 0.6615221518424E+00
 0.6677049988993E+00
 0.6700048005269E+00
 0.6683061777441E+00
 0.6619323815398E+00
 0.6497089374374E+00
 0.1729770500752E+00
 0.2329579681953E+00
 0.2916824655441E+00
 0.3481444751899E+00
 0.4013704991792E+00
 0.4506567143224E+00
 0.4955921838380E+00
 0.5359843665545E+00
 0.5717919566402E+00
 0.6030943874309E+00
 0.6300620877409E+00
 0.6529189912005E+00
 0.6718832920969E+00
 0.6871203207457E+00
 0.6987204518167E+00
 0.7066376120693E+00
 0.7105720382581E+00
 0.7100540603010E+00
 0.7041864036288E+00
 0.6929918964185E+00
 0.1730523395779E+00
 0.2380564437533E+00
 0.3008220551882E+00
 0.3606439899489E+00
 0.4168303875653E+00
 0.4688335129162E+00
 0.5163232360917E+00
 0.5591448420003E+00
 0.5972726816431E+00
 0.6307927376679E+00
 0.6598816854511E+00
 0.6847712893967E+00
 0.7056910153420E+00
 0.7228158707005E+00
 0.7362259998781E+00
 0.7458421544896E+00
 0.7513122746675E+00
 0.7521233632186E+00
 0.7477847839942E+00
 0.7386829635355E+00
 0.1731736711174E+00
 0.2431480521733E+00
 0.3100083241505E+00
 0.3732625534132E+00
 0.4324458019816E+00
 0.4871744809300E+00
 0.5372088198962E+00
 0.5824420602274E+00
 0.6228748536963E+00
 0.6586073962133E+00
 0.6898251643432E+00
 0.7167658755216E+00
 0.7396633812029E+00
 0.7586914181061E+00
 0.7739167544810E+00
 0.7852387701064E+00
 0.7923327430886E+00
 0.7948258937805E+00
 0.7925227647786E+00
 0.7859368296666E+00
 0.1733866155919E+00
 0.2482591362591E+00
 0.3192244613343E+00
 0.3859452492935E+00
 0.4481509599988E+00
 0.5056103764268E+00
 0.5581800315152E+00
 0.6058091642370E+00
 0.6485319306786E+00
 0.6864679963215E+00
 0.7198136451717E+00
 0.7488113722840E+00
 0.7736957405007E+00
 0.7946372459529E+00
 0.8116967077936E+00
 0.8247848950863E+00
 0.8336595518198E+00
 0.8381015123823E+00
 0.8381180521561E+00
 0.8342528158230E+00
 0.1737216361348E+00
 0.2534075388894E+00
 0.3284562239787E+00
 0.3986500849884E+00
 0.4638868128287E+00
 0.5240756483655E+00
 0.5791691404626E+00
 0.6291774746500E+00
 0.6741732010528E+00
 0.7142990911242E+00
 0.7497639094231E+00
 0.7808150084059E+00
 0.8076876726782E+00
 0.8305527309750E+00
 0.8494788365907E+00
 0.8644137157614E+00
 0.8752109593266E+00
 0.8817869309669E+00
 0.8842837241892E+00
 0.8832527882086E+00
 0.1742019486599E+00
 0.2586032471270E+00
 0.3376899692264E+00
 0.4113402331970E+00
 0.4796003845909E+00
 0.5425083277594E+00
 0.6001097385677E+00
 0.6524775342210E+00
 0.6997255820446E+00
 0.7420222748576E+00
 0.7795904981235E+00
 0.8126838250512E+00
 0.8415407791427E+00
 0.8663388738656E+00
 0.8871667953692E+00
 0.9040216179213E+00
 0.9168496051218E+00
 0.9256778904504E+00
 0.9307422851175E+00
 0.9325992813877E+00
 0.1748463291212E+00
 0.2638514591941E+00
 0.3469111492898E+00
 0.4239818269681E+00
 0.4952428143351E+00
 0.5608498151909E+00
 0.6209371303243E+00
 0.6756400609506E+00
 0.7251150530693E+00
 0.7695577968710E+00
 0.8092069881027E+00
 0.8443246338823E+00
 0.8751562266443E+00
 0.9018922553377E+00
 0.9246493997912E+00
 0.9434780816584E+00
 0.9584075967675E+00
 0.9695540165948E+00
 0.9772201346162E+00
 0.9819672092214E+00
 0.1756706867255E+00
 0.2691541071818E+00
 0.3561043715934E+00
 0.4365427433096E+00
 0.5107683278149E+00
 0.5790444528782E+00
 0.6415886332779E+00
 0.6985966997076E+00
 0.7502677003061E+00
 0.7968256167887E+00
 0.8385265865119E+00
 0.8756435819762E+00
 0.9084328579589E+00
 0.9371027883835E+00
 0.9618023227661E+00
 0.9826344665422E+00
 0.9997005947284E+00
 0.1013187672977E+01
 0.1023446369969E+01
 0.1031039872798E+01
 0.1766889433404E+00
 0.2745109618835E+00
 0.3652536859966E+00
 0.4489922287273E+00
 0.5261337170018E+00
 0.5970393621499E+00
 0.6620038692612E+00
 0.7212806931901E+00
 0.7751105747678E+00
 0.8237462019902E+00
 0.8674625620159E+00
 0.9065459783395E+00
 0.9412666757086E+00
 0.9718542225398E+00
 0.9984914567404E+00
 0.1021330879798E+01
 0.1040535539230E+01
 0.1056348767051E+01
 0.1069154432900E+01
 0.1079511572928E+01
 0.1779135886975E+00
 0.2799203993917E+00
 0.3743429725130E+00
 0.4613008600986E+00
 0.5412981678283E+00
 0.6147844261487E+00
 0.6821250399245E+00
 0.7436274115574E+00
 0.7995723464338E+00
 0.8502411281753E+00
 0.8959286392342E+00
 0.9369365066462E+00
 0.9735513147062E+00
 0.1006025727228E+01
 0.1034576360930E+01
 0.1059401126052E+01
 0.1080715516679E+01
 0.1098807693203E+01
 0.1114083675489E+01
 0.1127089328402E+01
 0.1793560392558E+00
 0.2853799786959E+00
 0.3833563470867E+00
 0.4734407069090E+00
 0.5562233155217E+00
 0.6322324234183E+00
 0.7018972391575E+00
 0.7655748389426E+00
 0.8235838859267E+00
 0.8762336604006E+00
 0.9238395441806E+00
 0.9667198678884E+00
 0.1005179143096E+01
 0.1039493927194E+01
 0.1069913435609E+01
 0.1096676590136E+01
 0.1120043351583E+01
 0.1140337568883E+01
 0.1157979232284E+01
 0.1173493098378E+01
 0.1810268986978E+00
 0.2908869098845E+00
 0.3922785813115E+00
 0.4853856174262E+00
 0.5708734588358E+00
 0.6493392787902E+00
 0.7212688127495E+00
 0.7870640497880E+00
 0.8470788227131E+00
 0.9016493601945E+00
 0.9511116903513E+00
 0.9958016886731E+00
 0.1036042642805E+01
 0.1072134989619E+01
 0.1104358729726E+01
 0.1132989421864E+01
 0.1158324608907E+01
 0.1180716445713E+01
 0.1200592787600E+01
 0.1218453527655E+01
 0.1829361446822E+00
 0.2964384354788E+00
 0.4010954980803E+00
 0.4971115450209E+00
 0.5852158374674E+00
 0.6660643558843E+00
 0.7401917166962E+00
 0.8080396501032E+00
 0.8699940658261E+00
 0.9264166936435E+00
 0.9776639301012E+00
 0.1024089537544E+01
 0.1066035849468E+01
 0.1103826598201E+01
 0.1137770407269E+01
 0.1168175276970E+01
 0.1195370364303E+01
 0.1219730064623E+01
 0.1241685754830E+01
 0.1261712372175E+01
 0.1850932797290E+00
 0.3020321744845E+00
 0.4097943753138E+00
 0.5085969316142E+00
 0.5992209908759E+00
 0.6823708257462E+00
 0.7586219308156E+00
 0.8284502570309E+00
 0.8922703641033E+00
 0.9504677001741E+00
 0.1003418391782E+01
 0.1051494023203E+01
 0.1095055809362E+01
 0.1134449818171E+01
 0.1170010975504E+01
 0.1202075789116E+01
 0.1230999858909E+01
 0.1257174886818E+01
 0.1281032906255E+01
 0.1303025846815E+01
 0.1875074552185E+00
 0.3076664323177E+00
 0.4183643383953E+00
 0.5198231060739E+00
 0.6128631452423E+00
 0.6982260591627E+00
 0.7765198816590E+00
 0.8482489750595E+00
 0.9138528597544E+00
 0.9737386590938E+00
 0.1028301313919E+01
 0.1077929864647E+01
 0.1123003945694E+01
 0.1163890780067E+01
 0.1200949251303E+01
 0.1234540754192E+01
 0.1265042893773E+01
 0.1292860760539E+01
 0.1318425328400E+01
 0.1342168273924E+01
 0.1901875754622E+00
 0.3133404918253E+00
 0.4267967476428E+00
 0.5307746958579E+00
 0.6261206233330E+00
 0.7136020397414E+00
 0.7938508764330E+00
 0.8673938724482E+00
 0.9346916339069E+00
 0.9961707399471E+00
 0.1052243846461E+01
 0.1103316892787E+01
 0.1149787297947E+01
 0.1192042164457E+01
 0.1230462062453E+01
 0.1265430000869E+01
 0.1297341832083E+01
 0.1326613012001E+01
 0.1353672622648E+01
 0.1378935037135E+01
 0.1931423983325E+00
 0.3190549007127E+00
 0.4350855929261E+00
 0.5414400586312E+00
 0.6389762816575E+00
 0.7284758032700E+00
 0.8105855560057E+00
 0.8858484667778E+00
 0.9547422499207E+00
 0.1017710635612E+01
 0.1075182810763E+01
 0.1127580972841E+01
 0.1175319629757E+01
 0.1218804494967E+01
 0.1258435697266E+01
 0.1294614945347E+01
 0.1327753195430E+01
 0.1358274013349E+01
 0.1386604467737E+01
 0.1413144675560E+01
 0.1963806261552E+00
 0.3248117502470E+00
 0.4432278818245E+00
 0.5518117121276E+00
 0.6514179472829E+00
 0.7428298727078E+00
 0.8267003348337E+00
 0.9035821854765E+00
 0.9739662566837E+00
 0.1038311135501E+01
 0.1097061371835E+01
 0.1150654801066E+01
 0.1199522364088E+01
 0.1244087206476E+01
 0.1284767075527E+01
 0.1321979808615E+01
 0.1356148854792E+01
 0.1387704289201E+01
 0.1417071653891E+01
 0.1444640175345E+01
 0.1999109993781E+00
 0.3306149606272E+00
 0.4512240374564E+00
 0.5618867775989E+00
 0.6634388688788E+00
 0.7566527031784E+00
 0.8421778419958E+00
 0.9205708143925E+00
 0.9923316624475E+00
 0.1057931646053E+01
 0.1117829627200E+01
 0.1172478579375E+01
 0.1222325351112E+01
 0.1267809497959E+01
 0.1309364656254E+01
 0.1347422524423E+01
 0.1382416862174E+01
 0.1414783209987E+01
 0.1444946679377E+01
 0.1473289441257E+01
 0.2037423943919E+00
 0.3364705733499E+00
 0.4590783030047E+00
 0.5716674296111E+00
 0.6750381710635E+00
 0.7699391234622E+00
 0.8570073480501E+00
 0.9367969175598E+00
 0.1009813360747E+01
 0.1076538638699E+01
 0.1137445092145E+01
 0.1193000548918E+01
 0.1243667453327E+01
 0.1289900960450E+01
 0.1332149083377E+01
 0.1370855355024E+01
 0.1406461963491E+01
 0.1439409276721E+01
 0.1470123674544E+01
 0.1498984382245E+01
 0.2078839292943E+00
 0.3423870551832E+00
 0.4667991563887E+00
 0.5811613534621E+00
 0.6862213110074E+00
 0.7826907711228E+00
 0.8711851735487E+00
 0.9522502229695E+00
 0.1026393502403E+01
 0.1094106018849E+01
 0.1155873075088E+01
 0.1212177377415E+01
 0.1263496944969E+01
 0.1310301981602E+01
 0.1353053578332E+01
 0.1392205239133E+01
 0.1428205835722E+01
 0.1461500128676E+01
 0.1492517821699E+01
 0.1521640013386E+01
 0.2123450831633E+00
 0.3483756199746E+00
 0.4743997408187E+00
 0.5903822143004E+00
 0.6970005392783E+00
 0.7949165214645E+00
 0.8847150781420E+00
 0.9669279725217E+00
 0.1042061811539E+01
 0.1110615414123E+01
 0.1173086942021E+01
 0.1229974400236E+01
 0.1281771727101E+01
 0.1328963930369E+01
 0.1372024088070E+01
 0.1411413888982E+01
 0.1447587101173E+01
 0.1480992398566E+01
 0.1512065072176E+01
 0.1541194056101E+01
 0.2171358344798E+00
 0.3544505735113E+00
 0.4818983162970E+00
 0.5993501412279E+00
 0.7073953658509E+00
 0.8066329092193E+00
 0.8976086278619E+00
 0.9808352332841E+00
 0.1056815843228E+01
 0.1126056380773E+01
 0.1189068270768E+01
 0.1246365717618E+01
 0.1298459361714E+01
 0.1345849125600E+01
 0.1389019192937E+01
 0.1428437647436E+01
 0.1464561135442E+01
 0.1497841475578E+01
 0.1528721891434E+01
 0.1557606473364E+01
 0.2222668196545E+00
 0.3606296825660E+00
 0.4893187327216E+00
 0.6080922248022E+00
 0.7174330268275E+00
 0.8178645359850E+00
 0.9098855320845E+00
 0.9939851613628E+00
 0.1070661175441E+01
 0.1140426523760E+01
 0.1203806893916E+01
 0.1261334149669E+01
 0.1313536927593E+01
 0.1360930589934E+01
 0.1404009773059E+01
 0.1443247099950E+01
 0.1479099663683E+01
 0.1512021098153E+01
 0.1542464725361E+01
 0.1570858486189E+01
 0.2277495232078E+00
 0.3669345830211E+00
 0.4966909411527E+00
 0.6166430447296E+00
 0.7271489670735E+00
 0.8286444767355E+00
 0.9215739620673E+00
 0.1006399229972E+01
 0.1083611548285E+01
 0.1153731546541E+01
 0.1217300850207E+01
 0.1274871071519E+01
 0.1326990719753E+01
 0.1374191605942E+01
 0.1416978439936E+01
 0.1455826433508E+01
 0.1491190114694E+01
 0.1523522719669E+01
 0.1553289206447E+01
 0.1580951157908E+01
 0.2335965014645E+00
 0.3733912255132E+00
 0.5040515433329E+00
 0.6250452251047E+00
 0.7365873318958E+00
 0.8390146741482E+00
 0.9327108365797E+00
 0.1018107406164E+01
 0.1095688937158E+01
 0.1165985222721E+01
 0.1229556244008E+01
 0.1286976134741E+01
 0.1338815800908E+01
 0.1385625078983E+01
 0.1427918726733E+01
 0.1466172514357E+01
 0.1500834674641E+01
 0.1532354598854E+01
 0.1561209117611E+01
 0.1587903530648E+01
 0.2398216404394E+00
 0.3800303672293E+00
 0.5114443903386E+00
 0.6333500287769E+00
 0.7458014766808E+00
 0.8490263259780E+00
 0.9433420765562E+00
 0.1029148276856E+01
 0.1106923563052E+01
 0.1177209300226E+01
 0.1240587034127E+01
 0.1297656906066E+01
 0.1349015439895E+01
 0.1395232736432E+01
 0.1436834053214E+01
 0.1474293680778E+01
 0.1508048997650E+01
 0.1538540530899E+01
 0.1566255081364E+01
 0.1591750224397E+01
 0.2464404652874E+00
 0.3868881272533E+00
 0.5189212552587E+00
 0.6416180165893E+00
 0.7548545163440E+00
 0.8587402807282E+00
 0.9535228369044E+00
 0.1039569127044E+01
 0.1117353842785E+01
 0.1187433347924E+01
 0.1250414775393E+01
 0.1306928461189E+01
 0.1357600481649E+01
 0.1403024200953E+01
 0.1443736484573E+01
 0.1480208253651E+01
 0.1512860567012E+01
 0.1542118094351E+01
 0.1568472683483E+01
 0.1592538289951E+01
 0.2534704819197E+00
 0.3940065922502E+00
 0.5265425739638E+00
 0.6499197669040E+00
 0.7638199040450E+00
 0.8682274214662E+00
 0.9633176851024E+00
 0.1049425932184E+01
 0.1127026240618E+01
 0.1196694517111E+01
 0.1259068308395E+01
 0.1314812957550E+01
 0.1364588693189E+01
 0.1409015981123E+01
 0.1448645305228E+01
 0.1483942765222E+01
 0.1515306738697E+01
 0.1543136539003E+01
 0.1567919654744E+01
 0.1590322781104E+01
 0.2609315734634E+00
 0.4014345055838E+00
 0.5343783046906E+00
 0.6583367146906E+00
 0.7727820943927E+00
 0.8775690813990E+00
 0.9728007550973E+00
 0.1058783278652E+01
 0.1135995026940E+01
 0.1205037229233E+01
 0.1266583433700E+01
 0.1321339262665E+01
 0.1370004197312E+01
 0.1413230493770E+01
 0.1451585479178E+01
 0.1485529924863E+01
 0.1515432494724E+01
 0.1541654714952E+01
 0.1564663725255E+01
 0.1585163871133E+01
 0.2688464239058E+00
 0.4092280187613E+00
 0.5425089145480E+00
 0.6669621293011E+00
 0.7818373025728E+00
 0.8868574839556E+00
 0.9820558481840E+00
 0.1067714163970E+01
 0.1144321882168E+01
 0.1212512730120E+01
 0.1273002542599E+01
 0.1326542676160E+01
 0.1373877110494E+01
 0.1415695266198E+01
 0.1452586091077E+01
 0.1485006295499E+01
 0.1513287828827E+01
 0.1537739097749E+01
 0.1558783128645E+01
 0.1577131666659E+01
 0.2772409327480E+00
 0.4174515012688E+00
 0.5510265339515E+00
 0.6759022959185E+00
 0.7910944095427E+00
 0.8961962287811E+00
 0.9911764704835E+00
 0.1076299637063E+01
 0.1152075278952E+01
 0.1219178427627E+01
 0.1278374138682E+01
 0.1330464765591E+01
 0.1376243547175E+01
 0.1416442594228E+01
 0.1451678978212E+01
 0.1482409671048E+01
 0.1508924490110E+01
 0.1531461525461E+01
 0.1550367717935E+01
 0.1566315695363E+01
 0.2861446019179E+00
 0.4261784089712E+00
 0.5600363861905E+00
 0.6852780380416E+00
 0.8006761283255E+00
 0.9057008871041E+00
 0.1000265835716E+01
 0.1084628272322E+01
 0.1159329597879E+01
 0.1225096927605E+01
 0.1282752142978E+01
 0.1333153270129E+01
 0.1377146184174E+01
 0.1415510128270E+01
 0.1448898073779E+01
 0.1477776167719E+01
 0.1502391542088E+01
 0.1522895732565E+01
 0.1539519522197E+01
 0.1552831903447E+01
 0.2955906945563E+00
 0.4354921299706E+00
 0.5696585571929E+00
 0.6952267307797E+00
 0.8107204682181E+00
 0.9154996839749E+00
 0.1009436767226E+01
 0.1092795394146E+01
 0.1166163850112E+01
 0.1230334580986E+01
 0.1286194743069E+01
 0.1334661801278E+01
 0.1376635332662E+01
 0.1412943112400E+01
 0.1444280592579E+01
 0.1471137614122E+01
 0.1493728412044E+01
 0.1512111083238E+01
 0.1526353089555E+01
 0.1536833988886E+01
 0.3056159907393E+00
 0.4454866706019E+00
 0.5800306515409E+00
 0.7059051459404E+00
 0.8213827268892E+00
 0.9257342929878E+00
 0.1018811583404E+01
 0.1100902097595E+01
 0.1172659973128E+01
 0.1234959425844E+01
 0.1288762525640E+01
 0.1335048968543E+01
 0.1374769940179E+01
 0.1408798412023E+01
 0.1437872987715E+01
 0.1462521312624E+01
 0.1482954017008E+01
 0.1499157271707E+01
 0.1510994660489E+01
 0.1518539408709E+01
 0.3162589719950E+00
 0.4562678509725E+00
 0.5913117770006E+00
 0.7174941771282E+00
 0.8328374941844E+00
 0.9365606219372E+00
 0.1028522097455E+01
 0.1109053991511E+01
 0.1178900501316E+01
 0.1239038400897E+01
 0.1290515626146E+01
 0.1334376221117E+01
 0.1371617888891E+01
 0.1403148433965E+01
 0.1429742707017E+01
 0.1451965252754E+01
 0.1470050765583E+01
 0.1484026133367E+01
 0.1493564525034E+01
 0.1498284624151E+01
 0.3275553437604E+00
 0.4679505464605E+00
 0.6036969024982E+00
 0.7302037925088E+00
 0.8452787163832E+00
 0.9481505104496E+00
 0.1038710494949E+01
 0.1117359136634E+01
 0.1184965355495E+01
 0.1242633994053E+01
 0.1291509944984E+01
 0.1332703669164E+01
 0.1367253656773E+01
 0.1396085254998E+01
 0.1419986416660E+01
 0.1439554109515E+01
 0.1455007679113E+01
 0.1466535935954E+01
 0.1474074550897E+01
 0.1476647922652E+01
 0.3394873927648E+00
 0.4807186409701E+00
 0.6174502114985E+00
 0.7442606294187E+00
 0.8589177639638E+00
 0.9607015130050E+00
 0.1049529700764E+01
 0.1125923449086E+01
 0.1190928068117E+01
 0.1245800632297E+01
 0.1291792927348E+01
 0.1330084099850E+01
 0.1361750309605E+01
 0.1387719442461E+01
 0.1408747338703E+01
 0.1425417248695E+01
 0.1437956655298E+01
 0.1446491616801E+01
 0.1451788044080E+01
 0.1455163400296E+01
 0.3099948158043E+00
 0.1211388753919E+00
 0.6801036406526E-01
 0.1422824062398E+00
 0.1642762462473E+00
 0.1618860979701E+00
 0.1606886565173E+00
 0.1675162436558E+00
 0.1749790315677E+00
 0.1790302177882E+00
 0.1791816131976E+00
 0.1754109552880E+00
 0.1672484256777E+00
 0.1541275607474E+00
 0.1361640335819E+00
 0.1132487892778E+00
 0.8480053575977E-01
 0.5438132273043E-01
 0.2586737588289E-01
 0.3324162719862E-02
 0.2618085011013E+00
 0.1848328860073E+00
 0.2358245881705E-01
 0.6884249521751E-01
 0.1101383838208E+00
 0.1269156479077E+00
 0.1353437132881E+00
 0.1439889039232E+00
 0.1520077363384E+00
 0.1573068812977E+00
 0.1593287933912E+00
 0.1578100286578E+00
 0.1524078905129E+00
 0.1426207148899E+00
 0.1280854347367E+00
 0.1086311963040E+00
 0.8474796317731E-01
 0.5751915082290E-01
 0.2857634035181E-01
 0.2975461345153E-02
 0.2285679204584E+00
 0.1900614139381E+00
 0.8737552464061E-01
 0.2132028691388E-02
 0.5500752528654E-01
 0.8533436366453E-01
 0.1035895580313E+00
 0.1164625112134E+00
 0.1262584753097E+00
 0.1331384032722E+00
 0.1370967926440E+00
 0.1379619796080E+00
 0.1354233945161E+00
 0.1290090382747E+00
 0.1182285509554E+00
 0.1028247755598E+00
 0.8306824836289E-01
 0.5882682814713E-01
 0.3042674654942E-01
 0.2236328119443E-02
 0.2076558292923E+00
 0.1862771520892E+00
 0.1242123971692E+00
 0.5503161309290E-01
 0.1945629889913E-02
 0.4027271778681E-01
 0.6656731226066E-01
 0.8443181893979E-01
 0.9705837233908E-01
 0.1060577102298E+00
 0.1121495319515E+00
 0.1154656677183E+00
 0.1158309347408E+00
 0.1128518976774E+00
 0.1059923798522E+00
 0.9482973708721E-01
 0.7940997763882E-01
 0.5859212434958E-01
 0.3175996826963E-01
 0.1431043202857E-02
 0.1943238872904E+00
 0.1817482952301E+00
 0.1468461927128E+00
 0.9795467609370E-01
 0.4801344772118E-01
 0.6027466960162E-02
 0.2594159671616E-01
 0.4832328114852E-01
 0.6416723551480E-01
 0.7569310282156E-01
 0.8413136560501E-01
 0.8995907282043E-01
 0.9321916790844E-01
 0.9366081615888E-01
 0.9075741422489E-01
 0.8397217184001E-01
 0.7315805141921E-01
 0.5640464669616E-01
 0.3227543502874E-01
 0.2639260047008E-02
 0.1858642755213E+00
 0.1786446468485E+00
 0.1619460140507E+00
 0.1306707917464E+00
 0.9072626351636E-01
 0.5068922789447E-01
 0.1660321081054E-01
 0.9085112256267E-02
 0.2784533852299E-01
 0.4194467083402E-01
 0.5280411658192E-01
 0.6114268128111E-01
 0.6722573457097E-01
 0.7098366369299E-01
 0.7196399487236E-01
 0.6958582650477E-01
 0.6358998904829E-01
 0.5150023880459E-01
 0.3114351755314E-01
 0.4286519737063E-02
 0.1805840234070E+00
 0.1773328692651E+00
 0.1731043836183E+00
 0.1561387116993E+00
 0.1271300295737E+00
 0.9248048765352E-01
 0.5921762527354E-01
 0.3213839065183E-01
 0.1127821647325E-01
 0.5042635526058E-02
 0.1814479104742E-01
 0.2885188895681E-01
 0.3758409444055E-01
 0.4445059735067E-01
 0.4911918667518E-01
 0.5103752235810E-01
 0.4991699736714E-01
 0.4291171731998E-01
 0.2717238343888E-01
 0.4206733266828E-02
 0.1773930029873E+00
 0.1776552078106E+00
 0.1822521392905E+00
 0.1766491210803E+00
 0.1581179470641E+00
 0.1305932746846E+00
 0.1006238540628E+00
 0.7407250091909E-01
 0.5235748278533E-01
 0.3457915244990E-01
 0.1970683137980E-01
 0.7075228846781E-02
 0.4424334579954E-02
 0.1387793334697E-01
 0.2186826632949E-01
 0.2779088509962E-01
 0.3138429896003E-01
 0.2961694852296E-01
 0.1902695177908E-01
 0.1372555094184E-02
 0.1755652765751E+00
 0.1793088339422E+00
 0.1904301365208E+00
 0.1938275441476E+00
 0.1847527151128E+00
 0.1649948205762E+00
 0.1399737129019E+00
 0.1156924759506E+00
 0.9448915186498E-01
 0.7621389515625E-01
 0.6024516988207E-01
 0.4604249265425E-01
 0.3316256532546E-01
 0.2129824437385E-01
 0.1060737972369E-01
 0.2906296924541E-02
 0.7705635874429E-02
 0.1085403134363E-01
 0.5796043023859E-02
 0.8841257512147E-02
 0.1746061274760E+00
 0.1819755787387E+00
 0.1981856135040E+00
 0.2087849600002E+00
 0.2080088373033E+00
 0.1960013837108E+00
 0.1768875206137E+00
 0.1562406843835E+00
 0.1368523592763E+00
 0.1191683325789E+00
 0.1029843973505E+00
 0.8800671594797E-01
 0.7389835812995E-01
 0.6032088664920E-01
 0.4724284410094E-01
 0.3489706181635E-01
 0.2334528376683E-01
 0.1549365821830E-01
 0.1563240339021E-01
 0.2453338938310E-01
 0.1741731020730E+00
 0.1853650641107E+00
 0.2057855736253E+00
 0.2222599982076E+00
 0.2286893423420E+00
 0.2240656496361E+00
 0.2113001924465E+00
 0.1952499723246E+00
 0.1787900129521E+00
 0.1627593389397E+00
 0.1473044008507E+00
 0.1323846720842E+00
 0.1178188016995E+00
 0.1033102455834E+00
 0.8876061851536E-01
 0.7427378870787E-01
 0.5975997772683E-01
 0.4784786259115E-01
 0.4336624707312E-01
 0.4803381831196E-01
 0.1740271993194E+00
 0.1892267265714E+00
 0.2133354684045E+00
 0.2347282582505E+00
 0.2474155381571E+00
 0.2496551728439E+00
 0.2433303426357E+00
 0.2324854540064E+00
 0.2198273688216E+00
 0.2063968005461E+00
 0.1925939338109E+00
 0.1785999738925E+00
 0.1644047132482E+00
 0.1497981559880E+00
 0.1346589444113E+00
 0.1189858087836E+00
 0.1025501108817E+00
 0.8757406874979E-01
 0.7910360648157E-01
 0.7985075725909E-01
 0.1740015625483E+00
 0.1933503601086E+00
 0.2208474192139E+00
 0.2464810007737E+00
 0.2646446452538E+00
 0.2731897360043E+00
 0.2731828925320E+00
 0.2678731952564E+00
 0.2596519771298E+00
 0.2496069551776E+00
 0.2382919353702E+00
 0.2260590443873E+00
 0.2130625750420E+00
 0.1992096857204E+00
 0.1844001295445E+00
 0.1685587203180E+00
 0.1513222731207E+00
 0.1343764321275E+00
 0.1227500118667E+00
 0.1200385748388E+00
 0.1739808155559E+00
 0.1975627555429E+00
 0.2282805283030E+00
 0.2576806426655E+00
 0.2806955008360E+00
 0.2950136099422E+00
 0.3010836867135E+00
 0.3014353811461E+00
 0.2980764011779E+00
 0.2920298278563E+00
 0.2839134911533E+00
 0.2741923838971E+00
 0.2631636107050E+00
 0.2508707967152E+00
 0.2372825787818E+00
 0.2222999793190E+00
 0.2054482241140E+00
 0.1877531246008E+00
 0.1739174998275E+00
 0.1682095161600E+00
 0.1738871575821E+00
 0.2017234791308E+00
 0.2355652437953E+00
 0.2683997142224E+00
 0.2957742296856E+00
 0.3153872360223E+00
 0.3272388428790E+00
 0.3332385621155E+00
 0.3349970099489E+00
 0.3334008597463E+00
 0.3290580418196E+00
 0.3224864371091E+00
 0.3140912201793E+00
 0.3040579887046E+00
 0.2924744177269E+00
 0.2792975094225E+00
 0.2640105978856E+00
 0.2468941044947E+00
 0.2319019292676E+00
 0.2236055082056E+00
 0.1736710499531E+00
 0.2057210249485E+00
 0.2426183641811E+00
 0.2786480652674E+00
 0.3099969231361E+00
 0.3344891272589E+00
 0.3518115829426E+00
 0.3633553594341E+00
 0.3703552315839E+00
 0.3735236618740E+00
 0.3734024475217E+00
 0.3705030339039E+00
 0.3652882619314E+00
 0.3580670541058E+00
 0.3490814286311E+00
 0.3384531421108E+00
 0.3257862620993E+00
 0.3106501370764E+00
 0.2957323103910E+00
 0.2852059502766E+00
 0.1733052350090E+00
 0.2094704608162E+00
 0.2493517932926E+00
 0.2883917422464E+00
 0.3234082170475E+00
 0.3524229203422E+00
 0.3749110940071E+00
 0.3918382076513E+00
 0.4041041534977E+00
 0.4122376982008E+00
 0.4166789328225E+00
 0.4178798707604E+00
 0.4162956441662E+00
 0.4122992835569E+00
 0.4062734169832E+00
 0.3985828532454E+00
 0.3892268888556E+00
 0.3774322181794E+00
 0.3641515780327E+00
 0.3518855909364E+00
 0.1727833680024E+00
 0.2129106909366E+00
 0.2556784792694E+00
 0.2975632814077E+00
 0.3359965422601E+00
 0.3692264759190E+00
 0.3965897236672E+00
 0.4187040539743E+00
 0.4361829736670E+00
 0.4493847099048E+00
 0.4586371695942E+00
 0.4642993613578E+00
 0.4667537928250E+00
 0.4663407033905E+00
 0.4634716808012E+00
 0.4587151819408E+00
 0.4525943704636E+00
 0.4449031153281E+00
 0.4354066224713E+00
 0.4225374048362E+00
 0.1721192076719E+00
 0.2160195694482E+00
 0.2614972540956E+00
 0.3060712623988E+00
 0.3477061593674E+00
 0.3848801740456E+00
 0.4168455310894E+00
 0.4439302480132E+00
 0.4665036753587E+00
 0.4847815910338E+00
 0.4989972587635E+00
 0.5094174409718E+00
 0.5163211796781E+00
 0.5199320094842E+00
 0.5205146573569E+00
 0.5185595592908E+00
 0.5149179392722E+00
 0.5100127085243E+00
 0.5056323357401E+00
 0.4962501962459E+00
 0.1714507352128E+00
 0.2186831074378E+00
 0.2666874020918E+00
 0.3138219263963E+00
 0.3584440250417E+00
 0.3993036051573E+00
 0.4356296125221E+00
 0.4674650337102E+00
 0.4949547724419E+00
 0.5182133078938E+00
 0.5374168704744E+00
 0.5527782905565E+00
 0.5644984268890E+00
 0.5726886470291E+00
 0.5774079936423E+00
 0.5787730358122E+00
 0.5772012344757E+00
 0.5730650428826E+00
 0.5685911957642E+00
 0.5675770991559E+00
 0.3557357880537E+00
 0.5012718721901E+00
 0.6419531950137E+00
 0.7712885553264E+00
 0.8868590145987E+00
 0.9879031262780E+00
 0.1074443161796E+01
 0.1147368374740E+01
 0.1208100214976E+01
 0.1258190070565E+01
 0.1299103285384E+01
 0.1332163272030E+01
 0.1358555151273E+01
 0.1379279656084E+01
 0.1395148642003E+01
 0.1406861317417E+01
 0.1415184850903E+01
 0.1420433902270E+01
 0.1424169158377E+01
 0.1429805136673E+01
 0.3750442325625E+00
 0.5292995859976E+00
 0.6766170016489E+00
 0.8103044756161E+00
 0.9275131363030E+00
 0.1027539026033E+01
 0.1110719405763E+01
 0.1178446395684E+01
 0.1232735959010E+01
 0.1275642125453E+01
 0.1308990598845E+01
 0.1334357248127E+01
 0.1353119095489E+01
 0.1366437560523E+01
 0.1375308033896E+01
 0.1380729120093E+01
 0.1383909834602E+01
 0.1385099951705E+01
 0.1385762002214E+01
 0.1384029458481E+01
 0.3956060528788E+00
 0.5598657267116E+00
 0.7141075356875E+00
 0.8514756473124E+00
 0.9691104589904E+00
 0.1066589942602E+01
 0.1144740572784E+01
 0.1205551342756E+01
 0.1251776162371E+01
 0.1286081187439E+01
 0.1310694805784E+01
 0.1327463362738E+01
 0.1337972858648E+01
 0.1343549684639E+01
 0.1345342032632E+01
 0.1344472670193E+01
 0.1342060450371E+01
 0.1337695109536E+01
 0.1331828941324E+01
 0.1325414779712E+01
 0.4179645396454E+00
 0.5933190165548E+00
 0.7546453786564E+00
 0.8948816692346E+00
 0.1011459841098E+01
 0.1104549765873E+01
 0.1175697422685E+01
 0.1227699716326E+01
 0.1264215635520E+01
 0.1288595479317E+01
 0.1303476945143E+01
 0.1310955743619E+01
 0.1312784039491E+01
 0.1310368972269E+01
 0.1304864126846E+01
 0.1297284880124E+01
 0.1288418674341E+01
 0.1277144745930E+01
 0.1265095822445E+01
 0.1256797817229E+01
 0.4425250699558E+00
 0.6302487361188E+00
 0.7985587694934E+00
 0.9405283317820E+00
 0.1054199009413E+01
 0.1140693547605E+01
 0.1202596684631E+01
 0.1243786957138E+01
 0.1268999062533E+01
 0.1282291417458E+01
 0.1286661884281E+01
 0.1284382068606E+01
 0.1277275381026E+01
 0.1266705091818E+01
 0.1253692648693E+01
 0.1239044799413E+01
 0.1223193573833E+01
 0.1204898803887E+01
 0.1187702926576E+01
 0.1178765376038E+01
 0.4697485261571E+00
 0.6712893894221E+00
 0.8462096561424E+00
 0.9883305384673E+00
 0.1096774750256E+01
 0.1174073301817E+01
 0.1224252864182E+01
 0.1252596475062E+01
 0.1265051875033E+01
 0.1266335811520E+01
 0.1259691939390E+01
 0.1247446545435E+01
 0.1231370228795E+01
 0.1212659854728E+01
 0.1192118654181E+01
 0.1170324642362E+01
 0.1147455196224E+01
 0.1122504403221E+01
 0.1100981471961E+01
 0.1092150521111E+01
 0.5001765851929E+00
 0.7171519988269E+00
 0.8979363295990E+00
 0.1038066761815E+01
 0.1138408357399E+01
 0.1203496381347E+01
 0.1239293497013E+01
 0.1252832096886E+01
 0.1251333588588E+01
 0.1240022024749E+01
 0.1222202941433E+01
 0.1200098505451E+01
 0.1175291010870E+01
 0.1148705318497E+01
 0.1120875867868E+01
 0.1092167388752E+01
 0.1062562501015E+01
 0.1031474344491E+01
 0.1006288282691E+01
 0.9980152624224E+00
 0.5344590727425E+00
 0.7686327062388E+00
 0.9540240449840E+00
 0.1089321774516E+01
 0.1178045478783E+01
 0.1227503838263E+01
 0.1246178650889E+01
 0.1243174570237E+01
 0.1226914306832E+01
 0.1202851291445E+01
 0.1174100591456E+01
 0.1142595755576E+01
 0.1109596146703E+01
 0.1075668249180E+01
 0.1041049901404E+01
 0.1005907031093E+01
 0.9700447594387E+00
 0.9334159554516E+00
 0.9051351470718E+00
 0.8976653307160E+00
 0.5733829005734E+00
 0.8266238057177E+00
 0.1014665244044E+01
 0.1141417642699E+01
 0.1214295849682E+01
 0.1244355375723E+01
 0.1243244180981E+01
 0.1222366601915E+01
 0.1191072214090E+01
 0.1154619720870E+01
 0.1115623520182E+01
 0.1075535805482E+01
 0.1035172961641E+01
 0.9946813623904E+00
 0.9539921026887E+00
 0.9130837243252E+00
 0.8715800765420E+00
 0.8300747046128E+00
 0.7992333082944E+00
 0.7926353261040E+00
 0.6179092762215E+00
 0.8921232777270E+00
 0.1079902178156E+01
 0.1193321697290E+01
 0.1245365124418E+01
 0.1252031925601E+01
 0.1228781038885E+01
 0.1189332061838E+01
 0.1143407711188E+01
 0.1095499927726E+01
 0.1047382541873E+01
 0.9998536474309E+00
 0.9532002902920E+00
 0.9071203067644E+00
 0.8612480991819E+00
 0.8153887630169E+00
 0.7689760826930E+00
 0.7233448111729E+00
 0.6904949353048E+00
 0.6846951600768E+00
 0.6692241172910E+00
 0.9662415211401E+00
 0.1149538371735E+01
 0.1243520907741E+01
 0.1268982448664E+01
 0.1248273381711E+01
 0.1201167306707E+01
 0.1143332425593E+01
 0.1083963358653E+01
 0.1026100847266E+01
 0.9703639648640E+00
 0.9167841277554E+00
 0.8650866173507E+00
 0.8145322412448E+00
 0.7644907264217E+00
 0.7146148209402E+00
 0.6641450409733E+00
 0.6152591526605E+00
 0.5810284140959E+00
 0.5758684203932E+00
 0.7288091921931E+00
 0.1050200056628E+01
 0.1222997036015E+01
 0.1289848109492E+01
 0.1282335810509E+01
 0.1230680957941E+01
 0.1159072316872E+01
 0.1084153891896E+01
 0.1013325530682E+01
 0.9474815323522E+00
 0.8858848874722E+00
 0.8277900194827E+00
 0.7723911401821E+00
 0.7185602446394E+00
 0.6654542796889E+00
 0.6126056607588E+00
 0.5590710852749E+00
 0.5079700455210E+00
 0.4731322399446E+00
 0.4684600716196E+00
 0.7985462311696E+00
 0.1145309740744E+01
 0.1299086574436E+01
 0.1329242253784E+01
 0.1282046013322E+01
 0.1196932319128E+01
 0.1101746738554E+01
 0.1012294750373E+01
 0.9326635957742E+00
 0.8610915098460E+00
 0.7954978562067E+00
 0.7344680620695E+00
 0.6767408505783E+00
 0.6208700075238E+00
 0.5658697460803E+00
 0.5112015999457E+00
 0.4557685443249E+00
 0.4037217108373E+00
 0.3692846893576E+00
 0.3650868848380E+00
 0.8808750650666E+00
 0.1252897844494E+01
 0.1375597685135E+01
 0.1357426648180E+01
 0.1264252122331E+01
 0.1145179892458E+01
 0.1029382386728E+01
 0.9290753795804E+00
 0.8436453751857E+00
 0.7686259153935E+00
 0.7008677784156E+00
 0.6384593646905E+00
 0.5797583953155E+00
 0.5230819113327E+00
 0.4673976744951E+00
 0.4121756290621E+00
 0.3562261117528E+00
 0.3048083386888E+00
 0.2721192021223E+00
 0.2686990216330E+00
 0.9790439996223E+00
 0.1374106185135E+01
 0.1448582172688E+01
 0.1368516869411E+01
 0.1224970148813E+01
 0.1074710480019E+01
 0.9434309631588E+00
 0.8365292973031E+00
 0.7481838825295E+00
 0.6718408774689E+00
 0.6036752844912E+00
 0.5413914682312E+00
 0.4830044302779E+00
 0.4267022915103E+00
 0.3715516268588E+00
 0.3171540628742E+00
 0.2623282447872E+00
 0.2135042956956E+00
 0.1843653362614E+00
 0.1825691017418E+00
 0.1097523271328E+01
 0.1509342372211E+01
 0.1511012061147E+01
 0.1354684916813E+01
 0.1161075758902E+01
 0.9868390860159E+00
 0.8465727815640E+00
 0.7368994335267E+00
 0.6481124230187E+00
 0.5724477173188E+00
 0.5055983887495E+00
 0.4448517819772E+00
 0.3879166074899E+00
 0.3330405560943E+00
 0.2796079248108E+00
 0.2275184598140E+00
 0.1757438624834E+00
 0.1319422545383E+00
 0.1087171598812E+00
 0.1101989563109E+00
 0.1242736938307E+01
 0.1656746466600E+01
 0.1550146278180E+01
 0.1306536728534E+01
 0.1072476929679E+01
 0.8855958616633E+00
 0.7416317249330E+00
 0.6319760121211E+00
 0.5450624397513E+00
 0.4721895771933E+00
 0.4083612493254E+00
 0.3503436044846E+00
 0.2957143669713E+00
 0.2431091460280E+00
 0.1925066147961E+00
 0.1442950090171E+00
 0.9777044375660E-01
 0.6190752726154E-01
 0.4755883190990E-01
 0.5504314698133E-01
 0.1424255639712E+01
 0.1807082489108E+01
 0.1542759054892E+01
 0.1216188471193E+01
 0.9664613700217E+00
 0.7755033745482E+00
 0.6300604007044E+00
 0.5229306615281E+00
 0.4407435219534E+00
 0.3730785741656E+00
 0.3137263676192E+00
 0.2591490529539E+00
 0.2072703763653E+00
 0.1575245742013E+00
 0.1107674623944E+00
 0.6802807652814E-01
 0.2915363240829E-01
 0.4562510797363E-02
 0.2492495097814E-02
 0.1985702416360E-01
 0.1657932884364E+01
 0.1926716525121E+01
 0.1444246805560E+01
 0.1097384828918E+01
 0.8534252319273E+00
 0.6578069191124E+00
 0.5116436630325E+00
 0.4108970986591E+00
 0.3376788667635E+00
 0.2775039363071E+00
 0.2232334857677E+00
 0.1720997717450E+00
 0.1230123358396E+00
 0.7648328573418E-01
 0.3436379428446E-01
 0.1309556384174E-02
 0.3014235740858E-01
 0.4016777452908E-01
 0.2677637770674E-01
 0.5666316609578E-02
 0.1944482269849E+01
 0.1813582945460E+01
 0.1271857762043E+01
 0.9790117460018E+00
 0.7363760064747E+00
 0.5305079154455E+00
 0.3846107371845E+00
 0.2990982392962E+00
 0.2397447827173E+00
 0.1876441321859E+00
 0.1377260282122E+00
 0.8939509171747E-01
 0.4295489362804E-01
 0.1766836461315E-03
 0.3729062943335E-01
 0.6504638716473E-01
 0.8021622911313E-01
 0.7265397257847E-01
 0.4321599438757E-01
 0.8033145932648E-02
 0.5794885146425E+00
 0.5049102117998E+00
 0.4345984268342E+00
 0.3663039822799E+00
 0.3005129090756E+00
 0.2389811259384E+00
 0.1833117311733E+00
 0.1348720215562E+00
 0.9467691725489E-01
 0.6330073500139E-01
 0.4079331289913E-01
 0.2662544798467E-01
 0.1969612874291E-01
 0.1840253427942E-01
 0.2072817683382E-01
 0.2450192693488E-01
 0.2782971448952E-01
 0.2949712345671E-01
 0.2926570460532E-01
 0.2779838028346E-01
 0.6207146214732E+00
 0.5551839307854E+00
 0.4825298889792E+00
 0.4111977513037E+00
 0.3424299458566E+00
 0.2774338416657E+00
 0.2177497944408E+00
 0.1649128458485E+00
 0.1202535750476E+00
 0.8472918784749E-01
 0.5878252234393E-01
 0.4223021492454E-01
 0.3420180970407E-01
 0.3312944134015E-01
 0.3680289219342E-01
 0.4262629592340E-01
 0.4809124522413E-01
 0.5133870935617E-01
 0.5163090858197E-01
 0.4982694011998E-01
 0.6629886221722E+00
 0.6020137584204E+00
 0.5329999124272E+00
 0.4612628115826E+00
 0.3904795835857E+00
 0.3224646444629E+00
 0.2588786174813E+00
 0.2014215445461E+00
 0.1517108923662E+00
 0.1111044558314E+00
 0.8051454483505E-01
 0.6023436748805E-01
 0.4979607865182E-01
 0.4786901178577E-01
 0.5222778202084E-01
 0.5993021730335E-01
 0.6779226693210E-01
 0.7309064251061E-01
 0.7432553200218E-01
 0.7167415767879E-01
 0.7082337437147E+00
 0.6503280781152E+00
 0.5849632196931E+00
 0.5151957672824E+00
 0.4441580168824E+00
 0.3742390495712E+00
 0.3073842162076E+00
 0.2454897225051E+00
 0.1904367694628E+00
 0.1439716070356E+00
 0.1075186562334E+00
 0.8196401435679E-01
 0.6743527792893E-01
 0.6309400084338E-01
 0.6697012744521E-01
 0.7597715833937E-01
 0.8628343828882E-01
 0.9410353535696E-01
 0.9675523267635E-01
 0.9340309183039E-01
 0.7559257198177E+00
 0.7009499649896E+00
 0.6393482442792E+00
 0.5726086588423E+00
 0.5030285862442E+00
 0.4327834317826E+00
 0.3638987482187E+00
 0.2983706148118E+00
 0.2382457255939E+00
 0.1855689056093E+00
 0.1422346145863E+00
 0.1097688901406E+00
 0.8906155522990E-01
 0.8006362801271E-01
 0.8146738868721E-01
 0.9047429998029E-01
 0.1028896089247E+00
 0.1137960680032E+00
 0.1189059294880E+00
 0.1159968858502E+00
 0.8055919962896E+00
 0.7537861136035E+00
 0.6961852764311E+00
 0.6332713639818E+00
 0.5665085236768E+00
 0.4976092639050E+00
 0.4283616205598E+00
 0.3606517997535E+00
 0.2965045252295E+00
 0.2380742119304E+00
 0.1875557606122E+00
 0.1470119832737E+00
 0.1181173267429E+00
 0.1018165296319E+00
 0.9789250495858E-01
 0.1044792376052E+00
 0.1177131060257E+00
 0.1319198401664E+00
 0.1408981618640E+00
 0.1403411820607E+00
 0.8567691889820E+00
 0.8085270750483E+00
 0.7552482479869E+00
 0.6968106767986E+00
 0.6340034981176E+00
 0.5680108755910E+00
 0.5002292910297E+00
 0.4322417207740E+00
 0.3658441811010E+00
 0.3030620888017E+00
 0.2461231116355E+00
 0.1973628998400E+00
 0.1590442398993E+00
 0.1330668040494E+00
 0.1205335877855E+00
 0.1211331210628E+00
 0.1323721019327E+00
 0.1489257887651E+00
 0.1629614552564E+00
 0.1668630574191E+00
 0.9089769080593E+00
 0.8647227847747E+00
 0.8161082543908E+00
 0.7626931854986E+00
 0.7047791407318E+00
 0.6430800105561E+00
 0.5785679229908E+00
 0.5124341536639E+00
 0.4461054062526E+00
 0.3812756620966E+00
 0.3199256396482E+00
 0.2643076209314E+00
 0.2168718849113E+00
 0.1801037008804E+00
 0.1562228504231E+00
 0.1466626225123E+00
 0.1512104821487E+00
 0.1667230014574E+00
 0.1856603440725E+00
 0.1966896626134E+00
 0.9617356347885E+00
 0.9218611967345E+00
 0.8782250261030E+00
 0.8302601990610E+00
 0.7779588890949E+00
 0.7216771076155E+00
 0.6620201813120E+00
 0.5998025208311E+00
 0.5360545369857E+00
 0.4720538514406E+00
 0.4093640175921E+00
 0.3498664994939E+00
 0.2957705334672E+00
 0.2495792515616E+00
 0.2139758470008E+00
 0.1915611019437E+00
 0.1842991797309E+00
 0.1924059085831E+00
 0.2120712990777E+00
 0.2316793910297E+00
 0.1014584445969E+01
 0.9794255356390E+00
 0.9410280596127E+00
 0.8988184619461E+00
 0.8526239514426E+00
 0.8025647304715E+00
 0.7489773057543E+00
 0.6923805970734E+00
 0.6334758428354E+00
 0.5731693905156E+00
 0.5126095388399E+00
 0.4532304239902E+00
 0.3967961276903E+00
 0.3454359418952E+00
 0.3016551652649E+00
 0.2682891477111E+00
 0.2483279680268E+00
 0.2444183469512E+00
 0.2575843713460E+00
 0.2825555982506E+00
 0.1067094385595E+01
 0.1036924900920E+01
 0.1003961968244E+01
 0.9676973424240E+00
 0.9278953094377E+00
 0.8845421275938E+00
 0.8378017416307E+00
 0.7879929819008E+00
 0.7355886909328E+00
 0.6812330750375E+00
 0.6257737156849E+00
 0.5703058498344E+00
 0.5162277412114E+00
 0.4653069063070E+00
 0.4197574733152E+00
 0.3823290142713E+00
 0.3564044768679E+00
 0.3461038060400E+00
 0.3563496656477E+00
 0.3931351685184E+00
 0.1118852066387E+01
 0.1093865308188E+01
 0.1066461700150E+01
 0.1036233094544E+01
 0.1002942180290E+01
 0.9665111373578E+00
 0.9270020591354E+00
 0.8846059198371E+00
 0.8396448491690E+00
 0.7925882610509E+00
 0.7440826817743E+00
 0.6949959745822E+00
 0.6464783542084E+00
 0.6000452101581E+00
 0.5576911091771E+00
 0.5220523124675E+00
 0.4966527486245E+00
 0.4863103488868E+00
 0.4979220787520E+00
 0.5425698179549E+00
 0.1169453573999E+01
 0.1149728775855E+01
 0.1127912596664E+01
 0.1103702075525E+01
 0.1076889223907E+01
 0.1047373312989E+01
 0.1015157951613E+01
 0.9803489803862E+00
 0.9431594612588E+00
 0.9039242109801E+00
 0.8631253014289E+00
 0.8214303598486E+00
 0.7797468696339E+00
 0.7392980689780E+00
 0.7017300434051E+00
 0.6692666050928E+00
 0.6449413105125E+00
 0.6329603506356E+00
 0.6393065349264E+00
 0.6725014669515E+00
 0.1218520073209E+01
 0.1204010439237E+01
 0.1187696350268E+01
 0.1169366834646E+01
 0.1148853875637E+01
 0.1126054925726E+01
 0.1100939433009E+01
 0.1073552096989E+01
 0.1044018834275E+01
 0.1012558311020E+01
 0.9795007412600E+00
 0.9453155611879E+00
 0.9106501690556E+00
 0.8763830532201E+00
 0.8436963476810E+00
 0.8141751256290E+00
 0.7899425343169E+00
 0.7738374856281E+00
 0.7695952715992E+00
 0.7819126277345E+00
 0.1265703437693E+01
 0.1256243757252E+01
 0.1245232814781E+01
 0.1232530661564E+01
 0.1218006809790E+01
 0.1201564028945E+01
 0.1183148566428E+01
 0.1162755493147E+01
 0.1140433863262E+01
 0.1116294118355E+01
 0.1090519039507E+01
 0.1063379063645E+01
 0.1035252607720E+01
 0.1006651945569E+01
 0.9782548799127E+00
 0.9509413481482E+00
 0.9258310408826E+00
 0.9043080216931E+00
 0.8880054270826E+00
 0.8787306107233E+00
 0.1310687290019E+01
 0.1306008633408E+01
 0.1299996782128E+01
 0.1292561134089E+01
 0.1283599284560E+01
 0.1273017656604E+01
 0.1260741636635E+01
 0.1246720574905E+01
 0.1230930865599E+01
 0.1213378814476E+01
 0.1194104030199E+01
 0.1173183408185E+01
 0.1150735186573E+01
 0.1126921819307E+01
 0.1101949259314E+01
 0.1076058389918E+01
 0.1049501363074E+01
 0.1022494022112E+01
 0.9951402998196E+00
 0.9673253272010E+00
 0.1353187384157E+01
 0.1352933235939E+01
 0.1351524036806E+01
 0.1348899652864E+01
 0.1344973931510E+01
 0.1339650881527E+01
 0.1332832843095E+01
 0.1324423792149E+01
 0.1314329812117E+01
 0.1302457797791E+01
 0.1288712700819E+01
 0.1272992995819E+01
 0.1255183417046E+01
 0.1235143255067E+01
 0.1212687496301E+01
 0.1187556754083E+01
 0.1159370729031E+01
 0.1127559361621E+01
 0.1091269265803E+01
 0.1049260529600E+01
 0.1392952139928E+01
 0.1396693904856E+01
 0.1399413025931E+01
 0.1401064845460E+01
 0.1401568134777E+01
 0.1400817260127E+01
 0.1398687939948E+01
 0.1395038504940E+01
 0.1389707949814E+01
 0.1382511447457E+01
 0.1373233462613E+01
 0.1361618142888E+01
 0.1347356237249E+01
 0.1330067358296E+01
 0.1309275945878E+01
 0.1284378855547E+01
 0.1254601953111E+01
 0.1218942098836E+01
 0.1176084825707E+01
 0.1124289532570E+01
 0.1429763105812E+01
 0.1437014262561E+01
 0.1443324179003E+01
 0.1448652389141E+01
 0.1452913135108E+01
 0.1455984711541E+01
 0.1457713269354E+01
 0.1457912408449E+01
 0.1456359517788E+01
 0.1452789397269E+01
 0.1446885343360E+01
 0.1438267622467E+01
 0.1426479092049E+01
 0.1410967675292E+01
 0.1391065493474E+01
 0.1365964734590E+01
 0.1334690760395E+01
 0.1296072785632E+01
 0.1248711487237E+01
 0.1190902637088E+01
 0.1463435057213E+01
 0.1473663721177E+01
 0.1482977699303E+01
 0.1491332363288E+01
 0.1498630064205E+01
 0.1504728220402E+01
 0.1509442047531E+01
 0.1512543258999E+01
 0.1513755674226E+01
 0.1512748305194E+01
 0.1509126261708E+01
 0.1502419705806E+01
 0.1492071108652E+01
 0.1477421250089E+01
 0.1457694804041E+01
 0.1431987062957E+01
 0.1399254528560E+01
 0.1358314472778E+01
 0.1307863282906E+01
 0.1246554635708E+01
 0.1493814545380E+01
 0.1506454128736E+01
 0.1518149049065E+01
 0.1528843636430E+01
 0.1538422687186E+01
 0.1546719624911E+01
 0.1553519069383E+01
 0.1558555561949E+01
 0.1561509467688E+01
 0.1562000747041E+01
 0.1559581107895E+01
 0.1553724996834E+01
 0.1543819959727E+01
 0.1529157112280E+01
 0.1508922843244E+01
 0.1482193495975E+01
 0.1447935830871E+01
 0.1405018161898E+01
 0.1352242397032E+01
 0.1288433529677E+01
 0.1520776857208E+01
 0.1535235464967E+01
 0.1548663168940E+01
 0.1560986759419E+01
 0.1572069151284E+01
 0.1581718059723E+01
 0.1589689298762E+01
 0.1595686394564E+01
 0.1599357676971E+01
 0.1600291678286E+01
 0.1598011483388E+01
 0.1591968589790E+01
 0.1581536830269E+01
 0.1566006965043E+01
 0.1544582646139E+01
 0.1516378558250E+01
 0.1480421573111E+01
 0.1435655176581E+01
 0.1380945402872E+01
 0.1315049500337E+01
 0.1544228639395E+01
 0.1559899943708E+01
 0.1574398335399E+01
 0.1587627617823E+01
 0.1599425291924E+01
 0.1609572599648E+01
 0.1617799330685E+01
 0.1623785027087E+01
 0.1627157897340E+01
 0.1627492426335E+01
 0.1624306422150E+01
 0.1617058063530E+01
 0.1605143365055E+01
 0.1587894310059E+01
 0.1564577643902E+01
 0.1534393867822E+01
 0.1496475048828E+01
 0.1449878205307E+01
 0.1393564094910E+01
 0.1326350650620E+01
 0.1564105630249E+01
 0.1580378822428E+01
 0.1595282475383E+01
 0.1608692529945E+01
 0.1620417775204E+01
 0.1630212614368E+01
 0.1637784107717E+01
 0.1642795204988E+01
 0.1644865776270E+01
 0.1643572640602E+01
 0.1638449434458E+01
 0.1628986870768E+01
 0.1614633668268E+01
 0.1594798112056E+01
 0.1568849756510E+01
 0.1536120095640E+01
 0.1495900083157E+01
 0.1447431115400E+01
 0.1389887994789E+01
 0.1322365695746E+01
 0.1580371124700E+01
 0.1596639563226E+01
 0.1611289474313E+01
 0.1624163331331E+01
 0.1635037488731E+01
 0.1643639195674E+01
 0.1649656389178E+01
 0.1652743013392E+01
 0.1652522060091E+01
 0.1648587850827E+01
 0.1640508540146E+01
 0.1627829418780E+01
 0.1610077276775E+01
 0.1586765779689E+01
 0.1557401449107E+01
 0.1521489386774E+01
 0.1478537365534E+01
 0.1428057170690E+01
 0.1369564635936E+01
 0.1302580632962E+01
 0.1593014608803E+01
 0.1608683875152E+01
 0.1622436420486E+01
 0.1634073491330E+01
 0.1643334300551E+01
 0.1649918683948E+01
 0.1653499609424E+01
 0.1653730090008E+01
 0.1650247667253E+01
 0.1642678416193E+01
 0.1630641603942E+01
 0.1613755637814E+01
 0.1591645662275E+01
 0.1563953037668E+01
 0.1530346932711E+01
 0.1490538377880E+01
 0.1444297342327E+01
 0.1391473171094E+01
 0.1332016204249E+01
 0.1265992723393E+01
 0.1602050229613E+01
 0.1616546245507E+01
 0.1628781653359E+01
 0.1638505047390E+01
 0.1645412669410E+01
 0.1649177265601E+01
 0.1649462263147E+01
 0.1645929030068E+01
 0.1638241742965E+01
 0.1626072252718E+01
 0.1609106142588E+01
 0.1587050591678E+01
 0.1559644472006E+01
 0.1526671237070E+01
 0.1487975620718E+01
 0.1443486040416E+01
 0.1393245855296E+01
 0.1337457471400E+01
 0.1276539959586E+01
 0.1211189344058E+01
 0.1607515159585E+01
 0.1620292940902E+01
 0.1630423408217E+01
 0.1637586018213E+01
 0.1641427670822E+01
 0.1641596144736E+01
 0.1637753259728E+01
 0.1629580322336E+01
 0.1616781874154E+01
 0.1599090334508E+01
 0.1576272518171E+01
 0.1548138351678E+01
 0.1514551995334E+01
 0.1475445857422E+01
 0.1430838708479E+01
 0.1380860461672E+01
 0.1325788642812E+01
 0.1266106403409E+01
 0.1202601778938E+01
 0.1136529024938E+01
 0.1609468172538E+01
 0.1620021770683E+01
 0.1627498892904E+01
 0.1631487584684E+01
 0.1631580267488E+01
 0.1627405741949E+01
 0.1618636373885E+01
 0.1604988625592E+01
 0.1586223912011E+01
 0.1562151959211E+01
 0.1532636910470E+01
 0.1497605750797E+01
 0.1457058486561E+01
 0.1411079662616E+01
 0.1359851171317E+01
 0.1303667097086E+01
 0.1242953169011E+01
 0.1178298664305E+01
 0.1110528452115E+01
 0.1040919027424E+01
 0.1607989177720E+01
 0.1615862872983E+01
 0.1620181938476E+01
 0.1620416974917E+01
 0.1616105797367E+01
 0.1606871223447E+01
 0.1592414698107E+01
 0.1572508070035E+01
 0.1546989931019E+01
 0.1515767098272E+01
 0.1478819985878E+01
 0.1436210098408E+01
 0.1388087696354E+01
 0.1334697365151E+01
 0.1276378483520E+01
 0.1213556031971E+01
 0.1146714530300E+01
 0.1076342763867E+01
 0.1002824642894E+01
 0.9262723310552E+00
 0.1603181120056E+01
 0.1607977574811E+01
 0.1608670359726E+01
 0.1604592102217E+01
 0.1595237715341E+01
 0.1580248490671E+01
 0.1559382139069E+01
 0.1532492085242E+01
 0.1499518639271E+01
 0.1460489212666E+01
 0.1415523855376E+01
 0.1364842528520E+01
 0.1308770466711E+01
 0.1247737227353E+01
 0.1182262842282E+01
 0.1112919851466E+01
 0.1040249924076E+01
 0.9645934248800E+00
 0.8857328160529E+00
 0.8019754017216E+00
 0.1595165216585E+01
 0.1596537829660E+01
 0.1593150552094E+01
 0.1584195807574E+01
 0.1569158553164E+01
 0.1547738773268E+01
 0.1519787062903E+01
 0.1485269430701E+01
 0.1444254784520E+01
 0.1396916227528E+01
 0.1343539030135E+01
 0.1284529625302E+01
 0.1220420778189E+01
 0.1151867445018E+01
 0.1079625275768E+01
 0.1004497595499E+01
 0.9272250277179E+00
 0.8482640396927E+00
 0.7673682829412E+00
 0.6828015566770E+00
 0.1584081790488E+01
 0.1581717485058E+01
 0.1573789823692E+01
 0.1559378338090E+01
 0.1538020257895E+01
 0.1509530960853E+01
 0.1473896184211E+01
 0.1431224522791E+01
 0.1381735800348E+01
 0.1325767606202E+01
 0.1263788163886E+01
 0.1196408537520E+01
 0.1124389500906E+01
 0.1048639224859E+01
 0.9701969405686E+00
 0.8901956395565E+00
 0.8097922182861E+00
 0.7300572623340E+00
 0.6518061599955E+00
 0.5759048841288E+00
 0.1570119400595E+01
 0.1563728122730E+01
 0.1550771762561E+01
 0.1530296508194E+01
 0.1501989902563E+01
 0.1465850621781E+01
 0.1422037439783E+01
 0.1370819110043E+01
 0.1312573717556E+01
 0.1247805416925E+01
 0.1177163696949E+01
 0.1101458292242E+01
 0.1021668828211E+01
 0.9389508961389E+00
 0.8546434492063E+00
 0.7702889403838E+00
 0.6876962641395E+00
 0.6091090503081E+00
 0.5376792036368E+00
 0.4780982600823E+00
 0.1553520168410E+01
 0.1542813361863E+01
 0.1524287830435E+01
 0.1497118563556E+01
 0.1461278426411E+01
 0.1417015221218E+01
 0.1364675948997E+01
 0.1304682259033E+01
 0.1237554656908E+01
 0.1163945175206E+01
 0.1084659978239E+01
 0.1000673933143E+01
 0.9131435329651E+00
 0.8234281668955E+00
 0.7331374997935E+00
 0.6442411776824E+00
 0.5593134740658E+00
 0.4820754318496E+00
 0.4184988932539E+00
 0.3788144149270E+00
 0.1534587453579E+01
 0.1519235233867E+01
 0.1494517168615E+01
 0.1460021845886E+01
 0.1416172389017E+01
 0.1363493350289E+01
 0.1302492169685E+01
 0.1233700107392E+01
 0.1157748055340E+01
 0.1075405043815E+01
 0.9875946166968E+00
 0.8954040898996E+00
 0.8000998367780E+00
 0.7031648913561E+00
 0.6063863639966E+00
 0.5120433864022E+00
 0.4232968202417E+00
 0.3449638293533E+00
 0.2850705956606E+00
 0.2583933028245E+00
 0.1513685580406E+01
 0.1493226534181E+01
 0.1461576085730E+01
 0.1419204749409E+01
 0.1367112427192E+01
 0.1306046950904E+01
 0.1236560908280E+01
 0.1159252805610E+01
 0.1074850002859E+01
 0.9842300761517E+00
 0.8884262048892E+00
 0.7886375176554E+00
 0.6862601712475E+00
 0.5829594024922E+00
 0.4808154544930E+00
 0.3825997812235E+00
 0.2922726420435E+00
 0.2158723848075E+00
 0.1630798174376E+00
 0.1505501365065E+00
 0.1491279282572E+01
 0.1464991133521E+01
 0.1425582113900E+01
 0.1375076145367E+01
 0.1315057390230E+01
 0.1246089710780E+01
 0.1168709057250E+01
 0.1083606752770E+01
 0.9916463196498E+00
 0.8938610169570E+00
 0.7914611351301E+00
 0.6858650381261E+00
 0.5787670070525E+00
 0.4722620612634E+00
 0.3690572859163E+00
 0.2728081476758E+00
 0.1886266151589E+00
 0.1237825419162E+00
 0.8869852962239E-01
 0.9716412100199E-01
 0.1468040475245E+01
 0.1434302904514E+01
 0.1386204201281E+01
 0.1328413579237E+01
 0.1261316585953E+01
 0.1185258480599E+01
 0.1100904554274E+01
 0.1009137874354E+01
 0.9110340644549E+00
 0.8078596541479E+00
 0.7010992838858E+00
 0.5925120578766E+00
 0.4842263205410E+00
 0.3788842185209E+00
 0.2798456914121E+00
 0.1914490347764E+00
 0.1192806246161E+00
 0.7031465198608E-01
 0.5246538127751E-01
 0.7188578291311E-01
 0.1443128228622E+01
 0.1398020415752E+01
 0.1344170940588E+01
 0.1280668700802E+01
 0.1207445487729E+01
 0.1125315822975E+01
 0.1035248449143E+01
 0.9383905663307E+00
 0.8360699110553E+00
 0.7298240670768E+00
 0.6214409716188E+00
 0.5130188349123E+00
 0.4070485042641E+00
 0.3065171538012E+00
 0.2150200731967E+00
 0.1368375019997E+00
 0.7686833457962E-01
 0.4015841686672E-01
 0.3047320979335E-01
 0.4565267334653E-01
</DataArray>
<DataArray type="Float64" Name="CK" NumberOfComponents="1" ComponentName0="CK" format="ascii">
 0.0000000000000E+00
 0.0000000000000E+00
 0.0000000000000E+00
 0.0000000000000E+00
 0.0000000000000E+00
 0.0000000000000E+00
 0.0000000000000E+00
 0.0000000000000E+00
 0.0000000000000E+00
 0.0000000000000E+00
 0.0000000000000E+00
 0.0000000000000E+00
 0.0000000000000E+00
 0.0000000000000E+00
 0.0000000000000E+00
 0.0000000000000E+00
 0.0000000000000E+00
 0.0000000000000E+00
 0.0000000000000E+00
 0.0000000000000E+00
 0.0000000000000E+00
 0.0000000000000E+00
 0.0000000000000E+00
 0.0000000000000E+00
 0.0000000000000E+00
 0.0000000000000E+00
 0.0000000000000E+00
 0.0000000000000E+00
 0.0000000000000E+00
 0.0000000000000E+00
 0.0000000000000E+00
 0.0000000000000E+00
 0.0000000000000E+00
 0.0000000000000E+00
 0.0000000000000E+00
 0.0000000000000E+00
 0.0000000000000E+00
 0.0000000000000E+00
 0.0000000000000E+00
 0.0000000000000E+00
 0.0000000000000E+00
 0.0000000000000E+00
 0.0000000000000E+00
 0.0000000000000E+00
 0.0000000000000E+00
 0.0000000000000E+00
 0.0000000000000E+00
 0.0000000000000E+00
 0.0000000000000E+00
 0.0000000000000E+00
 0.0000000000000E+00
 0.0000000000000E+00
 0.0000000000000E+00
 0.0000000000000E+00
 0.0000000000000E+00
 0.0000000000000E+00
 0.0000000000000E+00
 0.0000000000000E+00
 0.0000000000000E+00
 0.0000000000000E+00
 0.0000000000000E+00
 0.0000000000000E+00
 0.0000000000000E+00
 0.0000000000000E+00
 0.0000000000000E+00
 0.0000000000000E+00
 0.0000000000000E+00
 0.0000000000000E+00
 0.0000000000000E+00
 0.0000000000000E+00
 0.0000000000000E+00
 0.0000000000000E+00
 0.0000000000000E+00
 0.0000000000000E+00
 0.0000000000000E+00
 0.0000000000000E+00
 0.0000000000000E+00
 0.0000000000000E+00
 0.0000000000000E+00
 0.0000000000000E+00
 0.0000000000000E+00
 0.0000000000000E+00
 0.0000000000000E+00
 0.0000000000000E+00
 0.0000000000000E+00
 0.0000000000000E+00
 0.0000000000000E+00
 0.0000000000000E+00
 0.0000000000000E+00
 0.0000000000000E+00
 0.0000000000000E+00
 0.0000000000000E+00
 0.0000000000000E+00
 0.0000000000000E+00
 0.0000000000000E+00
 0.0000000000000E+00
 0.0000000000000E+00
 0.0000000000000E+00
 0.0000000000000E+00
 0.0000000000000E+00
 0.0000000000000E+00
 0.0000000000000E+00
 0.0000000000000E+00
 0.0000000000000E+00
 0.0000000000000E+00
 0.0000000000000E+00
 0.0000000000000E+00
 0.0000000000000E+00
 0.0000000000000E+00
 0.0000000000000E+00
 0.0000000000000E+00
 0.0000000000000E+00
 0.0000000000000E+00
 0.0000000000000E+00
 0.0000000000000E+00
 0.0000000000000E+00
 0.0000000000000E+00
 0.0000000000000E+00
 0.0000000000000E+00
 0.0000000000000E+00
 0.0000000000000E+00
 0.0000000000000E+00
 0.0000000000000E+00
 0.0000000000000E+00
 0.0000000000000E+00
 0.0000000000000E+00
 0.0000000000000E+00
 0.0000000000000E+00
 0.0000000000000E+00
 0.0000000000000E+00
 0.0000000000000E+00
 0.0000000000000E+00
 0.0000000000000E+00
 0.0000000000000E+00
 0.0000000000000E+00
 0.0000000000000E+00
 0.0000000000000E+00
 0.0000000000000E+00
 0.0000000000000E+00
 0.0000000000000E+00
 0.0000000000000E+00
 0.0000000000000E+00
 0.0000000000000E+00
 0.0000000000000E+00
 0.0000000000000E+00
 0.0000000000000E+00
 0.0000000000000E+00
 0.0000000000000E+00
 0.0000000000000E+00
 0.0000000000000E+00
 0.0000000000000E+00
 0.0000000000000E+00
 0.0000000000000E+00
 0.0000000000000E+00
 0.0000000000000E+00
 0.0000000000000E+00
 0.0000000000000E+00
 0.0000000000000E+00
 0.0000000000000E+00
 0.0000000000000E+00
 0.0000000000000E+00
 0.0000000000000E+00
 0.0000000000000E+00
 0.0000000000000E+00
 0.0000000000000E+00
 0.0000000000000E+00
 0.0000000000000E+00
 0.0000000000000E+00
 0.0000000000000E+00
 0.0000000000000E+00
 0.0000000000000E+00
 0.0000000000000E+00
 0.0000000000000E+00
 0.0000000000000E+00
 0.0000000000000E+00
 0.0000000000000E+00
 0.0000000000000E+00
 0.0000000000000E+00
 0.0000000000000E+00
 0.0000000000000E+00
 0.0000000000000E+00
 0.0000000000000E+00
 0.0000000000000E+00
 0.0000000000000E+00
 0.0000000000000E+00
 0.0000000000000E+00
 0.0000000000000E+00
 0.0000000000000E+00
 0.0000000000000E+00
 0.0000000000000E+00
 0.0000000000000E+00
 0.0000000000000E+00
 0.0000000000000E+00
 0.0000000000000E+00
 0.0000000000000E+00
 0.0000000000000E+00
 0.0000000000000E+00
 0.0000000000000E+00
 0.0000000000000E+00
 0.0000000000000E+00
 0.0000000000000E+00
 0.0000000000000E+00
 0.0000000000000E+00
 0.0000000000000E+00
 0.0000000000000E+00
 0.0000000000000E+00
 0.0000000000000E+00
 0.0000000000000E+00
 0.0000000000000E+00
 0.0000000000000E+00
 0.0000000000000E+00
 0.0000000000000E+00
 0.0000000000000E+00
 0.0000000000000E+00
 0.0000000000000E+00
 0.0000000000000E+00
 0.0000000000000E+00
 0.0000000000000E+00
 0.0000000000000E+00
 0.0000000000000E+00
 0.0000000000000E+00
 0.0000000000000E+00
 0.0000000000000E+00
 0.0000000000000E+00
 0.0000000000000E+00
 0.0000000000000E+00
 0.0000000000000E+00
 0.0000000000000E+00
 0.0000000000000E+00
 0.0000000000000E+00
 0.0000000000000E+00
 0.0000000000000E+00
 0.0000000000000E+00
 0.0000000000000E+00
 0.0000000000000E+00
 0.0000000000000E+00
 0.0000000000000E+00
 0.0000000000000E+00
 0.0000000000000E+00
 0.0000000000000E+00
 0.0000000000000E+00
 0.0000000000000E+00
 0.0000000000000E+00
 0.0000000000000E+00
 0.0000000000000E+00
 0.0000000000000E+00
 0.0000000000000E+00
 0.0000000000000E+00
 0.0000000000000E+00
 0.0000000000000E+00
 0.0000000000000E+00
 0.0000000000000E+00
 0.0000000000000E+00
 0.0000000000000E+00
 0.0000000000000E+00
 0.0000000000000E+00
 0.0000000000000E+00
 0.0000000000000E+00
 0.0000000000000E+00
 0.0000000000000E+00
 0.0000000000000E+00
 0.0000000000000E+00
 0.0000000000000E+00
 0.0000000000000E+00
 0.0000000000000E+00
 0.0000000000000E+00
 0.0000000000000E+00
 0.0000000000000E+00
 0.0000000000000E+00
 0.0000000000000E+00
 0.0000000000000E+00
 0.0000000000000E+00
 0.0000000000000E+00
 0.0000000000000E+00
 0.0000000000000E+00
 0.0000000000000E+00
 0.0000000000000E+00
 0.0000000000000E+00
 0.0000000000000E+00
 0.0000000000000E+00
 0.0000000000000E+00
 0.0000000000000E+00
 0.0000000000000E+00
 0.0000000000000E+00
 0.0000000000000E+00
 0.0000000000000E+00
 0.0000000000000E+00
 0.0000000000000E+00
 0.0000000000000E+00
 0.0000000000000E+00
 0.0000000000000E+00
 0.0000000000000E+00
 0.0000000000000E+00
 0.0000000000000E+00
 0.0000000000000E+00
 0.0000000000000E+00
 0.0000000000000E+00
 0.0000000000000E+00
 0.0000000000000E+00
 0.0000000000000E+00
 0.0000000000000E+00
 0.0000000000000E+00
 0.0000000000000E+00
 0.0000000000000E+00
 0.0000000000000E+00
 0.0000000000000E+00
 0.0000000000000E+00
 0.0000000000000E+00
 0.0000000000000E+00
 0.0000000000000E+00
 0.0000000000000E+00
 0.0000000000000E+00
 0.0000000000000E+00
 0.0000000000000E+00
 0.0000000000000E+00
 0.0000000000000E+00
 0.0000000000000E+00
 0.0000000000000E+00
 0.0000000000000E+00
 0.0000000000000E+00
 0.0000000000000E+00
 0.0000000000000E+00
 0.0000000000000E+00
 0.0000000000000E+00
 0.0000000000000E+00
 0.0000000000000E+00
 0.0000000000000E+00
 0.0000000000000E+00
 0.0000000000000E+00
 0.0000000000000E+00
 0.0000000000000E+00
 0.0000000000000E+00
 0.0000000000000E+00
 0.0000000000000E+00
 0.0000000000000E+00
 0.0000000000000E+00
 0.0000000000000E+00
 0.0000000000000E+00
 0.0000000000000E+00
 0.0000000000000E+00
 0.0000000000000E+00
 0.0000000000000E+00
 0.0000000000000E+00
 0.0000000000000E+00
 0.0000000000000E+00
 0.0000000000000E+00
 0.0000000000000E+00
 0.0000000000000E+00
 0.0000000000000E+00
 0.0000000000000E+00
 0.0000000000000E+00
 0.0000000000000E+00
 0.0000000000000E+00
 0.0000000000000E+00
 0.0000000000000E+00
 0.0000000000000E+00
 0.0000000000000E+00
 0.0000000000000E+00
 0.0000000000000E+00
 0.0000000000000E+00
 0.0000000000000E+00
 0.0000000000000E+00
 0.0000000000000E+00
 0.0000000000000E+00
 0.0000000000000E+00
 0.0000000000000E+00
 0.0000000000000E+00
 0.0000000000000E+00
 0.0000000000000E+00
 0.0000000000000E+00
 0.0000000000000E+00
 0.0000000000000E+00
 0.0000000000000E+00
 0.0000000000000E+00
 0.0000000000000E+00
 0.0000000000000E+00
 0.0000000000000E+00
 0.0000000000000E+00
 0.0000000000000E+00
 0.0000000000000E+00
 0.0000000000000E+00
 0.0000000000000E+00
 0.0000000000000E+00
 0.0000000000000E+00
 0.0000000000000E+00
 0.0000000000000E+00
 0.0000000000000E+00
 0.0000000000000E+00
 0.0000000000000E+00
 0.0000000000000E+00
 0.0000000000000E+00
 0.0000000000000E+00
 0.0000000000000E+00
 0.0000000000000E+00
 0.0000000000000E+00
 0.0000000000000E+00
 0.0000000000000E+00
 0.0000000000000E+00
 0.0000000000000E+00
 0.0000000000000E+00
 0.0000000000000E+00
 0.0000000000000E+00
 0.0000000000000E+00
 0.0000000000000E+00
 0.0000000000000E+00
 0.0000000000000E+00
 0.0000000000000E+00
 0.0000000000000E+00
 0.0000000000000E+00
 0.0000000000000E+00
 0.0000000000000E+00
 0.0000000000000E+00
 0.0000000000000E+00
 0.0000000000000E+00
 0.0000000000000E+00
 0.0000000000000E+00
 0.0000000000000E+00
 0.0000000000000E+00
 0.0000000000000E+00
 0.0000000000000E+00
 0.0000000000000E+00
 0.0000000000000E+00
 0.0000000000000E+00
 0.0000000000000E+00
 0.0000000000000E+00
 0.0000000000000E+00
 0.0000000000000E+00
 0.0000000000000E+00
 0.0000000000000E+00
 0.0000000000000E+00
 0.0000000000000E+00
 0.0000000000000E+00
 0.0000000000000E+00
 0.0000000000000E+00
 0.0000000000000E+00
 0.0000000000000E+00
 0.0000000000000E+00
 0.0000000000000E+00
 0.0000000000000E+00
 0.0000000000000E+00
 0.0000000000000E+00
 0.0000000000000E+00
 0.0000000000000E+00
 0.0000000000000E+00
 0.0000000000000E+00
 0.0000000000000E+00
 0.0000000000000E+00
 0.0000000000000E+00
 0.0000000000000E+00
 0.0000000000000E+00
 0.0000000000000E+00
 0.0000000000000E+00
 0.0000000000000E+00
 0.0000000000000E+00
 0.0000000000000E+00
 0.0000000000000E+00
 0.0000000000000E+00
 0.0000000000000E+00
 0.0000000000000E+00
 0.0000000000000E+00
 0.0000000000000E+00
 0.0000000000000E+00
 0.0000000000000E+00
 0.0000000000000E+00
 0.0000000000000E+00
 0.0000000000000E+00
 0.0000000000000E+00
 0.0000000000000E+00
 0.0000000000000E+00
 0.0000000000000E+00
 0.0000000000000E+00
 0.0000000000000E+00
 0.0000000000000E+00
 0.0000000000000E+00
 0.0000000000000E+00
 0.0000000000000E+00
 0.0000000000000E+00
 0.0000000000000E+00
 0.0000000000000E+00
 0.0000000000000E+00
 0.0000000000000E+00
 0.0000000000000E+00
 0.0000000000000E+00
 0.0000000000000E+00
 0.0000000000000E+00
 0.0000000000000E+00
 0.0000000000000E+00
 0.0000000000000E+00
 0.0000000000000E+00
 0.0000000000000E+00
 0.0000000000000E+00
 0.0000000000000E+00
 0.0000000000000E+00
 0.0000000000000E+00
 0.0000000000000E+00
 0.0000000000000E+00
 0.0000000000000E+00
 0.0000000000000E+00
 0.0000000000000E+00
 0.0000000000000E+00
 0.0000000000000E+00
 0.0000000000000E+00
 0.0000000000000E+00
 0.0000000000000E+00
 0.0000000000000E+00
 0.0000000000000E+00
 0.0000000000000E+00
 0.0000000000000E+00
 0.0000000000000E+00
 0.0000000000000E+00
 0.0000000000000E+00
 0.0000000000000E+00
 0.0000000000000E+00
 0.0000000000000E+00
 0.0000000000000E+00
 0.0000000000000E+00
 0.0000000000000E+00
 0.0000000000000E+00
 0.0000000000000E+00
 0.0000000000000E+00
 0.0000000000000E+00
 0.0000000000000E+00
 0.0000000000000E+00
 0.0000000000000E+00
 0.0000000000000E+00
 0.0000000000000E+00
 0.0000000000000E+00
 0.0000000000000E+00
 0.0000000000000E+00
 0.0000000000000E+00
 0.0000000000000E+00
 0.0000000000000E+00
 0.0000000000000E+00
 0.0000000000000E+00
 0.0000000000000E+00
 0.0000000000000E+00
 0.0000000000000E+00
 0.0000000000000E+00
 0.0000000000000E+00
 0.0000000000000E+00
 0.0000000000000E+00
 0.0000000000000E+00
 0.0000000000000E+00
 0.0000000000000E+00
 0.0000000000000E+00
 0.0000000000000E+00
 0.0000000000000E+00
 0.0000000000000E+00
 0.0000000000000E+00
 0.0000000000000E+00
 0.0000000000000E+00
 0.0000000000000E+00
 0.0000000000000E+00
 0.0000000000000E+00
 0.0000000000000E+00
 0.0000000000000E+00
 0.0000000000000E+00
 0.0000000000000E+00
 0.0000000000000E+00
 0.0000000000000E+00
 0.0000000000000E+00
 0.0000000000000E+00
 0.0000000000000E+00
 0.0000000000000E+00
 0.0000000000000E+00
 0.0000000000000E+00
 0.0000000000000E+00
 0.0000000000000E+00
 0.0000000000000E+00
 0.0000000000000E+00
 0.0000000000000E+00
 0.0000000000000E+00
 0.0000000000000E+00
 0.0000000000000E+00
 0.0000000000000E+00
 0.0000000000000E+00
 0.0000000000000E+00
 0.0000000000000E+00
 0.0000000000000E+00
 0.0000000000000E+00
 0.0000000000000E+00
 0.0000000000000E+00
 0.0000000000000E+00
 0.0000000000000E+00
 0.0000000000000E+00
 0.0000000000000E+00
 0.0000000000000E+00
 0.0000000000000E+00
 0.0000000000000E+00
 0.0000000000000E+00
 0.0000000000000E+00
 0.0000000000000E+00
 0.0000000000000E+00
 0.0000000000000E+00
 0.0000000000000E+00
 0.0000000000000E+00
 0.0000000000000E+00
 0.0000000000000E+00
 0.0000000000000E+00
 0.0000000000000E+00
 0.0000000000000E+00
 0.0000000000000E+00
 0.0000000000000E+00
 0.0000000000000E+00
 0.0000000000000E+00
 0.0000000000000E+00
 0.0000000000000E+00
 0.0000000000000E+00
 0.0000000000000E+00
 0.0000000000000E+00
 0.0000000000000E+00
 0.0000000000000E+00
 0.0000000000000E+00
 0.0000000000000E+00
 0.0000000000000E+00
 0.0000000000000E+00
 0.0000000000000E+00
 0.0000000000000E+00
 0.0000000000000E+00
 0.0000000000000E+00
 0.0000000000000E+00
 0.0000000000000E+00
 0.0000000000000E+00
 0.0000000000000E+00
 0.0000000000000E+00
 0.0000000000000E+00
 0.0000000000000E+00
 0.0000000000000E+00
 0.0000000000000E+00
 0.0000000000000E+00
 0.0000000000000E+00
 0.0000000000000E+00
 0.0000000000000E+00
 0.0000000000000E+00
 0.0000000000000E+00
 0.0000000000000E+00
 0.0000000000000E+00
 0.0000000000000E+00
 0.0000000000000E+00
 0.0000000000000E+00
 0.0000000000000E+00
 0.0000000000000E+00
 0.0000000000000E+00
 0.0000000000000E+00
 0.0000000000000E+00
 0.0000000000000E+00
 0.0000000000000E+00
 0.0000000000000E+00
 0.0000000000000E+00
 0.0000000000000E+00
 0.0000000000000E+00
 0.0000000000000E+00
 0.0000000000000E+00
 0.0000000000000E+00
 0.0000000000000E+00
 0.0000000000000E+00
 0.0000000000000E+00
 0.0000000000000E+00
 0.0000000000000E+00
 0.0000000000000E+00
 0.0000000000000E+00
 0.0000000000000E+00
 0.0000000000000E+00
 0.0000000000000E+00
 0.0000000000000E+00
 0.0000000000000E+00
 0.0000000000000E+00
 0.0000000000000E+00
 0.0000000000000E+00
 0.0000000000000E+00
 0.0000000000000E+00
 0.0000000000000E+00
 0.0000000000000E+00
 0.0000000000000E+00
 0.0000000000000E+00
 0.0000000000000E+00
 0.0000000000000E+00
 0.0000000000000E+00
 0.0000000000000E+00
 0.0000000000000E+00
 0.0000000000000E+00
 0.0000000000000E+00
 0.0000000000000E+00
 0.0000000000000E+00
 0.0000000000000E+00
 0.0000000000000E+00
 0.0000000000000E+00
 0.0000000000000E+00
 0.0000000000000E+00
 0.0000000000000E+00
 0.0000000000000E+00
 0.0000000000000E+00
 0.0000000000000E+00
 0.0000000000000E+00
 0.0000000000000E+00
 0.0000000000000E+00
 0.0000000000000E+00
 0.0000000000000E+00
 0.0000000000000E+00
 0.0000000000000E+00
 0.0000000000000E+00
 0.0000000000000E+00
 0.0000000000000E+00
 0.0000000000000E+00
 0.0000000000000E+00
 0.0000000000000E+00
 0.0000000000000E+00
 0.0000000000000E+00
 0.0000000000000E+00
 0.0000000000000E+00
 0.0000000000000E+00
 0.0000000000000E+00
 0.0000000000000E+00
 0.0000000000000E+00
 0.0000000000000E+00
 0.0000000000000E+00
 0.0000000000000E+00
 0.0000000000000E+00
 0.0000000000000E+00
 0.0000000000000E+00
 0.0000000000000E+00
 0.0000000000000E+00
 0.0000000000000E+00
 0.0000000000000E+00
 0.0000000000000E+00
 0.0000000000000E+00
 0.0000000000000E+00
 0.0000000000000E+00
 0.0000000000000E+00
 0.0000000000000E+00
 0.0000000000000E+00
 0.0000000000000E+00
 0.0000000000000E+00
 0.0000000000000E+00
 0.0000000000000E+00
 0.0000000000000E+00
 0.0000000000000E+00
 0.0000000000000E+00
 0.0000000000000E+00
 0.0000000000000E+00
 0.0000000000000E+00
 0.0000000000000E+00
 0.0000000000000E+00
 0.0000000000000E+00
 0.0000000000000E+00
 0.0000000000000E+00
 0.0000000000000E+00
 0.0000000000000E+00
 0.0000000000000E+00
 0.0000000000000E+00
 0.0000000000000E+00
 0.0000000000000E+00
 0.0000000000000E+00
 0.0000000000000E+00
 0.0000000000000E+00
 0.0000000000000E+00
 0.0000000000000E+00
 0.0000000000000E+00
 0.0000000000000E+00
 0.0000000000000E+00
 0.0000000000000E+00
 0.0000000000000E+00
 0.0000000000000E+00
 0.0000000000000E+00
 0.0000000000000E+00
 0.0000000000000E+00
 0.0000000000000E+00
 0.0000000000000E+00
 0.0000000000000E+00
 0.0000000000000E+00
 0.0000000000000E+00
 0.0000000000000E+00
 0.0000000000000E+00
 0.0000000000000E+00
 0.0000000000000E+00
 0.0000000000000E+00
 0.0000000000000E+00
 0.0000000000000E+00
 0.0000000000000E+00
 0.0000000000000E+00
 0.0000000000000E+00
 0.0000000000000E+00
 0.0000000000000E+00
 0.0000000000000E+00
 0.0000000000000E+00
 0.0000000000000E+00
 0.0000000000000E+00
 0.0000000000000E+00
 0.0000000000000E+00
 0.0000000000000E+00
 0.0000000000000E+00
 0.0000000000000E+00
 0.0000000000000E+00
 0.0000000000000E+00
 0.0000000000000E+00
 0.0000000000000E+00
 0.0000000000000E+00
 0.0000000000000E+00
 0.0000000000000E+00
 0.0000000000000E+00
 0.0000000000000E+00
 0.0000000000000E+00
 0.0000000000000E+00
 0.0000000000000E+00
 0.0000000000000E+00
 0.0000000000000E+00
 0.0000000000000E+00
 0.0000000000000E+00
 0.0000000000000E+00
 0.0000000000000E+00
 0.0000000000000E+00
 0.0000000000000E+00
 0.0000000000000E+00
 0.0000000000000E+00
 0.0000000000000E+00
 0.0000000000000E+00
 0.0000000000000E+00
 0.0000000000000E+00
 0.0000000000000E+00
 0.0000000000000E+00
 0.0000000000000E+00
 0.0000000000000E+00
 0.0000000000000E+00
 0.0000000000000E+00
 0.0000000000000E+00
 0.0000000000000E+00
 0.0000000000000E+00
 0.0000000000000E+00
 0.0000000000000E+00
 0.0000000000000E+00
 0.0000000000000E+00
 0.0000000000000E+00
 0.0000000000000E+00
 0.0000000000000E+00
 0.0000000000000E+00
 0.0000000000000E+00
 0.0000000000000E+00
 0.0000000000000E+00
 0.0000000000000E+00
 0.0000000000000E+00
 0.0000000000000E+00
 0.0000000000000E+00
 0.0000000000000E+00
 0.0000000000000E+00
 0.0000000000000E+00
 0.0000000000000E+00
 0.0000000000000E+00
 0.0000000000000E+00
 0.0000000000000E+00
 0.0000000000000E+00
 0.0000000000000E+00
 0.0000000000000E+00
 0.0000000000000E+00
 0.0000000000000E+00
 0.0000000000000E+00
 0.0000000000000E+00
 0.0000000000000E+00
 0.0000000000000E+00
 0.0000000000000E+00
 0.0000000000000E+00
 0.0000000000000E+00
 0.0000000000000E+00
 0.0000000000000E+00
 0.0000000000000E+00
 0.0000000000000E+00
 0.0000000000000E+00
 0.0000000000000E+00
 0.0000000000000E+00
 0.0000000000000E+00
 0.0000000000000E+00
 0.0000000000000E+00
 0.0000000000000E+00
 0.0000000000000E+00
 0.0000000000000E+00
 0.0000000000000E+00
 0.0000000000000E+00
 0.0000000000000E+00
 0.0000000000000E+00
 0.0000000000000E+00
 0.0000000000000E+00
 0.0000000000000E+00
 0.0000000000000E+00
 0.0000000000000E+00
 0.0000000000000E+00
 0.0000000000000E+00
 0.0000000000000E+00
 0.0000000000000E+00
 0.0000000000000E+00
 0.0000000000000E+00
 0.0000000000000E+00
 0.0000000000000E+00
 0.0000000000000E+00
 0.0000000000000E+00
 0.0000000000000E+00
 0.0000000000000E+00
 0.0000000000000E+00
 0.0000000000000E+00
 0.0000000000000E+00
 0.0000000000000E+00
 0.0000000000000E+00
 0.0000000000000E+00
 0.0000000000000E+00
 0.0000000000000E+00
 0.0000000000000E+00
 0.0000000000000E+00
 0.0000000000000E+00
 0.0000000000000E+00
 0.0000000000000E+00
 0.0000000000000E+00
 0.0000000000000E+00
 0.0000000000000E+00
 0.0000000000000E+00
 0.0000000000000E+00
 0.0000000000000E+00
 0.0000000000000E+00
 0.0000000000000E+00
 0.0000000000000E+00
 0.0000000000000E+00
 0.0000000000000E+00
 0.0000000000000E+00
 0.0000000000000E+00
 0.0000000000000E+00
 0.0000000000000E+00
 0.0000000000000E+00
 0.0000000000000E+00
 0.0000000000000E+00
 0.0000000000000E+00
 0.0000000000000E+00
 0.0000000000000E+00
 0.0000000000000E+00
 0.0000000000000E+00
 0.0000000000000E+00
 0.0000000000000E+00
 0.0000000000000E+00
 0.0000000000000E+00
 0.0000000000000E+00
 0.0000000000000E+00
 0.0000000000000E+00
 0.0000000000000E+00
 0.0000000000000E+00
 0.0000000000000E+00
 0.0000000000000E+00
 0.0000000000000E+00
 0.0000000000000E+00
 0.0000000000000E+00
 0.0000000000000E+00
 0.0000000000000E+00
 0.0000000000000E+00
 0.0000000000000E+00
 0.0000000000000E+00
 0.0000000000000E+00
 0.0000000000000E+00
 0.0000000000000E+00
 0.0000000000000E+00
 0.0000000000000E+00
 0.0000000000000E+00
 0.0000000000000E+00
 0.0000000000000E+00
 0.0000000000000E+00
 0.0000000000000E+00
 0.0000000000000E+00
 0.0000000000000E+00
 0.0000000000000E+00
 0.0000000000000E+00
 0.0000000000000E+00
 0.0000000000000E+00
 0.0000000000000E+00
 0.0000000000000E+00
 0.0000000000000E+00
 0.0000000000000E+00
 0.0000000000000E+00
 0.0000000000000E+00
 0.0000000000000E+00
 0.0000000000000E+00
 0.0000000000000E+00
 0.0000000000000E+00
 0.0000000000000E+00
 0.0000000000000E+00
 0.0000000000000E+00
 0.0000000000000E+00
 0.0000000000000E+00
 0.0000000000000E+00
 0.0000000000000E+00
 0.0000000000000E+00
 0.0000000000000E+00
 0.0000000000000E+00
 0.0000000000000E+00
 0.0000000000000E+00
 0.0000000000000E+00
 0.0000000000000E+00
 0.0000000000000E+00
 0.0000000000000E+00
 0.0000000000000E+00
 0.0000000000000E+00
 0.0000000000000E+00
 0.0000000000000E+00
 0.0000000000000E+00
 0.0000000000000E+00
 0.0000000000000E+00
 0.0000000000000E+00
 0.0000000000000E+00
 0.0000000000000E+00
 0.0000000000000E+00
 0.0000000000000E+00
 0.0000000000000E+00
 0.0000000000000E+00
 0.0000000000000E+00
 0.0000000000000E+00
 0.0000000000000E+00
 0.0000000000000E+00
 0.0000000000000E+00
 0.0000000000000E+00
 0.0000000000000E+00
 0.0000000000000E+00
 0.0000000000000E+00
 0.0000000000000E+00
 0.0000000000000E+00
 0.0000000000000E+00
 0.0000000000000E+00
 0.0000000000000E+00
 0.0000000000000E+00
 0.0000000000000E+00
 0.0000000000000E+00
 0.0000000000000E+00
 0.0000000000000E+00
 0.0000000000000E+00
 0.0000000000000E+00
 0.0000000000000E+00
 0.0000000000000E+00
 0.0000000000000E+00
 0.0000000000000E+00
 0.0000000000000E+00
 0.0000000000000E+00
 0.0000000000000E+00
 0.0000000000000E+00
 0.0000000000000E+00
 0.0000000000000E+00
 0.0000000000000E+00
 0.0000000000000E+00
 0.0000000000000E+00
 0.0000000000000E+00
 0.0000000000000E+00
 0.0000000000000E+00
 0.0000000000000E+00
 0.0000000000000E+00
 0.0000000000000E+00
 0.0000000000000E+00
 0.0000000000000E+00
 0.0000000000000E+00
 0.0000000000000E+00
 0.0000000000000E+00
 0.0000000000000E+00
 0.0000000000000E+00
 0.0000000000000E+00
 0.0000000000000E+00
 0.0000000000000E+00
 0.0000000000000E+00
 0.0000000000000E+00
 0.0000000000000E+00
 0.0000000000000E+00
 0.0000000000000E+00
 0.0000000000000E+00
 0.0000000000000E+00
 0.0000000000000E+00
 0.0000000000000E+00
 0.0000000000000E+00
 0.0000000000000E+00
 0.0000000000000E+00
 0.0000000000000E+00
 0.0000000000000E+00
 0.0000000000000E+00
 0.0000000000000E+00
 0.0000000000000E+00
 0.0000000000000E+00
 0.0000000000000E+00
 0.0000000000000E+00
 0.0000000000000E+00
 0.0000000000000E+00
 0.0000000000000E+00
 0.0000000000000E+00
 0.0000000000000E+00
 0.0000000000000E+00
 0.0000000000000E+00
 0.0000000000000E+00
 0.0000000000000E+00
 0.0000000000000E+00
 0.0000000000000E+00
 0.0000000000000E+00
 0.0000000000000E+00
 0.0000000000000E+00
 0.0000000000000E+00
 0.0000000000000E+00
 0.0000000000000E+00
 0.0000000000000E+00
 0.0000000000000E+00
 0.0000000000000E+00
 0.0000000000000E+00
 0.0000000000000E+00
 0.0000000000000E+00
 0.0000000000000E+00
 0.0000000000000E+00
 0.0000000000000E+00
 0.0000000000000E+00
 0.0000000000000E+00
 0.0000000000000E+00
 0.0000000000000E+00
 0.0000000000000E+00
 0.0000000000000E+00
 0.0000000000000E+00
 0.0000000000000E+00
 0.0000000000000E+00
 0.0000000000000E+00
 0.0000000000000E+00
 0.0000000000000E+00
 0.0000000000000E+00
 0.0000000000000E+00
 0.0000000000000E+00
 0.0000000000000E+00
 0.0000000000000E+00
 0.0000000000000E+00
 0.0000000000000E+00
 0.0000000000000E+00
 0.0000000000000E+00
 0.0000000000000E+00
 0.0000000000000E+00
 0.0000000000000E+00
 0.0000000000000E+00
 0.0000000000000E+00
 0.0000000000000E+00
 0.0000000000000E+00
 0.0000000000000E+00
 0.0000000000000E+00
 0.0000000000000E+00
 0.0000000000000E+00
 0.0000000000000E+00
 0.0000000000000E+00
 0.0000000000000E+00
 0.0000000000000E+00
 0.0000000000000E+00
 0.0000000000000E+00
 0.0000000000000E+00
 0.0000000000000E+00
 0.0000000000000E+00
 0.0000000000000E+00
 0.0000000000000E+00
 0.0000000000000E+00
 0.0000000000000E+00
 0.0000000000000E+00
 0.0000000000000E+00
 0.0000000000000E+00
 0.0000000000000E+00
 0.0000000000000E+00
 0.0000000000000E+00
 0.0000000000000E+00
 0.0000000000000E+00
 0.0000000000000E+00
 0.0000000000000E+00
 0.0000000000000E+00
 0.0000000000000E+00
 0.0000000000000E+00
 0.0000000000000E+00
 0.0000000000000E+00
 0.0000000000000E+00
 0.0000000000000E+00
 0.0000000000000E+00
 0.0000000000000E+00
 0.0000000000000E+00
 0.0000000000000E+00
 0.0000000000000E+00
 0.0000000000000E+00
 0.0000000000000E+00
 0.0000000000000E+00
 0.0000000000000E+00
 0.0000000000000E+00
 0.0000000000000E+00
 0.0000000000000E+00
 0.0000000000000E+00
 0.0000000000000E+00
 0.0000000000000E+00
 0.0000000000000E+00
 0.0000000000000E+00
 0.0000000000000E+00
 0.0000000000000E+00
 0.0000000000000E+00
 0.0000000000000E+00
 0.0000000000000E+00
 0.0000000000000E+00
 0.0000000000000E+00
 0.0000000000000E+00
 0.0000000000000E+00
 0.0000000000000E+00
 0.0000000000000E+00
 0.0000000000000E+00
 0.0000000000000E+00
 0.0000000000000E+00
 0.0000000000000E+00
 0.0000000000000E+00
 0.0000000000000E+00
 0.0000000000000E+00
 0.0000000000000E+00
 0.0000000000000E+00
 0.0000000000000E+00
 0.0000000000000E+00
 0.0000000000000E+00
 0.0000000000000E+00
 0.0000000000000E+00
 0.0000000000000E+00
 0.0000000000000E+00
 0.0000000000000E+00
 0.0000000000000E+00
 0.0000000000000E+00
 0.0000000000000E+00
 0.0000000000000E+00
 0.0000000000000E+00
 0.0000000000000E+00
 0.0000000000000E+00
 0.0000000000000E+00
 0.0000000000000E+00
 0.0000000000000E+00
 0.0000000000000E+00
 0.0000000000000E+00
 0.0000000000000E+00
 0.0000000000000E+00
 0.0000000000000E+00
 0.0000000000000E+00
 0.0000000000000E+00
 0.0000000000000E+00
 0.0000000000000E+00
 0.0000000000000E+00
 0.0000000000000E+00
 0.0000000000000E+00
 0.0000000000000E+00
 0.0000000000000E+00
 0.0000000000000E+00
 0.0000000000000E+00
 0.0000000000000E+00
 0.0000000000000E+00
 0.0000000000000E+00
 0.0000000000000E+00
 0.0000000000000E+00
 0.0000000000000E+00
 0.0000000000000E+00
 0.0000000000000E+00
 0.0000000000000E+00
 0.0000000000000E+00
 0.0000000000000E+00
 0.0000000000000E+00
 0.0000000000000E+00
 0.0000000000000E+00
 0.0000000000000E+00
 0.0000000000000E+00
 0.0000000000000E+00
 0.0000000000000E+00
 0.0000000000000E+00
 0.0000000000000E+00
 0.0000000000000E+00
 0.0000000000000E+00
 0.0000000000000E+00
 0.0000000000000E+00
 0.0000000000000E+00
 0.0000000000000E+00
 0.0000000000000E+00
 0.0000000000000E+00
 0.0000000000000E+00
 0.0000000000000E+00
 0.0000000000000E+00
 0.0000000000000E+00
 0.0000000000000E+00
 0.0000000000000E+00
 0.0000000000000E+00
 0.0000000000000E+00
 0.0000000000000E+00
 0.0000000000000E+00
 0.0000000000000E+00
 0.0000000000000E+00
 0.0000000000000E+00
 0.0000000000000E+00
 0.0000000000000E+00
 0.0000000000000E+00
 0.0000000000000E+00
 0.0000000000000E+00
 0.0000000000000E+00
 0.0000000000000E+00
 0.0000000000000E+00
 0.0000000000000E+00
 0.0000000000000E+00
 0.0000000000000E+00
 0.0000000000000E+00
 0.0000000000000E+00
 0.0000000000000E+00
 0.0000000000000E+00
 0.0000000000000E+00
 0.0000000000000E+00
 0.0000000000000E+00
 0.0000000000000E+00
 0.0000000000000E+00
 0.0000000000000E+00
 0.0000000000000E+00
 0.0000000000000E+00
 0.0000000000000E+00
 0.0000000000000E+00
 0.0000000000000E+00
 0.0000000000000E+00
 0.0000000000000E+00
 0.0000000000000E+00
 0.0000000000000E+00
 0.0000000000000E+00
 0.0000000000000E+00
 0.0000000000000E+00
 0.0000000000000E+00
 0.0000000000000E+00
 0.0000000000000E+00
 0.0000000000000E+00
 0.0000000000000E+00
 0.0000000000000E+00
 0.0000000000000E+00
 0.0000000000000E+00
 0.0000000000000E+00
 0.0000000000000E+00
 0.0000000000000E+00
 0.0000000000000E+00
 0.0000000000000E+00
 0.0000000000000E+00
 0.0000000000000E+00
 0.0000000000000E+00
 0.0000000000000E+00
 0.0000000000000E+00
 0.0000000000000E+00
 0.0000000000000E+00
 0.0000000000000E+00
 0.0000000000000E+00
 0.0000000000000E+00
 0.0000000000000E+00
 0.0000000000000E+00
 0.0000000000000E+00
 0.0000000000000E+00
 0.0000000000000E+00
 0.0000000000000E+00
 0.0000000000000E+00
 0.0000000000000E+00
 0.0000000000000E+00
 0.0000000000000E+00
 0.0000000000000E+00
 0.0000000000000E+00
 0.0000000000000E+00
 0.0000000000000E+00
 0.0000000000000E+00
 0.0000000000000E+00
 0.0000000000000E+00
 0.0000000000000E+00
 0.0000000000000E+00
 0.0000000000000E+00
 0.0000000000000E+00
 0.0000000000000E+00
 0.0000000000000E+00
 0.0000000000000E+00
 0.0000000000000E+00
 0.0000000000000E+00
 0.0000000000000E+00
 0.0000000000000E+00
 0.0000000000000E+00
 0.0000000000000E+00
 0.0000000000000E+00
 0.0000000000000E+00
 0.0000000000000E+00
 0.0000000000000E+00
 0.0000000000000E+00
 0.0000000000000E+00
 0.0000000000000E+00
 0.0000000000000E+00
 0.0000000000000E+00
 0.0000000000000E+00
 0.0000000000000E+00
 0.0000000000000E+00
 0.0000000000000E+00
 0.0000000000000E+00
 0.0000000000000E+00
 0.0000000000000E+00
 0.0000000000000E+00
 0.0000000000000E+00
 0.0000000000000E+00
 0.0000000000000E+00
 0.0000000000000E+00
 0.0000000000000E+00
 0.0000000000000E+00
 0.0000000000000E+00
 0.0000000000000E+00
 0.0000000000000E+00
 0.0000000000000E+00
 0.0000000000000E+00
 0.0000000000000E+00
 0.0000000000000E+00
 0.0000000000000E+00
 0.0000000000000E+00
 0.0000000000000E+00
 0.0000000000000E+00
 0.0000000000000E+00
 0.0000000000000E+00
 0.0000000000000E+00
 0.0000000000000E+00
 0.0000000000000E+00
 0.0000000000000E+00
 0.0000000000000E+00
 0.0000000000000E+00
 0.0000000000000E+00
 0.0000000000000E+00
 0.0000000000000E+00
 0.0000000000000E+00
 0.0000000000000E+00
 0.0000000000000E+00
 0.0000000000000E+00
 0.0000000000000E+00
 0.0000000000000E+00
 0.0000000000000E+00
 0.0000000000000E+00
 0.0000000000000E+00
 0.0000000000000E+00
 0.0000000000000E+00
 0.0000000000000E+00
 0.0000000000000E+00
 0.0000000000000E+00
 0.0000000000000E+00
 0.0000000000000E+00
 0.0000000000000E+00
 0.0000000000000E+00
 0.0000000000000E+00
 0.0000000000000E+00
 0.0000000000000E+00
 0.0000000000000E+00
 0.0000000000000E+00
 0.0000000000000E+00
 0.0000000000000E+00
 0.0000000000000E+00
 0.0000000000000E+00
 0.0000000000000E+00
 0.0000000000000E+00
 0.0000000000000E+00
 0.0000000000000E+00
 0.0000000000000E+00
 0.0000000000000E+00
 0.0000000000000E+00
 0.0000000000000E+00
 0.0000000000000E+00
 0.0000000000000E+00
 0.0000000000000E+00
 0.0000000000000E+00
 0.0000000000000E+00
 0.0000000000000E+00
 0.0000000000000E+00
 0.0000000000000E+00
 0.0000000000000E+00
 0.0000000000000E+00
 0.0000000000000E+00
 0.0000000000000E+00
 0.0000000000000E+00
 0.0000000000000E+00
 0.0000000000000E+00
 0.0000000000000E+00
 0.0000000000000E+00
 0.0000000000000E+00
 0.0000000000000E+00
 0.0000000000000E+00
 0.0000000000000E+00
 0.0000000000000E+00
 0.0000000000000E+00
 0.0000000000000E+00
 0.0000000000000E+00
 0.0000000000000E+00
 0.0000000000000E+00
 0.0000000000000E+00
 0.0000000000000E+00
 0.0000000000000E+00
 0.0000000000000E+00
 0.0000000000000E+00
 0.0000000000000E+00
 0.0000000000000E+00
 0.0000000000000E+00
 0.0000000000000E+00
 0.0000000000000E+00
 0.0000000000000E+00
 0.0000000000000E+00
 0.0000000000000E+00
 0.0000000000000E+00
 0.0000000000000E+00
 0.0000000000000E+00
 0.0000000000000E+00
 0.0000000000000E+00
 0.0000000000000E+00
 0.0000000000000E+00
 0.0000000000000E+00
 0.0000000000000E+00
 0.0000000000000E+00
 0.0000000000000E+00
 0.0000000000000E+00
 0.0000000000000E+00
 0.0000000000000E+00
 0.0000000000000E+00
 0.0000000000000E+00
 0.0000000000000E+00
 0.0000000000000E+00
 0.0000000000000E+00
 0.0000000000000E+00
 0.0000000000000E+00
 0.0000000000000E+00
 0.0000000000000E+00
 0.0000000000000E+00
 0.0000000000000E+00
 0.0000000000000E+00
 0.0000000000000E+00
 0.0000000000000E+00
 0.0000000000000E+00
 0.0000000000000E+00
 0.0000000000000E+00
 0.0000000000000E+00
 0.0000000000000E+00
 0.0000000000000E+00
 0.0000000000000E+00
 0.0000000000000E+00
 0.0000000000000E+00
 0.0000000000000E+00
 0.0000000000000E+00
 0.0000000000000E+00
 0.0000000000000E+00
 0.0000000000000E+00
 0.0000000000000E+00
 0.0000000000000E+00
 0.0000000000000E+00
 0.0000000000000E+00
 0.0000000000000E+00
 0.0000000000000E+00
 0.0000000000000E+00
 0.0000000000000E+00
 0.0000000000000E+00
 0.0000000000000E+00
 0.0000000000000E+00
 0.0000000000000E+00
 0.0000000000000E+00
 0.0000000000000E+00
 0.0000000000000E+00
 0.0000000000000E+00
 0.0000000000000E+00
 0.0000000000000E+00
 0.0000000000000E+00
 0.0000000000000E+00
 0.0000000000000E+00
 0.0000000000000E+00
 0.0000000000000E+00
 0.0000000000000E+00
 0.0000000000000E+00
 0.0000000000000E+00
 0.0000000000000E+00
 0.0000000000000E+00
 0.0000000000000E+00
 0.0000000000000E+00
 0.0000000000000E+00
 0.0000000000000E+00
 0.0000000000000E+00
 0.0000000000000E+00
 0.0000000000000E+00
 0.0000000000000E+00
 0.0000000000000E+00
 0.0000000000000E+00
 0.0000000000000E+00
 0.0000000000000E+00
 0.0000000000000E+00
 0.0000000000000E+00
 0.0000000000000E+00
 0.0000000000000E+00
 0.0000000000000E+00
 0.0000000000000E+00
 0.0000000000000E+00
 0.0000000000000E+00
 0.0000000000000E+00
 0.0000000000000E+00
 0.0000000000000E+00
 0.0000000000000E+00
 0.0000000000000E+00
 0.0000000000000E+00
 0.0000000000000E+00
 0.0000000000000E+00
 0.0000000000000E+00
 0.0000000000000E+00
 0.0000000000000E+00
 0.0000000000000E+00
 0.0000000000000E+00
 0.0000000000000E+00
 0.0000000000000E+00
 0.0000000000000E+00
 0.0000000000000E+00
 0.0000000000000E+00
 0.0000000000000E+00
 0.0000000000000E+00
 0.0000000000000E+00
 0.0000000000000E+00
 0.0000000000000E+00
 0.0000000000000E+00
 0.0000000000000E+00
 0.0000000000000E+00
 0.0000000000000E+00
 0.0000000000000E+00
 0.0000000000000E+00
 0.0000000000000E+00
 0.0000000000000E+00
 0.0000000000000E+00
 0.0000000000000E+00
 0.0000000000000E+00
 0.0000000000000E+00
 0.0000000000000E+00
 0.0000000000000E+00
 0.0000000000000E+00
 0.0000000000000E+00
 0.0000000000000E+00
 0.0000000000000E+00
 0.0000000000000E+00
 0.0000000000000E+00
 0.0000000000000E+00
 0.0000000000000E+00
 0.0000000000000E+00
 0.0000000000000E+00
 0.0000000000000E+00
 0.0000000000000E+00
 0.0000000000000E+00
 0.0000000000000E+00
 0.0000000000000E+00
 0.0000000000000E+00
 0.0000000000000E+00
 0.0000000000000E+00
 0.0000000000000E+00
 0.0000000000000E+00
 0.0000000000000E+00
 0.0000000000000E+00
 0.0000000000000E+00
 0.0000000000000E+00
 0.0000000000000E+00
 0.0000000000000E+00
 0.0000000000000E+00
 0.0000000000000E+00
 0.0000000000000E+00
 0.0000000000000E+00
 0.0000000000000E+00
 0.0000000000000E+00
 0.0000000000000E+00
 0.0000000000000E+00
 0.0000000000000E+00
 0.0000000000000E+00
 0.0000000000000E+00
 0.0000000000000E+00
 0.0000000000000E+00
 0.0000000000000E+00
 0.0000000000000E+00
 0.0000000000000E+00
 0.0000000000000E+00
 0.0000000000000E+00
 0.0000000000000E+00
 0.0000000000000E+00
 0.0000000000000E+00
 0.0000000000000E+00
 0.0000000000000E+00
 0.0000000000000E+00
 0.0000000000000E+00
 0.0000000000000E+00
 0.0000000000000E+00
 0.0000000000000E+00
 0.0000000000000E+00
 0.0000000000000E+00
 0.0000000000000E+00
 0.0000000000000E+00
 0.0000000000000E+00
 0.0000000000000E+00
 0.0000000000000E+00
 0.0000000000000E+00
 0.0000000000000E+00
 0.0000000000000E+00
 0.0000000000000E+00
 0.0000000000000E+00
 0.0000000000000E+00
 0.0000000000000E+00
 0.0000000000000E+00
 0.0000000000000E+00
 0.0000000000000E+00
 0.0000000000000E+00
 0.0000000000000E+00
 0.0000000000000E+00
 0.0000000000000E+00
 0.0000000000000E+00
 0.0000000000000E+00
 0.0000000000000E+00
 0.0000000000000E+00
 0.0000000000000E+00
 0.0000000000000E+00
 0.0000000000000E+00
 0.0000000000000E+00
 0.0000000000000E+00
 0.0000000000000E+00
 0.0000000000000E+00
 0.0000000000000E+00
 0.0000000000000E+00
 0.0000000000000E+00
 0.0000000000000E+00
 0.0000000000000E+00
 0.0000000000000E+00
 0.0000000000000E+00
 0.0000000000000E+00
 0.0000000000000E+00
 0.0000000000000E+00
 0.0000000000000E+00
 0.0000000000000E+00
 0.0000000000000E+00
 0.0000000000000E+00
 0.0000000000000E+00
 0.0000000000000E+00
 0.0000000000000E+00
 0.0000000000000E+00
 0.0000000000000E+00
 0.0000000000000E+00
 0.0000000000000E+00
 0.0000000000000E+00
 0.0000000000000E+00
 0.0000000000000E+00
 0.0000000000000E+00
 0.0000000000000E+00
 0.0000000000000E+00
 0.0000000000000E+00
 0.0000000000000E+00
 0.0000000000000E+00
 0.0000000000000E+00
 0.0000000000000E+00
 0.0000000000000E+00
 0.0000000000000E+00
 0.0000000000000E+00
 0.0000000000000E+00
 0.0000000000000E+00
 0.0000000000000E+00
 0.0000000000000E+00
 0.0000000000000E+00
 0.0000000000000E+00
 0.0000000000000E+00
 0.0000000000000E+00
 0.0000000000000E+00
 0.0000000000000E+00
 0.0000000000000E+00
 0.0000000000000E+00
 0.0000000000000E+00
 0.0000000000000E+00
 0.0000000000000E+00
 0.0000000000000E+00
 0.0000000000000E+00
 0.0000000000000E+00
 0.0000000000000E+00
 0.0000000000000E+00
 0.0000000000000E+00
 0.0000000000000E+00
 0.0000000000000E+00
 0.0000000000000E+00
 0.0000000000000E+00
 0.0000000000000E+00
 0.0000000000000E+00
 0.0000000000000E+00
 0.0000000000000E+00
 0.0000000000000E+00
 0.0000000000000E+00
 0.0000000000000E+00
 0.0000000000000E+00
 0.0000000000000E+00
 0.0000000000000E+00
 0.0000000000000E+00
 0.0000000000000E+00
 0.0000000000000E+00
 0.0000000000000E+00
 0.0000000000000E+00
 0.0000000000000E+00
 0.0000000000000E+00
 0.0000000000000E+00
 0.0000000000000E+00
 0.0000000000000E+00
 0.0000000000000E+00
 0.0000000000000E+00
 0.0000000000000E+00
 0.0000000000000E+00
 0.0000000000000E+00
 0.0000000000000E+00
 0.0000000000000E+00
 0.0000000000000E+00
 0.0000000000000E+00
 0.0000000000000E+00
 0.0000000000000E+00
 0.0000000000000E+00
 0.0000000000000E+00
 0.0000000000000E+00
 0.0000000000000E+00
 0.0000000000000E+00
 0.0000000000000E+00
 0.0000000000000E+00
 0.0000000000000E+00
 0.0000000000000E+00
 0.0000000000000E+00
 0.0000000000000E+00
 0.0000000000000E+00
 0.0000000000000E+00
 0.0000000000000E+00
 0.0000000000000E+00
 0.0000000000000E+00
 0.0000000000000E+00
 0.0000000000000E+00
 0.0000000000000E+00
 0.0000000000000E+00
 0.0000000000000E+00
 0.0000000000000E+00
 0.0000000000000E+00
 0.0000000000000E+00
 0.0000000000000E+00
 0.0000000000000E+00
 0.0000000000000E+00
 0.0000000000000E+00
 0.0000000000000E+00
 0.0000000000000E+00
 0.0000000000000E+00
 0.0000000000000E+00
 0.0000000000000E+00
 0.0000000000000E+00
 0.0000000000000E+00
 0.0000000000000E+00
 0.0000000000000E+00
 0.0000000000000E+00
 0.0000000000000E+00
 0.0000000000000E+00
 0.0000000000000E+00
 0.0000000000000E+00
 0.0000000000000E+00
 0.0000000000000E+00
 0.0000000000000E+00
 0.0000000000000E+00
 0.0000000000000E+00
 0.0000000000000E+00
 0.0000000000000E+00
 0.0000000000000E+00
 0.0000000000000E+00
 0.0000000000000E+00
 0.0000000000000E+00
 0.0000000000000E+00
 0.0000000000000E+00
 0.0000000000000E+00
 0.0000000000000E+00
 0.0000000000000E+00
 0.0000000000000E+00
 0.0000000000000E+00
 0.0000000000000E+00
 0.0000000000000E+00
 0.0000000000000E+00
 0.0000000000000E+00
 0.0000000000000E+00
 0.0000000000000E+00
 0.0000000000000E+00
 0.0000000000000E+00
 0.0000000000000E+00
 0.0000000000000E+00
 0.0000000000000E+00
 0.0000000000000E+00
 0.0000000000000E+00
 0.0000000000000E+00
 0.0000000000000E+00
 0.0000000000000E+00
 0.0000000000000E+00
 0.0000000000000E+00
 0.0000000000000E+00
 0.0000000000000E+00
 0.0000000000000E+00
 0.0000000000000E+00
 0.0000000000000E+00
 0.0000000000000E+00
 0.0000000000000E+00
 0.0000000000000E+00
 0.0000000000000E+00
 0.0000000000000E+00
 0.0000000000000E+00
 0.0000000000000E+00
 0.0000000000000E+00
 0.0000000000000E+00
 0.0000000000000E+00
 0.0000000000000E+00
 0.0000000000000E+00
 0.0000000000000E+00
 0.0000000000000E+00
 0.0000000000000E+00
 0.0000000000000E+00
 0.0000000000000E+00
 0.0000000000000E+00
 0.0000000000000E+00
 0.0000000000000E+00
 0.0000000000000E+00
 0.0000000000000E+00
 0.0000000000000E+00
 0.0000000000000E+00
 0.0000000000000E+00
 0.0000000000000E+00
 0.0000000000000E+00
 0.0000000000000E+00
 0.0000000000000E+00
 0.0000000000000E+00
 0.0000000000000E+00
 0.0000000000000E+00
 0.0000000000000E+00
 0.0000000000000E+00
 0.0000000000000E+00
 0.0000000000000E+00
 0.0000000000000E+00
 0.0000000000000E+00
 0.0000000000000E+00
 0.0000000000000E+00
 0.0000000000000E+00
 0.0000000000000E+00
 0.0000000000000E+00
 0.0000000000000E+00
 0.0000000000000E+00
 0.0000000000000E+00
 0.0000000000000E+00
 0.0000000000000E+00
 0.0000000000000E+00
 0.0000000000000E+00
 0.0000000000000E+00
 0.0000000000000E+00
 0.0000000000000E+00
 0.0000000000000E+00
 0.0000000000000E+00
 0.0000000000000E+00
 0.0000000000000E+00
 0.0000000000000E+00
 0.0000000000000E+00
 0.0000000000000E+00
 0.0000000000000E+00
 0.0000000000000E+00
 0.0000000000000E+00
 0.0000000000000E+00
 0.0000000000000E+00
 0.0000000000000E+00
 0.0000000000000E+00
 0.0000000000000E+00
 0.0000000000000E+00
 0.0000000000000E+00
 0.0000000000000E+00
 0.0000000000000E+00
 0.0000000000000E+00
 0.0000000000000E+00
 0.0000000000000E+00
 0.0000000000000E+00
 0.0000000000000E+00
 0.0000000000000E+00
 0.0000000000000E+00
 0.0000000000000E+00
 0.0000000000000E+00
 0.0000000000000E+00
 0.0000000000000E+00
 0.0000000000000E+00
 0.0000000000000E+00
 0.0000000000000E+00
 0.0000000000000E+00
 0.0000000000000E+00
 0.0000000000000E+00
 0.0000000000000E+00
 0.0000000000000E+00
 0.0000000000000E+00
 0.0000000000000E+00
 0.0000000000000E+00
 0.0000000000000E+00
 0.0000000000000E+00
 0.0000000000000E+00
 0.0000000000000E+00
 0.0000000000000E+00
 0.0000000000000E+00
 0.0000000000000E+00
 0.0000000000000E+00
 0.0000000000000E+00
 0.0000000000000E+00
 0.0000000000000E+00
 0.0000000000000E+00
 0.0000000000000E+00
 0.0000000000000E+00
 0.0000000000000E+00
 0.0000000000000E+00
 0.0000000000000E+00
 0.0000000000000E+00
 0.0000000000000E+00
 0.0000000000000E+00
 0.0000000000000E+00
 0.0000000000000E+00
 0.0000000000000E+00
 0.0000000000000E+00
 0.0000000000000E+00
 0.0000000000000E+00
 0.0000000000000E+00
 0.0000000000000E+00
 0.0000000000000E+00
 0.0000000000000E+00
 0.0000000000000E+00
 0.0000000000000E+00
 0.0000000000000E+00
 0.0000000000000E+00
 0.0000000000000E+00
 0.0000000000000E+00
 0.0000000000000E+00
 0.0000000000000E+00
 0.0000000000000E+00
 0.0000000000000E+00
 0.0000000000000E+00
 0.0000000000000E+00
 0.0000000000000E+00
 0.0000000000000E+00
 0.0000000000000E+00
 0.0000000000000E+00
 0.0000000000000E+00
 0.0000000000000E+00
 0.0000000000000E+00
 0.0000000000000E+00
 0.0000000000000E+00
 0.0000000000000E+00
 0.0000000000000E+00
 0.0000000000000E+00
 0.0000000000000E+00
 0.0000000000000E+00
 0.0000000000000E+00
 0.0000000000000E+00
 0.0000000000000E+00
 0.0000000000000E+00
 0.0000000000000E+00
 0.0000000000000E+00
 0.0000000000000E+00
 0.0000000000000E+00
 0.0000000000000E+00
 0.0000000000000E+00
 0.0000000000000E+00
 0.0000000000000E+00
 0.0000000000000E+00
 0.0000000000000E+00
 0.0000000000000E+00
 0.0000000000000E+00
 0.0000000000000E+00
 0.0000000000000E+00
 0.0000000000000E+00
 0.0000000000000E+00
 0.0000000000000E+00
 0.0000000000000E+00
 0.0000000000000E+00
 0.0000000000000E+00
 0.0000000000000E+00
 0.0000000000000E+00
 0.0000000000000E+00
 0.0000000000000E+00
 0.0000000000000E+00
 0.0000000000000E+00
 0.0000000000000E+00
 0.0000000000000E+00
 0.0000000000000E+00
 0.0000000000000E+00
 0.0000000000000E+00
 0.0000000000000E+00
 0.0000000000000E+00
 0.0000000000000E+00
 0.0000000000000E+00
 0.0000000000000E+00
 0.0000000000000E+00
 0.0000000000000E+00
 0.0000000000000E+00
 0.0000000000000E+00
 0.0000000000000E+00
 0.0000000000000E+00
 0.0000000000000E+00
 0.0000000000000E+00
 0.0000000000000E+00
 0.0000000000000E+00
 0.0000000000000E+00
 0.0000000000000E+00
 0.0000000000000E+00
 0.0000000000000E+00
 0.0000000000000E+00
 0.0000000000000E+00
 0.0000000000000E+00
 0.0000000000000E+00
 0.0000000000000E+00
 0.0000000000000E+00
 0.0000000000000E+00
 0.0000000000000E+00
 0.0000000000000E+00
 0.0000000000000E+00
 0.0000000000000E+00
 0.0000000000000E+00
 0.0000000000000E+00
 0.0000000000000E+00
 0.0000000000000E+00
 0.0000000000000E+00
 0.0000000000000E+00
 0.0000000000000E+00
 0.0000000000000E+00
 0.0000000000000E+00
 0.0000000000000E+00
 0.0000000000000E+00
 0.0000000000000E+00
 0.0000000000000E+00
 0.0000000000000E+00
 0.0000000000000E+00
 0.0000000000000E+00
 0.0000000000000E+00
 0.0000000000000E+00
 0.0000000000000E+00
 0.0000000000000E+00
 0.0000000000000E+00
 0.0000000000000E+00
 0.0000000000000E+00
 0.0000000000000E+00
 0.0000000000000E+00
 0.0000000000000E+00
 0.0000000000000E+00
 0.0000000000000E+00
 0.0000000000000E+00
 0.0000000000000E+00
 0.0000000000000E+00
 0.0000000000000E+00
 0.0000000000000E+00
 0.0000000000000E+00
 0.0000000000000E+00
 0.0000000000000E+00
 0.0000000000000E+00
 0.0000000000000E+00
 0.0000000000000E+00
 0.0000000000000E+00
 0.0000000000000E+00
 0.0000000000000E+00
 0.0000000000000E+00
 0.0000000000000E+00
 0.0000000000000E+00
 0.0000000000000E+00
 0.0000000000000E+00
 0.0000000000000E+00
 0.0000000000000E+00
 0.0000000000000E+00
 0.0000000000000E+00
 0.0000000000000E+00
 0.0000000000000E+00
 0.0000000000000E+00
 0.0000000000000E+00
 0.0000000000000E+00
 0.0000000000000E+00
 0.0000000000000E+00
 0.0000000000000E+00
 0.0000000000000E+00
 0.0000000000000E+00
 0.0000000000000E+00
 0.0000000000000E+00
 0.0000000000000E+00
 0.0000000000000E+00
 0.0000000000000E+00
 0.0000000000000E+00
 0.0000000000000E+00
 0.0000000000000E+00
 0.0000000000000E+00
 0.0000000000000E+00
 0.0000000000000E+00
 0.0000000000000E+00
 0.0000000000000E+00
 0.0000000000000E+00
 0.0000000000000E+00
 0.0000000000000E+00
 0.0000000000000E+00
 0.0000000000000E+00
 0.0000000000000E+00
 0.0000000000000E+00
 0.0000000000000E+00
 0.0000000000000E+00
 0.0000000000000E+00
 0.0000000000000E+00
 0.0000000000000E+00
 0.0000000000000E+00
 0.0000000000000E+00
 0.0000000000000E+00
 0.0000000000000E+00
 0.0000000000000E+00
 0.0000000000000E+00
 0.0000000000000E+00
 0.0000000000000E+00
 0.0000000000000E+00
 0.0000000000000E+00
 0.0000000000000E+00
 0.0000000000000E+00
 0.0000000000000E+00
 0.0000000000000E+00
 0.0000000000000E+00
 0.0000000000000E+00
 0.0000000000000E+00
 0.0000000000000E+00
 0.0000000000000E+00
 0.0000000000000E+00
 0.0000000000000E+00
 0.0000000000000E+00
 0.0000000000000E+00
 0.0000000000000E+00
 0.0000000000000E+00
 0.0000000000000E+00
 0.0000000000000E+00
 0.0000000000000E+00
 0.0000000000000E+00
 0.0000000000000E+00
 0.0000000000000E+00
 0.0000000000000E+00
 0.0000000000000E+00
 0.0000000000000E+00
 0.0000000000000E+00
 0.0000000000000E+00
 0.0000000000000E+00
 0.0000000000000E+00
 0.0000000000000E+00
 0.0000000000000E+00
 0.0000000000000E+00
 0.0000000000000E+00
 0.0000000000000E+00
 0.0000000000000E+00
 0.0000000000000E+00
 0.0000000000000E+00
 0.0000000000000E+00
 0.0000000000000E+00
 0.0000000000000E+00
 0.0000000000000E+00
 0.0000000000000E+00
 0.0000000000000E+00
 0.0000000000000E+00
 0.0000000000000E+00
 0.0000000000000E+00
 0.0000000000000E+00
 0.0000000000000E+00
 0.0000000000000E+00
 0.0000000000000E+00
 0.0000000000000E+00
 0.0000000000000E+00
 0.0000000000000E+00
 0.0000000000000E+00
 0.0000000000000E+00
 0.0000000000000E+00
 0.0000000000000E+00
 0.0000000000000E+00
 0.0000000000000E+00
 0.0000000000000E+00
 0.0000000000000E+00
 0.0000000000000E+00
 0.0000000000000E+00
 0.0000000000000E+00
 0.0000000000000E+00
 0.0000000000000E+00
 0.0000000000000E+00
 0.0000000000000E+00
 0.0000000000000E+00
 0.0000000000000E+00
 0.0000000000000E+00
 0.0000000000000E+00
 0.0000000000000E+00
 0.0000000000000E+00
 0.0000000000000E+00
 0.0000000000000E+00
 0.0000000000000E+00
 0.0000000000000E+00
 0.0000000000000E+00
 0.0000000000000E+00
 0.0000000000000E+00
 0.0000000000000E+00
 0.0000000000000E+00
 0.0000000000000E+00
 0.0000000000000E+00
 0.0000000000000E+00
 0.0000000000000E+00
 0.0000000000000E+00
 0.0000000000000E+00
 0.0000000000000E+00
 0.0000000000000E+00
 0.0000000000000E+00
 0.0000000000000E+00
 0.0000000000000E+00
 0.0000000000000E+00
 0.0000000000000E+00
 0.0000000000000E+00
 0.0000000000000E+00
 0.0000000000000E+00
 0.0000000000000E+00
 0.0000000000000E+00
 0.0000000000000E+00
 0.0000000000000E+00
 0.0000000000000E+00
 0.0000000000000E+00
 0.0000000000000E+00
 0.0000000000000E+00
 0.0000000000000E+00
 0.0000000000000E+00
 0.0000000000000E+00
 0.0000000000000E+00
 0.0000000000000E+00
 0.0000000000000E+00
 0.0000000000000E+00
 0.0000000000000E+00
 0.0000000000000E+00
 0.0000000000000E+00
 0.0000000000000E+00
 0.0000000000000E+00
 0.0000000000000E+00
 0.0000000000000E+00
 0.0000000000000E+00
 0.0000000000000E+00
 0.0000000000000E+00
 0.0000000000000E+00
 0.0000000000000E+00
 0.0000000000000E+00
 0.0000000000000E+00
 0.0000000000000E+00
 0.0000000000000E+00
 0.0000000000000E+00
 0.0000000000000E+00
 0.0000000000000E+00
 0.0000000000000E+00
 0.0000000000000E+00
 0.0000000000000E+00
 0.0000000000000E+00
 0.0000000000000E+00
 0.0000000000000E+00
 0.0000000000000E+00
 0.0000000000000E+00
 0.0000000000000E+00
 0.0000000000000E+00
 0.0000000000000E+00
 0.0000000000000E+00
 0.0000000000000E+00
 0.0000000000000E+00
 0.0000000000000E+00
 0.0000000000000E+00
 0.0000000000000E+00
 0.0000000000000E+00
 0.0000000000000E+00
 0.0000000000000E+00
 0.0000000000000E+00
 0.0000000000000E+00
 0.0000000000000E+00
 0.0000000000000E+00
 0.0000000000000E+00
 0.0000000000000E+00
 0.0000000000000E+00
 0.0000000000000E+00
 0.0000000000000E+00
 0.0000000000000E+00
 0.0000000000000E+00
 0.0000000000000E+00
 0.0000000000000E+00
 0.0000000000000E+00
 0.0000000000000E+00
 0.0000000000000E+00
 0.0000000000000E+00
 0.0000000000000E+00
 0.0000000000000E+00
 0.0000000000000E+00
 0.0000000000000E+00
 0.0000000000000E+00
 0.0000000000000E+00
 0.0000000000000E+00
 0.0000000000000E+00
 0.0000000000000E+00
 0.0000000000000E+00
 0.0000000000000E+00
 0.0000000000000E+00
 0.0000000000000E+00
 0.0000000000000E+00
 0.0000000000000E+00
 0.0000000000000E+00
 0.0000000000000E+00
 0.0000000000000E+00
 0.0000000000000E+00
 0.0000000000000E+00
 0.0000000000000E+00
 0.0000000000000E+00
 0.0000000000000E+00
 0.0000000000000E+00
 0.0000000000000E+00
 0.0000000000000E+00
 0.0000000000000E+00
 0.0000000000000E+00
 0.0000000000000E+00
 0.0000000000000E+00
 0.0000000000000E+00
 0.0000000000000E+00
 0.0000000000000E+00
 0.0000000000000E+00
 0.0000000000000E+00
 0.0000000000000E+00
 0.0000000000000E+00
 0.0000000000000E+00
 0.0000000000000E+00
 0.0000000000000E+00
 0.0000000000000E+00
 0.0000000000000E+00
 0.0000000000000E+00
 0.0000000000000E+00
 0.0000000000000E+00
 0.0000000000000E+00
 0.0000000000000E+00
 0.0000000000000E+00
 0.0000000000000E+00
 0.0000000000000E+00
 0.0000000000000E+00
 0.0000000000000E+00
 0.0000000000000E+00
 0.0000000000000E+00
 0.0000000000000E+00
 0.0000000000000E+00
 0.0000000000000E+00
 0.0000000000000E+00
 0.0000000000000E+00
 0.0000000000000E+00
 0.0000000000000E+00
 0.0000000000000E+00
 0.0000000000000E+00
 0.0000000000000E+00
 0.0000000000000E+00
 0.0000000000000E+00
 0.0000000000000E+00
 0.0000000000000E+00
 0.0000000000000E+00
 0.0000000000000E+00
 0.0000000000000E+00
 0.0000000000000E+00
 0.0000000000000E+00
 0.0000000000000E+00
 0.0000000000000E+00
 0.0000000000000E+00
 0.0000000000000E+00
 0.0000000000000E+00
 0.0000000000000E+00
 0.0000000000000E+00
 0.0000000000000E+00
 0.0000000000000E+00
 0.0000000000000E+00
 0.0000000000000E+00
 0.0000000000000E+00
 0.0000000000000E+00
 0.0000000000000E+00
 0.0000000000000E+00
 0.0000000000000E+00
 0.0000000000000E+00
 0.0000000000000E+00
 0.0000000000000E+00
 0.0000000000000E+00
 0.0000000000000E+00
 0.0000000000000E+00
 0.0000000000000E+00
 0.0000000000000E+00
 0.0000000000000E+00
 0.0000000000000E+00
 0.0000000000000E+00
 0.0000000000000E+00
 0.0000000000000E+00
 0.0000000000000E+00
 0.0000000000000E+00
 0.0000000000000E+00
 0.0000000000000E+00
 0.0000000000000E+00
 0.0000000000000E+00
 0.0000000000000E+00
 0.0000000000000E+00
 0.0000000000000E+00
 0.0000000000000E+00
 0.0000000000000E+00
 0.0000000000000E+00
 0.0000000000000E+00
 0.0000000000000E+00
 0.0000000000000E+00
 0.0000000000000E+00
 0.0000000000000E+00
 0.0000000000000E+00
 0.0000000000000E+00
 0.0000000000000E+00
 0.0000000000000E+00
 0.0000000000000E+00
 0.0000000000000E+00
 0.0000000000000E+00
 0.0000000000000E+00
 0.0000000000000E+00
 0.0000000000000E+00
 0.0000000000000E+00
 0.0000000000000E+00
 0.0000000000000E+00
 0.0000000000000E+00
 0.0000000000000E+00
 0.0000000000000E+00
 0.0000000000000E+00
 0.0000000000000E+00
 0.0000000000000E+00
 0.0000000000000E+00
 0.0000000000000E+00
 0.0000000000000E+00
 0.0000000000000E+00
 0.0000000000000E+00
 0.0000000000000E+00
 0.0000000000000E+00
 0.0000000000000E+00
 0.0000000000000E+00
 0.0000000000000E+00
 0.0000000000000E+00
 0.0000000000000E+00
 0.0000000000000E+00
 0.0000000000000E+00
 0.0000000000000E+00
 0.0000000000000E+00
 0.0000000000000E+00
 0.0000000000000E+00
 0.0000000000000E+00
 0.0000000000000E+00
 0.0000000000000E+00
 0.0000000000000E+00
 0.0000000000000E+00
 0.0000000000000E+00
 0.0000000000000E+00
 0.0000000000000E+00
 0.0000000000000E+00
 0.0000000000000E+00
 0.0000000000000E+00
 0.0000000000000E+00
 0.0000000000000E+00
 0.0000000000000E+00
 0.0000000000000E+00
 0.0000000000000E+00
 0.0000000000000E+00
 0.0000000000000E+00
 0.0000000000000E+00
 0.0000000000000E+00
 0.0000000000000E+00
 0.0000000000000E+00
 0.0000000000000E+00
 0.0000000000000E+00
 0.0000000000000E+00
 0.0000000000000E+00
 0.0000000000000E+00
 0.0000000000000E+00
 0.0000000000000E+00
 0.0000000000000E+00
 0.0000000000000E+00
 0.0000000000000E+00
 0.0000000000000E+00
 0.0000000000000E+00
 0.0000000000000E+00
 0.0000000000000E+00
 0.0000000000000E+00
 0.0000000000000E+00
 0.0000000000000E+00
 0.0000000000000E+00
 0.0000000000000E+00
 0.0000000000000E+00
 0.0000000000000E+00
 0.0000000000000E+00
 0.0000000000000E+00
 0.0000000000000E+00
 0.0000000000000E+00
 0.0000000000000E+00
 0.0000000000000E+00
 0.0000000000000E+00
 0.0000000000000E+00
 0.0000000000000E+00
 0.0000000000000E+00
 0.0000000000000E+00
 0.0000000000000E+00
 0.0000000000000E+00
 0.0000000000000E+00
 0.0000000000000E+00
 0.0000000000000E+00
 0.0000000000000E+00
 0.0000000000000E+00
 0.0000000000000E+00
 0.0000000000000E+00
 0.0000000000000E+00
 0.0000000000000E+00
 0.0000000000000E+00
 0.0000000000000E+00
 0.0000000000000E+00
 0.0000000000000E+00
 0.0000000000000E+00
 0.0000000000000E+00
 0.0000000000000E+00
 0.0000000000000E+00
 0.0000000000000E+00
 0.0000000000000E+00
 0.0000000000000E+00
 0.0000000000000E+00
 0.0000000000000E+00
 0.0000000000000E+00
 0.0000000000000E+00
 0.0000000000000E+00
 0.0000000000000E+00
 0.0000000000000E+00
 0.0000000000000E+00
 0.0000000000000E+00
 0.0000000000000E+00
 0.0000000000000E+00
 0.0000000000000E+00
 0.0000000000000E+00
 0.0000000000000E+00
 0.0000000000000E+00
 0.0000000000000E+00
 0.0000000000000E+00
 0.0000000000000E+00
 0.0000000000000E+00
 0.0000000000000E+00
 0.0000000000000E+00
 0.0000000000000E+00
 0.0000000000000E+00
 0.0000000000000E+00
 0.0000000000000E+00
 0.0000000000000E+00
 0.0000000000000E+00
 0.0000000000000E+00
 0.0000000000000E+00
 0.0000000000000E+00
 0.0000000000000E+00
 0.0000000000000E+00
 0.0000000000000E+00
 0.0000000000000E+00
 0.0000000000000E+00
 0.0000000000000E+00
 0.0000000000000E+00
 0.0000000000000E+00
 0.0000000000000E+00
 0.0000000000000E+00
 0.0000000000000E+00
 0.0000000000000E+00
 0.0000000000000E+00
 0.0000000000000E+00
 0.0000000000000E+00
 0.0000000000000E+00
 0.0000000000000E+00
 0.0000000000000E+00
 0.0000000000000E+00
 0.0000000000000E+00
 0.0000000000000E+00
 0.0000000000000E+00
 0.0000000000000E+00
 0.0000000000000E+00
 0.0000000000000E+00
 0.0000000000000E+00
 0.0000000000000E+00
 0.0000000000000E+00
 0.0000000000000E+00
 0.0000000000000E+00
 0.0000000000000E+00
 0.0000000000000E+00
 0.0000000000000E+00
 0.0000000000000E+00
 0.0000000000000E+00
 0.0000000000000E+00
 0.0000000000000E+00
 0.0000000000000E+00
 0.0000000000000E+00
 0.0000000000000E+00
 0.0000000000000E+00
 0.0000000000000E+00
 0.0000000000000E+00
 0.0000000000000E+00
 0.0000000000000E+00
 0.0000000000000E+00
 0.0000000000000E+00
 0.0000000000000E+00
 0.0000000000000E+00
 0.0000000000000E+00
 0.0000000000000E+00
 0.0000000000000E+00
 0.0000000000000E+00
 0.0000000000000E+00
 0.0000000000000E+00
 0.0000000000000E+00
 0.0000000000000E+00
 0.0000000000000E+00
 0.0000000000000E+00
 0.0000000000000E+00
 0.0000000000000E+00
 0.0000000000000E+00
 0.0000000000000E+00
 0.0000000000000E+00
 0.0000000000000E+00
 0.0000000000000E+00
 0.0000000000000E+00
 0.0000000000000E+00
 0.0000000000000E+00
 0.0000000000000E+00
 0.0000000000000E+00
 0.0000000000000E+00
 0.0000000000000E+00
 0.0000000000000E+00
 0.0000000000000E+00
 0.0000000000000E+00
 0.0000000000000E+00
 0.0000000000000E+00
 0.0000000000000E+00
 0.0000000000000E+00
 0.0000000000000E+00
 0.0000000000000E+00
 0.0000000000000E+00
 0.0000000000000E+00
 0.0000000000000E+00
 0.0000000000000E+00
 0.0000000000000E+00
 0.0000000000000E+00
 0.0000000000000E+00
 0.0000000000000E+00
 0.0000000000000E+00
 0.0000000000000E+00
 0.0000000000000E+00
 0.0000000000000E+00
 0.0000000000000E+00
 0.0000000000000E+00
 0.0000000000000E+00
 0.0000000000000E+00
 0.0000000000000E+00
 0.0000000000000E+00
 0.0000000000000E+00
 0.0000000000000E+00
 0.0000000000000E+00
 0.0000000000000E+00
 0.0000000000000E+00
 0.0000000000000E+00
 0.0000000000000E+00
 0.0000000000000E+00
 0.0000000000000E+00
 0.0000000000000E+00
 0.0000000000000E+00
 0.0000000000000E+00
 0.0000000000000E+00
 0.0000000000000E+00
 0.0000000000000E+00
 0.0000000000000E+00
 0.0000000000000E+00
 0.0000000000000E+00
 0.0000000000000E+00
 0.0000000000000E+00
 0.0000000000000E+00
 0.0000000000000E+00
 0.0000000000000E+00
 0.0000000000000E+00
 0.0000000000000E+00
 0.0000000000000E+00
 0.0000000000000E+00
 0.0000000000000E+00
 0.0000000000000E+00
 0.0000000000000E+00
 0.0000000000000E+00
 0.0000000000000E+00
 0.0000000000000E+00
 0.0000000000000E+00
 0.0000000000000E+00
 0.0000000000000E+00
 0.0000000000000E+00
 0.0000000000000E+00
 0.0000000000000E+00
 0.0000000000000E+00
 0.0000000000000E+00
 0.0000000000000E+00
 0.0000000000000E+00
 0.0000000000000E+00
 0.0000000000000E+00
 0.0000000000000E+00
 0.0000000000000E+00
 0.0000000000000E+00
 0.0000000000000E+00
 0.0000000000000E+00
 0.0000000000000E+00
 0.0000000000000E+00
 0.0000000000000E+00
 0.0000000000000E+00
 0.0000000000000E+00
 0.0000000000000E+00
 0.0000000000000E+00
 0.0000000000000E+00
 0.0000000000000E+00
 0.0000000000000E+00
 0.0000000000000E+00
 0.0000000000000E+00
 0.0000000000000E+00
 0.0000000000000E+00
 0.0000000000000E+00
 0.0000000000000E+00
 0.0000000000000E+00
 0.0000000000000E+00
 0.0000000000000E+00
 0.0000000000000E+00
 0.0000000000000E+00
 0.0000000000000E+00
 0.0000000000000E+00
 0.0000000000000E+00
 0.0000000000000E+00
 0.0000000000000E+00
 0.0000000000000E+00
 0.0000000000000E+00
 0.0000000000000E+00
 0.0000000000000E+00
 0.0000000000000E+00
 0.0000000000000E+00
 0.0000000000000E+00
 0.0000000000000E+00
 0.0000000000000E+00
 0.0000000000000E+00
 0.0000000000000E+00
 0.0000000000000E+00
 0.0000000000000E+00
 0.0000000000000E+00
 0.0000000000000E+00
 0.0000000000000E+00
 0.0000000000000E+00
 0.0000000000000E+00
 0.0000000000000E+00
 0.0000000000000E+00
 0.0000000000000E+00
 0.0000000000000E+00
 0.0000000000000E+00
 0.0000000000000E+00
 0.0000000000000E+00
 0.0000000000000E+00
 0.0000000000000E+00
 0.0000000000000E+00
 0.0000000000000E+00
 0.0000000000000E+00
 0.0000000000000E+00
 0.0000000000000E+00
 0.0000000000000E+00
 0.0000000000000E+00
 0.0000000000000E+00
 0.0000000000000E+00
 0.0000000000000E+00
 0.0000000000000E+00
 0.0000000000000E+00
 0.0000000000000E+00
 0.0000000000000E+00
 0.0000000000000E+00
 0.0000000000000E+00
 0.0000000000000E+00
 0.0000000000000E+00
 0.0000000000000E+00
 0.0000000000000E+00
 0.0000000000000E+00
 0.0000000000000E+00
 0.0000000000000E+00
 0.0000000000000E+00
 0.0000000000000E+00
 0.0000000000000E+00
 0.0000000000000E+00
 0.0000000000000E+00
 0.0000000000000E+00
 0.0000000000000E+00
 0.0000000000000E+00
 0.0000000000000E+00
 0.0000000000000E+00
 0.0000000000000E+00
 0.0000000000000E+00
 0.0000000000000E+00
 0.0000000000000E+00
 0.0000000000000E+00
 0.0000000000000E+00
 0.0000000000000E+00
 0.0000000000000E+00
 0.0000000000000E+00
 0.0000000000000E+00
 0.0000000000000E+00
 0.0000000000000E+00
 0.0000000000000E+00
 0.0000000000000E+00
 0.0000000000000E+00
 0.0000000000000E+00
 0.0000000000000E+00
 0.0000000000000E+00
 0.0000000000000E+00
 0.0000000000000E+00
 0.0000000000000E+00
 0.0000000000000E+00
 0.0000000000000E+00
 0.0000000000000E+00
 0.0000000000000E+00
 0.0000000000000E+00
 0.0000000000000E+00
 0.0000000000000E+00
 0.0000000000000E+00
 0.0000000000000E+00
 0.0000000000000E+00
 0.0000000000000E+00
 0.0000000000000E+00
 0.0000000000000E+00
 0.0000000000000E+00
 0.0000000000000E+00
 0.0000000000000E+00
 0.0000000000000E+00
 0.0000000000000E+00
 0.0000000000000E+00
 0.0000000000000E+00
 0.0000000000000E+00
 0.0000000000000E+00
 0.0000000000000E+00
 0.0000000000000E+00
 0.0000000000000E+00
 0.0000000000000E+00
 0.0000000000000E+00
 0.0000000000000E+00
 0.0000000000000E+00
 0.0000000000000E+00
 0.0000000000000E+00
 0.0000000000000E+00
 0.0000000000000E+00
 0.0000000000000E+00
 0.0000000000000E+00
 0.0000000000000E+00
 0.0000000000000E+00
 0.0000000000000E+00
 0.0000000000000E+00
 0.0000000000000E+00
 0.0000000000000E+00
 0.0000000000000E+00
 0.0000000000000E+00
 0.0000000000000E+00
 0.0000000000000E+00
 0.0000000000000E+00
 0.0000000000000E+00
 0.0000000000000E+00
 0.0000000000000E+00
 0.0000000000000E+00
 0.0000000000000E+00
 0.0000000000000E+00
 0.0000000000000E+00
 0.0000000000000E+00
 0.0000000000000E+00
 0.0000000000000E+00
 0.0000000000000E+00
 0.0000000000000E+00
 0.0000000000000E+00
 0.0000000000000E+00
 0.0000000000000E+00
 0.0000000000000E+00
 0.0000000000000E+00
 0.0000000000000E+00
 0.0000000000000E+00
 0.0000000000000E+00
 0.0000000000000E+00
 0.0000000000000E+00
 0.0000000000000E+00
 0.0000000000000E+00
 0.0000000000000E+00
 0.0000000000000E+00
 0.0000000000000E+00
 0.0000000000000E+00
 0.0000000000000E+00
 0.0000000000000E+00
 0.0000000000000E+00
 0.0000000000000E+00
 0.0000000000000E+00
 0.0000000000000E+00
 0.0000000000000E+00
 0.0000000000000E+00
 0.0000000000000E+00
 0.0000000000000E+00
 0.0000000000000E+00
 0.0000000000000E+00
 0.0000000000000E+00
 0.0000000000000E+00
 0.0000000000000E+00
 0.0000000000000E+00
 0.0000000000000E+00
 0.0000000000000E+00
 0.0000000000000E+00
 0.0000000000000E+00
 0.0000000000000E+00
 0.0000000000000E+00
 0.0000000000000E+00
 0.0000000000000E+00
 0.0000000000000E+00
 0.0000000000000E+00
 0.0000000000000E+00
 0.0000000000000E+00
 0.0000000000000E+00
 0.0000000000000E+00
 0.0000000000000E+00
 0.0000000000000E+00
 0.0000000000000E+00
 0.0000000000000E+00
 0.0000000000000E+00
 0.0000000000000E+00
 0.0000000000000E+00
 0.0000000000000E+00
 0.0000000000000E+00
 0.0000000000000E+00
 0.0000000000000E+00
 0.0000000000000E+00
 0.0000000000000E+00
 0.0000000000000E+00
 0.0000000000000E+00
 0.0000000000000E+00
 0.0000000000000E+00
 0.0000000000000E+00
 0.0000000000000E+00
 0.0000000000000E+00
 0.0000000000000E+00
 0.0000000000000E+00
 0.0000000000000E+00
 0.0000000000000E+00
 0.0000000000000E+00
 0.0000000000000E+00
 0.0000000000000E+00
 0.0000000000000E+00
 0.0000000000000E+00
 0.0000000000000E+00
 0.0000000000000E+00
 0.0000000000000E+00
 0.0000000000000E+00
 0.0000000000000E+00
 0.0000000000000E+00
 0.0000000000000E+00
 0.0000000000000E+00
 0.0000000000000E+00
 0.0000000000000E+00
 0.0000000000000E+00
 0.0000000000000E+00
 0.0000000000000E+00
 0.0000000000000E+00
 0.0000000000000E+00
 0.0000000000000E+00
 0.0000000000000E+00
 0.0000000000000E+00
 0.0000000000000E+00
 0.0000000000000E+00
 0.0000000000000E+00
 0.0000000000000E+00
 0.0000000000000E+00
 0.0000000000000E+00
 0.0000000000000E+00
 0.0000000000000E+00
 0.0000000000000E+00
 0.0000000000000E+00
 0.0000000000000E+00
 0.0000000000000E+00
 0.0000000000000E+00
 0.0000000000000E+00
 0.0000000000000E+00
 0.0000000000000E+00
 0.0000000000000E+00
 0.0000000000000E+00
 0.0000000000000E+00
 0.0000000000000E+00
 0.0000000000000E+00
 0.0000000000000E+00
 0.0000000000000E+00
 0.0000000000000E+00
 0.0000000000000E+00
 0.0000000000000E+00
 0.0000000000000E+00
 0.0000000000000E+00
 0.0000000000000E+00
 0.0000000000000E+00
 0.0000000000000E+00
 0.0000000000000E+00
 0.0000000000000E+00
 0.0000000000000E+00
 0.0000000000000E+00
 0.0000000000000E+00
 0.0000000000000E+00
 0.0000000000000E+00
 0.0000000000000E+00
 0.0000000000000E+00
 0.0000000000000E+00
 0.0000000000000E+00
 0.0000000000000E+00
 0.0000000000000E+00
 0.0000000000000E+00
 0.0000000000000E+00
 0.0000000000000E+00
 0.0000000000000E+00
 0.0000000000000E+00
 0.0000000000000E+00
 0.0000000000000E+00
 0.0000000000000E+00
 0.0000000000000E+00
 0.0000000000000E+00
 0.0000000000000E+00
 0.0000000000000E+00
 0.0000000000000E+00
 0.0000000000000E+00
 0.0000000000000E+00
 0.0000000000000E+00
 0.0000000000000E+00
 0.0000000000000E+00
 0.0000000000000E+00
 0.0000000000000E+00
 0.0000000000000E+00
 0.0000000000000E+00
 0.0000000000000E+00
 0.0000000000000E+00
 0.0000000000000E+00
 0.0000000000000E+00
 0.0000000000000E+00
 0.0000000000000E+00
 0.0000000000000E+00
 0.0000000000000E+00
 0.0000000000000E+00
 0.0000000000000E+00
 0.0000000000000E+00
 0.0000000000000E+00
 0.0000000000000E+00
 0.0000000000000E+00
 0.0000000000000E+00
 0.0000000000000E+00
 0.0000000000000E+00
 0.0000000000000E+00
 0.0000000000000E+00
 0.0000000000000E+00
 0.0000000000000E+00
 0.0000000000000E+00
 0.0000000000000E+00
 0.0000000000000E+00
 0.0000000000000E+00
 0.0000000000000E+00
 0.0000000000000E+00
 0.0000000000000E+00
 0.0000000000000E+00
 0.0000000000000E+00
 0.0000000000000E+00
 0.0000000000000E+00
 0.0000000000000E+00
 0.0000000000000E+00
 0.0000000000000E+00
 0.0000000000000E+00
 0.0000000000000E+00
 0.0000000000000E+00
 0.0000000000000E+00
 0.0000000000000E+00
 0.0000000000000E+00
 0.0000000000000E+00
 0.0000000000000E+00
 0.0000000000000E+00
 0.0000000000000E+00
 0.0000000000000E+00
 0.0000000000000E+00
 0.0000000000000E+00
 0.0000000000000E+00
 0.0000000000000E+00
 0.0000000000000E+00
 0.0000000000000E+00
 0.0000000000000E+00
 0.0000000000000E+00
 0.0000000000000E+00
 0.0000000000000E+00
 0.0000000000000E+00
 0.0000000000000E+00
 0.0000000000000E+00
 0.0000000000000E+00
 0.0000000000000E+00
 0.0000000000000E+00
 0.0000000000000E+00
 0.0000000000000E+00
 0.0000000000000E+00
 0.0000000000000E+00
 0.0000000000000E+00
 0.0000000000000E+00
 0.0000000000000E+00
 0.0000000000000E+00
 0.0000000000000E+00
 0.0000000000000E+00
 0.0000000000000E+00
 0.0000000000000E+00
 0.0000000000000E+00
 0.0000000000000E+00
 0.0000000000000E+00
 0.0000000000000E+00
 0.0000000000000E+00
 0.0000000000000E+00
 0.0000000000000E+00
 0.0000000000000E+00
 0.0000000000000E+00
 0.0000000000000E+00
 0.0000000000000E+00
 0.0000000000000E+00
 0.0000000000000E+00
 0.0000000000000E+00
 0.0000000000000E+00
 0.0000000000000E+00
 0.0000000000000E+00
 0.0000000000000E+00
 0.0000000000000E+00
 0.0000000000000E+00
 0.0000000000000E+00
 0.0000000000000E+00
 0.0000000000000E+00
 0.0000000000000E+00
 0.0000000000000E+00
 0.0000000000000E+00
 0.0000000000000E+00
 0.0000000000000E+00
 0.0000000000000E+00
 0.0000000000000E+00
 0.0000000000000E+00
 0.0000000000000E+00
 0.0000000000000E+00
 0.0000000000000E+00
 0.0000000000000E+00
 0.0000000000000E+00
 0.0000000000000E+00
 0.0000000000000E+00
 0.0000000000000E+00
 0.0000000000000E+00
 0.0000000000000E+00
 0.0000000000000E+00
 0.0000000000000E+00
 0.0000000000000E+00
 0.0000000000000E+00
 0.0000000000000E+00
 0.0000000000000E+00
 0.0000000000000E+00
 0.0000000000000E+00
 0.0000000000000E+00
 0.0000000000000E+00
 0.0000000000000E+00
 0.0000000000000E+00
 0.0000000000000E+00
 0.0000000000000E+00
 0.0000000000000E+00
 0.0000000000000E+00
 0.0000000000000E+00
 0.0000000000000E+00
 0.0000000000000E+00
 0.0000000000000E+00
 0.0000000000000E+00
 0.0000000000000E+00
 0.0000000000000E+00
 0.0000000000000E+00
 0.0000000000000E+00
 0.0000000000000E+00
 0.0000000000000E+00
 0.0000000000000E+00
 0.0000000000000E+00
 0.0000000000000E+00
 0.0000000000000E+00
 0.0000000000000E+00
 0.0000000000000E+00
 0.0000000000000E+00
 0.0000000000000E+00
 0.0000000000000E+00
 0.0000000000000E+00
 0.0000000000000E+00
 0.0000000000000E+00
 0.0000000000000E+00
 0.0000000000000E+00
 0.0000000000000E+00
 0.0000000000000E+00
 0.0000000000000E+00
 0.0000000000000E+00
 0.0000000000000E+00
 0.0000000000000E+00
 0.0000000000000E+00
 0.0000000000000E+00
 0.0000000000000E+00
 0.0000000000000E+00
 0.0000000000000E+00
 0.0000000000000E+00
 0.0000000000000E+00
 0.0000000000000E+00
 0.0000000000000E+00
 0.0000000000000E+00
 0.0000000000000E+00
 0.0000000000000E+00
 0.0000000000000E+00
 0.0000000000000E+00
 0.0000000000000E+00
 0.0000000000000E+00
 0.0000000000000E+00
 0.0000000000000E+00
 0.0000000000000E+00
 0.0000000000000E+00
 0.0000000000000E+00
 0.0000000000000E+00
 0.0000000000000E+00
 0.0000000000000E+00
 0.0000000000000E+00
 0.0000000000000E+00
 0.0000000000000E+00
 0.0000000000000E+00
 0.0000000000000E+00
 0.0000000000000E+00
 0.0000000000000E+00
 0.0000000000000E+00
 0.0000000000000E+00
 0.0000000000000E+00
 0.0000000000000E+00
 0.0000000000000E+00
 0.0000000000000E+00
 0.0000000000000E+00
 0.0000000000000E+00
 0.0000000000000E+00
 0.0000000000000E+00
 0.0000000000000E+00
 0.0000000000000E+00
 0.0000000000000E+00
 0.0000000000000E+00
 0.0000000000000E+00
 0.0000000000000E+00
 0.0000000000000E+00
 0.0000000000000E+00
 0.0000000000000E+00
 0.0000000000000E+00
 0.0000000000000E+00
 0.0000000000000E+00
 0.0000000000000E+00
 0.0000000000000E+00
 0.0000000000000E+00
 0.0000000000000E+00
 0.0000000000000E+00
 0.0000000000000E+00
 0.0000000000000E+00
 0.0000000000000E+00
 0.0000000000000E+00
 0.0000000000000E+00
 0.0000000000000E+00
 0.0000000000000E+00
 0.0000000000000E+00
 0.0000000000000E+00
 0.0000000000000E+00
 0.0000000000000E+00
 0.0000000000000E+00
 0.0000000000000E+00
 0.0000000000000E+00
 0.0000000000000E+00
 0.0000000000000E+00
 0.0000000000000E+00
 0.0000000000000E+00
 0.0000000000000E+00
 0.0000000000000E+00
 0.0000000000000E+00
 0.0000000000000E+00
 0.0000000000000E+00
 0.0000000000000E+00
 0.0000000000000E+00
 0.0000000000000E+00
 0.0000000000000E+00
 0.0000000000000E+00
 0.0000000000000E+00
 0.0000000000000E+00
 0.0000000000000E+00
 0.0000000000000E+00
 0.0000000000000E+00
 0.0000000000000E+00
 0.0000000000000E+00
 0.0000000000000E+00
 0.0000000000000E+00
 0.0000000000000E+00
 0.0000000000000E+00
 0.0000000000000E+00
 0.0000000000000E+00
 0.0000000000000E+00
 0.0000000000000E+00
 0.0000000000000E+00
 0.0000000000000E+00
 0.0000000000000E+00
 0.0000000000000E+00
 0.0000000000000E+00
 0.0000000000000E+00
 0.0000000000000E+00
 0.0000000000000E+00
 0.0000000000000E+00
 0.0000000000000E+00
 0.0000000000000E+00
 0.0000000000000E+00
 0.0000000000000E+00
 0.0000000000000E+00
 0.0000000000000E+00
 0.0000000000000E+00
 0.0000000000000E+00
 0.0000000000000E+00
 0.0000000000000E+00
 0.0000000000000E+00
 0.0000000000000E+00
 0.0000000000000E+00
 0.0000000000000E+00
 0.0000000000000E+00
 0.0000000000000E+00
 0.0000000000000E+00
 0.0000000000000E+00
 0.0000000000000E+00
 0.0000000000000E+00
 0.0000000000000E+00
 0.0000000000000E+00
 0.0000000000000E+00
 0.0000000000000E+00
 0.0000000000000E+00
 0.0000000000000E+00
 0.0000000000000E+00
 0.0000000000000E+00
 0.0000000000000E+00
 0.0000000000000E+00
 0.0000000000000E+00
 0.0000000000000E+00
 0.0000000000000E+00
 0.0000000000000E+00
 0.0000000000000E+00
 0.0000000000000E+00
 0.0000000000000E+00
 0.0000000000000E+00
 0.0000000000000E+00
 0.0000000000000E+00
 0.0000000000000E+00
 0.0000000000000E+00
 0.0000000000000E+00
 0.0000000000000E+00
 0.0000000000000E+00
 0.0000000000000E+00
 0.0000000000000E+00
 0.0000000000000E+00
 0.0000000000000E+00
 0.0000000000000E+00
 0.0000000000000E+00
 0.0000000000000E+00
 0.0000000000000E+00
 0.0000000000000E+00
 0.0000000000000E+00
 0.0000000000000E+00
 0.0000000000000E+00
 0.0000000000000E+00
 0.0000000000000E+00
 0.0000000000000E+00
 0.0000000000000E+00
 0.0000000000000E+00
 0.0000000000000E+00
 0.0000000000000E+00
 0.0000000000000E+00
 0.0000000000000E+00
 0.0000000000000E+00
 0.0000000000000E+00
 0.0000000000000E+00
 0.0000000000000E+00
 0.0000000000000E+00
 0.0000000000000E+00
 0.0000000000000E+00
 0.0000000000000E+00
 0.0000000000000E+00
 0.0000000000000E+00
 0.0000000000000E+00
 0.0000000000000E+00
 0.0000000000000E+00
 0.0000000000000E+00
 0.0000000000000E+00
 0.0000000000000E+00
 0.0000000000000E+00
 0.0000000000000E+00
 0.0000000000000E+00
 0.0000000000000E+00
 0.0000000000000E+00
 0.0000000000000E+00
 0.0000000000000E+00
 0.0000000000000E+00
 0.0000000000000E+00
 0.0000000000000E+00
 0.0000000000000E+00
 0.0000000000000E+00
 0.0000000000000E+00
 0.0000000000000E+00
 0.0000000000000E+00
 0.0000000000000E+00
 0.0000000000000E+00
 0.0000000000000E+00
 0.0000000000000E+00
 0.0000000000000E+00
 0.0000000000000E+00
 0.0000000000000E+00
 0.0000000000000E+00
 0.0000000000000E+00
 0.0000000000000E+00
 0.0000000000000E+00
 0.0000000000000E+00
 0.0000000000000E+00
 0.0000000000000E+00
 0.0000000000000E+00
 0.0000000000000E+00
 0.0000000000000E+00
 0.0000000000000E+00
 0.0000000000000E+00
 0.0000000000000E+00
 0.0000000000000E+00
 0.0000000000000E+00
 0.0000000000000E+00
 0.0000000000000E+00
 0.0000000000000E+00
 0.0000000000000E+00
 0.0000000000000E+00
 0.0000000000000E+00
 0.0000000000000E+00
 0.0000000000000E+00
 0.0000000000000E+00
 0.0000000000000E+00
 0.0000000000000E+00
 0.0000000000000E+00
 0.0000000000000E+00
 0.0000000000000E+00
 0.0000000000000E+00
 0.0000000000000E+00
 0.0000000000000E+00
 0.0000000000000E+00
 0.0000000000000E+00
 0.0000000000000E+00
 0.0000000000000E+00
 0.0000000000000E+00
 0.0000000000000E+00
 0.0000000000000E+00
 0.0000000000000E+00
 0.0000000000000E+00
 0.0000000000000E+00
 0.0000000000000E+00
 0.0000000000000E+00
 0.0000000000000E+00
 0.0000000000000E+00
 0.0000000000000E+00
 0.0000000000000E+00
 0.0000000000000E+00
 0.0000000000000E+00
 0.0000000000000E+00
 0.0000000000000E+00
 0.0000000000000E+00
 0.0000000000000E+00
 0.0000000000000E+00
 0.0000000000000E+00
 0.0000000000000E+00
 0.0000000000000E+00
 0.0000000000000E+00
 0.0000000000000E+00
 0.0000000000000E+00
 0.0000000000000E+00
 0.0000000000000E+00
 0.0000000000000E+00
 0.0000000000000E+00
 0.0000000000000E+00
 0.0000000000000E+00
 0.0000000000000E+00
 0.0000000000000E+00
 0.0000000000000E+00
 0.0000000000000E+00
 0.0000000000000E+00
 0.0000000000000E+00
 0.0000000000000E+00
 0.0000000000000E+00
 0.0000000000000E+00
 0.0000000000000E+00
 0.0000000000000E+00
 0.0000000000000E+00
 0.0000000000000E+00
 0.0000000000000E+00
 0.0000000000000E+00
 0.0000000000000E+00
 0.0000000000000E+00
 0.0000000000000E+00
 0.0000000000000E+00
 0.0000000000000E+00
 0.0000000000000E+00
 0.0000000000000E+00
 0.0000000000000E+00
 0.0000000000000E+00
 0.0000000000000E+00
 0.0000000000000E+00
 0.0000000000000E+00
 0.0000000000000E+00
 0.0000000000000E+00
 0.0000000000000E+00
 0.0000000000000E+00
 0.0000000000000E+00
 0.0000000000000E+00
 0.0000000000000E+00
 0.0000000000000E+00
 0.0000000000000E+00
 0.0000000000000E+00
 0.0000000000000E+00
 0.0000000000000E+00
 0.0000000000000E+00
 0.0000000000000E+00
 0.0000000000000E+00
 0.0000000000000E+00
 0.0000000000000E+00
 0.0000000000000E+00
 0.0000000000000E+00
 0.0000000000000E+00
 0.0000000000000E+00
 0.0000000000000E+00
 0.0000000000000E+00
 0.0000000000000E+00
 0.0000000000000E+00
 0.0000000000000E+00
 0.0000000000000E+00
 0.0000000000000E+00
 0.0000000000000E+00
 0.0000000000000E+00
 0.0000000000000E+00
 0.0000000000000E+00
 0.0000000000000E+00
 0.0000000000000E+00
 0.0000000000000E+00
 0.0000000000000E+00
 0.0000000000000E+00
 0.0000000000000E+00
 0.0000000000000E+00
 0.0000000000000E+00
 0.0000000000000E+00
 0.0000000000000E+00
 0.0000000000000E+00
 0.0000000000000E+00
 0.0000000000000E+00
 0.0000000000000E+00
 0.0000000000000E+00
 0.0000000000000E+00
 0.0000000000000E+00
 0.0000000000000E+00
 0.0000000000000E+00
 0.0000000000000E+00
 0.0000000000000E+00
 0.0000000000000E+00
 0.0000000000000E+00
 0.0000000000000E+00
 0.0000000000000E+00
 0.0000000000000E+00
 0.0000000000000E+00
 0.0000000000000E+00
 0.0000000000000E+00
 0.0000000000000E+00
 0.0000000000000E+00
 0.0000000000000E+00
 0.0000000000000E+00
 0.0000000000000E+00
 0.0000000000000E+00
 0.0000000000000E+00
 0.0000000000000E+00
 0.0000000000000E+00
 0.0000000000000E+00
 0.0000000000000E+00
 0.0000000000000E+00
 0.0000000000000E+00
 0.0000000000000E+00
 0.0000000000000E+00
 0.0000000000000E+00
 0.0000000000000E+00
 0.0000000000000E+00
 0.0000000000000E+00
 0.0000000000000E+00
 0.0000000000000E+00
 0.0000000000000E+00
 0.0000000000000E+00
 0.0000000000000E+00
 0.0000000000000E+00
 0.0000000000000E+00
 0.0000000000000E+00
 0.0000000000000E+00
 0.0000000000000E+00
 0.0000000000000E+00
 0.0000000000000E+00
 0.0000000000000E+00
 0.0000000000000E+00
 0.0000000000000E+00
 0.0000000000000E+00
 0.0000000000000E+00
 0.0000000000000E+00
 0.0000000000000E+00
 0.0000000000000E+00
 0.0000000000000E+00
 0.0000000000000E+00
 0.0000000000000E+00
 0.0000000000000E+00
 0.0000000000000E+00
 0.0000000000000E+00
 0.0000000000000E+00
 0.0000000000000E+00
 0.0000000000000E+00
 0.0000000000000E+00
 0.0000000000000E+00
 0.0000000000000E+00
 0.0000000000000E+00
 0.0000000000000E+00
 0.0000000000000E+00
 0.0000000000000E+00
 0.0000000000000E+00
 0.0000000000000E+00
 0.0000000000000E+00
 0.0000000000000E+00
 0.0000000000000E+00
 0.0000000000000E+00
 0.0000000000000E+00
 0.0000000000000E+00
 0.0000000000000E+00
 0.0000000000000E+00
 0.0000000000000E+00
 0.0000000000000E+00
 0.0000000000000E+00
 0.0000000000000E+00
 0.0000000000000E+00
 0.0000000000000E+00
 0.0000000000000E+00
 0.0000000000000E+00
 0.0000000000000E+00
 0.0000000000000E+00
 0.0000000000000E+00
 0.0000000000000E+00
 0.0000000000000E+00
 0.0000000000000E+00
 0.0000000000000E+00
 0.0000000000000E+00
 0.0000000000000E+00
 0.0000000000000E+00
 0.0000000000000E+00
 0.0000000000000E+00
 0.0000000000000E+00
 0.0000000000000E+00
 0.0000000000000E+00
 0.0000000000000E+00
 0.0000000000000E+00
 0.0000000000000E+00
 0.0000000000000E+00
 0.0000000000000E+00
 0.0000000000000E+00
 0.0000000000000E+00
 0.0000000000000E+00
 0.0000000000000E+00
 0.0000000000000E+00
 0.0000000000000E+00
 0.0000000000000E+00
 0.0000000000000E+00
 0.0000000000000E+00
 0.0000000000000E+00
 0.0000000000000E+00
 0.0000000000000E+00
 0.0000000000000E+00
 0.0000000000000E+00
 0.0000000000000E+00
 0.0000000000000E+00
 0.0000000000000E+00
 0.0000000000000E+00
 0.0000000000000E+00
 0.0000000000000E+00
 0.0000000000000E+00
 0.0000000000000E+00
 0.0000000000000E+00
 0.0000000000000E+00
 0.0000000000000E+00
 0.0000000000000E+00
 0.0000000000000E+00
 0.0000000000000E+00
 0.0000000000000E+00
 0.0000000000000E+00
 0.0000000000000E+00
 0.0000000000000E+00
 0.0000000000000E+00
 0.0000000000000E+00
 0.0000000000000E+00
 0.0000000000000E+00
 0.0000000000000E+00
 0.0000000000000E+00
 0.0000000000000E+00
 0.0000000000000E+00
 0.0000000000000E+00
 0.0000000000000E+00
 0.0000000000000E+00
 0.0000000000000E+00
 0.0000000000000E+00
 0.0000000000000E+00
 0.0000000000000E+00
 0.0000000000000E+00
 0.0000000000000E+00
 0.0000000000000E+00
 0.0000000000000E+00
 0.0000000000000E+00
 0.0000000000000E+00
 0.0000000000000E+00
 0.0000000000000E+00
 0.0000000000000E+00
 0.0000000000000E+00
 0.0000000000000E+00
 0.0000000000000E+00
 0.0000000000000E+00
 0.0000000000000E+00
 0.0000000000000E+00
 0.0000000000000E+00
 0.0000000000000E+00
 0.0000000000000E+00
 0.0000000000000E+00
 0.0000000000000E+00
 0.0000000000000E+00
 0.0000000000000E+00
 0.0000000000000E+00
 0.0000000000000E+00
 0.0000000000000E+00
 0.0000000000000E+00
 0.0000000000000E+00
 0.0000000000000E+00
 0.0000000000000E+00
 0.0000000000000E+00
 0.0000000000000E+00
 0.0000000000000E+00
 0.0000000000000E+00
 0.0000000000000E+00
 0.0000000000000E+00
 0.0000000000000E+00
 0.0000000000000E+00
 0.0000000000000E+00
 0.0000000000000E+00
 0.0000000000000E+00
 0.0000000000000E+00
 0.0000000000000E+00
 0.0000000000000E+00
 0.0000000000000E+00
 0.0000000000000E+00
 0.0000000000000E+00
 0.0000000000000E+00
 0.0000000000000E+00
 0.0000000000000E+00
 0.0000000000000E+00
 0.0000000000000E+00
 0.0000000000000E+00
 0.0000000000000E+00
 0.0000000000000E+00
 0.0000000000000E+00
 0.0000000000000E+00
 0.0000000000000E+00
 0.0000000000000E+00
 0.0000000000000E+00
 0.0000000000000E+00
 0.0000000000000E+00
 0.0000000000000E+00
 0.0000000000000E+00
 0.0000000000000E+00
 0.0000000000000E+00
 0.0000000000000E+00
 0.0000000000000E+00
 0.0000000000000E+00
 0.0000000000000E+00
 0.0000000000000E+00
 0.0000000000000E+00
 0.0000000000000E+00
 0.0000000000000E+00
 0.0000000000000E+00
 0.0000000000000E+00
 0.0000000000000E+00
 0.0000000000000E+00
 0.0000000000000E+00
 0.0000000000000E+00
 0.0000000000000E+00
 0.0000000000000E+00
 0.0000000000000E+00
 0.0000000000000E+00
 0.0000000000000E+00
 0.0000000000000E+00
 0.0000000000000E+00
 0.0000000000000E+00
 0.0000000000000E+00
 0.0000000000000E+00
 0.0000000000000E+00
 0.0000000000000E+00
 0.0000000000000E+00
 0.0000000000000E+00
 0.0000000000000E+00
 0.0000000000000E+00
 0.0000000000000E+00
 0.0000000000000E+00
 0.0000000000000E+00
 0.0000000000000E+00
 0.0000000000000E+00
 0.0000000000000E+00
 0.0000000000000E+00
 0.0000000000000E+00
 0.0000000000000E+00
 0.0000000000000E+00
 0.0000000000000E+00
 0.0000000000000E+00
 0.0000000000000E+00
 0.0000000000000E+00
 0.0000000000000E+00
 0.0000000000000E+00
 0.0000000000000E+00
 0.0000000000000E+00
 0.0000000000000E+00
 0.0000000000000E+00
 0.0000000000000E+00
 0.0000000000000E+00
 0.0000000000000E+00
 0.0000000000000E+00
 0.0000000000000E+00
 0.0000000000000E+00
 0.0000000000000E+00
 0.0000000000000E+00
 0.0000000000000E+00
 0.0000000000000E+00
 0.0000000000000E+00
 0.0000000000000E+00
 0.0000000000000E+00
 0.0000000000000E+00
 0.0000000000000E+00
 0.0000000000000E+00
 0.0000000000000E+00
 0.0000000000000E+00
 0.0000000000000E+00
 0.0000000000000E+00
 0.0000000000000E+00
 0.0000000000000E+00
 0.0000000000000E+00
 0.0000000000000E+00
 0.0000000000000E+00
 0.0000000000000E+00
 0.0000000000000E+00
 0.0000000000000E+00
 0.0000000000000E+00
 0.0000000000000E+00
 0.0000000000000E+00
 0.0000000000000E+00
 0.0000000000000E+00
 0.0000000000000E+00
 0.0000000000000E+00
 0.0000000000000E+00
 0.0000000000000E+00
 0.0000000000000E+00
 0.0000000000000E+00
 0.0000000000000E+00
 0.0000000000000E+00
 0.0000000000000E+00
 0.0000000000000E+00
 0.0000000000000E+00
 0.0000000000000E+00
 0.0000000000000E+00
 0.0000000000000E+00
 0.0000000000000E+00
 0.0000000000000E+00
 0.0000000000000E+00
 0.0000000000000E+00
 0.0000000000000E+00
 0.0000000000000E+00
 0.0000000000000E+00
 0.0000000000000E+00
 0.0000000000000E+00
 0.0000000000000E+00
 0.0000000000000E+00
 0.0000000000000E+00
 0.0000000000000E+00
 0.0000000000000E+00
 0.0000000000000E+00
 0.0000000000000E+00
 0.0000000000000E+00
 0.0000000000000E+00
 0.0000000000000E+00
 0.0000000000000E+00
 0.0000000000000E+00
 0.0000000000000E+00
 0.0000000000000E+00
 0.0000000000000E+00
 0.0000000000000E+00
 0.0000000000000E+00
 0.0000000000000E+00
 0.0000000000000E+00
 0.0000000000000E+00
 0.0000000000000E+00
 0.0000000000000E+00
 0.0000000000000E+00
 0.0000000000000E+00
 0.0000000000000E+00
 0.0000000000000E+00
 0.0000000000000E+00
 0.0000000000000E+00
 0.0000000000000E+00
 0.0000000000000E+00
 0.0000000000000E+00
 0.0000000000000E+00
 0.0000000000000E+00
 0.0000000000000E+00
 0.0000000000000E+00
 0.0000000000000E+00
 0.0000000000000E+00
 0.0000000000000E+00
 0.0000000000000E+00
 0.0000000000000E+00
 0.0000000000000E+00
 0.0000000000000E+00
 0.0000000000000E+00
 0.0000000000000E+00
 0.0000000000000E+00
 0.0000000000000E+00
 0.0000000000000E+00
 0.0000000000000E+00
 0.0000000000000E+00
 0.0000000000000E+00
 0.0000000000000E+00
 0.0000000000000E+00
 0.0000000000000E+00
 0.0000000000000E+00
 0.0000000000000E+00
 0.0000000000000E+00
 0.0000000000000E+00
 0.0000000000000E+00
 0.0000000000000E+00
 0.0000000000000E+00
 0.0000000000000E+00
 0.0000000000000E+00
 0.0000000000000E+00
 0.0000000000000E+00
 0.0000000000000E+00
 0.0000000000000E+00
 0.0000000000000E+00
 0.0000000000000E+00
 0.0000000000000E+00
 0.0000000000000E+00
 0.0000000000000E+00
 0.0000000000000E+00
 0.0000000000000E+00
 0.0000000000000E+00
 0.0000000000000E+00
 0.0000000000000E+00
 0.0000000000000E+00
 0.0000000000000E+00
 0.0000000000000E+00
 0.0000000000000E+00
 0.0000000000000E+00
 0.0000000000000E+00
 0.0000000000000E+00
 0.0000000000000E+00
 0.0000000000000E+00
 0.0000000000000E+00
 0.0000000000000E+00
 0.0000000000000E+00
 0.0000000000000E+00
 0.0000000000000E+00
 0.0000000000000E+00
 0.0000000000000E+00
 0.0000000000000E+00
 0.0000000000000E+00
 0.0000000000000E+00
 0.0000000000000E+00
 0.0000000000000E+00
 0.0000000000000E+00
 0.0000000000000E+00
 0.0000000000000E+00
 0.0000000000000E+00
 0.0000000000000E+00
 0.0000000000000E+00
 0.0000000000000E+00
 0.0000000000000E+00
 0.0000000000000E+00
 0.0000000000000E+00
 0.0000000000000E+00
 0.0000000000000E+00
 0.0000000000000E+00
 0.0000000000000E+00
 0.0000000000000E+00
 0.0000000000000E+00
 0.0000000000000E+00
 0.0000000000000E+00
 0.0000000000000E+00
 0.0000000000000E+00
 0.0000000000000E+00
 0.0000000000000E+00
 0.0000000000000E+00
 0.0000000000000E+00
 0.0000000000000E+00
 0.0000000000000E+00
 0.0000000000000E+00
 0.0000000000000E+00
 0.0000000000000E+00
 0.0000000000000E+00
 0.0000000000000E+00
 0.0000000000000E+00
 0.0000000000000E+00
 0.0000000000000E+00
 0.0000000000000E+00
 0.0000000000000E+00
 0.0000000000000E+00
 0.0000000000000E+00
 0.0000000000000E+00
 0.0000000000000E+00
 0.0000000000000E+00
 0.0000000000000E+00
 0.0000000000000E+00
 0.0000000000000E+00
 0.0000000000000E+00
 0.0000000000000E+00
 0.0000000000000E+00
 0.0000000000000E+00
 0.0000000000000E+00
 0.0000000000000E+00
 0.0000000000000E+00
 0.0000000000000E+00
 0.0000000000000E+00
 0.0000000000000E+00
 0.0000000000000E+00
 0.0000000000000E+00
 0.0000000000000E+00
 0.0000000000000E+00
 0.0000000000000E+00
 0.0000000000000E+00
 0.0000000000000E+00
 0.0000000000000E+00
 0.0000000000000E+00
 0.0000000000000E+00
 0.0000000000000E+00
 0.0000000000000E+00
 0.0000000000000E+00
 0.0000000000000E+00
 0.0000000000000E+00
 0.0000000000000E+00
 0.0000000000000E+00
 0.0000000000000E+00
 0.0000000000000E+00
 0.0000000000000E+00
 0.0000000000000E+00
 0.0000000000000E+00
 0.0000000000000E+00
 0.0000000000000E+00
 0.0000000000000E+00
 0.0000000000000E+00
 0.0000000000000E+00
 0.0000000000000E+00
 0.0000000000000E+00
 0.0000000000000E+00
 0.0000000000000E+00
 0.0000000000000E+00
 0.0000000000000E+00
 0.0000000000000E+00
 0.0000000000000E+00
 0.0000000000000E+00
 0.0000000000000E+00
 0.0000000000000E+00
 0.0000000000000E+00
 0.0000000000000E+00
 0.0000000000000E+00
 0.0000000000000E+00
 0.0000000000000E+00
 0.0000000000000E+00
 0.0000000000000E+00
 0.0000000000000E+00
 0.0000000000000E+00
 0.0000000000000E+00
 0.0000000000000E+00
 0.0000000000000E+00
 0.0000000000000E+00
 0.0000000000000E+00
 0.0000000000000E+00
 0.0000000000000E+00
 0.0000000000000E+00
 0.0000000000000E+00
 0.0000000000000E+00
 0.0000000000000E+00
 0.0000000000000E+00
 0.0000000000000E+00
 0.0000000000000E+00
 0.0000000000000E+00
 0.0000000000000E+00
 0.0000000000000E+00
 0.0000000000000E+00
 0.0000000000000E+00
 0.0000000000000E+00
 0.0000000000000E+00
 0.0000000000000E+00
 0.0000000000000E+00
 0.0000000000000E+00
 0.0000000000000E+00
 0.0000000000000E+00
 0.0000000000000E+00
 0.0000000000000E+00
 0.0000000000000E+00
 0.0000000000000E+00
 0.0000000000000E+00
 0.0000000000000E+00
 0.0000000000000E+00
 0.0000000000000E+00
 0.0000000000000E+00
 0.0000000000000E+00
 0.0000000000000E+00
 0.0000000000000E+00
 0.0000000000000E+00
 0.0000000000000E+00
 0.0000000000000E+00
 0.0000000000000E+00
 0.0000000000000E+00
 0.0000000000000E+00
 0.0000000000000E+00
 0.0000000000000E+00
 0.0000000000000E+00
 0.0000000000000E+00
 0.0000000000000E+00
 0.0000000000000E+00
 0.0000000000000E+00
 0.0000000000000E+00
 0.0000000000000E+00
 0.0000000000000E+00
 0.0000000000000E+00
 0.0000000000000E+00
 0.0000000000000E+00
 0.0000000000000E+00
 0.0000000000000E+00
 0.0000000000000E+00
 0.0000000000000E+00
 0.0000000000000E+00
 0.0000000000000E+00
 0.0000000000000E+00
 0.0000000000000E+00
 0.0000000000000E+00
 0.0000000000000E+00
 0.0000000000000E+00
 0.0000000000000E+00
 0.0000000000000E+00
 0.0000000000000E+00
 0.0000000000000E+00
 0.0000000000000E+00
 0.0000000000000E+00
 0.0000000000000E+00
 0.0000000000000E+00
 0.0000000000000E+00
 0.0000000000000E+00
 0.0000000000000E+00
 0.0000000000000E+00
 0.0000000000000E+00
 0.0000000000000E+00
 0.0000000000000E+00
 0.0000000000000E+00
 0.0000000000000E+00
 0.0000000000000E+00
 0.0000000000000E+00
 0.0000000000000E+00
 0.0000000000000E+00
 0.0000000000000E+00
 0.0000000000000E+00
 0.0000000000000E+00
 0.0000000000000E+00
 0.0000000000000E+00
 0.0000000000000E+00
 0.0000000000000E+00
 0.0000000000000E+00
 0.0000000000000E+00
 0.0000000000000E+00
 0.0000000000000E+00
 0.0000000000000E+00
 0.0000000000000E+00
 0.0000000000000E+00
 0.0000000000000E+00
 0.0000000000000E+00
 0.0000000000000E+00
 0.0000000000000E+00
 0.0000000000000E+00
 0.0000000000000E+00
 0.0000000000000E+00
 0.0000000000000E+00
 0.0000000000000E+00
 0.0000000000000E+00
 0.0000000000000E+00
 0.0000000000000E+00
 0.0000000000000E+00
 0.0000000000000E+00
 0.0000000000000E+00
 0.0000000000000E+00
 0.0000000000000E+00
 0.0000000000000E+00
 0.0000000000000E+00
 0.0000000000000E+00
 0.0000000000000E+00
 0.0000000000000E+00
 0.0000000000000E+00
 0.0000000000000E+00
 0.0000000000000E+00
 0.0000000000000E+00
 0.0000000000000E+00
 0.0000000000000E+00
 0.0000000000000E+00
 0.0000000000000E+00
 0.0000000000000E+00
 0.0000000000000E+00
 0.0000000000000E+00
 0.0000000000000E+00
 0.0000000000000E+00
 0.0000000000000E+00
 0.0000000000000E+00
 0.0000000000000E+00
 0.0000000000000E+00
 0.0000000000000E+00
 0.0000000000000E+00
 0.0000000000000E+00
 0.0000000000000E+00
 0.0000000000000E+00
 0.0000000000000E+00
 0.0000000000000E+00
 0.0000000000000E+00
 0.0000000000000E+00
 0.0000000000000E+00
 0.0000000000000E+00
 0.0000000000000E+00
 0.0000000000000E+00
 0.0000000000000E+00
 0.0000000000000E+00
 0.0000000000000E+00
 0.0000000000000E+00
 0.0000000000000E+00
 0.0000000000000E+00
 0.0000000000000E+00
 0.0000000000000E+00
 0.0000000000000E+00
 0.0000000000000E+00
 0.0000000000000E+00
 0.0000000000000E+00
 0.0000000000000E+00
 0.0000000000000E+00
 0.0000000000000E+00
 0.0000000000000E+00
 0.0000000000000E+00
 0.0000000000000E+00
 0.0000000000000E+00
 0.0000000000000E+00
 0.0000000000000E+00
 0.0000000000000E+00
 0.0000000000000E+00
 0.0000000000000E+00
 0.0000000000000E+00
 0.0000000000000E+00
 0.0000000000000E+00
 0.0000000000000E+00
 0.0000000000000E+00
 0.0000000000000E+00
 0.0000000000000E+00
 0.0000000000000E+00
 0.0000000000000E+00
 0.0000000000000E+00
 0.0000000000000E+00
 0.0000000000000E+00
 0.0000000000000E+00
 0.0000000000000E+00
 0.0000000000000E+00
 0.0000000000000E+00
 0.0000000000000E+00
 0.0000000000000E+00
 0.0000000000000E+00
 0.0000000000000E+00
 0.0000000000000E+00
 0.0000000000000E+00
 0.0000000000000E+00
 0.0000000000000E+00
 0.0000000000000E+00
 0.0000000000000E+00
 0.0000000000000E+00
 0.0000000000000E+00
 0.0000000000000E+00
 0.0000000000000E+00
 0.0000000000000E+00
 0.0000000000000E+00
 0.0000000000000E+00
 0.0000000000000E+00
 0.0000000000000E+00
 0.0000000000000E+00
 0.0000000000000E+00
 0.0000000000000E+00
 0.0000000000000E+00
 0.0000000000000E+00
 0.0000000000000E+00
 0.0000000000000E+00
 0.0000000000000E+00
 0.0000000000000E+00
 0.0000000000000E+00
 0.0000000000000E+00
 0.0000000000000E+00
 0.0000000000000E+00
 0.0000000000000E+00
 0.0000000000000E+00
 0.0000000000000E+00
 0.0000000000000E+00
 0.0000000000000E+00
 0.0000000000000E+00
 0.0000000000000E+00
 0.0000000000000E+00
 0.0000000000000E+00
 0.0000000000000E+00
 0.0000000000000E+00
 0.0000000000000E+00
 0.0000000000000E+00
 0.0000000000000E+00
 0.0000000000000E+00
 0.0000000000000E+00
 0.0000000000000E+00
 0.0000000000000E+00
 0.0000000000000E+00
 0.0000000000000E+00
 0.0000000000000E+00
 0.0000000000000E+00
 0.0000000000000E+00
 0.0000000000000E+00
 0.0000000000000E+00
 0.0000000000000E+00
 0.0000000000000E+00
 0.0000000000000E+00
 0.0000000000000E+00
 0.0000000000000E+00
 0.0000000000000E+00
 0.0000000000000E+00
 0.0000000000000E+00
 0.0000000000000E+00
 0.0000000000000E+00
 0.0000000000000E+00
 0.0000000000000E+00
 0.0000000000000E+00
 0.0000000000000E+00
 0.0000000000000E+00
 0.0000000000000E+00
 0.0000000000000E+00
 0.0000000000000E+00
 0.0000000000000E+00
 0.0000000000000E+00
 0.0000000000000E+00
 0.0000000000000E+00
 0.0000000000000E+00
 0.0000000000000E+00
 0.0000000000000E+00
 0.0000000000000E+00
 0.0000000000000E+00
 0.0000000000000E+00
 0.0000000000000E+00
 0.0000000000000E+00
 0.0000000000000E+00
 0.0000000000000E+00
 0.0000000000000E+00
 0.0000000000000E+00
 0.0000000000000E+00
 0.0000000000000E+00
 0.0000000000000E+00
 0.0000000000000E+00
 0.0000000000000E+00
 0.0000000000000E+00
 0.0000000000000E+00
 0.0000000000000E+00
 0.0000000000000E+00
 0.0000000000000E+00
 0.0000000000000E+00
 0.0000000000000E+00
 0.0000000000000E+00
 0.0000000000000E+00
 0.0000000000000E+00
 0.0000000000000E+00
 0.0000000000000E+00
 0.0000000000000E+00
 0.0000000000000E+00
 0.0000000000000E+00
 0.0000000000000E+00
 0.0000000000000E+00
 0.0000000000000E+00
 0.0000000000000E+00
 0.0000000000000E+00
 0.0000000000000E+00
 0.0000000000000E+00
 0.0000000000000E+00
 0.0000000000000E+00
 0.0000000000000E+00
 0.0000000000000E+00
 0.0000000000000E+00
 0.0000000000000E+00
 0.0000000000000E+00
 0.0000000000000E+00
 0.0000000000000E+00
 0.0000000000000E+00
 0.0000000000000E+00
 0.0000000000000E+00
 0.0000000000000E+00
 0.0000000000000E+00
 0.0000000000000E+00
 0.0000000000000E+00
 0.0000000000000E+00
 0.0000000000000E+00
 0.0000000000000E+00
 0.0000000000000E+00
 0.0000000000000E+00
 0.0000000000000E+00
 0.0000000000000E+00
 0.0000000000000E+00
 0.0000000000000E+00
 0.0000000000000E+00
 0.0000000000000E+00
 0.0000000000000E+00
 0.0000000000000E+00
 0.0000000000000E+00
 0.0000000000000E+00
 0.0000000000000E+00
 0.0000000000000E+00
 0.0000000000000E+00
 0.0000000000000E+00
 0.0000000000000E+00
 0.0000000000000E+00
 0.0000000000000E+00
 0.0000000000000E+00
 0.0000000000000E+00
 0.0000000000000E+00
 0.0000000000000E+00
 0.0000000000000E+00
 0.0000000000000E+00
 0.0000000000000E+00
 0.0000000000000E+00
 0.0000000000000E+00
 0.0000000000000E+00
 0.0000000000000E+00
 0.0000000000000E+00
 0.0000000000000E+00
 0.0000000000000E+00
 0.0000000000000E+00
 0.0000000000000E+00
 0.0000000000000E+00
 0.0000000000000E+00
 0.0000000000000E+00
 0.0000000000000E+00
 0.0000000000000E+00
 0.0000000000000E+00
 0.0000000000000E+00
 0.0000000000000E+00
 0.0000000000000E+00
 0.0000000000000E+00
 0.0000000000000E+00
 0.0000000000000E+00
 0.0000000000000E+00
 0.0000000000000E+00
 0.0000000000000E+00
 0.0000000000000E+00
 0.0000000000000E+00
 0.0000000000000E+00
 0.0000000000000E+00
 0.0000000000000E+00
 0.0000000000000E+00
 0.0000000000000E+00
 0.0000000000000E+00
 0.0000000000000E+00
 0.0000000000000E+00
 0.0000000000000E+00
 0.0000000000000E+00
 0.0000000000000E+00
 0.0000000000000E+00
 0.0000000000000E+00
 0.0000000000000E+00
 0.0000000000000E+00
 0.0000000000000E+00
 0.0000000000000E+00
 0.0000000000000E+00
 0.0000000000000E+00
 0.0000000000000E+00
 0.0000000000000E+00
 0.0000000000000E+00
 0.0000000000000E+00
 0.0000000000000E+00
 0.0000000000000E+00
 0.0000000000000E+00
 0.0000000000000E+00
 0.0000000000000E+00
 0.0000000000000E+00
 0.0000000000000E+00
 0.0000000000000E+00
 0.0000000000000E+00
 0.0000000000000E+00
 0.0000000000000E+00
 0.0000000000000E+00
 0.0000000000000E+00
 0.0000000000000E+00
 0.0000000000000E+00
 0.0000000000000E+00
 0.0000000000000E+00
 0.0000000000000E+00
 0.0000000000000E+00
 0.0000000000000E+00
 0.0000000000000E+00
 0.0000000000000E+00
 0.0000000000000E+00
 0.0000000000000E+00
 0.0000000000000E+00
 0.0000000000000E+00
 0.0000000000000E+00
 0.0000000000000E+00
 0.0000000000000E+00
 0.0000000000000E+00
 0.0000000000000E+00
 0.0000000000000E+00
 0.0000000000000E+00
 0.0000000000000E+00
 0.0000000000000E+00
 0.0000000000000E+00
 0.0000000000000E+00
 0.0000000000000E+00
 0.0000000000000E+00
 0.0000000000000E+00
 0.0000000000000E+00
 0.0000000000000E+00
 0.0000000000000E+00
 0.0000000000000E+00
 0.0000000000000E+00
 0.0000000000000E+00
 0.0000000000000E+00
 0.0000000000000E+00
 0.0000000000000E+00
 0.0000000000000E+00
 0.0000000000000E+00
 0.0000000000000E+00
 0.0000000000000E+00
 0.0000000000000E+00
 0.0000000000000E+00
 0.0000000000000E+00
 0.0000000000000E+00
 0.0000000000000E+00
 0.0000000000000E+00
 0.0000000000000E+00
 0.0000000000000E+00
 0.0000000000000E+00
 0.0000000000000E+00
 0.0000000000000E+00
 0.0000000000000E+00
 0.0000000000000E+00
 0.0000000000000E+00
 0.0000000000000E+00
 0.0000000000000E+00
 0.0000000000000E+00
 0.0000000000000E+00
 0.0000000000000E+00
 0.0000000000000E+00
 0.0000000000000E+00
 0.0000000000000E+00
 0.0000000000000E+00
 0.0000000000000E+00
 0.0000000000000E+00
 0.0000000000000E+00
 0.0000000000000E+00
 0.0000000000000E+00
 0.0000000000000E+00
 0.0000000000000E+00
 0.0000000000000E+00
 0.0000000000000E+00
 0.0000000000000E+00
 0.0000000000000E+00
 0.0000000000000E+00
 0.0000000000000E+00
 0.0000000000000E+00
 0.0000000000000E+00
 0.0000000000000E+00
 0.0000000000000E+00
 0.0000000000000E+00
 0.0000000000000E+00
 0.0000000000000E+00
 0.0000000000000E+00
 0.0000000000000E+00
 0.0000000000000E+00
 0.0000000000000E+00
 0.0000000000000E+00
 0.0000000000000E+00
 0.0000000000000E+00
 0.0000000000000E+00
 0.0000000000000E+00
 0.0000000000000E+00
 0.0000000000000E+00
 0.0000000000000E+00
 0.0000000000000E+00
 0.0000000000000E+00
 0.0000000000000E+00
 0.0000000000000E+00
 0.0000000000000E+00
 0.0000000000000E+00
 0.0000000000000E+00
 0.0000000000000E+00
 0.0000000000000E+00
 0.0000000000000E+00
 0.0000000000000E+00
 0.0000000000000E+00
 0.0000000000000E+00
 0.0000000000000E+00
 0.0000000000000E+00
 0.0000000000000E+00
 0.0000000000000E+00
 0.0000000000000E+00
 0.0000000000000E+00
 0.0000000000000E+00
 0.0000000000000E+00
 0.0000000000000E+00
 0.0000000000000E+00
 0.0000000000000E+00
 0.0000000000000E+00
 0.0000000000000E+00
 0.0000000000000E+00
 0.0000000000000E+00
 0.0000000000000E+00
 0.0000000000000E+00
 0.0000000000000E+00
 0.0000000000000E+00
 0.0000000000000E+00
 0.0000000000000E+00
 0.0000000000000E+00
 0.0000000000000E+00
 0.0000000000000E+00
 0.0000000000000E+00
 0.0000000000000E+00
 0.0000000000000E+00
 0.0000000000000E+00
 0.0000000000000E+00
 0.0000000000000E+00
 0.0000000000000E+00
 0.0000000000000E+00
 0.0000000000000E+00
 0.0000000000000E+00
 0.0000000000000E+00
 0.0000000000000E+00
 0.0000000000000E+00
 0.0000000000000E+00
 0.0000000000000E+00
 0.0000000000000E+00
 0.0000000000000E+00
 0.0000000000000E+00
 0.0000000000000E+00
 0.0000000000000E+00
 0.0000000000000E+00
 0.0000000000000E+00
 0.0000000000000E+00
 0.0000000000000E+00
 0.0000000000000E+00
 0.0000000000000E+00
 0.0000000000000E+00
 0.0000000000000E+00
 0.0000000000000E+00
 0.0000000000000E+00
 0.0000000000000E+00
 0.0000000000000E+00
 0.0000000000000E+00
 0.0000000000000E+00
 0.0000000000000E+00
 0.0000000000000E+00
 0.0000000000000E+00
 0.0000000000000E+00
 0.0000000000000E+00
 0.0000000000000E+00
 0.0000000000000E+00
 0.0000000000000E+00
 0.0000000000000E+00
 0.0000000000000E+00
 0.0000000000000E+00
 0.0000000000000E+00
 0.0000000000000E+00
 0.0000000000000E+00
 0.0000000000000E+00
 0.0000000000000E+00
 0.0000000000000E+00
 0.0000000000000E+00
 0.0000000000000E+00
 0.0000000000000E+00
 0.0000000000000E+00
 0.0000000000000E+00
 0.0000000000000E+00
 0.0000000000000E+00
 0.0000000000000E+00
 0.0000000000000E+00
 0.0000000000000E+00
 0.0000000000000E+00
 0.0000000000000E+00
 0.0000000000000E+00
 0.0000000000000E+00
 0.0000000000000E+00
 0.0000000000000E+00
 0.0000000000000E+00
 0.0000000000000E+00
 0.0000000000000E+00
 0.0000000000000E+00
 0.0000000000000E+00
 0.0000000000000E+00
 0.0000000000000E+00
 0.0000000000000E+00
 0.0000000000000E+00
 0.0000000000000E+00
 0.0000000000000E+00
 0.0000000000000E+00
 0.0000000000000E+00
 0.0000000000000E+00
 0.0000000000000E+00
 0.0000000000000E+00
 0.0000000000000E+00
 0.0000000000000E+00
 0.0000000000000E+00
 0.0000000000000E+00
 0.0000000000000E+00
 0.0000000000000E+00
 0.0000000000000E+00
 0.0000000000000E+00
 0.0000000000000E+00
 0.0000000000000E+00
 0.0000000000000E+00
 0.0000000000000E+00
 0.0000000000000E+00
 0.0000000000000E+00
 0.0000000000000E+00
 0.0000000000000E+00
 0.0000000000000E+00
 0.0000000000000E+00
 0.0000000000000E+00
 0.0000000000000E+00
 0.0000000000000E+00
 0.0000000000000E+00
 0.0000000000000E+00
 0.0000000000000E+00
 0.0000000000000E+00
 0.0000000000000E+00
 0.0000000000000E+00
 0.0000000000000E+00
 0.0000000000000E+00
 0.0000000000000E+00
 0.0000000000000E+00
 0.0000000000000E+00
 0.0000000000000E+00
 0.0000000000000E+00
 0.0000000000000E+00
 0.0000000000000E+00
 0.0000000000000E+00
 0.0000000000000E+00
 0.0000000000000E+00
 0.0000000000000E+00
 0.0000000000000E+00
 0.0000000000000E+00
 0.0000000000000E+00
 0.0000000000000E+00
 0.0000000000000E+00
 0.0000000000000E+00
 0.0000000000000E+00
 0.0000000000000E+00
 0.0000000000000E+00
 0.0000000000000E+00
 0.0000000000000E+00
 0.0000000000000E+00
 0.0000000000000E+00
 0.0000000000000E+00
 0.0000000000000E+00
 0.0000000000000E+00
 0.0000000000000E+00
 0.0000000000000E+00
 0.0000000000000E+00
 0.0000000000000E+00
 0.0000000000000E+00
 0.0000000000000E+00
 0.0000000000000E+00
 0.0000000000000E+00
 0.0000000000000E+00
 0.0000000000000E+00
 0.0000000000000E+00
 0.0000000000000E+00
 0.0000000000000E+00
 0.0000000000000E+00
 0.0000000000000E+00
 0.0000000000000E+00
 0.0000000000000E+00
 0.0000000000000E+00
 0.0000000000000E+00
 0.0000000000000E+00
 0.0000000000000E+00
 0.0000000000000E+00
 0.0000000000000E+00
 0.0000000000000E+00
 0.0000000000000E+00
 0.0000000000000E+00
 0.0000000000000E+00
 0.0000000000000E+00
 0.0000000000000E+00
 0.0000000000000E+00
 0.0000000000000E+00
 0.0000000000000E+00
 0.0000000000000E+00
 0.0000000000000E+00
 0.0000000000000E+00
 0.0000000000000E+00
 0.0000000000000E+00
 0.0000000000000E+00
 0.0000000000000E+00
 0.0000000000000E+00
 0.0000000000000E+00
 0.0000000000000E+00
 0.0000000000000E+00
 0.0000000000000E+00
 0.0000000000000E+00
 0.0000000000000E+00
 0.0000000000000E+00
 0.0000000000000E+00
 0.0000000000000E+00
 0.0000000000000E+00
 0.0000000000000E+00
 0.0000000000000E+00
 0.0000000000000E+00
 0.0000000000000E+00
 0.0000000000000E+00
 0.0000000000000E+00
 0.0000000000000E+00
 0.0000000000000E+00
 0.0000000000000E+00
 0.0000000000000E+00
 0.0000000000000E+00
 0.0000000000000E+00
 0.0000000000000E+00
 0.0000000000000E+00
 0.0000000000000E+00
 0.0000000000000E+00
 0.0000000000000E+00
 0.0000000000000E+00
 0.0000000000000E+00
 0.0000000000000E+00
 0.0000000000000E+00
 0.0000000000000E+00
 0.0000000000000E+00
 0.0000000000000E+00
 0.0000000000000E+00
 0.0000000000000E+00
 0.0000000000000E+00
 0.0000000000000E+00
 0.0000000000000E+00
 0.0000000000000E+00
 0.0000000000000E+00
 0.0000000000000E+00
 0.0000000000000E+00
 0.0000000000000E+00
 0.0000000000000E+00
 0.0000000000000E+00
 0.0000000000000E+00
 0.0000000000000E+00
 0.0000000000000E+00
 0.0000000000000E+00
 0.0000000000000E+00
 0.0000000000000E+00
 0.0000000000000E+00
 0.0000000000000E+00
 0.0000000000000E+00
 0.0000000000000E+00
 0.0000000000000E+00
 0.0000000000000E+00
 0.0000000000000E+00
 0.0000000000000E+00
 0.0000000000000E+00
 0.0000000000000E+00
 0.0000000000000E+00
 0.0000000000000E+00
 0.0000000000000E+00
 0.0000000000000E+00
 0.0000000000000E+00
 0.0000000000000E+00
 0.0000000000000E+00
 0.0000000000000E+00
 0.0000000000000E+00
 0.0000000000000E+00
 0.0000000000000E+00
 0.0000000000000E+00
 0.0000000000000E+00
 0.0000000000000E+00
 0.0000000000000E+00
 0.0000000000000E+00
 0.0000000000000E+00
 0.0000000000000E+00
 0.0000000000000E+00
 0.0000000000000E+00
 0.0000000000000E+00
 0.0000000000000E+00
 0.0000000000000E+00
 0.0000000000000E+00
 0.0000000000000E+00
 0.0000000000000E+00
 0.0000000000000E+00
 0.0000000000000E+00
 0.0000000000000E+00
 0.0000000000000E+00
 0.0000000000000E+00
 0.0000000000000E+00
 0.0000000000000E+00
 0.0000000000000E+00
 0.0000000000000E+00
 0.0000000000000E+00
 0.0000000000000E+00
 0.0000000000000E+00
 0.0000000000000E+00
 0.0000000000000E+00
 0.0000000000000E+00
 0.0000000000000E+00
 0.0000000000000E+00
 0.0000000000000E+00
 0.0000000000000E+00
 0.0000000000000E+00
 0.0000000000000E+00
 0.0000000000000E+00
 0.0000000000000E+00
 0.0000000000000E+00
 0.0000000000000E+00
 0.0000000000000E+00
 0.0000000000000E+00
 0.0000000000000E+00
 0.0000000000000E+00
 0.0000000000000E+00
 0.0000000000000E+00
 0.0000000000000E+00
 0.0000000000000E+00
 0.0000000000000E+00
 0.0000000000000E+00
 0.0000000000000E+00
 0.0000000000000E+00
 0.0000000000000E+00
 0.0000000000000E+00
 0.0000000000000E+00
 0.0000000000000E+00
 0.0000000000000E+00
 0.0000000000000E+00
 0.0000000000000E+00
 0.0000000000000E+00
 0.0000000000000E+00
 0.0000000000000E+00
 0.0000000000000E+00
 0.0000000000000E+00
 0.0000000000000E+00
 0.0000000000000E+00
 0.0000000000000E+00
 0.0000000000000E+00
 0.0000000000000E+00
 0.0000000000000E+00
 0.0000000000000E+00
 0.0000000000000E+00
 0.0000000000000E+00
 0.0000000000000E+00
 0.0000000000000E+00
 0.0000000000000E+00
 0.0000000000000E+00
 0.0000000000000E+00
 0.0000000000000E+00
 0.0000000000000E+00
 0.0000000000000E+00
 0.0000000000000E+00
 0.0000000000000E+00
 0.0000000000000E+00
 0.0000000000000E+00
 0.0000000000000E+00
 0.0000000000000E+00
 0.0000000000000E+00
 0.0000000000000E+00
 0.0000000000000E+00
 0.0000000000000E+00
 0.0000000000000E+00
 0.0000000000000E+00
 0.0000000000000E+00
 0.0000000000000E+00
 0.0000000000000E+00
 0.0000000000000E+00
 0.0000000000000E+00
 0.0000000000000E+00
 0.0000000000000E+00
 0.0000000000000E+00
 0.0000000000000E+00
 0.0000000000000E+00
 0.0000000000000E+00
 0.0000000000000E+00
 0.0000000000000E+00
 0.0000000000000E+00
 0.0000000000000E+00
 0.0000000000000E+00
 0.0000000000000E+00
 0.0000000000000E+00
 0.0000000000000E+00
 0.0000000000000E+00
 0.0000000000000E+00
 0.0000000000000E+00
 0.0000000000000E+00
 0.0000000000000E+00
 0.0000000000000E+00
 0.0000000000000E+00
 0.0000000000000E+00
 0.0000000000000E+00
 0.0000000000000E+00
 0.0000000000000E+00
 0.0000000000000E+00
 0.0000000000000E+00
 0.0000000000000E+00
 0.0000000000000E+00
 0.0000000000000E+00
 0.0000000000000E+00
 0.0000000000000E+00
 0.0000000000000E+00
 0.0000000000000E+00
 0.0000000000000E+00
 0.0000000000000E+00
 0.0000000000000E+00
 0.0000000000000E+00
 0.0000000000000E+00
 0.0000000000000E+00
 0.0000000000000E+00
 0.0000000000000E+00
 0.0000000000000E+00
 0.0000000000000E+00
 0.0000000000000E+00
 0.0000000000000E+00
 0.0000000000000E+00
 0.0000000000000E+00
 0.0000000000000E+00
 0.0000000000000E+00
 0.0000000000000E+00
 0.0000000000000E+00
 0.0000000000000E+00
 0.0000000000000E+00
 0.0000000000000E+00
 0.0000000000000E+00
 0.0000000000000E+00
 0.0000000000000E+00
 0.0000000000000E+00
 0.0000000000000E+00
 0.0000000000000E+00
 0.0000000000000E+00
 0.0000000000000E+00
 0.0000000000000E+00
 0.0000000000000E+00
 0.0000000000000E+00
 0.0000000000000E+00
 0.0000000000000E+00
 0.0000000000000E+00
 0.0000000000000E+00
 0.0000000000000E+00
 0.0000000000000E+00
 0.0000000000000E+00
 0.0000000000000E+00
 0.0000000000000E+00
 0.0000000000000E+00
 0.0000000000000E+00
 0.0000000000000E+00
 0.0000000000000E+00
 0.0000000000000E+00
 0.0000000000000E+00
 0.0000000000000E+00
 0.0000000000000E+00
 0.0000000000000E+00
 0.0000000000000E+00
 0.0000000000000E+00
 0.0000000000000E+00
 0.0000000000000E+00
 0.0000000000000E+00
 0.0000000000000E+00
 0.0000000000000E+00
 0.0000000000000E+00
 0.0000000000000E+00
 0.0000000000000E+00
 0.0000000000000E+00
 0.0000000000000E+00
 0.0000000000000E+00
 0.0000000000000E+00
 0.0000000000000E+00
 0.0000000000000E+00
 0.0000000000000E+00
 0.0000000000000E+00
 0.0000000000000E+00
 0.0000000000000E+00
 0.0000000000000E+00
 0.0000000000000E+00
 0.0000000000000E+00
 0.0000000000000E+00
 0.0000000000000E+00
 0.0000000000000E+00
 0.0000000000000E+00
 0.0000000000000E+00
 0.0000000000000E+00
 0.0000000000000E+00
 0.0000000000000E+00
 0.0000000000000E+00
 0.0000000000000E+00
 0.0000000000000E+00
 0.0000000000000E+00
 0.0000000000000E+00
 0.0000000000000E+00
 0.0000000000000E+00
 0.0000000000000E+00
 0.0000000000000E+00
 0.0000000000000E+00
 0.0000000000000E+00
 0.0000000000000E+00
 0.0000000000000E+00
 0.0000000000000E+00
 0.0000000000000E+00
 0.0000000000000E+00
 0.0000000000000E+00
 0.0000000000000E+00
 0.0000000000000E+00
 0.0000000000000E+00
 0.0000000000000E+00
 0.0000000000000E+00
 0.0000000000000E+00
 0.0000000000000E+00
 0.0000000000000E+00
 0.0000000000000E+00
 0.0000000000000E+00
 0.0000000000000E+00
 0.0000000000000E+00
 0.0000000000000E+00
 0.0000000000000E+00
 0.0000000000000E+00
 0.0000000000000E+00
 0.0000000000000E+00
 0.0000000000000E+00
 0.0000000000000E+00
 0.0000000000000E+00
 0.0000000000000E+00
 0.0000000000000E+00
 0.0000000000000E+00
 0.0000000000000E+00
 0.0000000000000E+00
 0.0000000000000E+00
 0.0000000000000E+00
 0.0000000000000E+00
 0.0000000000000E+00
 0.0000000000000E+00
 0.0000000000000E+00
 0.0000000000000E+00
 0.0000000000000E+00
 0.0000000000000E+00
 0.0000000000000E+00
 0.0000000000000E+00
 0.0000000000000E+00
 0.0000000000000E+00
 0.0000000000000E+00
 0.0000000000000E+00
 0.0000000000000E+00
 0.0000000000000E+00
 0.0000000000000E+00
 0.0000000000000E+00
 0.0000000000000E+00
 0.0000000000000E+00
 0.0000000000000E+00
 0.0000000000000E+00
 0.0000000000000E+00
 0.0000000000000E+00
 0.0000000000000E+00
 0.0000000000000E+00
 0.0000000000000E+00
 0.0000000000000E+00
 0.0000000000000E+00
 0.0000000000000E+00
 0.0000000000000E+00
 0.0000000000000E+00
 0.0000000000000E+00
 0.0000000000000E+00
 0.0000000000000E+00
 0.0000000000000E+00
 0.0000000000000E+00
 0.0000000000000E+00
 0.0000000000000E+00
 0.0000000000000E+00
 0.0000000000000E+00
 0.0000000000000E+00
 0.0000000000000E+00
 0.0000000000000E+00
 0.0000000000000E+00
 0.0000000000000E+00
 0.0000000000000E+00
 0.0000000000000E+00
 0.0000000000000E+00
 0.0000000000000E+00
 0.0000000000000E+00
 0.0000000000000E+00
 0.0000000000000E+00
 0.0000000000000E+00
 0.0000000000000E+00
 0.0000000000000E+00
 0.0000000000000E+00
 0.0000000000000E+00
 0.0000000000000E+00
 0.0000000000000E+00
 0.0000000000000E+00
 0.0000000000000E+00
 0.0000000000000E+00
 0.0000000000000E+00
 0.0000000000000E+00
 0.0000000000000E+00
 0.0000000000000E+00
 0.0000000000000E+00
 0.0000000000000E+00
 0.0000000000000E+00
 0.0000000000000E+00
 0.0000000000000E+00
 0.0000000000000E+00
 0.0000000000000E+00
 0.0000000000000E+00
 0.0000000000000E+00
 0.0000000000000E+00
 0.0000000000000E+00
 0.0000000000000E+00
 0.0000000000000E+00
 0.0000000000000E+00
 0.0000000000000E+00
 0.0000000000000E+00
 0.0000000000000E+00
 0.0000000000000E+00
 0.0000000000000E+00
 0.0000000000000E+00
 0.0000000000000E+00
 0.0000000000000E+00
 0.0000000000000E+00
 0.0000000000000E+00
 0.0000000000000E+00
 0.0000000000000E+00
 0.0000000000000E+00
 0.0000000000000E+00
 0.0000000000000E+00
 0.0000000000000E+00
 0.0000000000000E+00
 0.0000000000000E+00
 0.0000000000000E+00
 0.0000000000000E+00
 0.0000000000000E+00
 0.0000000000000E+00
 0.0000000000000E+00
 0.0000000000000E+00
 0.0000000000000E+00
 0.0000000000000E+00
 0.0000000000000E+00
 0.0000000000000E+00
 0.0000000000000E+00
 0.0000000000000E+00
 0.0000000000000E+00
 0.0000000000000E+00
 0.0000000000000E+00
 0.0000000000000E+00
 0.0000000000000E+00
 0.0000000000000E+00
 0.0000000000000E+00
 0.0000000000000E+00
 0.0000000000000E+00
 0.0000000000000E+00
 0.0000000000000E+00
 0.0000000000000E+00
 0.0000000000000E+00
 0.0000000000000E+00
 0.0000000000000E+00
 0.0000000000000E+00
 0.0000000000000E+00
 0.0000000000000E+00
 0.0000000000000E+00
 0.0000000000000E+00
 0.0000000000000E+00
 0.0000000000000E+00
 0.0000000000000E+00
 0.0000000000000E+00
 0.0000000000000E+00
 0.0000000000000E+00
 0.0000000000000E+00
 0.0000000000000E+00
 0.0000000000000E+00
 0.0000000000000E+00
 0.0000000000000E+00
 0.0000000000000E+00
 0.0000000000000E+00
 0.0000000000000E+00
 0.0000000000000E+00
 0.0000000000000E+00
 0.0000000000000E+00
 0.0000000000000E+00
 0.0000000000000E+00
 0.0000000000000E+00
 0.0000000000000E+00
 0.0000000000000E+00
 0.0000000000000E+00
 0.0000000000000E+00
 0.0000000000000E+00
 0.0000000000000E+00
 0.0000000000000E+00
 0.0000000000000E+00
 0.0000000000000E+00
 0.0000000000000E+00
 0.0000000000000E+00
 0.0000000000000E+00
 0.0000000000000E+00
 0.0000000000000E+00
 0.0000000000000E+00
 0.0000000000000E+00
 0.0000000000000E+00
 0.0000000000000E+00
 0.0000000000000E+00
 0.0000000000000E+00
 0.0000000000000E+00
 0.0000000000000E+00
 0.0000000000000E+00
 0.0000000000000E+00
 0.0000000000000E+00
 0.0000000000000E+00
 0.0000000000000E+00
 0.0000000000000E+00
 0.0000000000000E+00
 0.0000000000000E+00
 0.0000000000000E+00
 0.0000000000000E+00
 0.0000000000000E+00
 0.0000000000000E+00
 0.0000000000000E+00
 0.0000000000000E+00
 0.0000000000000E+00
 0.0000000000000E+00
 0.0000000000000E+00
 0.0000000000000E+00
 0.0000000000000E+00
 0.0000000000000E+00
 0.0000000000000E+00
 0.0000000000000E+00
 0.0000000000000E+00
 0.0000000000000E+00
 0.0000000000000E+00
 0.0000000000000E+00
 0.0000000000000E+00
 0.0000000000000E+00
 0.0000000000000E+00
 0.0000000000000E+00
 0.0000000000000E+00
 0.0000000000000E+00
 0.0000000000000E+00
 0.0000000000000E+00
 0.0000000000000E+00
 0.0000000000000E+00
 0.0000000000000E+00
 0.0000000000000E+00
 0.0000000000000E+00
 0.0000000000000E+00
 0.0000000000000E+00
 0.0000000000000E+00
 0.0000000000000E+00
 0.0000000000000E+00
 0.0000000000000E+00
 0.0000000000000E+00
 0.0000000000000E+00
 0.0000000000000E+00
 0.0000000000000E+00
 0.0000000000000E+00
 0.0000000000000E+00
 0.0000000000000E+00
 0.0000000000000E+00
 0.0000000000000E+00
 0.0000000000000E+00
 0.0000000000000E+00
 0.0000000000000E+00
 0.0000000000000E+00
 0.0000000000000E+00
 0.0000000000000E+00
 0.0000000000000E+00
 0.0000000000000E+00
 0.0000000000000E+00
 0.0000000000000E+00
 0.0000000000000E+00
 0.0000000000000E+00
 0.0000000000000E+00
 0.0000000000000E+00
 0.0000000000000E+00
 0.0000000000000E+00
 0.0000000000000E+00
 0.0000000000000E+00
 0.0000000000000E+00
 0.0000000000000E+00
 0.0000000000000E+00
 0.0000000000000E+00
 0.0000000000000E+00
 0.0000000000000E+00
 0.0000000000000E+00
 0.0000000000000E+00
 0.0000000000000E+00
 0.0000000000000E+00
 0.0000000000000E+00
 0.0000000000000E+00
 0.0000000000000E+00
 0.0000000000000E+00
 0.0000000000000E+00
 0.0000000000000E+00
 0.0000000000000E+00
 0.0000000000000E+00
 0.0000000000000E+00
 0.0000000000000E+00
 0.0000000000000E+00
 0.0000000000000E+00
 0.0000000000000E+00
 0.0000000000000E+00
 0.0000000000000E+00
 0.0000000000000E+00
 0.0000000000000E+00
 0.0000000000000E+00
 0.0000000000000E+00
 0.0000000000000E+00
 0.0000000000000E+00
 0.0000000000000E+00
 0.0000000000000E+00
 0.0000000000000E+00
 0.0000000000000E+00
 0.0000000000000E+00
 0.0000000000000E+00
 0.0000000000000E+00
 0.0000000000000E+00
 0.0000000000000E+00
 0.0000000000000E+00
 0.0000000000000E+00
 0.0000000000000E+00
 0.0000000000000E+00
 0.0000000000000E+00
 0.0000000000000E+00
 0.0000000000000E+00
 0.0000000000000E+00
 0.0000000000000E+00
 0.0000000000000E+00
 0.0000000000000E+00
 0.0000000000000E+00
 0.0000000000000E+00
 0.0000000000000E+00
 0.0000000000000E+00
 0.0000000000000E+00
 0.0000000000000E+00
 0.0000000000000E+00
 0.0000000000000E+00
 0.0000000000000E+00
 0.0000000000000E+00
 0.0000000000000E+00
 0.0000000000000E+00
 0.0000000000000E+00
 0.0000000000000E+00
 0.0000000000000E+00
 0.0000000000000E+00
 0.0000000000000E+00
 0.0000000000000E+00
 0.0000000000000E+00
 0.0000000000000E+00
 0.0000000000000E+00
 0.0000000000000E+00
 0.0000000000000E+00
 0.0000000000000E+00
 0.0000000000000E+00
 0.0000000000000E+00
 0.0000000000000E+00
 0.0000000000000E+00
 0.0000000000000E+00
 0.0000000000000E+00
 0.0000000000000E+00
 0.0000000000000E+00
 0.0000000000000E+00
 0.0000000000000E+00
 0.0000000000000E+00
 0.0000000000000E+00
 0.0000000000000E+00
 0.0000000000000E+00
 0.0000000000000E+00
 0.0000000000000E+00
 0.0000000000000E+00
 0.0000000000000E+00
 0.0000000000000E+00
 0.0000000000000E+00
 0.0000000000000E+00
 0.0000000000000E+00
 0.0000000000000E+00
 0.0000000000000E+00
 0.0000000000000E+00
 0.0000000000000E+00
 0.0000000000000E+00
 0.0000000000000E+00
 0.0000000000000E+00
 0.0000000000000E+00
 0.0000000000000E+00
 0.0000000000000E+00
 0.0000000000000E+00
 0.0000000000000E+00
 0.0000000000000E+00
 0.0000000000000E+00
 0.0000000000000E+00
 0.0000000000000E+00
 0.0000000000000E+00
 0.0000000000000E+00
 0.0000000000000E+00
 0.0000000000000E+00
 0.0000000000000E+00
 0.0000000000000E+00
 0.0000000000000E+00
 0.0000000000000E+00
 0.0000000000000E+00
 0.0000000000000E+00
 0.0000000000000E+00
 0.0000000000000E+00
 0.0000000000000E+00
 0.0000000000000E+00
 0.0000000000000E+00
 0.0000000000000E+00
 0.0000000000000E+00
 0.0000000000000E+00
 0.0000000000000E+00
 0.0000000000000E+00
 0.0000000000000E+00
 0.0000000000000E+00
 0.0000000000000E+00
 0.0000000000000E+00
 0.0000000000000E+00
 0.0000000000000E+00
 0.0000000000000E+00
 0.0000000000000E+00
 0.0000000000000E+00
 0.0000000000000E+00
 0.0000000000000E+00
 0.0000000000000E+00
 0.0000000000000E+00
 0.0000000000000E+00
 0.0000000000000E+00
 0.0000000000000E+00
 0.0000000000000E+00
 0.0000000000000E+00
 0.0000000000000E+00
 0.0000000000000E+00
 0.0000000000000E+00
 0.0000000000000E+00
 0.0000000000000E+00
 0.0000000000000E+00
 0.0000000000000E+00
 0.0000000000000E+00
 0.0000000000000E+00
 0.0000000000000E+00
 0.0000000000000E+00
 0.0000000000000E+00
 0.0000000000000E+00
 0.0000000000000E+00
 0.0000000000000E+00
 0.0000000000000E+00
 0.0000000000000E+00
 0.0000000000000E+00
 0.0000000000000E+00
 0.0000000000000E+00
 0.0000000000000E+00
 0.0000000000000E+00
 0.0000000000000E+00
 0.0000000000000E+00
 0.0000000000000E+00
 0.0000000000000E+00
 0.0000000000000E+00
 0.0000000000000E+00
 0.0000000000000E+00
 0.0000000000000E+00
 0.0000000000000E+00
 0.0000000000000E+00
 0.0000000000000E+00
 0.0000000000000E+00
 0.0000000000000E+00
 0.0000000000000E+00
 0.0000000000000E+00
 0.0000000000000E+00
 0.0000000000000E+00
 0.0000000000000E+00
 0.0000000000000E+00
 0.0000000000000E+00
 0.0000000000000E+00
 0.0000000000000E+00
 0.0000000000000E+00
 0.0000000000000E+00
 0.0000000000000E+00
 0.0000000000000E+00
 0.0000000000000E+00
 0.0000000000000E+00
 0.0000000000000E+00
 0.0000000000000E+00
 0.0000000000000E+00
 0.0000000000000E+00
 0.0000000000000E+00
 0.0000000000000E+00
 0.0000000000000E+00
 0.0000000000000E+00
 0.0000000000000E+00
 0.0000000000000E+00
 0.0000000000000E+00
 0.0000000000000E+00
 0.0000000000000E+00
 0.0000000000000E+00
 0.0000000000000E+00
 0.0000000000000E+00
 0.0000000000000E+00
 0.0000000000000E+00
 0.0000000000000E+00
 0.0000000000000E+00
 0.0000000000000E+00
 0.0000000000000E+00
 0.0000000000000E+00
 0.0000000000000E+00
 0.0000000000000E+00
 0.0000000000000E+00
 0.0000000000000E+00
 0.0000000000000E+00
 0.0000000000000E+00
 0.0000000000000E+00
 0.0000000000000E+00
 0.0000000000000E+00
 0.0000000000000E+00
 0.0000000000000E+00
 0.0000000000000E+00
 0.0000000000000E+00
 0.0000000000000E+00
 0.0000000000000E+00
 0.0000000000000E+00
 0.0000000000000E+00
 0.0000000000000E+00
 0.0000000000000E+00
 0.0000000000000E+00
 0.0000000000000E+00
 0.0000000000000E+00
 0.0000000000000E+00
 0.0000000000000E+00
 0.0000000000000E+00
 0.0000000000000E+00
</DataArray>
<DataArray type="Int32" Name="Region" format="ascii">
           1
           1
           1
           1
           1
           1
           1
           1
           1
           1
           1
           1
           1
           1
           1
           1
           1
           1
           1
           1
           1
           1
           1
           1
           1
           1
           1
           1
           1
           1
           1
           1
           1
           1
           1
           1
           1
           1
           1
           1
           1
           1
           1
           1
           1
           1
           1
           1
           1
           1
           1
           1
           1
           1
           1
           1
           1
           1
           1
           1
           1
           1
           1
           1
           1
           1
           1
           1
           1
           1
           1
           1
           1
           1
           1
           1
           1
           1
           1
           1
           1
           1
           1
           1
           1
           1
           1
           1
           1
           1
           1
           1
           1
           1
           1
           1
           1
           1
           1
           1
           1
           1
           1
           1
           1
           1
           1
           1
           1
           1
           1
           1
           1
           1
           1
           1
           1
           1
           1
           1
           1
           1
           1
           1
           1
           1
           1
           1
           1
           1
           1
           1
           1
           1
           1
           1
           1
           1
           1
           1
           1
           1
           1
           1
           1
           1
           1
           1
           1
           1
           1
           1
           1
           1
           1
           1
           1
           1
           1
           1
           1
           1
           1
           1
           1
           1
           1
           1
           1
           1
           1
           1
           1
           1
           1
           1
           1
           1
           1
           1
           1
           1
           1
           1
           1
           1
           1
           1
           1
           1
           1
           1
           1
           1
           1
           1
           1
           1
           1
           1
           1
           1
           1
           1
           1
           1
           1
           1
           1
           1
           1
           1
           1
           1
           1
           1
           1
           1
           1
           1
           1
           1
           1
           1
           1
           1
           1
           1
           1
           1
           1
           1
           1
           1
           1
           1
           1
           1
           1
           1
           1
           1
           1
           1
           1
           1
           1
           1
           1
           1
           1
           1
           1
           1
           1
           1
           1
           1
           1
           1
           1
           1
           1
           1
           1
           1
           1
           1
           1
           1
           1
           1
           1
           1
           1
           1
           1
           1
           1
           1
           1
           1
           1
           1
           1
           1
           1
           1
           1
           1
           1
           1
           1
           1
           1
           1
           1
           1
           1
           1
           1
           1
           1
           1
           1
           1
           1
           1
           1
           1
           1
           1
           1
           1
           1
           1
           1
           1
           1
           1
           1
           1
           1
           1
           1
           1
           1
           1
           1
           1
           1
           1
           1
           1
           1
           1
           1
           1
           1
           1
           1
           1
           1
           1
           1
           1
           1
           1
           1
           1
           1
           1
           1
           1
           1
           1
           1
           1
           1
           1
           1
           1
           1
           1
           1
           1
           1
           1
           1
           1
           1
           1
           1
           1
           1
           1
           1
           1
           1
           1
           1
           1
           1
           1
           1
           1
           1
           1
           1
           1
           1
           1
           1
           1
           1
           1
           1
           1
           1
           1
           1
           1
           1
           1
           1
           1
           1
           1
           1
           1
           1
           1
           1
           1
           1
           1
           1
           1
           1
           1
           1
           1
           1
           1
           1
           1
           1
           1
           1
           1
           1
           1
           1
           1
           1
           1
           1
           1
           1
           1
           1
           1
           1
           1
           1
           1
           1
           1
           1
           1
           1
           1
           1
           1
           1
           1
           1
           1
           1
           1
           1
           1
           1
           1
           1
           1
           1
           1
           1
           1
           1
           1
           1
           1
           1
           1
           1
           1
           1
           1
           1
           1
           1
           1
           1
           1
           1
           1
           1
           1
           1
           1
           1
           1
           1
           1
           1
           1
           1
           1
           1
           1
           1
           1
           1
           1
           1
           1
           1
           1
           1
           1
           1
           1
           1
           1
           1
           1
           1
           1
           1
           1
           1
           1
           1
           1
           1
           1
           1
           1
           1
           1
           1
           1
           1
           1
           1
           1
           1
           1
           1
           1
           1
           1
           1
           1
           1
           1
           1
           1
           1
           1
           1
           1
           1
           1
           1
           1
           1
           1
           1
           1
           1
           1
           1
           1
           1
           1
           1
           1
           1
           1
           1
           1
           1
           1
           1
           1
           1
           1
           1
           1
           1
           1
           1
           1
           1
           1
           1
           1
           1
           1
           1
           1
           1
           1
           1
           1
           1
           1
           1
           1
           1
           1
           1
           1
           1
           1
           1
           1
           1
           1
           1
           1
           1
           1
           1
           1
           1
           1
           1
           1
           1
           1
           1
           1
           1
           1
           1
           1
           1
           1
           1
           1
           1
           1
           1
           1
           1
           1
           1
           1
           1
           1
           1
           1
           1
           1
           1
           1
           1
           1
           1
           1
           1
           1
           1
           1
           1
           1
           1
           1
           1
           1
           1
           1
           1
           1
           1
           1
           1
           1
           1
           1
           1
           1
           1
           1
           1
           1
           1
           1
           1
           1
           1
           1
           1
           1
           1
           1
           1
           1
           1
           1
           1
           1
           1
           1
           1
           1
           1
           1
           1
           1
           1
           1
           1
           1
           1
           1
           1
           1
           1
           1
           1
           1
           1
           1
           1
           1
           1
           1
           1
           1
           1
           1
           1
           1
           1
           1
           1
           1
           1
           1
           1
           1
           1
           1
           1
           1
           1
           1
           1
           1
           1
           1
           1
           1
           1
           1
           1
           1
           1
           1
           1
           1
           1
           1
           1
           1
           1
           1
           1
           1
           1
           1
           1
           1
           1
           1
           1
           1
           1
           1
           1
           1
           1
           1
           1
           1
           1
           1
           1
           1
           1
           1
           1
           1
           1
           1
           1
           1
           1
           1
           1
           1
           1
           1
           1
           1
           1
           1
           1
           1
           1
           1
           1
           1
           1
           1
           1
           1
           1
           1
           1
           1
           1
           1
           1
           1
           1
           1
           1
           1
           1
           1
           1
           1
           1
           1
           1
           1
           1
           1
           1
           1
           1
           1
           1
           1
           1
           1
           1
           1
           1
           1
           1
           1
           1
           1
           1
           1
           1
           1
           1
           1
           1
           1
           1
           1
           1
           1
           1
           1
           1
           1
           1
           1
           1
           1
           1
           1
           1
           1
           1
           1
           1
           1
           1
           1
           1
           1
           1
           1
           1
           1
           1
           1
           1
           1
           1
           1
           1
           1
           1
           1
           1
           1
           1
           1
           1
           1
           1
           1
           1
           1
           1
           1
           1
           1
           1
           1
           1
           1
           1
           1
           1
           1
           1
           1
           1
           1
           1
           1
           1
           1
           1
           1
           1
           1
           1
           1
           1
           1
           1
           1
           1
           1
           1
           1
           1
           1
           1
           1
           1
           1
           1
           1
           1
           1
           1
           1
           1
           1
           1
           1
           1
           1
           1
           1
           1
           1
           1
           1
           1
           1
           1
           1
           1
           1
           1
           1
           1
           1
           1
           1
           1
           1
           1
           1
           1
           1
           1
           1
           1
           1
           1
           1
           1
           1
           1
           1
           1
           1
           1
           1
           1
           1
           1
           1
           1
           1
           1
           1
           1
           1
           1
           1
           1
           1
           1
           1
           1
           1
           1
           1
           1
           1
           1
           1
           1
           1
           1
           1
           1
           1
           1
           1
           1
           1
           1
           1
           1
           1
           1
           1
           1
           1
           1
           1
           1
           1
           1
           1
           1
           1
           1
           1
           1
           1
           1
           1
           1
           1
           1
           1
           1
           1
           1
           1
           1
           1
           1
           1
           1
           1
           1
           1
           1
           1
           1
           1
           1
           1
           1
           1
           1
           1
           1
           1
           1
           1
           1
           1
           1
           1
           1
           1
           1
           1
           1
           1
           1
           1
           1
           1
           1
           1
           1
           1
           1
           1
           1
           1
           1
           1
           1
           1
           1
           1
           1
           1
           1
           1
           1
           1
           1
           1
           1
           1
           1
           1
           1
           1
           1
           1
           1
           1
           1
           1
           1
           1
           1
           1
           1
           1
           1
           1
           1
           1
           1
           1
           1
           1
           1
           1
           1
           1
           1
           1
           1
           1
           1
           1
           1
           1
           1
           1
           1
           1
           1
           1
           1
           1
           1
           1
           1
           1
           1
           1
           1
           1
           1
           1
           1
           1
           1
           1
           1
           1
           1
           1
           1
           1
           1
           1
           1
           1
           1
           1
           1
           1
           1
           1
           1
           1
           1
           1
           1
           1
           1
           1
           1
           1
           1
           1
           1
           1
           1
           1
           1
           1
           1
           1
           1
           1
           1
           1
           1
           1
           1
           1
           1
           1
           1
           1
           1
           1
           1
           1
           1
           1
           1
           1
           1
           1
           1
           1
           1
           1
           1
           1
           1
           1
           1
           1
           1
           1
           1
           1
           1
           1
           1
           1
           1
           1
           1
           1
           1
           1
           1
           1
           1
           1
           1
           1
           1
           1
           1
           1
           1
           1
           1
           1
           1
           1
           1
           1
           1
           1
           1
           1
           1
           1
           1
           1
           1
           1
           1
           1
           1
           1
           1
           1
           1
           1
           1
           1
           1
           1
           1
           1
           1
           1
           1
           1
           1
           1
           1
           1
           1
           1
           1
           1
           1
           1
           1
           1
           1
           1
           1
           1
           1
           1
           1
           1
           1
           1
           1
           1
           1
           1
           1
           1
           1
           1
           1
           1
           1
           1
           1
           1
           1
           1
           1
           1
           1
           1
           1
           1
           1
           1
           1
           1
           1
           1
           1
           1
           1
           1
           1
           1
           1
           1
           1
           1
           1
           1
           1
           1
           1
           1
           1
           1
           1
           1
           1
           1
           1
           1
           1
           1
           1
           1
           1
           1
           1
           1
           1
           1
           1
           1
           1
           1
           1
           1
           1
           1
           1
           1
           1
           1
           1
           1
           1
           1
           1
           1
           1
           1
           1
           1
           1
           1
           1
           1
           1
           1
           1
           1
           1
           1
           1
           1
           1
           1
           1
           1
           1
           1
           1
           1
           1
           1
           1
           1
           1
           1
           1
           1
           1
           1
           1
           1
           1
           1
           1
           1
           1
           1
           1
           1
           1
           1
           1
           1
           1
           1
           1
           1
           1
           1
           1
           1
           1
           1
           1
           1
           1
           1
           1
           1
           1
           1
           1
           1
           1
           1
           1
           1
           1
           1
           1
           1
           1
           1
           1
           1
           1
           1
           1
           1
           1
           1
           1
           1
           1
           1
           1
           1
           1
           1
           1
           1
           1
           1
           1
           1
           1
           1
           1
           1
           1
           1
           1
           1
           1
           1
           1
           1
           1
           1
           1
           1
           1
           1
           1
           1
           1
           1
           1
           1
           1
           1
           1
           1
           1
           1
           1
           1
           1
           1
           1
           1
           1
           1
           1
           1
           1
           1
           1
           1
           1
           1
           1
           1
           1
           1
           1
           1
           1
           1
           1
           1
           1
           1
           1
           1
           1
           1
           1
           1
           1
           1
           1
           1
           1
           1
           1
           1
           1
           1
           1
           1
           1
           1
           1
           1
           1
           1
           1
           1
           1
           1
           1
           1
           1
           1
           1
           1
           1
           1
           1
           1
           1
           1
           1
           1
           1
           1
           1
           1
           1
           1
           1
           1
           1
           1
           1
           1
           1
           1
           1
           1
           1
           1
           1
           1
           1
           1
           1
           1
           1
           1
           1
           1
           1
           1
           1
           1
           1
           1
           1
           1
           1
           1
           1
           1
           1
           1
           1
           1
           1
           1
           1
           1
           1
           1
           1
           1
           1
           1
           1
           1
           1
           1
           1
           1
           1
           1
           1
           1
           1
           1
           1
           1
           1
           1
           1
           1
           1
           1
           1
           1
           1
           1
           1
           1
           1
           1
           1
           1
           1
           1
           1
           1
           1
           1
           1
           1
           1
           1
           1
           1
           1
           1
           1
           1
           1
           1
           1
           1
           1
           1
           1
           1
           1
           1
           1
           1
           1
           1
           1
           1
           1
           1
           1
           1
           1
           1
           1
           1
           1
           1
           1
           1
           1
           1
           1
           1
           1
           1
           1
           1
           1
           1
           1
           1
           1
           1
           1
           1
           1
           1
           1
           1
           1
           1
           1
           1
           1
           1
           1
           1
           1
           1
           1
           1
           1
           1
           1
           1
           1
           1
           1
           1
           1
           1
           1
           1
           1
           1
           1
           1
           1
           1
           1
           1
           1
           1
           1
           1
           1
           1
           1
           1
           1
           1
           1
           1
           1
           1
           1
           1
           1
           1
           1
           1
           1
           1
           1
           1
           1
           1
           1
           1
           1
           1
           1
           1
           1
           1
           1
           1
           1
           1
           1
           1
           1
           1
           1
           1
           1
           1
           1
           1
           1
           1
           1
           1
           1
           1
           1
           1
           1
           1
           1
           1
           1
           1
           1
           1
           1
           1
           1
           1
           1
           1
           1
           1
           1
           1
           1
           1
           1
           1
           1
           1
           1
           1
           1
           1
           1
           1
           1
           1
           1
           1
           1
           1
           1
           1
           1
           1
           1
           1
           1
           1
           1
           1
           1
           1
           1
           1
           1
           1
           1
           1
           1
           1
           1
           1
           1
           1
           1
           1
           1
           1
           1
           1
           1
           1
           1
           1
           1
           1
           1
           1
           1
           1
           1
           1
           1
           1
           1
           1
           1
           1
           1
           1
           1
           1
           1
           1
           1
           1
           1
           1
           1
           1
           1
           1
           1
           1
           1
           1
           1
           1
           1
           1
           1
           1
           1
           1
           1
           1
           1
           1
           1
           1
           1
           1
           1
           1
           1
           1
           1
           1
           1
           1
           1
           1
           1
           1
           1
           1
           1
           1
           1
           1
           1
           1
           1
           1
           1
           1
           1
           1
           1
           1
           1
           1
           1
           1
           1
           1
           1
           1
           1
           1
           1
           1
           1
           1
           1
           1
           1
           1
           1
           1
           1
           1
           1
           1
           1
           1
           1
           1
           1
           1
           1
           1
           1
           1
           1
           1
           1
           1
           1
           1
           1
           1
           1
           1
           1
           1
           1
           1
           1
           1
           1
           1
           1
           1
           1
           1
           1
           1
           1
           1
           1
           1
           1
           1
           1
           1
           1
           1
           1
           1
           1
           1
           1
           1
           1
           1
           1
           1
           1
           1
           1
           1
           1
           1
           1
           1
           1
           1
           1
           1
           1
           1
           1
           1
           1
           1
           1
           1
           1
           1
           1
           1
           1
           1
           1
           1
           1
           1
           1
           1
           1
           1
           1
           1
           1
           1
           1
           1
           1
           1
           1
           1
           1
           1
           1
           1
           1
           1
           1
           1
           1
           1
           1
           1
           1
           1
           1
           1
           1
           1
           1
           1
           1
           1
           1
           1
           1
           1
           1
           1
           1
           1
           1
           1
           1
           1
           1
           1
           1
           1
           1
           1
           1
           1
           1
           1
           1
           1
           1
           1
           1
           1
           1
           1
           1
           1
           1
           1
           1
           1
           1
           1
           1
           1
           1
           1
           1
           1
           1
           1
           1
           1
           1
           1
           1
           1
           1
           1
           1
           1
           1
           1
           1
           1
           1
           1
           1
           1
           1
           1
           1
           1
           1
           1
           1
           1
           1
           1
           1
           1
           1
           1
           1
           1
           1
           1
           1
           1
           1
           1
           1
           1
           1
           1
           1
           1
           1
           1
           1
           1
           1
           1
           1
           1
           1
           1
           1
           1
           1
           1
           1
           1
           1
           1
           1
           1
           1
           1
           1
           1
           1
           1
           1
           1
           1
           1
           1
           1
           1
           1
           1
           1
           1
           1
           1
           1
           1
           1
           1
           1
           1
           1
           1
           1
           1
           1
           1
           1
           1
           1
           1
           1
           1
           1
           1
           1
           1
           1
           1
           1
           1
           1
           1
           1
           1
           1
           1
           1
           1
           1
           1
           1
           1
           1
           1
           1
           1
           1
           1
           1
           1
           1
           1
           1
           1
           1
           1
           1
           1
           1
           1
           1
           1
           1
           1
           1
           1
           1
           1
           1
           1
           1
           1
           1
           1
           1
           1
           1
           1
           1
           1
           1
           1
           1
           1
           1
           1
           1
           1
           1
           1
           1
           1
           1
           1
           1
           1
           1
           1
           1
           1
           1
           1
           1
           1
           1
           1
           1
           1
           1
           1
           1
           1
           1
           1
           1
           1
           1
           1
           1
           1
           1
           1
           1
           1
           1
           1
           1
           1
           1
           1
           1
           1
           1
           1
           1
           1
           1
           1
           1
           1
           1
           1
           1
           1
           1
           1
           1
           1
           1
           1
           1
           1
           1
           1
           1
           1
           1
           1
           1
           1
           1
           1
           1
           1
           1
           1
           1
           1
           1
           1
           1
           1
           1
           1
           1
           1
           1
           1
           1
           1
           1
           1
           1
           1
           1
           1
           1
           1
           1
           1
           1
           1
           1
           1
           1
           1
           1
           1
           1
           1
           1
           1
           1
           1
           1
           1
           1
           1
           1
           1
           1
           1
           1
           1
           1
           1
           1
           1
           1
           1
           1
           1
           1
           1
           1
           1
           1
           1
           1
           1
           1
           1
           1
           1
           1
           1
           1
           1
           1
           1
           1
           1
           1
           1
           1
           1
           1
           1
           1
           1
           1
           1
           1
           1
           1
           1
           1
           1
           1
           1
           1
           1
           1
           1
           1
           1
           1
           1
           1
           1
           1
           1
           1
           1
           1
           1
           1
           1
           1
           1
           1
           1
           1
           1
           1
           1
           1
           1
           1
           1
           1
           1
           1
           1
           1
           1
           1
           1
           1
           1
           1
           1
           1
           1
           1
           1
           1
           1
           1
           1
           1
           1
           1
           1
           1
           1
           1
           1
           1
           1
           1
           1
           1
           1
           1
           1
           1
           1
           1
           1
           1
           1
           1
           1
           1
           1
           1
           1
           1
           1
           1
           1
           1
           1
           1
           1
           1
           1
           1
           1
           1
           1
           1
           1
           1
           1
           1
           1
           1
           1
           1
           1
           1
           1
           1
           1
           1
           1
           1
           1
           1
           1
           1
           1
           1
           1
           1
           1
           1
           1
           1
           1
           1
           1
           1
           1
           1
           1
           1
           1
           1
           1
           1
           1
           1
           1
           1
           1
           1
           1
           1
           1
           1
           1
           1
           1
           1
           1
           1
           1
           1
           1
           1
           1
           1
           1
           1
           1
           1
           1
           1
           1
           1
           1
           1
           1
           1
           1
           1
           1
           1
           1
           1
           1
           1
           1
           1
           1
           1
           1
           1
           1
           1
           1
           1
           1
           1
           1
           1
           1
           1
           1
           1
           1
           1
           1
           1
           1
           1
           1
           1
           1
           1
           1
           1
           1
           1
           1
           1
           1
           1
           1
           1
           1
           1
           1
           1
           1
           1
           1
           1
           1
           1
           1
           1
           1
           1
           1
           1
           1
           1
           1
           1
           1
           1
           1
           1
           1
           1
           1
           1
           1
           1
           1
           1
           1
           1
           1
           1
           1
           1
           1
           1
           1
           1
           1
           1
           1
           1
           1
           1
           1
           1
           1
           1
           1
           1
           1
           1
           1
           1
           1
           1
           1
           1
           1
           1
           1
           1
           1
           1
           1
           1
           1
           1
           1
           1
           1
           1
           1
           1
           1
           1
           1
           1
           1
           1
           1
           1
           1
           1
           1
           1
           1
           1
           1
           1
           1
           1
           1
           1
           1
           1
           1
           1
           1
           1
           1
           1
           1
           1
           1
           1
           1
           1
           1
           1
           1
           1
           1
           1
           1
           1
           1
           1
           1
           1
           1
           1
           1
           1
           1
           1
           1
           1
           1
           1
           1
           1
           1
           1
           1
           1
           1
           1
           1
           1
           1
           1
           1
           1
           1
           1
           1
           1
           1
           1
           1
           1
           1
           1
           1
           1
           1
           1
           1
           1
           1
           1
           1
           1
           1
           1
           1
           1
           1
           1
           1
           1
           1
           1
           1
           1
           1
           1
           1
           1
           1
           1
           1
           1
           1
           1
           1
           1
           1
           1
           1
           1
           1
           1
           1
           1
           1
           1
           1
           1
           1
           1
           1
           1
           1
           1
           1
           1
           1
           1
           1
           1
           1
           1
           1
           1
           1
           1
           1
           1
           1
           1
           1
           1
           1
           1
           1
           1
           1
           1
           1
           1
           1
           1
           1
           1
           1
           1
           1
           1
           1
           1
           1
           1
           1
           1
           1
           1
           1
           1
           1
           1
           1
           1
           1
           1
           1
           1
           1
           1
           1
           1
           1
           1
           1
           1
           1
           1
           1
           1
           1
           1
           1
           1
           1
           1
           1
           1
           1
           1
           1
           1
           1
           1
           1
           1
           1
           1
           1
           1
           1
           1
           1
           1
           1
           1
           1
           1
           1
           1
           1
           1
           1
           1
           1
           1
           1
           1
           1
           1
           1
           1
           1
           1
           1
           1
           1
           1
           1
           1
           1
           1
           1
           1
           1
           1
           1
           1
           1
           1
           1
           1
           1
           1
           1
           1
           1
           1
           1
           1
           1
           1
           1
           1
           1
           1
           1
           1
           1
           1
           1
           1
           1
           1
           1
           1
           1
           1
           1
           1
           1
           1
           1
           1
           1
           1
           1
           1
           1
           1
           1
           1
           1
           1
           1
           1
           1
           1
           1
           1
           1
           1
           1
           1
           1
           1
           1
           1
           1
           1
           1
           1
           1
           1
           1
           1
           1
           1
           1
           1
           1
           1
           1
           1
           1
           1
           1
           1
           1
           1
           1
           1
           1
           1
           1
           1
           1
           1
           1
           1
           1
           1
           1
           1
           1
           1
           1
           1
           1
           1
           1
           1
           1
           1
           1
           1
           1
           1
           1
           1
           1
           1
           1
           1
           1
           1
           1
           1
           1
           1
           1
           1
           1
           1
           1
           1
           1
           1
           1
           1
           1
           1
           1
           1
           1
           1
           1
           1
           1
           1
           1
           1
           1
           1
           1
           1
           1
           1
           1
           1
           1
           1
           1
           1
           1
           1
           1
           1
           1
           1
           1
           1
           1
           1
           1
           1
           1
           1
           1
           1
           1
           1
           1
           1
           1
           1
           1
           1
           1
           1
           1
           1
           1
           1
           1
           1
           1
           1
           1
           1
           1
           1
           1
           1
           1
           1
           1
           1
           1
           1
           1
           1
           1
           1
           1
           1
           1
           1
           1
           1
           1
           1
           2
           2
           2
           2
           2
           2
           2
           2
           2
           2
           2
           2
           2
           2
           2
           2
           2
           2
           2
           2
           2
           2
           2
           2
           2
           2
           2
           2
           2
           2
           2
           2
           2
           2
           2
           2
           2
           2
           2
           2
           2
           2
           2
           2
           2
           2
           2
           2
           2
           2
           2
           2
           2
           2
           2
           2
           2
           2
           2
           2
           2
           2
           2
           2
           2
           2
           2
           2
           2
           2
           2
           2
           2
           2
           2
           2
           2
           2
           2
           2
           2
           2
           2
           2
           2
           2
           2
           2
           2
           2
           2
           2
           2
           2
           2
           2
           2
           2
           2
           2
           2
           2
           2
           2
           2
           2
           2
           2
           2
           2
           2
           2
           2
           2
           2
           2
           2
           2
           2
           2
           2
           2
           2
           2
           2
           2
           2
           2
           2
           2
           2
           2
           2
           2
           2
           2
           2
           2
           2
           2
           2
           2
           2
           2
           2
           2
           2
           2
           2
           2
           2
           2
           2
           2
           2
           2
           2
           2
           2
           2
           2
           2
           2
           2
           2
           2
           2
           2
           2
           2
           2
           2
           2
           2
           2
           2
           2
           2
           2
           2
           2
           2
           2
           2
           2
           2
           2
           2
           2
           2
           2
           2
           2
           2
           2
           2
           2
           2
           2
           2
           2
           2
           2
           2
           2
           2
           2
           2
           2
           2
           2
           2
           2
           2
           2
           2
           2
           2
           2
           2
           2
           2
           2
           2
           2
           2
           2
           2
           2
           2
           2
           2
           2
           2
           2
           2
           2
           2
           2
           2
           2
           2
           2
           2
           2
           2
           2
           2
           2
           2
           2
           2
           2
           2
           2
           2
           2
           2
           2
           2
           2
           2
           2
           2
           2
           2
           2
           2
           2
           2
           2
           2
           2
           2
           2
           2
           2
           2
           2
           2
           2
           2
           2
           2
           2
           2
           2
           2
           2
           2
           2
           2
           2
           2
           2
           2
           2
           2
           2
           2
           2
           2
           2
           2
           2
           2
           2
           2
           2
           2
           2
           2
           2
           2
           2
           2
           2
           2
           2
           2
           2
           2
           2
           2
           2
           2
           2
           2
           2
           2
           2
           2
           2
           2
           2
           2
           2
           2
           2
           2
           2
           2
           2
           2
           2
           2
           2
           2
           2
           2
           2
           2
           2
           2
           2
           2
           2
           2
           2
           2
           2
           2
           2
           2
           2
           2
           2
           2
           2
           2
           2
           2
           2
           2
           2
           2
           2
           2
           2
           2
           2
           2
           2
           2
           2
           2
           2
           2
           2
           2
           2
           2
           2
           2
           2
           2
           2
           2
           2
           2
           2
           2
           2
           2
           2
           2
           2
           2
           2
           2
           2
           2
           2
           2
           2
           2
           2
           2
           2
           2
           2
           2
           2
           2
           2
           2
           2
           2
           2
           2
           2
           2
           2
           2
           2
           2
           2
           2
           2
           2
           2
           2
           2
           2
           2
           2
           2
           2
           2
           2
           2
           2
           2
           2
           2
           2
           2
           2
           2
           2
           2
           2
           2
           2
           2
           2
           2
           2
           2
           2
           2
           2
           2
           2
           2
           2
           2
           2
           2
           2
           2
           2
           2
           2
           2
           2
           2
           2
           2
           2
           2
           2
           2
           2
           2
           2
           2
           2
           2
           2
           2
           2
           2
           2
           2
           2
           2
           2
           2
           2
           2
           2
           2
           2
           2
           2
           2
           2
           2
           2
           2
           2
           2
           2
           2
           2
           2
           2
           2
           2
           2
           2
           2
           2
           2
           2
           2
           2
           2
           2
           2
           2
           2
           2
           2
           2
           2
           2
           2
           2
           2
           2
           2
           2
           2
           2
           2
           2
           2
           2
           2
           2
           2
           2
           2
           2
           2
           2
           2
           2
           2
           2
           2
           2
           2
           2
           2
           2
           2
           2
           2
           2
           2
           2
           2
           2
           2
           2
           2
           2
           2
           2
           2
           2
           2
           2
           2
           2
           2
           2
           2
           2
           2
           2
           2
           2
           2
           2
           2
           2
           2
           2
           2
           2
           2
           2
           2
           2
           2
           2
           2
           2
           2
           2
           2
           2
           2
           2
           2
           2
           2
           2
           2
           2
           2
           2
           2
           2
           2
           2
           2
           2
           2
           2
           2
           2
           2
           2
           2
           2
           2
           2
           2
           2
           2
           2
           2
           2
           2
           2
           2
           2
           2
           2
           2
           2
           2
           2
           2
           2
           2
           2
           2
           2
           2
           2
           2
           2
           2
           2
           2
           2
           2
           2
           2
           2
           2
           2
           2
           2
           2
           2
           2
           2
           2
           2
           2
           2
           2
           2
           2
           2
           2
           2
           2
           2
           2
           2
           2
           2
           2
           2
           2
           2
           2
           2
           2
           2
           2
           2
           2
           2
           2
           2
           2
           2
           2
           2
           2
           2
           2
           2
           2
           2
           2
           2
           2
           2
           2
           2
           2
           2
           2
           2
           2
           2
           2
           2
           2
           2
           2
           2
           2
           2
           2
           2
           2
           2
           2
           2
           2
           2
           2
           2
           2
           2
           2
           2
           2
           2
           2
           2
           2
           2
           2
           2
           2
           2
           2
           2
           2
           2
           2
           2
           2
           2
           2
           2
           2
           2
           2
           2
           2
           2
           2
           2
           2
           2
           2
           2
           2
           2
           2
           2
           2
           2
           2
           2
           2
           2
           2
           2
           2
           2
           2
           2
           2
           2
           2
           2
           2
           2
           2
           2
           2
           2
           2
           2
           2
           2
           2
           2
           2
           2
           2
           2
           2
           2
           2
           2
           2
           2
           2
           2
           2
           2
           2
           2
           2
           2
           2
           2
           2
           2
           2
           2
           2
           2
           2
           2
           2
           2
           2
           2
           2
           2
           2
           2
           2
           2
           2
           2
           2
           2
           2
           2
           2
           2
           2
           2
           2
           2
           2
           2
           2
           2
           2
           2
           2
           2
           2
           2
           2
           2
           2
           2
           2
           2
           2
           2
           2
           2
           2
           2
           2
           2
           2
           2
           2
           2
           2
           2
           2
           2
           2
           2
           2
           2
           2
           2
           2
           2
           2
           2
           2
           2
           2
           2
           2
           2
           2
           2
           2
           2
           2
           2
           2
           2
           2
           2
           2
           2
           2
           2
           2
           2
           2
           2
           2
           2
           2
           2
           2
           2
           2
           2
           2
           2
           2
           2
           2
           2
           2
           2
           2
           2
           2
           2
           2
           2
           2
           2
           2
           2
           2
           2
           2
           2
           2
           2
           2
           2
           2
           2
           2
           2
           2
           2
           2
           2
           2
           2
           2
           2
           2
           2
           2
           2
           2
           2
           2
           2
           2
           2
           2
           2
           2
           2
           2
           2
           2
           2
           2
           2
           2
           2
           2
           2
           2
           2
           2
           2
           2
           2
           2
           2
           2
           2
           2
           2
           2
           2
           2
           2
           2
           2
           2
           2
           2
           2
           2
           2
           2
           2
           2
           2
           2
           2
           2
           2
           2
           2
           2
           2
           2
           2
           2
           2
           2
           2
           2
           2
           2
           2
           2
           2
           2
           2
           2
           2
           2
           2
           2
           2
           2
           2
           2
           2
           2
           2
           2
           2
           2
           2
           2
           2
           2
           2
           2
           2
           2
           2
           2
           2
           2
           2
           2
           2
           2
           2
           2
           2
           2
           2
           2
           2
           2
           2
           2
           2
           2
           2
           2
           2
           2
           2
           2
           2
           2
           2
           2
           2
           2
           2
           2
           2
           2
           2
           2
           2
           2
           2
           2
           2
           2
           2
           2
           2
           2
           2
           2
           2
           2
           2
           2
           2
           2
           2
           2
           2
           2
           2
           2
           2
           2
           2
           2
           2
           2
           2
           2
           2
           2
           2
           2
           2
           2
           2
           2
           2
           2
           2
           2
           2
           2
           2
           2
           2
           2
           2
           2
           2
           2
           2
           2
           2
           2
           2
           2
           2
           2
           2
           2
           2
           2
           2
           2
           2
           2
           2
           2
           2
           2
           2
           2
           2
           2
           2
           2
           2
           2
           2
           2
           2
           2
           2
           2
           2
           2
           2
           2
           2
           2
           2
           2
           2
           2
           2
           2
           2
           2
           2
           2
           2
           2
           2
           2
           2
           2
           2
           2
           2
           2
           2
           2
           2
           2
           2
           2
           2
           2
           2
           2
           2
           2
           2
           2
           2
           2
           2
           2
           2
           2
           2
           2
           2
           2
           2
           2
           2
           2
           2
           2
           2
           2
           2
           2
           2
           2
           2
           2
           2
           2
           2
           2
           2
           2
           2
           2
           2
           2
           2
           2
           2
           2
           2
           2
           2
           2
           2
           2
           2
           2
           2
           2
           2
           2
           2
           2
           2
           2
           2
           2
           2
           2
           2
           2
           2
           2
           2
           2
           2
           2
           2
           2
           2
           2
           2
           2
           2
           2
           2
           2
           2
           2
           2
           2
           2
           2
           2
           2
           2
           2
           2
           2
           2
           2
           2
           2
           2
           2
           2
           2
           2
           2
           2
           2
           2
           2
           2
           2
           2
           2
           2
           2
           2
           2
           2
           2
           2
           2
           2
           2
           2
           2
           2
           2
           2
           2
           2
           2
           2
           2
           2
           2
           2
           2
           2
           2
           2
           2
           2
           2
           2
           2
           2
           2
           2
           2
           2
           2
           2
           2
           2
           2
           2
           2
           2
           2
           2
           2
           2
           2
           2
           2
           2
           2
           2
           2
           2
           2
           2
           2
           2
           2
           2
           2
           2
           2
           2
           2
           2
           2
           2
           2
           2
           2
           2
           2
           2
           2
           2
           2
           2
           2
           2
           2
           2
           2
           2
           2
           2
           2
           2
           2
           2
           2
           2
           2
           2
           2
           2
           2
           2
           2
           2
           2
           2
           2
           2
           2
           2
           2
           2
           2
           2
           2
           2
           2
           2
           2
           2
           2
           2
           2
           2
           2
           2
           2
           2
           2
           2
           2
           2
           2
           2
           2
           2
           2
           2
           2
           2
           2
           2
           2
           2
           2
           2
           2
           2
           2
           2
           2
           2
           2
           2
           2
           2
           2
           2
           2
           2
           2
           2
           2
           2
           2
           2
           2
           2
           2
           2
           2
           2
           2
           2
           2
           2
           2
           2
           2
           2
           2
           2
           2
           2
           2
           2
           2
           2
           2
           2
           2
           2
           2
           2
           2
           2
           2
           2
           2
           2
           2
           2
           2
           2
           2
           2
           2
           2
           2
           2
           2
           2
           2
           2
           2
           2
           2
           2
           2
           2
           2
           2
           2
           2
           2
           2
           2
           2
           2
           2
           2
           2
           2
           2
           2
           2
           2
           2
           2
           2
           2
           2
           2
           2
           2
           2
           2
           2
           2
           2
           2
           2
           2
           2
           2
           2
           2
           2
           2
           2
           2
           2
           2
           2
           2
           2
           2
           2
           2
           2
           2
           2
           2
           2
           2
           2
           2
           2
           2
           2
           2
           2
           2
           2
           2
           2
           2
           2
           2
           2
           2
           2
           2
           2
           2
           2
           2
           2
           2
           2
           2
           2
           2
           2
           2
           2
           2
           2
           2
           2
           2
           2
           2
           2
           2
           2
           2
           2
           2
           2
           2
           2
           2
           2
           2
           2
           2
           2
           2
           2
           2
           2
           2
           2
           2
           2
           2
           2
           2
           2
           2
           2
           2
           2
           2
           2
           2
           2
           2
           2
           2
           2
           2
           2
           2
           2
           2
           2
           2
           2
           2
           2
           2
           2
           2
           2
           2
           2
           2
           2
           2
           2
           2
           2
           2
           2
           2
           2
           2
           2
           2
           2
           2
           2
           2
           2
           2
           2
           2
           2
           2
           2
           2
           2
           2
           2
           2
           2
           2
           2
           2
           2
           2
           2
           2
           2
           2
           2
           2
           2
           2
           2
           2
           2
           2
           2
           2
           2
           2
           2
           2
           2
           2
           2
           2
           2
           2
           2
           2
           2
           2
           2
           2
           2
           2
           2
           2
           2
           2
           2
           2
           2
           2
           2
           2
           2
           2
           2
           2
           2
           2
           2
           2
           2
           2
           2
           2
           2
           2
           2
           2
           2
           2
           2
           2
           2
           2
           2
           2
           2
           2
           2
           2
           2
           2
           2
           2
           2
           2
           2
           2
           2
           2
           2
           2
           2
           2
           2
           2
           2
           2
           2
           2
           2
           2
           2
           2
           2
           2
           2
           2
           2
           2
           2
           2
           2
           2
           2
           2
           2
           2
           2
           2
           2
           2
           2
           2
           2
           2
           2
           2
           2
           2
           2
           2
           2
           2
           2
           2
           2
           2
           2
           2
           2
           2
           2
           2
           2
           2
           2
           2
           2
           2
           2
           2
           2
           2
           2
           2
           2
           2
           2
           2
           2
           2
           2
           2
           2
           2
           2
           2
           2
           2
           2
           2
           2
           2
           2
           2
           2
           2
           2
           2
           2
           2
           2
           2
           2
           2
           2
           2
           2
           2
           2
           2
           2
           2
           2
           2
           2
           2
           2
           2
           2
           2
           2
           2
           2
           2
           2
           2
           2
           2
           2
           2
           2
           2
           2
           2
           2
           2
           2
           2
           2
           2
           2
           2
           2
           2
           2
           2
           2
           2
           2
           2
           2
           2
           2
           2
           2
           2
           2
           2
           2
           2
           2
           2
           2
           2
           2
           2
           2
           2
           2
           2
           2
           2
           2
           2
           2
           2
           2
           2
           2
           2
           2
           2
           2
           2
           2
           2
           2
           2
           2
           2
           2
           2
           2
           2
           2
           2
           2
           2
           2
           2
           2
           2
           2
           2
           2
           2
           2
           2
           2
           2
           2
           2
           2
           2
           2
           2
           2
           2
           2
           2
           2
           2
           2
           2
           2
           2
           2
           2
           2
           2
           2
           2
           2
           2
           2
           2
           2
           2
           2
           2
           2
           2
           2
           2
           2
           2
           2
           2
           2
           2
           2
           2
           2
           2
           2
           2
           2
           2
           2
           2
           2
           2
           2
           2
           2
           2
           2
           2
           2
           2
           2
           2
           2
           2
           2
           2
           2
           2
           2
           2
           2
           2
           2
           2
           2
           2
           2
           2
           2
           2
           2
           2
           2
           2
           2
           2
           2
           2
           2
           2
           2
           2
           2
           2
           2
           2
           2
           2
           2
           2
           2
           2
           2
           2
           2
           2
           2
           2
           2
           2
           2
           2
           2
           2
           2
           2
           2
           2
           2
           2
           2
           2
           2
           2
           2
           2
           2
           2
           2
           2
           2
           2
           2
           2
           2
           2
           2
           2
           2
           2
           2
           2
           2
           2
           2
           2
           2
           2
           2
           2
           2
           2
           2
           2
           2
           2
           2
           2
           2
           2
           2
           2
           2
           2
           2
           2
           2
           2
           2
           2
           2
           2
           2
           2
           2
           2
           2
           2
           2
           2
           2
           2
           2
           2
           2
           2
           2
           2
           2
           2
           2
           2
           2
           2
           2
           2
           2
           2
           2
           2
           2
           2
           2
           2
           2
           2
           2
           2
           2
           2
           2
           2
           2
           2
           2
           2
           2
           2
           2
           2
           2
           2
           2
           2
           2
           2
           2
           2
           2
           2
           2
           2
           2
           2
           2
           2
           2
           2
           2
           2
           2
           2
           2
           2
           2
           2
           2
           2
           2
           2
           2
           2
           2
           2
           2
           2
           2
           2
           2
           2
           2
           2
           2
           2
           2
           2
           2
           2
           2
           2
           2
           2
           2
           2
           2
           2
           2
           2
           2
           2
           2
           2
           2
           2
           2
           2
           2
           2
           2
           2
           2
           2
           2
           2
           2
           2
           2
           2
           2
           2
           2
           2
           2
           2
           2
           2
           2
           2
           2
           2
           2
           2
           2
           2
           2
           2
           2
           2
           2
           2
           2
           2
           2
           2
           2
           2
           2
           2
           2
           2
           2
           2
           2
           2
           2
           2
           2
           2
           2
           2
           2
           2
           2
           2
           2
           2
           2
           2
           2
           2
           2
           2
           2
</DataArray>
</CellData>
</Piece>
</UnstructuredGrid>
</VTKFile>
