<VTKFile type="UnstructuredGrid" version="1,0" byte_order="LittleEndian">
<UnstructuredGrid>
<Piece NumberOfPoints="5802" NumberOfCells="5680">
<Points>
<DataArray type="Float64" NumberOfComponents="3" format="ascii">
-0.1100000000000E+01 -0.4731587125634E+01  0.0000000000000E+00
 0.0000000000000E+00 -0.4731587125634E+01  0.0000000000000E+00
 0.1100000000000E+01 -0.4731587125634E+01  0.0000000000000E+00
-0.1191315091097E+01 -0.1825930012610E+01  0.0000000000000E+00
-0.5956575398395E+00 -0.1755172846926E+01  0.0000000000000E+00
 0.5956575512579E+00 -0.1755172847830E+01  0.0000000000000E+00
 0.1191315091097E+01 -0.1825930012610E+01  0.0000000000000E+00
-0.1487255332335E+01  0.3711246317436E+00  0.0000000000000E+00
 0.1487255329206E+01  0.3711246337271E+00  0.0000000000000E+00
-0.6187500000000E+00 -0.4973806884503E+00  0.0000000000000E+00
 0.6187500000000E+00 -0.4973806884503E+00  0.0000000000000E+00
-0.1072500000000E+01 -0.4731587125634E+01  0.0000000000000E+00
-0.1045000000000E+01 -0.4731587125634E+01  0.0000000000000E+00
-0.1017500000000E+01 -0.4731587125634E+01  0.0000000000000E+00
-0.9900000000000E+00 -0.4731587125634E+01  0.0000000000000E+00
-0.9625000000000E+00 -0.4731587125634E+01  0.0000000000000E+00
-0.9350000000000E+00 -0.4731587125634E+01  0.0000000000000E+00
-0.9075000000000E+00 -0.4731587125634E+01  0.0000000000000E+00
-0.8800000000000E+00 -0.4731587125634E+01  0.0000000000000E+00
-0.8525000000000E+00 -0.4731587125634E+01  0.0000000000000E+00
-0.8250000000000E+00 -0.4731587125634E+01  0.0000000000000E+00
-0.7975000000000E+00 -0.4731587125634E+01  0.0000000000000E+00
-0.7700000000000E+00 -0.4731587125634E+01  0.0000000000000E+00
-0.7425000000000E+00 -0.4731587125634E+01  0.0000000000000E+00
-0.7150000000000E+00 -0.4731587125634E+01  0.0000000000000E+00
-0.6875000000000E+00 -0.4731587125634E+01  0.0000000000000E+00
-0.6600000000000E+00 -0.4731587125634E+01  0.0000000000000E+00
-0.6325000000000E+00 -0.4731587125634E+01  0.0000000000000E+00
-0.6050000000000E+00 -0.4731587125634E+01  0.0000000000000E+00
-0.5775000000000E+00 -0.4731587125634E+01  0.0000000000000E+00
-0.5500000000000E+00 -0.4731587125634E+01  0.0000000000000E+00
-0.5225000000000E+00 -0.4731587125634E+01  0.0000000000000E+00
-0.4950000000000E+00 -0.4731587125634E+01  0.0000000000000E+00
-0.4675000000000E+00 -0.4731587125634E+01  0.0000000000000E+00
-0.4400000000000E+00 -0.4731587125634E+01  0.0000000000000E+00
-0.4125000000000E+00 -0.4731587125634E+01  0.0000000000000E+00
-0.3850000000000E+00 -0.4731587125634E+01  0.0000000000000E+00
-0.3575000000000E+00 -0.4731587125634E+01  0.0000000000000E+00
-0.3300000000000E+00 -0.4731587125634E+01  0.0000000000000E+00
-0.3025000000000E+00 -0.4731587125634E+01  0.0000000000000E+00
-0.2750000000000E+00 -0.4731587125634E+01  0.0000000000000E+00
-0.2475000000000E+00 -0.4731587125634E+01  0.0000000000000E+00
-0.2200000000000E+00 -0.4731587125634E+01  0.0000000000000E+00
-0.1925000000000E+00 -0.4731587125634E+01  0.0000000000000E+00
-0.1650000000000E+00 -0.4731587125634E+01  0.0000000000000E+00
-0.1375000000000E+00 -0.4731587125634E+01  0.0000000000000E+00
-0.1100000000000E+00 -0.4731587125634E+01  0.0000000000000E+00
-0.8250000000000E-01 -0.4731587125634E+01  0.0000000000000E+00
-0.5500000000000E-01 -0.4731587125634E+01  0.0000000000000E+00
-0.2750000000000E-01 -0.4731587125634E+01  0.0000000000000E+00
 0.2750000000000E-01 -0.4731587125634E+01  0.0000000000000E+00
 0.5500000000000E-01 -0.4731587125634E+01  0.0000000000000E+00
 0.8250000000000E-01 -0.4731587125634E+01  0.0000000000000E+00
 0.1100000000000E+00 -0.4731587125634E+01  0.0000000000000E+00
 0.1375000000000E+00 -0.4731587125634E+01  0.0000000000000E+00
 0.1650000000000E+00 -0.4731587125634E+01  0.0000000000000E+00
 0.1925000000000E+00 -0.4731587125634E+01  0.0000000000000E+00
 0.2200000000000E+00 -0.4731587125634E+01  0.0000000000000E+00
 0.2475000000000E+00 -0.4731587125634E+01  0.0000000000000E+00
 0.2750000000000E+00 -0.4731587125634E+01  0.0000000000000E+00
 0.3025000000000E+00 -0.4731587125634E+01  0.0000000000000E+00
 0.3300000000000E+00 -0.4731587125634E+01  0.0000000000000E+00
 0.3575000000000E+00 -0.4731587125634E+01  0.0000000000000E+00
 0.3850000000000E+00 -0.4731587125634E+01  0.0000000000000E+00
 0.4125000000000E+00 -0.4731587125634E+01  0.0000000000000E+00
 0.4400000000000E+00 -0.4731587125634E+01  0.0000000000000E+00
 0.4675000000000E+00 -0.4731587125634E+01  0.0000000000000E+00
 0.4950000000000E+00 -0.4731587125634E+01  0.0000000000000E+00
 0.5225000000000E+00 -0.4731587125634E+01  0.0000000000000E+00
 0.5500000000000E+00 -0.4731587125634E+01  0.0000000000000E+00
 0.5775000000000E+00 -0.4731587125634E+01  0.0000000000000E+00
 0.6050000000000E+00 -0.4731587125634E+01  0.0000000000000E+00
 0.6325000000000E+00 -0.4731587125634E+01  0.0000000000000E+00
 0.6600000000000E+00 -0.4731587125634E+01  0.0000000000000E+00
 0.6875000000000E+00 -0.4731587125634E+01  0.0000000000000E+00
 0.7150000000000E+00 -0.4731587125634E+01  0.0000000000000E+00
 0.7425000000000E+00 -0.4731587125634E+01  0.0000000000000E+00
 0.7700000000000E+00 -0.4731587125634E+01  0.0000000000000E+00
 0.7975000000000E+00 -0.4731587125634E+01  0.0000000000000E+00
 0.8250000000000E+00 -0.4731587125634E+01  0.0000000000000E+00
 0.8525000000000E+00 -0.4731587125634E+01  0.0000000000000E+00
 0.8800000000000E+00 -0.4731587125634E+01  0.0000000000000E+00
 0.9075000000000E+00 -0.4731587125634E+01  0.0000000000000E+00
 0.9350000000000E+00 -0.4731587125634E+01  0.0000000000000E+00
 0.9625000000000E+00 -0.4731587125634E+01  0.0000000000000E+00
 0.9900000000000E+00 -0.4731587125634E+01  0.0000000000000E+00
 0.1017500000000E+01 -0.4731587125634E+01  0.0000000000000E+00
 0.1045000000000E+01 -0.4731587125634E+01  0.0000000000000E+00
 0.1072500000000E+01 -0.4731587125634E+01  0.0000000000000E+00
-0.1161675590434E+01 -0.1821293974842E+01  0.0000000000000E+00
-0.1132018469080E+01 -0.1816772081031E+01  0.0000000000000E+00
-0.1102344135527E+01 -0.1812364599475E+01  0.0000000000000E+00
-0.1072653001422E+01 -0.1808071792594E+01  0.0000000000000E+00
-0.1042945459471E+01 -0.1803893913795E+01  0.0000000000000E+00
-0.1013221952450E+01 -0.1799831217138E+01  0.0000000000000E+00
-0.9834829017084E+00 -0.1795883946982E+01  0.0000000000000E+00
-0.9537287316532E+00 -0.1792052341512E+01  0.0000000000000E+00
-0.9239598612408E+00 -0.1788336631619E+01  0.0000000000000E+00
-0.8941767210493E+00 -0.1784737043031E+01  0.0000000000000E+00
-0.8643797539566E+00 -0.1781253796152E+01  0.0000000000000E+00
-0.8345693957871E+00 -0.1777887103664E+01  0.0000000000000E+00
-0.8047460850418E+00 -0.1774637171701E+01  0.0000000000000E+00
-0.7749102599775E+00 -0.1771504199483E+01  0.0000000000000E+00
-0.7450623578572E+00 -0.1768488379244E+01  0.0000000000000E+00
-0.7152028352234E+00 -0.1765589898169E+01  0.0000000000000E+00
-0.6853321404180E+00 -0.1762808935500E+01  0.0000000000000E+00
-0.6554507240472E+00 -0.1760145663610E+01  0.0000000000000E+00
-0.6255590388957E+00 -0.1757600247935E+01  0.0000000000000E+00
-0.5659320403842E+00 -0.1752877555980E+01  0.0000000000000E+00
-0.5361977827764E+00 -0.1750699115345E+01  0.0000000000000E+00
-0.5064551822954E+00 -0.1748637656849E+01  0.0000000000000E+00
-0.4767046834532E+00 -0.1746693307634E+01  0.0000000000000E+00
-0.4469467825907E+00 -0.1744866190914E+01  0.0000000000000E+00
-0.4171818756954E+00 -0.1743156416506E+01  0.0000000000000E+00
-0.3874104734057E+00 -0.1741564093885E+01  0.0000000000000E+00
-0.3576330176963E+00 -0.1740089321191E+01  0.0000000000000E+00
-0.3278499563594E+00 -0.1738732189839E+01  0.0000000000000E+00
-0.2980617833702E+00 -0.1737492785992E+01  0.0000000000000E+00
-0.2682689204519E+00 -0.1736371185422E+01  0.0000000000000E+00
-0.2384718656336E+00 -0.1735367459648E+01  0.0000000000000E+00
-0.2086710716336E+00 -0.1734481671049E+01  0.0000000000000E+00
-0.1788669979735E+00 -0.1733713874997E+01  0.0000000000000E+00
-0.1490601279746E+00 -0.1733064120054E+01  0.0000000000000E+00
-0.1192509059245E+00 -0.1732532446511E+01  0.0000000000000E+00
-0.8943981808141E-01 -0.1732118888112E+01  0.0000000000000E+00
-0.5962732433722E-01 -0.1731823470688E+01  0.0000000000000E+00
-0.2981389296327E-01 -0.1731646212812E+01  0.0000000000000E+00
 0.5727055635285E-08 -0.1731587125634E+01  0.0000000000000E+00
 0.2981390441730E-01 -0.1731646212857E+01  0.0000000000000E+00
 0.5962733579097E-01 -0.1731823470779E+01  0.0000000000000E+00
 0.8943982953471E-01 -0.1732118888248E+01  0.0000000000000E+00
 0.1192509173772E+00 -0.1732532446692E+01  0.0000000000000E+00
 0.1490601394265E+00 -0.1733064120281E+01  0.0000000000000E+00
 0.1788670094244E+00 -0.1733713875269E+01  0.0000000000000E+00
 0.2086710830833E+00 -0.1734481671367E+01  0.0000000000000E+00
 0.2384718770819E+00 -0.1735367460011E+01  0.0000000000000E+00
 0.2682689318987E+00 -0.1736371185830E+01  0.0000000000000E+00
 0.2980617948153E+00 -0.1737492786445E+01  0.0000000000000E+00
 0.3278499678026E+00 -0.1738732190338E+01  0.0000000000000E+00
 0.3576330291375E+00 -0.1740089321735E+01  0.0000000000000E+00
 0.3874104848446E+00 -0.1741564094474E+01  0.0000000000000E+00
 0.4171818871319E+00 -0.1743156417141E+01  0.0000000000000E+00
 0.4469467940246E+00 -0.1744866191594E+01  0.0000000000000E+00
 0.4767046948843E+00 -0.1746693308359E+01  0.0000000000000E+00
 0.5064551937236E+00 -0.1748637657619E+01  0.0000000000000E+00
 0.5361977942015E+00 -0.1750699116160E+01  0.0000000000000E+00
 0.5659320518060E+00 -0.1752877556840E+01  0.0000000000000E+00
 0.6255590497397E+00 -0.1757600248837E+01  0.0000000000000E+00
 0.6554507343169E+00 -0.1760145664505E+01  0.0000000000000E+00
 0.6853321501138E+00 -0.1762808936384E+01  0.0000000000000E+00
 0.7152028443456E+00 -0.1765589899036E+01  0.0000000000000E+00
 0.7450623664059E+00 -0.1768488380091E+01  0.0000000000000E+00
 0.7749102679531E+00 -0.1771504200305E+01  0.0000000000000E+00
 0.8047460924447E+00 -0.1774637172493E+01  0.0000000000000E+00
 0.8345694026177E+00 -0.1777887104422E+01  0.0000000000000E+00
 0.8643797602152E+00 -0.1781253796871E+01  0.0000000000000E+00
 0.8941767267363E+00 -0.1784737043707E+01  0.0000000000000E+00
 0.9239598663567E+00 -0.1788336632248E+01  0.0000000000000E+00
 0.9537287361985E+00 -0.1792052342089E+01  0.0000000000000E+00
 0.9834829056835E+00 -0.1795883947502E+01  0.0000000000000E+00
 0.1013221955855E+01 -0.1799831217596E+01  0.0000000000000E+00
 0.1042945462307E+01 -0.1803893914188E+01  0.0000000000000E+00
 0.1072653003690E+01 -0.1808071792917E+01  0.0000000000000E+00
 0.1102344137227E+01 -0.1812364599724E+01  0.0000000000000E+00
 0.1132018470213E+01 -0.1816772081202E+01  0.0000000000000E+00
 0.1161675591000E+01 -0.1821293974929E+01  0.0000000000000E+00
-0.1213355268613E+01 -0.1711966308233E+01  0.0000000000000E+00
-0.1238854526170E+01 -0.1598727811073E+01  0.0000000000000E+00
-0.1268466688037E+01 -0.1486497481512E+01  0.0000000000000E+00
-0.1303342965295E+01 -0.1375796643044E+01  0.0000000000000E+00
-0.1345040310075E+01 -0.1267489592785E+01  0.0000000000000E+00
-0.1392581470401E+01 -0.1161597043208E+01  0.0000000000000E+00
-0.1439083524730E+01 -0.1055246799568E+01  0.0000000000000E+00
-0.1480944100518E+01 -0.9469891138312E+00  0.0000000000000E+00
-0.1518131836329E+01 -0.8370360644333E+00  0.0000000000000E+00
-0.1551041415331E+01 -0.7257267337723E+00  0.0000000000000E+00
-0.1579720048034E+01 -0.6132533876738E+00  0.0000000000000E+00
-0.1603836412081E+01 -0.4997150980206E+00  0.0000000000000E+00
-0.1623384157755E+01 -0.3853015140723E+00  0.0000000000000E+00
-0.1638101487121E+01 -0.2701686503839E+00  0.0000000000000E+00
-0.1647164985397E+01 -0.1544579176162E+00  0.0000000000000E+00
-0.1649971232607E+01 -0.3842453929912E-01  0.0000000000000E+00
-0.1647980696334E+01  0.7761284988695E-01  0.0000000000000E+00
-0.1626874369891E+01  0.1914362508587E+00  0.0000000000000E+00
-0.1572796829836E+01  0.2935193328390E+00  0.0000000000000E+00
-0.1418305908641E+01  0.4022416062919E+00  0.0000000000000E+00
-0.1345676864211E+01  0.4236315892164E+00  0.0000000000000E+00
-0.1271121572232E+01  0.4368480112286E+00  0.0000000000000E+00
-0.1195563418735E+01  0.4416990799735E+00  0.0000000000000E+00
-0.1119906317278E+01  0.4384406277265E+00  0.0000000000000E+00
-0.1044756289719E+01  0.4290110284082E+00  0.0000000000000E+00
-0.9703274447726E+00  0.4149459401020E+00  0.0000000000000E+00
-0.8965853652262E+00  0.3976148229097E+00  0.0000000000000E+00
-0.8232882160705E+00  0.3784769972153E+00  0.0000000000000E+00
-0.7500778072402E+00  0.3590082550316E+00  0.0000000000000E+00
-0.6765282087393E+00  0.3408715871599E+00  0.0000000000000E+00
-0.6024721689929E+00  0.3249314759684E+00  0.0000000000000E+00
-0.5279626734789E+00  0.3112660660816E+00  0.0000000000000E+00
-0.4530942500529E+00  0.2997252351383E+00  0.0000000000000E+00
-0.3779502175627E+00  0.2901382908398E+00  0.0000000000000E+00
-0.3025960047097E+00  0.2823699994777E+00  0.0000000000000E+00
-0.2270833670538E+00  0.2763314545000E+00  0.0000000000000E+00
-0.1514548639988E+00  0.2719804032214E+00  0.0000000000000E+00
-0.7574795049362E-01  0.2693218404769E+00  0.0000000000000E+00
-0.1822076423075E-08  0.2684128743665E+00  0.0000000000000E+00
 0.7574794685078E-01  0.2693218403904E+00  0.0000000000000E+00
 0.1514548603582E+00  0.2719804030525E+00  0.0000000000000E+00
 0.2270833634172E+00  0.2763314542500E+00  0.0000000000000E+00
 0.3025960010827E+00  0.2823699991460E+00  0.0000000000000E+00
 0.3779502139414E+00  0.2901382904224E+00  0.0000000000000E+00
 0.4530942464462E+00  0.2997252346305E+00  0.0000000000000E+00
 0.5279626698826E+00  0.3112660654745E+00  0.0000000000000E+00
 0.6024721654224E+00  0.3249314752557E+00  0.0000000000000E+00
 0.6765282051910E+00  0.3408715863362E+00  0.0000000000000E+00
 0.7500778037128E+00  0.3590082541141E+00  0.0000000000000E+00
 0.8232882125500E+00  0.3784769962749E+00  0.0000000000000E+00
 0.8965853616918E+00  0.3976148220208E+00  0.0000000000000E+00
 0.9703274412081E+00  0.4149459393403E+00  0.0000000000000E+00
 0.1044756286115E+01  0.4290110278460E+00  0.0000000000000E+00
 0.1119906313643E+01  0.4384406274322E+00  0.0000000000000E+00
 0.1195563415086E+01  0.4416990800252E+00  0.0000000000000E+00
 0.1271121568610E+01  0.4368480116963E+00  0.0000000000000E+00
 0.1345676860666E+01  0.4236315901228E+00  0.0000000000000E+00
 0.1418305905243E+01  0.4022416076848E+00  0.0000000000000E+00
 0.1572796827692E+01  0.2935193356292E+00  0.0000000000000E+00
 0.1626874368892E+01  0.1914362540528E+00  0.0000000000000E+00
 0.1647980696148E+01  0.7761285305478E-01  0.0000000000000E+00
 0.1649971232614E+01 -0.3842453631130E-01  0.0000000000000E+00
 0.1647164985510E+01 -0.1544579148168E+00  0.0000000000000E+00
 0.1638101487343E+01 -0.2701686477783E+00  0.0000000000000E+00
 0.1623384158054E+01 -0.3853015116666E+00  0.0000000000000E+00
 0.1603836412438E+01 -0.4997150958130E+00  0.0000000000000E+00
 0.1579720048441E+01 -0.6132533856674E+00  0.0000000000000E+00
 0.1551041415774E+01 -0.7257267319674E+00  0.0000000000000E+00
 0.1518131836796E+01 -0.8370360628288E+00  0.0000000000000E+00
 0.1480944100999E+01 -0.9469891124298E+00  0.0000000000000E+00
 0.1439083525216E+01 -0.1055246798366E+01  0.0000000000000E+00
 0.1392581470861E+01 -0.1161597042198E+01  0.0000000000000E+00
 0.1345040310428E+01 -0.1267489591933E+01  0.0000000000000E+00
 0.1303342965506E+01 -0.1375796642335E+01  0.0000000000000E+00
 0.1268466688140E+01 -0.1486497480965E+01  0.0000000000000E+00
 0.1238854526204E+01 -0.1598727810699E+01  0.0000000000000E+00
 0.1213355268613E+01 -0.1711966308043E+01  0.0000000000000E+00
-0.1100000000000E+01 -0.4660595750534E+01  0.0000000000000E+00
-0.1100000000000E+01 -0.4589604523337E+01  0.0000000000000E+00
-0.1100000000000E+01 -0.4518612860194E+01  0.0000000000000E+00
-0.1100000000000E+01 -0.4447621396074E+01  0.0000000000000E+00
-0.1100000000000E+01 -0.4376629946073E+01  0.0000000000000E+00
-0.1100000000000E+01 -0.4305638469395E+01  0.0000000000000E+00
-0.1100000000000E+01 -0.4234647034675E+01  0.0000000000000E+00
-0.1100000000000E+01 -0.4163655573930E+01  0.0000000000000E+00
-0.1100000000000E+01 -0.4092664118400E+01  0.0000000000000E+00
-0.1100000000000E+01 -0.4021672670707E+01  0.0000000000000E+00
-0.1100000000000E+01 -0.3950681208157E+01  0.0000000000000E+00
-0.1100000000000E+01 -0.3879689768887E+01  0.0000000000000E+00
-0.1100000000000E+01 -0.3808698298634E+01  0.0000000000000E+00
-0.1100000000000E+01 -0.3737706770464E+01  0.0000000000000E+00
-0.1100000000000E+01 -0.3666715262498E+01  0.0000000000000E+00
-0.1100000000000E+01 -0.3595723839456E+01  0.0000000000000E+00
-0.1100000000000E+01 -0.3524731789668E+01  0.0000000000000E+00
-0.1100000000000E+01 -0.3453740926047E+01  0.0000000000000E+00
-0.1100000000000E+01 -0.3382749460249E+01  0.0000000000000E+00
-0.1100000000000E+01 -0.3311758072240E+01  0.0000000000000E+00
-0.1100000000000E+01 -0.3240766774652E+01  0.0000000000000E+00
-0.1100000000000E+01 -0.3169775441240E+01  0.0000000000000E+00
-0.1100000000000E+01 -0.3098784076079E+01  0.0000000000000E+00
-0.1100019380481E+01 -0.3027792649889E+01  0.0000000000000E+00
-0.1100182969515E+01 -0.2956801452749E+01  0.0000000000000E+00
-0.1100664097718E+01 -0.2885811820573E+01  0.0000000000000E+00
-0.1101620767933E+01 -0.2814827030427E+01  0.0000000000000E+00
-0.1103169283693E+01 -0.2743852764288E+01  0.0000000000000E+00
-0.1105384238767E+01 -0.2672896168192E+01  0.0000000000000E+00
-0.1108313328915E+01 -0.2601965572023E+01  0.0000000000000E+00
-0.1111994457710E+01 -0.2531069964563E+01  0.0000000000000E+00
-0.1116470504631E+01 -0.2460220060781E+01  0.0000000000000E+00
-0.1121800458045E+01 -0.2389429442476E+01  0.0000000000000E+00
-0.1127980999498E+01 -0.2318707927775E+01  0.0000000000000E+00
-0.1134925652832E+01 -0.2248057274554E+01  0.0000000000000E+00
-0.1142572685777E+01 -0.2177479159635E+01  0.0000000000000E+00
-0.1150886195216E+01 -0.2106976362838E+01  0.0000000000000E+00
-0.1159854464778E+01 -0.2036553785977E+01  0.0000000000000E+00
-0.1169495475345E+01 -0.1966220321347E+01  0.0000000000000E+00
-0.1179881536539E+01 -0.1895993177716E+01  0.0000000000000E+00
 0.1179881536541E+01 -0.1895993177715E+01  0.0000000000000E+00
 0.1169495475345E+01 -0.1966220321347E+01  0.0000000000000E+00
 0.1159854464777E+01 -0.2036553785977E+01  0.0000000000000E+00
 0.1150886195214E+01 -0.2106976362838E+01  0.0000000000000E+00
 0.1142572685775E+01 -0.2177479159635E+01  0.0000000000000E+00
 0.1134925652830E+01 -0.2248057274554E+01  0.0000000000000E+00
 0.1127980999496E+01 -0.2318707927775E+01  0.0000000000000E+00
 0.1121800458043E+01 -0.2389429442476E+01  0.0000000000000E+00
 0.1116470504629E+01 -0.2460220060781E+01  0.0000000000000E+00
 0.1111994457707E+01 -0.2531069964563E+01  0.0000000000000E+00
 0.1108313328912E+01 -0.2601965572023E+01  0.0000000000000E+00
 0.1105384238765E+01 -0.2672896168191E+01  0.0000000000000E+00
 0.1103169283691E+01 -0.2743852764287E+01  0.0000000000000E+00
 0.1101620767933E+01 -0.2814827030427E+01  0.0000000000000E+00
 0.1100664097717E+01 -0.2885811820573E+01  0.0000000000000E+00
 0.1100182969515E+01 -0.2956801452748E+01  0.0000000000000E+00
 0.1100019380481E+01 -0.3027792649889E+01  0.0000000000000E+00
 0.1100000000000E+01 -0.3098784076079E+01  0.0000000000000E+00
 0.1100000000000E+01 -0.3169775441240E+01  0.0000000000000E+00
 0.1100000000000E+01 -0.3240766774652E+01  0.0000000000000E+00
 0.1100000000000E+01 -0.3311758072240E+01  0.0000000000000E+00
 0.1100000000000E+01 -0.3382749460249E+01  0.0000000000000E+00
 0.1100000000000E+01 -0.3453740926047E+01  0.0000000000000E+00
 0.1100000000000E+01 -0.3524731789668E+01  0.0000000000000E+00
 0.1100000000000E+01 -0.3595723839456E+01  0.0000000000000E+00
 0.1100000000000E+01 -0.3666715262498E+01  0.0000000000000E+00
 0.1100000000000E+01 -0.3737706770464E+01  0.0000000000000E+00
 0.1100000000000E+01 -0.3808698298633E+01  0.0000000000000E+00
 0.1100000000000E+01 -0.3879689768887E+01  0.0000000000000E+00
 0.1100000000000E+01 -0.3950681208157E+01  0.0000000000000E+00
 0.1100000000000E+01 -0.4021672670707E+01  0.0000000000000E+00
 0.1100000000000E+01 -0.4092664118399E+01  0.0000000000000E+00
 0.1100000000000E+01 -0.4163655573930E+01  0.0000000000000E+00
 0.1100000000000E+01 -0.4234647034675E+01  0.0000000000000E+00
 0.1100000000000E+01 -0.4305638469395E+01  0.0000000000000E+00
 0.1100000000000E+01 -0.4376629946073E+01  0.0000000000000E+00
 0.1100000000000E+01 -0.4447621396074E+01  0.0000000000000E+00
 0.1100000000000E+01 -0.4518612860194E+01  0.0000000000000E+00
 0.1100000000000E+01 -0.4589604523337E+01  0.0000000000000E+00
 0.1100000000000E+01 -0.4660595750534E+01  0.0000000000000E+00
-0.5884638695905E+00 -0.4894641513885E+00  0.0000000000000E+00
-0.5580825246164E+00 -0.4819218154218E+00  0.0000000000000E+00
-0.5276095633171E+00 -0.4747582607812E+00  0.0000000000000E+00
-0.4970490688930E+00 -0.4679779933456E+00  0.0000000000000E+00
-0.4664052113280E+00 -0.4615853306416E+00  0.0000000000000E+00
-0.4356821841498E+00 -0.4555843826271E+00  0.0000000000000E+00
-0.4048845338533E+00 -0.4499791064130E+00  0.0000000000000E+00
-0.3740168397343E+00 -0.4447732294152E+00  0.0000000000000E+00
-0.3430839130773E+00 -0.4399702753278E+00  0.0000000000000E+00
-0.3120906320172E+00 -0.4355735248917E+00  0.0000000000000E+00
-0.2810420500145E+00 -0.4315860232937E+00  0.0000000000000E+00
-0.2499433335888E+00 -0.4280105603977E+00  0.0000000000000E+00
-0.2187997508610E+00 -0.4248496608797E+00  0.0000000000000E+00
-0.1876166729319E+00 -0.4221055764161E+00  0.0000000000000E+00
-0.1563995773423E+00 -0.4197802779940E+00  0.0000000000000E+00
-0.1251540094126E+00 -0.4178754457584E+00  0.0000000000000E+00
-0.9388558172344E-01 -0.4163924636598E+00  0.0000000000000E+00
-0.6259996113275E-01 -0.4153324139295E+00  0.0000000000000E+00
-0.3130285547239E-01 -0.4146960727333E+00  0.0000000000000E+00
-0.2220446049250E-15 -0.4144839070419E+00  0.0000000000000E+00
 0.3130285547239E-01 -0.4146960727333E+00  0.0000000000000E+00
 0.6259996113275E-01 -0.4153324139295E+00  0.0000000000000E+00
 0.9388558172344E-01 -0.4163924636598E+00  0.0000000000000E+00
 0.1251540094126E+00 -0.4178754457584E+00  0.0000000000000E+00
 0.1563995773423E+00 -0.4197802779940E+00  0.0000000000000E+00
 0.1876166729319E+00 -0.4221055764161E+00  0.0000000000000E+00
 0.2187997508610E+00 -0.4248496608797E+00  0.0000000000000E+00
 0.2499433335888E+00 -0.4280105603977E+00  0.0000000000000E+00
 0.2810420500145E+00 -0.4315860232937E+00  0.0000000000000E+00
 0.3120906320172E+00 -0.4355735248917E+00  0.0000000000000E+00
 0.3430839130773E+00 -0.4399702753278E+00  0.0000000000000E+00
 0.3740168397343E+00 -0.4447732294152E+00  0.0000000000000E+00
 0.4048845338533E+00 -0.4499791064130E+00  0.0000000000000E+00
 0.4356821841498E+00 -0.4555843826271E+00  0.0000000000000E+00
 0.4664052113280E+00 -0.4615853306416E+00  0.0000000000000E+00
 0.4970490688930E+00 -0.4679779933456E+00  0.0000000000000E+00
 0.5276095633171E+00 -0.4747582607812E+00  0.0000000000000E+00
 0.5580825246164E+00 -0.4819218154218E+00  0.0000000000000E+00
 0.5884638695905E+00 -0.4894641513885E+00  0.0000000000000E+00
-0.6186694182519E+00 -0.5602854202626E+00  0.0000000000000E+00
-0.6184121778050E+00 -0.6231895804302E+00  0.0000000000000E+00
-0.6179522181120E+00 -0.6860925653381E+00  0.0000000000000E+00
-0.6172599449830E+00 -0.7489933811583E+00  0.0000000000000E+00
-0.6163035973388E+00 -0.8118907743073E+00  0.0000000000000E+00
-0.6150531470475E+00 -0.8747829429232E+00  0.0000000000000E+00
-0.6134887983150E+00 -0.9376681601377E+00  0.0000000000000E+00
-0.6116160329111E+00 -0.1000544889820E+01  0.0000000000000E+00
-0.6094851916442E+00 -0.1063413466424E+01  0.0000000000000E+00
-0.6072037720657E+00 -0.1126276767718E+01  0.0000000000000E+00
-0.6049223524117E+00 -0.1189140069010E+01  0.0000000000000E+00
-0.6027915109277E+00 -0.1252008645607E+01  0.0000000000000E+00
-0.6009187451903E+00 -0.1314885375279E+01  0.0000000000000E+00
-0.5993543960372E+00 -0.1377770592483E+01  0.0000000000000E+00
-0.5981039452651E+00 -0.1440662761090E+01  0.0000000000000E+00
-0.5971475971003E+00 -0.1503560154231E+01  0.0000000000000E+00
-0.5964553234260E+00 -0.1566460970045E+01  0.0000000000000E+00
-0.5959953631729E+00 -0.1629363954949E+01  0.0000000000000E+00
-0.5957381221583E+00 -0.1692268115114E+01  0.0000000000000E+00
 0.6186694182523E+00 -0.5602854202973E+00  0.0000000000000E+00
 0.6184121778088E+00 -0.6231895804997E+00  0.0000000000000E+00
 0.6179522181269E+00 -0.6860925654424E+00  0.0000000000000E+00
 0.6172599450237E+00 -0.7489933812976E+00  0.0000000000000E+00
 0.6163035974300E+00 -0.8118907744820E+00  0.0000000000000E+00
 0.6150531472289E+00 -0.8747829431345E+00  0.0000000000000E+00
 0.6134887986468E+00 -0.9376681603875E+00  0.0000000000000E+00
 0.6116160334801E+00 -0.1000544890112E+01  0.0000000000000E+00
 0.6094851925666E+00 -0.1063413466762E+01  0.0000000000000E+00
 0.6072037734828E+00 -0.1126276768110E+01  0.0000000000000E+00
 0.6049223544747E+00 -0.1189140069460E+01  0.0000000000000E+00
 0.6027915137782E+00 -0.1252008646118E+01  0.0000000000000E+00
 0.6009187489451E+00 -0.1314885375852E+01  0.0000000000000E+00
 0.5993544007835E+00 -0.1377770593115E+01  0.0000000000000E+00
 0.5981039510633E+00 -0.1440662761777E+01  0.0000000000000E+00
 0.5971476039902E+00 -0.1503560154969E+01  0.0000000000000E+00
 0.5964553314325E+00 -0.1566460970831E+01  0.0000000000000E+00
 0.5959953723106E+00 -0.1629363955777E+01  0.0000000000000E+00
 0.5957381324349E+00 -0.1692268115982E+01  0.0000000000000E+00
-0.6621752666167E+00 -0.4539554224406E+00  0.0000000000000E+00
-0.7056005332335E+00 -0.4105301564309E+00  0.0000000000000E+00
-0.7490257998502E+00 -0.3671048904212E+00  0.0000000000000E+00
-0.7924510664670E+00 -0.3236796244115E+00  0.0000000000000E+00
-0.8358763330837E+00 -0.2802543584018E+00  0.0000000000000E+00
-0.8793015997004E+00 -0.2368290923921E+00  0.0000000000000E+00
-0.9227268663172E+00 -0.1934038263824E+00  0.0000000000000E+00
-0.9661521329339E+00 -0.1499785603727E+00  0.0000000000000E+00
-0.1009577399551E+01 -0.1065532943630E+00  0.0000000000000E+00
-0.1053002666167E+01 -0.6312802835334E-01  0.0000000000000E+00
-0.1096427932784E+01 -0.1970276234365E-01  0.0000000000000E+00
-0.1139853199401E+01  0.2372250366604E-01  0.0000000000000E+00
-0.1183278466018E+01  0.6714776967573E-01  0.0000000000000E+00
-0.1226703732634E+01  0.1105730356854E+00  0.0000000000000E+00
-0.1270128999251E+01  0.1539983016951E+00  0.0000000000000E+00
-0.1313554265868E+01  0.1974235677048E+00  0.0000000000000E+00
-0.1356979532485E+01  0.2408488337145E+00  0.0000000000000E+00
-0.1400404799101E+01  0.2842740997242E+00  0.0000000000000E+00
-0.1443830065718E+01  0.3276993657339E+00  0.0000000000000E+00
 0.6621752664603E+00 -0.4539554223414E+00  0.0000000000000E+00
 0.7056005329206E+00 -0.4105301562325E+00  0.0000000000000E+00
 0.7490257993809E+00 -0.3671048901237E+00  0.0000000000000E+00
 0.7924510658412E+00 -0.3236796240148E+00  0.0000000000000E+00
 0.8358763323015E+00 -0.2802543579059E+00  0.0000000000000E+00
 0.8793015987618E+00 -0.2368290917971E+00  0.0000000000000E+00
 0.9227268652221E+00 -0.1934038256882E+00  0.0000000000000E+00
 0.9661521316824E+00 -0.1499785595793E+00  0.0000000000000E+00
 0.1009577398143E+01 -0.1065532934705E+00  0.0000000000000E+00
 0.1053002664603E+01 -0.6312802736160E-01  0.0000000000000E+00
 0.1096427931063E+01 -0.1970276125273E-01  0.0000000000000E+00
 0.1139853197524E+01  0.2372250485614E-01  0.0000000000000E+00
 0.1183278463984E+01  0.6714777096501E-01  0.0000000000000E+00
 0.1226703730444E+01  0.1105730370739E+00  0.0000000000000E+00
 0.1270128996905E+01  0.1539983031827E+00  0.0000000000000E+00
 0.1313554263365E+01  0.1974235692916E+00  0.0000000000000E+00
 0.1356979529825E+01  0.2408488354005E+00  0.0000000000000E+00
 0.1400404796285E+01  0.2842741015093E+00  0.0000000000000E+00
 0.1443830062746E+01  0.3276993676182E+00  0.0000000000000E+00
-0.1072503587165E+01 -0.4660482676314E+01  0.0000000000000E+00
-0.1072507174322E+01 -0.4589378375132E+01  0.0000000000000E+00
-0.1072510761501E+01 -0.4518273637310E+01  0.0000000000000E+00
-0.1072514348670E+01 -0.4447169098828E+01  0.0000000000000E+00
-0.1072517935839E+01 -0.4376064574487E+01  0.0000000000000E+00
-0.1072521523008E+01 -0.4304960023427E+01  0.0000000000000E+00
-0.1072525110176E+01 -0.4233855514392E+01  0.0000000000000E+00
-0.1072528697345E+01 -0.4162750979291E+01  0.0000000000000E+00
-0.1072532284514E+01 -0.4091646449412E+01  0.0000000000000E+00
-0.1072535871682E+01 -0.4020541927384E+01  0.0000000000000E+00
-0.1072539458851E+01 -0.3949437390474E+01  0.0000000000000E+00
-0.1072543046019E+01 -0.3878332876881E+01  0.0000000000000E+00
-0.1072546633189E+01 -0.3807228332256E+01  0.0000000000000E+00
-0.1072550220361E+01 -0.3736123729622E+01  0.0000000000000E+00
-0.1072553807532E+01 -0.3665019147225E+01  0.0000000000000E+00
-0.1072557394699E+01 -0.3593914649887E+01  0.0000000000000E+00
-0.1072560981898E+01 -0.3522809524803E+01  0.0000000000000E+00
-0.1072564569037E+01 -0.3451705587777E+01  0.0000000000000E+00
-0.1072568156206E+01 -0.3380601047615E+01  0.0000000000000E+00
-0.1072571743371E+01 -0.3309496585365E+01  0.0000000000000E+00
-0.1072575330532E+01 -0.3238392213680E+01  0.0000000000000E+00
-0.1072578917695E+01 -0.3167287806114E+01  0.0000000000000E+00
-0.1072582504859E+01 -0.3096183366749E+01  0.0000000000000E+00
-0.1072604987210E+01 -0.3025078866253E+01  0.0000000000000E+00
-0.1072768067061E+01 -0.2953974594875E+01  0.0000000000000E+00
-0.1073240734738E+01 -0.2882871888659E+01  0.0000000000000E+00
-0.1074177036625E+01 -0.2811774024513E+01  0.0000000000000E+00
-0.1075690363951E+01 -0.2740686684501E+01  0.0000000000000E+00
-0.1077853442627E+01 -0.2669617014531E+01  0.0000000000000E+00
-0.1080712774083E+01 -0.2598573344661E+01  0.0000000000000E+00
-0.1084305312776E+01 -0.2527564663401E+01  0.0000000000000E+00
-0.1088672864462E+01 -0.2456601685752E+01  0.0000000000000E+00
-0.1093872940397E+01 -0.2385697993847E+01  0.0000000000000E+00
-0.1099902305238E+01 -0.2314863405415E+01  0.0000000000000E+00
-0.1106676648231E+01 -0.2244099678337E+01  0.0000000000000E+00
-0.1114135782912E+01 -0.2173408489510E+01  0.0000000000000E+00
-0.1122244705194E+01 -0.2102792618679E+01  0.0000000000000E+00
-0.1130991992091E+01 -0.2032256967667E+01  0.0000000000000E+00
-0.1140395174223E+01 -0.1961810429153E+01  0.0000000000000E+00
-0.1150524750544E+01 -0.1891470211900E+01  0.0000000000000E+00
-0.1045006744548E+01 -0.4660372386096E+01  0.0000000000000E+00
-0.1045013489082E+01 -0.4589157794926E+01  0.0000000000000E+00
-0.1045020233658E+01 -0.4517942766438E+01  0.0000000000000E+00
-0.1045026978215E+01 -0.4446727937600E+01  0.0000000000000E+00
-0.1045033722770E+01 -0.4375513122924E+01  0.0000000000000E+00
-0.1045040467328E+01 -0.4304298281489E+01  0.0000000000000E+00
-0.1045047211882E+01 -0.4233083482143E+01  0.0000000000000E+00
-0.1045053956438E+01 -0.4161868656690E+01  0.0000000000000E+00
-0.1045060700994E+01 -0.4090653836468E+01  0.0000000000000E+00
-0.1045067445549E+01 -0.4019439024110E+01  0.0000000000000E+00
-0.1045074190105E+01 -0.3948224196846E+01  0.0000000000000E+00
-0.1045080934660E+01 -0.3877009392935E+01  0.0000000000000E+00
-0.1045087679217E+01 -0.3805794557944E+01  0.0000000000000E+00
-0.1045094423780E+01 -0.3734579664855E+01  0.0000000000000E+00
-0.1045101168341E+01 -0.3663364792032E+01  0.0000000000000E+00
-0.1045107912893E+01 -0.3592150004402E+01  0.0000000000000E+00
-0.1045114657506E+01 -0.3520934588052E+01  0.0000000000000E+00
-0.1045121402005E+01 -0.3449720361602E+01  0.0000000000000E+00
-0.1045128146562E+01 -0.3378505531081E+01  0.0000000000000E+00
-0.1045134891112E+01 -0.3307290778593E+01  0.0000000000000E+00
-0.1045141635652E+01 -0.3236076116811E+01  0.0000000000000E+00
-0.1045148380197E+01 -0.3164861419091E+01  0.0000000000000E+00
-0.1045155124744E+01 -0.3093646689524E+01  0.0000000000000E+00
-0.1045180279185E+01 -0.3022431898726E+01  0.0000000000000E+00
-0.1045342420071E+01 -0.2951217337114E+01  0.0000000000000E+00
-0.1045806197445E+01 -0.2880004340854E+01  0.0000000000000E+00
-0.1046721701225E+01 -0.2808796186706E+01  0.0000000000000E+00
-0.1048199410343E+01 -0.2737598556815E+01  0.0000000000000E+00
-0.1050310182850E+01 -0.2666418596963E+01  0.0000000000000E+00
-0.1053099325844E+01 -0.2595264637382E+01  0.0000000000000E+00
-0.1056602844668E+01 -0.2524145666314E+01  0.0000000000000E+00
-0.1060861471353E+01 -0.2453072398792E+01  0.0000000000000E+00
-0.1065931240050E+01 -0.2382058417274E+01  0.0000000000000E+00
-0.1071808998522E+01 -0.2311113539101E+01  0.0000000000000E+00
-0.1078412601419E+01 -0.2240239522158E+01  0.0000000000000E+00
-0.1085683408080E+01 -0.2169438043419E+01  0.0000000000000E+00
-0.1093587313453E+01 -0.2098711882551E+01  0.0000000000000E+00
-0.1102113187936E+01 -0.2028065941388E+01  0.0000000000000E+00
-0.1111278111887E+01 -0.1957509112984E+01  0.0000000000000E+00
-0.1121150773592E+01 -0.1887058606097E+01  0.0000000000000E+00
-0.1017509482115E+01 -0.4660264886424E+01  0.0000000000000E+00
-0.1017518964210E+01 -0.4588942795806E+01  0.0000000000000E+00
-0.1017528446364E+01 -0.4517620267209E+01  0.0000000000000E+00
-0.1017537928491E+01 -0.4446297938565E+01  0.0000000000000E+00
-0.1017547410616E+01 -0.4374975624103E+01  0.0000000000000E+00
-0.1017556892744E+01 -0.4303653282842E+01  0.0000000000000E+00
-0.1017566374867E+01 -0.4232330983734E+01  0.0000000000000E+00
-0.1017575856993E+01 -0.4161008658479E+01  0.0000000000000E+00
-0.1017585339119E+01 -0.4089686338463E+01  0.0000000000000E+00
-0.1017594821244E+01 -0.4018364026323E+01  0.0000000000000E+00
-0.1017604303371E+01 -0.3947041699254E+01  0.0000000000000E+00
-0.1017613785494E+01 -0.3875719395574E+01  0.0000000000000E+00
-0.1017623267622E+01 -0.3804397060767E+01  0.0000000000000E+00
-0.1017632749757E+01 -0.3733074667774E+01  0.0000000000000E+00
-0.1017642231890E+01 -0.3661752295078E+01  0.0000000000000E+00
-0.1017651714011E+01 -0.3590430007703E+01  0.0000000000000E+00
-0.1017661196216E+01 -0.3519107090659E+01  0.0000000000000E+00
-0.1017670678263E+01 -0.3447785365312E+01  0.0000000000000E+00
-0.1017680160390E+01 -0.3376463034981E+01  0.0000000000000E+00
-0.1017689642507E+01 -0.3305140782802E+01  0.0000000000000E+00
-0.1017699124612E+01 -0.3233818621464E+01  0.0000000000000E+00
-0.1017708606721E+01 -0.3162496424136E+01  0.0000000000000E+00
-0.1017718088835E+01 -0.3091174194911E+01  0.0000000000000E+00
-0.1017745495548E+01 -0.3019851904360E+01  0.0000000000000E+00
-0.1017906277653E+01 -0.2948529843060E+01  0.0000000000000E+00
-0.1018360744909E+01 -0.2877209347299E+01  0.0000000000000E+00
-0.1019255030769E+01 -0.2805893693688E+01  0.0000000000000E+00
-0.1020696701869E+01 -0.2734588564456E+01  0.0000000000000E+00
-0.1022754748397E+01 -0.2663301105260E+01  0.0000000000000E+00
-0.1025473283124E+01 -0.2592039646501E+01  0.0000000000000E+00
-0.1028887362274E+01 -0.2520813176160E+01  0.0000000000000E+00
-0.1033036644157E+01 -0.2449632409301E+01  0.0000000000000E+00
-0.1037975685816E+01 -0.2378510928701E+01  0.0000000000000E+00
-0.1043701418122E+01 -0.2307458551321E+01  0.0000000000000E+00
-0.1050133861127E+01 -0.2236477035050E+01  0.0000000000000E+00
-0.1057215919976E+01 -0.2165568056937E+01  0.0000000000000E+00
-0.1064914388649E+01 -0.2094734396573E+01  0.0000000000000E+00
-0.1073218430927E+01 -0.2023980955804E+01  0.0000000000000E+00
-0.1082144676909E+01 -0.1953316628048E+01  0.0000000000000E+00
-0.1091760004215E+01 -0.1882758622058E+01  0.0000000000000E+00
-0.9900118099064E+00 -0.4660160183698E+01  0.0000000000000E+00
-0.9900236197882E+00 -0.4588733390572E+01  0.0000000000000E+00
-0.9900354297426E+00 -0.4517306158826E+01  0.0000000000000E+00
-0.9900472396638E+00 -0.4445879127324E+01  0.0000000000000E+00
-0.9900590495827E+00 -0.4374452110027E+01  0.0000000000000E+00
-0.9900708595060E+00 -0.4303025065890E+01  0.0000000000000E+00
-0.9900826694223E+00 -0.4231598063968E+01  0.0000000000000E+00
-0.9900944793430E+00 -0.4160171035861E+01  0.0000000000000E+00
-0.9901062892628E+00 -0.4088744013001E+01  0.0000000000000E+00
-0.9901180991813E+00 -0.4017316998028E+01  0.0000000000000E+00
-0.9901299091023E+00 -0.3945889968104E+01  0.0000000000000E+00
-0.9901417190194E+00 -0.3874462961605E+01  0.0000000000000E+00
-0.9901535289416E+00 -0.3803035923932E+01  0.0000000000000E+00
-0.9901653388735E+00 -0.3731608827986E+01  0.0000000000000E+00
-0.9901771488020E+00 -0.3660181752369E+01  0.0000000000000E+00
-0.9901889587164E+00 -0.3588754762198E+01  0.0000000000000E+00
-0.9902007687351E+00 -0.3517327141434E+01  0.0000000000000E+00
-0.9902125785564E+00 -0.3445900714115E+01  0.0000000000000E+00
-0.9902243884779E+00 -0.3374473680925E+01  0.0000000000000E+00
-0.9902361983865E+00 -0.3303046726000E+01  0.0000000000000E+00
-0.9902480082800E+00 -0.3231619862052E+01  0.0000000000000E+00
-0.9902598181795E+00 -0.3160192962059E+01  0.0000000000000E+00
-0.9902716280843E+00 -0.3088766030123E+01  0.0000000000000E+00
-0.9903008772941E+00 -0.3017339036768E+01  0.0000000000000E+00
-0.9904598908441E+00 -0.2945912272726E+01  0.0000000000000E+00
-0.9909046382074E+00 -0.2874487074405E+01  0.0000000000000E+00
-0.9917772963762E+00 -0.2803066718274E+01  0.0000000000000E+00
-0.9931825196868E+00 -0.2731656886637E+01  0.0000000000000E+00
-0.9951874304676E+00 -0.2660264725035E+01  0.0000000000000E+00
-0.9978349471605E+00 -0.2588898564031E+01  0.0000000000000E+00
-0.1001159176873E+01 -0.2517567391354E+01  0.0000000000000E+00
-0.1005198704189E+01 -0.2446281922097E+01  0.0000000000000E+00
-0.1010006609051E+01 -0.2375055739345E+01  0.0000000000000E+00
-0.1015579905431E+01 -0.2303898659692E+01  0.0000000000000E+00
-0.1021840778788E+01 -0.2232812441032E+01  0.0000000000000E+00
-0.1028733680069E+01 -0.2161798760483E+01  0.0000000000000E+00
-0.1036226302287E+01 -0.2090860397566E+01  0.0000000000000E+00
-0.1044308102607E+01 -0.2020002254134E+01  0.0000000000000E+00
-0.1052995260869E+01 -0.1949233223964E+01  0.0000000000000E+00
-0.1062352844026E+01 -0.1878570515803E+01  0.0000000000000E+00
-0.9625137375235E+00 -0.4660058284100E+01  0.0000000000000E+00
-0.9625274750185E+00 -0.4588529591588E+01  0.0000000000000E+00
-0.9625412125977E+00 -0.4517000459829E+01  0.0000000000000E+00
-0.9625549501385E+00 -0.4445471528601E+01  0.0000000000000E+00
-0.9625686876766E+00 -0.4373942611598E+01  0.0000000000000E+00
-0.9625824252198E+00 -0.4302413667716E+01  0.0000000000000E+00
-0.9625961627548E+00 -0.4230884766111E+01  0.0000000000000E+00
-0.9626099002950E+00 -0.4159355838283E+01  0.0000000000000E+00
-0.9626236378341E+00 -0.4087826915708E+01  0.0000000000000E+00
-0.9626373753717E+00 -0.4016298001032E+01  0.0000000000000E+00
-0.9626511129121E+00 -0.3944769071385E+01  0.0000000000000E+00
-0.9626648504481E+00 -0.3873240165195E+01  0.0000000000000E+00
-0.9626785879900E+00 -0.3801711227786E+01  0.0000000000000E+00
-0.9626923255432E+00 -0.3730182232023E+01  0.0000000000000E+00
-0.9627060630925E+00 -0.3658653256616E+01  0.0000000000000E+00
-0.9627198006253E+00 -0.3587124366778E+01  0.0000000000000E+00
-0.9627335382794E+00 -0.3515594845447E+01  0.0000000000000E+00
-0.9627472757039E+00 -0.3444066519263E+01  0.0000000000000E+00
-0.9627610132450E+00 -0.3372537586345E+01  0.0000000000000E+00
-0.9627747507711E+00 -0.3301008731803E+01  0.0000000000000E+00
-0.9627884882796E+00 -0.3229479968367E+01  0.0000000000000E+00
-0.9628022257951E+00 -0.3157951168836E+01  0.0000000000000E+00
-0.9628159633167E+00 -0.3086422337316E+01  0.0000000000000E+00
-0.9628466548485E+00 -0.3014893444285E+01  0.0000000000000E+00
-0.9630034996671E+00 -0.2943364780630E+01  0.0000000000000E+00
-0.9634381269610E+00 -0.2871837682872E+01  0.0000000000000E+00
-0.9642887572571E+00 -0.2800315427341E+01  0.0000000000000E+00
-0.9656571325932E+00 -0.2728803696419E+01  0.0000000000000E+00
-0.9676085074361E+00 -0.2657309635530E+01  0.0000000000000E+00
-0.9701846058996E+00 -0.2585841575395E+01  0.0000000000000E+00
-0.9734185859714E+00 -0.2514408503499E+01  0.0000000000000E+00
-0.9773479585130E+00 -0.2443021134961E+01  0.0000000000000E+00
-0.9820243263633E+00 -0.2371693053170E+01  0.0000000000000E+00
-0.9874447865971E+00 -0.2300434074359E+01  0.0000000000000E+00
-0.9935336900779E+00 -0.2229245956427E+01  0.0000000000000E+00
-0.1000237033557E+01 -0.2158130376562E+01  0.0000000000000E+00
-0.1007523409081E+01 -0.2087090114213E+01  0.0000000000000E+00
-0.1015382567198E+01 -0.2016130071245E+01  0.0000000000000E+00
-0.1023830237492E+01 -0.1945259141781E+01  0.0000000000000E+00
-0.1032929676247E+01 -0.1874494534560E+01  0.0000000000000E+00
-0.9350152757427E+00 -0.4659959193825E+01  0.0000000000000E+00
-0.9350305514535E+00 -0.4588331411245E+01  0.0000000000000E+00
-0.9350458272582E+00 -0.4516703188809E+01  0.0000000000000E+00
-0.9350611030201E+00 -0.4445075167182E+01  0.0000000000000E+00
-0.9350763787789E+00 -0.4373447159799E+01  0.0000000000000E+00
-0.9350916545434E+00 -0.4301819125501E+01  0.0000000000000E+00
-0.9351069302989E+00 -0.4230191133537E+01  0.0000000000000E+00
-0.9351222060600E+00 -0.4158563115315E+01  0.0000000000000E+00
-0.9351374818200E+00 -0.4086935102354E+01  0.0000000000000E+00
-0.9351527575783E+00 -0.4015307097302E+01  0.0000000000000E+00
-0.9351680333398E+00 -0.3943679077257E+01  0.0000000000000E+00
-0.9351833090963E+00 -0.3872051080703E+01  0.0000000000000E+00
-0.9351985848595E+00 -0.3800423052887E+01  0.0000000000000E+00
-0.9352138606351E+00 -0.3728794966635E+01  0.0000000000000E+00
-0.9352291364064E+00 -0.3657166900768E+01  0.0000000000000E+00
-0.9352444121594E+00 -0.3585538920588E+01  0.0000000000000E+00
-0.9352596880473E+00 -0.3513910308040E+01  0.0000000000000E+00
-0.9352749636799E+00 -0.3442282892296E+01  0.0000000000000E+00
-0.9352902394421E+00 -0.3370654868976E+01  0.0000000000000E+00
-0.9353055151876E+00 -0.3299026924142E+01  0.0000000000000E+00
-0.9353207909136E+00 -0.3227399070539E+01  0.0000000000000E+00
-0.9353360666473E+00 -0.3155771180791E+01  0.0000000000000E+00
-0.9353513423878E+00 -0.3084143259010E+01  0.0000000000000E+00
-0.9353830868434E+00 -0.3012515275629E+01  0.0000000000000E+00
-0.9355373735330E+00 -0.2940887521685E+01  0.0000000000000E+00
-0.9359614913613E+00 -0.2869261333809E+01  0.0000000000000E+00
-0.9367897043898E+00 -0.2797639988196E+01  0.0000000000000E+00
-0.9381208423587E+00 -0.2726029167304E+01  0.0000000000000E+00
-0.9400182918724E+00 -0.2654436016443E+01  0.0000000000000E+00
-0.9425225827175E+00 -0.2582868866489E+01  0.0000000000000E+00
-0.9456659237619E+00 -0.2511336704686E+01  0.0000000000000E+00
-0.9494847521435E+00 -0.2439850246183E+01  0.0000000000000E+00
-0.9540291935997E+00 -0.2368423074660E+01  0.0000000000000E+00
-0.9592964283062E+00 -0.2297065006004E+01  0.0000000000000E+00
-0.9652129725315E+00 -0.2225777798115E+01  0.0000000000000E+00
-0.9717263688312E+00 -0.2154563128249E+01  0.0000000000000E+00
-0.9788061082853E+00 -0.2083423775788E+01  0.0000000000000E+00
-0.9864422348236E+00 -0.2012364642606E+01  0.0000000000000E+00
-0.9946500277763E+00 -0.1941394623162E+01  0.0000000000000E+00
-0.1003490932759E+01 -0.1870530926191E+01  0.0000000000000E+00
-0.9075164348415E+00 -0.4659862918834E+01  0.0000000000000E+00
-0.9075328696488E+00 -0.4588138861463E+01  0.0000000000000E+00
-0.9075493045571E+00 -0.4516414363646E+01  0.0000000000000E+00
-0.9075657394192E+00 -0.4444690066907E+01  0.0000000000000E+00
-0.9075821742781E+00 -0.4372965784431E+01  0.0000000000000E+00
-0.9075986091431E+00 -0.4301241475005E+01  0.0000000000000E+00
-0.9076150439985E+00 -0.4229517207969E+01  0.0000000000000E+00
-0.9076314788598E+00 -0.4157792914640E+01  0.0000000000000E+00
-0.9076479137200E+00 -0.4086068626578E+01  0.0000000000000E+00
-0.9076643485783E+00 -0.4014344346436E+01  0.0000000000000E+00
-0.9076807834401E+00 -0.3942620051282E+01  0.0000000000000E+00
-0.9076972182965E+00 -0.3870895779649E+01  0.0000000000000E+00
-0.9077136531601E+00 -0.3799171476713E+01  0.0000000000000E+00
-0.9077300880371E+00 -0.3727447115263E+01  0.0000000000000E+00
-0.9077465229094E+00 -0.3655722774225E+01  0.0000000000000E+00
-0.9077629577620E+00 -0.3583998518988E+01  0.0000000000000E+00
-0.9077793927597E+00 -0.3512273630535E+01  0.0000000000000E+00
-0.9077958274829E+00 -0.3440549940493E+01  0.0000000000000E+00
-0.9078122623454E+00 -0.3368825642059E+01  0.0000000000000E+00
-0.9078286971899E+00 -0.3297101422216E+01  0.0000000000000E+00
-0.9078451320135E+00 -0.3225377293728E+01  0.0000000000000E+00
-0.9078615668454E+00 -0.3153653129045E+01  0.0000000000000E+00
-0.9078780016846E+00 -0.3081928932287E+01  0.0000000000000E+00
-0.9079104199434E+00 -0.3010204673842E+01  0.0000000000000E+00
-0.9080617693840E+00 -0.2938480644892E+01  0.0000000000000E+00
-0.9084749986280E+00 -0.2866758182177E+01  0.0000000000000E+00
-0.9092804152714E+00 -0.2795040561762E+01  0.0000000000000E+00
-0.9105739367573E+00 -0.2723333466175E+01  0.0000000000000E+00
-0.9124170818274E+00 -0.2651644040617E+01  0.0000000000000E+00
-0.9148491859419E+00 -0.2579980616114E+01  0.0000000000000E+00
-0.9179015088477E+00 -0.2508352179677E+01  0.0000000000000E+00
-0.9216094139598E+00 -0.2436769446484E+01  0.0000000000000E+00
-0.9260215499149E+00 -0.2365246000499E+01  0.0000000000000E+00
-0.9311351799888E+00 -0.2293791657267E+01  0.0000000000000E+00
-0.9368789858541E+00 -0.2222408174696E+01  0.0000000000000E+00
-0.9432020558717E+00 -0.2151097230106E+01  0.0000000000000E+00
-0.9500747801533E+00 -0.2079861602812E+01  0.0000000000000E+00
-0.9574874960124E+00 -0.2008706194698E+01  0.0000000000000E+00
-0.9654550325253E+00 -0.1937639900549E+01  0.0000000000000E+00
-0.9740370246404E+00 -0.1866679929097E+01  0.0000000000000E+00
-0.8800172251723E+00 -0.4659769464936E+01  0.0000000000000E+00
-0.8800344503086E+00 -0.4587951953862E+01  0.0000000000000E+00
-0.8800516755508E+00 -0.4516134001767E+01  0.0000000000000E+00
-0.8800689007447E+00 -0.4444316251013E+01  0.0000000000000E+00
-0.8800861259351E+00 -0.4372498514541E+01  0.0000000000000E+00
-0.8801033511320E+00 -0.4300680751083E+01  0.0000000000000E+00
-0.8801205763187E+00 -0.4228863030071E+01  0.0000000000000E+00
-0.8801378015118E+00 -0.4157045282730E+01  0.0000000000000E+00
-0.8801550267036E+00 -0.4085227540665E+01  0.0000000000000E+00
-0.8801722518934E+00 -0.4013409806530E+01  0.0000000000000E+00
-0.8801894770869E+00 -0.3941592057363E+01  0.0000000000000E+00
-0.8802067022748E+00 -0.3869774331747E+01  0.0000000000000E+00
-0.8802239274701E+00 -0.3797956574788E+01  0.0000000000000E+00
-0.8802411526795E+00 -0.3726138759238E+01  0.0000000000000E+00
-0.8802583778840E+00 -0.3654320964127E+01  0.0000000000000E+00
-0.8802756030679E+00 -0.3582503254930E+01  0.0000000000000E+00
-0.8802928284039E+00 -0.3510684911690E+01  0.0000000000000E+00
-0.8803100534520E+00 -0.3438867768424E+01  0.0000000000000E+00
-0.8803272786463E+00 -0.3367050015972E+01  0.0000000000000E+00
-0.8803445038217E+00 -0.3295232342214E+01  0.0000000000000E+00
-0.8803617289752E+00 -0.3223414759930E+01  0.0000000000000E+00
-0.8803789541373E+00 -0.3151597141404E+01  0.0000000000000E+00
-0.8803961793072E+00 -0.3079779490761E+01  0.0000000000000E+00
-0.8804289026007E+00 -0.3007961778347E+01  0.0000000000000E+00
-0.8805769460245E+00 -0.2936144295485E+01  0.0000000000000E+00
-0.8809789179176E+00 -0.2864328379021E+01  0.0000000000000E+00
-0.8817611694101E+00 -0.2792517304890E+01  0.0000000000000E+00
-0.8830167056487E+00 -0.2720716755693E+01  0.0000000000000E+00
-0.8848051775121E+00 -0.2648933876522E+01  0.0000000000000E+00
-0.8871647261348E+00 -0.2577176998550E+01  0.0000000000000E+00
-0.8901256621418E+00 -0.2505455108563E+01  0.0000000000000E+00
-0.8937222752253E+00 -0.2433778921763E+01  0.0000000000000E+00
-0.8980017369228E+00 -0.2362162022393E+01  0.0000000000000E+00
-0.9029613936084E+00 -0.2290614225668E+01  0.0000000000000E+00
-0.9085320923593E+00 -0.2219137289498E+01  0.0000000000000E+00
-0.9146644673410E+00 -0.2147732891269E+01  0.0000000000000E+00
-0.9213298076975E+00 -0.2076403810231E+01  0.0000000000000E+00
-0.9285187441254E+00 -0.2005154948275E+01  0.0000000000000E+00
-0.9362456554485E+00 -0.1933995200506E+01  0.0000000000000E+00
-0.9445683659478E+00 -0.1862941775651E+01  0.0000000000000E+00
-0.8525176569623E+00 -0.4659678837762E+01  0.0000000000000E+00
-0.8525353138878E+00 -0.4587770699704E+01  0.0000000000000E+00
-0.8525529709217E+00 -0.4515862120068E+01  0.0000000000000E+00
-0.8525706279061E+00 -0.4443953742027E+01  0.0000000000000E+00
-0.8525882848871E+00 -0.4372045378286E+01  0.0000000000000E+00
-0.8526059418746E+00 -0.4300136987525E+01  0.0000000000000E+00
-0.8526235988517E+00 -0.4228228639263E+01  0.0000000000000E+00
-0.8526412558353E+00 -0.4156320264640E+01  0.0000000000000E+00
-0.8526589128176E+00 -0.4084411895299E+01  0.0000000000000E+00
-0.8526765697980E+00 -0.4012503533897E+01  0.0000000000000E+00
-0.8526942267820E+00 -0.3940595157445E+01  0.0000000000000E+00
-0.8527118837602E+00 -0.3868686804574E+01  0.0000000000000E+00
-0.8527295407462E+00 -0.3796778420320E+01  0.0000000000000E+00
-0.8527471977466E+00 -0.3724869977402E+01  0.0000000000000E+00
-0.8527648547419E+00 -0.3652961554948E+01  0.0000000000000E+00
-0.8527825117161E+00 -0.3581053218515E+01  0.0000000000000E+00
-0.8528001688462E+00 -0.3509144247241E+01  0.0000000000000E+00
-0.8528178256813E+00 -0.3437236477454E+01  0.0000000000000E+00
-0.8528354826661E+00 -0.3365328097713E+01  0.0000000000000E+00
-0.8528531396316E+00 -0.3293419796766E+01  0.0000000000000E+00
-0.8528707965746E+00 -0.3221511587407E+01  0.0000000000000E+00
-0.8528884535265E+00 -0.3149603341761E+01  0.0000000000000E+00
-0.8529061104864E+00 -0.3077695063957E+01  0.0000000000000E+00
-0.8529387802737E+00 -0.3005786724301E+01  0.0000000000000E+00
-0.8530831591395E+00 -0.2933878614253E+01  0.0000000000000E+00
-0.8534735151404E+00 -0.2861972070759E+01  0.0000000000000E+00
-0.8542322429400E+00 -0.2790070369632E+01  0.0000000000000E+00
-0.8554494353881E+00 -0.2718179193539E+01  0.0000000000000E+00
-0.8571828755004E+00 -0.2646305687471E+01  0.0000000000000E+00
-0.8594695100855E+00 -0.2574458182743E+01  0.0000000000000E+00
-0.8623387006461E+00 -0.2502645665919E+01  0.0000000000000E+00
-0.8658236631514E+00 -0.2430878852229E+01  0.0000000000000E+00
-0.8699700920406E+00 -0.2359171326182E+01  0.0000000000000E+00
-0.8747754167849E+00 -0.2287532902676E+01  0.0000000000000E+00
-0.8801726498660E+00 -0.2215965339624E+01  0.0000000000000E+00
-0.8861139712552E+00 -0.2144470314473E+01  0.0000000000000E+00
-0.8925715691276E+00 -0.2073050606409E+01  0.0000000000000E+00
-0.8995363675637E+00 -0.2001711117336E+01  0.0000000000000E+00
-0.9070222951358E+00 -0.1930460742663E+01  0.0000000000000E+00
-0.9150853654571E+00 -0.1859316691115E+01  0.0000000000000E+00
-0.8250177407139E+00 -0.4659591042819E+01  0.0000000000000E+00
-0.8250354813908E+00 -0.4587595110000E+01  0.0000000000000E+00
-0.8250532221767E+00 -0.4515598735065E+01  0.0000000000000E+00
-0.8250709629128E+00 -0.4443602561971E+01  0.0000000000000E+00
-0.8250887036454E+00 -0.4371606403194E+01  0.0000000000000E+00
-0.8251064443847E+00 -0.4299610217364E+01  0.0000000000000E+00
-0.8251241851135E+00 -0.4227614074085E+01  0.0000000000000E+00
-0.8251419258488E+00 -0.4155617904413E+01  0.0000000000000E+00
-0.8251596665828E+00 -0.4083621740029E+01  0.0000000000000E+00
-0.8251774073148E+00 -0.4011625583594E+01  0.0000000000000E+00
-0.8251951480505E+00 -0.3939629412091E+01  0.0000000000000E+00
-0.8252128887805E+00 -0.3867633264198E+01  0.0000000000000E+00
-0.8252306295181E+00 -0.3795637084882E+01  0.0000000000000E+00
-0.8252483702703E+00 -0.3723640846831E+01  0.0000000000000E+00
-0.8252661110174E+00 -0.3651644629270E+01  0.0000000000000E+00
-0.8252838517432E+00 -0.3579648497835E+01  0.0000000000000E+00
-0.8253015926257E+00 -0.3507651730783E+01  0.0000000000000E+00
-0.8253193332118E+00 -0.3435656166686E+01  0.0000000000000E+00
-0.8253370739484E+00 -0.3363659991889E+01  0.0000000000000E+00
-0.8253548146655E+00 -0.3291663895982E+01  0.0000000000000E+00
-0.8253725553600E+00 -0.3219667891776E+01  0.0000000000000E+00
-0.8253902960635E+00 -0.3147671851239E+01  0.0000000000000E+00
-0.8254080367749E+00 -0.3075675778504E+01  0.0000000000000E+00
-0.8254403050173E+00 -0.3003679643838E+01  0.0000000000000E+00
-0.8255806712862E+00 -0.2931683738833E+01  0.0000000000000E+00
-0.8259590633559E+00 -0.2859689400535E+01  0.0000000000000E+00
-0.8266939194225E+00 -0.2787699904637E+01  0.0000000000000E+00
-0.8278724200392E+00 -0.2715720933871E+01  0.0000000000000E+00
-0.8295504803575E+00 -0.2643759633128E+01  0.0000000000000E+00
-0.8317638528612E+00 -0.2571824333859E+01  0.0000000000000E+00
-0.8345409499295E+00 -0.2499924022419E+01  0.0000000000000E+00
-0.8379139138084E+00 -0.2428069414060E+01  0.0000000000000E+00
-0.8419269618398E+00 -0.2356274093551E+01  0.0000000000000E+00
-0.8465776065910E+00 -0.2284547875482E+01  0.0000000000000E+00
-0.8518010259485E+00 -0.2212892517768E+01  0.0000000000000E+00
-0.8575509456891E+00 -0.2141309697916E+01  0.0000000000000E+00
-0.8638004530197E+00 -0.2069802195054E+01  0.0000000000000E+00
-0.8705407654042E+00 -0.1998374911091E+01  0.0000000000000E+00
-0.8777853611645E+00 -0.1927036741736E+01  0.0000000000000E+00
-0.8855884432463E+00 -0.1855804895709E+01  0.0000000000000E+00
-0.7975174872200E+00 -0.4659506085482E+01  0.0000000000000E+00
-0.7975349744037E+00 -0.4587425195502E+01  0.0000000000000E+00
-0.7975524616947E+00 -0.4515343862885E+01  0.0000000000000E+00
-0.7975699489366E+00 -0.4443262732347E+01  0.0000000000000E+00
-0.7975874361751E+00 -0.4371181616143E+01  0.0000000000000E+00
-0.7976049234202E+00 -0.4299100472854E+01  0.0000000000000E+00
-0.7976224106549E+00 -0.4227019372167E+01  0.0000000000000E+00
-0.7976398978961E+00 -0.4154938245055E+01  0.0000000000000E+00
-0.7976573851359E+00 -0.4082857123237E+01  0.0000000000000E+00
-0.7976748723739E+00 -0.4010776009378E+01  0.0000000000000E+00
-0.7976923596155E+00 -0.3938694880433E+01  0.0000000000000E+00
-0.7977098468513E+00 -0.3866613775126E+01  0.0000000000000E+00
-0.7977273340948E+00 -0.3794532638359E+01  0.0000000000000E+00
-0.7977448213526E+00 -0.3722451442787E+01  0.0000000000000E+00
-0.7977623086053E+00 -0.3650370267730E+01  0.0000000000000E+00
-0.7977797958372E+00 -0.3578289178900E+01  0.0000000000000E+00
-0.7977972832234E+00 -0.3506207453703E+01  0.0000000000000E+00
-0.7978147703175E+00 -0.3434126932881E+01  0.0000000000000E+00
-0.7978322575599E+00 -0.3362045800638E+01  0.0000000000000E+00
-0.7978497447831E+00 -0.3289964747379E+01  0.0000000000000E+00
-0.7978672319841E+00 -0.3217883785928E+01  0.0000000000000E+00
-0.7978847191938E+00 -0.3145802788103E+01  0.0000000000000E+00
-0.7979022064114E+00 -0.3073721758043E+01  0.0000000000000E+00
-0.7979337358632E+00 -0.3001640665976E+01  0.0000000000000E+00
-0.7980697522901E+00 -0.2929559803621E+01  0.0000000000000E+00
-0.7984358431845E+00 -0.2857480508120E+01  0.0000000000000E+00
-0.7991464902748E+00 -0.2785406055050E+01  0.0000000000000E+00
-0.8002859618180E+00 -0.2713342127208E+01  0.0000000000000E+00
-0.8019083051015E+00 -0.2641295869387E+01  0.0000000000000E+00
-0.8040480782847E+00 -0.2569275613171E+01  0.0000000000000E+00
-0.8067327446223E+00 -0.2497290344709E+01  0.0000000000000E+00
-0.8099933726376E+00 -0.2425350779278E+01  0.0000000000000E+00
-0.8138727025763E+00 -0.2353470501899E+01  0.0000000000000E+00
-0.8183683301003E+00 -0.2281659326859E+01  0.0000000000000E+00
-0.8234175985009E+00 -0.2209919012080E+01  0.0000000000000E+00
-0.8289757793607E+00 -0.2138251235127E+01  0.0000000000000E+00
-0.8350168589179E+00 -0.2066658775066E+01  0.0000000000000E+00
-0.8415323480198E+00 -0.1995146533818E+01  0.0000000000000E+00
-0.8485352747396E+00 -0.1923723407379E+01  0.0000000000000E+00
-0.8560780313548E+00 -0.1852406604464E+01  0.0000000000000E+00
-0.7700169071112E+00 -0.4659423970938E+01  0.0000000000000E+00
-0.7700338141872E+00 -0.4587260966585E+01  0.0000000000000E+00
-0.7700507213671E+00 -0.4515097519091E+01  0.0000000000000E+00
-0.7700676284995E+00 -0.4442934273906E+01  0.0000000000000E+00
-0.7700845356285E+00 -0.4370771043071E+01  0.0000000000000E+00
-0.7701014427640E+00 -0.4298607785120E+01  0.0000000000000E+00
-0.7701183498894E+00 -0.4226444569820E+01  0.0000000000000E+00
-0.7701352570210E+00 -0.4154281328065E+01  0.0000000000000E+00
-0.7701521641514E+00 -0.4082118091610E+01  0.0000000000000E+00
-0.7701690712799E+00 -0.4009954863123E+01  0.0000000000000E+00
-0.7701859784119E+00 -0.3937791619533E+01  0.0000000000000E+00
-0.7702028855385E+00 -0.3865628399607E+01  0.0000000000000E+00
-0.7702197926723E+00 -0.3793465148187E+01  0.0000000000000E+00
-0.7702366998200E+00 -0.3721301837894E+01  0.0000000000000E+00
-0.7702536069629E+00 -0.3649138548138E+01  0.0000000000000E+00
-0.7702705140855E+00 -0.3576975344709E+01  0.0000000000000E+00
-0.7702874213574E+00 -0.3504811504187E+01  0.0000000000000E+00
-0.7703043283468E+00 -0.3432648869413E+01  0.0000000000000E+00
-0.7703212354797E+00 -0.3360485622521E+01  0.0000000000000E+00
-0.7703381425940E+00 -0.3288322454703E+01  0.0000000000000E+00
-0.7703550496867E+00 -0.3216159378797E+01  0.0000000000000E+00
-0.7703719567880E+00 -0.3143996266477E+01  0.0000000000000E+00
-0.7703888638969E+00 -0.3071833121884E+01  0.0000000000000E+00
-0.7704193279429E+00 -0.2999669915210E+01  0.0000000000000E+00
-0.7705506679129E+00 -0.2927506938299E+01  0.0000000000000E+00
-0.7709041310181E+00 -0.2855345528385E+01  0.0000000000000E+00
-0.7715902425191E+00 -0.2783188960931E+01  0.0000000000000E+00
-0.7726903583770E+00 -0.2711042918797E+01  0.0000000000000E+00
-0.7742566580147E+00 -0.2638914546683E+01  0.0000000000000E+00
-0.7763225052677E+00 -0.2566812176300E+01  0.0000000000000E+00
-0.7789144142657E+00 -0.2494744793600E+01  0.0000000000000E+00
-0.7820623798096E+00 -0.2422723113881E+01  0.0000000000000E+00
-0.7858076650495E+00 -0.2350760722408E+01  0.0000000000000E+00
-0.7901479487410E+00 -0.2278867433179E+01  0.0000000000000E+00
-0.7950227395800E+00 -0.2207045004120E+01  0.0000000000000E+00
-0.8003888549551E+00 -0.2135295112850E+01  0.0000000000000E+00
-0.8062211801355E+00 -0.2063620538380E+01  0.0000000000000E+00
-0.8125115193522E+00 -0.1992026182637E+01  0.0000000000000E+00
-0.8192724504302E+00 -0.1920520941899E+01  0.0000000000000E+00
-0.8265545549795E+00 -0.1849122024875E+01  0.0000000000000E+00
-0.7425160110831E+00 -0.4659344704214E+01  0.0000000000000E+00
-0.7425320221329E+00 -0.4587102433304E+01  0.0000000000000E+00
-0.7425480332810E+00 -0.4514859718765E+01  0.0000000000000E+00
-0.7425640443842E+00 -0.4442617206757E+01  0.0000000000000E+00
-0.7425800554842E+00 -0.4370374709116E+01  0.0000000000000E+00
-0.7425960665902E+00 -0.4298132184328E+01  0.0000000000000E+00
-0.7426120776868E+00 -0.4225889702238E+01  0.0000000000000E+00
-0.7426280887892E+00 -0.4153647193664E+01  0.0000000000000E+00
-0.7426440998905E+00 -0.4081404690396E+01  0.0000000000000E+00
-0.7426601109900E+00 -0.4009162195105E+01  0.0000000000000E+00
-0.7426761220928E+00 -0.3936919684694E+01  0.0000000000000E+00
-0.7426921331904E+00 -0.3864677197973E+01  0.0000000000000E+00
-0.7427081442950E+00 -0.3792434679724E+01  0.0000000000000E+00
-0.7427241554126E+00 -0.3720192102536E+01  0.0000000000000E+00
-0.7427401665257E+00 -0.3647949545909E+01  0.0000000000000E+00
-0.7427561776197E+00 -0.3575707075704E+01  0.0000000000000E+00
-0.7427721888549E+00 -0.3503463967706E+01  0.0000000000000E+00
-0.7427881998227E+00 -0.3431222066779E+01  0.0000000000000E+00
-0.7428042109263E+00 -0.3358979553063E+01  0.0000000000000E+00
-0.7428202220123E+00 -0.3286737118507E+01  0.0000000000000E+00
-0.7428362330780E+00 -0.3214494775965E+01  0.0000000000000E+00
-0.7428522441517E+00 -0.3142252396968E+01  0.0000000000000E+00
-0.7428682552326E+00 -0.3070009985662E+01  0.0000000000000E+00
-0.7428973379532E+00 -0.2997767512206E+01  0.0000000000000E+00
-0.7430236855472E+00 -0.2925525268560E+01  0.0000000000000E+00
-0.7433642049450E+00 -0.2853284592048E+01  0.0000000000000E+00
-0.7440254649391E+00 -0.2781048758026E+01  0.0000000000000E+00
-0.7450859091951E+00 -0.2708823449412E+01  0.0000000000000E+00
-0.7465958492710E+00 -0.2636615810817E+01  0.0000000000000E+00
-0.7485874546793E+00 -0.2564434174075E+01  0.0000000000000E+00
-0.7510862904237E+00 -0.2492287524946E+01  0.0000000000000E+00
-0.7541212775826E+00 -0.2420186578752E+01  0.0000000000000E+00
-0.7577322022120E+00 -0.2348144920990E+01  0.0000000000000E+00
-0.7619168261599E+00 -0.2276172365381E+01  0.0000000000000E+00
-0.7666168235266E+00 -0.2204270669853E+01  0.0000000000000E+00
-0.7717905575071E+00 -0.2132441512079E+01  0.0000000000000E+00
-0.7774138124011E+00 -0.2060687671016E+01  0.0000000000000E+00
-0.7834786858233E+00 -0.1989014048599E+01  0.0000000000000E+00
-0.7899973053517E+00 -0.1917429541373E+01  0.0000000000000E+00
-0.7970184419288E+00 -0.1845951358046E+01  0.0000000000000E+00
-0.7150148098282E+00 -0.4659268290171E+01  0.0000000000000E+00
-0.7150296196255E+00 -0.4586949605377E+01  0.0000000000000E+00
-0.7150444295138E+00 -0.4514630476484E+01  0.0000000000000E+00
-0.7150592393606E+00 -0.4442311550338E+01  0.0000000000000E+00
-0.7150740492044E+00 -0.4369992638572E+01  0.0000000000000E+00
-0.7150888590538E+00 -0.4297673699632E+01  0.0000000000000E+00
-0.7151036688944E+00 -0.4225354803435E+01  0.0000000000000E+00
-0.7151184787405E+00 -0.4153035880725E+01  0.0000000000000E+00
-0.7151332885855E+00 -0.4080716963328E+01  0.0000000000000E+00
-0.7151480984288E+00 -0.4008398053915E+01  0.0000000000000E+00
-0.7151629082753E+00 -0.3936079129367E+01  0.0000000000000E+00
-0.7151777181168E+00 -0.3863760228534E+01  0.0000000000000E+00
-0.7151925279649E+00 -0.3791441296138E+01  0.0000000000000E+00
-0.7152073378250E+00 -0.3719122304743E+01  0.0000000000000E+00
-0.7152221476809E+00 -0.3646803333930E+01  0.0000000000000E+00
-0.7152369575191E+00 -0.3574484449629E+01  0.0000000000000E+00
-0.7152517674881E+00 -0.3502164926862E+01  0.0000000000000E+00
-0.7152665772096E+00 -0.3429846612442E+01  0.0000000000000E+00
-0.7152813870567E+00 -0.3357527684586E+01  0.0000000000000E+00
-0.7152961968876E+00 -0.3285208835972E+01  0.0000000000000E+00
-0.7153110066996E+00 -0.3212890079470E+01  0.0000000000000E+00
-0.7153258165191E+00 -0.3140571286475E+01  0.0000000000000E+00
-0.7153406263452E+00 -0.3068252461137E+01  0.0000000000000E+00
-0.7153680225135E+00 -0.2995933573580E+01  0.0000000000000E+00
-0.7154890725045E+00 -0.2923614915879E+01  0.0000000000000E+00
-0.7158163429684E+00 -0.2851297825445E+01  0.0000000000000E+00
-0.7164524462290E+00 -0.2778985577529E+01  0.0000000000000E+00
-0.7174729136566E+00 -0.2706683855107E+01  0.0000000000000E+00
-0.7189261889441E+00 -0.2634399802702E+01  0.0000000000000E+00
-0.7208432472812E+00 -0.2562141752268E+01  0.0000000000000E+00
-0.7232487045449E+00 -0.2489918689380E+01  0.0000000000000E+00
-0.7261704080913E+00 -0.2417741329381E+01  0.0000000000000E+00
-0.7296466668831E+00 -0.2345623257995E+01  0.0000000000000E+00
-0.7336753258596E+00 -0.2273574288674E+01  0.0000000000000E+00
-0.7382002245257E+00 -0.2201596179347E+01  0.0000000000000E+00
-0.7431812718828E+00 -0.2129690607742E+01  0.0000000000000E+00
-0.7485951512610E+00 -0.2057860352761E+01  0.0000000000000E+00
-0.7544342536587E+00 -0.1986110316347E+01  0.0000000000000E+00
-0.7607102564081E+00 -0.1914449395305E+01  0.0000000000000E+00
-0.7674701197840E+00 -0.1842894798340E+01  0.0000000000000E+00
-0.6875133140180E+00 -0.4659194733497E+01  0.0000000000000E+00
-0.6875266280083E+00 -0.4586802492181E+01  0.0000000000000E+00
-0.6875399420804E+00 -0.4514409806315E+01  0.0000000000000E+00
-0.6875532561151E+00 -0.4442017323401E+01  0.0000000000000E+00
-0.6875665701472E+00 -0.4369624854884E+01  0.0000000000000E+00
-0.6875798841843E+00 -0.4297232359164E+01  0.0000000000000E+00
-0.6875931982135E+00 -0.4224839906230E+01  0.0000000000000E+00
-0.6876065122476E+00 -0.4152447426757E+01  0.0000000000000E+00
-0.6876198262808E+00 -0.4080054952602E+01  0.0000000000000E+00
-0.6876331403124E+00 -0.4007662486439E+01  0.0000000000000E+00
-0.6876464543469E+00 -0.3935270005125E+01  0.0000000000000E+00
-0.6876597683769E+00 -0.3862877547551E+01  0.0000000000000E+00
-0.6876730824128E+00 -0.3790485058383E+01  0.0000000000000E+00
-0.6876863964596E+00 -0.3718092510154E+01  0.0000000000000E+00
-0.6876997105025E+00 -0.3645699982529E+01  0.0000000000000E+00
-0.6877130245296E+00 -0.3573307541504E+01  0.0000000000000E+00
-0.6877263386741E+00 -0.3500914461363E+01  0.0000000000000E+00
-0.6877396525963E+00 -0.3428522590798E+01  0.0000000000000E+00
-0.6877529666313E+00 -0.3356130106173E+01  0.0000000000000E+00
-0.6877662806518E+00 -0.3283737700872E+01  0.0000000000000E+00
-0.6877795946553E+00 -0.3211345387775E+01  0.0000000000000E+00
-0.6877929086655E+00 -0.3138953038149E+01  0.0000000000000E+00
-0.6878062226817E+00 -0.3066560656146E+01  0.0000000000000E+00
-0.6878316377421E+00 -0.2994168211858E+01  0.0000000000000E+00
-0.6879470955743E+00 -0.2921775997472E+01  0.0000000000000E+00
-0.6882608225479E+00 -0.2849385350480E+01  0.0000000000000E+00
-0.6888714745171E+00 -0.2776999546033E+01  0.0000000000000E+00
-0.6898516705568E+00 -0.2704624267162E+01  0.0000000000000E+00
-0.6912479864942E+00 -0.2632266658308E+01  0.0000000000000E+00
-0.6930902031963E+00 -0.2559935051537E+01  0.0000000000000E+00
-0.6954019874130E+00 -0.2487638432247E+01  0.0000000000000E+00
-0.6982101127777E+00 -0.2415387515803E+01  0.0000000000000E+00
-0.7015514111604E+00 -0.2343195888146E+01  0.0000000000000E+00
-0.7054238105909E+00 -0.2271073362469E+01  0.0000000000000E+00
-0.7097733159789E+00 -0.2199021696703E+01  0.0000000000000E+00
-0.7145613821325E+00 -0.2127042568627E+01  0.0000000000000E+00
-0.7197655914124E+00 -0.2055138757093E+01  0.0000000000000E+00
-0.7253786282006E+00 -0.1983315164049E+01  0.0000000000000E+00
-0.7314117195845E+00 -0.1911580686551E+01  0.0000000000000E+00
-0.7379100151708E+00 -0.1839952533300E+01  0.0000000000000E+00
-0.6600115347780E+00 -0.4659124038756E+01  0.0000000000000E+00
-0.6600230695320E+00 -0.4586661102847E+01  0.0000000000000E+00
-0.6600346043568E+00 -0.4514197721954E+01  0.0000000000000E+00
-0.6600461391493E+00 -0.4441734544211E+01  0.0000000000000E+00
-0.6600576739395E+00 -0.4369271380878E+01  0.0000000000000E+00
-0.6600692087340E+00 -0.4296808190316E+01  0.0000000000000E+00
-0.6600807435217E+00 -0.4224345042582E+01  0.0000000000000E+00
-0.6600922783136E+00 -0.4151881868284E+01  0.0000000000000E+00
-0.6601038131047E+00 -0.4079418699308E+01  0.0000000000000E+00
-0.6601153478945E+00 -0.4006955538333E+01  0.0000000000000E+00
-0.6601268826867E+00 -0.3934492362191E+01  0.0000000000000E+00
-0.6601384174751E+00 -0.3862029209812E+01  0.0000000000000E+00
-0.6601499522686E+00 -0.3789566025808E+01  0.0000000000000E+00
-0.6601614870715E+00 -0.3717102782687E+01  0.0000000000000E+00
-0.6601730218711E+00 -0.3644639560188E+01  0.0000000000000E+00
-0.6601845566569E+00 -0.3572176424375E+01  0.0000000000000E+00
-0.6601960915445E+00 -0.3499712648821E+01  0.0000000000000E+00
-0.6602076262394E+00 -0.3427250084026E+01  0.0000000000000E+00
-0.6602191610322E+00 -0.3354786904570E+01  0.0000000000000E+00
-0.6602306958123E+00 -0.3282323804515E+01  0.0000000000000E+00
-0.6602422305777E+00 -0.3209860796755E+01  0.0000000000000E+00
-0.6602537653490E+00 -0.3137397752429E+01  0.0000000000000E+00
-0.6602653001253E+00 -0.3064934675696E+01  0.0000000000000E+00
-0.6602884506478E+00 -0.2992471536614E+01  0.0000000000000E+00
-0.6603980328915E+00 -0.2920008627477E+01  0.0000000000000E+00
-0.6606979329459E+00 -0.2847547285856E+01  0.0000000000000E+00
-0.6612828501955E+00 -0.2775090786807E+01  0.0000000000000E+00
-0.6622224914199E+00 -0.2702644813413E+01  0.0000000000000E+00
-0.6635615645806E+00 -0.2630216510033E+01  0.0000000000000E+00
-0.6653286562223E+00 -0.2557814208847E+01  0.0000000000000E+00
-0.6675464839670E+00 -0.2485446895079E+01  0.0000000000000E+00
-0.6702407477259E+00 -0.2413125284116E+01  0.0000000000000E+00
-0.6734468022770E+00 -0.2340862962106E+01  0.0000000000000E+00
-0.6771626587394E+00 -0.2268669741993E+01  0.0000000000000E+00
-0.6813364874278E+00 -0.2196547381714E+01  0.0000000000000E+00
-0.6859312889571E+00 -0.2124497559093E+01  0.0000000000000E+00
-0.6909255447183E+00 -0.2052523052934E+01  0.0000000000000E+00
-0.6963122324769E+00 -0.1980628765193E+01  0.0000000000000E+00
-0.7021021290765E+00 -0.1908823593166E+01  0.0000000000000E+00
-0.7083385734561E+00 -0.1837124745548E+01  0.0000000000000E+00
-0.6325094830437E+00 -0.4659056210321E+01  0.0000000000000E+00
-0.6325189660676E+00 -0.4586525446119E+01  0.0000000000000E+00
-0.6325284491498E+00 -0.4513994236516E+01  0.0000000000000E+00
-0.6325379322054E+00 -0.4441463230253E+01  0.0000000000000E+00
-0.6325474152591E+00 -0.4368932238414E+01  0.0000000000000E+00
-0.6325568983163E+00 -0.4296401219321E+01  0.0000000000000E+00
-0.6325663813680E+00 -0.4223870243095E+01  0.0000000000000E+00
-0.6325758644231E+00 -0.4151339240280E+01  0.0000000000000E+00
-0.6325853474776E+00 -0.4078808242792E+01  0.0000000000000E+00
-0.6325948305309E+00 -0.4006277253313E+01  0.0000000000000E+00
-0.6326043135863E+00 -0.3933746248653E+01  0.0000000000000E+00
-0.6326137966386E+00 -0.3861215267778E+01  0.0000000000000E+00
-0.6326232796950E+00 -0.3788684255248E+01  0.0000000000000E+00
-0.6326327627591E+00 -0.3716153183546E+01  0.0000000000000E+00
-0.6326422458206E+00 -0.3643622132486E+01  0.0000000000000E+00
-0.6326517288707E+00 -0.3571091168192E+01  0.0000000000000E+00
-0.6326612120045E+00 -0.3498559563559E+01  0.0000000000000E+00
-0.6326706949798E+00 -0.3426029170817E+01  0.0000000000000E+00
-0.6326801780356E+00 -0.3353498162840E+01  0.0000000000000E+00
-0.6326896610811E+00 -0.3280967234338E+01  0.0000000000000E+00
-0.6326991441144E+00 -0.3208436398218E+01  0.0000000000000E+00
-0.6327086271525E+00 -0.3135905525497E+01  0.0000000000000E+00
-0.6327181101949E+00 -0.3063374620339E+01  0.0000000000000E+00
-0.6327387236849E+00 -0.2990843652771E+01  0.0000000000000E+00
-0.6328421578459E+00 -0.2918312915189E+01  0.0000000000000E+00
-0.6331279584877E+00 -0.2845783745241E+01  0.0000000000000E+00
-0.6336868685247E+00 -0.2773259417889E+01  0.0000000000000E+00
-0.6345856824418E+00 -0.2700745616269E+01  0.0000000000000E+00
-0.6358672403342E+00 -0.2628249484662E+01  0.0000000000000E+00
-0.6375589344252E+00 -0.2555779355352E+01  0.0000000000000E+00
-0.6396825332080E+00 -0.2483344213402E+01  0.0000000000000E+00
-0.6422626628715E+00 -0.2410954774215E+01  0.0000000000000E+00
-0.6453332011029E+00 -0.2338624624143E+01  0.0000000000000E+00
-0.6488922421098E+00 -0.2266363575889E+01  0.0000000000000E+00
-0.6528901216113E+00 -0.2194173387393E+01  0.0000000000000E+00
-0.6572913860296E+00 -0.2122055736525E+01  0.0000000000000E+00
-0.6620754157856E+00 -0.2050013402043E+01  0.0000000000000E+00
-0.6672354820285E+00 -0.1978051285908E+01  0.0000000000000E+00
-0.6727819113590E+00 -0.1906178285648E+01  0.0000000000000E+00
-0.6787562320482E+00 -0.1834411609955E+01  0.0000000000000E+00
-0.6050071698059E+00 -0.4658991252397E+01  0.0000000000000E+00
-0.6050143395968E+00 -0.4586395530405E+01  0.0000000000000E+00
-0.6050215094317E+00 -0.4513799362613E+01  0.0000000000000E+00
-0.6050286792466E+00 -0.4441203398345E+01  0.0000000000000E+00
-0.6050358490600E+00 -0.4368607448512E+01  0.0000000000000E+00
-0.6050430188761E+00 -0.4296011471401E+01  0.0000000000000E+00
-0.6050501886880E+00 -0.4223415537196E+01  0.0000000000000E+00
-0.6050573585025E+00 -0.4150819576378E+01  0.0000000000000E+00
-0.6050645283165E+00 -0.4078223620892E+01  0.0000000000000E+00
-0.6050716981297E+00 -0.4005627673422E+01  0.0000000000000E+00
-0.6050788679444E+00 -0.3933031710757E+01  0.0000000000000E+00
-0.6050860377568E+00 -0.3860435771899E+01  0.0000000000000E+00
-0.6050932075722E+00 -0.3787839801358E+01  0.0000000000000E+00
-0.6051003773936E+00 -0.3715243771590E+01  0.0000000000000E+00
-0.6051075472128E+00 -0.3642647762484E+01  0.0000000000000E+00
-0.6051147170236E+00 -0.3570051840222E+01  0.0000000000000E+00
-0.6051218868976E+00 -0.3497455277047E+01  0.0000000000000E+00
-0.6051290566518E+00 -0.3424859926848E+01  0.0000000000000E+00
-0.6051362264668E+00 -0.3352263960863E+01  0.0000000000000E+00
-0.6051433962740E+00 -0.3279668074425E+01  0.0000000000000E+00
-0.6051505660720E+00 -0.3207072280451E+01  0.0000000000000E+00
-0.6051577358736E+00 -0.3134476449843E+01  0.0000000000000E+00
-0.6051649056785E+00 -0.3061880586770E+01  0.0000000000000E+00
-0.6051827206324E+00 -0.2989284661228E+01  0.0000000000000E+00
-0.6052797452072E+00 -0.2916688965711E+01  0.0000000000000E+00
-0.6055511849337E+00 -0.2844094837942E+01  0.0000000000000E+00
-0.6060838262558E+00 -0.2771505552792E+01  0.0000000000000E+00
-0.6069415513641E+00 -0.2698926793447E+01  0.0000000000000E+00
-0.6081653324871E+00 -0.2626365704114E+01  0.0000000000000E+00
-0.6097813675272E+00 -0.2553830617177E+01  0.0000000000000E+00
-0.6118104758481E+00 -0.2481330517544E+01  0.0000000000000E+00
-0.6142762099169E+00 -0.2408876120636E+01  0.0000000000000E+00
-0.6172109703304E+00 -0.2336481012995E+01  0.0000000000000E+00
-0.6206129343837E+00 -0.2264155007098E+01  0.0000000000000E+00
-0.6244346032008E+00 -0.2191899860885E+01  0.0000000000000E+00
-0.6286420690109E+00 -0.2119717252272E+01  0.0000000000000E+00
-0.6332156112646E+00 -0.2047609959972E+01  0.0000000000000E+00
-0.6381487944950E+00 -0.1975582885952E+01  0.0000000000000E+00
-0.6434514950607E+00 -0.1903644927961E+01  0.0000000000000E+00
-0.6491634305650E+00 -0.1831813294687E+01  0.0000000000000E+00
-0.5775046061084E+00 -0.4658929169017E+01  0.0000000000000E+00
-0.5775092122072E+00 -0.4586271363775E+01  0.0000000000000E+00
-0.5775138183343E+00 -0.4513613112352E+01  0.0000000000000E+00
-0.5775184244485E+00 -0.4440955064626E+01  0.0000000000000E+00
-0.5775230305618E+00 -0.4368297031349E+01  0.0000000000000E+00
-0.5775276366768E+00 -0.4295638970769E+01  0.0000000000000E+00
-0.5775322427890E+00 -0.4222980953132E+01  0.0000000000000E+00
-0.5775368489030E+00 -0.4150322908860E+01  0.0000000000000E+00
-0.5775414550166E+00 -0.4077664869924E+01  0.0000000000000E+00
-0.5775460611297E+00 -0.4005006839010E+01  0.0000000000000E+00
-0.5775506672438E+00 -0.3932348792890E+01  0.0000000000000E+00
-0.5775552733564E+00 -0.3859690770596E+01  0.0000000000000E+00
-0.5775598794710E+00 -0.3787032716592E+01  0.0000000000000E+00
-0.5775644855893E+00 -0.3714374603311E+01  0.0000000000000E+00
-0.5775690917063E+00 -0.3641716510709E+01  0.0000000000000E+00
-0.5775736978178E+00 -0.3569058505025E+01  0.0000000000000E+00
-0.5775783039700E+00 -0.3496399857880E+01  0.0000000000000E+00
-0.5775829100452E+00 -0.3423742424750E+01  0.0000000000000E+00
-0.5775875161595E+00 -0.3351084375306E+01  0.0000000000000E+00
-0.5775921222688E+00 -0.3278426405476E+01  0.0000000000000E+00
-0.5775967283721E+00 -0.3205768528191E+01  0.0000000000000E+00
-0.5776013344778E+00 -0.3133110614240E+01  0.0000000000000E+00
-0.5776059405856E+00 -0.3060452667796E+01  0.0000000000000E+00
-0.5776207065436E+00 -0.2987794658827E+01  0.0000000000000E+00
-0.5777110710727E+00 -0.2915136879922E+01  0.0000000000000E+00
-0.5779678994248E+00 -0.2842480668871E+01  0.0000000000000E+00
-0.5784740215735E+00 -0.2769829300463E+01  0.0000000000000E+00
-0.5792904074149E+00 -0.2697188457929E+01  0.0000000000000E+00
-0.5804561613110E+00 -0.2624565285406E+01  0.0000000000000E+00
-0.5819962868433E+00 -0.2551968115375E+01  0.0000000000000E+00
-0.5839306542459E+00 -0.2479405932593E+01  0.0000000000000E+00
-0.5862817422636E+00 -0.2406889452499E+01  0.0000000000000E+00
-0.5890804744040E+00 -0.2334432261820E+01  0.0000000000000E+00
-0.5923251110489E+00 -0.2262044172811E+01  0.0000000000000E+00
-0.5959703187267E+00 -0.2189726943418E+01  0.0000000000000E+00
-0.5999837354740E+00 -0.2117482251598E+01  0.0000000000000E+00
-0.6043465397710E+00 -0.2045312876019E+01  0.0000000000000E+00
-0.6090525895346E+00 -0.1973223718658E+01  0.0000000000000E+00
-0.6141113108821E+00 -0.1901223677472E+01  0.0000000000000E+00
-0.6195606107491E+00 -0.1829329961147E+01  0.0000000000000E+00
-0.5500018030462E+00 -0.4658869964047E+01  0.0000000000000E+00
-0.5500036060886E+00 -0.4586152953959E+01  0.0000000000000E+00
-0.5500054091420E+00 -0.4513435497326E+01  0.0000000000000E+00
-0.5500072121905E+00 -0.4440718244555E+01  0.0000000000000E+00
-0.5500090152385E+00 -0.4368001006246E+01  0.0000000000000E+00
-0.5500108182873E+00 -0.4295283740612E+01  0.0000000000000E+00
-0.5500126213350E+00 -0.4222566517955E+01  0.0000000000000E+00
-0.5500144243833E+00 -0.4149849268642E+01  0.0000000000000E+00
-0.5500162274315E+00 -0.4077132024669E+01  0.0000000000000E+00
-0.5500180304795E+00 -0.4004414788725E+01  0.0000000000000E+00
-0.5500198335279E+00 -0.3931697537561E+01  0.0000000000000E+00
-0.5500216365757E+00 -0.3858980310244E+01  0.0000000000000E+00
-0.5500234396243E+00 -0.3786263051191E+01  0.0000000000000E+00
-0.5500252426743E+00 -0.3713545732813E+01  0.0000000000000E+00
-0.5500270457239E+00 -0.3640828435130E+01  0.0000000000000E+00
-0.5500288487712E+00 -0.3568111224436E+01  0.0000000000000E+00
-0.5500306518345E+00 -0.3495393371759E+01  0.0000000000000E+00
-0.5500324548677E+00 -0.3422676734085E+01  0.0000000000000E+00
-0.5500342579162E+00 -0.3349959479596E+01  0.0000000000000E+00
-0.5500360609627E+00 -0.3277242304786E+01  0.0000000000000E+00
-0.5500378640069E+00 -0.3204525222595E+01  0.0000000000000E+00
-0.5500396670520E+00 -0.3131808103709E+01  0.0000000000000E+00
-0.5500414700979E+00 -0.3059090952303E+01  0.0000000000000E+00
-0.5500529476950E+00 -0.2986373738320E+01  0.0000000000000E+00
-0.5501364128136E+00 -0.2913656754436E+01  0.0000000000000E+00
-0.5503783904272E+00 -0.2840941338509E+01  0.0000000000000E+00
-0.5508577540385E+00 -0.2768230765247E+01  0.0000000000000E+00
-0.5516325612498E+00 -0.2695530717925E+01  0.0000000000000E+00
-0.5527400485558E+00 -0.2622848340613E+01  0.0000000000000E+00
-0.5542040252180E+00 -0.2550191965884E+01  0.0000000000000E+00
-0.5560434123399E+00 -0.2477570578353E+01  0.0000000000000E+00
-0.5582796149445E+00 -0.2404994893474E+01  0.0000000000000E+00
-0.5609420794508E+00 -0.2332478498149E+01  0.0000000000000E+00
-0.5640291493261E+00 -0.2260031204427E+01  0.0000000000000E+00
-0.5674976565036E+00 -0.2187654770253E+01  0.0000000000000E+00
-0.5713167848275E+00 -0.2115350873628E+01  0.0000000000000E+00
-0.5754686118071E+00 -0.2043122293177E+01  0.0000000000000E+00
-0.5799472887431E+00 -0.1970973930881E+01  0.0000000000000E+00
-0.5847617915126E+00 -0.1898914684902E+01  0.0000000000000E+00
-0.5899482163835E+00 -0.1826961763921E+01  0.0000000000000E+00
-0.5225031123729E+00 -0.4658813981278E+01  0.0000000000000E+00
-0.5225062247393E+00 -0.4586040988536E+01  0.0000000000000E+00
-0.5225093371249E+00 -0.4513267548907E+01  0.0000000000000E+00
-0.5225124495017E+00 -0.4440494313297E+01  0.0000000000000E+00
-0.5225155618779E+00 -0.4367721092158E+01  0.0000000000000E+00
-0.5225186742552E+00 -0.4294947843675E+01  0.0000000000000E+00
-0.5225217866308E+00 -0.4222174638202E+01  0.0000000000000E+00
-0.5225248990074E+00 -0.4149401406051E+01  0.0000000000000E+00
-0.5225280113839E+00 -0.4076628179245E+01  0.0000000000000E+00
-0.5225311237600E+00 -0.4003854960475E+01  0.0000000000000E+00
-0.5225342361367E+00 -0.3931081726473E+01  0.0000000000000E+00
-0.5225373485124E+00 -0.3858308516336E+01  0.0000000000000E+00
-0.5225404608895E+00 -0.3785535274437E+01  0.0000000000000E+00
-0.5225435732691E+00 -0.3712761973169E+01  0.0000000000000E+00
-0.5225466856479E+00 -0.3639988692612E+01  0.0000000000000E+00
-0.5225497980229E+00 -0.3567215499111E+01  0.0000000000000E+00
-0.5225529104254E+00 -0.3494441663132E+01  0.0000000000000E+00
-0.5225560227759E+00 -0.3421669043092E+01  0.0000000000000E+00
-0.5225591351527E+00 -0.3348895805762E+01  0.0000000000000E+00
-0.5225622475262E+00 -0.3276122648172E+01  0.0000000000000E+00
-0.5225653598957E+00 -0.3203349583273E+01  0.0000000000000E+00
-0.5225684722668E+00 -0.3130576481651E+01  0.0000000000000E+00
-0.5225715846393E+00 -0.3057803347483E+01  0.0000000000000E+00
-0.5225838878364E+00 -0.2985030150688E+01  0.0000000000000E+00
-0.5226645791765E+00 -0.2912257184026E+01  0.0000000000000E+00
-0.5228958573808E+00 -0.2839485785418E+01  0.0000000000000E+00
-0.5233526522770E+00 -0.2766719229496E+01  0.0000000000000E+00
-0.5240901185848E+00 -0.2693963199577E+01  0.0000000000000E+00
-0.5251436309752E+00 -0.2621224839666E+01  0.0000000000000E+00
-0.5265358082435E+00 -0.2548512482425E+01  0.0000000000000E+00
-0.5282846254413E+00 -0.2475835112332E+01  0.0000000000000E+00
-0.5304104173394E+00 -0.2403203444858E+01  0.0000000000000E+00
-0.5329411580310E+00 -0.2330631067071E+01  0.0000000000000E+00
-0.5358752738152E+00 -0.2258127790822E+01  0.0000000000000E+00
-0.5391717550294E+00 -0.2185695374059E+01  0.0000000000000E+00
-0.5428013263252E+00 -0.2113335494818E+01  0.0000000000000E+00
-0.5467469613379E+00 -0.2041050931690E+01  0.0000000000000E+00
-0.5510031038032E+00 -0.1968846586659E+01  0.0000000000000E+00
-0.5555782807994E+00 -0.1896731358076E+01  0.0000000000000E+00
-0.5605067837800E+00 -0.1824722454622E+01  0.0000000000000E+00
-0.4950042080534E+00 -0.4658760848519E+01  0.0000000000000E+00
-0.4950084160981E+00 -0.4585934723130E+01  0.0000000000000E+00
-0.4950126241686E+00 -0.4513108150526E+01  0.0000000000000E+00
-0.4950168322273E+00 -0.4440281782090E+01  0.0000000000000E+00
-0.4950210402851E+00 -0.4367455428137E+01  0.0000000000000E+00
-0.4950252483446E+00 -0.4294629046819E+01  0.0000000000000E+00
-0.4950294564015E+00 -0.4221802708543E+01  0.0000000000000E+00
-0.4950336644600E+00 -0.4148976343569E+01  0.0000000000000E+00
-0.4950378725182E+00 -0.4076149983944E+01  0.0000000000000E+00
-0.4950420805759E+00 -0.4003323632361E+01  0.0000000000000E+00
-0.4950462886345E+00 -0.3930497265535E+01  0.0000000000000E+00
-0.4950504966917E+00 -0.3857670922591E+01  0.0000000000000E+00
-0.4950547047508E+00 -0.3784844547863E+01  0.0000000000000E+00
-0.4950589128133E+00 -0.3712018113721E+01  0.0000000000000E+00
-0.4950631208746E+00 -0.3639191700306E+01  0.0000000000000E+00
-0.4950673289308E+00 -0.3566365374010E+01  0.0000000000000E+00
-0.4950715370242E+00 -0.3493538404768E+01  0.0000000000000E+00
-0.4950757450473E+00 -0.3420712652352E+01  0.0000000000000E+00
-0.4950799531061E+00 -0.3347886282195E+01  0.0000000000000E+00
-0.4950841611603E+00 -0.3275059991837E+01  0.0000000000000E+00
-0.4950883692091E+00 -0.3202233794237E+01  0.0000000000000E+00
-0.4950925772601E+00 -0.3129407559887E+01  0.0000000000000E+00
-0.4950967853129E+00 -0.3056581292968E+01  0.0000000000000E+00
-0.4951097004640E+00 -0.2983754963374E+01  0.0000000000000E+00
-0.4951874043817E+00 -0.2910928863946E+01  0.0000000000000E+00
-0.4954077695377E+00 -0.2838104332664E+01  0.0000000000000E+00
-0.4958417820870E+00 -0.2765284644087E+01  0.0000000000000E+00
-0.4965416938684E+00 -0.2692475481572E+01  0.0000000000000E+00
-0.4975410177298E+00 -0.2619683989065E+01  0.0000000000000E+00
-0.4988611820019E+00 -0.2546918499309E+01  0.0000000000000E+00
-0.5005192156838E+00 -0.2474187996655E+01  0.0000000000000E+00
-0.5025343832951E+00 -0.2401503196589E+01  0.0000000000000E+00
-0.5049331866049E+00 -0.2328877686334E+01  0.0000000000000E+00
-0.5077141347430E+00 -0.2256321277556E+01  0.0000000000000E+00
-0.5108383764496E+00 -0.2183835728204E+01  0.0000000000000E+00
-0.5142781771833E+00 -0.2111422716353E+01  0.0000000000000E+00
-0.5180174067047E+00 -0.2039085020552E+01  0.0000000000000E+00
-0.5220508011842E+00 -0.1966827542795E+01  0.0000000000000E+00
-0.5263864389021E+00 -0.1894659181612E+01  0.0000000000000E+00
-0.5310568064991E+00 -0.1822597145681E+01  0.0000000000000E+00
-0.4675051002525E+00 -0.4658710568986E+01  0.0000000000000E+00
-0.4675102004944E+00 -0.4585834164169E+01  0.0000000000000E+00
-0.4675153007675E+00 -0.4512957311829E+01  0.0000000000000E+00
-0.4675204010264E+00 -0.4440080663798E+01  0.0000000000000E+00
-0.4675255012843E+00 -0.4367204030259E+01  0.0000000000000E+00
-0.4675306015441E+00 -0.4294327369336E+01  0.0000000000000E+00
-0.4675357018008E+00 -0.4221450751485E+01  0.0000000000000E+00
-0.4675408020595E+00 -0.4148574106919E+01  0.0000000000000E+00
-0.4675459023178E+00 -0.4075697467704E+01  0.0000000000000E+00
-0.4675510025755E+00 -0.4002820836537E+01  0.0000000000000E+00
-0.4675561028342E+00 -0.3929944190116E+01  0.0000000000000E+00
-0.4675612030913E+00 -0.3857067567594E+01  0.0000000000000E+00
-0.4675663033506E+00 -0.3784190913266E+01  0.0000000000000E+00
-0.4675714036141E+00 -0.3711314199484E+01  0.0000000000000E+00
-0.4675765038762E+00 -0.3638437506442E+01  0.0000000000000E+00
-0.4675816041321E+00 -0.3565560900580E+01  0.0000000000000E+00
-0.4675867044331E+00 -0.3492683651327E+01  0.0000000000000E+00
-0.4675918046488E+00 -0.3419807619741E+01  0.0000000000000E+00
-0.4675969049078E+00 -0.3346930969987E+01  0.0000000000000E+00
-0.4676020051612E+00 -0.3274054400087E+01  0.0000000000000E+00
-0.4676071054081E+00 -0.3201177923009E+01  0.0000000000000E+00
-0.4676122056576E+00 -0.3128301409157E+01  0.0000000000000E+00
-0.4676173059094E+00 -0.3055424862712E+01  0.0000000000000E+00
-0.4676306295327E+00 -0.2982548253547E+01  0.0000000000000E+00
-0.4677051425463E+00 -0.2909671874579E+01  0.0000000000000E+00
-0.4679143911723E+00 -0.2836797063844E+01  0.0000000000000E+00
-0.4683254178920E+00 -0.2763927095833E+01  0.0000000000000E+00
-0.4689875716638E+00 -0.2691067653940E+01  0.0000000000000E+00
-0.4699325035119E+00 -0.2618225882054E+01  0.0000000000000E+00
-0.4711804513026E+00 -0.2545410112997E+01  0.0000000000000E+00
-0.4727474979822E+00 -0.2472629330997E+01  0.0000000000000E+00
-0.4746518378190E+00 -0.2399894251555E+01  0.0000000000000E+00
-0.4769185002582E+00 -0.2327218462044E+01  0.0000000000000E+00
-0.4795460772598E+00 -0.2254611773950E+01  0.0000000000000E+00
-0.4824978759672E+00 -0.2182075945228E+01  0.0000000000000E+00
-0.4857477026460E+00 -0.2109612653982E+01  0.0000000000000E+00
-0.4892803231818E+00 -0.2037224678732E+01  0.0000000000000E+00
-0.4930907661800E+00 -0.1964916921473E+01  0.0000000000000E+00
-0.4971866611237E+00 -0.1892698280907E+01  0.0000000000000E+00
-0.5015986898404E+00 -0.1820585965710E+01  0.0000000000000E+00
-0.4400057998211E+00 -0.4658663145781E+01  0.0000000000000E+00
-0.4400115996301E+00 -0.4585739317857E+01  0.0000000000000E+00
-0.4400173994747E+00 -0.4512815042119E+01  0.0000000000000E+00
-0.4400231993031E+00 -0.4439890970823E+01  0.0000000000000E+00
-0.4400289991303E+00 -0.4366966914029E+01  0.0000000000000E+00
-0.4400347989596E+00 -0.4294042829833E+01  0.0000000000000E+00
-0.4400405987856E+00 -0.4221118788737E+01  0.0000000000000E+00
-0.4400463986137E+00 -0.4148194720907E+01  0.0000000000000E+00
-0.4400521984413E+00 -0.4075270658434E+01  0.0000000000000E+00
-0.4400579982683E+00 -0.4002346604013E+01  0.0000000000000E+00
-0.4400637980966E+00 -0.3929422534328E+01  0.0000000000000E+00
-0.4400695979229E+00 -0.3856498488558E+01  0.0000000000000E+00
-0.4400753977517E+00 -0.3783574410961E+01  0.0000000000000E+00
-0.4400811975853E+00 -0.3710650273871E+01  0.0000000000000E+00
-0.4400869974173E+00 -0.3637726157535E+01  0.0000000000000E+00
-0.4400927972423E+00 -0.3564802128435E+01  0.0000000000000E+00
-0.4400985971185E+00 -0.3491877455526E+01  0.0000000000000E+00
-0.4401043968978E+00 -0.3418954001076E+01  0.0000000000000E+00
-0.4401101967263E+00 -0.3346029928056E+01  0.0000000000000E+00
-0.4401159965484E+00 -0.3273105934943E+01  0.0000000000000E+00
-0.4401217963631E+00 -0.3200182034711E+01  0.0000000000000E+00
-0.4401275961808E+00 -0.3127258097681E+01  0.0000000000000E+00
-0.4401333960011E+00 -0.3054334128038E+01  0.0000000000000E+00
-0.4401469354660E+00 -0.2981410095632E+01  0.0000000000000E+00
-0.4402180649440E+00 -0.2908486293451E+01  0.0000000000000E+00
-0.4404160044070E+00 -0.2835564059586E+01  0.0000000000000E+00
-0.4408038526617E+00 -0.2762646668462E+01  0.0000000000000E+00
-0.4414280557851E+00 -0.2689739803510E+01  0.0000000000000E+00
-0.4423184029774E+00 -0.2616850608563E+01  0.0000000000000E+00
-0.4434939416404E+00 -0.2543987416518E+01  0.0000000000000E+00
-0.4449698086669E+00 -0.2471159211489E+01  0.0000000000000E+00
-0.4467631280738E+00 -0.2398376708990E+01  0.0000000000000E+00
-0.4488974569826E+00 -0.2325653496533E+01  0.0000000000000E+00
-0.4513714701828E+00 -0.2252999385440E+01  0.0000000000000E+00
-0.4541506332215E+00 -0.2180416133664E+01  0.0000000000000E+00
-0.4572102931718E+00 -0.2107905419345E+01  0.0000000000000E+00
-0.4605361120445E+00 -0.2035470020967E+01  0.0000000000000E+00
-0.4641234108799E+00 -0.1963114840532E+01  0.0000000000000E+00
-0.4679793703646E+00 -0.1890848776901E+01  0.0000000000000E+00
-0.4721328675123E+00 -0.1818689038749E+01  0.0000000000000E+00
-0.4125063188255E+00 -0.4658618581908E+01  0.0000000000000E+00
-0.4125126376377E+00 -0.4585650190204E+01  0.0000000000000E+00
-0.4125189564888E+00 -0.4512681350412E+01  0.0000000000000E+00
-0.4125252753222E+00 -0.4439712715187E+01  0.0000000000000E+00
-0.4125315941543E+00 -0.4366744094473E+01  0.0000000000000E+00
-0.4125379129888E+00 -0.4293775446340E+01  0.0000000000000E+00
-0.4125442318196E+00 -0.4220806841334E+01  0.0000000000000E+00
-0.4125505506527E+00 -0.4147838209578E+01  0.0000000000000E+00
-0.4125568694853E+00 -0.4074869583181E+01  0.0000000000000E+00
-0.4125631883172E+00 -0.4001900964841E+01  0.0000000000000E+00
-0.4125695071504E+00 -0.3928932331228E+01  0.0000000000000E+00
-0.4125758259816E+00 -0.3855963721545E+01  0.0000000000000E+00
-0.4125821448155E+00 -0.3782995080015E+01  0.0000000000000E+00
-0.4125884636546E+00 -0.3710026378956E+01  0.0000000000000E+00
-0.4125947824919E+00 -0.3637057698663E+01  0.0000000000000E+00
-0.4126011013216E+00 -0.3564089105661E+01  0.0000000000000E+00
-0.4126074202071E+00 -0.3491119868455E+01  0.0000000000000E+00
-0.4126137389871E+00 -0.3418151850454E+01  0.0000000000000E+00
-0.4126200578206E+00 -0.3345183213504E+01  0.0000000000000E+00
-0.4126263766472E+00 -0.3272214656509E+01  0.0000000000000E+00
-0.4126326954657E+00 -0.3199246192453E+01  0.0000000000000E+00
-0.4126390142875E+00 -0.3126277691576E+01  0.0000000000000E+00
-0.4126453331121E+00 -0.3053309158066E+01  0.0000000000000E+00
-0.4126589078544E+00 -0.2980340561753E+01  0.0000000000000E+00
-0.4127264732346E+00 -0.2907372195693E+01  0.0000000000000E+00
-0.4129129229765E+00 -0.2834405398026E+01  0.0000000000000E+00
-0.4132774122137E+00 -0.2761443443115E+01  0.0000000000000E+00
-0.4138634841439E+00 -0.2688492014427E+01  0.0000000000000E+00
-0.4146990661436E+00 -0.2615558255743E+01  0.0000000000000E+00
-0.4158020151508E+00 -0.2542650500030E+01  0.0000000000000E+00
-0.4171865220053E+00 -0.2469777731294E+01  0.0000000000000E+00
-0.4188686404727E+00 -0.2396950665061E+01  0.0000000000000E+00
-0.4208704553524E+00 -0.2324182888976E+01  0.0000000000000E+00
-0.4231907242625E+00 -0.2251484214202E+01  0.0000000000000E+00
-0.4257970711529E+00 -0.2178856398696E+01  0.0000000000000E+00
-0.4286663839034E+00 -0.2106301120627E+01  0.0000000000000E+00
-0.4317852206497E+00 -0.2033821158450E+01  0.0000000000000E+00
-0.4351491948666E+00 -0.1961421414169E+01  0.0000000000000E+00
-0.4387650384451E+00 -0.1889110786798E+01  0.0000000000000E+00
-0.4426598235861E+00 -0.1816906485009E+01  0.0000000000000E+00
-0.3850066669832E+00 -0.4658576880046E+01  0.0000000000000E+00
-0.3850133339525E+00 -0.4585566786567E+01  0.0000000000000E+00
-0.3850200009627E+00 -0.4512556244743E+01  0.0000000000000E+00
-0.3850266679543E+00 -0.4439545907604E+01  0.0000000000000E+00
-0.3850333349445E+00 -0.4366535584984E+01  0.0000000000000E+00
-0.3850400019372E+00 -0.4293525234929E+01  0.0000000000000E+00
-0.3850466689260E+00 -0.4220514928026E+01  0.0000000000000E+00
-0.3850533359172E+00 -0.4147504594357E+01  0.0000000000000E+00
-0.3850600029079E+00 -0.4074494266050E+01  0.0000000000000E+00
-0.3850666698979E+00 -0.4001483945806E+01  0.0000000000000E+00
-0.3850733368893E+00 -0.3928473610280E+01  0.0000000000000E+00
-0.3850800038785E+00 -0.3855463298697E+01  0.0000000000000E+00
-0.3850866708707E+00 -0.3782452955249E+01  0.0000000000000E+00
-0.3850933378682E+00 -0.3709442552238E+01  0.0000000000000E+00
-0.3851000048639E+00 -0.3636432170005E+01  0.0000000000000E+00
-0.3851066718516E+00 -0.3563421875112E+01  0.0000000000000E+00
-0.3851133388981E+00 -0.3490410935648E+01  0.0000000000000E+00
-0.3851200058333E+00 -0.3417401216084E+01  0.0000000000000E+00
-0.3851266728250E+00 -0.3344390877219E+01  0.0000000000000E+00
-0.3851333398094E+00 -0.3271380618355E+01  0.0000000000000E+00
-0.3851400067853E+00 -0.3198370452482E+01  0.0000000000000E+00
-0.3851466737645E+00 -0.3125360249768E+01  0.0000000000000E+00
-0.3851533407468E+00 -0.3052350014401E+01  0.0000000000000E+00
-0.3851667799195E+00 -0.2979339716195E+01  0.0000000000000E+00
-0.3852306103528E+00 -0.2906329648266E+01  0.0000000000000E+00
-0.3854053995203E+00 -0.2833321148803E+01  0.0000000000000E+00
-0.3857463588799E+00 -0.2760317492112E+01  0.0000000000000E+00
-0.3862941287481E+00 -0.2687324361690E+01  0.0000000000000E+00
-0.3870747746768E+00 -0.2614348901271E+01  0.0000000000000E+00
-0.3881049631399E+00 -0.2541399443887E+01  0.0000000000000E+00
-0.3893979389227E+00 -0.2468484973444E+01  0.0000000000000E+00
-0.3909686855394E+00 -0.2395616205479E+01  0.0000000000000E+00
-0.3928378154667E+00 -0.2322806727761E+01  0.0000000000000E+00
-0.3950041691510E+00 -0.2250066351305E+01  0.0000000000000E+00
-0.3974375289459E+00 -0.2177396834071E+01  0.0000000000000E+00
-0.4001163235393E+00 -0.2104799854255E+01  0.0000000000000E+00
-0.4030280071917E+00 -0.2032278190284E+01  0.0000000000000E+00
-0.4061684858133E+00 -0.1959836744166E+01  0.0000000000000E+00
-0.4095440424992E+00 -0.1887484415058E+01  0.0000000000000E+00
-0.4131799446368E+00 -0.1815238411627E+01  0.0000000000000E+00
-0.3575068566982E+00 -0.4658538042865E+01  0.0000000000000E+00
-0.3575137133821E+00 -0.4585489112285E+01  0.0000000000000E+00
-0.3575205701081E+00 -0.4512439733123E+01  0.0000000000000E+00
-0.3575274268148E+00 -0.4439390558754E+01  0.0000000000000E+00
-0.3575342835202E+00 -0.4366341398912E+01  0.0000000000000E+00
-0.3575411402282E+00 -0.4293292211620E+01  0.0000000000000E+00
-0.3575479969321E+00 -0.4220243067503E+01  0.0000000000000E+00
-0.3575548536386E+00 -0.4147193896606E+01  0.0000000000000E+00
-0.3575617103445E+00 -0.4074144731074E+01  0.0000000000000E+00
-0.3575685670497E+00 -0.4001095573609E+01  0.0000000000000E+00
-0.3575754237563E+00 -0.3928046400854E+01  0.0000000000000E+00
-0.3575822804607E+00 -0.3854997252054E+01  0.0000000000000E+00
-0.3575891371681E+00 -0.3781948071373E+01  0.0000000000000E+00
-0.3575959938810E+00 -0.3708898831097E+01  0.0000000000000E+00
-0.3576028505920E+00 -0.3635849611611E+01  0.0000000000000E+00
-0.3576097072948E+00 -0.3562800479510E+01  0.0000000000000E+00
-0.3576165640582E+00 -0.3489750702496E+01  0.0000000000000E+00
-0.3576234207069E+00 -0.3416702146031E+01  0.0000000000000E+00
-0.3576302774139E+00 -0.3343652969935E+01  0.0000000000000E+00
-0.3576371341133E+00 -0.3270603873882E+01  0.0000000000000E+00
-0.3576439908040E+00 -0.3197554870871E+01  0.0000000000000E+00
-0.3576508474981E+00 -0.3124505830998E+01  0.0000000000000E+00
-0.3576577041953E+00 -0.3051456758456E+01  0.0000000000000E+00
-0.3576708493558E+00 -0.2978407623039E+01  0.0000000000000E+00
-0.3577307864007E+00 -0.2905358717923E+01  0.0000000000000E+00
-0.3578937565552E+00 -0.2832311381340E+01  0.0000000000000E+00
-0.3582110276026E+00 -0.2759268887544E+01  0.0000000000000E+00
-0.3587203369794E+00 -0.2686236920060E+01  0.0000000000000E+00
-0.3594458884130E+00 -0.2613222622579E+01  0.0000000000000E+00
-0.3604031579141E+00 -0.2540234328192E+01  0.0000000000000E+00
-0.3616044442134E+00 -0.2467281020712E+01  0.0000000000000E+00
-0.3630636605739E+00 -0.2394373415687E+01  0.0000000000000E+00
-0.3647999471507E+00 -0.2321525101001E+01  0.0000000000000E+00
-0.3668122272178E+00 -0.2248745887532E+01  0.0000000000000E+00
-0.3690724415322E+00 -0.2176037533241E+01  0.0000000000000E+00
-0.3715605595890E+00 -0.2103401716352E+01  0.0000000000000E+00
-0.3742649317735E+00 -0.2030841215263E+01  0.0000000000000E+00
-0.3771817564307E+00 -0.1958360931988E+01  0.0000000000000E+00
-0.3803168678611E+00 -0.1885969765814E+01  0.0000000000000E+00
-0.3836937286386E+00 -0.1813684925408E+01  0.0000000000000E+00
-0.3300068987676E+00 -0.4658502072758E+01  0.0000000000000E+00
-0.3300137975208E+00 -0.4585417172147E+01  0.0000000000000E+00
-0.3300206963164E+00 -0.4512331822732E+01  0.0000000000000E+00
-0.3300275950926E+00 -0.4439246678212E+01  0.0000000000000E+00
-0.3300344938675E+00 -0.4366161548225E+01  0.0000000000000E+00
-0.3300413926450E+00 -0.4293076390776E+01  0.0000000000000E+00
-0.3300482914184E+00 -0.4219991276521E+01  0.0000000000000E+00
-0.3300551901943E+00 -0.4146906135475E+01  0.0000000000000E+00
-0.3300620889697E+00 -0.4073820999796E+01  0.0000000000000E+00
-0.3300689877443E+00 -0.4000735872187E+01  0.0000000000000E+00
-0.3300758865204E+00 -0.3927650729281E+01  0.0000000000000E+00
-0.3300827852943E+00 -0.3854565610343E+01  0.0000000000000E+00
-0.3300896840711E+00 -0.3781480459507E+01  0.0000000000000E+00
-0.3300965828536E+00 -0.3708395249047E+01  0.0000000000000E+00
-0.3301034816341E+00 -0.3635310059386E+01  0.0000000000000E+00
-0.3301103804063E+00 -0.3562224957155E+01  0.0000000000000E+00
-0.3301172792395E+00 -0.3489139209693E+01  0.0000000000000E+00
-0.3301241779574E+00 -0.3416054683381E+01  0.0000000000000E+00
-0.3301310767338E+00 -0.3342969537132E+01  0.0000000000000E+00
-0.3301379755026E+00 -0.3269884470966E+01  0.0000000000000E+00
-0.3301448742627E+00 -0.3196799497888E+01  0.0000000000000E+00
-0.3301517730262E+00 -0.3123714487929E+01  0.0000000000000E+00
-0.3301586717929E+00 -0.3050629445286E+01  0.0000000000000E+00
-0.3301713752953E+00 -0.2977544339735E+01  0.0000000000000E+00
-0.3302272713064E+00 -0.2904459464508E+01  0.0000000000000E+00
-0.3303782748028E+00 -0.2831376157875E+01  0.0000000000000E+00
-0.3306717098932E+00 -0.2758297694042E+01  0.0000000000000E+00
-0.3311424111341E+00 -0.2685229756563E+01  0.0000000000000E+00
-0.3318127204285E+00 -0.2612179489085E+01  0.0000000000000E+00
-0.3326969233240E+00 -0.2539155224757E+01  0.0000000000000E+00
-0.3338063724964E+00 -0.2466165947304E+01  0.0000000000000E+00
-0.3351539109577E+00 -0.2393222372285E+01  0.0000000000000E+00
-0.3367572065418E+00 -0.2320338087689E+01  0.0000000000000E+00
-0.3386152653497E+00 -0.2247522904270E+01  0.0000000000000E+00
-0.3407021865415E+00 -0.2174778579988E+01  0.0000000000000E+00
-0.3429994804201E+00 -0.2102106793092E+01  0.0000000000000E+00
-0.3454963934951E+00 -0.2029510321956E+01  0.0000000000000E+00
-0.3481894165466E+00 -0.1956994068596E+01  0.0000000000000E+00
-0.3510839350807E+00 -0.1884566932422E+01  0.0000000000000E+00
-0.3542016068581E+00 -0.1812246122100E+01  0.0000000000000E+00
-0.3025068041260E+00 -0.4658468971956E+01  0.0000000000000E+00
-0.3025136082379E+00 -0.4585350970612E+01  0.0000000000000E+00
-0.3025204123915E+00 -0.4512232520260E+01  0.0000000000000E+00
-0.3025272165261E+00 -0.4439114274896E+01  0.0000000000000E+00
-0.3025340206593E+00 -0.4365996044072E+01  0.0000000000000E+00
-0.3025408247951E+00 -0.4292877785773E+01  0.0000000000000E+00
-0.3025476289268E+00 -0.4219759570689E+01  0.0000000000000E+00
-0.3025544330610E+00 -0.4146641328800E+01  0.0000000000000E+00
-0.3025612371948E+00 -0.4073523092281E+01  0.0000000000000E+00
-0.3025680413278E+00 -0.4000404863836E+01  0.0000000000000E+00
-0.3025748454622E+00 -0.3927286620088E+01  0.0000000000000E+00
-0.3025816495944E+00 -0.3854168400317E+01  0.0000000000000E+00
-0.3025884537295E+00 -0.3781050148635E+01  0.0000000000000E+00
-0.3025952578702E+00 -0.3707931837301E+01  0.0000000000000E+00
-0.3026020620090E+00 -0.3634813546776E+01  0.0000000000000E+00
-0.3026088661396E+00 -0.3561695343720E+01  0.0000000000000E+00
-0.3026156703303E+00 -0.3488576495141E+01  0.0000000000000E+00
-0.3026224744073E+00 -0.3415458868265E+01  0.0000000000000E+00
-0.3026292785420E+00 -0.3342340621172E+01  0.0000000000000E+00
-0.3026360826693E+00 -0.3269222454198E+01  0.0000000000000E+00
-0.3026428867879E+00 -0.3196104380354E+01  0.0000000000000E+00
-0.3026496909099E+00 -0.3122986269612E+01  0.0000000000000E+00
-0.3026564950350E+00 -0.3049868126171E+01  0.0000000000000E+00
-0.3026686201683E+00 -0.2976749919793E+01  0.0000000000000E+00
-0.3027203384337E+00 -0.2903631943759E+01  0.0000000000000E+00
-0.3028592385586E+00 -0.2830515536376E+01  0.0000000000000E+00
-0.3031287009763E+00 -0.2757403971806E+01  0.0000000000000E+00
-0.3035606573625E+00 -0.2684302933626E+01  0.0000000000000E+00
-0.3041755877955E+00 -0.2611219565447E+01  0.0000000000000E+00
-0.3049865873595E+00 -0.2538162200469E+01  0.0000000000000E+00
-0.3060040626750E+00 -0.2465139822337E+01  0.0000000000000E+00
-0.3072397865029E+00 -0.2392163146619E+01  0.0000000000000E+00
-0.3087099543557E+00 -0.2319245761402E+01  0.0000000000000E+00
-0.3104136551612E+00 -0.2246397477324E+01  0.0000000000000E+00
-0.3123271464832E+00 -0.2173620052345E+01  0.0000000000000E+00
-0.3144334794324E+00 -0.2100915164739E+01  0.0000000000000E+00
-0.3167227966432E+00 -0.2028285592855E+01  0.0000000000000E+00
-0.3191918813306E+00 -0.1955736238713E+01  0.0000000000000E+00
-0.3218456702067E+00 -0.1883276001836E+01  0.0000000000000E+00
-0.3247040162189E+00 -0.1810922090887E+01  0.0000000000000E+00
-0.2750065847907E+00 -0.4658438742560E+01  0.0000000000000E+00
-0.2750131695678E+00 -0.4585290511882E+01  0.0000000000000E+00
-0.2750197543852E+00 -0.4512141832011E+01  0.0000000000000E+00
-0.2750263391843E+00 -0.4438993357213E+01  0.0000000000000E+00
-0.2750329239819E+00 -0.4365844896960E+01  0.0000000000000E+00
-0.2750395087821E+00 -0.4292696409222E+01  0.0000000000000E+00
-0.2750460935784E+00 -0.4219547964716E+01  0.0000000000000E+00
-0.2750526783771E+00 -0.4146399493394E+01  0.0000000000000E+00
-0.2750592631753E+00 -0.4073251027445E+01  0.0000000000000E+00
-0.2750658479728E+00 -0.4000102569572E+01  0.0000000000000E+00
-0.2750724327716E+00 -0.3926954096390E+01  0.0000000000000E+00
-0.2750790175683E+00 -0.3853805647195E+01  0.0000000000000E+00
-0.2750856023679E+00 -0.3780657166076E+01  0.0000000000000E+00
-0.2750921871729E+00 -0.3707508625281E+01  0.0000000000000E+00
-0.2750987719759E+00 -0.3634360105303E+01  0.0000000000000E+00
-0.2751053567711E+00 -0.3561211672831E+01  0.0000000000000E+00
-0.2751119416245E+00 -0.3488062594568E+01  0.0000000000000E+00
-0.2751185263678E+00 -0.3414914738513E+01  0.0000000000000E+00
-0.2751251111669E+00 -0.3341766261985E+01  0.0000000000000E+00
-0.2751316959589E+00 -0.3268617865609E+01  0.0000000000000E+00
-0.2751382807424E+00 -0.3195469562401E+01  0.0000000000000E+00
-0.2751448655293E+00 -0.3122321222281E+01  0.0000000000000E+00
-0.2751514503191E+00 -0.3049172849447E+01  0.0000000000000E+00
-0.2751628723896E+00 -0.2976024413650E+01  0.0000000000000E+00
-0.2752102882170E+00 -0.2902876208215E+01  0.0000000000000E+00
-0.2753369602811E+00 -0.2829729571484E+01  0.0000000000000E+00
-0.2755823253407E+00 -0.2756587777576E+01  0.0000000000000E+00
-0.2759754121923E+00 -0.2683456510093E+01  0.0000000000000E+00
-0.2765348390895E+00 -0.2610342912610E+01  0.0000000000000E+00
-0.2772725106540E+00 -0.2537255318374E+01  0.0000000000000E+00
-0.2781978874511E+00 -0.2464202710958E+01  0.0000000000000E+00
-0.2793216719906E+00 -0.2391195805938E+01  0.0000000000000E+00
-0.2806585874648E+00 -0.2318248191491E+01  0.0000000000000E+00
-0.2822078056280E+00 -0.2245369678147E+01  0.0000000000000E+00
-0.2839477424465E+00 -0.2172562023869E+01  0.0000000000000E+00
-0.2858629898386E+00 -0.2099826906950E+01  0.0000000000000E+00
-0.2879445865631E+00 -0.2027167105719E+01  0.0000000000000E+00
-0.2901896082697E+00 -0.1954587522199E+01  0.0000000000000E+00
-0.2926025428774E+00 -0.1882097056015E+01  0.0000000000000E+00
-0.2952014385204E+00 -0.1809712915830E+01  0.0000000000000E+00
-0.2475062510879E+00 -0.4658411386417E+01  0.0000000000000E+00
-0.2475125021628E+00 -0.4585235799654E+01  0.0000000000000E+00
-0.2475187532761E+00 -0.4512059763530E+01  0.0000000000000E+00
-0.2475250043718E+00 -0.4438883932554E+01  0.0000000000000E+00
-0.2475312554664E+00 -0.4365708116131E+01  0.0000000000000E+00
-0.2475375065632E+00 -0.4292532272210E+01  0.0000000000000E+00
-0.2475437576564E+00 -0.4219356471539E+01  0.0000000000000E+00
-0.2475500087518E+00 -0.4146180644042E+01  0.0000000000000E+00
-0.2475562598468E+00 -0.4073004821919E+01  0.0000000000000E+00
-0.2475625109411E+00 -0.3999829007876E+01  0.0000000000000E+00
-0.2475687620368E+00 -0.3926653178517E+01  0.0000000000000E+00
-0.2475750131303E+00 -0.3853477373156E+01  0.0000000000000E+00
-0.2475812642266E+00 -0.3780301535857E+01  0.0000000000000E+00
-0.2475875153280E+00 -0.3707125638860E+01  0.0000000000000E+00
-0.2475937664276E+00 -0.3633949762689E+01  0.0000000000000E+00
-0.2476000175198E+00 -0.3560773974055E+01  0.0000000000000E+00
-0.2476062686671E+00 -0.3487597539390E+01  0.0000000000000E+00
-0.2476125197100E+00 -0.3414422327390E+01  0.0000000000000E+00
-0.2476187708059E+00 -0.3341246494684E+01  0.0000000000000E+00
-0.2476250218949E+00 -0.3268070742161E+01  0.0000000000000E+00
-0.2476312729760E+00 -0.3194895082840E+01  0.0000000000000E+00
-0.2476375240603E+00 -0.3121719386594E+01  0.0000000000000E+00
-0.2476437751473E+00 -0.3048543657622E+01  0.0000000000000E+00
-0.2476543797871E+00 -0.2975367865661E+01  0.0000000000000E+00
-0.2476973788073E+00 -0.2902192304079E+01  0.0000000000000E+00
-0.2478117084387E+00 -0.2829018311249E+01  0.0000000000000E+00
-0.2480328617639E+00 -0.2755849161253E+01  0.0000000000000E+00
-0.2483869646989E+00 -0.2682690537711E+01  0.0000000000000E+00
-0.2488907736722E+00 -0.2609549584168E+01  0.0000000000000E+00
-0.2495550028424E+00 -0.2536434633916E+01  0.0000000000000E+00
-0.2503881667191E+00 -0.2463354670459E+01  0.0000000000000E+00
-0.2513998975606E+00 -0.2390320409382E+01  0.0000000000000E+00
-0.2526034462390E+00 -0.2317345438943E+01  0.0000000000000E+00
-0.2539980673341E+00 -0.2244439569574E+01  0.0000000000000E+00
-0.2555643352162E+00 -0.2171604559242E+01  0.0000000000000E+00
-0.2572883826116E+00 -0.2098842086256E+01  0.0000000000000E+00
-0.2591621444036E+00 -0.2026154928927E+01  0.0000000000000E+00
-0.2611829886770E+00 -0.1953547989281E+01  0.0000000000000E+00
-0.2633549545578E+00 -0.1881030167037E+01  0.0000000000000E+00
-0.2656942853663E+00 -0.1808618670854E+01  0.0000000000000E+00
-0.2200058151317E+00 -0.4658386905273E+01  0.0000000000000E+00
-0.2200116302512E+00 -0.4585186837416E+01  0.0000000000000E+00
-0.2200174454065E+00 -0.4511986320049E+01  0.0000000000000E+00
-0.2200232605455E+00 -0.4438786007899E+01  0.0000000000000E+00
-0.2200290756833E+00 -0.4365585710305E+01  0.0000000000000E+00
-0.2200348908233E+00 -0.4292385385205E+01  0.0000000000000E+00
-0.2200407059598E+00 -0.4219185103369E+01  0.0000000000000E+00
-0.2200465210985E+00 -0.4145984794698E+01  0.0000000000000E+00
-0.2200523362367E+00 -0.4072784491403E+01  0.0000000000000E+00
-0.2200581513744E+00 -0.3999584196191E+01  0.0000000000000E+00
-0.2200639665132E+00 -0.3926383885658E+01  0.0000000000000E+00
-0.2200697816501E+00 -0.3853183599130E+01  0.0000000000000E+00
-0.2200755967896E+00 -0.3779983280655E+01  0.0000000000000E+00
-0.2200814119338E+00 -0.3706782902461E+01  0.0000000000000E+00
-0.2200872270764E+00 -0.3633582545100E+01  0.0000000000000E+00
-0.2200930422120E+00 -0.3560382275305E+01  0.0000000000000E+00
-0.2200988573989E+00 -0.3487181359263E+01  0.0000000000000E+00
-0.2201046724887E+00 -0.3413981666295E+01  0.0000000000000E+00
-0.2201104876278E+00 -0.3340781352414E+01  0.0000000000000E+00
-0.2201163027605E+00 -0.3267581118742E+01  0.0000000000000E+00
-0.2201221178858E+00 -0.3194380978304E+01  0.0000000000000E+00
-0.2201279330141E+00 -0.3121180800927E+01  0.0000000000000E+00
-0.2201337481449E+00 -0.3047980590815E+01  0.0000000000000E+00
-0.2201434331007E+00 -0.2974780317691E+01  0.0000000000000E+00
-0.2201819130612E+00 -0.2901580274962E+01  0.0000000000000E+00
-0.2202837980092E+00 -0.2828381801026E+01  0.0000000000000E+00
-0.2204806373518E+00 -0.2755188169933E+01  0.0000000000000E+00
-0.2207956541254E+00 -0.2682005065322E+01  0.0000000000000E+00
-0.2212437429334E+00 -0.2608839630710E+01  0.0000000000000E+00
-0.2218344274720E+00 -0.2535700199426E+01  0.0000000000000E+00
-0.2225752761947E+00 -0.2462595754916E+01  0.0000000000000E+00
-0.2234748511090E+00 -0.2389537012771E+01  0.0000000000000E+00
-0.2245449307669E+00 -0.2316537561322E+01  0.0000000000000E+00
-0.2257848525739E+00 -0.2243607210915E+01  0.0000000000000E+00
-0.2271773493033E+00 -0.2170747719517E+01  0.0000000000000E+00
-0.2287100944895E+00 -0.2097960765455E+01  0.0000000000000E+00
-0.2303759191400E+00 -0.2025249127022E+01  0.0000000000000E+00
-0.2321724837746E+00 -0.1952617706247E+01  0.0000000000000E+00
-0.2341033787265E+00 -0.1880075402931E+01  0.0000000000000E+00
-0.2361830425028E+00 -0.1807639425734E+01  0.0000000000000E+00
-0.1925052879758E+00 -0.4658365300648E+01  0.0000000000000E+00
-0.1925105759406E+00 -0.4585143628212E+01  0.0000000000000E+00
-0.1925158639379E+00 -0.4511921506133E+01  0.0000000000000E+00
-0.1925211519204E+00 -0.4438699589331E+01  0.0000000000000E+00
-0.1925264399018E+00 -0.4365477687090E+01  0.0000000000000E+00
-0.1925317278851E+00 -0.4292255757335E+01  0.0000000000000E+00
-0.1925370158654E+00 -0.4219033870856E+01  0.0000000000000E+00
-0.1925423038476E+00 -0.4145811957534E+01  0.0000000000000E+00
-0.1925475918294E+00 -0.4072590049591E+01  0.0000000000000E+00
-0.1925528798106E+00 -0.3999368149732E+01  0.0000000000000E+00
-0.1925581677930E+00 -0.3926146234548E+01  0.0000000000000E+00
-0.1925634557736E+00 -0.3852924343376E+01  0.0000000000000E+00
-0.1925687437565E+00 -0.3779702420247E+01  0.0000000000000E+00
-0.1925740317437E+00 -0.3706480437382E+01  0.0000000000000E+00
-0.1925793197294E+00 -0.3633258475356E+01  0.0000000000000E+00
-0.1925846077088E+00 -0.3560036600922E+01  0.0000000000000E+00
-0.1925898957349E+00 -0.3486814080050E+01  0.0000000000000E+00
-0.1925951836726E+00 -0.3413592782614E+01  0.0000000000000E+00
-0.1926004716552E+00 -0.3340370864080E+01  0.0000000000000E+00
-0.1926057596320E+00 -0.3267149025780E+01  0.0000000000000E+00
-0.1926110476020E+00 -0.3193927280741E+01  0.0000000000000E+00
-0.1926163355748E+00 -0.3120705498753E+01  0.0000000000000E+00
-0.1926216235498E+00 -0.3047483684019E+01  0.0000000000000E+00
-0.1926302976219E+00 -0.2974261806254E+01  0.0000000000000E+00
-0.1926641673231E+00 -0.2901040158897E+01  0.0000000000000E+00
-0.1927535163882E+00 -0.2827820080371E+01  0.0000000000000E+00
-0.1929259505487E+00 -0.2754604844696E+01  0.0000000000000E+00
-0.1932017899616E+00 -0.2681400135527E+01  0.0000000000000E+00
-0.1935940674049E+00 -0.2608213096357E+01  0.0000000000000E+00
-0.1941111161126E+00 -0.2535052060547E+01  0.0000000000000E+00
-0.1947595584820E+00 -0.2461926011493E+01  0.0000000000000E+00
-0.1955468862697E+00 -0.2388845664791E+01  0.0000000000000E+00
-0.1964834057080E+00 -0.2315824608836E+01  0.0000000000000E+00
-0.1975685370274E+00 -0.2242872653898E+01  0.0000000000000E+00
-0.1987871714047E+00 -0.2169991557945E+01  0.0000000000000E+00
-0.2001285231822E+00 -0.2097182999318E+01  0.0000000000000E+00
-0.2015863194915E+00 -0.2024449756296E+01  0.0000000000000E+00
-0.2031585132875E+00 -0.1951796730910E+01  0.0000000000000E+00
-0.2048482461110E+00 -0.1879232823034E+01  0.0000000000000E+00
-0.2066681516558E+00 -0.1806775241326E+01  0.0000000000000E+00
-0.1650046808342E+00 -0.4658346573894E+01  0.0000000000000E+00
-0.1650093616587E+00 -0.4585106174743E+01  0.0000000000000E+00
-0.1650140425120E+00 -0.4511865325833E+01  0.0000000000000E+00
-0.1650187233521E+00 -0.4438624682253E+01  0.0000000000000E+00
-0.1650234041912E+00 -0.4365384053239E+01  0.0000000000000E+00
-0.1650280850322E+00 -0.4292143396702E+01  0.0000000000000E+00
-0.1650327658704E+00 -0.4218902783454E+01  0.0000000000000E+00
-0.1650374467102E+00 -0.4145662143355E+01  0.0000000000000E+00
-0.1650421275498E+00 -0.4072421508636E+01  0.0000000000000E+00
-0.1650468083888E+00 -0.3999180882004E+01  0.0000000000000E+00
-0.1650514892288E+00 -0.3925940240043E+01  0.0000000000000E+00
-0.1650561700673E+00 -0.3852699622099E+01  0.0000000000000E+00
-0.1650608509078E+00 -0.3779458972191E+01  0.0000000000000E+00
-0.1650655317521E+00 -0.3706218262532E+01  0.0000000000000E+00
-0.1650702125951E+00 -0.3632977573716E+01  0.0000000000000E+00
-0.1650748934325E+00 -0.3559736972516E+01  0.0000000000000E+00
-0.1650795743113E+00 -0.3486495724711E+01  0.0000000000000E+00
-0.1650842551118E+00 -0.3413255700655E+01  0.0000000000000E+00
-0.1650889359520E+00 -0.3340015055344E+01  0.0000000000000E+00
-0.1650936167871E+00 -0.3266774490286E+01  0.0000000000000E+00
-0.1650982976162E+00 -0.3193534018513E+01  0.0000000000000E+00
-0.1651029784477E+00 -0.3120293509782E+01  0.0000000000000E+00
-0.1651076592813E+00 -0.3047052968296E+01  0.0000000000000E+00
-0.1651152424838E+00 -0.2973812363763E+01  0.0000000000000E+00
-0.1651444219395E+00 -0.2900571989649E+01  0.0000000000000E+00
-0.1652211551347E+00 -0.2827333184399E+01  0.0000000000000E+00
-0.1653691041251E+00 -0.2754099222006E+01  0.0000000000000E+00
-0.1656056861875E+00 -0.2680875786140E+01  0.0000000000000E+00
-0.1659420722746E+00 -0.2607670020273E+01  0.0000000000000E+00
-0.1663854051581E+00 -0.2534490257795E+01  0.0000000000000E+00
-0.1669413611788E+00 -0.2461345482056E+01  0.0000000000000E+00
-0.1676163618420E+00 -0.2388246408658E+01  0.0000000000000E+00
-0.1684192410609E+00 -0.2315206626052E+01  0.0000000000000E+00
-0.1693495018906E+00 -0.2242235944441E+01  0.0000000000000E+00
-0.1703941939114E+00 -0.2169336121793E+01  0.0000000000000E+00
-0.1715440722738E+00 -0.2096508836464E+01  0.0000000000000E+00
-0.1727937602337E+00 -0.2023756866719E+01  0.0000000000000E+00
-0.1741415031809E+00 -0.1951085114590E+01  0.0000000000000E+00
-0.1755899938642E+00 -0.1878502480015E+01  0.0000000000000E+00
-0.1771500611639E+00 -0.1806026171652E+01  0.0000000000000E+00
-0.1375040054788E+00 -0.4658330726195E+01  0.0000000000000E+00
-0.1375080109493E+00 -0.4585074479377E+01  0.0000000000000E+00
-0.1375120164444E+00 -0.4511817782703E+01  0.0000000000000E+00
-0.1375160219283E+00 -0.4438561291404E+01  0.0000000000000E+00
-0.1375200274113E+00 -0.4365304814673E+01  0.0000000000000E+00
-0.1375240328959E+00 -0.4292048310415E+01  0.0000000000000E+00
-0.1375280383781E+00 -0.4218791849453E+01  0.0000000000000E+00
-0.1375320438618E+00 -0.4145535361636E+01  0.0000000000000E+00
-0.1375360493451E+00 -0.4072278879200E+01  0.0000000000000E+00
-0.1375400548281E+00 -0.3999022404852E+01  0.0000000000000E+00
-0.1375440603118E+00 -0.3925765915171E+01  0.0000000000000E+00
-0.1375480657943E+00 -0.3852509449514E+01  0.0000000000000E+00
-0.1375520712785E+00 -0.3779252951886E+01  0.0000000000000E+00
-0.1375560767660E+00 -0.3705996394492E+01  0.0000000000000E+00
-0.1375600822523E+00 -0.3632739857948E+01  0.0000000000000E+00
-0.1375640877338E+00 -0.3559483409037E+01  0.0000000000000E+00
-0.1375680932507E+00 -0.3486226313383E+01  0.0000000000000E+00
-0.1375720987007E+00 -0.3412970441741E+01  0.0000000000000E+00
-0.1375761041846E+00 -0.3339713948710E+01  0.0000000000000E+00
-0.1375801096642E+00 -0.3266457535950E+01  0.0000000000000E+00
-0.1375841151387E+00 -0.3193201216495E+01  0.0000000000000E+00
-0.1375881206152E+00 -0.3119944860073E+01  0.0000000000000E+00
-0.1375921260934E+00 -0.3046688470890E+01  0.0000000000000E+00
-0.1375985502126E+00 -0.2973432018646E+01  0.0000000000000E+00
-0.1376229712097E+00 -0.2900175796830E+01  0.0000000000000E+00
-0.1376870203236E+00 -0.2826921143905E+01  0.0000000000000E+00
-0.1378104159346E+00 -0.2753671333843E+01  0.0000000000000E+00
-0.1380076724401E+00 -0.2680432050327E+01  0.0000000000000E+00
-0.1382880989677E+00 -0.2607210436809E+01  0.0000000000000E+00
-0.1386576478271E+00 -0.2534014826704E+01  0.0000000000000E+00
-0.1391210493026E+00 -0.2460854203325E+01  0.0000000000000E+00
-0.1396836546487E+00 -0.2387739282277E+01  0.0000000000000E+00
-0.1403528254594E+00 -0.2314683652058E+01  0.0000000000000E+00
-0.1411281476146E+00 -0.2241697122816E+01  0.0000000000000E+00
-0.1419988290975E+00 -0.2168781452520E+01  0.0000000000000E+00
-0.1429571658668E+00 -0.2095938319535E+01  0.0000000000000E+00
-0.1439986773022E+00 -0.2023170502116E+01  0.0000000000000E+00
-0.1451219012286E+00 -0.1950482902297E+01  0.0000000000000E+00
-0.1463290816030E+00 -0.1877884420070E+01  0.0000000000000E+00
-0.1476292424924E+00 -0.1805392264092E+01  0.0000000000000E+00
-0.1100032727679E+00 -0.4658317758532E+01  0.0000000000000E+00
-0.1100065455290E+00 -0.4585048544080E+01  0.0000000000000E+00
-0.1100098183102E+00 -0.4511778879691E+01  0.0000000000000E+00
-0.1100130910822E+00 -0.4438509420714E+01  0.0000000000000E+00
-0.1100163638535E+00 -0.4365239976307E+01  0.0000000000000E+00
-0.1100196366261E+00 -0.4291970504368E+01  0.0000000000000E+00
-0.1100229093967E+00 -0.4218701075733E+01  0.0000000000000E+00
-0.1100261821686E+00 -0.4145431620239E+01  0.0000000000000E+00
-0.1100294549402E+00 -0.4072162170125E+01  0.0000000000000E+00
-0.1100327277114E+00 -0.3998892728102E+01  0.0000000000000E+00
-0.1100360004834E+00 -0.3925623270744E+01  0.0000000000000E+00
-0.1100392732542E+00 -0.3852353837413E+01  0.0000000000000E+00
-0.1100425460265E+00 -0.3779084372104E+01  0.0000000000000E+00
-0.1100458188015E+00 -0.3705814847021E+01  0.0000000000000E+00
-0.1100490915755E+00 -0.3632545342790E+01  0.0000000000000E+00
-0.1100523643456E+00 -0.3559275926208E+01  0.0000000000000E+00
-0.1100556371446E+00 -0.3486005862769E+01  0.0000000000000E+00
-0.1100589098889E+00 -0.3412737023558E+01  0.0000000000000E+00
-0.1100621826610E+00 -0.3339467562849E+01  0.0000000000000E+00
-0.1100654554295E+00 -0.3266198182424E+01  0.0000000000000E+00
-0.1100687281938E+00 -0.3192928895321E+01  0.0000000000000E+00
-0.1100720009598E+00 -0.3119659571245E+01  0.0000000000000E+00
-0.1100752737272E+00 -0.3046390214401E+01  0.0000000000000E+00
-0.1100804814074E+00 -0.2973120794485E+01  0.0000000000000E+00
-0.1101000865895E+00 -0.2899851605005E+01  0.0000000000000E+00
-0.1101513942642E+00 -0.2826583984439E+01  0.0000000000000E+00
-0.1102501791352E+00 -0.2753321206740E+01  0.0000000000000E+00
-0.1104080527204E+00 -0.2680068955602E+01  0.0000000000000E+00
-0.1106324623216E+00 -0.2606834374461E+01  0.0000000000000E+00
-0.1109281697863E+00 -0.2533625796754E+01  0.0000000000000E+00
-0.1112989593421E+00 -0.2460452205761E+01  0.0000000000000E+00
-0.1117491119923E+00 -0.2387324317091E+01  0.0000000000000E+00
-0.1122845170118E+00 -0.2314255719281E+01  0.0000000000000E+00
-0.1129048431049E+00 -0.2241256222433E+01  0.0000000000000E+00
-0.1136014566584E+00 -0.2168327584516E+01  0.0000000000000E+00
-0.1143681944392E+00 -0.2095471483905E+01  0.0000000000000E+00
-0.1152014719513E+00 -0.2022690698846E+01  0.0000000000000E+00
-0.1161001194546E+00 -0.1949990131373E+01  0.0000000000000E+00
-0.1170659321143E+00 -0.1877378681522E+01  0.0000000000000E+00
-0.1181061291839E+00 -0.1804873557950E+01  0.0000000000000E+00
-0.8250249454314E-01 -0.4658307671731E+01  0.0000000000000E+00
-0.8250498908109E-01 -0.4585028370497E+01  0.0000000000000E+00
-0.8250748363435E-01 -0.4511748619267E+01  0.0000000000000E+00
-0.8250997818062E-01 -0.4438469073475E+01  0.0000000000000E+00
-0.8251247272640E-01 -0.4365189542255E+01  0.0000000000000E+00
-0.8251496727311E-01 -0.4291909983500E+01  0.0000000000000E+00
-0.8251746181835E-01 -0.4218630468056E+01  0.0000000000000E+00
-0.8251995636450E-01 -0.4145350925747E+01  0.0000000000000E+00
-0.8252245091047E-01 -0.4072071388821E+01  0.0000000000000E+00
-0.8252494545616E-01 -0.3998791859985E+01  0.0000000000000E+00
-0.8252744000238E-01 -0.3925512315813E+01  0.0000000000000E+00
-0.8252993454778E-01 -0.3852232795671E+01  0.0000000000000E+00
-0.8253242909426E-01 -0.3778953243548E+01  0.0000000000000E+00
-0.8253492364278E-01 -0.3705673631641E+01  0.0000000000000E+00
-0.8253741819059E-01 -0.3632394040589E+01  0.0000000000000E+00
-0.8253991273542E-01 -0.3559114537199E+01  0.0000000000000E+00
-0.8254240730227E-01 -0.3485834386862E+01  0.0000000000000E+00
-0.8254490182744E-01 -0.3412555460923E+01  0.0000000000000E+00
-0.8254739637377E-01 -0.3339275913399E+01  0.0000000000000E+00
-0.8254989091737E-01 -0.3265996446170E+01  0.0000000000000E+00
-0.8255238545779E-01 -0.3192717072277E+01  0.0000000000000E+00
-0.8255487999946E-01 -0.3119437661405E+01  0.0000000000000E+00
-0.8255737454226E-01 -0.3046158217761E+01  0.0000000000000E+00
-0.8256132026964E-01 -0.2972878711036E+01  0.0000000000000E+00
-0.8257606412342E-01 -0.2899599434752E+01  0.0000000000000E+00
-0.8261458484651E-01 -0.2826321727400E+01  0.0000000000000E+00
-0.8268871346684E-01 -0.2753048862920E+01  0.0000000000000E+00
-0.8280715862262E-01 -0.2679786525011E+01  0.0000000000000E+00
-0.8297550579031E-01 -0.2606541857099E+01  0.0000000000000E+00
-0.8319732635544E-01 -0.2533323192637E+01  0.0000000000000E+00
-0.8347545848869E-01 -0.2460139514879E+01  0.0000000000000E+00
-0.8381311294265E-01 -0.2387001539440E+01  0.0000000000000E+00
-0.8421470667327E-01 -0.2313922854883E+01  0.0000000000000E+00
-0.8467999120903E-01 -0.2240913271277E+01  0.0000000000000E+00
-0.8520249134003E-01 -0.2167974546591E+01  0.0000000000000E+00
-0.8577758464144E-01 -0.2095108359206E+01  0.0000000000000E+00
-0.8640258274117E-01 -0.2022317487362E+01  0.0000000000000E+00
-0.8707660833415E-01 -0.1949606833093E+01  0.0000000000000E+00
-0.8780100779414E-01 -0.1876985296471E+01  0.0000000000000E+00
-0.8858119556126E-01 -0.1804470086151E+01  0.0000000000000E+00
-0.5500168202915E-01 -0.4658300466420E+01  0.0000000000000E+00
-0.5500336405479E-01 -0.4585013959890E+01  0.0000000000000E+00
-0.5500504609076E-01 -0.4511727003319E+01  0.0000000000000E+00
-0.5500672812202E-01 -0.4438440252207E+01  0.0000000000000E+00
-0.5500841015294E-01 -0.4365153515669E+01  0.0000000000000E+00
-0.5501009218450E-01 -0.4291866751592E+01  0.0000000000000E+00
-0.5501177421506E-01 -0.4218580030830E+01  0.0000000000000E+00
-0.5501345624623E-01 -0.4145293283201E+01  0.0000000000000E+00
-0.5501513827729E-01 -0.4072006540956E+01  0.0000000000000E+00
-0.5501682030815E-01 -0.3998719806802E+01  0.0000000000000E+00
-0.5501850233937E-01 -0.3925433057309E+01  0.0000000000000E+00
-0.5502018437004E-01 -0.3852146331850E+01  0.0000000000000E+00
-0.5502186640144E-01 -0.3778859574406E+01  0.0000000000000E+00
-0.5502354843422E-01 -0.3705572757172E+01  0.0000000000000E+00
-0.5502523046651E-01 -0.3632285960796E+01  0.0000000000000E+00
-0.5502691249680E-01 -0.3558999252090E+01  0.0000000000000E+00
-0.5502859454193E-01 -0.3485711896373E+01  0.0000000000000E+00
-0.5503027655896E-01 -0.3412425765174E+01  0.0000000000000E+00
-0.5503195859026E-01 -0.3339139012330E+01  0.0000000000000E+00
-0.5503364061971E-01 -0.3265852339789E+01  0.0000000000000E+00
-0.5503532264702E-01 -0.3192565760592E+01  0.0000000000000E+00
-0.5503700467518E-01 -0.3119279144413E+01  0.0000000000000E+00
-0.5503868670409E-01 -0.3045992495459E+01  0.0000000000000E+00
-0.5504133618940E-01 -0.2972705783417E+01  0.0000000000000E+00
-0.5505118442552E-01 -0.2899419301821E+01  0.0000000000000E+00
-0.5507688390763E-01 -0.2826134389170E+01  0.0000000000000E+00
-0.5512632198758E-01 -0.2752854319392E+01  0.0000000000000E+00
-0.5520530442408E-01 -0.2679584776194E+01  0.0000000000000E+00
-0.5531755486806E-01 -0.2606332902993E+01  0.0000000000000E+00
-0.5546545424311E-01 -0.2533107033253E+01  0.0000000000000E+00
-0.5565089466302E-01 -0.2459916150211E+01  0.0000000000000E+00
-0.5587601662944E-01 -0.2386770969482E+01  0.0000000000000E+00
-0.5614376477954E-01 -0.2313685079654E+01  0.0000000000000E+00
-0.5645397346590E-01 -0.2240668290768E+01  0.0000000000000E+00
-0.5680232588196E-01 -0.2167722360794E+01  0.0000000000000E+00
-0.5718574041112E-01 -0.2094848968118E+01  0.0000000000000E+00
-0.5760242480531E-01 -0.2022050890974E+01  0.0000000000000E+00
-0.5805179419448E-01 -0.1949333031399E+01  0.0000000000000E+00
-0.5853474616100E-01 -0.1876704289487E+01  0.0000000000000E+00
-0.5905489033159E-01 -0.1804181873893E+01  0.0000000000000E+00
-0.2750084664702E-01 -0.4658296143052E+01  0.0000000000000E+00
-0.2750169329227E-01 -0.4585005313163E+01  0.0000000000000E+00
-0.2750253994273E-01 -0.4511714033207E+01  0.0000000000000E+00
-0.2750338659081E-01 -0.4438422958722E+01  0.0000000000000E+00
-0.2750423323872E-01 -0.4365131898811E+01  0.0000000000000E+00
-0.2750507988695E-01 -0.4291840811361E+01  0.0000000000000E+00
-0.2750592653468E-01 -0.4218549767228E+01  0.0000000000000E+00
-0.2750677318272E-01 -0.4145258696226E+01  0.0000000000000E+00
-0.2750761983069E-01 -0.4071967630608E+01  0.0000000000000E+00
-0.2750846647858E-01 -0.3998676573082E+01  0.0000000000000E+00
-0.2750931312664E-01 -0.3925385500216E+01  0.0000000000000E+00
-0.2751015977442E-01 -0.3852094451385E+01  0.0000000000000E+00
-0.2751100642257E-01 -0.3778803370567E+01  0.0000000000000E+00
-0.2751185307142E-01 -0.3705512229957E+01  0.0000000000000E+00
-0.2751269972002E-01 -0.3632221110204E+01  0.0000000000000E+00
-0.2751354636761E-01 -0.3558930078128E+01  0.0000000000000E+00
-0.2751439302267E-01 -0.3485638399002E+01  0.0000000000000E+00
-0.2751523966359E-01 -0.3412347944467E+01  0.0000000000000E+00
-0.2751608631169E-01 -0.3339056868249E+01  0.0000000000000E+00
-0.2751693295887E-01 -0.3265765872339E+01  0.0000000000000E+00
-0.2751777960496E-01 -0.3192474969780E+01  0.0000000000000E+00
-0.2751862625148E-01 -0.3119184030236E+01  0.0000000000000E+00
-0.2751947289838E-01 -0.3045893057915E+01  0.0000000000000E+00
-0.2752080327345E-01 -0.2972602022502E+01  0.0000000000000E+00
-0.2752573302372E-01 -0.2899311217538E+01  0.0000000000000E+00
-0.2753858839655E-01 -0.2826021981525E+01  0.0000000000000E+00
-0.2756331306764E-01 -0.2752737588388E+01  0.0000000000000E+00
-0.2760280991616E-01 -0.2679463721835E+01  0.0000000000000E+00
-0.2765894076745E-01 -0.2606207525280E+01  0.0000000000000E+00
-0.2773289608320E-01 -0.2532977332192E+01  0.0000000000000E+00
-0.2782562192022E-01 -0.2459782125798E+01  0.0000000000000E+00
-0.2793818852921E-01 -0.2386632621716E+01  0.0000000000000E+00
-0.2807206822860E-01 -0.2313542408544E+01  0.0000000000000E+00
-0.2822717819500E-01 -0.2240521296308E+01  0.0000000000000E+00
-0.2840136002522E-01 -0.2167571042980E+01  0.0000000000000E+00
-0.2859307291094E-01 -0.2094693326949E+01  0.0000000000000E+00
-0.2880142072809E-01 -0.2021890926444E+01  0.0000000000000E+00
-0.2902611104167E-01 -0.1949168743503E+01  0.0000000000000E+00
-0.2926759264271E-01 -0.1876535678237E+01  0.0000000000000E+00
-0.2952767034453E-01 -0.1804008939299E+01  0.0000000000000E+00
 0.1341298275034E-09 -0.4658294701900E+01  0.0000000000000E+00
 0.2682591870488E-09 -0.4585002430862E+01  0.0000000000000E+00
 0.4023893957001E-09 -0.4511709709747E+01  0.0000000000000E+00
 0.5365190323347E-09 -0.4438417194108E+01  0.0000000000000E+00
 0.6706488701749E-09 -0.4365124693044E+01  0.0000000000000E+00
 0.8047787882590E-09 -0.4291832164439E+01  0.0000000000000E+00
 0.9389088597081E-09 -0.4218539679152E+01  0.0000000000000E+00
 0.1073038524398E-08 -0.4145247166996E+01  0.0000000000000E+00
 0.1207168262094E-08 -0.4071954660224E+01  0.0000000000000E+00
 0.1341298234168E-08 -0.3998662161544E+01  0.0000000000000E+00
 0.1475428013433E-08 -0.3925369647524E+01  0.0000000000000E+00
 0.1609557830157E-08 -0.3852077157540E+01  0.0000000000000E+00
 0.1743687652334E-08 -0.3778784635568E+01  0.0000000000000E+00
 0.1877817310913E-08 -0.3705492053802E+01  0.0000000000000E+00
 0.2011947706894E-08 -0.3632199492894E+01  0.0000000000000E+00
 0.2146077408419E-08 -0.3558907019664E+01  0.0000000000000E+00
 0.2280208426415E-08 -0.3485613899373E+01  0.0000000000000E+00
 0.2414336888433E-08 -0.3412322003696E+01  0.0000000000000E+00
 0.2548466840620E-08 -0.3339029486324E+01  0.0000000000000E+00
 0.2682596584237E-08 -0.3265737049261E+01  0.0000000000000E+00
 0.2816726205452E-08 -0.3192444705551E+01  0.0000000000000E+00
 0.2950855619598E-08 -0.3119152324855E+01  0.0000000000000E+00
 0.3084985484792E-08 -0.3045859911382E+01  0.0000000000000E+00
 0.3219175371806E-08 -0.2972567434816E+01  0.0000000000000E+00
 0.3353698962349E-08 -0.2899275188699E+01  0.0000000000000E+00
 0.3488929411804E-08 -0.2825984511537E+01  0.0000000000000E+00
 0.3625244941819E-08 -0.2752698677250E+01  0.0000000000000E+00
 0.3762956809338E-08 -0.2679423369550E+01  0.0000000000000E+00
 0.3902297487834E-08 -0.2606165731846E+01  0.0000000000000E+00
 0.4043435735482E-08 -0.2532934097612E+01  0.0000000000000E+00
 0.4186557962945E-08 -0.2459737450072E+01  0.0000000000000E+00
 0.4331879569796E-08 -0.2386586504841E+01  0.0000000000000E+00
 0.4479654772516E-08 -0.2313494850525E+01  0.0000000000000E+00
 0.4629287928948E-08 -0.2240472297144E+01  0.0000000000000E+00
 0.4780639145247E-08 -0.2167520602668E+01  0.0000000000000E+00
 0.4933757342576E-08 -0.2094641445488E+01  0.0000000000000E+00
 0.5088733100688E-08 -0.2021837603833E+01  0.0000000000000E+00
 0.5245556969086E-08 -0.1949113979741E+01  0.0000000000000E+00
 0.5404454514473E-08 -0.1876479473326E+01  0.0000000000000E+00
 0.5565503903438E-08 -0.1803951293244E+01  0.0000000000000E+00
 0.2750084691528E-01 -0.4658296143053E+01  0.0000000000000E+00
 0.2750169382879E-01 -0.4585005313166E+01  0.0000000000000E+00
 0.2750254074750E-01 -0.4511714033210E+01  0.0000000000000E+00
 0.2750338766384E-01 -0.4438422958726E+01  0.0000000000000E+00
 0.2750423458000E-01 -0.4365131898817E+01  0.0000000000000E+00
 0.2750508149649E-01 -0.4291840811368E+01  0.0000000000000E+00
 0.2750592841248E-01 -0.4218549767235E+01  0.0000000000000E+00
 0.2750677532877E-01 -0.4145258696235E+01  0.0000000000000E+00
 0.2750762224501E-01 -0.4071967630618E+01  0.0000000000000E+00
 0.2750846916115E-01 -0.3998676573093E+01  0.0000000000000E+00
 0.2750931607747E-01 -0.3925385500228E+01  0.0000000000000E+00
 0.2751016299351E-01 -0.3852094451398E+01  0.0000000000000E+00
 0.2751100990992E-01 -0.3778803370582E+01  0.0000000000000E+00
 0.2751185682702E-01 -0.3705512229972E+01  0.0000000000000E+00
 0.2751270374388E-01 -0.3632221110221E+01  0.0000000000000E+00
 0.2751355065973E-01 -0.3558930078145E+01  0.0000000000000E+00
 0.2751439758305E-01 -0.3485638399021E+01  0.0000000000000E+00
 0.2751524449223E-01 -0.3412347944487E+01  0.0000000000000E+00
 0.2751609140858E-01 -0.3339056868270E+01  0.0000000000000E+00
 0.2751693832401E-01 -0.3265765872362E+01  0.0000000000000E+00
 0.2751778523836E-01 -0.3192474969803E+01  0.0000000000000E+00
 0.2751863215314E-01 -0.3119184030260E+01  0.0000000000000E+00
 0.2751947906830E-01 -0.3045893057940E+01  0.0000000000000E+00
 0.2752080971174E-01 -0.2972602022528E+01  0.0000000000000E+00
 0.2752573973106E-01 -0.2899311217565E+01  0.0000000000000E+00
 0.2753859537435E-01 -0.2826021981554E+01  0.0000000000000E+00
 0.2756332031807E-01 -0.2752737588418E+01  0.0000000000000E+00
 0.2760281744201E-01 -0.2679463721866E+01  0.0000000000000E+00
 0.2765894857198E-01 -0.2606207525312E+01  0.0000000000000E+00
 0.2773290417001E-01 -0.2532977332225E+01  0.0000000000000E+00
 0.2782563029327E-01 -0.2459782125833E+01  0.0000000000000E+00
 0.2793819719290E-01 -0.2386632621751E+01  0.0000000000000E+00
 0.2807207718784E-01 -0.2313542408580E+01  0.0000000000000E+00
 0.2822718745350E-01 -0.2240521296346E+01  0.0000000000000E+00
 0.2840136958642E-01 -0.2167571043019E+01  0.0000000000000E+00
 0.2859308277837E-01 -0.2094693326988E+01  0.0000000000000E+00
 0.2880143090548E-01 -0.2021890926485E+01  0.0000000000000E+00
 0.2902612153270E-01 -0.1949168743545E+01  0.0000000000000E+00
 0.2926760345153E-01 -0.1876535678280E+01  0.0000000000000E+00
 0.2952768147545E-01 -0.1804008939343E+01  0.0000000000000E+00
 0.5500168229740E-01 -0.4658300466422E+01  0.0000000000000E+00
 0.5500336459129E-01 -0.4585013959894E+01  0.0000000000000E+00
 0.5500504689552E-01 -0.4511727003325E+01  0.0000000000000E+00
 0.5500672919502E-01 -0.4438440252216E+01  0.0000000000000E+00
 0.5500841149420E-01 -0.4365153515680E+01  0.0000000000000E+00
 0.5501009379400E-01 -0.4291866751605E+01  0.0000000000000E+00
 0.5501177609281E-01 -0.4218580030846E+01  0.0000000000000E+00
 0.5501345839224E-01 -0.4145293283219E+01  0.0000000000000E+00
 0.5501514069154E-01 -0.4072006540976E+01  0.0000000000000E+00
 0.5501682299066E-01 -0.3998719806824E+01  0.0000000000000E+00
 0.5501850529013E-01 -0.3925433057334E+01  0.0000000000000E+00
 0.5502018758905E-01 -0.3852146331877E+01  0.0000000000000E+00
 0.5502186988871E-01 -0.3778859574434E+01  0.0000000000000E+00
 0.5502355218973E-01 -0.3705572757203E+01  0.0000000000000E+00
 0.5502523449028E-01 -0.3632285960829E+01  0.0000000000000E+00
 0.5502691678881E-01 -0.3558999252125E+01  0.0000000000000E+00
 0.5502859910220E-01 -0.3485711896410E+01  0.0000000000000E+00
 0.5503028138748E-01 -0.3412425765214E+01  0.0000000000000E+00
 0.5503196368702E-01 -0.3339139012372E+01  0.0000000000000E+00
 0.5503364598473E-01 -0.3265852339833E+01  0.0000000000000E+00
 0.5503532828029E-01 -0.3192565760638E+01  0.0000000000000E+00
 0.5503701057670E-01 -0.3119279144462E+01  0.0000000000000E+00
 0.5503869287386E-01 -0.3045992495510E+01  0.0000000000000E+00
 0.5504134262754E-01 -0.2972705783470E+01  0.0000000000000E+00
 0.5505119113270E-01 -0.2899419301877E+01  0.0000000000000E+00
 0.5507689088526E-01 -0.2826134389227E+01  0.0000000000000E+00
 0.5512632923783E-01 -0.2752854319452E+01  0.0000000000000E+00
 0.5520531194975E-01 -0.2679584776256E+01  0.0000000000000E+00
 0.5531756267240E-01 -0.2606332903057E+01  0.0000000000000E+00
 0.5546546232972E-01 -0.2533107033319E+01  0.0000000000000E+00
 0.5565090303586E-01 -0.2459916150279E+01  0.0000000000000E+00
 0.5587602529292E-01 -0.2386770969553E+01  0.0000000000000E+00
 0.5614377373856E-01 -0.2313685079727E+01  0.0000000000000E+00
 0.5645398272418E-01 -0.2240668290843E+01  0.0000000000000E+00
 0.5680233544293E-01 -0.2167722360871E+01  0.0000000000000E+00
 0.5718575027832E-01 -0.2094848968198E+01  0.0000000000000E+00
 0.5760243498245E-01 -0.2022050891056E+01  0.0000000000000E+00
 0.5805180468526E-01 -0.1949333031483E+01  0.0000000000000E+00
 0.5853475696956E-01 -0.1876704289573E+01  0.0000000000000E+00
 0.5905490146225E-01 -0.1804181873982E+01  0.0000000000000E+00
 0.8250249481138E-01 -0.4658307671734E+01  0.0000000000000E+00
 0.8250498961757E-01 -0.4585028370504E+01  0.0000000000000E+00
 0.8250748443907E-01 -0.4511748619277E+01  0.0000000000000E+00
 0.8250997925358E-01 -0.4438469073488E+01  0.0000000000000E+00
 0.8251247406760E-01 -0.4365189542272E+01  0.0000000000000E+00
 0.8251496888255E-01 -0.4291909983520E+01  0.0000000000000E+00
 0.8251746369603E-01 -0.4218630468079E+01  0.0000000000000E+00
 0.8251995851042E-01 -0.4145350925774E+01  0.0000000000000E+00
 0.8252245332463E-01 -0.4072071388851E+01  0.0000000000000E+00
 0.8252494813856E-01 -0.3998791860019E+01  0.0000000000000E+00
 0.8252744295302E-01 -0.3925512315849E+01  0.0000000000000E+00
 0.8252993776665E-01 -0.3852232795711E+01  0.0000000000000E+00
 0.8253243258138E-01 -0.3778953243591E+01  0.0000000000000E+00
 0.8253492739814E-01 -0.3705673631687E+01  0.0000000000000E+00
 0.8253742221419E-01 -0.3632394040639E+01  0.0000000000000E+00
 0.8253991702726E-01 -0.3559114537252E+01  0.0000000000000E+00
 0.8254241186235E-01 -0.3485834386918E+01  0.0000000000000E+00
 0.8254490665576E-01 -0.3412555460983E+01  0.0000000000000E+00
 0.8254740147033E-01 -0.3339275913462E+01  0.0000000000000E+00
 0.8254989628217E-01 -0.3265996446236E+01  0.0000000000000E+00
 0.8255239109082E-01 -0.3192717072346E+01  0.0000000000000E+00
 0.8255488590074E-01 -0.3119437661478E+01  0.0000000000000E+00
 0.8255738071177E-01 -0.3046158217837E+01  0.0000000000000E+00
 0.8256132670752E-01 -0.2972878711115E+01  0.0000000000000E+00
 0.8257607083032E-01 -0.2899599434835E+01  0.0000000000000E+00
 0.8261459182386E-01 -0.2826321727487E+01  0.0000000000000E+00
 0.8268872071680E-01 -0.2753048863010E+01  0.0000000000000E+00
 0.8280716614798E-01 -0.2679786525104E+01  0.0000000000000E+00
 0.8297551359434E-01 -0.2606541857195E+01  0.0000000000000E+00
 0.8319733444172E-01 -0.2533323192736E+01  0.0000000000000E+00
 0.8347546686119E-01 -0.2460139514982E+01  0.0000000000000E+00
 0.8381312160577E-01 -0.2387001539546E+01  0.0000000000000E+00
 0.8421471563193E-01 -0.2313922854993E+01  0.0000000000000E+00
 0.8468000046694E-01 -0.2240913271390E+01  0.0000000000000E+00
 0.8520250090062E-01 -0.2167974546707E+01  0.0000000000000E+00
 0.8577759450824E-01 -0.2095108359326E+01  0.0000000000000E+00
 0.8640259291791E-01 -0.2022317487484E+01  0.0000000000000E+00
 0.8707661882451E-01 -0.1949606833219E+01  0.0000000000000E+00
 0.8780101860228E-01 -0.1876985296600E+01  0.0000000000000E+00
 0.8858120669148E-01 -0.1804470086283E+01  0.0000000000000E+00
 0.1100032730361E+00 -0.4658317758537E+01  0.0000000000000E+00
 0.1100065460654E+00 -0.4585048544088E+01  0.0000000000000E+00
 0.1100098191148E+00 -0.4511778879705E+01  0.0000000000000E+00
 0.1100130921551E+00 -0.4438509420732E+01  0.0000000000000E+00
 0.1100163651946E+00 -0.4365239976329E+01  0.0000000000000E+00
 0.1100196382354E+00 -0.4291970504395E+01  0.0000000000000E+00
 0.1100229112743E+00 -0.4218701075764E+01  0.0000000000000E+00
 0.1100261843144E+00 -0.4145431620274E+01  0.0000000000000E+00
 0.1100294573542E+00 -0.4072162170165E+01  0.0000000000000E+00
 0.1100327303937E+00 -0.3998892728146E+01  0.0000000000000E+00
 0.1100360034338E+00 -0.3925623270792E+01  0.0000000000000E+00
 0.1100392764729E+00 -0.3852353837466E+01  0.0000000000000E+00
 0.1100425495134E+00 -0.3779084372162E+01  0.0000000000000E+00
 0.1100458225566E+00 -0.3705814847083E+01  0.0000000000000E+00
 0.1100490955988E+00 -0.3632545342856E+01  0.0000000000000E+00
 0.1100523686372E+00 -0.3559275926279E+01  0.0000000000000E+00
 0.1100556417044E+00 -0.3486005862844E+01  0.0000000000000E+00
 0.1100589147169E+00 -0.3412737023638E+01  0.0000000000000E+00
 0.1100621877572E+00 -0.3339467562933E+01  0.0000000000000E+00
 0.1100654607940E+00 -0.3266198182512E+01  0.0000000000000E+00
 0.1100687338265E+00 -0.3192928895414E+01  0.0000000000000E+00
 0.1100720068607E+00 -0.3119659571342E+01  0.0000000000000E+00
 0.1100752798964E+00 -0.3046390214503E+01  0.0000000000000E+00
 0.1100804878449E+00 -0.2973120794592E+01  0.0000000000000E+00
 0.1101000932960E+00 -0.2899851605116E+01  0.0000000000000E+00
 0.1101514012411E+00 -0.2826583984554E+01  0.0000000000000E+00
 0.1102501863848E+00 -0.2753321206860E+01  0.0000000000000E+00
 0.1104080602454E+00 -0.2680068955726E+01  0.0000000000000E+00
 0.1106324701252E+00 -0.2606834374589E+01  0.0000000000000E+00
 0.1109281778722E+00 -0.2533625796887E+01  0.0000000000000E+00
 0.1112989677141E+00 -0.2460452205898E+01  0.0000000000000E+00
 0.1117491206549E+00 -0.2387324317233E+01  0.0000000000000E+00
 0.1122845259700E+00 -0.2314255719427E+01  0.0000000000000E+00
 0.1129048523623E+00 -0.2241256222584E+01  0.0000000000000E+00
 0.1136014662184E+00 -0.2168327584671E+01  0.0000000000000E+00
 0.1143682043055E+00 -0.2095471484065E+01  0.0000000000000E+00
 0.1152014821275E+00 -0.2022690699010E+01  0.0000000000000E+00
 0.1161001299444E+00 -0.1949990131541E+01  0.0000000000000E+00
 0.1170659429218E+00 -0.1877378681695E+01  0.0000000000000E+00
 0.1181061403135E+00 -0.1804873558127E+01  0.0000000000000E+00
 0.1375040057470E+00 -0.4658330726200E+01  0.0000000000000E+00
 0.1375080114857E+00 -0.4585074479388E+01  0.0000000000000E+00
 0.1375120172490E+00 -0.4511817782720E+01  0.0000000000000E+00
 0.1375160230011E+00 -0.4438561291426E+01  0.0000000000000E+00
 0.1375200287523E+00 -0.4365304814701E+01  0.0000000000000E+00
 0.1375240345051E+00 -0.4292048310448E+01  0.0000000000000E+00
 0.1375280402555E+00 -0.4218791849492E+01  0.0000000000000E+00
 0.1375320460074E+00 -0.4145535361680E+01  0.0000000000000E+00
 0.1375360517590E+00 -0.4072278879250E+01  0.0000000000000E+00
 0.1375400575101E+00 -0.3999022404907E+01  0.0000000000000E+00
 0.1375440632621E+00 -0.3925765915232E+01  0.0000000000000E+00
 0.1375480690127E+00 -0.3852509449581E+01  0.0000000000000E+00
 0.1375520747651E+00 -0.3779252951958E+01  0.0000000000000E+00
 0.1375560805208E+00 -0.3705996394570E+01  0.0000000000000E+00
 0.1375600862754E+00 -0.3632739858031E+01  0.0000000000000E+00
 0.1375640920251E+00 -0.3559483409126E+01  0.0000000000000E+00
 0.1375680978102E+00 -0.3486226313477E+01  0.0000000000000E+00
 0.1375721035284E+00 -0.3412970441841E+01  0.0000000000000E+00
 0.1375761092805E+00 -0.3339713948815E+01  0.0000000000000E+00
 0.1375801150283E+00 -0.3266457536060E+01  0.0000000000000E+00
 0.1375841207710E+00 -0.3193201216611E+01  0.0000000000000E+00
 0.1375881265157E+00 -0.3119944860195E+01  0.0000000000000E+00
 0.1375921322621E+00 -0.3046688471017E+01  0.0000000000000E+00
 0.1375985566497E+00 -0.2973432018779E+01  0.0000000000000E+00
 0.1376229779157E+00 -0.2900175796968E+01  0.0000000000000E+00
 0.1376870273001E+00 -0.2826921144049E+01  0.0000000000000E+00
 0.1378104231836E+00 -0.2753671333993E+01  0.0000000000000E+00
 0.1380076799644E+00 -0.2680432050482E+01  0.0000000000000E+00
 0.1382881067707E+00 -0.2607210436969E+01  0.0000000000000E+00
 0.1386576559123E+00 -0.2534014826870E+01  0.0000000000000E+00
 0.1391210576740E+00 -0.2460854203496E+01  0.0000000000000E+00
 0.1396836633107E+00 -0.2387739282454E+01  0.0000000000000E+00
 0.1403528344169E+00 -0.2314683652241E+01  0.0000000000000E+00
 0.1411281568713E+00 -0.2241697123004E+01  0.0000000000000E+00
 0.1419988386569E+00 -0.2168781452713E+01  0.0000000000000E+00
 0.1429571757323E+00 -0.2095938319734E+01  0.0000000000000E+00
 0.1439986874777E+00 -0.2023170502321E+01  0.0000000000000E+00
 0.1451219117177E+00 -0.1950482902508E+01  0.0000000000000E+00
 0.1463290924098E+00 -0.1877884420286E+01  0.0000000000000E+00
 0.1476292536212E+00 -0.1805392264313E+01  0.0000000000000E+00
 0.1650046811024E+00 -0.4658346573901E+01  0.0000000000000E+00
 0.1650093621951E+00 -0.4585106174756E+01  0.0000000000000E+00
 0.1650140433165E+00 -0.4511865325853E+01  0.0000000000000E+00
 0.1650187244248E+00 -0.4438624682280E+01  0.0000000000000E+00
 0.1650234055322E+00 -0.4365384053272E+01  0.0000000000000E+00
 0.1650280866413E+00 -0.4292143396742E+01  0.0000000000000E+00
 0.1650327677476E+00 -0.4218902783500E+01  0.0000000000000E+00
 0.1650374488557E+00 -0.4145662143408E+01  0.0000000000000E+00
 0.1650421299634E+00 -0.4072421508696E+01  0.0000000000000E+00
 0.1650468110706E+00 -0.3999180882070E+01  0.0000000000000E+00
 0.1650514921788E+00 -0.3925940240116E+01  0.0000000000000E+00
 0.1650561732855E+00 -0.3852699622179E+01  0.0000000000000E+00
 0.1650608543942E+00 -0.3779458972278E+01  0.0000000000000E+00
 0.1650655355067E+00 -0.3706218262625E+01  0.0000000000000E+00
 0.1650702166179E+00 -0.3632977573816E+01  0.0000000000000E+00
 0.1650748977234E+00 -0.3559736972622E+01  0.0000000000000E+00
 0.1650795788703E+00 -0.3486495724824E+01  0.0000000000000E+00
 0.1650842599390E+00 -0.3413255700775E+01  0.0000000000000E+00
 0.1650889410474E+00 -0.3340015055470E+01  0.0000000000000E+00
 0.1650936221507E+00 -0.3266774490419E+01  0.0000000000000E+00
 0.1650983032480E+00 -0.3193534018653E+01  0.0000000000000E+00
 0.1651029843477E+00 -0.3120293509928E+01  0.0000000000000E+00
 0.1651076654495E+00 -0.3047052968449E+01  0.0000000000000E+00
 0.1651152489203E+00 -0.2973812363923E+01  0.0000000000000E+00
 0.1651444286449E+00 -0.2900571989815E+01  0.0000000000000E+00
 0.1652211621105E+00 -0.2827333184571E+01  0.0000000000000E+00
 0.1653691113735E+00 -0.2754099222185E+01  0.0000000000000E+00
 0.1656056937112E+00 -0.2680875786326E+01  0.0000000000000E+00
 0.1659420800769E+00 -0.2607670020465E+01  0.0000000000000E+00
 0.1663854132426E+00 -0.2534490257994E+01  0.0000000000000E+00
 0.1669413695495E+00 -0.2461345482262E+01  0.0000000000000E+00
 0.1676163705033E+00 -0.2388246408871E+01  0.0000000000000E+00
 0.1684192500176E+00 -0.2315206626271E+01  0.0000000000000E+00
 0.1693495111465E+00 -0.2242235944667E+01  0.0000000000000E+00
 0.1703942034699E+00 -0.2169336122026E+01  0.0000000000000E+00
 0.1715440821385E+00 -0.2096508836703E+01  0.0000000000000E+00
 0.1727937704082E+00 -0.2023756866964E+01  0.0000000000000E+00
 0.1741415136690E+00 -0.1951085114842E+01  0.0000000000000E+00
 0.1755900046701E+00 -0.1878502480274E+01  0.0000000000000E+00
 0.1771500722917E+00 -0.1806026171918E+01  0.0000000000000E+00
 0.1925052882440E+00 -0.4658365300656E+01  0.0000000000000E+00
 0.1925105764769E+00 -0.4585143628228E+01  0.0000000000000E+00
 0.1925158647424E+00 -0.4511921506156E+01  0.0000000000000E+00
 0.1925211529930E+00 -0.4438699589362E+01  0.0000000000000E+00
 0.1925264412425E+00 -0.4365477687129E+01  0.0000000000000E+00
 0.1925317294941E+00 -0.4292255757381E+01  0.0000000000000E+00
 0.1925370177425E+00 -0.4219033870910E+01  0.0000000000000E+00
 0.1925423059928E+00 -0.4145811957596E+01  0.0000000000000E+00
 0.1925475942428E+00 -0.4072590049661E+01  0.0000000000000E+00
 0.1925528824922E+00 -0.3999368149810E+01  0.0000000000000E+00
 0.1925581707427E+00 -0.3926146234633E+01  0.0000000000000E+00
 0.1925634589914E+00 -0.3852924343469E+01  0.0000000000000E+00
 0.1925687472425E+00 -0.3779702420348E+01  0.0000000000000E+00
 0.1925740354978E+00 -0.3706480437491E+01  0.0000000000000E+00
 0.1925793237517E+00 -0.3633258475472E+01  0.0000000000000E+00
 0.1925846119993E+00 -0.3560036601046E+01  0.0000000000000E+00
 0.1925899002935E+00 -0.3486814080182E+01  0.0000000000000E+00
 0.1925951884994E+00 -0.3413592782753E+01  0.0000000000000E+00
 0.1926004767501E+00 -0.3340370864228E+01  0.0000000000000E+00
 0.1926057649950E+00 -0.3267149025935E+01  0.0000000000000E+00
 0.1926110532332E+00 -0.3193927280904E+01  0.0000000000000E+00
 0.1926163414741E+00 -0.3120705498923E+01  0.0000000000000E+00
 0.1926216297173E+00 -0.3047483684197E+01  0.0000000000000E+00
 0.1926303040577E+00 -0.2974261806440E+01  0.0000000000000E+00
 0.1926641740278E+00 -0.2901040159091E+01  0.0000000000000E+00
 0.1927535233632E+00 -0.2827820080573E+01  0.0000000000000E+00
 0.1929259577963E+00 -0.2754604844905E+01  0.0000000000000E+00
 0.1932017974845E+00 -0.2681400135744E+01  0.0000000000000E+00
 0.1935940752064E+00 -0.2608213096582E+01  0.0000000000000E+00
 0.1941111241963E+00 -0.2535052060780E+01  0.0000000000000E+00
 0.1947595668518E+00 -0.2461926011733E+01  0.0000000000000E+00
 0.1955468949300E+00 -0.2388845665039E+01  0.0000000000000E+00
 0.1964834146637E+00 -0.2315824609092E+01  0.0000000000000E+00
 0.1975685462823E+00 -0.2242872654162E+01  0.0000000000000E+00
 0.1987871809622E+00 -0.2169991558216E+01  0.0000000000000E+00
 0.2001285330459E+00 -0.2097182999597E+01  0.0000000000000E+00
 0.2015863296650E+00 -0.2024449756583E+01  0.0000000000000E+00
 0.2031585237745E+00 -0.1951796731204E+01  0.0000000000000E+00
 0.2048482569157E+00 -0.1879232823336E+01  0.0000000000000E+00
 0.2066681627825E+00 -0.1806775241636E+01  0.0000000000000E+00
 0.2200058153998E+00 -0.4658386905282E+01  0.0000000000000E+00
 0.2200116307875E+00 -0.4585186837434E+01  0.0000000000000E+00
 0.2200174462108E+00 -0.4511986320076E+01  0.0000000000000E+00
 0.2200232616179E+00 -0.4438786007934E+01  0.0000000000000E+00
 0.2200290770239E+00 -0.4365585710349E+01  0.0000000000000E+00
 0.2200348924320E+00 -0.4292385385258E+01  0.0000000000000E+00
 0.2200407078366E+00 -0.4219185103431E+01  0.0000000000000E+00
 0.2200465232434E+00 -0.4145984794769E+01  0.0000000000000E+00
 0.2200523386498E+00 -0.4072784491483E+01  0.0000000000000E+00
 0.2200581540556E+00 -0.3999584196280E+01  0.0000000000000E+00
 0.2200639694625E+00 -0.3926383885756E+01  0.0000000000000E+00
 0.2200697848676E+00 -0.3853183599236E+01  0.0000000000000E+00
 0.2200756002751E+00 -0.3779983280770E+01  0.0000000000000E+00
 0.2200814156875E+00 -0.3706782902585E+01  0.0000000000000E+00
 0.2200872310981E+00 -0.3633582545232E+01  0.0000000000000E+00
 0.2200930465019E+00 -0.3560382275447E+01  0.0000000000000E+00
 0.2200988619569E+00 -0.3487181359413E+01  0.0000000000000E+00
 0.2201046773148E+00 -0.3413981666454E+01  0.0000000000000E+00
 0.2201104927220E+00 -0.3340781352582E+01  0.0000000000000E+00
 0.2201163081229E+00 -0.3267581118919E+01  0.0000000000000E+00
 0.2201221235163E+00 -0.3194380978490E+01  0.0000000000000E+00
 0.2201279389127E+00 -0.3121180801122E+01  0.0000000000000E+00
 0.2201337543117E+00 -0.3047980591018E+01  0.0000000000000E+00
 0.2201434395357E+00 -0.2974780317904E+01  0.0000000000000E+00
 0.2201819197651E+00 -0.2901580275183E+01  0.0000000000000E+00
 0.2202838049834E+00 -0.2828381801256E+01  0.0000000000000E+00
 0.2204806445985E+00 -0.2755188170172E+01  0.0000000000000E+00
 0.2207956616474E+00 -0.2682005065570E+01  0.0000000000000E+00
 0.2212437507339E+00 -0.2608839630967E+01  0.0000000000000E+00
 0.2218344355546E+00 -0.2535700199692E+01  0.0000000000000E+00
 0.2225752845634E+00 -0.2462595755191E+01  0.0000000000000E+00
 0.2234748597682E+00 -0.2389537013054E+01  0.0000000000000E+00
 0.2245449397216E+00 -0.2316537561614E+01  0.0000000000000E+00
 0.2257848618277E+00 -0.2243607211216E+01  0.0000000000000E+00
 0.2271773588597E+00 -0.2170747719827E+01  0.0000000000000E+00
 0.2287101043520E+00 -0.2097960765773E+01  0.0000000000000E+00
 0.2303759293123E+00 -0.2025249127350E+01  0.0000000000000E+00
 0.2321724942604E+00 -0.1952617706584E+01  0.0000000000000E+00
 0.2341033895299E+00 -0.1880075403276E+01  0.0000000000000E+00
 0.2361830536282E+00 -0.1807639426087E+01  0.0000000000000E+00
 0.2475062513560E+00 -0.4658411386427E+01  0.0000000000000E+00
 0.2475125026990E+00 -0.4585235799674E+01  0.0000000000000E+00
 0.2475187540803E+00 -0.4512059763560E+01  0.0000000000000E+00
 0.2475250054442E+00 -0.4438883932594E+01  0.0000000000000E+00
 0.2475312568068E+00 -0.4365708116181E+01  0.0000000000000E+00
 0.2475375081717E+00 -0.4292532272270E+01  0.0000000000000E+00
 0.2475437595330E+00 -0.4219356471609E+01  0.0000000000000E+00
 0.2475500108965E+00 -0.4146180644121E+01  0.0000000000000E+00
 0.2475562622596E+00 -0.4073004822009E+01  0.0000000000000E+00
 0.2475625136220E+00 -0.3999829007976E+01  0.0000000000000E+00
 0.2475687649857E+00 -0.3926653178627E+01  0.0000000000000E+00
 0.2475750163473E+00 -0.3853477373275E+01  0.0000000000000E+00
 0.2475812677117E+00 -0.3780301535987E+01  0.0000000000000E+00
 0.2475875190812E+00 -0.3707125639000E+01  0.0000000000000E+00
 0.2475937704489E+00 -0.3633949762838E+01  0.0000000000000E+00
 0.2476000218091E+00 -0.3560773974215E+01  0.0000000000000E+00
 0.2476062732245E+00 -0.3487597539559E+01  0.0000000000000E+00
 0.2476125245354E+00 -0.3414422327569E+01  0.0000000000000E+00
 0.2476187758994E+00 -0.3341246494873E+01  0.0000000000000E+00
 0.2476250272566E+00 -0.3268070742360E+01  0.0000000000000E+00
 0.2476312786057E+00 -0.3194895083049E+01  0.0000000000000E+00
 0.2476375299581E+00 -0.3121719386813E+01  0.0000000000000E+00
 0.2476437813132E+00 -0.3048543657851E+01  0.0000000000000E+00
 0.2476543862212E+00 -0.2975367865900E+01  0.0000000000000E+00
 0.2476973855103E+00 -0.2902192304328E+01  0.0000000000000E+00
 0.2478117154120E+00 -0.2829018311508E+01  0.0000000000000E+00
 0.2480328690096E+00 -0.2755849161521E+01  0.0000000000000E+00
 0.2483869722199E+00 -0.2682690537989E+01  0.0000000000000E+00
 0.2488907814716E+00 -0.2609549584457E+01  0.0000000000000E+00
 0.2495550109240E+00 -0.2536434634215E+01  0.0000000000000E+00
 0.2503881750867E+00 -0.2463354670768E+01  0.0000000000000E+00
 0.2513999062187E+00 -0.2390320409700E+01  0.0000000000000E+00
 0.2526034551925E+00 -0.2317345439271E+01  0.0000000000000E+00
 0.2539980765867E+00 -0.2244439569913E+01  0.0000000000000E+00
 0.2555643447712E+00 -0.2171604559590E+01  0.0000000000000E+00
 0.2572883924727E+00 -0.2098842086614E+01  0.0000000000000E+00
 0.2591621545745E+00 -0.2026154929295E+01  0.0000000000000E+00
 0.2611829991614E+00 -0.1953547989660E+01  0.0000000000000E+00
 0.2633549653598E+00 -0.1881030167425E+01  0.0000000000000E+00
 0.2656942964902E+00 -0.1808618671252E+01  0.0000000000000E+00
 0.2750065850588E+00 -0.4658438742571E+01  0.0000000000000E+00
 0.2750131701039E+00 -0.4585290511904E+01  0.0000000000000E+00
 0.2750197551894E+00 -0.4512141832045E+01  0.0000000000000E+00
 0.2750263402564E+00 -0.4438993357257E+01  0.0000000000000E+00
 0.2750329253222E+00 -0.4365844897016E+01  0.0000000000000E+00
 0.2750395103904E+00 -0.4292696409288E+01  0.0000000000000E+00
 0.2750460954547E+00 -0.4219547964793E+01  0.0000000000000E+00
 0.2750526805214E+00 -0.4146399493482E+01  0.0000000000000E+00
 0.2750592655877E+00 -0.4073251027544E+01  0.0000000000000E+00
 0.2750658506532E+00 -0.4000102569683E+01  0.0000000000000E+00
 0.2750724357201E+00 -0.3926954096512E+01  0.0000000000000E+00
 0.2750790207848E+00 -0.3853805647328E+01  0.0000000000000E+00
 0.2750856058524E+00 -0.3780657166220E+01  0.0000000000000E+00
 0.2750921909254E+00 -0.3707508625436E+01  0.0000000000000E+00
 0.2750987759965E+00 -0.3634360105469E+01  0.0000000000000E+00
 0.2751053610598E+00 -0.3561211673007E+01  0.0000000000000E+00
 0.2751119461812E+00 -0.3488062594756E+01  0.0000000000000E+00
 0.2751185311925E+00 -0.3414914738712E+01  0.0000000000000E+00
 0.2751251162597E+00 -0.3341766262195E+01  0.0000000000000E+00
 0.2751317013197E+00 -0.3268617865830E+01  0.0000000000000E+00
 0.2751382863713E+00 -0.3195469562633E+01  0.0000000000000E+00
 0.2751448714262E+00 -0.3122321222524E+01  0.0000000000000E+00
 0.2751514564841E+00 -0.3049172849702E+01  0.0000000000000E+00
 0.2751628788227E+00 -0.2976024413916E+01  0.0000000000000E+00
 0.2752102949189E+00 -0.2902876208491E+01  0.0000000000000E+00
 0.2753369672533E+00 -0.2829729571771E+01  0.0000000000000E+00
 0.2755823325853E+00 -0.2756587777875E+01  0.0000000000000E+00
 0.2759754197121E+00 -0.2683456510402E+01  0.0000000000000E+00
 0.2765348468877E+00 -0.2610342912930E+01  0.0000000000000E+00
 0.2772725187343E+00 -0.2537255318706E+01  0.0000000000000E+00
 0.2781978958174E+00 -0.2464202711301E+01  0.0000000000000E+00
 0.2793216806473E+00 -0.2391195806292E+01  0.0000000000000E+00
 0.2806585964169E+00 -0.2318248191856E+01  0.0000000000000E+00
 0.2822078148791E+00 -0.2245369678523E+01  0.0000000000000E+00
 0.2839477520001E+00 -0.2172562024256E+01  0.0000000000000E+00
 0.2858629996983E+00 -0.2099826907348E+01  0.0000000000000E+00
 0.2879445967325E+00 -0.2027167106128E+01  0.0000000000000E+00
 0.2901896187525E+00 -0.1954587522619E+01  0.0000000000000E+00
 0.2926025536778E+00 -0.1882097056446E+01  0.0000000000000E+00
 0.2952014496426E+00 -0.1809712916272E+01  0.0000000000000E+00
 0.3025068043940E+00 -0.4658468971968E+01  0.0000000000000E+00
 0.3025136087739E+00 -0.4585350970636E+01  0.0000000000000E+00
 0.3025204131955E+00 -0.4512232520297E+01  0.0000000000000E+00
 0.3025272175981E+00 -0.4439114274945E+01  0.0000000000000E+00
 0.3025340219993E+00 -0.4365996044133E+01  0.0000000000000E+00
 0.3025408264030E+00 -0.4292877785846E+01  0.0000000000000E+00
 0.3025476308028E+00 -0.4219759570774E+01  0.0000000000000E+00
 0.3025544352050E+00 -0.4146641328897E+01  0.0000000000000E+00
 0.3025612396067E+00 -0.4073523092391E+01  0.0000000000000E+00
 0.3025680440077E+00 -0.4000404863958E+01  0.0000000000000E+00
 0.3025748484101E+00 -0.3927286620221E+01  0.0000000000000E+00
 0.3025816528103E+00 -0.3854168400463E+01  0.0000000000000E+00
 0.3025884572134E+00 -0.3781050148793E+01  0.0000000000000E+00
 0.3025952616221E+00 -0.3707931837471E+01  0.0000000000000E+00
 0.3026020660289E+00 -0.3634813546959E+01  0.0000000000000E+00
 0.3026088704275E+00 -0.3561695343915E+01  0.0000000000000E+00
 0.3026156748862E+00 -0.3488576495348E+01  0.0000000000000E+00
 0.3026224792312E+00 -0.3415458868484E+01  0.0000000000000E+00
 0.3026292836339E+00 -0.3342340621403E+01  0.0000000000000E+00
 0.3026360880292E+00 -0.3269222454441E+01  0.0000000000000E+00
 0.3026428924158E+00 -0.3196104380609E+01  0.0000000000000E+00
 0.3026496968058E+00 -0.3122986269880E+01  0.0000000000000E+00
 0.3026565011989E+00 -0.3049868126451E+01  0.0000000000000E+00
 0.3026686266003E+00 -0.2976749920085E+01  0.0000000000000E+00
 0.3027203451345E+00 -0.2903631944063E+01  0.0000000000000E+00
 0.3028592455296E+00 -0.2830515536692E+01  0.0000000000000E+00
 0.3031287082196E+00 -0.2757403972134E+01  0.0000000000000E+00
 0.3035606648810E+00 -0.2684302933966E+01  0.0000000000000E+00
 0.3041755955924E+00 -0.2611219565799E+01  0.0000000000000E+00
 0.3049865954384E+00 -0.2538162200834E+01  0.0000000000000E+00
 0.3060040710399E+00 -0.2465139822714E+01  0.0000000000000E+00
 0.3072397951582E+00 -0.2392163147008E+01  0.0000000000000E+00
 0.3087099633062E+00 -0.2319245761804E+01  0.0000000000000E+00
 0.3104136644108E+00 -0.2246397477737E+01  0.0000000000000E+00
 0.3123271560352E+00 -0.2173620052771E+01  0.0000000000000E+00
 0.3144334892904E+00 -0.2100915165177E+01  0.0000000000000E+00
 0.3167228068109E+00 -0.2028285593305E+01  0.0000000000000E+00
 0.3191918918116E+00 -0.1955736239175E+01  0.0000000000000E+00
 0.3218456810053E+00 -0.1883276002310E+01  0.0000000000000E+00
 0.3247040273393E+00 -0.1810922091373E+01  0.0000000000000E+00
 0.3300068990355E+00 -0.4658502072771E+01  0.0000000000000E+00
 0.3300137980567E+00 -0.4585417172174E+01  0.0000000000000E+00
 0.3300206971202E+00 -0.4512331822772E+01  0.0000000000000E+00
 0.3300275961644E+00 -0.4439246678265E+01  0.0000000000000E+00
 0.3300344952072E+00 -0.4366161548291E+01  0.0000000000000E+00
 0.3300413942526E+00 -0.4293076390855E+01  0.0000000000000E+00
 0.3300482932940E+00 -0.4219991276614E+01  0.0000000000000E+00
 0.3300551923378E+00 -0.4146906135581E+01  0.0000000000000E+00
 0.3300620913812E+00 -0.4073820999915E+01  0.0000000000000E+00
 0.3300689904238E+00 -0.4000735872320E+01  0.0000000000000E+00
 0.3300758894678E+00 -0.3927650729427E+01  0.0000000000000E+00
 0.3300827885096E+00 -0.3854565610502E+01  0.0000000000000E+00
 0.3300896875544E+00 -0.3781480459680E+01  0.0000000000000E+00
 0.3300965866048E+00 -0.3708395249233E+01  0.0000000000000E+00
 0.3301034856532E+00 -0.3635310059585E+01  0.0000000000000E+00
 0.3301103846934E+00 -0.3562224957367E+01  0.0000000000000E+00
 0.3301172837945E+00 -0.3489139209918E+01  0.0000000000000E+00
 0.3301241827804E+00 -0.3416054683619E+01  0.0000000000000E+00
 0.3301310818247E+00 -0.3342969537384E+01  0.0000000000000E+00
 0.3301379808615E+00 -0.3269884471232E+01  0.0000000000000E+00
 0.3301448798895E+00 -0.3196799498167E+01  0.0000000000000E+00
 0.3301517789210E+00 -0.3123714488221E+01  0.0000000000000E+00
 0.3301586779556E+00 -0.3050629445591E+01  0.0000000000000E+00
 0.3301713817261E+00 -0.2977544340053E+01  0.0000000000000E+00
 0.3302272780059E+00 -0.2904459464839E+01  0.0000000000000E+00
 0.3303782817725E+00 -0.2831376158220E+01  0.0000000000000E+00
 0.3306717171352E+00 -0.2758297694401E+01  0.0000000000000E+00
 0.3311424186512E+00 -0.2685229756934E+01  0.0000000000000E+00
 0.3318127282240E+00 -0.2612179489470E+01  0.0000000000000E+00
 0.3326969314014E+00 -0.2539155225155E+01  0.0000000000000E+00
 0.3338063808598E+00 -0.2466165947716E+01  0.0000000000000E+00
 0.3351539196114E+00 -0.2393222372710E+01  0.0000000000000E+00
 0.3367572154907E+00 -0.2320338088127E+01  0.0000000000000E+00
 0.3386152745975E+00 -0.2247522904721E+01  0.0000000000000E+00
 0.3407021960918E+00 -0.2174778580452E+01  0.0000000000000E+00
 0.3429994902762E+00 -0.2102106793569E+01  0.0000000000000E+00
 0.3454964036609E+00 -0.2029510322446E+01  0.0000000000000E+00
 0.3481894270257E+00 -0.1956994069100E+01  0.0000000000000E+00
 0.3510839458773E+00 -0.1884566932939E+01  0.0000000000000E+00
 0.3542016179765E+00 -0.1812246122631E+01  0.0000000000000E+00
 0.3575068569661E+00 -0.4658538042879E+01  0.0000000000000E+00
 0.3575137139178E+00 -0.4585489112314E+01  0.0000000000000E+00
 0.3575205709117E+00 -0.4512439733166E+01  0.0000000000000E+00
 0.3575274278864E+00 -0.4439390558811E+01  0.0000000000000E+00
 0.3575342848597E+00 -0.4366341398983E+01  0.0000000000000E+00
 0.3575411418356E+00 -0.4293292211706E+01  0.0000000000000E+00
 0.3575479988074E+00 -0.4220243067603E+01  0.0000000000000E+00
 0.3575548557817E+00 -0.4147193896721E+01  0.0000000000000E+00
 0.3575617127555E+00 -0.4074144731204E+01  0.0000000000000E+00
 0.3575685697286E+00 -0.4001095573752E+01  0.0000000000000E+00
 0.3575754267031E+00 -0.3928046401012E+01  0.0000000000000E+00
 0.3575822836754E+00 -0.3854997252227E+01  0.0000000000000E+00
 0.3575891406506E+00 -0.3781948071560E+01  0.0000000000000E+00
 0.3575959976315E+00 -0.3708898831298E+01  0.0000000000000E+00
 0.3576028546104E+00 -0.3635849611826E+01  0.0000000000000E+00
 0.3576097115811E+00 -0.3562800479740E+01  0.0000000000000E+00
 0.3576165686123E+00 -0.3489750702740E+01  0.0000000000000E+00
 0.3576234255290E+00 -0.3416702146290E+01  0.0000000000000E+00
 0.3576302825038E+00 -0.3343652970208E+01  0.0000000000000E+00
 0.3576371394711E+00 -0.3270603874170E+01  0.0000000000000E+00
 0.3576439964297E+00 -0.3197554871173E+01  0.0000000000000E+00
 0.3576508533917E+00 -0.3124505831314E+01  0.0000000000000E+00
 0.3576577103568E+00 -0.3051456758786E+01  0.0000000000000E+00
 0.3576708557852E+00 -0.2978407623384E+01  0.0000000000000E+00
 0.3577307930988E+00 -0.2905358718283E+01  0.0000000000000E+00
 0.3578937635234E+00 -0.2832311381714E+01  0.0000000000000E+00
 0.3582110348432E+00 -0.2759268887932E+01  0.0000000000000E+00
 0.3587203444949E+00 -0.2686236920463E+01  0.0000000000000E+00
 0.3594458962068E+00 -0.2613222622996E+01  0.0000000000000E+00
 0.3604031659898E+00 -0.2540234328623E+01  0.0000000000000E+00
 0.3616044525750E+00 -0.2467281021158E+01  0.0000000000000E+00
 0.3630636692258E+00 -0.2394373416147E+01  0.0000000000000E+00
 0.3647999560978E+00 -0.2321525101475E+01  0.0000000000000E+00
 0.3668122364638E+00 -0.2248745888021E+01  0.0000000000000E+00
 0.3690724510805E+00 -0.2176037533744E+01  0.0000000000000E+00
 0.3715605694432E+00 -0.2103401716869E+01  0.0000000000000E+00
 0.3742649419373E+00 -0.2030841215795E+01  0.0000000000000E+00
 0.3771817669077E+00 -0.1958360932534E+01  0.0000000000000E+00
 0.3803168786556E+00 -0.1885969766374E+01  0.0000000000000E+00
 0.3836937397548E+00 -0.1813684925983E+01  0.0000000000000E+00
 0.3850066672510E+00 -0.4658576880061E+01  0.0000000000000E+00
 0.3850133344881E+00 -0.4585566786598E+01  0.0000000000000E+00
 0.3850200017662E+00 -0.4512556244790E+01  0.0000000000000E+00
 0.3850266690256E+00 -0.4439545907666E+01  0.0000000000000E+00
 0.3850333362836E+00 -0.4366535585061E+01  0.0000000000000E+00
 0.3850400035442E+00 -0.4293525235022E+01  0.0000000000000E+00
 0.3850466708008E+00 -0.4220514928134E+01  0.0000000000000E+00
 0.3850533380599E+00 -0.4147504594480E+01  0.0000000000000E+00
 0.3850600053184E+00 -0.4074494266190E+01  0.0000000000000E+00
 0.3850666725763E+00 -0.4001483945960E+01  0.0000000000000E+00
 0.3850733398355E+00 -0.3928473610450E+01  0.0000000000000E+00
 0.3850800070925E+00 -0.3855463298882E+01  0.0000000000000E+00
 0.3850866743525E+00 -0.3782452955450E+01  0.0000000000000E+00
 0.3850933416179E+00 -0.3709442552454E+01  0.0000000000000E+00
 0.3851000088814E+00 -0.3636432170237E+01  0.0000000000000E+00
 0.3851066761369E+00 -0.3563421875359E+01  0.0000000000000E+00
 0.3851133434512E+00 -0.3490410935911E+01  0.0000000000000E+00
 0.3851200106542E+00 -0.3417401216363E+01  0.0000000000000E+00
 0.3851266779138E+00 -0.3344390877513E+01  0.0000000000000E+00
 0.3851333451660E+00 -0.3271380618664E+01  0.0000000000000E+00
 0.3851400124097E+00 -0.3198370452807E+01  0.0000000000000E+00
 0.3851466796568E+00 -0.3125360250108E+01  0.0000000000000E+00
 0.3851533469069E+00 -0.3052350014757E+01  0.0000000000000E+00
 0.3851667863476E+00 -0.2979339716566E+01  0.0000000000000E+00
 0.3852306170495E+00 -0.2906329648653E+01  0.0000000000000E+00
 0.3854054064870E+00 -0.2833321149205E+01  0.0000000000000E+00
 0.3857463661188E+00 -0.2760317492529E+01  0.0000000000000E+00
 0.3862941362620E+00 -0.2687324362123E+01  0.0000000000000E+00
 0.3870747824689E+00 -0.2614348901720E+01  0.0000000000000E+00
 0.3881049712139E+00 -0.2541399444351E+01  0.0000000000000E+00
 0.3893979472826E+00 -0.2468484973924E+01  0.0000000000000E+00
 0.3909686941895E+00 -0.2395616205974E+01  0.0000000000000E+00
 0.3928378244118E+00 -0.2322806728271E+01  0.0000000000000E+00
 0.3950041783950E+00 -0.2250066351831E+01  0.0000000000000E+00
 0.3974375384922E+00 -0.2177396834612E+01  0.0000000000000E+00
 0.4001163333914E+00 -0.2104799854812E+01  0.0000000000000E+00
 0.4030280173533E+00 -0.2032278190856E+01  0.0000000000000E+00
 0.4061684962881E+00 -0.1959836744754E+01  0.0000000000000E+00
 0.4095440532914E+00 -0.1887484415661E+01  0.0000000000000E+00
 0.4131799557506E+00 -0.1815238412246E+01  0.0000000000000E+00
 0.4125063190932E+00 -0.4658618581925E+01  0.0000000000000E+00
 0.4125126381733E+00 -0.4585650190237E+01  0.0000000000000E+00
 0.4125189572921E+00 -0.4512681350462E+01  0.0000000000000E+00
 0.4125252763933E+00 -0.4439712715254E+01  0.0000000000000E+00
 0.4125315954932E+00 -0.4366744094556E+01  0.0000000000000E+00
 0.4125379145954E+00 -0.4293775446440E+01  0.0000000000000E+00
 0.4125442336940E+00 -0.4220806841450E+01  0.0000000000000E+00
 0.4125505527948E+00 -0.4147838209710E+01  0.0000000000000E+00
 0.4125568718952E+00 -0.4074869583330E+01  0.0000000000000E+00
 0.4125631909949E+00 -0.4001900965006E+01  0.0000000000000E+00
 0.4125695100959E+00 -0.3928932331410E+01  0.0000000000000E+00
 0.4125758291948E+00 -0.3855963721744E+01  0.0000000000000E+00
 0.4125821482965E+00 -0.3782995080231E+01  0.0000000000000E+00
 0.4125884674034E+00 -0.3710026379188E+01  0.0000000000000E+00
 0.4125947865084E+00 -0.3637057698912E+01  0.0000000000000E+00
 0.4126011056059E+00 -0.3564089105926E+01  0.0000000000000E+00
 0.4126074247592E+00 -0.3491119868737E+01  0.0000000000000E+00
 0.4126137438069E+00 -0.3418151850752E+01  0.0000000000000E+00
 0.4126200629082E+00 -0.3345183213819E+01  0.0000000000000E+00
 0.4126263820025E+00 -0.3272214656840E+01  0.0000000000000E+00
 0.4126327010889E+00 -0.3199246192801E+01  0.0000000000000E+00
 0.4126390201784E+00 -0.3126277691941E+01  0.0000000000000E+00
 0.4126453392707E+00 -0.3053309158447E+01  0.0000000000000E+00
 0.4126589142810E+00 -0.2980340562151E+01  0.0000000000000E+00
 0.4127264799297E+00 -0.2907372196107E+01  0.0000000000000E+00
 0.4129129299416E+00 -0.2834405398456E+01  0.0000000000000E+00
 0.4132774194510E+00 -0.2761443443563E+01  0.0000000000000E+00
 0.4138634916560E+00 -0.2688492014891E+01  0.0000000000000E+00
 0.4146990739339E+00 -0.2615558256224E+01  0.0000000000000E+00
 0.4158020232230E+00 -0.2542650500527E+01  0.0000000000000E+00
 0.4171865303632E+00 -0.2469777731808E+01  0.0000000000000E+00
 0.4188686491207E+00 -0.2396950665591E+01  0.0000000000000E+00
 0.4208704642954E+00 -0.2324182889523E+01  0.0000000000000E+00
 0.4231907335043E+00 -0.2251484214766E+01  0.0000000000000E+00
 0.4257970806970E+00 -0.2178856399276E+01  0.0000000000000E+00
 0.4286663937532E+00 -0.2106301121224E+01  0.0000000000000E+00
 0.4317852308089E+00 -0.2033821159063E+01  0.0000000000000E+00
 0.4351492053391E+00 -0.1961421414798E+01  0.0000000000000E+00
 0.4387650492349E+00 -0.1889110787444E+01  0.0000000000000E+00
 0.4426598346975E+00 -0.1816906485672E+01  0.0000000000000E+00
 0.4400058000888E+00 -0.4658663145799E+01  0.0000000000000E+00
 0.4400116001655E+00 -0.4585739317892E+01  0.0000000000000E+00
 0.4400174002778E+00 -0.4512815042172E+01  0.0000000000000E+00
 0.4400232003739E+00 -0.4439890970894E+01  0.0000000000000E+00
 0.4400290004688E+00 -0.4366966914117E+01  0.0000000000000E+00
 0.4400348005658E+00 -0.4294042829939E+01  0.0000000000000E+00
 0.4400406006595E+00 -0.4221118788861E+01  0.0000000000000E+00
 0.4400464007553E+00 -0.4148194721049E+01  0.0000000000000E+00
 0.4400522008506E+00 -0.4075270658593E+01  0.0000000000000E+00
 0.4400580009453E+00 -0.4002346604189E+01  0.0000000000000E+00
 0.4400638010413E+00 -0.3929422534522E+01  0.0000000000000E+00
 0.4400696011353E+00 -0.3856498488770E+01  0.0000000000000E+00
 0.4400754012318E+00 -0.3783574411191E+01  0.0000000000000E+00
 0.4400812013331E+00 -0.3710650274118E+01  0.0000000000000E+00
 0.4400870014328E+00 -0.3637726157800E+01  0.0000000000000E+00
 0.4400928015255E+00 -0.3564802128718E+01  0.0000000000000E+00
 0.4400986016694E+00 -0.3491877455827E+01  0.0000000000000E+00
 0.4401044017164E+00 -0.3418954001394E+01  0.0000000000000E+00
 0.4401102018126E+00 -0.3346029928392E+01  0.0000000000000E+00
 0.4401160019024E+00 -0.3273105935296E+01  0.0000000000000E+00
 0.4401218019848E+00 -0.3200182035083E+01  0.0000000000000E+00
 0.4401276020702E+00 -0.3127258098070E+01  0.0000000000000E+00
 0.4401334021582E+00 -0.3054334128444E+01  0.0000000000000E+00
 0.4401469418909E+00 -0.2981410096056E+01  0.0000000000000E+00
 0.4402180716374E+00 -0.2908486293893E+01  0.0000000000000E+00
 0.4404160113703E+00 -0.2835564060045E+01  0.0000000000000E+00
 0.4408038598970E+00 -0.2762646668939E+01  0.0000000000000E+00
 0.4414280632953E+00 -0.2689739804005E+01  0.0000000000000E+00
 0.4423184107658E+00 -0.2616850609075E+01  0.0000000000000E+00
 0.4434939497105E+00 -0.2543987417048E+01  0.0000000000000E+00
 0.4449698170227E+00 -0.2471159212037E+01  0.0000000000000E+00
 0.4467631367197E+00 -0.2398376709555E+01  0.0000000000000E+00
 0.4488974659235E+00 -0.2325653497116E+01  0.0000000000000E+00
 0.4513714794224E+00 -0.2252999386040E+01  0.0000000000000E+00
 0.4541506427632E+00 -0.2180416134282E+01  0.0000000000000E+00
 0.4572103030192E+00 -0.2107905419981E+01  0.0000000000000E+00
 0.4605361222013E+00 -0.2035470021620E+01  0.0000000000000E+00
 0.4641234213498E+00 -0.1963114841203E+01  0.0000000000000E+00
 0.4679793811517E+00 -0.1890848777590E+01  0.0000000000000E+00
 0.4721328786209E+00 -0.1818689039456E+01  0.0000000000000E+00
 0.4675051005201E+00 -0.4658710569005E+01  0.0000000000000E+00
 0.4675102010296E+00 -0.4585834164207E+01  0.0000000000000E+00
 0.4675153015704E+00 -0.4512957311885E+01  0.0000000000000E+00
 0.4675204020969E+00 -0.4440080663873E+01  0.0000000000000E+00
 0.4675255026224E+00 -0.4367204030353E+01  0.0000000000000E+00
 0.4675306031498E+00 -0.4294327369449E+01  0.0000000000000E+00
 0.4675357036742E+00 -0.4221450751617E+01  0.0000000000000E+00
 0.4675408042005E+00 -0.4148574107069E+01  0.0000000000000E+00
 0.4675459047264E+00 -0.4075697467873E+01  0.0000000000000E+00
 0.4675510052517E+00 -0.4002820836724E+01  0.0000000000000E+00
 0.4675561057781E+00 -0.3929944190322E+01  0.0000000000000E+00
 0.4675612063029E+00 -0.3857067567819E+01  0.0000000000000E+00
 0.4675663068298E+00 -0.3784190913510E+01  0.0000000000000E+00
 0.4675714073609E+00 -0.3711314199746E+01  0.0000000000000E+00
 0.4675765078906E+00 -0.3638437506723E+01  0.0000000000000E+00
 0.4675816084142E+00 -0.3565560900880E+01  0.0000000000000E+00
 0.4675867089827E+00 -0.3492683651646E+01  0.0000000000000E+00
 0.4675918094661E+00 -0.3419807620078E+01  0.0000000000000E+00
 0.4675969099927E+00 -0.3346930970343E+01  0.0000000000000E+00
 0.4676020105138E+00 -0.3274054400462E+01  0.0000000000000E+00
 0.4676071110283E+00 -0.3201177923403E+01  0.0000000000000E+00
 0.4676122115455E+00 -0.3128301409569E+01  0.0000000000000E+00
 0.4676173120649E+00 -0.3055424863144E+01  0.0000000000000E+00
 0.4676306359560E+00 -0.2982548253998E+01  0.0000000000000E+00
 0.4677051492379E+00 -0.2909671875048E+01  0.0000000000000E+00
 0.4679143981338E+00 -0.2836797064332E+01  0.0000000000000E+00
 0.4683254251255E+00 -0.2763927096339E+01  0.0000000000000E+00
 0.4689875791721E+00 -0.2691067654466E+01  0.0000000000000E+00
 0.4699325112982E+00 -0.2618225882598E+01  0.0000000000000E+00
 0.4711804593705E+00 -0.2545410113560E+01  0.0000000000000E+00
 0.4727475063358E+00 -0.2472629331579E+01  0.0000000000000E+00
 0.4746518464626E+00 -0.2399894252155E+01  0.0000000000000E+00
 0.4769185091967E+00 -0.2327218462663E+01  0.0000000000000E+00
 0.4795460864969E+00 -0.2254611774588E+01  0.0000000000000E+00
 0.4824978855064E+00 -0.2182075945884E+01  0.0000000000000E+00
 0.4857477124908E+00 -0.2109612654658E+01  0.0000000000000E+00
 0.4892803333359E+00 -0.2037224679426E+01  0.0000000000000E+00
 0.4930907766471E+00 -0.1964916922187E+01  0.0000000000000E+00
 0.4971866719080E+00 -0.1892698281639E+01  0.0000000000000E+00
 0.5015987009462E+00 -0.1820585966460E+01  0.0000000000000E+00
 0.4950042083210E+00 -0.4658760848539E+01  0.0000000000000E+00
 0.4950084166332E+00 -0.4585934723169E+01  0.0000000000000E+00
 0.4950126249712E+00 -0.4513108150585E+01  0.0000000000000E+00
 0.4950168332975E+00 -0.4440281782170E+01  0.0000000000000E+00
 0.4950210416229E+00 -0.4367455428237E+01  0.0000000000000E+00
 0.4950252499499E+00 -0.4294629046938E+01  0.0000000000000E+00
 0.4950294582744E+00 -0.4221802708682E+01  0.0000000000000E+00
 0.4950336666004E+00 -0.4148976343728E+01  0.0000000000000E+00
 0.4950378749262E+00 -0.4076149984123E+01  0.0000000000000E+00
 0.4950420832514E+00 -0.4003323632559E+01  0.0000000000000E+00
 0.4950462915776E+00 -0.3930497265753E+01  0.0000000000000E+00
 0.4950504999024E+00 -0.3857670922829E+01  0.0000000000000E+00
 0.4950547082290E+00 -0.3784844548121E+01  0.0000000000000E+00
 0.4950589165590E+00 -0.3712018113999E+01  0.0000000000000E+00
 0.4950631248879E+00 -0.3639191700604E+01  0.0000000000000E+00
 0.4950673332117E+00 -0.3566365374328E+01  0.0000000000000E+00
 0.4950715415726E+00 -0.3493538405106E+01  0.0000000000000E+00
 0.4950757498633E+00 -0.3420712652710E+01  0.0000000000000E+00
 0.4950799581896E+00 -0.3347886282572E+01  0.0000000000000E+00
 0.4950841665114E+00 -0.3275059992234E+01  0.0000000000000E+00
 0.4950883748277E+00 -0.3202233794654E+01  0.0000000000000E+00
 0.4950925831462E+00 -0.3129407560324E+01  0.0000000000000E+00
 0.4950967914666E+00 -0.3056581293425E+01  0.0000000000000E+00
 0.4951097068853E+00 -0.2983754963851E+01  0.0000000000000E+00
 0.4951874110714E+00 -0.2910928864443E+01  0.0000000000000E+00
 0.4954077764972E+00 -0.2838104333180E+01  0.0000000000000E+00
 0.4958417893184E+00 -0.2765284644623E+01  0.0000000000000E+00
 0.4965417013745E+00 -0.2692475482128E+01  0.0000000000000E+00
 0.4975410255139E+00 -0.2619683989641E+01  0.0000000000000E+00
 0.4988611900675E+00 -0.2546918499905E+01  0.0000000000000E+00
 0.5005192240350E+00 -0.2474187997271E+01  0.0000000000000E+00
 0.5025343919363E+00 -0.2401503197224E+01  0.0000000000000E+00
 0.5049331955409E+00 -0.2328877686990E+01  0.0000000000000E+00
 0.5077141439775E+00 -0.2256321278231E+01  0.0000000000000E+00
 0.5108383859861E+00 -0.2183835728900E+01  0.0000000000000E+00
 0.5142781870254E+00 -0.2111422717068E+01  0.0000000000000E+00
 0.5180174168560E+00 -0.2039085021287E+01  0.0000000000000E+00
 0.5220508116484E+00 -0.1966827543550E+01  0.0000000000000E+00
 0.5263864496834E+00 -0.1894659182387E+01  0.0000000000000E+00
 0.5310568176018E+00 -0.1822597146475E+01  0.0000000000000E+00
 0.5225031126404E+00 -0.4658813981299E+01  0.0000000000000E+00
 0.5225062252743E+00 -0.4586040988578E+01  0.0000000000000E+00
 0.5225093379273E+00 -0.4513267548970E+01  0.0000000000000E+00
 0.5225124505716E+00 -0.4440494313380E+01  0.0000000000000E+00
 0.5225155632152E+00 -0.4367721092263E+01  0.0000000000000E+00
 0.5225186758601E+00 -0.4294947843801E+01  0.0000000000000E+00
 0.5225217885031E+00 -0.4222174638349E+01  0.0000000000000E+00
 0.5225249011472E+00 -0.4149401406219E+01  0.0000000000000E+00
 0.5225280137911E+00 -0.4076628179434E+01  0.0000000000000E+00
 0.5225311264347E+00 -0.4003854960684E+01  0.0000000000000E+00
 0.5225342390789E+00 -0.3931081726703E+01  0.0000000000000E+00
 0.5225373517221E+00 -0.3858308516587E+01  0.0000000000000E+00
 0.5225404643666E+00 -0.3785535274710E+01  0.0000000000000E+00
 0.5225435770137E+00 -0.3712761973463E+01  0.0000000000000E+00
 0.5225466896599E+00 -0.3639988692926E+01  0.0000000000000E+00
 0.5225498023024E+00 -0.3567215499446E+01  0.0000000000000E+00
 0.5225529149724E+00 -0.3494441663489E+01  0.0000000000000E+00
 0.5225560275903E+00 -0.3421669043470E+01  0.0000000000000E+00
 0.5225591402347E+00 -0.3348895806160E+01  0.0000000000000E+00
 0.5225622528757E+00 -0.3276122648591E+01  0.0000000000000E+00
 0.5225653655126E+00 -0.3203349583713E+01  0.0000000000000E+00
 0.5225684781512E+00 -0.3130576482112E+01  0.0000000000000E+00
 0.5225715907911E+00 -0.3057803347965E+01  0.0000000000000E+00
 0.5225838942559E+00 -0.2985030151191E+01  0.0000000000000E+00
 0.5226645858642E+00 -0.2912257184550E+01  0.0000000000000E+00
 0.5228958643382E+00 -0.2839485785963E+01  0.0000000000000E+00
 0.5233526595062E+00 -0.2766719230062E+01  0.0000000000000E+00
 0.5240901260887E+00 -0.2693963200164E+01  0.0000000000000E+00
 0.5251436387569E+00 -0.2621224840274E+01  0.0000000000000E+00
 0.5265358163068E+00 -0.2548512483054E+01  0.0000000000000E+00
 0.5282846337900E+00 -0.2475835112982E+01  0.0000000000000E+00
 0.5304104259779E+00 -0.2403203445529E+01  0.0000000000000E+00
 0.5329411669643E+00 -0.2330631067763E+01  0.0000000000000E+00
 0.5358752830470E+00 -0.2258127791534E+01  0.0000000000000E+00
 0.5391717645631E+00 -0.2185695374792E+01  0.0000000000000E+00
 0.5428013361643E+00 -0.2113335495573E+01  0.0000000000000E+00
 0.5467469714862E+00 -0.2041050932465E+01  0.0000000000000E+00
 0.5510031142644E+00 -0.1968846587455E+01  0.0000000000000E+00
 0.5555782915776E+00 -0.1896731358894E+01  0.0000000000000E+00
 0.5605067948795E+00 -0.1824722455461E+01  0.0000000000000E+00
 0.5500018033136E+00 -0.4658869964069E+01  0.0000000000000E+00
 0.5500036066233E+00 -0.4586152954003E+01  0.0000000000000E+00
 0.5500054099442E+00 -0.4513435497392E+01  0.0000000000000E+00
 0.5500072132600E+00 -0.4440718244644E+01  0.0000000000000E+00
 0.5500090165755E+00 -0.4368001006356E+01  0.0000000000000E+00
 0.5500108198916E+00 -0.4295283740744E+01  0.0000000000000E+00
 0.5500126232067E+00 -0.4222566518110E+01  0.0000000000000E+00
 0.5500144265224E+00 -0.4149849268818E+01  0.0000000000000E+00
 0.5500162298380E+00 -0.4077132024867E+01  0.0000000000000E+00
 0.5500180331534E+00 -0.4004414788945E+01  0.0000000000000E+00
 0.5500198364692E+00 -0.3931697537804E+01  0.0000000000000E+00
 0.5500216397843E+00 -0.3858980310509E+01  0.0000000000000E+00
 0.5500234431003E+00 -0.3786263051477E+01  0.0000000000000E+00
 0.5500252464177E+00 -0.3713545733121E+01  0.0000000000000E+00
 0.5500270497347E+00 -0.3640828435461E+01  0.0000000000000E+00
 0.5500288530494E+00 -0.3568111224789E+01  0.0000000000000E+00
 0.5500306563801E+00 -0.3495393372134E+01  0.0000000000000E+00
 0.5500324596807E+00 -0.3422676734482E+01  0.0000000000000E+00
 0.5500342629965E+00 -0.3349959480015E+01  0.0000000000000E+00
 0.5500360663104E+00 -0.3277242305227E+01  0.0000000000000E+00
 0.5500378696220E+00 -0.3204525223058E+01  0.0000000000000E+00
 0.5500396729345E+00 -0.3131808104194E+01  0.0000000000000E+00
 0.5500414762478E+00 -0.3059090952810E+01  0.0000000000000E+00
 0.5500529541124E+00 -0.2986373738849E+01  0.0000000000000E+00
 0.5501364194992E+00 -0.2913656754987E+01  0.0000000000000E+00
 0.5503783973824E+00 -0.2840941339082E+01  0.0000000000000E+00
 0.5508577612655E+00 -0.2768230765842E+01  0.0000000000000E+00
 0.5516325687513E+00 -0.2695530718543E+01  0.0000000000000E+00
 0.5527400563351E+00 -0.2622848341252E+01  0.0000000000000E+00
 0.5542040332787E+00 -0.2550191966546E+01  0.0000000000000E+00
 0.5560434206860E+00 -0.2477570579036E+01  0.0000000000000E+00
 0.5582796235804E+00 -0.2404994894179E+01  0.0000000000000E+00
 0.5609420883813E+00 -0.2332478498877E+01  0.0000000000000E+00
 0.5640291585551E+00 -0.2260031205176E+01  0.0000000000000E+00
 0.5674976660344E+00 -0.2187654771025E+01  0.0000000000000E+00
 0.5713167946636E+00 -0.2115350874421E+01  0.0000000000000E+00
 0.5754686219523E+00 -0.2043122293992E+01  0.0000000000000E+00
 0.5799472992011E+00 -0.1970973931719E+01  0.0000000000000E+00
 0.5847618022875E+00 -0.1898914685761E+01  0.0000000000000E+00
 0.5899482274796E+00 -0.1826961764802E+01  0.0000000000000E+00
 0.5775046063623E+00 -0.4658929169039E+01  0.0000000000000E+00
 0.5775092127151E+00 -0.4586271363819E+01  0.0000000000000E+00
 0.5775138190961E+00 -0.4513613112418E+01  0.0000000000000E+00
 0.5775184254642E+00 -0.4440955064714E+01  0.0000000000000E+00
 0.5775230318314E+00 -0.4368297031459E+01  0.0000000000000E+00
 0.5775276382004E+00 -0.4295638970901E+01  0.0000000000000E+00
 0.5775322445666E+00 -0.4222980953286E+01  0.0000000000000E+00
 0.5775368509345E+00 -0.4150322909036E+01  0.0000000000000E+00
 0.5775414573020E+00 -0.4077664870122E+01  0.0000000000000E+00
 0.5775460636691E+00 -0.4005006839230E+01  0.0000000000000E+00
 0.5775506700371E+00 -0.3932348793131E+01  0.0000000000000E+00
 0.5775552764036E+00 -0.3859690770860E+01  0.0000000000000E+00
 0.5775598827721E+00 -0.3787032716878E+01  0.0000000000000E+00
 0.5775644891444E+00 -0.3714374603619E+01  0.0000000000000E+00
 0.5775690955153E+00 -0.3641716511039E+01  0.0000000000000E+00
 0.5775737018808E+00 -0.3569058505377E+01  0.0000000000000E+00
 0.5775783082869E+00 -0.3496399858254E+01  0.0000000000000E+00
 0.5775829146160E+00 -0.3423742425146E+01  0.0000000000000E+00
 0.5775875209843E+00 -0.3351084375724E+01  0.0000000000000E+00
 0.5775921273474E+00 -0.3278426405916E+01  0.0000000000000E+00
 0.5775967337047E+00 -0.3205768528653E+01  0.0000000000000E+00
 0.5776013400644E+00 -0.3133110614724E+01  0.0000000000000E+00
 0.5776059464261E+00 -0.3060452668301E+01  0.0000000000000E+00
 0.5776207126381E+00 -0.2987794659355E+01  0.0000000000000E+00
 0.5777110774219E+00 -0.2915136880472E+01  0.0000000000000E+00
 0.5779679060300E+00 -0.2842480669443E+01  0.0000000000000E+00
 0.5784740284367E+00 -0.2769829301057E+01  0.0000000000000E+00
 0.5792904145389E+00 -0.2697188458545E+01  0.0000000000000E+00
 0.5804561686988E+00 -0.2624565286044E+01  0.0000000000000E+00
 0.5819962944983E+00 -0.2551968116035E+01  0.0000000000000E+00
 0.5839306621719E+00 -0.2479405933275E+01  0.0000000000000E+00
 0.5862817504648E+00 -0.2406889453203E+01  0.0000000000000E+00
 0.5890804828851E+00 -0.2334432262545E+01  0.0000000000000E+00
 0.5923251198134E+00 -0.2262044173559E+01  0.0000000000000E+00
 0.5959703277778E+00 -0.2189726944188E+01  0.0000000000000E+00
 0.5999837448152E+00 -0.2117482252390E+01  0.0000000000000E+00
 0.6043465494057E+00 -0.2045312876833E+01  0.0000000000000E+00
 0.6090525994664E+00 -0.1973223719494E+01  0.0000000000000E+00
 0.6141113211150E+00 -0.1901223678329E+01  0.0000000000000E+00
 0.6195606212872E+00 -0.1829329962027E+01  0.0000000000000E+00
 0.6050071700463E+00 -0.4658991252418E+01  0.0000000000000E+00
 0.6050143400778E+00 -0.4586395530448E+01  0.0000000000000E+00
 0.6050215101532E+00 -0.4513799362679E+01  0.0000000000000E+00
 0.6050286802085E+00 -0.4441203398432E+01  0.0000000000000E+00
 0.6050358502624E+00 -0.4368607448621E+01  0.0000000000000E+00
 0.6050430203191E+00 -0.4296011471532E+01  0.0000000000000E+00
 0.6050501903714E+00 -0.4223415537349E+01  0.0000000000000E+00
 0.6050573604264E+00 -0.4150819576553E+01  0.0000000000000E+00
 0.6050645304809E+00 -0.4078223621089E+01  0.0000000000000E+00
 0.6050717005346E+00 -0.4005627673640E+01  0.0000000000000E+00
 0.6050788705898E+00 -0.3933031710997E+01  0.0000000000000E+00
 0.6050860406426E+00 -0.3860435772161E+01  0.0000000000000E+00
 0.6050932106985E+00 -0.3787839801641E+01  0.0000000000000E+00
 0.6051003807603E+00 -0.3715243771896E+01  0.0000000000000E+00
 0.6051075508201E+00 -0.3642647762811E+01  0.0000000000000E+00
 0.6051147208713E+00 -0.3570051840571E+01  0.0000000000000E+00
 0.6051218909858E+00 -0.3497455277418E+01  0.0000000000000E+00
 0.6051290609805E+00 -0.3424859927241E+01  0.0000000000000E+00
 0.6051362310360E+00 -0.3352263961278E+01  0.0000000000000E+00
 0.6051434010836E+00 -0.3279668074861E+01  0.0000000000000E+00
 0.6051505711222E+00 -0.3207072280909E+01  0.0000000000000E+00
 0.6051577411643E+00 -0.3134476450324E+01  0.0000000000000E+00
 0.6051649112096E+00 -0.3061880587272E+01  0.0000000000000E+00
 0.6051827264041E+00 -0.2989284661751E+01  0.0000000000000E+00
 0.6052797512201E+00 -0.2916688966257E+01  0.0000000000000E+00
 0.6055511911890E+00 -0.2844094838509E+01  0.0000000000000E+00
 0.6060838327555E+00 -0.2771505553381E+01  0.0000000000000E+00
 0.6069415581107E+00 -0.2698926794058E+01  0.0000000000000E+00
 0.6081653394835E+00 -0.2626365704746E+01  0.0000000000000E+00
 0.6097813747766E+00 -0.2553830617832E+01  0.0000000000000E+00
 0.6118104833542E+00 -0.2481330518221E+01  0.0000000000000E+00
 0.6142762176836E+00 -0.2408876121334E+01  0.0000000000000E+00
 0.6172109783622E+00 -0.2336481013715E+01  0.0000000000000E+00
 0.6206129426840E+00 -0.2264155007840E+01  0.0000000000000E+00
 0.6244346117725E+00 -0.2191899861649E+01  0.0000000000000E+00
 0.6286420778573E+00 -0.2119717253058E+01  0.0000000000000E+00
 0.6332156203890E+00 -0.2047609960779E+01  0.0000000000000E+00
 0.6381488039008E+00 -0.1975582886781E+01  0.0000000000000E+00
 0.6434515047517E+00 -0.1903644928812E+01  0.0000000000000E+00
 0.6491634405451E+00 -0.1831813295560E+01  0.0000000000000E+00
 0.6325094832707E+00 -0.4659056210343E+01  0.0000000000000E+00
 0.6325189665217E+00 -0.4586525446162E+01  0.0000000000000E+00
 0.6325284498309E+00 -0.4513994236580E+01  0.0000000000000E+00
 0.6325379331135E+00 -0.4441463230339E+01  0.0000000000000E+00
 0.6325474163943E+00 -0.4368932238522E+01  0.0000000000000E+00
 0.6325568996786E+00 -0.4296401219450E+01  0.0000000000000E+00
 0.6325663829573E+00 -0.4223870243246E+01  0.0000000000000E+00
 0.6325758662394E+00 -0.4151339240452E+01  0.0000000000000E+00
 0.6325853495209E+00 -0.4078808242986E+01  0.0000000000000E+00
 0.6325948328014E+00 -0.4006277253528E+01  0.0000000000000E+00
 0.6326043160838E+00 -0.3933746248890E+01  0.0000000000000E+00
 0.6326137993631E+00 -0.3861215268037E+01  0.0000000000000E+00
 0.6326232826465E+00 -0.3788684255529E+01  0.0000000000000E+00
 0.6326327659377E+00 -0.3716153183848E+01  0.0000000000000E+00
 0.6326422492262E+00 -0.3643622132809E+01  0.0000000000000E+00
 0.6326517325033E+00 -0.3571091168537E+01  0.0000000000000E+00
 0.6326612158642E+00 -0.3498559563925E+01  0.0000000000000E+00
 0.6326706990666E+00 -0.3426029171205E+01  0.0000000000000E+00
 0.6326801823494E+00 -0.3353498163249E+01  0.0000000000000E+00
 0.6326896656219E+00 -0.3280967234769E+01  0.0000000000000E+00
 0.6326991488823E+00 -0.3208436398670E+01  0.0000000000000E+00
 0.6327086321474E+00 -0.3135905525971E+01  0.0000000000000E+00
 0.6327181154168E+00 -0.3063374620834E+01  0.0000000000000E+00
 0.6327387291340E+00 -0.2990843653288E+01  0.0000000000000E+00
 0.6328421635227E+00 -0.2918312915727E+01  0.0000000000000E+00
 0.6331279643934E+00 -0.2845783745801E+01  0.0000000000000E+00
 0.6336868746610E+00 -0.2773259418471E+01  0.0000000000000E+00
 0.6345856888113E+00 -0.2700745616872E+01  0.0000000000000E+00
 0.6358672469395E+00 -0.2628249485287E+01  0.0000000000000E+00
 0.6375589412693E+00 -0.2555779355998E+01  0.0000000000000E+00
 0.6396825402943E+00 -0.2483344214070E+01  0.0000000000000E+00
 0.6422626702039E+00 -0.2410954774905E+01  0.0000000000000E+00
 0.6453332086857E+00 -0.2338624624854E+01  0.0000000000000E+00
 0.6488922499460E+00 -0.2266363576622E+01  0.0000000000000E+00
 0.6528901297038E+00 -0.2194173388147E+01  0.0000000000000E+00
 0.6572913943814E+00 -0.2122055737301E+01  0.0000000000000E+00
 0.6620754243999E+00 -0.2050013402840E+01  0.0000000000000E+00
 0.6672354909085E+00 -0.1978051286727E+01  0.0000000000000E+00
 0.6727819205084E+00 -0.1906178286488E+01  0.0000000000000E+00
 0.6787562414707E+00 -0.1834411610816E+01  0.0000000000000E+00
 0.6600115349916E+00 -0.4659124038777E+01  0.0000000000000E+00
 0.6600230699592E+00 -0.4586661102889E+01  0.0000000000000E+00
 0.6600346049976E+00 -0.4514197722017E+01  0.0000000000000E+00
 0.6600461400037E+00 -0.4441734544296E+01  0.0000000000000E+00
 0.6600576750075E+00 -0.4369271380984E+01  0.0000000000000E+00
 0.6600692100156E+00 -0.4296808190443E+01  0.0000000000000E+00
 0.6600807450169E+00 -0.4224345042731E+01  0.0000000000000E+00
 0.6600922800224E+00 -0.4151881868453E+01  0.0000000000000E+00
 0.6601038150271E+00 -0.4079418699498E+01  0.0000000000000E+00
 0.6601153500305E+00 -0.4006955538544E+01  0.0000000000000E+00
 0.6601268850364E+00 -0.3934492362423E+01  0.0000000000000E+00
 0.6601384200384E+00 -0.3862029210066E+01  0.0000000000000E+00
 0.6601499550455E+00 -0.3789566026083E+01  0.0000000000000E+00
 0.6601614900620E+00 -0.3717102782983E+01  0.0000000000000E+00
 0.6601730250752E+00 -0.3644639560506E+01  0.0000000000000E+00
 0.6601845600746E+00 -0.3572176424713E+01  0.0000000000000E+00
 0.6601960951758E+00 -0.3499712649181E+01  0.0000000000000E+00
 0.6602076300843E+00 -0.3427250084407E+01  0.0000000000000E+00
 0.6602191650907E+00 -0.3354786904972E+01  0.0000000000000E+00
 0.6602307000844E+00 -0.3282323804938E+01  0.0000000000000E+00
 0.6602422350634E+00 -0.3209860797199E+01  0.0000000000000E+00
 0.6602537700482E+00 -0.3137397752895E+01  0.0000000000000E+00
 0.6602653050382E+00 -0.3064934676183E+01  0.0000000000000E+00
 0.6602884557744E+00 -0.2992471537122E+01  0.0000000000000E+00
 0.6603980382323E+00 -0.2920008628006E+01  0.0000000000000E+00
 0.6606979385021E+00 -0.2847547286406E+01  0.0000000000000E+00
 0.6612828559686E+00 -0.2775090787378E+01  0.0000000000000E+00
 0.6622224974123E+00 -0.2702644814005E+01  0.0000000000000E+00
 0.6635615707948E+00 -0.2630216510647E+01  0.0000000000000E+00
 0.6653286626613E+00 -0.2557814209481E+01  0.0000000000000E+00
 0.6675464906339E+00 -0.2485446895735E+01  0.0000000000000E+00
 0.6702407546242E+00 -0.2413125284793E+01  0.0000000000000E+00
 0.6734468094109E+00 -0.2340862962804E+01  0.0000000000000E+00
 0.6771626661118E+00 -0.2268669742713E+01  0.0000000000000E+00
 0.6813364950413E+00 -0.2196547382455E+01  0.0000000000000E+00
 0.6859312968146E+00 -0.2124497559855E+01  0.0000000000000E+00
 0.6909255528227E+00 -0.2052523053717E+01  0.0000000000000E+00
 0.6963122408314E+00 -0.1980628765997E+01  0.0000000000000E+00
 0.7021021376845E+00 -0.1908823593990E+01  0.0000000000000E+00
 0.7083385823212E+00 -0.1837124746394E+01  0.0000000000000E+00
 0.6875133142182E+00 -0.4659194733517E+01  0.0000000000000E+00
 0.6875266284087E+00 -0.4586802492222E+01  0.0000000000000E+00
 0.6875399426809E+00 -0.4514409806377E+01  0.0000000000000E+00
 0.6875532569158E+00 -0.4442017323484E+01  0.0000000000000E+00
 0.6875665711481E+00 -0.4369624854987E+01  0.0000000000000E+00
 0.6875798853854E+00 -0.4297232359288E+01  0.0000000000000E+00
 0.6875931996148E+00 -0.4224839906374E+01  0.0000000000000E+00
 0.6876065138490E+00 -0.4152447426922E+01  0.0000000000000E+00
 0.6876198280823E+00 -0.4080054952788E+01  0.0000000000000E+00
 0.6876331423142E+00 -0.4007662486646E+01  0.0000000000000E+00
 0.6876464565488E+00 -0.3935270005352E+01  0.0000000000000E+00
 0.6876597707790E+00 -0.3862877547799E+01  0.0000000000000E+00
 0.6876730850151E+00 -0.3790485058651E+01  0.0000000000000E+00
 0.6876863992620E+00 -0.3718092510443E+01  0.0000000000000E+00
 0.6876997135052E+00 -0.3645699982838E+01  0.0000000000000E+00
 0.6877130277324E+00 -0.3573307541834E+01  0.0000000000000E+00
 0.6877263420771E+00 -0.3500914461714E+01  0.0000000000000E+00
 0.6877396561994E+00 -0.3428522591170E+01  0.0000000000000E+00
 0.6877529704346E+00 -0.3356130106565E+01  0.0000000000000E+00
 0.6877662846553E+00 -0.3283737701285E+01  0.0000000000000E+00
 0.6877795988589E+00 -0.3211345388209E+01  0.0000000000000E+00
 0.6877929130693E+00 -0.3138953038603E+01  0.0000000000000E+00
 0.6878062272857E+00 -0.3066560656621E+01  0.0000000000000E+00
 0.6878316425464E+00 -0.2994168212354E+01  0.0000000000000E+00
 0.6879471005793E+00 -0.2921775997988E+01  0.0000000000000E+00
 0.6882608277547E+00 -0.2849385351017E+01  0.0000000000000E+00
 0.6888714799273E+00 -0.2776999546590E+01  0.0000000000000E+00
 0.6898516761724E+00 -0.2704624267741E+01  0.0000000000000E+00
 0.6912479923176E+00 -0.2632266658906E+01  0.0000000000000E+00
 0.6930902092303E+00 -0.2559935052156E+01  0.0000000000000E+00
 0.6954019936605E+00 -0.2487638432887E+01  0.0000000000000E+00
 0.6982101192422E+00 -0.2415387516464E+01  0.0000000000000E+00
 0.7015514178457E+00 -0.2343195888828E+01  0.0000000000000E+00
 0.7054238174997E+00 -0.2271073363171E+01  0.0000000000000E+00
 0.7097733231136E+00 -0.2199021697426E+01  0.0000000000000E+00
 0.7145613894959E+00 -0.2127042569371E+01  0.0000000000000E+00
 0.7197655990073E+00 -0.2055138757856E+01  0.0000000000000E+00
 0.7253786360298E+00 -0.1983315164833E+01  0.0000000000000E+00
 0.7314117276514E+00 -0.1911580687357E+01  0.0000000000000E+00
 0.7379100234788E+00 -0.1839952534126E+01  0.0000000000000E+00
 0.7150148100149E+00 -0.4659268290191E+01  0.0000000000000E+00
 0.7150296199990E+00 -0.4586949605417E+01  0.0000000000000E+00
 0.7150444300741E+00 -0.4514630476544E+01  0.0000000000000E+00
 0.7150592401076E+00 -0.4442311550418E+01  0.0000000000000E+00
 0.7150740501382E+00 -0.4369992638672E+01  0.0000000000000E+00
 0.7150888601743E+00 -0.4297673699752E+01  0.0000000000000E+00
 0.7151036702017E+00 -0.4225354803575E+01  0.0000000000000E+00
 0.7151184802345E+00 -0.4153035880886E+01  0.0000000000000E+00
 0.7151332902662E+00 -0.4080716963508E+01  0.0000000000000E+00
 0.7151481002963E+00 -0.4008398054116E+01  0.0000000000000E+00
 0.7151629103295E+00 -0.3936079129587E+01  0.0000000000000E+00
 0.7151777203579E+00 -0.3863760228774E+01  0.0000000000000E+00
 0.7151925303927E+00 -0.3791441296399E+01  0.0000000000000E+00
 0.7152073404395E+00 -0.3719122305024E+01  0.0000000000000E+00
 0.7152221504822E+00 -0.3646803334230E+01  0.0000000000000E+00
 0.7152369605072E+00 -0.3574484449950E+01  0.0000000000000E+00
 0.7152517706629E+00 -0.3502164927202E+01  0.0000000000000E+00
 0.7152665805711E+00 -0.3429846612803E+01  0.0000000000000E+00
 0.7152813906050E+00 -0.3357527684966E+01  0.0000000000000E+00
 0.7152962006226E+00 -0.3285208836373E+01  0.0000000000000E+00
 0.7153110106214E+00 -0.3212890079891E+01  0.0000000000000E+00
 0.7153258206276E+00 -0.3140571286916E+01  0.0000000000000E+00
 0.7153406306405E+00 -0.3068252461598E+01  0.0000000000000E+00
 0.7153680269957E+00 -0.2995933574060E+01  0.0000000000000E+00
 0.7154890771739E+00 -0.2923614916380E+01  0.0000000000000E+00
 0.7158163478261E+00 -0.2851297825966E+01  0.0000000000000E+00
 0.7164524512764E+00 -0.2778985578070E+01  0.0000000000000E+00
 0.7174729188955E+00 -0.2706683855668E+01  0.0000000000000E+00
 0.7189261943769E+00 -0.2634399803283E+01  0.0000000000000E+00
 0.7208432529104E+00 -0.2562141752869E+01  0.0000000000000E+00
 0.7232487103733E+00 -0.2489918690001E+01  0.0000000000000E+00
 0.7261704141222E+00 -0.2417741330022E+01  0.0000000000000E+00
 0.7296466731201E+00 -0.2345623258656E+01  0.0000000000000E+00
 0.7336753323051E+00 -0.2273574289355E+01  0.0000000000000E+00
 0.7382002311820E+00 -0.2201596180048E+01  0.0000000000000E+00
 0.7431812787523E+00 -0.2129690608463E+01  0.0000000000000E+00
 0.7485951583465E+00 -0.2057860353502E+01  0.0000000000000E+00
 0.7544342609629E+00 -0.1986110317108E+01  0.0000000000000E+00
 0.7607102639342E+00 -0.1914449396087E+01  0.0000000000000E+00
 0.7674701275352E+00 -0.1842894799141E+01  0.0000000000000E+00
 0.7425160112565E+00 -0.4659344704234E+01  0.0000000000000E+00
 0.7425320224796E+00 -0.4587102433343E+01  0.0000000000000E+00
 0.7425480338010E+00 -0.4514859718823E+01  0.0000000000000E+00
 0.7425640450775E+00 -0.4442617206834E+01  0.0000000000000E+00
 0.7425800563509E+00 -0.4370374709212E+01  0.0000000000000E+00
 0.7425960676302E+00 -0.4298132184444E+01  0.0000000000000E+00
 0.7426120789002E+00 -0.4225889702373E+01  0.0000000000000E+00
 0.7426280901759E+00 -0.4153647193819E+01  0.0000000000000E+00
 0.7426441014505E+00 -0.4081404690570E+01  0.0000000000000E+00
 0.7426601127234E+00 -0.4009162195299E+01  0.0000000000000E+00
 0.7426761239995E+00 -0.3936919684906E+01  0.0000000000000E+00
 0.7426921352705E+00 -0.3864677198205E+01  0.0000000000000E+00
 0.7427081465484E+00 -0.3792434679975E+01  0.0000000000000E+00
 0.7427241578394E+00 -0.3720192102807E+01  0.0000000000000E+00
 0.7427401691258E+00 -0.3647949546199E+01  0.0000000000000E+00
 0.7427561803931E+00 -0.3575707076013E+01  0.0000000000000E+00
 0.7427721918017E+00 -0.3503463968034E+01  0.0000000000000E+00
 0.7427882029428E+00 -0.3431222067126E+01  0.0000000000000E+00
 0.7428042142197E+00 -0.3358979553430E+01  0.0000000000000E+00
 0.7428202254791E+00 -0.3286737118893E+01  0.0000000000000E+00
 0.7428362367181E+00 -0.3214494776370E+01  0.0000000000000E+00
 0.7428522479651E+00 -0.3142252397393E+01  0.0000000000000E+00
 0.7428682592193E+00 -0.3070009986107E+01  0.0000000000000E+00
 0.7428973421134E+00 -0.2997767512669E+01  0.0000000000000E+00
 0.7430236898812E+00 -0.2925525269043E+01  0.0000000000000E+00
 0.7433642094537E+00 -0.2853284592550E+01  0.0000000000000E+00
 0.7440254696239E+00 -0.2781048758547E+01  0.0000000000000E+00
 0.7450859140576E+00 -0.2708823449953E+01  0.0000000000000E+00
 0.7465958543135E+00 -0.2636615811377E+01  0.0000000000000E+00
 0.7485874599040E+00 -0.2564434174655E+01  0.0000000000000E+00
 0.7510862958333E+00 -0.2492287525545E+01  0.0000000000000E+00
 0.7541212831801E+00 -0.2420186579370E+01  0.0000000000000E+00
 0.7577322080008E+00 -0.2348144921627E+01  0.0000000000000E+00
 0.7619168321423E+00 -0.2276172366038E+01  0.0000000000000E+00
 0.7666168297047E+00 -0.2204270670529E+01  0.0000000000000E+00
 0.7717905638831E+00 -0.2132441512775E+01  0.0000000000000E+00
 0.7774138189777E+00 -0.2060687671731E+01  0.0000000000000E+00
 0.7834786926029E+00 -0.1989014049333E+01  0.0000000000000E+00
 0.7899973123374E+00 -0.1917429542126E+01  0.0000000000000E+00
 0.7970184491235E+00 -0.1845951358818E+01  0.0000000000000E+00
 0.7700169072712E+00 -0.4659423970956E+01  0.0000000000000E+00
 0.7700338145071E+00 -0.4587260966622E+01  0.0000000000000E+00
 0.7700507218469E+00 -0.4515097519146E+01  0.0000000000000E+00
 0.7700676291392E+00 -0.4442934273980E+01  0.0000000000000E+00
 0.7700845364282E+00 -0.4370771043164E+01  0.0000000000000E+00
 0.7701014437236E+00 -0.4298607785231E+01  0.0000000000000E+00
 0.7701183510089E+00 -0.4226444569949E+01  0.0000000000000E+00
 0.7701352583005E+00 -0.4154281328213E+01  0.0000000000000E+00
 0.7701521655908E+00 -0.4082118091776E+01  0.0000000000000E+00
 0.7701690728792E+00 -0.4009954863308E+01  0.0000000000000E+00
 0.7701859801712E+00 -0.3937791619736E+01  0.0000000000000E+00
 0.7702028874577E+00 -0.3865628399829E+01  0.0000000000000E+00
 0.7702197947515E+00 -0.3793465148427E+01  0.0000000000000E+00
 0.7702367020591E+00 -0.3721301838152E+01  0.0000000000000E+00
 0.7702536093619E+00 -0.3649138548415E+01  0.0000000000000E+00
 0.7702705166445E+00 -0.3576975345005E+01  0.0000000000000E+00
 0.7702874240763E+00 -0.3504811504502E+01  0.0000000000000E+00
 0.7703043312257E+00 -0.3432648869745E+01  0.0000000000000E+00
 0.7703212385184E+00 -0.3360485622873E+01  0.0000000000000E+00
 0.7703381457926E+00 -0.3288322455072E+01  0.0000000000000E+00
 0.7703550530453E+00 -0.3216159379186E+01  0.0000000000000E+00
 0.7703719603066E+00 -0.3143996266884E+01  0.0000000000000E+00
 0.7703888675754E+00 -0.3071833122309E+01  0.0000000000000E+00
 0.7704193317813E+00 -0.2999669915654E+01  0.0000000000000E+00
 0.7705506719117E+00 -0.2927506938761E+01  0.0000000000000E+00
 0.7709041351781E+00 -0.2855345528865E+01  0.0000000000000E+00
 0.7715902468416E+00 -0.2783188961430E+01  0.0000000000000E+00
 0.7726903628635E+00 -0.2711042919314E+01  0.0000000000000E+00
 0.7742566626671E+00 -0.2638914547219E+01  0.0000000000000E+00
 0.7763225100882E+00 -0.2566812176855E+01  0.0000000000000E+00
 0.7789144192568E+00 -0.2494744794173E+01  0.0000000000000E+00
 0.7820623849740E+00 -0.2422723114472E+01  0.0000000000000E+00
 0.7858076703905E+00 -0.2350760723017E+01  0.0000000000000E+00
 0.7901479542606E+00 -0.2278867433808E+01  0.0000000000000E+00
 0.7950227452801E+00 -0.2207045004767E+01  0.0000000000000E+00
 0.8003888608380E+00 -0.2135295113515E+01  0.0000000000000E+00
 0.8062211862034E+00 -0.2063620539063E+01  0.0000000000000E+00
 0.8125115256075E+00 -0.1992026183340E+01  0.0000000000000E+00
 0.8192724568757E+00 -0.1920520942619E+01  0.0000000000000E+00
 0.8265545616180E+00 -0.1849122025614E+01  0.0000000000000E+00
 0.7975174873666E+00 -0.4659506085499E+01  0.0000000000000E+00
 0.7975349746967E+00 -0.4587425195538E+01  0.0000000000000E+00
 0.7975524621343E+00 -0.4515343862938E+01  0.0000000000000E+00
 0.7975699495228E+00 -0.4443262732417E+01  0.0000000000000E+00
 0.7975874369078E+00 -0.4371181616231E+01  0.0000000000000E+00
 0.7976049242994E+00 -0.4299100472959E+01  0.0000000000000E+00
 0.7976224116807E+00 -0.4227019372289E+01  0.0000000000000E+00
 0.7976398990684E+00 -0.4154938245195E+01  0.0000000000000E+00
 0.7976573864548E+00 -0.4082857123395E+01  0.0000000000000E+00
 0.7976748738393E+00 -0.4010776009554E+01  0.0000000000000E+00
 0.7976923612274E+00 -0.3938694880626E+01  0.0000000000000E+00
 0.7977098486098E+00 -0.3866613775336E+01  0.0000000000000E+00
 0.7977273359998E+00 -0.3794532638587E+01  0.0000000000000E+00
 0.7977448234041E+00 -0.3722451443033E+01  0.0000000000000E+00
 0.7977623108034E+00 -0.3650370267993E+01  0.0000000000000E+00
 0.7977797981818E+00 -0.3578289179181E+01  0.0000000000000E+00
 0.7977972857146E+00 -0.3506207454001E+01  0.0000000000000E+00
 0.7978147729552E+00 -0.3434126933196E+01  0.0000000000000E+00
 0.7978322603441E+00 -0.3362045800972E+01  0.0000000000000E+00
 0.7978497477139E+00 -0.3289964747730E+01  0.0000000000000E+00
 0.7978672350614E+00 -0.3217883786296E+01  0.0000000000000E+00
 0.7978847224177E+00 -0.3145802788489E+01  0.0000000000000E+00
 0.7979022097818E+00 -0.3073721758446E+01  0.0000000000000E+00
 0.7979337393802E+00 -0.3001640666396E+01  0.0000000000000E+00
 0.7980697559540E+00 -0.2929559804059E+01  0.0000000000000E+00
 0.7984358469961E+00 -0.2857480508576E+01  0.0000000000000E+00
 0.7991464942352E+00 -0.2785406055523E+01  0.0000000000000E+00
 0.8002859659286E+00 -0.2713342127699E+01  0.0000000000000E+00
 0.8019083093641E+00 -0.2641295869896E+01  0.0000000000000E+00
 0.8040480827013E+00 -0.2569275613697E+01  0.0000000000000E+00
 0.8067327491951E+00 -0.2497290345253E+01  0.0000000000000E+00
 0.8099933773693E+00 -0.2425350779840E+01  0.0000000000000E+00
 0.8138727074699E+00 -0.2353470502477E+01  0.0000000000000E+00
 0.8183683351576E+00 -0.2281659327455E+01  0.0000000000000E+00
 0.8234176037235E+00 -0.2209919012694E+01  0.0000000000000E+00
 0.8289757847507E+00 -0.2138251235758E+01  0.0000000000000E+00
 0.8350168644774E+00 -0.2066658775715E+01  0.0000000000000E+00
 0.8415323537512E+00 -0.1995146534484E+01  0.0000000000000E+00
 0.8485352806454E+00 -0.1923723408063E+01  0.0000000000000E+00
 0.8560780374376E+00 -0.1852406605166E+01  0.0000000000000E+00
 0.8250177408470E+00 -0.4659591042836E+01  0.0000000000000E+00
 0.8250354816571E+00 -0.4587595110033E+01  0.0000000000000E+00
 0.8250532225761E+00 -0.4515598735114E+01  0.0000000000000E+00
 0.8250709634454E+00 -0.4443602562037E+01  0.0000000000000E+00
 0.8250887043112E+00 -0.4371606403276E+01  0.0000000000000E+00
 0.8251064451836E+00 -0.4299610217462E+01  0.0000000000000E+00
 0.8251241860456E+00 -0.4227614074200E+01  0.0000000000000E+00
 0.8251419269140E+00 -0.4155617904545E+01  0.0000000000000E+00
 0.8251596677812E+00 -0.4083621740177E+01  0.0000000000000E+00
 0.8251774086463E+00 -0.4011625583759E+01  0.0000000000000E+00
 0.8251951495152E+00 -0.3939629412272E+01  0.0000000000000E+00
 0.8252128903783E+00 -0.3867633264395E+01  0.0000000000000E+00
 0.8252306312491E+00 -0.3795637085097E+01  0.0000000000000E+00
 0.8252483721344E+00 -0.3723640847062E+01  0.0000000000000E+00
 0.8252661130147E+00 -0.3651644629517E+01  0.0000000000000E+00
 0.8252838538737E+00 -0.3579648498099E+01  0.0000000000000E+00
 0.8253015948893E+00 -0.3507651731063E+01  0.0000000000000E+00
 0.8253193356086E+00 -0.3435656166982E+01  0.0000000000000E+00
 0.8253370764783E+00 -0.3363659992202E+01  0.0000000000000E+00
 0.8253548173285E+00 -0.3291663896312E+01  0.0000000000000E+00
 0.8253725581562E+00 -0.3219667892122E+01  0.0000000000000E+00
 0.8253902989928E+00 -0.3147671851602E+01  0.0000000000000E+00
 0.8254080398374E+00 -0.3075675778883E+01  0.0000000000000E+00
 0.8254403082130E+00 -0.3003679644234E+01  0.0000000000000E+00
 0.8255806746155E+00 -0.2931683739246E+01  0.0000000000000E+00
 0.8259590668194E+00 -0.2859689400964E+01  0.0000000000000E+00
 0.8266939230211E+00 -0.2787699905082E+01  0.0000000000000E+00
 0.8278724237742E+00 -0.2715720934332E+01  0.0000000000000E+00
 0.8295504842306E+00 -0.2643759633606E+01  0.0000000000000E+00
 0.8317638568742E+00 -0.2571824334354E+01  0.0000000000000E+00
 0.8345409540844E+00 -0.2499924022930E+01  0.0000000000000E+00
 0.8379139181077E+00 -0.2428069414587E+01  0.0000000000000E+00
 0.8419269662863E+00 -0.2356274094095E+01  0.0000000000000E+00
 0.8465776111862E+00 -0.2284547876042E+01  0.0000000000000E+00
 0.8518010306940E+00 -0.2212892518345E+01  0.0000000000000E+00
 0.8575509505866E+00 -0.2141309698510E+01  0.0000000000000E+00
 0.8638004580713E+00 -0.2069802195663E+01  0.0000000000000E+00
 0.8705407706120E+00 -0.1998374911717E+01  0.0000000000000E+00
 0.8777853665310E+00 -0.1927036742379E+01  0.0000000000000E+00
 0.8855884487738E+00 -0.1855804896368E+01  0.0000000000000E+00
 0.8525176570821E+00 -0.4659678837778E+01  0.0000000000000E+00
 0.8525353141273E+00 -0.4587770699734E+01  0.0000000000000E+00
 0.8525529712811E+00 -0.4515862120114E+01  0.0000000000000E+00
 0.8525706283853E+00 -0.4443953742088E+01  0.0000000000000E+00
 0.8525882854860E+00 -0.4372045378363E+01  0.0000000000000E+00
 0.8526059425933E+00 -0.4300136987617E+01  0.0000000000000E+00
 0.8526235996902E+00 -0.4228228639370E+01  0.0000000000000E+00
 0.8526412567936E+00 -0.4156320264763E+01  0.0000000000000E+00
 0.8526589138956E+00 -0.4084411895437E+01  0.0000000000000E+00
 0.8526765709957E+00 -0.4012503534050E+01  0.0000000000000E+00
 0.8526942280996E+00 -0.3940595157614E+01  0.0000000000000E+00
 0.8527118851976E+00 -0.3868686804758E+01  0.0000000000000E+00
 0.8527295423033E+00 -0.3796778420520E+01  0.0000000000000E+00
 0.8527471994235E+00 -0.3724869977616E+01  0.0000000000000E+00
 0.8527648565386E+00 -0.3652961555178E+01  0.0000000000000E+00
 0.8527825136326E+00 -0.3581053218760E+01  0.0000000000000E+00
 0.8528001708824E+00 -0.3509144247501E+01  0.0000000000000E+00
 0.8528178278373E+00 -0.3437236477730E+01  0.0000000000000E+00
 0.8528354849419E+00 -0.3365328098005E+01  0.0000000000000E+00
 0.8528531420272E+00 -0.3293419797072E+01  0.0000000000000E+00
 0.8528707990900E+00 -0.3221511587729E+01  0.0000000000000E+00
 0.8528884561617E+00 -0.3149603342098E+01  0.0000000000000E+00
 0.8529061132413E+00 -0.3077695064310E+01  0.0000000000000E+00
 0.8529387831484E+00 -0.3005786724669E+01  0.0000000000000E+00
 0.8530831621344E+00 -0.2933878614636E+01  0.0000000000000E+00
 0.8534735182559E+00 -0.2861972071157E+01  0.0000000000000E+00
 0.8542322461771E+00 -0.2790070370046E+01  0.0000000000000E+00
 0.8554494387479E+00 -0.2718179193968E+01  0.0000000000000E+00
 0.8571828789842E+00 -0.2646305687916E+01  0.0000000000000E+00
 0.8594695136951E+00 -0.2574458183202E+01  0.0000000000000E+00
 0.8623387043834E+00 -0.2502645666394E+01  0.0000000000000E+00
 0.8658236670186E+00 -0.2430878852720E+01  0.0000000000000E+00
 0.8699700960402E+00 -0.2359171326688E+01  0.0000000000000E+00
 0.8747754209183E+00 -0.2287532903197E+01  0.0000000000000E+00
 0.8801726541347E+00 -0.2215965340160E+01  0.0000000000000E+00
 0.8861139756606E+00 -0.2144470315024E+01  0.0000000000000E+00
 0.8925715736717E+00 -0.2073050606976E+01  0.0000000000000E+00
 0.8995363722484E+00 -0.2001711117918E+01  0.0000000000000E+00
 0.9070222999633E+00 -0.1930460743261E+01  0.0000000000000E+00
 0.9150853704297E+00 -0.1859316691727E+01  0.0000000000000E+00
 0.8800172252787E+00 -0.4659769464950E+01  0.0000000000000E+00
 0.8800344505215E+00 -0.4587951953890E+01  0.0000000000000E+00
 0.8800516758700E+00 -0.4516134001809E+01  0.0000000000000E+00
 0.8800689011703E+00 -0.4444316251069E+01  0.0000000000000E+00
 0.8800861264672E+00 -0.4372498514612E+01  0.0000000000000E+00
 0.8801033517705E+00 -0.4300680751167E+01  0.0000000000000E+00
 0.8801205770637E+00 -0.4228863030169E+01  0.0000000000000E+00
 0.8801378023631E+00 -0.4157045282843E+01  0.0000000000000E+00
 0.8801550276613E+00 -0.4085227540792E+01  0.0000000000000E+00
 0.8801722529576E+00 -0.4013409806670E+01  0.0000000000000E+00
 0.8801894782575E+00 -0.3941592057517E+01  0.0000000000000E+00
 0.8802067035518E+00 -0.3869774331916E+01  0.0000000000000E+00
 0.8802239288535E+00 -0.3797956574971E+01  0.0000000000000E+00
 0.8802411541693E+00 -0.3726138759435E+01  0.0000000000000E+00
 0.8802583794803E+00 -0.3654320964338E+01  0.0000000000000E+00
 0.8802756047706E+00 -0.3582503255154E+01  0.0000000000000E+00
 0.8802928302130E+00 -0.3510684911929E+01  0.0000000000000E+00
 0.8803100553675E+00 -0.3438867768677E+01  0.0000000000000E+00
 0.8803272806682E+00 -0.3367050016239E+01  0.0000000000000E+00
 0.8803445059500E+00 -0.3295232342495E+01  0.0000000000000E+00
 0.8803617312099E+00 -0.3223414760225E+01  0.0000000000000E+00
 0.8803789564785E+00 -0.3151597141714E+01  0.0000000000000E+00
 0.8803961817547E+00 -0.3079779491084E+01  0.0000000000000E+00
 0.8804289051548E+00 -0.3007961778684E+01  0.0000000000000E+00
 0.8805769486853E+00 -0.2936144295837E+01  0.0000000000000E+00
 0.8809789206855E+00 -0.2864328379386E+01  0.0000000000000E+00
 0.8817611722860E+00 -0.2792517305270E+01  0.0000000000000E+00
 0.8830167086335E+00 -0.2720716756086E+01  0.0000000000000E+00
 0.8848051806072E+00 -0.2648933876929E+01  0.0000000000000E+00
 0.8871647293415E+00 -0.2577176998972E+01  0.0000000000000E+00
 0.8901256654619E+00 -0.2505455108999E+01  0.0000000000000E+00
 0.8937222786608E+00 -0.2433778922213E+01  0.0000000000000E+00
 0.8980017404761E+00 -0.2362162022856E+01  0.0000000000000E+00
 0.9029613972806E+00 -0.2290614226146E+01  0.0000000000000E+00
 0.9085320961515E+00 -0.2219137289990E+01  0.0000000000000E+00
 0.9146644712548E+00 -0.2147732891775E+01  0.0000000000000E+00
 0.9213298117345E+00 -0.2076403810750E+01  0.0000000000000E+00
 0.9285187482873E+00 -0.2005154948809E+01  0.0000000000000E+00
 0.9362456597375E+00 -0.1933995201054E+01  0.0000000000000E+00
 0.9445683703660E+00 -0.1862941776213E+01  0.0000000000000E+00
 0.9075164349346E+00 -0.4659862918846E+01  0.0000000000000E+00
 0.9075328698350E+00 -0.4588138861488E+01  0.0000000000000E+00
 0.9075493048363E+00 -0.4516414363684E+01  0.0000000000000E+00
 0.9075657397915E+00 -0.4444690066958E+01  0.0000000000000E+00
 0.9075821747434E+00 -0.4372965784495E+01  0.0000000000000E+00
 0.9075986097015E+00 -0.4301241475081E+01  0.0000000000000E+00
 0.9076150446499E+00 -0.4229517208058E+01  0.0000000000000E+00
 0.9076314796044E+00 -0.4157792914741E+01  0.0000000000000E+00
 0.9076479145576E+00 -0.4086068626692E+01  0.0000000000000E+00
 0.9076643495090E+00 -0.4014344346563E+01  0.0000000000000E+00
 0.9076807844639E+00 -0.3942620051422E+01  0.0000000000000E+00
 0.9076972194133E+00 -0.3870895779802E+01  0.0000000000000E+00
 0.9077136543699E+00 -0.3799171476878E+01  0.0000000000000E+00
 0.9077300893400E+00 -0.3727447115440E+01  0.0000000000000E+00
 0.9077465243053E+00 -0.3655722774415E+01  0.0000000000000E+00
 0.9077629592511E+00 -0.3583998519191E+01  0.0000000000000E+00
 0.9077793943419E+00 -0.3512273630750E+01  0.0000000000000E+00
 0.9077958291580E+00 -0.3440549940721E+01  0.0000000000000E+00
 0.9078122641136E+00 -0.3368825642300E+01  0.0000000000000E+00
 0.9078286990512E+00 -0.3297101422470E+01  0.0000000000000E+00
 0.9078451339679E+00 -0.3225377293994E+01  0.0000000000000E+00
 0.9078615688929E+00 -0.3153653129324E+01  0.0000000000000E+00
 0.9078780038252E+00 -0.3081928932578E+01  0.0000000000000E+00
 0.9079104221770E+00 -0.3010204674146E+01  0.0000000000000E+00
 0.9080617717110E+00 -0.2938480645209E+01  0.0000000000000E+00
 0.9084750010487E+00 -0.2866758182507E+01  0.0000000000000E+00
 0.9092804177864E+00 -0.2795040562104E+01  0.0000000000000E+00
 0.9105739393675E+00 -0.2723333466530E+01  0.0000000000000E+00
 0.9124170845339E+00 -0.2651644040984E+01  0.0000000000000E+00
 0.9148491887460E+00 -0.2579980616494E+01  0.0000000000000E+00
 0.9179015117509E+00 -0.2508352180070E+01  0.0000000000000E+00
 0.9216094169639E+00 -0.2436769446890E+01  0.0000000000000E+00
 0.9260215530222E+00 -0.2365246000917E+01  0.0000000000000E+00
 0.9311351832001E+00 -0.2293791657698E+01  0.0000000000000E+00
 0.9368789891704E+00 -0.2222408175140E+01  0.0000000000000E+00
 0.9432020592942E+00 -0.2151097230562E+01  0.0000000000000E+00
 0.9500747836836E+00 -0.2079861603281E+01  0.0000000000000E+00
 0.9574874996521E+00 -0.2008706195179E+01  0.0000000000000E+00
 0.9654550362763E+00 -0.1937639901043E+01  0.0000000000000E+00
 0.9740370285046E+00 -0.1866679929603E+01  0.0000000000000E+00
 0.9350152758224E+00 -0.4659959193836E+01  0.0000000000000E+00
 0.9350305516130E+00 -0.4588331411267E+01  0.0000000000000E+00
 0.9350458274974E+00 -0.4516703188842E+01  0.0000000000000E+00
 0.9350611033390E+00 -0.4445075167227E+01  0.0000000000000E+00
 0.9350763791775E+00 -0.4373447159855E+01  0.0000000000000E+00
 0.9350916550218E+00 -0.4301819125568E+01  0.0000000000000E+00
 0.9351069308570E+00 -0.4230191133616E+01  0.0000000000000E+00
 0.9351222066979E+00 -0.4158563115405E+01  0.0000000000000E+00
 0.9351374825376E+00 -0.4086935102455E+01  0.0000000000000E+00
 0.9351527583756E+00 -0.4015307097413E+01  0.0000000000000E+00
 0.9351680342168E+00 -0.3943679077380E+01  0.0000000000000E+00
 0.9351833100531E+00 -0.3872051080837E+01  0.0000000000000E+00
 0.9351985858960E+00 -0.3800423053032E+01  0.0000000000000E+00
 0.9352138617513E+00 -0.3728794966791E+01  0.0000000000000E+00
 0.9352291376023E+00 -0.3657166900936E+01  0.0000000000000E+00
 0.9352444134350E+00 -0.3585538920767E+01  0.0000000000000E+00
 0.9352596894026E+00 -0.3513910308230E+01  0.0000000000000E+00
 0.9352749651150E+00 -0.3442282892497E+01  0.0000000000000E+00
 0.9352902409569E+00 -0.3370654869188E+01  0.0000000000000E+00
 0.9353055167821E+00 -0.3299026924365E+01  0.0000000000000E+00
 0.9353207925879E+00 -0.3227399070774E+01  0.0000000000000E+00
 0.9353360684013E+00 -0.3155771181037E+01  0.0000000000000E+00
 0.9353513442216E+00 -0.3084143259268E+01  0.0000000000000E+00
 0.9353830887569E+00 -0.3012515275898E+01  0.0000000000000E+00
 0.9355373755264E+00 -0.2940887521964E+01  0.0000000000000E+00
 0.9359614934350E+00 -0.2869261334099E+01  0.0000000000000E+00
 0.9367897065442E+00 -0.2797639988499E+01  0.0000000000000E+00
 0.9381208445946E+00 -0.2726029167618E+01  0.0000000000000E+00
 0.9400182941908E+00 -0.2654436016767E+01  0.0000000000000E+00
 0.9425225851194E+00 -0.2582868866825E+01  0.0000000000000E+00
 0.9456659262486E+00 -0.2511336705033E+01  0.0000000000000E+00
 0.9494847547168E+00 -0.2439850246541E+01  0.0000000000000E+00
 0.9540291962613E+00 -0.2368423075029E+01  0.0000000000000E+00
 0.9592964310570E+00 -0.2297065006384E+01  0.0000000000000E+00
 0.9652129753722E+00 -0.2225777798506E+01  0.0000000000000E+00
 0.9717263717630E+00 -0.2154563128652E+01  0.0000000000000E+00
 0.9788061113094E+00 -0.2083423776202E+01  0.0000000000000E+00
 0.9864422379415E+00 -0.2012364643031E+01  0.0000000000000E+00
 0.9946500309898E+00 -0.1941394623598E+01  0.0000000000000E+00
 0.1003490936070E+01 -0.1870530926638E+01  0.0000000000000E+00
 0.9625137375899E+00 -0.4660058284109E+01  0.0000000000000E+00
 0.9625274751513E+00 -0.4588529591607E+01  0.0000000000000E+00
 0.9625412127970E+00 -0.4517000459858E+01  0.0000000000000E+00
 0.9625549504041E+00 -0.4445471528639E+01  0.0000000000000E+00
 0.9625686880086E+00 -0.4373942611646E+01  0.0000000000000E+00
 0.9625824256182E+00 -0.4302413667774E+01  0.0000000000000E+00
 0.9625961632197E+00 -0.4230884766178E+01  0.0000000000000E+00
 0.9626099008262E+00 -0.4159355838359E+01  0.0000000000000E+00
 0.9626236384317E+00 -0.4087826915795E+01  0.0000000000000E+00
 0.9626373760357E+00 -0.4016298001128E+01  0.0000000000000E+00
 0.9626511136426E+00 -0.3944769071490E+01  0.0000000000000E+00
 0.9626648512449E+00 -0.3873240165310E+01  0.0000000000000E+00
 0.9626785888533E+00 -0.3801711227911E+01  0.0000000000000E+00
 0.9626923264728E+00 -0.3730182232157E+01  0.0000000000000E+00
 0.9627060640885E+00 -0.3658653256760E+01  0.0000000000000E+00
 0.9627198016877E+00 -0.3587124366931E+01  0.0000000000000E+00
 0.9627335394082E+00 -0.3515594845610E+01  0.0000000000000E+00
 0.9627472768992E+00 -0.3444066519436E+01  0.0000000000000E+00
 0.9627610145067E+00 -0.3372537586527E+01  0.0000000000000E+00
 0.9627747520991E+00 -0.3301008731995E+01  0.0000000000000E+00
 0.9627884896741E+00 -0.3229479968569E+01  0.0000000000000E+00
 0.9628022272560E+00 -0.3157951169047E+01  0.0000000000000E+00
 0.9628159648440E+00 -0.3086422337537E+01  0.0000000000000E+00
 0.9628466564423E+00 -0.3014893444515E+01  0.0000000000000E+00
 0.9630035013274E+00 -0.2943364780869E+01  0.0000000000000E+00
 0.9634381286881E+00 -0.2871837683121E+01  0.0000000000000E+00
 0.9642887590514E+00 -0.2800315427600E+01  0.0000000000000E+00
 0.9656571344553E+00 -0.2728803696687E+01  0.0000000000000E+00
 0.9676085093668E+00 -0.2657309635808E+01  0.0000000000000E+00
 0.9701846078996E+00 -0.2585841575683E+01  0.0000000000000E+00
 0.9734185880421E+00 -0.2514408503796E+01  0.0000000000000E+00
 0.9773479606558E+00 -0.2443021135268E+01  0.0000000000000E+00
 0.9820243285798E+00 -0.2371693053486E+01  0.0000000000000E+00
 0.9874447888878E+00 -0.2300434074685E+01  0.0000000000000E+00
 0.9935336924435E+00 -0.2229245956763E+01  0.0000000000000E+00
 0.1000237035998E+01 -0.2158130376907E+01  0.0000000000000E+00
 0.1007523411600E+01 -0.2087090114568E+01  0.0000000000000E+00
 0.1015382569795E+01 -0.2016130071610E+01  0.0000000000000E+00
 0.1023830240168E+01 -0.1945259142154E+01  0.0000000000000E+00
 0.1032929679005E+01 -0.1874494534943E+01  0.0000000000000E+00
 0.9900118099595E+00 -0.4660160183706E+01  0.0000000000000E+00
 0.9900236198944E+00 -0.4588733390588E+01  0.0000000000000E+00
 0.9900354299019E+00 -0.4517306158849E+01  0.0000000000000E+00
 0.9900472398762E+00 -0.4445879127356E+01  0.0000000000000E+00
 0.9900590498481E+00 -0.4374452110066E+01  0.0000000000000E+00
 0.9900708598246E+00 -0.4303025065937E+01  0.0000000000000E+00
 0.9900826697940E+00 -0.4231598064023E+01  0.0000000000000E+00
 0.9900944797677E+00 -0.4160171035925E+01  0.0000000000000E+00
 0.9901062897406E+00 -0.4088744013072E+01  0.0000000000000E+00
 0.9901180997122E+00 -0.4017316998107E+01  0.0000000000000E+00
 0.9901299096863E+00 -0.3945889968191E+01  0.0000000000000E+00
 0.9901417196565E+00 -0.3874462961699E+01  0.0000000000000E+00
 0.9901535296318E+00 -0.3803035924034E+01  0.0000000000000E+00
 0.9901653396168E+00 -0.3731608828097E+01  0.0000000000000E+00
 0.9901771495984E+00 -0.3660181752487E+01  0.0000000000000E+00
 0.9901889595659E+00 -0.3588754762324E+01  0.0000000000000E+00
 0.9902007696377E+00 -0.3517327141568E+01  0.0000000000000E+00
 0.9902125795121E+00 -0.3445900714257E+01  0.0000000000000E+00
 0.9902243894867E+00 -0.3374473681074E+01  0.0000000000000E+00
 0.9902361994483E+00 -0.3303046726158E+01  0.0000000000000E+00
 0.9902480093950E+00 -0.3231619862217E+01  0.0000000000000E+00
 0.9902598193475E+00 -0.3160192962233E+01  0.0000000000000E+00
 0.9902716293054E+00 -0.3088766030305E+01  0.0000000000000E+00
 0.9903008785684E+00 -0.3017339036957E+01  0.0000000000000E+00
 0.9904598921716E+00 -0.2945912272923E+01  0.0000000000000E+00
 0.9909046395882E+00 -0.2874487074610E+01  0.0000000000000E+00
 0.9917772978107E+00 -0.2803066718486E+01  0.0000000000000E+00
 0.9931825211753E+00 -0.2731656886858E+01  0.0000000000000E+00
 0.9951874320109E+00 -0.2660264725264E+01  0.0000000000000E+00
 0.9978349487592E+00 -0.2588898564268E+01  0.0000000000000E+00
 0.1001159178528E+01 -0.2517567391599E+01  0.0000000000000E+00
 0.1005198705901E+01 -0.2446281922349E+01  0.0000000000000E+00
 0.1010006610822E+01 -0.2375055739605E+01  0.0000000000000E+00
 0.1015579907262E+01 -0.2303898659960E+01  0.0000000000000E+00
 0.1021840780679E+01 -0.2232812441308E+01  0.0000000000000E+00
 0.1028733682020E+01 -0.2161798760767E+01  0.0000000000000E+00
 0.1036226304300E+01 -0.2090860397857E+01  0.0000000000000E+00
 0.1044308104682E+01 -0.2020002254434E+01  0.0000000000000E+00
 0.1052995263009E+01 -0.1949233224272E+01  0.0000000000000E+00
 0.1062352846232E+01 -0.1878570516118E+01  0.0000000000000E+00
 0.1017509482155E+01 -0.4660264886430E+01  0.0000000000000E+00
 0.1017518964290E+01 -0.4588942795818E+01  0.0000000000000E+00
 0.1017528446483E+01 -0.4517620267227E+01  0.0000000000000E+00
 0.1017537928650E+01 -0.4446297938589E+01  0.0000000000000E+00
 0.1017547410815E+01 -0.4374975624134E+01  0.0000000000000E+00
 0.1017556892983E+01 -0.4303653282878E+01  0.0000000000000E+00
 0.1017566375146E+01 -0.4232330983776E+01  0.0000000000000E+00
 0.1017575857312E+01 -0.4161008658528E+01  0.0000000000000E+00
 0.1017585339477E+01 -0.4089686338518E+01  0.0000000000000E+00
 0.1017594821642E+01 -0.4018364026383E+01  0.0000000000000E+00
 0.1017604303808E+01 -0.3947041699321E+01  0.0000000000000E+00
 0.1017613785972E+01 -0.3875719395647E+01  0.0000000000000E+00
 0.1017623268139E+01 -0.3804397060846E+01  0.0000000000000E+00
 0.1017632750314E+01 -0.3733074667859E+01  0.0000000000000E+00
 0.1017642232487E+01 -0.3661752295169E+01  0.0000000000000E+00
 0.1017651714648E+01 -0.3590430007800E+01  0.0000000000000E+00
 0.1017661196893E+01 -0.3519107090763E+01  0.0000000000000E+00
 0.1017670678979E+01 -0.3447785365421E+01  0.0000000000000E+00
 0.1017680161146E+01 -0.3376463035097E+01  0.0000000000000E+00
 0.1017689643303E+01 -0.3305140782923E+01  0.0000000000000E+00
 0.1017699125447E+01 -0.3233818621592E+01  0.0000000000000E+00
 0.1017708607596E+01 -0.3162496424270E+01  0.0000000000000E+00
 0.1017718089750E+01 -0.3091174195051E+01  0.0000000000000E+00
 0.1017745496503E+01 -0.3019851904506E+01  0.0000000000000E+00
 0.1017906278648E+01 -0.2948529843212E+01  0.0000000000000E+00
 0.1018360745944E+01 -0.2877209347457E+01  0.0000000000000E+00
 0.1019255031844E+01 -0.2805893693852E+01  0.0000000000000E+00
 0.1020696702984E+01 -0.2734588564626E+01  0.0000000000000E+00
 0.1022754749553E+01 -0.2663301105436E+01  0.0000000000000E+00
 0.1025473284322E+01 -0.2592039646683E+01  0.0000000000000E+00
 0.1028887363514E+01 -0.2520813176348E+01  0.0000000000000E+00
 0.1033036645440E+01 -0.2449632409496E+01  0.0000000000000E+00
 0.1037975687144E+01 -0.2378510928901E+01  0.0000000000000E+00
 0.1043701419494E+01 -0.2307458551527E+01  0.0000000000000E+00
 0.1050133862544E+01 -0.2236477035263E+01  0.0000000000000E+00
 0.1057215921438E+01 -0.2165568057156E+01  0.0000000000000E+00
 0.1064914390158E+01 -0.2094734396797E+01  0.0000000000000E+00
 0.1073218432483E+01 -0.2023980956034E+01  0.0000000000000E+00
 0.1082144678514E+01 -0.1953316628284E+01  0.0000000000000E+00
 0.1091760005868E+01 -0.1882758622300E+01  0.0000000000000E+00
 0.1045006744575E+01 -0.4660372386100E+01  0.0000000000000E+00
 0.1045013489135E+01 -0.4589157794934E+01  0.0000000000000E+00
 0.1045020233737E+01 -0.4517942766450E+01  0.0000000000000E+00
 0.1045026978321E+01 -0.4446727937617E+01  0.0000000000000E+00
 0.1045033722903E+01 -0.4375513122945E+01  0.0000000000000E+00
 0.1045040467487E+01 -0.4304298281514E+01  0.0000000000000E+00
 0.1045047212067E+01 -0.4233083482172E+01  0.0000000000000E+00
 0.1045053956650E+01 -0.4161868656724E+01  0.0000000000000E+00
 0.1045060701232E+01 -0.4090653836506E+01  0.0000000000000E+00
 0.1045067445814E+01 -0.4019439024151E+01  0.0000000000000E+00
 0.1045074190397E+01 -0.3948224196891E+01  0.0000000000000E+00
 0.1045080934978E+01 -0.3877009392985E+01  0.0000000000000E+00
 0.1045087679562E+01 -0.3805794557998E+01  0.0000000000000E+00
 0.1045094424151E+01 -0.3734579664913E+01  0.0000000000000E+00
 0.1045101168738E+01 -0.3663364792095E+01  0.0000000000000E+00
 0.1045107913318E+01 -0.3592150004468E+01  0.0000000000000E+00
 0.1045114657956E+01 -0.3520934588123E+01  0.0000000000000E+00
 0.1045121402483E+01 -0.3449720361677E+01  0.0000000000000E+00
 0.1045128147066E+01 -0.3378505531160E+01  0.0000000000000E+00
 0.1045134891642E+01 -0.3307290778676E+01  0.0000000000000E+00
 0.1045141636209E+01 -0.3236076116898E+01  0.0000000000000E+00
 0.1045148380780E+01 -0.3164861419183E+01  0.0000000000000E+00
 0.1045155125354E+01 -0.3093646689619E+01  0.0000000000000E+00
 0.1045180279821E+01 -0.3022431898826E+01  0.0000000000000E+00
 0.1045342420734E+01 -0.2951217337218E+01  0.0000000000000E+00
 0.1045806198134E+01 -0.2880004340962E+01  0.0000000000000E+00
 0.1046721701941E+01 -0.2808796186818E+01  0.0000000000000E+00
 0.1048199411086E+01 -0.2737598556931E+01  0.0000000000000E+00
 0.1050310183620E+01 -0.2666418597083E+01  0.0000000000000E+00
 0.1053099326642E+01 -0.2595264637507E+01  0.0000000000000E+00
 0.1056602845493E+01 -0.2524145666443E+01  0.0000000000000E+00
 0.1060861472207E+01 -0.2453072398925E+01  0.0000000000000E+00
 0.1065931240934E+01 -0.2382058417411E+01  0.0000000000000E+00
 0.1071808999436E+01 -0.2311113539242E+01  0.0000000000000E+00
 0.1078412602362E+01 -0.2240239522303E+01  0.0000000000000E+00
 0.1085683409054E+01 -0.2169438043568E+01  0.0000000000000E+00
 0.1093587314458E+01 -0.2098711882704E+01  0.0000000000000E+00
 0.1102113188972E+01 -0.2028065941545E+01  0.0000000000000E+00
 0.1111278112956E+01 -0.1957509113146E+01  0.0000000000000E+00
 0.1121150774694E+01 -0.1887058606262E+01  0.0000000000000E+00
 0.1072503587178E+01 -0.4660482676316E+01  0.0000000000000E+00
 0.1072507174348E+01 -0.4589378375137E+01  0.0000000000000E+00
 0.1072510761541E+01 -0.4518273637316E+01  0.0000000000000E+00
 0.1072514348723E+01 -0.4447169098837E+01  0.0000000000000E+00
 0.1072517935905E+01 -0.4376064574498E+01  0.0000000000000E+00
 0.1072521523088E+01 -0.4304960023440E+01  0.0000000000000E+00
 0.1072525110269E+01 -0.4233855514407E+01  0.0000000000000E+00
 0.1072528697451E+01 -0.4162750979308E+01  0.0000000000000E+00
 0.1072532284633E+01 -0.4091646449431E+01  0.0000000000000E+00
 0.1072535871815E+01 -0.4020541927405E+01  0.0000000000000E+00
 0.1072539458997E+01 -0.3949437390497E+01  0.0000000000000E+00
 0.1072543046178E+01 -0.3878332876907E+01  0.0000000000000E+00
 0.1072546633361E+01 -0.3807228332284E+01  0.0000000000000E+00
 0.1072550220546E+01 -0.3736123729652E+01  0.0000000000000E+00
 0.1072553807731E+01 -0.3665019147257E+01  0.0000000000000E+00
 0.1072557394911E+01 -0.3593914649921E+01  0.0000000000000E+00
 0.1072560982123E+01 -0.3522809524840E+01  0.0000000000000E+00
 0.1072564569275E+01 -0.3451705587815E+01  0.0000000000000E+00
 0.1072568156458E+01 -0.3380601047655E+01  0.0000000000000E+00
 0.1072571743636E+01 -0.3309496585407E+01  0.0000000000000E+00
 0.1072575330810E+01 -0.3238392213725E+01  0.0000000000000E+00
 0.1072578917986E+01 -0.3167287806161E+01  0.0000000000000E+00
 0.1072582505164E+01 -0.3096183366798E+01  0.0000000000000E+00
 0.1072604987528E+01 -0.3025078866304E+01  0.0000000000000E+00
 0.1072768067392E+01 -0.2953974594929E+01  0.0000000000000E+00
 0.1073240735083E+01 -0.2882871888714E+01  0.0000000000000E+00
 0.1074177036982E+01 -0.2811774024571E+01  0.0000000000000E+00
 0.1075690364322E+01 -0.2740686684561E+01  0.0000000000000E+00
 0.1077853443011E+01 -0.2669617014592E+01  0.0000000000000E+00
 0.1080712774480E+01 -0.2598573344725E+01  0.0000000000000E+00
 0.1084305313187E+01 -0.2527564663467E+01  0.0000000000000E+00
 0.1088672864887E+01 -0.2456601685821E+01  0.0000000000000E+00
 0.1093872940837E+01 -0.2385697993918E+01  0.0000000000000E+00
 0.1099902305694E+01 -0.2314863405488E+01  0.0000000000000E+00
 0.1106676648702E+01 -0.2244099678411E+01  0.0000000000000E+00
 0.1114135783397E+01 -0.2173408489587E+01  0.0000000000000E+00
 0.1122244705695E+01 -0.2102792618758E+01  0.0000000000000E+00
 0.1130991992608E+01 -0.2032256967748E+01  0.0000000000000E+00
 0.1140395174757E+01 -0.1961810429236E+01  0.0000000000000E+00
 0.1150524751096E+01 -0.1891470211985E+01  0.0000000000000E+00
-0.5660382933727E+00 -0.1689691761343E+01  0.0000000000000E+00
-0.5663123720575E+00 -0.1626506538788E+01  0.0000000000000E+00
-0.5667790339879E+00 -0.1563322491581E+01  0.0000000000000E+00
-0.5674663936241E+00 -0.1500140613648E+01  0.0000000000000E+00
-0.5684046240156E+00 -0.1436962158218E+01  0.0000000000000E+00
-0.5696222518212E+00 -0.1373788927613E+01  0.0000000000000E+00
-0.5711380830886E+00 -0.1310622648082E+01  0.0000000000000E+00
-0.5729469100487E+00 -0.1247464856343E+01  0.0000000000000E+00
-0.5750009089678E+00 -0.1184315217396E+01  0.0000000000000E+00
-0.5771979571333E+00 -0.1121170853713E+01  0.0000000000000E+00
-0.5793950052231E+00 -0.1058026490028E+01  0.0000000000000E+00
-0.5814490039253E+00 -0.9948768510738E+00  0.0000000000000E+00
-0.5832578305519E+00 -0.9317190593259E+00  0.0000000000000E+00
-0.5847736613987E+00 -0.8685527797851E+00  0.0000000000000E+00
-0.5859912887235E+00 -0.8053795491707E+00  0.0000000000000E+00
-0.5869295185944E+00 -0.7422010937332E+00  0.0000000000000E+00
-0.5876168776851E+00 -0.6790192157949E+00  0.0000000000000E+00
-0.5880835390555E+00 -0.6158351685841E+00  0.0000000000000E+00
-0.5883576171726E+00 -0.5526499460259E+00  0.0000000000000E+00
-0.5363253834601E+00 -0.1687245125446E+01  0.0000000000000E+00
-0.5366119768712E+00 -0.1623791708043E+01  0.0000000000000E+00
-0.5370810175640E+00 -0.1560339466072E+01  0.0000000000000E+00
-0.5377591402814E+00 -0.1496889393551E+01  0.0000000000000E+00
-0.5386749300523E+00 -0.1433442743371E+01  0.0000000000000E+00
-0.5398554120886E+00 -0.1370001318292E+01  0.0000000000000E+00
-0.5413184027050E+00 -0.1306566843974E+01  0.0000000000000E+00
-0.5430589681685E+00 -0.1243140857698E+01  0.0000000000000E+00
-0.5450318018343E+00 -0.1179723023941E+01  0.0000000000000E+00
-0.5471401558424E+00 -0.1116310465411E+01  0.0000000000000E+00
-0.5492485097748E+00 -0.1052897906879E+01  0.0000000000000E+00
-0.5512213432236E+00 -0.9894800731148E+00  0.0000000000000E+00
-0.5529619083535E+00 -0.9260540868295E+00  0.0000000000000E+00
-0.5544248985495E+00 -0.8626196125025E+00  0.0000000000000E+00
-0.5556053801049E+00 -0.7991781874149E+00  0.0000000000000E+00
-0.5565211693552E+00 -0.7357315372274E+00  0.0000000000000E+00
-0.5571992915272E+00 -0.6722814647015E+00  0.0000000000000E+00
-0.5576683316600E+00 -0.6088292227269E+00  0.0000000000000E+00
-0.5579549245034E+00 -0.5453758053214E+00  0.0000000000000E+00
-0.5065999670663E+00 -0.1684928561672E+01  0.0000000000000E+00
-0.5068949115904E+00 -0.1621220039384E+01  0.0000000000000E+00
-0.5073621674199E+00 -0.1557512692609E+01  0.0000000000000E+00
-0.5080268895799E+00 -0.1493807515451E+01  0.0000000000000E+00
-0.5089160750712E+00 -0.1430105760479E+01  0.0000000000000E+00
-0.5100552476636E+00 -0.1366409230871E+01  0.0000000000000E+00
-0.5114612339286E+00 -0.1302719651727E+01  0.0000000000000E+00
-0.5131293741780E+00 -0.1239038560861E+01  0.0000000000000E+00
-0.5150168788513E+00 -0.1175365622255E+01  0.0000000000000E+00
-0.5170323749522E+00 -0.1111697958841E+01  0.0000000000000E+00
-0.5190478709775E+00 -0.1048030295425E+01  0.0000000000000E+00
-0.5209353754338E+00 -0.9843573568131E+00  0.0000000000000E+00
-0.5226035153497E+00 -0.9206762659386E+00  0.0000000000000E+00
-0.5240095011942E+00 -0.8569866867857E+00  0.0000000000000E+00
-0.5251486733057E+00 -0.7932901571698E+00  0.0000000000000E+00
-0.5260378582764E+00 -0.7295884021909E+00  0.0000000000000E+00
-0.5267025798910E+00 -0.6658832250280E+00  0.0000000000000E+00
-0.5271698351604E+00 -0.6021758782489E+00  0.0000000000000E+00
-0.5274647791169E+00 -0.5384673559593E+00  0.0000000000000E+00
-0.4768626705487E+00 -0.1682742416099E+01  0.0000000000000E+00
-0.4771619844321E+00 -0.1618792097827E+01  0.0000000000000E+00
-0.4776234736490E+00 -0.1554842955143E+01  0.0000000000000E+00
-0.4782708135087E+00 -0.1490895982235E+01  0.0000000000000E+00
-0.4791294129793E+00 -0.1426952431367E+01  0.0000000000000E+00
-0.4802232943955E+00 -0.1363014106112E+01  0.0000000000000E+00
-0.4815682945772E+00 -0.1299082731039E+01  0.0000000000000E+00
-0.4831600278892E+00 -0.1235159844468E+01  0.0000000000000E+00
-0.4849582218467E+00 -0.1171245109912E+01  0.0000000000000E+00
-0.4868768783191E+00 -0.1107335650514E+01  0.0000000000000E+00
-0.4887955347158E+00 -0.1043426191114E+01  0.0000000000000E+00
-0.4905937284563E+00 -0.9795114565527E+00  0.0000000000000E+00
-0.4921854614348E+00 -0.9155885699739E+00  0.0000000000000E+00
-0.4935304611959E+00 -0.8516571948924E+00  0.0000000000000E+00
-0.4946243421312E+00 -0.7877188696299E+00  0.0000000000000E+00
-0.4954829410813E+00 -0.7237753187550E+00  0.0000000000000E+00
-0.4961302803955E+00 -0.6598283458425E+00  0.0000000000000E+00
-0.4965917690524E+00 -0.5958792031548E+00  0.0000000000000E+00
-0.4968910823681E+00 -0.5319288848814E+00  0.0000000000000E+00
-0.4471141738714E+00 -0.1680687021658E+01  0.0000000000000E+00
-0.4474140589931E+00 -0.1616508426019E+01  0.0000000000000E+00
-0.4478659834921E+00 -0.1552331006037E+01  0.0000000000000E+00
-0.4484921429651E+00 -0.1488155755982E+01  0.0000000000000E+00
-0.4493163583450E+00 -0.1423983927828E+01  0.0000000000000E+00
-0.4503611505400E+00 -0.1359817325524E+01  0.0000000000000E+00
-0.4516413666112E+00 -0.1295657673134E+01  0.0000000000000E+00
-0.4531528949840E+00 -0.1231506509458E+01  0.0000000000000E+00
-0.4548579802386E+00 -0.1167363497567E+01  0.0000000000000E+00
-0.4566759991053E+00 -0.1103225760801E+01  0.0000000000000E+00
-0.4584940178964E+00 -0.1039088024033E+01  0.0000000000000E+00
-0.4601991029340E+00 -0.9749450121357E+00  0.0000000000000E+00
-0.4617106309733E+00 -0.9107938484529E+00  0.0000000000000E+00
-0.4629908466239E+00 -0.8466341960555E+00  0.0000000000000E+00
-0.4640356383381E+00 -0.7824675937435E+00  0.0000000000000E+00
-0.4648598531975E+00 -0.7182957655835E+00  0.0000000000000E+00
-0.4654860121251E+00 -0.6541205155242E+00  0.0000000000000E+00
-0.4659379360640E+00 -0.5899430955397E+00  0.0000000000000E+00
-0.4662378206180E+00 -0.5257644998984E+00  0.0000000000000E+00
-0.4173550630559E+00 -0.1678762688173E+01  0.0000000000000E+00
-0.4176519113029E+00 -0.1614369533789E+01  0.0000000000000E+00
-0.4180906629569E+00 -0.1549977555129E+01  0.0000000000000E+00
-0.4186920339012E+00 -0.1485587746537E+01  0.0000000000000E+00
-0.4194782570266E+00 -0.1421201359716E+01  0.0000000000000E+00
-0.4204703518181E+00 -0.1356820198965E+01  0.0000000000000E+00
-0.4216821755688E+00 -0.1292445987879E+01  0.0000000000000E+00
-0.4231098907729E+00 -0.1228080265706E+01  0.0000000000000E+00
-0.4247182590719E+00 -0.1163722695099E+01  0.0000000000000E+00
-0.4264320320686E+00 -0.1099370399588E+01  0.0000000000000E+00
-0.4281458049896E+00 -0.1035018104075E+01  0.0000000000000E+00
-0.4297541730716E+00 -0.9706605334635E+00  0.0000000000000E+00
-0.4311818879422E+00 -0.9062948112837E+00  0.0000000000000E+00
-0.4323937112723E+00 -0.8419206001903E+00  0.0000000000000E+00
-0.4333858055829E+00 -0.7775394394327E+00  0.0000000000000E+00
-0.4341720281878E+00 -0.7131530526057E+00  0.0000000000000E+00
-0.4347733985867E+00 -0.6487632440093E+00  0.0000000000000E+00
-0.4352121496806E+00 -0.5843712653468E+00  0.0000000000000E+00
-0.4355089973599E+00 -0.5199781109607E+00  0.0000000000000E+00
-0.3875860504174E+00 -0.1676969717501E+01  0.0000000000000E+00
-0.3878764553724E+00 -0.1612375915377E+01  0.0000000000000E+00
-0.3882986277719E+00 -0.1547783289039E+01  0.0000000000000E+00
-0.3888718037880E+00 -0.1483192832901E+01  0.0000000000000E+00
-0.3896166282662E+00 -0.1418605798412E+01  0.0000000000000E+00
-0.3905526192750E+00 -0.1354023990201E+01  0.0000000000000E+00
-0.3916926443324E+00 -0.1289449131420E+01  0.0000000000000E+00
-0.3930331400086E+00 -0.1224882761738E+01  0.0000000000000E+00
-0.3945413849981E+00 -0.1160324543420E+01  0.0000000000000E+00
-0.3961475057755E+00 -0.1095771600169E+01  0.0000000000000E+00
-0.3977536264772E+00 -0.1031218656915E+01  0.0000000000000E+00
-0.3992618712497E+00 -0.9666604385923E+00  0.0000000000000E+00
-0.4006023665923E+00 -0.9020940689044E+00  0.0000000000000E+00
-0.4017423912293E+00 -0.8375192101168E+00  0.0000000000000E+00
-0.4026783817572E+00 -0.7729374018990E+00  0.0000000000000E+00
-0.4034232057148E+00 -0.7083503674049E+00  0.0000000000000E+00
-0.4039963811855E+00 -0.6437599112629E+00  0.0000000000000E+00
-0.4044185530250E+00 -0.5791672849229E+00  0.0000000000000E+00
-0.4047089574122E+00 -0.5145734827968E+00  0.0000000000000E+00
-0.3578077848507E+00 -0.1675308389248E+01  0.0000000000000E+00
-0.3580885470070E+00 -0.1610528031852E+01  0.0000000000000E+00
-0.3584909406433E+00 -0.1545748850301E+01  0.0000000000000E+00
-0.3590327222207E+00 -0.1480971839072E+01  0.0000000000000E+00
-0.3597329485350E+00 -0.1416198249379E+01  0.0000000000000E+00
-0.3606096362428E+00 -0.1351429886156E+01  0.0000000000000E+00
-0.3616746630801E+00 -0.1286668472146E+01  0.0000000000000E+00
-0.3629247396993E+00 -0.1221915547408E+01  0.0000000000000E+00
-0.3643296618428E+00 -0.1157170773845E+01  0.0000000000000E+00
-0.3658249308613E+00 -0.1092431275322E+01  0.0000000000000E+00
-0.3673201998042E+00 -0.1027691776797E+01  0.0000000000000E+00
-0.3687251217307E+00 -0.9629470032288E+00  0.0000000000000E+00
-0.3699751980164E+00 -0.8981940784852E+00  0.0000000000000E+00
-0.3710402244331E+00 -0.8334326644688E+00  0.0000000000000E+00
-0.3719169116601E+00 -0.7686643012399E+00  0.0000000000000E+00
-0.3726171374538E+00 -0.7038907115421E+00  0.0000000000000E+00
-0.3731589184858E+00 -0.6391137003095E+00  0.0000000000000E+00
-0.3735613115620E+00 -0.5743345187563E+00  0.0000000000000E+00
-0.3738420731506E+00 -0.5095541613588E+00  0.0000000000000E+00
-0.3280209322967E+00 -0.1673778966441E+01  0.0000000000000E+00
-0.3282890703009E+00 -0.1608826317856E+01  0.0000000000000E+00
-0.3286687038227E+00 -0.1543874845170E+01  0.0000000000000E+00
-0.3291761096142E+00 -0.1478925542919E+01  0.0000000000000E+00
-0.3298287564176E+00 -0.1413979662100E+01  0.0000000000000E+00
-0.3306431594830E+00 -0.1349039007928E+01  0.0000000000000E+00
-0.3316302067577E+00 -0.1284105302768E+01  0.0000000000000E+00
-0.3327868829826E+00 -0.1219180087040E+01  0.0000000000000E+00
-0.3340855009420E+00 -0.1154263022312E+01  0.0000000000000E+00
-0.3354669368643E+00 -0.1089351232600E+01  0.0000000000000E+00
-0.3368483727111E+00 -0.1024439442887E+01  0.0000000000000E+00
-0.3381469904534E+00 -0.9595223781546E+00  0.0000000000000E+00
-0.3393036663448E+00 -0.8945971624215E+00  0.0000000000000E+00
-0.3402907131989E+00 -0.8296634572558E+00  0.0000000000000E+00
-0.3411051157835E+00 -0.7647228030786E+00  0.0000000000000E+00
-0.3417577620663E+00 -0.6997769222548E+00  0.0000000000000E+00
-0.3422651673124E+00 -0.6348276200005E+00  0.0000000000000E+00
-0.3426448002742E+00 -0.5698761473125E+00  0.0000000000000E+00
-0.3429129377106E+00 -0.5049234987264E+00  0.0000000000000E+00
-0.2982262059385E+00 -0.1672381694973E+01  0.0000000000000E+00
-0.2984789576442E+00 -0.1607271179011E+01  0.0000000000000E+00
-0.2988330689080E+00 -0.1542161838997E+01  0.0000000000000E+00
-0.2993033367739E+00 -0.1477054669522E+01  0.0000000000000E+00
-0.2999056419273E+00 -0.1411950921383E+01  0.0000000000000E+00
-0.3006549982166E+00 -0.1346852400053E+01  0.0000000000000E+00
-0.3015613037944E+00 -0.1281760827552E+01  0.0000000000000E+00
-0.3026218174963E+00 -0.1216677744629E+01  0.0000000000000E+00
-0.3038113691420E+00 -0.1151602812546E+01  0.0000000000000E+00
-0.3050762098397E+00 -0.1086533155457E+01  0.0000000000000E+00
-0.3063410504618E+00 -0.1021463498367E+01  0.0000000000000E+00
-0.3075306018905E+00 -0.9563885662797E+00  0.0000000000000E+00
-0.3085911152588E+00 -0.8913054833521E+00  0.0000000000000E+00
-0.3094974204161E+00 -0.8262139108455E+00  0.0000000000000E+00
-0.3102467762245E+00 -0.7611153895116E+00  0.0000000000000E+00
-0.3108490808573E+00 -0.6960116413682E+00  0.0000000000000E+00
-0.3113193481778E+00 -0.6309044718900E+00  0.0000000000000E+00
-0.3116734588816E+00 -0.5657951318742E+00  0.0000000000000E+00
-0.3119262100196E+00 -0.5006846159113E+00  0.0000000000000E+00
-0.2684242591111E+00 -0.1671116799086E+01  0.0000000000000E+00
-0.2686590939796E+00 -0.1605862988030E+01  0.0000000000000E+00
-0.2689851524448E+00 -0.1540610352966E+01  0.0000000000000E+00
-0.2694157518426E+00 -0.1475359888535E+01  0.0000000000000E+00
-0.2699651847983E+00 -0.1410112845353E+01  0.0000000000000E+00
-0.2706469637623E+00 -0.1344871029129E+01  0.0000000000000E+00
-0.2714699970866E+00 -0.1279636161565E+01  0.0000000000000E+00
-0.2724318177065E+00 -0.1214409783713E+01  0.0000000000000E+00
-0.2735097724737E+00 -0.1149191556555E+01  0.0000000000000E+00
-0.2746554873792E+00 -0.1083978604371E+01  0.0000000000000E+00
-0.2758012022091E+00 -0.1018765652186E+01  0.0000000000000E+00
-0.2768791567593E+00 -0.9535474250252E+00  0.0000000000000E+00
-0.2778409770457E+00 -0.8883210471688E+00  0.0000000000000E+00
-0.2786640099495E+00 -0.8230861796004E+00  0.0000000000000E+00
-0.2793457884325E+00 -0.7578443633719E+00  0.0000000000000E+00
-0.2798952208677E+00 -0.6925973201861E+00  0.0000000000000E+00
-0.2803258197201E+00 -0.6273468557523E+00  0.0000000000000E+00
-0.2806518776252E+00 -0.5620942206867E+00  0.0000000000000E+00
-0.2808867119260E+00 -0.4968404096294E+00  0.0000000000000E+00
-0.2386158232353E+00 -0.1669984486219E+01  0.0000000000000E+00
-0.2388304441249E+00 -0.1604602088268E+01  0.0000000000000E+00
-0.2391261526536E+00 -0.1539220866350E+01  0.0000000000000E+00
-0.2395147864510E+00 -0.1473841815148E+01  0.0000000000000E+00
-0.2400090500797E+00 -0.1408466185117E+01  0.0000000000000E+00
-0.2406209545962E+00 -0.1343095782177E+01  0.0000000000000E+00
-0.2413584185475E+00 -0.1277732327748E+01  0.0000000000000E+00
-0.2422192489735E+00 -0.1212377363149E+01  0.0000000000000E+00
-0.2431833097518E+00 -0.1147030549114E+01  0.0000000000000E+00
-0.2442076017572E+00 -0.1081689010035E+01  0.0000000000000E+00
-0.2452318936869E+00 -0.1016347470955E+01  0.0000000000000E+00
-0.2461959542483E+00 -0.9510006569173E+00  0.0000000000000E+00
-0.2470567843406E+00 -0.8856456923147E+00  0.0000000000000E+00
-0.2477942478714E+00 -0.8202822378808E+00  0.0000000000000E+00
-0.2484061519071E+00 -0.7549118349370E+00  0.0000000000000E+00
-0.2489004150152E+00 -0.6895362049032E+00  0.0000000000000E+00
-0.2492890482672E+00 -0.6241571536992E+00  0.0000000000000E+00
-0.2495847562358E+00 -0.5587759317790E+00  0.0000000000000E+00
-0.2497993765577E+00 -0.4933935338269E+00  0.0000000000000E+00
-0.2088015918171E+00 -0.1668984941864E+01  0.0000000000000E+00
-0.2089939423704E+00 -0.1603488788333E+01  0.0000000000000E+00
-0.2092572446060E+00 -0.1537993810870E+01  0.0000000000000E+00
-0.2096018564480E+00 -0.1472501004198E+01  0.0000000000000E+00
-0.2100388943936E+00 -0.1407011618628E+01  0.0000000000000E+00
-0.2105788681090E+00 -0.1341527460266E+01  0.0000000000000E+00
-0.2112287063315E+00 -0.1276050250282E+01  0.0000000000000E+00
-0.2119864902098E+00 -0.1210581530234E+01  0.0000000000000E+00
-0.2128346006438E+00 -0.1145120960635E+01  0.0000000000000E+00
-0.2137354133933E+00 -0.1079665665975E+01  0.0000000000000E+00
-0.2146362260672E+00 -0.1014210371315E+01  0.0000000000000E+00
-0.2154843362842E+00 -0.9487498017129E+00  0.0000000000000E+00
-0.2162421198289E+00 -0.8832810816616E+00  0.0000000000000E+00
-0.2168919576308E+00 -0.8178038716736E+00  0.0000000000000E+00
-0.2174319308654E+00 -0.7523197133084E+00  0.0000000000000E+00
-0.2178689682905E+00 -0.6868303277357E+00  0.0000000000000E+00
-0.2182135795869E+00 -0.6213375210618E+00  0.0000000000000E+00
-0.2184768812625E+00 -0.5558425435970E+00  0.0000000000000E+00
-0.2186692312481E+00 -0.4903463900649E+00  0.0000000000000E+00
-0.1789822699684E+00 -0.1668118331209E+01  0.0000000000000E+00
-0.1791505394161E+00 -0.1602523363227E+01  0.0000000000000E+00
-0.1793796245881E+00 -0.1536929571344E+01  0.0000000000000E+00
-0.1796784037030E+00 -0.1471337950318E+01  0.0000000000000E+00
-0.1800564051905E+00 -0.1405749750333E+01  0.0000000000000E+00
-0.1805226373288E+00 -0.1340166777658E+01  0.0000000000000E+00
-0.1810830390415E+00 -0.1274590753246E+01  0.0000000000000E+00
-0.1817359655899E+00 -0.1209023218861E+01  0.0000000000000E+00
-0.1824663148931E+00 -0.1143463834825E+01  0.0000000000000E+00
-0.1832418375987E+00 -0.1077909725716E+01  0.0000000000000E+00
-0.1840173602287E+00 -0.1012355616605E+01  0.0000000000000E+00
-0.1847477093150E+00 -0.9467962325665E+00  0.0000000000000E+00
-0.1854006355298E+00 -0.8812286981792E+00  0.0000000000000E+00
-0.1859610368220E+00 -0.8156526737635E+00  0.0000000000000E+00
-0.1864272684794E+00 -0.7500697010859E+00  0.0000000000000E+00
-0.1868052694463E+00 -0.6844815010990E+00  0.0000000000000E+00
-0.1871040480158E+00 -0.6188898800707E+00  0.0000000000000E+00
-0.1873331326277E+00 -0.5532960881865E+00  0.0000000000000E+00
-0.1875014015077E+00 -0.4877011202043E+00  0.0000000000000E+00
-0.1491585906986E+00 -0.1667384798938E+01  0.0000000000000E+00
-0.1493012179629E+00 -0.1601706053757E+01  0.0000000000000E+00
-0.1494945249966E+00 -0.1536028484701E+01  0.0000000000000E+00
-0.1497459103137E+00 -0.1470353086556E+01  0.0000000000000E+00
-0.1500633142746E+00 -0.1404681109403E+01  0.0000000000000E+00
-0.1504542437727E+00 -0.1339014359645E+01  0.0000000000000E+00
-0.1509236479144E+00 -0.1273354558052E+01  0.0000000000000E+00
-0.1514701560771E+00 -0.1207703246565E+01  0.0000000000000E+00
-0.1520811831954E+00 -0.1142060085341E+01  0.0000000000000E+00
-0.1527298548045E+00 -0.1076422199032E+01  0.0000000000000E+00
-0.1533785263379E+00 -0.1010784312722E+01  0.0000000000000E+00
-0.1539895532392E+00 -0.9451411514961E+00  0.0000000000000E+00
-0.1545360610683E+00 -0.8794898400065E+00  0.0000000000000E+00
-0.1550054647896E+00 -0.8138300384108E+00  0.0000000000000E+00
-0.1553963938067E+00 -0.7481632886510E+00  0.0000000000000E+00
-0.1557137972470E+00 -0.6824913114955E+00  0.0000000000000E+00
-0.1559651820187E+00 -0.6168159133492E+00  0.0000000000000E+00
-0.1561584884923E+00 -0.5511383442921E+00  0.0000000000000E+00
-0.1563011151890E+00 -0.4854595991108E+00  0.0000000000000E+00
-0.1193312533689E+00 -0.1666784467333E+01  0.0000000000000E+00
-0.1194469324420E+00 -0.1601037064197E+01  0.0000000000000E+00
-0.1196031553282E+00 -0.1535290837207E+01  0.0000000000000E+00
-0.1198058408375E+00 -0.1469546781173E+01  0.0000000000000E+00
-0.1200613412589E+00 -0.1403806146089E+01  0.0000000000000E+00
-0.1203756621029E+00 -0.1338070738472E+01  0.0000000000000E+00
-0.1207527626561E+00 -0.1272342278939E+01  0.0000000000000E+00
-0.1211915464142E+00 -0.1206622309575E+01  0.0000000000000E+00
-0.1216819453254E+00 -0.1140910490406E+01  0.0000000000000E+00
-0.1222024598146E+00 -0.1075203946141E+01  0.0000000000000E+00
-0.1227229742282E+00 -0.1009497401875E+01  0.0000000000000E+00
-0.1232133729224E+00 -0.9437855827039E+00  0.0000000000000E+00
-0.1236521563469E+00 -0.8780656133384E+00  0.0000000000000E+00
-0.1240292564796E+00 -0.8123371538032E+00  0.0000000000000E+00
-0.1243435768427E+00 -0.7466017461841E+00  0.0000000000000E+00
-0.1245990767436E+00 -0.6808611110984E+00  0.0000000000000E+00
-0.1248017617074E+00 -0.6151170550636E+00  0.0000000000000E+00
-0.1249579840336E+00 -0.5493708280728E+00  0.0000000000000E+00
-0.1250736625389E+00 -0.4836234249364E+00  0.0000000000000E+00
-0.8950100053862E-01 -0.1666317437650E+01  0.0000000000000E+00
-0.8958868171560E-01 -0.1600516563313E+01  0.0000000000000E+00
-0.8970677075129E-01 -0.1534716865139E+01  0.0000000000000E+00
-0.8985970675196E-01 -0.1468919337956E+01  0.0000000000000E+00
-0.9005225393426E-01 -0.1403125231690E+01  0.0000000000000E+00
-0.9028891642774E-01 -0.1337336352946E+01  0.0000000000000E+00
-0.9057266369673E-01 -0.1271554422224E+01  0.0000000000000E+00
-0.9090267335780E-01 -0.1205780981720E+01  0.0000000000000E+00
-0.9127139437015E-01 -0.1140015691357E+01  0.0000000000000E+00
-0.9166270204846E-01 -0.1074255675890E+01  0.0000000000000E+00
-0.9205400965113E-01 -0.1008495660424E+01  0.0000000000000E+00
-0.9242273044648E-01 -0.9427303700588E+00  0.0000000000000E+00
-0.9275273977399E-01 -0.8769569295541E+00  0.0000000000000E+00
-0.9303648662245E-01 -0.8111749988302E+00  0.0000000000000E+00
-0.9327314863504E-01 -0.7453861200848E+00  0.0000000000000E+00
-0.9346569529677E-01 -0.6795920138176E+00  0.0000000000000E+00
-0.9361863075200E-01 -0.6137944866337E+00  0.0000000000000E+00
-0.9373671922766E-01 -0.5479947884587E+00  0.0000000000000E+00
-0.9382439983693E-01 -0.4821939141214E+00  0.0000000000000E+00
-0.5966855245610E-01 -0.1665983788540E+01  0.0000000000000E+00
-0.5972744638703E-01 -0.1600144682577E+01  0.0000000000000E+00
-0.5980661222241E-01 -0.1534306752788E+01  0.0000000000000E+00
-0.5990900936510E-01 -0.1468470994015E+01  0.0000000000000E+00
-0.6003781395841E-01 -0.1402638656136E+01  0.0000000000000E+00
-0.6019602875215E-01 -0.1336811545818E+01  0.0000000000000E+00
-0.6038563338675E-01 -0.1270991383477E+01  0.0000000000000E+00
-0.6060607960119E-01 -0.1205179711391E+01  0.0000000000000E+00
-0.6085233336420E-01 -0.1139376189405E+01  0.0000000000000E+00
-0.6111364488103E-01 -0.1073577942312E+01  0.0000000000000E+00
-0.6137495632221E-01 -0.1007779695218E+01  0.0000000000000E+00
-0.6162120986821E-01 -0.9419761732318E+00  0.0000000000000E+00
-0.6184165574910E-01 -0.8761645011445E+00  0.0000000000000E+00
-0.6203125996316E-01 -0.8103443388026E+00  0.0000000000000E+00
-0.6218947427602E-01 -0.7445172284838E+00  0.0000000000000E+00
-0.6231827834875E-01 -0.6786848906039E+00  0.0000000000000E+00
-0.6242067494601E-01 -0.6128491318304E+00  0.0000000000000E+00
-0.6249984022135E-01 -0.5470112020407E+00  0.0000000000000E+00
-0.6255873358457E-01 -0.4811720960768E+00  0.0000000000000E+00
-0.2983463937156E-01 -0.1665783576456E+01  0.0000000000000E+00
-0.2986421868488E-01 -0.1599921516320E+01  0.0000000000000E+00
-0.2990393394841E-01 -0.1534060632365E+01  0.0000000000000E+00
-0.2995526486180E-01 -0.1468201919441E+01  0.0000000000000E+00
-0.3001979949427E-01 -0.1402346627397E+01  0.0000000000000E+00
-0.3009903921680E-01 -0.1336496562938E+01  0.0000000000000E+00
-0.3019397384468E-01 -0.1270653446429E+01  0.0000000000000E+00
-0.3030432924049E-01 -0.1204818820196E+01  0.0000000000000E+00
-0.3042758838143E-01 -0.1138992344041E+01  0.0000000000000E+00
-0.3055837636388E-01 -0.1073171142774E+01  0.0000000000000E+00
-0.3068916427068E-01 -0.1007349941507E+01  0.0000000000000E+00
-0.3081242319462E-01 -0.9415234653514E+00  0.0000000000000E+00
-0.3092277825687E-01 -0.8756888391178E+00  0.0000000000000E+00
-0.3101771246422E-01 -0.8098457226084E+00  0.0000000000000E+00
-0.3109695170586E-01 -0.7439956581489E+00  0.0000000000000E+00
-0.3116148581776E-01 -0.6781403661046E+00  0.0000000000000E+00
-0.3121281618571E-01 -0.6122816531806E+00  0.0000000000000E+00
-0.3125253088920E-01 -0.5464207692254E+00  0.0000000000000E+00
-0.3128210963481E-01 -0.4805587090888E+00  0.0000000000000E+00
 0.5155270087001E-08 -0.1665716835338E+01  0.0000000000000E+00
 0.4584959248036E-08 -0.1599847121274E+01  0.0000000000000E+00
 0.4018463788390E-08 -0.1533978583394E+01  0.0000000000000E+00
 0.3459266960008E-08 -0.1468112216549E+01  0.0000000000000E+00
 0.2912509139835E-08 -0.1402249270580E+01  0.0000000000000E+00
 0.2385637097306E-08 -0.1336391552204E+01  0.0000000000000E+00
 0.1889015036877E-08 -0.1270540781768E+01  0.0000000000000E+00
 0.1435985996629E-08 -0.1204698501615E+01  0.0000000000000E+00
 0.1041351357948E-08 -0.1138864371533E+01  0.0000000000000E+00
 0.7174784364422E-09 -0.1073035516338E+01  0.0000000000000E+00
 0.4692480349616E-09 -0.1007206661143E+01  0.0000000000000E+00
 0.2916179217409E-09 -0.9413725310599E+00  0.0000000000000E+00
 0.1721480478919E-09 -0.8755302509073E+00  0.0000000000000E+00
 0.9605795782101E-10 -0.8096794804718E+00  0.0000000000000E+00
 0.5007320361460E-10 -0.7438217620953E+00  0.0000000000000E+00
 0.2389664209818E-10 -0.6779588161260E+00  0.0000000000000E+00
 0.1013582257418E-10 -0.6120924492818E+00  0.0000000000000E+00
 0.3684745325373E-11 -0.5462239114012E+00  0.0000000000000E+00
 0.1082611060245E-11 -0.4803541973369E+00  0.0000000000000E+00
 0.2983464968201E-01 -0.1665783576500E+01  0.0000000000000E+00
 0.2986422785471E-01 -0.1599921516362E+01  0.0000000000000E+00
 0.2990394198526E-01 -0.1534060632404E+01  0.0000000000000E+00
 0.2995527178026E-01 -0.1468201919478E+01  0.0000000000000E+00
 0.3001980531922E-01 -0.1402346627432E+01  0.0000000000000E+00
 0.3009904398801E-01 -0.1336496562970E+01  0.0000000000000E+00
 0.3019397762265E-01 -0.1270653446458E+01  0.0000000000000E+00
 0.3030433211240E-01 -0.1204818820222E+01  0.0000000000000E+00
 0.3042759046408E-01 -0.1138992344063E+01  0.0000000000000E+00
 0.3055837779879E-01 -0.1073171142794E+01  0.0000000000000E+00
 0.3068916520914E-01 -0.1007349941524E+01  0.0000000000000E+00
 0.3081242377782E-01 -0.9415234653661E+00  0.0000000000000E+00
 0.3092277860113E-01 -0.8756888391304E+00  0.0000000000000E+00
 0.3101771265631E-01 -0.8098457226190E+00  0.0000000000000E+00
 0.3109695180599E-01 -0.7439956581577E+00  0.0000000000000E+00
 0.3116148586553E-01 -0.6781403661116E+00  0.0000000000000E+00
 0.3121281620596E-01 -0.6122816531859E+00  0.0000000000000E+00
 0.3125253089656E-01 -0.5464207692289E+00  0.0000000000000E+00
 0.3128210963697E-01 -0.4805587090906E+00  0.0000000000000E+00
 0.5966856276630E-01 -0.1665983788628E+01  0.0000000000000E+00
 0.5972745555662E-01 -0.1600144682660E+01  0.0000000000000E+00
 0.5980662025903E-01 -0.1534306752866E+01  0.0000000000000E+00
 0.5990901628335E-01 -0.1468470994089E+01  0.0000000000000E+00
 0.6003781978316E-01 -0.1402638656205E+01  0.0000000000000E+00
 0.6019603352318E-01 -0.1336811545881E+01  0.0000000000000E+00
 0.6038563716454E-01 -0.1270991383534E+01  0.0000000000000E+00
 0.6060608247295E-01 -0.1205179711442E+01  0.0000000000000E+00
 0.6085233544670E-01 -0.1139376189450E+01  0.0000000000000E+00
 0.6111364631580E-01 -0.1073577942351E+01  0.0000000000000E+00
 0.6137495726055E-01 -0.1007779695252E+01  0.0000000000000E+00
 0.6162121045131E-01 -0.9419761732611E+00  0.0000000000000E+00
 0.6184165609327E-01 -0.8761645011696E+00  0.0000000000000E+00
 0.6203126015517E-01 -0.8103443388238E+00  0.0000000000000E+00
 0.6218947437608E-01 -0.7445172285014E+00  0.0000000000000E+00
 0.6231827839647E-01 -0.6786848906179E+00  0.0000000000000E+00
 0.6242067496623E-01 -0.6128491318409E+00  0.0000000000000E+00
 0.6249984022868E-01 -0.5470112020477E+00  0.0000000000000E+00
 0.6255873358672E-01 -0.4811720960803E+00  0.0000000000000E+00
 0.8950101084839E-01 -0.1666317437781E+01  0.0000000000000E+00
 0.8958869088479E-01 -0.1600516563438E+01  0.0000000000000E+00
 0.8970677878753E-01 -0.1534716865257E+01  0.0000000000000E+00
 0.8985971366985E-01 -0.1468919338067E+01  0.0000000000000E+00
 0.9005225975868E-01 -0.1403125231793E+01  0.0000000000000E+00
 0.9028892119845E-01 -0.1337336353041E+01  0.0000000000000E+00
 0.9057266747424E-01 -0.1271554422310E+01  0.0000000000000E+00
 0.9090267622929E-01 -0.1205780981797E+01  0.0000000000000E+00
 0.9127139645241E-01 -0.1140015691424E+01  0.0000000000000E+00
 0.9166270348301E-01 -0.1074255675949E+01  0.0000000000000E+00
 0.9205401058927E-01 -0.1008495660475E+01  0.0000000000000E+00
 0.9242273102939E-01 -0.9427303701028E+00  0.0000000000000E+00
 0.9275274011800E-01 -0.8769569295918E+00  0.0000000000000E+00
 0.9303648681432E-01 -0.8111749988621E+00  0.0000000000000E+00
 0.9327314873499E-01 -0.7453861201111E+00  0.0000000000000E+00
 0.9346569534440E-01 -0.6795920138386E+00  0.0000000000000E+00
 0.9361863077215E-01 -0.6137944866494E+00  0.0000000000000E+00
 0.9373671923494E-01 -0.5479947884691E+00  0.0000000000000E+00
 0.9382439983905E-01 -0.4821939141266E+00  0.0000000000000E+00
 0.1193312636781E+00 -0.1666784467507E+01  0.0000000000000E+00
 0.1194469416106E+00 -0.1601037064363E+01  0.0000000000000E+00
 0.1196031633639E+00 -0.1535290837365E+01  0.0000000000000E+00
 0.1198058477548E+00 -0.1469546781322E+01  0.0000000000000E+00
 0.1200613470828E+00 -0.1403806146227E+01  0.0000000000000E+00
 0.1203756668731E+00 -0.1338070738599E+01  0.0000000000000E+00
 0.1207527664332E+00 -0.1272342279054E+01  0.0000000000000E+00
 0.1211915492853E+00 -0.1206622309678E+01  0.0000000000000E+00
 0.1216819474073E+00 -0.1140910490496E+01  0.0000000000000E+00
 0.1222024612488E+00 -0.1075203946219E+01  0.0000000000000E+00
 0.1227229751660E+00 -0.1009497401943E+01  0.0000000000000E+00
 0.1232133735050E+00 -0.9437855827625E+00  0.0000000000000E+00
 0.1236521566907E+00 -0.8780656133886E+00  0.0000000000000E+00
 0.1240292566713E+00 -0.8123371538457E+00  0.0000000000000E+00
 0.1243435769425E+00 -0.7466017462192E+00  0.0000000000000E+00
 0.1245990767911E+00 -0.6808611111264E+00  0.0000000000000E+00
 0.1248017617275E+00 -0.6151170550845E+00  0.0000000000000E+00
 0.1249579840408E+00 -0.5493708280868E+00  0.0000000000000E+00
 0.1250736625410E+00 -0.4836234249434E+00  0.0000000000000E+00
 0.1491586010070E+00 -0.1667384799156E+01  0.0000000000000E+00
 0.1493012271308E+00 -0.1601706053965E+01  0.0000000000000E+00
 0.1494945330316E+00 -0.1536028484898E+01  0.0000000000000E+00
 0.1497459172305E+00 -0.1470353086742E+01  0.0000000000000E+00
 0.1500633200979E+00 -0.1404681109575E+01  0.0000000000000E+00
 0.1504542485424E+00 -0.1339014359804E+01  0.0000000000000E+00
 0.1509236516910E+00 -0.1273354558196E+01  0.0000000000000E+00
 0.1514701589477E+00 -0.1207703246693E+01  0.0000000000000E+00
 0.1520811852768E+00 -0.1142060085454E+01  0.0000000000000E+00
 0.1527298562383E+00 -0.1076422199130E+01  0.0000000000000E+00
 0.1533785272754E+00 -0.1010784312807E+01  0.0000000000000E+00
 0.1539895538216E+00 -0.9451411515694E+00  0.0000000000000E+00
 0.1545360614118E+00 -0.8794898400693E+00  0.0000000000000E+00
 0.1550054649810E+00 -0.8138300384639E+00  0.0000000000000E+00
 0.1553963939063E+00 -0.7481632886949E+00  0.0000000000000E+00
 0.1557137972944E+00 -0.6824913115305E+00  0.0000000000000E+00
 0.1559651820386E+00 -0.6168159133754E+00  0.0000000000000E+00
 0.1561584884995E+00 -0.5511383443096E+00  0.0000000000000E+00
 0.1563011151911E+00 -0.4854595991195E+00  0.0000000000000E+00
 0.1789822802759E+00 -0.1668118331470E+01  0.0000000000000E+00
 0.1791505485831E+00 -0.1602523363477E+01  0.0000000000000E+00
 0.1793796326223E+00 -0.1536929571581E+01  0.0000000000000E+00
 0.1796784106189E+00 -0.1471337950540E+01  0.0000000000000E+00
 0.1800564110131E+00 -0.1405749750540E+01  0.0000000000000E+00
 0.1805226420978E+00 -0.1340166777849E+01  0.0000000000000E+00
 0.1810830428174E+00 -0.1274590753418E+01  0.0000000000000E+00
 0.1817359684599E+00 -0.1209023219015E+01  0.0000000000000E+00
 0.1824663169740E+00 -0.1143463834961E+01  0.0000000000000E+00
 0.1832418390321E+00 -0.1077909725833E+01  0.0000000000000E+00
 0.1840173611658E+00 -0.1012355616707E+01  0.0000000000000E+00
 0.1847477098969E+00 -0.9467962326544E+00  0.0000000000000E+00
 0.1854006358730E+00 -0.8812286982545E+00  0.0000000000000E+00
 0.1859610370131E+00 -0.8156526738272E+00  0.0000000000000E+00
 0.1864272685787E+00 -0.7500697011386E+00  0.0000000000000E+00
 0.1868052694934E+00 -0.6844815011410E+00  0.0000000000000E+00
 0.1871040480356E+00 -0.6188898801021E+00  0.0000000000000E+00
 0.1873331326348E+00 -0.5532960882075E+00  0.0000000000000E+00
 0.1875014015097E+00 -0.4877011202147E+00  0.0000000000000E+00
 0.2088016021235E+00 -0.1668984942169E+01  0.0000000000000E+00
 0.2089939515364E+00 -0.1603488788624E+01  0.0000000000000E+00
 0.2092572526392E+00 -0.1537993811146E+01  0.0000000000000E+00
 0.2096018633630E+00 -0.1472501004457E+01  0.0000000000000E+00
 0.2100389002153E+00 -0.1407011618869E+01  0.0000000000000E+00
 0.2105788728772E+00 -0.1341527460488E+01  0.0000000000000E+00
 0.2112287101067E+00 -0.1276050250483E+01  0.0000000000000E+00
 0.2119864930791E+00 -0.1210581530413E+01  0.0000000000000E+00
 0.2128346027241E+00 -0.1145120960792E+01  0.0000000000000E+00
 0.2137354148261E+00 -0.1079665666113E+01  0.0000000000000E+00
 0.2146362270037E+00 -0.1014210371434E+01  0.0000000000000E+00
 0.2154843368657E+00 -0.9487498018155E+00  0.0000000000000E+00
 0.2162421201716E+00 -0.8832810817495E+00  0.0000000000000E+00
 0.2168919578216E+00 -0.8178038717479E+00  0.0000000000000E+00
 0.2174319309644E+00 -0.7523197133698E+00  0.0000000000000E+00
 0.2178689683374E+00 -0.6868303277847E+00  0.0000000000000E+00
 0.2182135796066E+00 -0.6213375210985E+00  0.0000000000000E+00
 0.2184768812695E+00 -0.5558425436214E+00  0.0000000000000E+00
 0.2186692312501E+00 -0.4903463900771E+00  0.0000000000000E+00
 0.2386158335404E+00 -0.1669984486568E+01  0.0000000000000E+00
 0.2388304532896E+00 -0.1604602088601E+01  0.0000000000000E+00
 0.2391261606856E+00 -0.1539220866665E+01  0.0000000000000E+00
 0.2395147933649E+00 -0.1473841815444E+01  0.0000000000000E+00
 0.2400090559004E+00 -0.1408466185393E+01  0.0000000000000E+00
 0.2406209593635E+00 -0.1343095782431E+01  0.0000000000000E+00
 0.2413584223218E+00 -0.1277732327977E+01  0.0000000000000E+00
 0.2422192518420E+00 -0.1212377363354E+01  0.0000000000000E+00
 0.2431833118313E+00 -0.1147030549294E+01  0.0000000000000E+00
 0.2442076031893E+00 -0.1081689010192E+01  0.0000000000000E+00
 0.2452318946228E+00 -0.1016347471091E+01  0.0000000000000E+00
 0.2461959548292E+00 -0.9510006570345E+00  0.0000000000000E+00
 0.2470567846829E+00 -0.8856456924151E+00  0.0000000000000E+00
 0.2477942480618E+00 -0.8202822379657E+00  0.0000000000000E+00
 0.2484061520058E+00 -0.7549118350073E+00  0.0000000000000E+00
 0.2489004150619E+00 -0.6895362049592E+00  0.0000000000000E+00
 0.2492890482866E+00 -0.6241571537411E+00  0.0000000000000E+00
 0.2495847562426E+00 -0.5587759318069E+00  0.0000000000000E+00
 0.2497993765596E+00 -0.4933935338409E+00  0.0000000000000E+00
 0.2684242694147E+00 -0.1671116799478E+01  0.0000000000000E+00
 0.2686591031430E+00 -0.1605862988404E+01  0.0000000000000E+00
 0.2689851604755E+00 -0.1540610353321E+01  0.0000000000000E+00
 0.2694157587553E+00 -0.1475359888869E+01  0.0000000000000E+00
 0.2699651906179E+00 -0.1410112845663E+01  0.0000000000000E+00
 0.2706469685284E+00 -0.1344871029414E+01  0.0000000000000E+00
 0.2714700008599E+00 -0.1279636161824E+01  0.0000000000000E+00
 0.2724318205741E+00 -0.1214409783944E+01  0.0000000000000E+00
 0.2735097745524E+00 -0.1149191556758E+01  0.0000000000000E+00
 0.2746554888105E+00 -0.1083978604548E+01  0.0000000000000E+00
 0.2758012031444E+00 -0.1018765652339E+01  0.0000000000000E+00
 0.2768791573396E+00 -0.9535474251570E+00  0.0000000000000E+00
 0.2778409773874E+00 -0.8883210472817E+00  0.0000000000000E+00
 0.2786640101394E+00 -0.8230861796958E+00  0.0000000000000E+00
 0.2793457885309E+00 -0.7578443634509E+00  0.0000000000000E+00
 0.2798952209140E+00 -0.6925973202491E+00  0.0000000000000E+00
 0.2803258197392E+00 -0.6273468557994E+00  0.0000000000000E+00
 0.2806518776318E+00 -0.5620942207181E+00  0.0000000000000E+00
 0.2808867119278E+00 -0.4968404096451E+00  0.0000000000000E+00
 0.2982262162405E+00 -0.1672381695408E+01  0.0000000000000E+00
 0.2984789668060E+00 -0.1607271179427E+01  0.0000000000000E+00
 0.2988330769373E+00 -0.1542161839391E+01  0.0000000000000E+00
 0.2993033436852E+00 -0.1477054669892E+01  0.0000000000000E+00
 0.2999056477456E+00 -0.1411950921727E+01  0.0000000000000E+00
 0.3006550029816E+00 -0.1346852400370E+01  0.0000000000000E+00
 0.3015613075666E+00 -0.1281760827839E+01  0.0000000000000E+00
 0.3026218203629E+00 -0.1216677744886E+01  0.0000000000000E+00
 0.3038113712198E+00 -0.1151602812772E+01  0.0000000000000E+00
 0.3050762112702E+00 -0.1086533155653E+01  0.0000000000000E+00
 0.3063410513962E+00 -0.1021463498536E+01  0.0000000000000E+00
 0.3075306024701E+00 -0.9563885664261E+00  0.0000000000000E+00
 0.3085911155999E+00 -0.8913054834775E+00  0.0000000000000E+00
 0.3094974206055E+00 -0.8262139109515E+00  0.0000000000000E+00
 0.3102467763224E+00 -0.7611153895993E+00  0.0000000000000E+00
 0.3108490809033E+00 -0.6960116414382E+00  0.0000000000000E+00
 0.3113193481967E+00 -0.6309044719423E+00  0.0000000000000E+00
 0.3116734588881E+00 -0.5657951319091E+00  0.0000000000000E+00
 0.3119262100213E+00 -0.5006846159287E+00  0.0000000000000E+00
 0.3280209425970E+00 -0.1673778966920E+01  0.0000000000000E+00
 0.3282890794610E+00 -0.1608826318313E+01  0.0000000000000E+00
 0.3286687118504E+00 -0.1543874845604E+01  0.0000000000000E+00
 0.3291761165241E+00 -0.1478925543327E+01  0.0000000000000E+00
 0.3298287622345E+00 -0.1413979662479E+01  0.0000000000000E+00
 0.3306431642467E+00 -0.1349039008277E+01  0.0000000000000E+00
 0.3316302105286E+00 -0.1284105303084E+01  0.0000000000000E+00
 0.3327868858481E+00 -0.1219180087322E+01  0.0000000000000E+00
 0.3340855030187E+00 -0.1154263022560E+01  0.0000000000000E+00
 0.3354669382939E+00 -0.1089351232816E+01  0.0000000000000E+00
 0.3368483736447E+00 -0.1024439443074E+01  0.0000000000000E+00
 0.3381469910323E+00 -0.9595223783156E+00  0.0000000000000E+00
 0.3393036666853E+00 -0.8945971625594E+00  0.0000000000000E+00
 0.3402907133878E+00 -0.8296634573724E+00  0.0000000000000E+00
 0.3411051158809E+00 -0.7647228031751E+00  0.0000000000000E+00
 0.3417577621119E+00 -0.6997769223317E+00  0.0000000000000E+00
 0.3422651673310E+00 -0.6348276200581E+00  0.0000000000000E+00
 0.3426448002805E+00 -0.5698761473508E+00  0.0000000000000E+00
 0.3429129377122E+00 -0.5049234987456E+00  0.0000000000000E+00
 0.3578077951490E+00 -0.1675308389770E+01  0.0000000000000E+00
 0.3580885561653E+00 -0.1610528032351E+01  0.0000000000000E+00
 0.3584909486692E+00 -0.1545748850774E+01  0.0000000000000E+00
 0.3590327291289E+00 -0.1480971839517E+01  0.0000000000000E+00
 0.3597329543503E+00 -0.1416198249793E+01  0.0000000000000E+00
 0.3606096410050E+00 -0.1351429886536E+01  0.0000000000000E+00
 0.3616746668497E+00 -0.1286668472490E+01  0.0000000000000E+00
 0.3629247425635E+00 -0.1221915547716E+01  0.0000000000000E+00
 0.3643296639184E+00 -0.1157170774115E+01  0.0000000000000E+00
 0.3658249322898E+00 -0.1092431275557E+01  0.0000000000000E+00
 0.3673202007369E+00 -0.1027691777001E+01  0.0000000000000E+00
 0.3687251223088E+00 -0.9629470034044E+00  0.0000000000000E+00
 0.3699751983561E+00 -0.8981940786356E+00  0.0000000000000E+00
 0.3710402246213E+00 -0.8334326645960E+00  0.0000000000000E+00
 0.3719169117570E+00 -0.7686643013451E+00  0.0000000000000E+00
 0.3726171374990E+00 -0.7038907116260E+00  0.0000000000000E+00
 0.3731589185041E+00 -0.6391137003723E+00  0.0000000000000E+00
 0.3735613115680E+00 -0.5743345187982E+00  0.0000000000000E+00
 0.3738420731521E+00 -0.5095541613797E+00  0.0000000000000E+00
 0.3875860607136E+00 -0.1676969718067E+01  0.0000000000000E+00
 0.3878764645286E+00 -0.1612375915917E+01  0.0000000000000E+00
 0.3882986357959E+00 -0.1547783289551E+01  0.0000000000000E+00
 0.3888718106944E+00 -0.1483192833383E+01  0.0000000000000E+00
 0.3896166340798E+00 -0.1418605798860E+01  0.0000000000000E+00
 0.3905526240356E+00 -0.1354023990612E+01  0.0000000000000E+00
 0.3916926481006E+00 -0.1289449131793E+01  0.0000000000000E+00
 0.3930331428715E+00 -0.1224882762071E+01  0.0000000000000E+00
 0.3945413870725E+00 -0.1160324543713E+01  0.0000000000000E+00
 0.3961475072028E+00 -0.1095771600424E+01  0.0000000000000E+00
 0.3977536274088E+00 -0.1031218657136E+01  0.0000000000000E+00
 0.3992618718269E+00 -0.9666604387825E+00  0.0000000000000E+00
 0.4006023669313E+00 -0.9020940690673E+00  0.0000000000000E+00
 0.4017423914168E+00 -0.8375192102545E+00  0.0000000000000E+00
 0.4026783818535E+00 -0.7729374020130E+00  0.0000000000000E+00
 0.4034232057596E+00 -0.7083503674957E+00  0.0000000000000E+00
 0.4039963812035E+00 -0.6437599113309E+00  0.0000000000000E+00
 0.4044185530308E+00 -0.5791672849682E+00  0.0000000000000E+00
 0.4047089574136E+00 -0.5145734828194E+00  0.0000000000000E+00
 0.4173550733497E+00 -0.1678762688782E+01  0.0000000000000E+00
 0.4176519204570E+00 -0.1614369534370E+01  0.0000000000000E+00
 0.4180906709789E+00 -0.1549977555680E+01  0.0000000000000E+00
 0.4186920408057E+00 -0.1485587747055E+01  0.0000000000000E+00
 0.4194782628384E+00 -0.1421201360198E+01  0.0000000000000E+00
 0.4204703565771E+00 -0.1356820199408E+01  0.0000000000000E+00
 0.4216821793354E+00 -0.1292445988280E+01  0.0000000000000E+00
 0.4231098936343E+00 -0.1228080266064E+01  0.0000000000000E+00
 0.4247182611449E+00 -0.1163722695415E+01  0.0000000000000E+00
 0.4264320334947E+00 -0.1099370399863E+01  0.0000000000000E+00
 0.4281458059202E+00 -0.1035018104312E+01  0.0000000000000E+00
 0.4297541736479E+00 -0.9706605336683E+00  0.0000000000000E+00
 0.4311818882803E+00 -0.9062948114591E+00  0.0000000000000E+00
 0.4323937114591E+00 -0.8419206003386E+00  0.0000000000000E+00
 0.4333858056787E+00 -0.7775394395554E+00  0.0000000000000E+00
 0.4341720282321E+00 -0.7131530527035E+00  0.0000000000000E+00
 0.4347733986043E+00 -0.6487632440825E+00  0.0000000000000E+00
 0.4352121496862E+00 -0.5843712653956E+00  0.0000000000000E+00
 0.4355089973612E+00 -0.5199781109850E+00  0.0000000000000E+00
 0.4471141841628E+00 -0.1680687022310E+01  0.0000000000000E+00
 0.4474140681448E+00 -0.1616508426641E+01  0.0000000000000E+00
 0.4478659915118E+00 -0.1552331006628E+01  0.0000000000000E+00
 0.4484921498675E+00 -0.1488155756537E+01  0.0000000000000E+00
 0.4493163641549E+00 -0.1423983928345E+01  0.0000000000000E+00
 0.4503611552972E+00 -0.1359817325998E+01  0.0000000000000E+00
 0.4516413703761E+00 -0.1295657673564E+01  0.0000000000000E+00
 0.4531528978439E+00 -0.1231506509842E+01  0.0000000000000E+00
 0.4548579823102E+00 -0.1167363497905E+01  0.0000000000000E+00
 0.4566760005302E+00 -0.1103225761095E+01  0.0000000000000E+00
 0.4584940188258E+00 -0.1039088024287E+01  0.0000000000000E+00
 0.4601991035092E+00 -0.9749450123550E+00  0.0000000000000E+00
 0.4617106313106E+00 -0.9107938486407E+00  0.0000000000000E+00
 0.4629908468100E+00 -0.8466341962143E+00  0.0000000000000E+00
 0.4640356384332E+00 -0.7824675938748E+00  0.0000000000000E+00
 0.4648598532412E+00 -0.7182957656882E+00  0.0000000000000E+00
 0.4654860121423E+00 -0.6541205156026E+00  0.0000000000000E+00
 0.4659379360693E+00 -0.5899430955919E+00  0.0000000000000E+00
 0.4662378206191E+00 -0.5257644999245E+00  0.0000000000000E+00
 0.4768626808375E+00 -0.1682742416794E+01  0.0000000000000E+00
 0.4771619935814E+00 -0.1618792098491E+01  0.0000000000000E+00
 0.4776234816665E+00 -0.1554842955773E+01  0.0000000000000E+00
 0.4782708204089E+00 -0.1490895982827E+01  0.0000000000000E+00
 0.4791294187871E+00 -0.1426952431917E+01  0.0000000000000E+00
 0.4802232991507E+00 -0.1363014106618E+01  0.0000000000000E+00
 0.4815682983403E+00 -0.1299082731497E+01  0.0000000000000E+00
 0.4831600307474E+00 -0.1235159844877E+01  0.0000000000000E+00
 0.4849582239168E+00 -0.1171245110272E+01  0.0000000000000E+00
 0.4868768797426E+00 -0.1107335650828E+01  0.0000000000000E+00
 0.4887955356439E+00 -0.1043426191385E+01  0.0000000000000E+00
 0.4905937290304E+00 -0.9795114567866E+00  0.0000000000000E+00
 0.4921854617710E+00 -0.9155885701742E+00  0.0000000000000E+00
 0.4935304613811E+00 -0.8516571950617E+00  0.0000000000000E+00
 0.4946243422257E+00 -0.7877188697700E+00  0.0000000000000E+00
 0.4954829411245E+00 -0.7237753188667E+00  0.0000000000000E+00
 0.4961302804124E+00 -0.6598283459261E+00  0.0000000000000E+00
 0.4965917690575E+00 -0.5958792032105E+00  0.0000000000000E+00
 0.4968910823691E+00 -0.5319288849093E+00  0.0000000000000E+00
 0.5065999773523E+00 -0.1684928562411E+01  0.0000000000000E+00
 0.5068949207371E+00 -0.1621220040089E+01  0.0000000000000E+00
 0.5073621754349E+00 -0.1557512693277E+01  0.0000000000000E+00
 0.5080268964777E+00 -0.1493807516079E+01  0.0000000000000E+00
 0.5089160808768E+00 -0.1430105761064E+01  0.0000000000000E+00
 0.5100552524167E+00 -0.1366409231408E+01  0.0000000000000E+00
 0.5114612376898E+00 -0.1302719652214E+01  0.0000000000000E+00
 0.5131293770345E+00 -0.1239038561295E+01  0.0000000000000E+00
 0.5150168809198E+00 -0.1175365622638E+01  0.0000000000000E+00
 0.5170323763743E+00 -0.1111697959174E+01  0.0000000000000E+00
 0.5190478719044E+00 -0.1048030295713E+01  0.0000000000000E+00
 0.5209353760067E+00 -0.9843573570614E+00  0.0000000000000E+00
 0.5226035156849E+00 -0.9206762661513E+00  0.0000000000000E+00
 0.5240095013785E+00 -0.8569866869656E+00  0.0000000000000E+00
 0.5251486733994E+00 -0.7932901573186E+00  0.0000000000000E+00
 0.5260378583190E+00 -0.7295884023095E+00  0.0000000000000E+00
 0.5267025799074E+00 -0.6658832251168E+00  0.0000000000000E+00
 0.5271698351652E+00 -0.6021758783080E+00  0.0000000000000E+00
 0.5274647791177E+00 -0.5384673559889E+00  0.0000000000000E+00
 0.5363253937430E+00 -0.1687245126228E+01  0.0000000000000E+00
 0.5366119860150E+00 -0.1623791708789E+01  0.0000000000000E+00
 0.5370810255763E+00 -0.1560339466780E+01  0.0000000000000E+00
 0.5377591471768E+00 -0.1496889394217E+01  0.0000000000000E+00
 0.5386749358556E+00 -0.1433442743990E+01  0.0000000000000E+00
 0.5398554168395E+00 -0.1370001318861E+01  0.0000000000000E+00
 0.5413184064642E+00 -0.1306566844490E+01  0.0000000000000E+00
 0.5430589710231E+00 -0.1243140858158E+01  0.0000000000000E+00
 0.5450318039010E+00 -0.1179723024346E+01  0.0000000000000E+00
 0.5471401572628E+00 -0.1116310465763E+01  0.0000000000000E+00
 0.5492485107003E+00 -0.1052897907183E+01  0.0000000000000E+00
 0.5512213437952E+00 -0.9894800733776E+00  0.0000000000000E+00
 0.5529619086877E+00 -0.9260540870546E+00  0.0000000000000E+00
 0.5544248987329E+00 -0.8626196126929E+00  0.0000000000000E+00
 0.5556053801978E+00 -0.7991781875723E+00  0.0000000000000E+00
 0.5565211693972E+00 -0.7357315373529E+00  0.0000000000000E+00
 0.5571992915431E+00 -0.6722814647954E+00  0.0000000000000E+00
 0.5576683316644E+00 -0.6088292227895E+00  0.0000000000000E+00
 0.5579549245041E+00 -0.5453758053527E+00  0.0000000000000E+00
 0.5660383036526E+00 -0.1689691762168E+01  0.0000000000000E+00
 0.5663123811983E+00 -0.1626506539575E+01  0.0000000000000E+00
 0.5667790419974E+00 -0.1563322492327E+01  0.0000000000000E+00
 0.5674664005168E+00 -0.1500140614350E+01  0.0000000000000E+00
 0.5684046298164E+00 -0.1436962158871E+01  0.0000000000000E+00
 0.5696222565698E+00 -0.1373788928213E+01  0.0000000000000E+00
 0.5711380868456E+00 -0.1310622648626E+01  0.0000000000000E+00
 0.5729469129013E+00 -0.1247464856829E+01  0.0000000000000E+00
 0.5750009110328E+00 -0.1184315217823E+01  0.0000000000000E+00
 0.5771979585521E+00 -0.1121170854085E+01  0.0000000000000E+00
 0.5793950061471E+00 -0.1058026490350E+01  0.0000000000000E+00
 0.5814490044956E+00 -0.9948768513511E+00  0.0000000000000E+00
 0.5832578308849E+00 -0.9317190595634E+00  0.0000000000000E+00
 0.5847736615812E+00 -0.8685527799859E+00  0.0000000000000E+00
 0.5859912888156E+00 -0.8053795493368E+00  0.0000000000000E+00
 0.5869295186357E+00 -0.7422010938657E+00  0.0000000000000E+00
 0.5876168777006E+00 -0.6790192158940E+00  0.0000000000000E+00
 0.5880835390597E+00 -0.6158351686501E+00  0.0000000000000E+00
 0.5883576171732E+00 -0.5526499460589E+00  0.0000000000000E+00
-0.1182610616184E+01 -0.1709938151910E+01  0.0000000000000E+00
-0.1206840600949E+01 -0.1599271303952E+01  0.0000000000000E+00
-0.1234987980858E+01 -0.1489562273115E+01  0.0000000000000E+00
-0.1268147886288E+01 -0.1381306365269E+01  0.0000000000000E+00
-0.1307801009883E+01 -0.1275324724782E+01  0.0000000000000E+00
-0.1353020462603E+01 -0.1171637126831E+01  0.0000000000000E+00
-0.1397268459649E+01 -0.1067515066351E+01  0.0000000000000E+00
-0.1437122473078E+01 -0.9615813592161E+00  0.0000000000000E+00
-0.1472550192246E+01 -0.8540374650362E+00  0.0000000000000E+00
-0.1503921191345E+01 -0.7452053677059E+00  0.0000000000000E+00
-0.1531272791497E+01 -0.6352674555980E+00  0.0000000000000E+00
-0.1554282707568E+01 -0.5243175831196E+00  0.0000000000000E+00
-0.1572939532414E+01 -0.4125357734460E+00  0.0000000000000E+00
-0.1586992041029E+01 -0.3000702231276E+00  0.0000000000000E+00
-0.1595657715404E+01 -0.1870553481994E+00  0.0000000000000E+00
-0.1598364296081E+01 -0.7373369945448E-01  0.0000000000000E+00
-0.1596500729268E+01  0.3959193470411E-01  0.0000000000000E+00
-0.1576465557885E+01  0.1508144777421E+00  0.0000000000000E+00
-0.1525097607493E+01  0.2508838507572E+00  0.0000000000000E+00
-0.1151849224518E+01 -0.1708018429854E+01  0.0000000000000E+00
-0.1174810817950E+01 -0.1599917521458E+01  0.0000000000000E+00
-0.1201494297363E+01 -0.1492724079797E+01  0.0000000000000E+00
-0.1232938712419E+01 -0.1386907393241E+01  0.0000000000000E+00
-0.1270548496269E+01 -0.1283245453469E+01  0.0000000000000E+00
-0.1313447122937E+01 -0.1181757097507E+01  0.0000000000000E+00
-0.1355441944237E+01 -0.1079857510625E+01  0.0000000000000E+00
-0.1393290276807E+01 -0.9762420726324E+00  0.0000000000000E+00
-0.1426958860821E+01 -0.8711016241228E+00  0.0000000000000E+00
-0.1456792161492E+01 -0.7647410505408E+00  0.0000000000000E+00
-0.1482817610549E+01 -0.6573328628486E+00  0.0000000000000E+00
-0.1504721960076E+01 -0.5489656979899E+00  0.0000000000000E+00
-0.1522488745507E+01 -0.4398099530286E+00  0.0000000000000E+00
-0.1535877314757E+01 -0.3300060065687E+00  0.0000000000000E+00
-0.1544146046571E+01 -0.2196812801132E+00  0.0000000000000E+00
-0.1546753842042E+01 -0.1090656515018E+00  0.0000000000000E+00
-0.1545018125930E+01  0.1553936656996E-02  0.0000000000000E+00
-0.1526054989336E+01  0.1101813215066E+00  0.0000000000000E+00
-0.1477397507004E+01  0.2082426775406E+00  0.0000000000000E+00
-0.1121071481666E+01 -0.1706207396943E+01  0.0000000000000E+00
-0.1142765544784E+01 -0.1600666705050E+01  0.0000000000000E+00
-0.1167985984722E+01 -0.1495983129601E+01  0.0000000000000E+00
-0.1197715770410E+01 -0.1392599941581E+01  0.0000000000000E+00
-0.1233283075506E+01 -0.1291251980047E+01  0.0000000000000E+00
-0.1273861737223E+01 -0.1191957143015E+01  0.0000000000000E+00
-0.1313604243862E+01 -0.1092274306747E+01  0.0000000000000E+00
-0.1349447756621E+01 -0.9909714150146E+00  0.0000000000000E+00
-0.1381358066526E+01 -0.8882286892072E+00  0.0000000000000E+00
-0.1409654529800E+01 -0.7843339163719E+00  0.0000000000000E+00
-0.1434354688775E+01 -0.6794497301018E+00  0.0000000000000E+00
-0.1455154332752E+01 -0.5736595498896E+00  0.0000000000000E+00
-0.1472031939748E+01 -0.4671241466607E+00  0.0000000000000E+00
-0.1484757430585E+01 -0.3599760811308E+00  0.0000000000000E+00
-0.1492630080751E+01 -0.2523357803654E+00  0.0000000000000E+00
-0.1495139951914E+01 -0.1444204490327E+00  0.0000000000000E+00
-0.1493532947327E+01 -0.3650118443096E-01  0.0000000000000E+00
-0.1475642704875E+01  0.6953675537040E-01  0.0000000000000E+00
-0.1429696548673E+01  0.1655957997913E+00  0.0000000000000E+00
-0.1090277778680E+01 -0.1704505302474E+01  0.0000000000000E+00
-0.1110705151904E+01 -0.1601519090901E+01  0.0000000000000E+00
-0.1134463392784E+01 -0.1499339645572E+01  0.0000000000000E+00
-0.1162479389508E+01 -0.1398384220211E+01  0.0000000000000E+00
-0.1196005056235E+01 -0.1299344501311E+01  0.0000000000000E+00
-0.1234264593488E+01 -0.1202237447020E+01  0.0000000000000E+00
-0.1271755625938E+01 -0.1104765625254E+01  0.0000000000000E+00
-0.1305595159327E+01 -0.1005769543773E+01  0.0000000000000E+00
-0.1335748035559E+01 -0.9054188045732E+00  0.0000000000000E+00
-0.1362508501866E+01 -0.8039840963573E+00  0.0000000000000E+00
-0.1385884211173E+01 -0.7016181753908E+00  0.0000000000000E+00
-0.1405579989997E+01 -0.5983992437282E+00  0.0000000000000E+00
-0.1421569258942E+01 -0.4944784461285E+00  0.0000000000000E+00
-0.1433632511731E+01 -0.3899805254777E+00  0.0000000000000E+00
-0.1441109920573E+01 -0.2850189144976E+00  0.0000000000000E+00
-0.1443522707747E+01 -0.1797981444669E+00  0.0000000000000E+00
-0.1442045254927E+01 -0.7457346785855E-01  0.0000000000000E+00
-0.1425228745440E+01  0.2888075313570E-01  0.0000000000000E+00
-0.1381994752957E+01  0.1229432044031E+00  0.0000000000000E+00
-0.1059468488513E+01 -0.1702912387231E+01  0.0000000000000E+00
-0.1078629992469E+01 -0.1602474907163E+01  0.0000000000000E+00
-0.1100926854868E+01 -0.1502793843219E+01  0.0000000000000E+00
-0.1127229883123E+01 -0.1404260431974E+01  0.0000000000000E+00
-0.1158714731872E+01 -0.1307523207410E+01  0.0000000000000E+00
-0.1194655965084E+01 -0.1212598186943E+01  0.0000000000000E+00
-0.1229896343770E+01 -0.1117331630845E+01  0.0000000000000E+00
-0.1261732718247E+01 -0.1020636610909E+01  0.0000000000000E+00
-0.1290128981326E+01 -0.9226721095494E+00  0.0000000000000E+00
-0.1315354271230E+01 -0.8236917171689E+00  0.0000000000000E+00
-0.1337406351476E+01 -0.7238383127460E+00  0.0000000000000E+00
-0.1355999085795E+01 -0.6231848809079E+00  0.0000000000000E+00
-0.1371100837377E+01 -0.5218729402175E+00  0.0000000000000E+00
-0.1382502672845E+01 -0.4200194157871E+00  0.0000000000000E+00
-0.1389585661121E+01 -0.3177307460877E+00  0.0000000000000E+00
-0.1391902185134E+01 -0.2151987887865E+00  0.0000000000000E+00
-0.1390555104895E+01 -0.1126629520127E+00  0.0000000000000E+00
-0.1374813148038E+01 -0.1178671098245E-01  0.0000000000000E+00
-0.1334292138156E+01  0.8028487832643E-01  0.0000000000000E+00
-0.1028644031902E+01 -0.1701428892511E+01  0.0000000000000E+00
-0.1046540465220E+01 -0.1603534382381E+01  0.0000000000000E+00
-0.1067376747767E+01 -0.1506345938346E+01  0.0000000000000E+00
-0.1091967606169E+01 -0.1410228779957E+01  0.0000000000000E+00
-0.1121412435542E+01 -0.1315788288743E+01  0.0000000000000E+00
-0.1155036163413E+01 -0.1223039540529E+01  0.0000000000000E+00
-0.1188026687019E+01 -0.1129972488601E+01  0.0000000000000E+00
-0.1217860701239E+01 -0.1035572768820E+01  0.0000000000000E+00
-0.1244501149814E+01 -0.9399887438216E+00  0.0000000000000E+00
-0.1268192061956E+01 -0.8434569057652E+00  0.0000000000000E+00
-0.1288921311765E+01 -0.7461102563833E+00  0.0000000000000E+00
-0.1306411800184E+01 -0.6480165628883E+00  0.0000000000000E+00
-0.1320626833000E+01 -0.5493077176197E+00  0.0000000000000E+00
-0.1331368049718E+01 -0.4500928279743E+00  0.0000000000000E+00
-0.1338057415963E+01 -0.3504713382674E+00  0.0000000000000E+00
-0.1340278475341E+01 -0.2506224323349E+00  0.0000000000000E+00
-0.1339062566136E+01 -0.1507696744498E+00  0.0000000000000E+00
-0.1324395959008E+01 -0.5246566180157E-01  0.0000000000000E+00
-0.1286588727643E+01  0.3762080931293E-01  0.0000000000000E+00
-0.9978048091164E+00 -0.1700055050454E+01  0.0000000000000E+00
-0.1014436949344E+01 -0.1604697736472E+01  0.0000000000000E+00
-0.1033813429585E+01 -0.1509996138651E+01  0.0000000000000E+00
-0.1056692895666E+01 -0.1416289459633E+01  0.0000000000000E+00
-0.1084098483174E+01 -0.1324139928563E+01  0.0000000000000E+00
-0.1115405483312E+01 -0.1233561678802E+01  0.0000000000000E+00
-0.1146146929431E+01 -0.1142688357325E+01  0.0000000000000E+00
-0.1173979360959E+01 -0.1050578164083E+01  0.0000000000000E+00
-0.1198864772593E+01 -0.9573688417442E+00  0.0000000000000E+00
-0.1221022084529E+01 -0.8632797842780E+00  0.0000000000000E+00
-0.1240429281443E+01 -0.7684341162128E+00  0.0000000000000E+00
-0.1256818301491E+01 -0.6728943873585E+00  0.0000000000000E+00
-0.1270147393055E+01 -0.5767828638030E+00  0.0000000000000E+00
-0.1280228768520E+01 -0.4802008352871E+00  0.0000000000000E+00
-0.1286525290197E+01 -0.3832407520642E+00  0.0000000000000E+00
-0.1288651662395E+01 -0.2860691239199E+00  0.0000000000000E+00
-0.1287567701612E+01 -0.1888936717586E+00  0.0000000000000E+00
-0.1273977220288E+01 -0.9315612371048E-01  0.0000000000000E+00
-0.1238884542376E+01 -0.5049014836916E-02  0.0000000000000E+00
-0.9669512233292E+00 -0.1698791087330E+01  0.0000000000000E+00
-0.9823198267800E+00 -0.1605965183794E+01  0.0000000000000E+00
-0.1000237261024E+01 -0.1513744646577E+01  0.0000000000000E+00
-0.1021406091078E+01 -0.1422442661535E+01  0.0000000000000E+00
-0.1046773192995E+01 -0.1332578305487E+01  0.0000000000000E+00
-0.1075764221763E+01 -0.1244164768467E+01  0.0000000000000E+00
-0.1104257346747E+01 -0.1155479391803E+01  0.0000000000000E+00
-0.1130088951907E+01 -0.1065652939568E+01  0.0000000000000E+00
-0.1153220082925E+01 -0.9748125342746E+00  0.0000000000000E+00
-0.1173844550973E+01 -0.8831604717515E+00  0.0000000000000E+00
-0.1191930451300E+01 -0.7908099993657E+00  0.0000000000000E+00
-0.1207218759270E+01 -0.6978184495369E+00  0.0000000000000E+00
-0.1219662665868E+01 -0.6042984620743E+00  0.0000000000000E+00
-0.1229084956349E+01 -0.5103435091204E+00  0.0000000000000E+00
-0.1234989389694E+01 -0.4160390469624E+00  0.0000000000000E+00
-0.1237021830944E+01 -0.3215389111147E+00  0.0000000000000E+00
-0.1236070574753E+01 -0.2270349796020E+00  0.0000000000000E+00
-0.1223556974129E+01 -0.1338581204802E+00  0.0000000000000E+00
-0.1191179603475E+01 -0.4772460601326E-01  0.0000000000000E+00
-0.9360836724979E+00 -0.1697637222502E+01  0.0000000000000E+00
-0.9501894744693E+00 -0.1607336932178E+01  0.0000000000000E+00
-0.9666485979921E+00 -0.1517591658418E+01  0.0000000000000E+00
-0.9861075272542E+00 -0.1428688570411E+01  0.0000000000000E+00
-0.1009436878761E+01 -0.1341103592706E+01  0.0000000000000E+00
-0.1036112671401E+01 -0.1254848971143E+01  0.0000000000000E+00
-0.1062358210486E+01 -0.1168345742088E+01  0.0000000000000E+00
-0.1086189724515E+01 -0.1080797233774E+01  0.0000000000000E+00
-0.1107567310176E+01 -0.9923199483614E+00  0.0000000000000E+00
-0.1126659669612E+01 -0.9030990835921E+00  0.0000000000000E+00
-0.1143425008638E+01 -0.8132380097123E+00  0.0000000000000E+00
-0.1157613339827E+01 -0.7227888417635E+00  0.0000000000000E+00
-0.1169172796767E+01 -0.6318545932468E+00  0.0000000000000E+00
-0.1177936737578E+01 -0.5405209187650E+00  0.0000000000000E+00
-0.1183449817901E+01 -0.4488662807332E+00  0.0000000000000E+00
-0.1185389063541E+01 -0.3570318401726E+00  0.0000000000000E+00
-0.1184571247236E+01 -0.2651936327164E+00  0.0000000000000E+00
-0.1173135261469E+01 -0.1745716753379E+00  0.0000000000000E+00
-0.1143473931327E+01 -0.9040597589074E-01  0.0000000000000E+00
-0.9052025656608E+00 -0.1696593670407E+01  0.0000000000000E+00
-0.9180462799102E+00 -0.1608813184770E+01  0.0000000000000E+00
-0.9330478064465E+00 -0.1521537366029E+01  0.0000000000000E+00
-0.9507975486092E+00 -0.1435027366826E+01  0.0000000000000E+00
-0.9720898633460E+00 -0.1349715959497E+01  0.0000000000000E+00
-0.9964511335561E+00 -0.1265614444814E+01  0.0000000000000E+00
-0.1020449800433E+01 -0.1181287554874E+01  0.0000000000000E+00
-0.1042281937024E+01 -0.1096011182100E+01  0.0000000000000E+00
-0.1061906691047E+01 -0.1009891208114E+01  0.0000000000000E+00
-0.1079467655605E+01 -0.9230957326186E+00  0.0000000000000E+00
-0.1094913147077E+01 -0.8357182487808E+00  0.0000000000000E+00
-0.1108002215241E+01 -0.7478056542760E+00  0.0000000000000E+00
-0.1118677936293E+01 -0.6594513362685E+00  0.0000000000000E+00
-0.1126784241210E+01 -0.5707331318790E+00  0.0000000000000E+00
-0.1131906682287E+01 -0.4817225097452E+00  0.0000000000000E+00
-0.1133753446117E+01 -0.3925479561725E+00  0.0000000000000E+00
-0.1133069783463E+01 -0.3033696648919E+00  0.0000000000000E+00
-0.1122712125213E+01 -0.2152968108032E+00  0.0000000000000E+00
-0.1095767547380E+01 -0.1330931357309E+00  0.0000000000000E+00
-0.8743083235843E+00 -0.1695660640404E+01  0.0000000000000E+00
-0.8858906417741E+00 -0.1610394139888E+01  0.0000000000000E+00
-0.8994352629835E+00 -0.1525581956693E+01  0.0000000000000E+00
-0.9154765096915E+00 -0.1441459227032E+01  0.0000000000000E+00
-0.9347324792844E+00 -0.1358415571095E+01  0.0000000000000E+00
-0.9567799187723E+00 -0.1276461343713E+01  0.0000000000000E+00
-0.9785324051374E+00 -0.1194304973383E+01  0.0000000000000E+00
-0.9983658559628E+00 -0.1111294916756E+01  0.0000000000000E+00
-0.1016238470020E+01 -0.1027526434715E+01  0.0000000000000E+00
-0.1032268731369E+01 -0.9431505289813E+00  0.0000000000000E+00
-0.1046395066944E+01 -0.8582508156835E+00  0.0000000000000E+00
-0.1058385563728E+01 -0.7728689751435E+00  0.0000000000000E+00
-0.1068178240529E+01 -0.6870887681605E+00  0.0000000000000E+00
-0.1075627601174E+01 -0.6009802144323E+00  0.0000000000000E+00
-0.1080360094597E+01 -0.5146077889146E+00  0.0000000000000E+00
-0.1082115068208E+01 -0.4280873029753E+00  0.0000000000000E+00
-0.1081566250735E+01 -0.3415631089346E+00  0.0000000000000E+00
-0.1072287610372E+01 -0.2560335486556E+00  0.0000000000000E+00
-0.1048060474216E+01 -0.1757860963612E+00  0.0000000000000E+00
-0.8434013602891E+00 -0.1694838334539E+01  0.0000000000000E+00
-0.8537229522776E+00 -0.1612079988939E+01  0.0000000000000E+00
-0.8658113380143E+00 -0.1529725611177E+01  0.0000000000000E+00
-0.8801447591061E+00 -0.1447984321162E+01  0.0000000000000E+00
-0.8973650533733E+00 -0.1367202586994E+01  0.0000000000000E+00
-0.9170993320358E+00 -0.1287389816692E+01  0.0000000000000E+00
-0.9366063077746E+00 -0.1207398135830E+01  0.0000000000000E+00
-0.9544417426990E+00 -0.1126648565315E+01  0.0000000000000E+00
-0.9705628866563E+00 -0.1045225745102E+01  0.0000000000000E+00
-0.9850631146560E+00 -0.9632635789787E+00  0.0000000000000E+00
-0.9978709641868E+00 -0.8808358060813E+00  0.0000000000000E+00
-0.1008763559434E+01 -0.7979788893896E+00  0.0000000000000E+00
-0.1017673861820E+01 -0.7147669633096E+00  0.0000000000000E+00
-0.1024466948015E+01 -0.6312622301750E+00  0.0000000000000E+00
-0.1028810163580E+01 -0.5475221713554E+00  0.0000000000000E+00
-0.1030474016764E+01 -0.4636499230587E+00  0.0000000000000E+00
-0.1030060714210E+01 -0.3797739966868E+00  0.0000000000000E+00
-0.1021861760353E+01 -0.2967819101190E+00  0.0000000000000E+00
-0.1000352733534E+01 -0.2184848683968E+00  0.0000000000000E+00
-0.8124820923393E+00 -0.1694126948634E+01  0.0000000000000E+00
-0.8215436060466E+00 -0.1613870917436E+01  0.0000000000000E+00
-0.8321764042262E+00 -0.1533968504685E+01  0.0000000000000E+00
-0.8448026476007E+00 -0.1454602814107E+01  0.0000000000000E+00
-0.8599879144201E+00 -0.1376077161776E+01  0.0000000000000E+00
-0.8774096802096E+00 -0.1298400008021E+01  0.0000000000000E+00
-0.8946717932639E+00 -0.1220567176174E+01  0.0000000000000E+00
-0.9105098602098E+00 -0.1142072251424E+01  0.0000000000000E+00
-0.9248801819917E+00 -0.1062989252608E+01  0.0000000000000E+00
-0.9378510245649E+00 -0.9834349856361E+00  0.0000000000000E+00
-0.9493410359662E+00 -0.9034733126893E+00  0.0000000000000E+00
-0.9591363775820E+00 -0.8231354794195E+00  0.0000000000000E+00
-0.9671649534541E+00 -0.7424859938115E+00  0.0000000000000E+00
-0.9733024130866E+00 -0.6615792408938E+00  0.0000000000000E+00
-0.9772569986568E+00 -0.5804657085455E+00  0.0000000000000E+00
-0.9788303792791E+00 -0.4992358575917E+00  0.0000000000000E+00
-0.9785532394554E+00 -0.4180023590096E+00  0.0000000000000E+00
-0.9714346188367E+00 -0.3375419157624E+00  0.0000000000000E+00
-0.9526443471667E+00 -0.2611894621254E+00  0.0000000000000E+00
-0.7815509360540E+00 -0.1693526671952E+01  0.0000000000000E+00
-0.7893529974569E+00 -0.1615767104683E+01  0.0000000000000E+00
-0.7985308340446E+00 -0.1538310806561E+01  0.0000000000000E+00
-0.8094505256421E+00 -0.1461314865248E+01  0.0000000000000E+00
-0.8226013909215E+00 -0.1385039444855E+01  0.0000000000000E+00
-0.8377112698082E+00 -0.1309492057141E+01  0.0000000000000E+00
-0.8527291461403E+00 -0.1233812223881E+01  0.0000000000000E+00
-0.8665704710604E+00 -0.1157566094584E+01  0.0000000000000E+00
-0.8791905966306E+00 -0.1080817066771E+01  0.0000000000000E+00
-0.8906326797461E+00 -0.1003664848526E+01  0.0000000000000E+00
-0.9008054789872E+00 -0.9261634251201E+00  0.0000000000000E+00
-0.9095041929406E+00 -0.8483388248877E+00  0.0000000000000E+00
-0.9166516682694E+00 -0.7702459293638E+00  0.0000000000000E+00
-0.9221341273071E+00 -0.6919313063309E+00  0.0000000000000E+00
-0.9257007088365E+00 -0.6134384502728E+00  0.0000000000000E+00
-0.9271842428608E+00 -0.5348451464090E+00  0.0000000000000E+00
-0.9270438916883E+00 -0.4562482257846E+00  0.0000000000000E+00
-0.9210062292211E+00 -0.3783135855268E+00  0.0000000000000E+00
-0.9049353367833E+00 -0.3038998875393E+00  0.0000000000000E+00
-0.7506083067926E+00 -0.1693037687126E+01  0.0000000000000E+00
-0.7571515199521E+00 -0.1617768723708E+01  0.0000000000000E+00
-0.7648749989831E+00 -0.1542752680226E+01  0.0000000000000E+00
-0.7740887427956E+00 -0.1468120628396E+01  0.0000000000000E+00
-0.7852058104717E+00 -0.1394089580419E+01  0.0000000000000E+00
-0.7980044064311E+00 -0.1320666098610E+01  0.0000000000000E+00
-0.8107786500141E+00 -0.1247133403882E+01  0.0000000000000E+00
-0.8226238368907E+00 -0.1173130210103E+01  0.0000000000000E+00
-0.8334943702607E+00 -0.1098709293284E+01  0.0000000000000E+00
-0.8434082979516E+00 -0.1023953263733E+01  0.0000000000000E+00
-0.8522644890822E+00 -0.9489062298512E+00  0.0000000000000E+00
-0.8598671794387E+00 -0.8735890026696E+00  0.0000000000000E+00
-0.8661341583082E+00 -0.7980468372435E+00  0.0000000000000E+00
-0.8709622208482E+00 -0.7223184841673E+00  0.0000000000000E+00
-0.8741414024410E+00 -0.6464404446253E+00  0.0000000000000E+00
-0.8755356940038E+00 -0.5704778280057E+00  0.0000000000000E+00
-0.8755327355947E+00 -0.4945116259155E+00  0.0000000000000E+00
-0.8705766344891E+00 -0.4190969387318E+00  0.0000000000000E+00
-0.8572257238154E+00 -0.3466161543434E+00  0.0000000000000E+00
-0.7196546383067E+00 -0.1692660171955E+01  0.0000000000000E+00
-0.7249395845113E+00 -0.1619875942931E+01  0.0000000000000E+00
-0.7312092872703E+00 -0.1547294284722E+01  0.0000000000000E+00
-0.7387176645684E+00 -0.1475020253223E+01  0.0000000000000E+00
-0.7478015158933E+00 -0.1403227708788E+01  0.0000000000000E+00
-0.7582894102453E+00 -0.1331922263408E+01  0.0000000000000E+00
-0.7688206023893E+00 -0.1260530837814E+01  0.0000000000000E+00
-0.7786702325147E+00 -0.1188764710264E+01  0.0000000000000E+00
-0.7877917549782E+00 -0.1116666035064E+01  0.0000000000000E+00
-0.7961781085352E+00 -0.1044300324802E+01  0.0000000000000E+00
-0.8037182728390E+00 -0.9717018110512E+00  0.0000000000000E+00
-0.8102255208740E+00 -0.8988860875506E+00  0.0000000000000E+00
-0.8156125845540E+00 -0.8258887828474E+00  0.0000000000000E+00
-0.8197868318547E+00 -0.7527408304077E+00  0.0000000000000E+00
-0.8225791947468E+00 -0.6794717382122E+00  0.0000000000000E+00
-0.8238848250832E+00 -0.6061339395944E+00  0.0000000000000E+00
-0.8240198406246E+00 -0.5327925872182E+00  0.0000000000000E+00
-0.8201458810983E+00 -0.4598919938240E+00  0.0000000000000E+00
-0.8095155315770E+00 -0.3893382716925E+00  0.0000000000000E+00
-0.6886903565093E+00 -0.1692394296717E+01  0.0000000000000E+00
-0.6927175946182E+00 -0.1622088923663E+01  0.0000000000000E+00
-0.6975340799601E+00 -0.1551935772397E+01  0.0000000000000E+00
-0.7033376495840E+00 -0.1482013883113E+01  0.0000000000000E+00
-0.7103888433793E+00 -0.1412453964381E+01  0.0000000000000E+00
-0.7185665950094E+00 -0.1343260676984E+01  0.0000000000000E+00
-0.7268552945909E+00 -0.1274004642159E+01  0.0000000000000E+00
-0.7347099268254E+00 -0.1204469702582E+01  0.0000000000000E+00
-0.7420829972449E+00 -0.1134687390663E+01  0.0000000000000E+00
-0.7489423355285E+00 -0.1064706121319E+01  0.0000000000000E+00
-0.7551670318599E+00 -0.9945502493410E+00  0.0000000000000E+00
-0.7605793964204E+00 -0.9242301511863E+00  0.0000000000000E+00
-0.7650871037535E+00 -0.8537718288664E+00  0.0000000000000E+00
-0.7686080946470E+00 -0.7831983987784E+00  0.0000000000000E+00
-0.7710141976503E+00 -0.7125323757957E+00  0.0000000000000E+00
-0.7722317255725E+00 -0.6418135169728E+00  0.0000000000000E+00
-0.7725052738312E+00 -0.5710911365270E+00  0.0000000000000E+00
-0.7697140137222E+00 -0.5006987686882E+00  0.0000000000000E+00
-0.7618047823999E+00 -0.4320662485312E+00  0.0000000000000E+00
-0.6577158894649E+00 -0.1692240225162E+01  0.0000000000000E+00
-0.6604859557950E+00 -0.1624407821033E+01  0.0000000000000E+00
-0.6638497600319E+00 -0.1556677289756E+01  0.0000000000000E+00
-0.6679490582789E+00 -0.1489101655950E+01  0.0000000000000E+00
-0.6729681308228E+00 -0.1421768476460E+01  0.0000000000000E+00
-0.6788362760697E+00 -0.1354681459979E+01  0.0000000000000E+00
-0.6848830194189E+00 -0.1287554928934E+01  0.0000000000000E+00
-0.6907431900779E+00 -0.1220245290453E+01  0.0000000000000E+00
-0.6963683447720E+00 -0.1152773454854E+01  0.0000000000000E+00
-0.7017012040992E+00 -0.1085170739436E+01  0.0000000000000E+00
-0.7066109687703E+00 -0.1017451622250E+01  0.0000000000000E+00
-0.7109289861621E+00 -0.9496212624844E+00  0.0000000000000E+00
-0.7145578734505E+00 -0.8816960355872E+00  0.0000000000000E+00
-0.7174261442299E+00 -0.8136912409452E+00  0.0000000000000E+00
-0.7194465236187E+00 -0.7456224004210E+00  0.0000000000000E+00
-0.7205764854021E+00 -0.6775165945656E+00  0.0000000000000E+00
-0.7209891026108E+00 -0.6094072996466E+00  0.0000000000000E+00
-0.7192810772636E+00 -0.5415172805228E+00  0.0000000000000E+00
-0.7140934987308E+00 -0.4748000934607E+00  0.0000000000000E+00
-0.6267316673077E+00 -0.1692198114453E+01  0.0000000000000E+00
-0.6282450755248E+00 -0.1626832783928E+01  0.0000000000000E+00
-0.6301567123173E+00 -0.1561518977415E+01  0.0000000000000E+00
-0.6325522528331E+00 -0.1496283704073E+01  0.0000000000000E+00
-0.6355397177521E+00 -0.1431171369089E+01  0.0000000000000E+00
-0.6390987702994E+00 -0.1366184728180E+01  0.0000000000000E+00
-0.6429040710920E+00 -0.1301181805651E+01  0.0000000000000E+00
-0.6467702938377E+00 -0.1236091573113E+01  0.0000000000000E+00
-0.6506480464722E+00 -0.1170924318597E+01  0.0000000000000E+00
-0.6544549405083E+00 -0.1105694261838E+01  0.0000000000000E+00
-0.6580502871802E+00 -0.1040406004188E+01  0.0000000000000E+00
-0.6612744710591E+00 -0.9750594875815E+00  0.0000000000000E+00
-0.6640250519556E+00 -0.9096614608717E+00  0.0000000000000E+00
-0.6662411162656E+00 -0.8442194064959E+00  0.0000000000000E+00
-0.6678762856675E+00 -0.7787418534021E+00  0.0000000000000E+00
-0.6689191949418E+00 -0.7132432054128E+00  0.0000000000000E+00
-0.6694713946900E+00 -0.6477411013437E+00  0.0000000000000E+00
-0.6688471168461E+00 -0.5823475458340E+00  0.0000000000000E+00
-0.6663817031269E+00 -0.5175398147359E+00  0.0000000000000E+00
 0.6267316770671E+00 -0.1692198115309E+01  0.0000000000000E+00
 0.6282450842043E+00 -0.1626832784735E+01  0.0000000000000E+00
 0.6301567199257E+00 -0.1561518978170E+01  0.0000000000000E+00
 0.6325522593862E+00 -0.1496283704774E+01  0.0000000000000E+00
 0.6355397232755E+00 -0.1431171369731E+01  0.0000000000000E+00
 0.6390987748289E+00 -0.1366184728759E+01  0.0000000000000E+00
 0.6429040746811E+00 -0.1301181806162E+01  0.0000000000000E+00
 0.6467702965677E+00 -0.1236091573554E+01  0.0000000000000E+00
 0.6506480484535E+00 -0.1170924318967E+01  0.0000000000000E+00
 0.6544549418750E+00 -0.1105694262141E+01  0.0000000000000E+00
 0.6580502880753E+00 -0.1040406004428E+01  0.0000000000000E+00
 0.6612744716160E+00 -0.9750594877654E+00  0.0000000000000E+00
 0.6640250522846E+00 -0.9096614610038E+00  0.0000000000000E+00
 0.6662411164480E+00 -0.8442194065791E+00  0.0000000000000E+00
 0.6678762857589E+00 -0.7787418534389E+00  0.0000000000000E+00
 0.6689191949800E+00 -0.7132432054044E+00  0.0000000000000E+00
 0.6694713946944E+00 -0.6477411012908E+00  0.0000000000000E+00
 0.6688471167994E+00 -0.5823475457445E+00  0.0000000000000E+00
 0.6663817030200E+00 -0.5175398146315E+00  0.0000000000000E+00
 0.6577158987074E+00 -0.1692240226002E+01  0.0000000000000E+00
 0.6604859640163E+00 -0.1624407821814E+01  0.0000000000000E+00
 0.6638497672423E+00 -0.1556677290478E+01  0.0000000000000E+00
 0.6679490644955E+00 -0.1489101656609E+01  0.0000000000000E+00
 0.6729681360715E+00 -0.1421768477054E+01  0.0000000000000E+00
 0.6788362803826E+00 -0.1354681460503E+01  0.0000000000000E+00
 0.6848830228425E+00 -0.1287554929381E+01  0.0000000000000E+00
 0.6907431926874E+00 -0.1220245290822E+01  0.0000000000000E+00
 0.6963683466717E+00 -0.1152773455142E+01  0.0000000000000E+00
 0.7017012054155E+00 -0.1085170739648E+01  0.0000000000000E+00
 0.7066109696382E+00 -0.1017451622390E+01  0.0000000000000E+00
 0.7109289867072E+00 -0.9496212625587E+00  0.0000000000000E+00
 0.7145578737767E+00 -0.8816960355999E+00  0.0000000000000E+00
 0.7174261444133E+00 -0.8136912408991E+00  0.0000000000000E+00
 0.7194465237104E+00 -0.7456224003186E+00  0.0000000000000E+00
 0.7205764854380E+00 -0.6775165944084E+00  0.0000000000000E+00
 0.7209891026047E+00 -0.6094072994359E+00  0.0000000000000E+00
 0.7192810771664E+00 -0.5415172802740E+00  0.0000000000000E+00
 0.7140934985165E+00 -0.4748000932170E+00  0.0000000000000E+00
 0.6886903652351E+00 -0.1692394297536E+01  0.0000000000000E+00
 0.6927176023816E+00 -0.1622088924415E+01  0.0000000000000E+00
 0.6975340867727E+00 -0.1551935773080E+01  0.0000000000000E+00
 0.7033376554643E+00 -0.1482013883727E+01  0.0000000000000E+00
 0.7103888483534E+00 -0.1412453964924E+01  0.0000000000000E+00
 0.7185665991058E+00 -0.1343260677450E+01  0.0000000000000E+00
 0.7268552978490E+00 -0.1274004642540E+01  0.0000000000000E+00
 0.7347099293146E+00 -0.1204469702875E+01  0.0000000000000E+00
 0.7420829990631E+00 -0.1134687390868E+01  0.0000000000000E+00
 0.7489423367946E+00 -0.1064706121439E+01  0.0000000000000E+00
 0.7551670327006E+00 -0.9945502493794E+00  0.0000000000000E+00
 0.7605793969537E+00 -0.9242301511490E+00  0.0000000000000E+00
 0.7650871040769E+00 -0.8537718287581E+00  0.0000000000000E+00
 0.7686080948315E+00 -0.7831983986016E+00  0.0000000000000E+00
 0.7710141977424E+00 -0.7125323755530E+00  0.0000000000000E+00
 0.7722317256061E+00 -0.6418135166660E+00  0.0000000000000E+00
 0.7725052738146E+00 -0.5710911361576E+00  0.0000000000000E+00
 0.7697140135745E+00 -0.5006987682796E+00  0.0000000000000E+00
 0.7618047820783E+00 -0.4320662481480E+00  0.0000000000000E+00
 0.7196546465161E+00 -0.1692660172748E+01  0.0000000000000E+00
 0.7249395918170E+00 -0.1619875943648E+01  0.0000000000000E+00
 0.7312092936854E+00 -0.1547294285363E+01  0.0000000000000E+00
 0.7387176701125E+00 -0.1475020253788E+01  0.0000000000000E+00
 0.7478015205931E+00 -0.1403227709276E+01  0.0000000000000E+00
 0.7582894141255E+00 -0.1331922263812E+01  0.0000000000000E+00
 0.7688206054822E+00 -0.1260530838125E+01  0.0000000000000E+00
 0.7786702348837E+00 -0.1188764710478E+01  0.0000000000000E+00
 0.7877917567151E+00 -0.1116666035182E+01  0.0000000000000E+00
 0.7961781097513E+00 -0.1044300324826E+01  0.0000000000000E+00
 0.8037182736528E+00 -0.9717018109855E+00  0.0000000000000E+00
 0.8102255213957E+00 -0.8988860874001E+00  0.0000000000000E+00
 0.8156125848748E+00 -0.8258887826165E+00  0.0000000000000E+00
 0.8197868320404E+00 -0.7527408300988E+00  0.0000000000000E+00
 0.8225791948393E+00 -0.6794717378281E+00  0.0000000000000E+00
 0.8238848251146E+00 -0.6061339391370E+00  0.0000000000000E+00
 0.8240198405976E+00 -0.5327925866896E+00  0.0000000000000E+00
 0.8201458809002E+00 -0.4598919932551E+00  0.0000000000000E+00
 0.8095155311481E+00 -0.3893382711694E+00  0.0000000000000E+00
 0.7506083144858E+00 -0.1693037687890E+01  0.0000000000000E+00
 0.7571515268004E+00 -0.1617768724388E+01  0.0000000000000E+00
 0.7648750050008E+00 -0.1542752680822E+01  0.0000000000000E+00
 0.7740887480037E+00 -0.1468120628908E+01  0.0000000000000E+00
 0.7852058148974E+00 -0.1394089580847E+01  0.0000000000000E+00
 0.7980044100952E+00 -0.1320666098949E+01  0.0000000000000E+00
 0.8107786529419E+00 -0.1247133404121E+01  0.0000000000000E+00
 0.8226238391398E+00 -0.1173130210237E+01  0.0000000000000E+00
 0.8334943719163E+00 -0.1098709293313E+01  0.0000000000000E+00
 0.8434082991177E+00 -0.1023953263659E+01  0.0000000000000E+00
 0.8522644898690E+00 -0.9489062296793E+00  0.0000000000000E+00
 0.8598671799488E+00 -0.8735890024040E+00  0.0000000000000E+00
 0.8661341586265E+00 -0.7980468368884E+00  0.0000000000000E+00
 0.8709622210352E+00 -0.7223184837249E+00  0.0000000000000E+00
 0.8741414025340E+00 -0.6464404440986E+00  0.0000000000000E+00
 0.8755356940330E+00 -0.5704778273969E+00  0.0000000000000E+00
 0.8755327355573E+00 -0.4945116252270E+00  0.0000000000000E+00
 0.8705766342406E+00 -0.4190969380022E+00  0.0000000000000E+00
 0.8572257232791E+00 -0.3466161536803E+00  0.0000000000000E+00
 0.7815509432313E+00 -0.1693526672682E+01  0.0000000000000E+00
 0.7893530038481E+00 -0.1615767105320E+01  0.0000000000000E+00
 0.7985308396653E+00 -0.1538310807107E+01  0.0000000000000E+00
 0.8094505305145E+00 -0.1461314865704E+01  0.0000000000000E+00
 0.8226013950733E+00 -0.1385039445222E+01  0.0000000000000E+00
 0.8377112732565E+00 -0.1309492057412E+01  0.0000000000000E+00
 0.8527291489033E+00 -0.1233812224044E+01  0.0000000000000E+00
 0.8665704731897E+00 -0.1157566094634E+01  0.0000000000000E+00
 0.8791905982052E+00 -0.1080817066708E+01  0.0000000000000E+00
 0.8906326808624E+00 -0.1003664848353E+01  0.0000000000000E+00
 0.9008054797473E+00 -0.9261634248400E+00  0.0000000000000E+00
 0.9095041934393E+00 -0.8483388245051E+00  0.0000000000000E+00
 0.9166516685853E+00 -0.7702459288830E+00  0.0000000000000E+00
 0.9221341274954E+00 -0.6919313057536E+00  0.0000000000000E+00
 0.9257007089301E+00 -0.6134384496025E+00  0.0000000000000E+00
 0.9271842428878E+00 -0.5348451456479E+00  0.0000000000000E+00
 0.9270438916406E+00 -0.4562482249355E+00  0.0000000000000E+00
 0.9210062289222E+00 -0.3783135846360E+00  0.0000000000000E+00
 0.9049353361397E+00 -0.3038998867360E+00  0.0000000000000E+00
 0.8124820990011E+00 -0.1694126949326E+01  0.0000000000000E+00
 0.8215436119809E+00 -0.1613870918028E+01  0.0000000000000E+00
 0.8321764094502E+00 -0.1533968505178E+01  0.0000000000000E+00
 0.8448026521377E+00 -0.1454602814503E+01  0.0000000000000E+00
 0.8599879182983E+00 -0.1376077162078E+01  0.0000000000000E+00
 0.8774096834423E+00 -0.1298400008221E+01  0.0000000000000E+00
 0.8946717958622E+00 -0.1220567176258E+01  0.0000000000000E+00
 0.9105098622195E+00 -0.1142072251388E+01  0.0000000000000E+00
 0.9248801834856E+00 -0.1062989252451E+01  0.0000000000000E+00
 0.9378510256317E+00 -0.9834349853607E+00  0.0000000000000E+00
 0.9493410366997E+00 -0.9034733122990E+00  0.0000000000000E+00
 0.9591363780693E+00 -0.8231354789182E+00  0.0000000000000E+00
 0.9671649537677E+00 -0.7424859932034E+00  0.0000000000000E+00
 0.9733024132764E+00 -0.6615792401804E+00  0.0000000000000E+00
 0.9772569987510E+00 -0.5804657077303E+00  0.0000000000000E+00
 0.9788303793041E+00 -0.4992358566774E+00  0.0000000000000E+00
 0.9785532393974E+00 -0.4180023579992E+00  0.0000000000000E+00
 0.9714346184875E+00 -0.3375419147100E+00  0.0000000000000E+00
 0.9526443464158E+00 -0.2611894611816E+00  0.0000000000000E+00
 0.8434013664357E+00 -0.1694838335189E+01  0.0000000000000E+00
 0.8537229577554E+00 -0.1612079989481E+01  0.0000000000000E+00
 0.8658113428418E+00 -0.1529725611613E+01  0.0000000000000E+00
 0.8801447633080E+00 -0.1447984321494E+01  0.0000000000000E+00
 0.8973650569782E+00 -0.1367202587227E+01  0.0000000000000E+00
 0.9170993350532E+00 -0.1287389816818E+01  0.0000000000000E+00
 0.9366063102086E+00 -0.1207398135833E+01  0.0000000000000E+00
 0.9544417445893E+00 -0.1126648565190E+01  0.0000000000000E+00
 0.9705628880695E+00 -0.1045225744848E+01  0.0000000000000E+00
 0.9850631156734E+00 -0.9632635785991E+00  0.0000000000000E+00
 0.9978709648940E+00 -0.8808358055787E+00  0.0000000000000E+00
 0.1008763559910E+01 -0.7979788887677E+00  0.0000000000000E+00
 0.1017673862132E+01 -0.7147669625726E+00  0.0000000000000E+00
 0.1024466948207E+01 -0.6312622293241E+00  0.0000000000000E+00
 0.1028810163675E+01 -0.5475221703943E+00  0.0000000000000E+00
 0.1030474016787E+01 -0.4636499219902E+00  0.0000000000000E+00
 0.1030060714142E+01 -0.3797739955145E+00  0.0000000000000E+00
 0.1021861759954E+01 -0.2967819089046E+00  0.0000000000000E+00
 0.1000352732676E+01 -0.2184848673123E+00  0.0000000000000E+00
 0.8743083292160E+00 -0.1695660641007E+01  0.0000000000000E+00
 0.8858906467958E+00 -0.1610394140375E+01  0.0000000000000E+00
 0.8994352674149E+00 -0.1525581957067E+01  0.0000000000000E+00
 0.9154765135586E+00 -0.1441459227297E+01  0.0000000000000E+00
 0.9347324826162E+00 -0.1358415571256E+01  0.0000000000000E+00
 0.9567799215746E+00 -0.1276461343761E+01  0.0000000000000E+00
 0.9785324074072E+00 -0.1194304973301E+01  0.0000000000000E+00
 0.9983658577340E+00 -0.1111294916539E+01  0.0000000000000E+00
 0.1016238471353E+01 -0.1027526434362E+01  0.0000000000000E+00
 0.1032268732337E+01 -0.9431505284951E+00  0.0000000000000E+00
 0.1046395067625E+01 -0.8582508150666E+00  0.0000000000000E+00
 0.1058385564193E+01 -0.7728689743992E+00  0.0000000000000E+00
 0.1068178240839E+01 -0.6870887672930E+00  0.0000000000000E+00
 0.1075627601367E+01 -0.6009802134425E+00  0.0000000000000E+00
 0.1080360094693E+01 -0.5146077878065E+00  0.0000000000000E+00
 0.1082115068229E+01 -0.4280873017517E+00  0.0000000000000E+00
 0.1081566250656E+01 -0.3415631075997E+00  0.0000000000000E+00
 0.1072287609923E+01 -0.2560335472787E+00  0.0000000000000E+00
 0.1048060473251E+01 -0.1757860951357E+00  0.0000000000000E+00
 0.9052025707781E+00 -0.1696593670959E+01  0.0000000000000E+00
 0.9180462844761E+00 -0.1608813185199E+01  0.0000000000000E+00
 0.9330478104822E+00 -0.1521537366339E+01  0.0000000000000E+00
 0.9507975521418E+00 -0.1435027367020E+01  0.0000000000000E+00
 0.9720898664051E+00 -0.1349715959582E+01  0.0000000000000E+00
 0.9964511361435E+00 -0.1265614444782E+01  0.0000000000000E+00
 0.1020449802539E+01 -0.1181287554705E+01  0.0000000000000E+00
 0.1042281938676E+01 -0.1096011181789E+01  0.0000000000000E+00
 0.1061906692299E+01 -0.1009891207660E+01  0.0000000000000E+00
 0.1079467656524E+01 -0.9230957320237E+00  0.0000000000000E+00
 0.1094913147732E+01 -0.8357182480476E+00  0.0000000000000E+00
 0.1108002215695E+01 -0.7478056534076E+00  0.0000000000000E+00
 0.1118677936601E+01 -0.6594513352690E+00  0.0000000000000E+00
 0.1126784241405E+01 -0.5707331307489E+00  0.0000000000000E+00
 0.1131906682383E+01 -0.4817225084889E+00  0.0000000000000E+00
 0.1133753446136E+01 -0.3925479547930E+00  0.0000000000000E+00
 0.1133069783374E+01 -0.3033696633937E+00  0.0000000000000E+00
 0.1122712124713E+01 -0.2152968092632E+00  0.0000000000000E+00
 0.1095767546307E+01 -0.1330931343643E+00  0.0000000000000E+00
 0.9360836771012E+00 -0.1697637222998E+01  0.0000000000000E+00
 0.9501894785799E+00 -0.1607336932545E+01  0.0000000000000E+00
 0.9666486016325E+00 -0.1517591658659E+01  0.0000000000000E+00
 0.9861075304526E+00 -0.1428688570531E+01  0.0000000000000E+00
 0.1009436881547E+01 -0.1341103592713E+01  0.0000000000000E+00
 0.1036112673774E+01 -0.1254848971027E+01  0.0000000000000E+00
 0.1062358212428E+01 -0.1168345741829E+01  0.0000000000000E+00
 0.1086189726049E+01 -0.1080797233366E+01  0.0000000000000E+00
 0.1107567311349E+01 -0.9923199478029E+00  0.0000000000000E+00
 0.1126659670482E+01 -0.9030990828862E+00  0.0000000000000E+00
 0.1143425009267E+01 -0.8132380088607E+00  0.0000000000000E+00
 0.1157613340271E+01 -0.7227888407692E+00  0.0000000000000E+00
 0.1169172797073E+01 -0.6318545921137E+00  0.0000000000000E+00
 0.1177936737775E+01 -0.5405209174934E+00  0.0000000000000E+00
 0.1183449817999E+01 -0.4488662793275E+00  0.0000000000000E+00
 0.1185389063559E+01 -0.3570318386362E+00  0.0000000000000E+00
 0.1184571247138E+01 -0.2651936310542E+00  0.0000000000000E+00
 0.1173135260919E+01 -0.1745716736346E+00  0.0000000000000E+00
 0.1143473930147E+01 -0.9040597438278E-01  0.0000000000000E+00
 0.9669512274189E+00 -0.1698791087767E+01  0.0000000000000E+00
 0.9823198304356E+00 -0.1605965184095E+01  0.0000000000000E+00
 0.1000237264269E+01 -0.1513744646745E+01  0.0000000000000E+00
 0.1021406093943E+01 -0.1422442661578E+01  0.0000000000000E+00
 0.1046773195509E+01 -0.1332578305411E+01  0.0000000000000E+00
 0.1075764223922E+01 -0.1244164768264E+01  0.0000000000000E+00
 0.1104257348526E+01 -0.1155479391450E+01  0.0000000000000E+00
 0.1130088953323E+01 -0.1065652939060E+01  0.0000000000000E+00
 0.1153220084018E+01 -0.9748125336096E+00  0.0000000000000E+00
 0.1173844551794E+01 -0.8831604709323E+00  0.0000000000000E+00
 0.1191930451903E+01 -0.7908099983938E+00  0.0000000000000E+00
 0.1207218759703E+01 -0.6978184484149E+00  0.0000000000000E+00
 0.1219662666172E+01 -0.6042984608059E+00  0.0000000000000E+00
 0.1229084956548E+01 -0.5103435077058E+00  0.0000000000000E+00
 0.1234989389793E+01 -0.4160390454063E+00  0.0000000000000E+00
 0.1237021830960E+01 -0.3215389094206E+00  0.0000000000000E+00
 0.1236070574644E+01 -0.2270349777752E+00  0.0000000000000E+00
 0.1223556973529E+01 -0.1338581186130E+00  0.0000000000000E+00
 0.1191179602188E+01 -0.4772460436371E-01  0.0000000000000E+00
 0.9978048126931E+00 -0.1700055050828E+01  0.0000000000000E+00
 0.1014436952546E+01 -0.1604697736702E+01  0.0000000000000E+00
 0.1033813432435E+01 -0.1509996138743E+01  0.0000000000000E+00
 0.1056692898198E+01 -0.1416289459594E+01  0.0000000000000E+00
 0.1084098485417E+01 -0.1324139928402E+01  0.0000000000000E+00
 0.1115405485257E+01 -0.1233561678510E+01  0.0000000000000E+00
 0.1146146931048E+01 -0.1142688356877E+01  0.0000000000000E+00
 0.1173979362256E+01 -0.1050578163472E+01  0.0000000000000E+00
 0.1198864773607E+01 -0.9573688409702E+00  0.0000000000000E+00
 0.1221022085302E+01 -0.8632797833433E+00  0.0000000000000E+00
 0.1240429282021E+01 -0.7684341151186E+00  0.0000000000000E+00
 0.1256818301914E+01 -0.6728943861069E+00  0.0000000000000E+00
 0.1270147393358E+01 -0.5767828623979E+00  0.0000000000000E+00
 0.1280228768722E+01 -0.4802008337283E+00  0.0000000000000E+00
 0.1286525290297E+01 -0.3832407503566E+00  0.0000000000000E+00
 0.1288651662409E+01 -0.2860691220672E+00  0.0000000000000E+00
 0.1287567701494E+01 -0.1888936697665E+00  0.0000000000000E+00
 0.1273977219637E+01 -0.9315612167893E-01  0.0000000000000E+00
 0.1238884540982E+01 -0.5049013045557E-02  0.0000000000000E+00
 0.1028644034966E+01 -0.1701428892817E+01  0.0000000000000E+00
 0.1046540467967E+01 -0.1603534382536E+01  0.0000000000000E+00
 0.1067376750223E+01 -0.1506345938358E+01  0.0000000000000E+00
 0.1091967608368E+01 -0.1410228779832E+01  0.0000000000000E+00
 0.1121412437513E+01 -0.1315788288493E+01  0.0000000000000E+00
 0.1155036165145E+01 -0.1223039540143E+01  0.0000000000000E+00
 0.1188026688472E+01 -0.1129972488054E+01  0.0000000000000E+00
 0.1217860702418E+01 -0.1035572768105E+01  0.0000000000000E+00
 0.1244501150748E+01 -0.9399887429363E+00  0.0000000000000E+00
 0.1268192062681E+01 -0.8434569047128E+00  0.0000000000000E+00
 0.1288921312318E+01 -0.7461102551647E+00  0.0000000000000E+00
 0.1306411800597E+01 -0.6480165615055E+00  0.0000000000000E+00
 0.1320626833301E+01 -0.5493077160762E+00  0.0000000000000E+00
 0.1331368049922E+01 -0.4500928262700E+00  0.0000000000000E+00
 0.1338057416065E+01 -0.3504713364071E+00  0.0000000000000E+00
 0.1340278475353E+01 -0.2506224303227E+00  0.0000000000000E+00
 0.1339062566007E+01 -0.1507696722917E+00  0.0000000000000E+00
 0.1324395958307E+01 -0.5246565960526E-01  0.0000000000000E+00
 0.1286588726141E+01  0.3762081124632E-01  0.0000000000000E+00
 0.1059468491065E+01 -0.1702912387465E+01  0.0000000000000E+00
 0.1078629994763E+01 -0.1602474907241E+01  0.0000000000000E+00
 0.1100926856931E+01 -0.1502793843147E+01  0.0000000000000E+00
 0.1127229884989E+01 -0.1404260431761E+01  0.0000000000000E+00
 0.1158714733573E+01 -0.1307523207068E+01  0.0000000000000E+00
 0.1194655966603E+01 -0.1212598186461E+01  0.0000000000000E+00
 0.1229896345061E+01 -0.1117331630195E+01  0.0000000000000E+00
 0.1261732719309E+01 -0.1020636610086E+01  0.0000000000000E+00
 0.1290128982182E+01 -0.9226721085503E+00  0.0000000000000E+00
 0.1315354271908E+01 -0.8236917159966E+00  0.0000000000000E+00
 0.1337406352004E+01 -0.7238383114011E+00  0.0000000000000E+00
 0.1355999086198E+01 -0.6231848793920E+00  0.0000000000000E+00
 0.1371100837678E+01 -0.5218729385342E+00  0.0000000000000E+00
 0.1382502673051E+01 -0.4200194139358E+00  0.0000000000000E+00
 0.1389585661224E+01 -0.3177307440737E+00  0.0000000000000E+00
 0.1391902185146E+01 -0.2151987866139E+00  0.0000000000000E+00
 0.1390555104757E+01 -0.1126629496880E+00  0.0000000000000E+00
 0.1374813147288E+01 -0.1178670862095E-01  0.0000000000000E+00
 0.1334292136548E+01  0.8028488040207E-01  0.0000000000000E+00
 0.1090277780720E+01 -0.1704505302632E+01  0.0000000000000E+00
 0.1110705153744E+01 -0.1601519090897E+01  0.0000000000000E+00
 0.1134463394454E+01 -0.1499339645413E+01  0.0000000000000E+00
 0.1162479391042E+01 -0.1398384219907E+01  0.0000000000000E+00
 0.1196005057665E+01 -0.1299344500874E+01  0.0000000000000E+00
 0.1234264594794E+01 -0.1202237446439E+01  0.0000000000000E+00
 0.1271755627067E+01 -0.1104765624500E+01  0.0000000000000E+00
 0.1305595160272E+01 -0.1005769542839E+01  0.0000000000000E+00
 0.1335748036337E+01 -0.9054188034578E+00  0.0000000000000E+00
 0.1362508502496E+01 -0.8039840950629E+00  0.0000000000000E+00
 0.1385884211676E+01 -0.7016181739175E+00  0.0000000000000E+00
 0.1405579990391E+01 -0.5983992420775E+00  0.0000000000000E+00
 0.1421569259242E+01 -0.4944784443039E+00  0.0000000000000E+00
 0.1433632511940E+01 -0.3899805234782E+00  0.0000000000000E+00
 0.1441109920678E+01 -0.2850189123287E+00  0.0000000000000E+00
 0.1443522707758E+01 -0.1797981421330E+00  0.0000000000000E+00
 0.1442045254780E+01 -0.7457346536650E-01  0.0000000000000E+00
 0.1425228744639E+01  0.2888075566284E-01  0.0000000000000E+00
 0.1381994751242E+01  0.1229432066213E+00  0.0000000000000E+00
 0.1121071483195E+01 -0.1706207397020E+01  0.0000000000000E+00
 0.1142765546172E+01 -0.1600666704959E+01  0.0000000000000E+00
 0.1167985985999E+01 -0.1495983129350E+01  0.0000000000000E+00
 0.1197715771612E+01 -0.1392599941181E+01  0.0000000000000E+00
 0.1233283076667E+01 -0.1291251979511E+01  0.0000000000000E+00
 0.1273861738317E+01 -0.1191957142331E+01  0.0000000000000E+00
 0.1313604244830E+01 -0.1092274305885E+01  0.0000000000000E+00
 0.1349447757450E+01 -0.9909714139681E+00  0.0000000000000E+00
 0.1381358067225E+01 -0.8882286879731E+00  0.0000000000000E+00
 0.1409654530383E+01 -0.7843339149532E+00  0.0000000000000E+00
 0.1434354689253E+01 -0.6794497284982E+00  0.0000000000000E+00
 0.1455154333136E+01 -0.5736595481023E+00  0.0000000000000E+00
 0.1472031940047E+01 -0.4671241446931E+00  0.0000000000000E+00
 0.1484757430797E+01 -0.3599760789818E+00  0.0000000000000E+00
 0.1492630080857E+01 -0.2523357780405E+00  0.0000000000000E+00
 0.1495139951924E+01 -0.1444204465366E+00  0.0000000000000E+00
 0.1493532947170E+01 -0.3650118177095E-01  0.0000000000000E+00
 0.1475642704025E+01  0.6953675806361E-01  0.0000000000000E+00
 0.1429696546851E+01  0.1655958021522E+00  0.0000000000000E+00
 0.1151849225537E+01 -0.1708018429846E+01  0.0000000000000E+00
 0.1174810818886E+01 -0.1599917521276E+01  0.0000000000000E+00
 0.1201494298248E+01 -0.1492724079452E+01  0.0000000000000E+00
 0.1232938713290E+01 -0.1386907392741E+01  0.0000000000000E+00
 0.1270548497160E+01 -0.1283245452831E+01  0.0000000000000E+00
 0.1313447123819E+01 -0.1181757096718E+01  0.0000000000000E+00
 0.1355441945044E+01 -0.1079857509653E+01  0.0000000000000E+00
 0.1393290277519E+01 -0.9762420714703E+00  0.0000000000000E+00
 0.1426958861442E+01 -0.8711016227676E+00  0.0000000000000E+00
 0.1456792162028E+01 -0.7647410489956E+00  0.0000000000000E+00
 0.1482817611003E+01 -0.6573328611127E+00  0.0000000000000E+00
 0.1504721960451E+01 -0.5489656960643E+00  0.0000000000000E+00
 0.1522488745806E+01 -0.4398099509165E+00  0.0000000000000E+00
 0.1535877314972E+01 -0.3300060042687E+00  0.0000000000000E+00
 0.1544146046680E+01 -0.2196812776313E+00  0.0000000000000E+00
 0.1546753842050E+01 -0.1090656488427E+00  0.0000000000000E+00
 0.1545018125764E+01  0.1553939485620E-02  0.0000000000000E+00
 0.1526054988436E+01  0.1101813243664E+00  0.0000000000000E+00
 0.1477397505075E+01  0.2082426800443E+00  0.0000000000000E+00
 0.1182610616693E+01 -0.1709938151813E+01  0.0000000000000E+00
 0.1206840601434E+01 -0.1599271303676E+01  0.0000000000000E+00
 0.1234987981351E+01 -0.1489562272670E+01  0.0000000000000E+00
 0.1268147886829E+01 -0.1381306364667E+01  0.0000000000000E+00
 0.1307801010505E+01 -0.1275324724039E+01  0.0000000000000E+00
 0.1353020463274E+01 -0.1171637125933E+01  0.0000000000000E+00
 0.1397268460295E+01 -0.1067515065265E+01  0.0000000000000E+00
 0.1437122473674E+01 -0.9615813579356E+00  0.0000000000000E+00
 0.1472550192790E+01 -0.8540374635575E+00  0.0000000000000E+00
 0.1503921191834E+01 -0.7452053660319E+00  0.0000000000000E+00
 0.1531272791928E+01 -0.6352674537278E+00  0.0000000000000E+00
 0.1554282707934E+01 -0.5243175810539E+00  0.0000000000000E+00
 0.1572939532713E+01 -0.4125357711880E+00  0.0000000000000E+00
 0.1586992041247E+01 -0.3000702206755E+00  0.0000000000000E+00
 0.1595657715515E+01 -0.1870553455593E+00  0.0000000000000E+00
 0.1598364296089E+01 -0.7373369663145E-01  0.0000000000000E+00
 0.1596500729092E+01  0.3959193770200E-01  0.0000000000000E+00
 0.1576465556935E+01  0.1508144807688E+00  0.0000000000000E+00
 0.1525097605457E+01  0.2508838534040E+00  0.0000000000000E+00
-0.6299559715430E+00 -0.4448788635045E+00  0.0000000000000E+00
-0.6714480734955E+00 -0.4002935756204E+00  0.0000000000000E+00
-0.7129401754481E+00 -0.3557082877364E+00  0.0000000000000E+00
-0.7544322774006E+00 -0.3111229998524E+00  0.0000000000000E+00
-0.7959243793531E+00 -0.2665377119684E+00  0.0000000000000E+00
-0.8374164813057E+00 -0.2219524240844E+00  0.0000000000000E+00
-0.8789085832582E+00 -0.1773671362004E+00  0.0000000000000E+00
-0.9204006852108E+00 -0.1327818483163E+00  0.0000000000000E+00
-0.9618927871633E+00 -0.8819656043232E-01  0.0000000000000E+00
-0.1003384889116E+01 -0.4361127254831E-01  0.0000000000000E+00
-0.1044876991068E+01  0.9740153357094E-03  0.0000000000000E+00
-0.1086369093021E+01  0.4555930321973E-01  0.0000000000000E+00
-0.1127861194973E+01  0.9014459110374E-01  0.0000000000000E+00
-0.1169353296926E+01  0.1347298789878E+00  0.0000000000000E+00
-0.1210845398879E+01  0.1793151668718E+00  0.0000000000000E+00
-0.1252337500831E+01  0.2239004547558E+00  0.0000000000000E+00
-0.1293829602784E+01  0.2684857426398E+00  0.0000000000000E+00
-0.1335321704736E+01  0.3130710305238E+00  0.0000000000000E+00
-0.1376813806689E+01  0.3576563184078E+00  0.0000000000000E+00
-0.5974622415961E+00 -0.4366441451899E+00  0.0000000000000E+00
-0.6368419585758E+00 -0.3913664749580E+00  0.0000000000000E+00
-0.6762216755556E+00 -0.3460888047261E+00  0.0000000000000E+00
-0.7156013925353E+00 -0.3008111344942E+00  0.0000000000000E+00
-0.7549811095150E+00 -0.2555334642623E+00  0.0000000000000E+00
-0.7943608264947E+00 -0.2102557940303E+00  0.0000000000000E+00
-0.8337405434744E+00 -0.1649781237984E+00  0.0000000000000E+00
-0.8731202604541E+00 -0.1197004535665E+00  0.0000000000000E+00
-0.9124999774338E+00 -0.7442278333461E-01  0.0000000000000E+00
-0.9518796944135E+00 -0.2914511310269E-01  0.0000000000000E+00
-0.9912594113932E+00  0.1613255712922E-01  0.0000000000000E+00
-0.1030639128373E+01  0.6141022736114E-01  0.0000000000000E+00
-0.1070018845353E+01  0.1066878975930E+00  0.0000000000000E+00
-0.1109398562332E+01  0.1519655678250E+00  0.0000000000000E+00
-0.1148778279312E+01  0.1972432380569E+00  0.0000000000000E+00
-0.1188157996292E+01  0.2425209082888E+00  0.0000000000000E+00
-0.1227537713272E+01  0.2877985785207E+00  0.0000000000000E+00
-0.1266917430251E+01  0.3330762487526E+00  0.0000000000000E+00
-0.1306297147231E+01  0.3783539189845E+00  0.0000000000000E+00
-0.5647851637629E+00 -0.4291779471807E+00  0.0000000000000E+00
-0.6019607642087E+00 -0.3835976335802E+00  0.0000000000000E+00
-0.6391363646544E+00 -0.3380173199797E+00  0.0000000000000E+00
-0.6763119651002E+00 -0.2924370063792E+00  0.0000000000000E+00
-0.7134875655459E+00 -0.2468566927788E+00  0.0000000000000E+00
-0.7506631659917E+00 -0.2012763791783E+00  0.0000000000000E+00
-0.7878387664375E+00 -0.1556960655778E+00  0.0000000000000E+00
-0.8250143668832E+00 -0.1101157519773E+00  0.0000000000000E+00
-0.8621899673290E+00 -0.6453543837680E-01  0.0000000000000E+00
-0.8993655677748E+00 -0.1895512477632E-01  0.0000000000000E+00
-0.9365411682205E+00  0.2662518882417E-01  0.0000000000000E+00
-0.9737167686663E+00  0.7220550242466E-01  0.0000000000000E+00
-0.1010892369112E+01  0.1177858160251E+00  0.0000000000000E+00
-0.1048067969558E+01  0.1633661296256E+00  0.0000000000000E+00
-0.1085243570004E+01  0.2089464432261E+00  0.0000000000000E+00
-0.1122419170449E+01  0.2545267568266E+00  0.0000000000000E+00
-0.1159594770895E+01  0.3001070704271E+00  0.0000000000000E+00
-0.1196770371341E+01  0.3456873840276E+00  0.0000000000000E+00
-0.1233945971787E+01  0.3912676976281E+00  0.0000000000000E+00
-0.5319747863850E+00 -0.4224941396796E+00  0.0000000000000E+00
-0.5669005038771E+00 -0.3770102860137E+00  0.0000000000000E+00
-0.6018262213692E+00 -0.3315264323477E+00  0.0000000000000E+00
-0.6367519388613E+00 -0.2860425786818E+00  0.0000000000000E+00
-0.6716776563534E+00 -0.2405587250158E+00  0.0000000000000E+00
-0.7066033738455E+00 -0.1950748713499E+00  0.0000000000000E+00
-0.7415290913375E+00 -0.1495910176839E+00  0.0000000000000E+00
-0.7764548088296E+00 -0.1041071640180E+00  0.0000000000000E+00
-0.8113805263217E+00 -0.5862331035200E-01  0.0000000000000E+00
-0.8463062438138E+00 -0.1313945668605E-01  0.0000000000000E+00
-0.8812319613059E+00  0.3234439697990E-01  0.0000000000000E+00
-0.9161576787979E+00  0.7782825064585E-01  0.0000000000000E+00
-0.9510833962900E+00  0.1233121043118E+00  0.0000000000000E+00
-0.9860091137821E+00  0.1687959579778E+00  0.0000000000000E+00
-0.1020934831274E+01  0.2142798116437E+00  0.0000000000000E+00
-0.1055860548766E+01  0.2597636653097E+00  0.0000000000000E+00
-0.1090786266258E+01  0.3052475189756E+00  0.0000000000000E+00
-0.1125711983750E+01  0.3507313726416E+00  0.0000000000000E+00
-0.1160637701243E+01  0.3962152263075E+00  0.0000000000000E+00
-0.4990802666255E+00 -0.4165840327232E+00  0.0000000000000E+00
-0.5317553219230E+00 -0.3715827348048E+00  0.0000000000000E+00
-0.5644303772205E+00 -0.3265814368864E+00  0.0000000000000E+00
-0.5971054325179E+00 -0.2815801389680E+00  0.0000000000000E+00
-0.6297804878154E+00 -0.2365788410496E+00  0.0000000000000E+00
-0.6624555431129E+00 -0.1915775431312E+00  0.0000000000000E+00
-0.6951305984104E+00 -0.1465762452128E+00  0.0000000000000E+00
-0.7278056537078E+00 -0.1015749472944E+00  0.0000000000000E+00
-0.7604807090053E+00 -0.5657364937598E-01  0.0000000000000E+00
-0.7931557643028E+00 -0.1157235145757E-01  0.0000000000000E+00
-0.8258308196003E+00  0.3342894646083E-01  0.0000000000000E+00
-0.8585058748978E+00  0.7843024437923E-01  0.0000000000000E+00
-0.8911809301952E+00  0.1234315422976E+00  0.0000000000000E+00
-0.9238559854927E+00  0.1684328402160E+00  0.0000000000000E+00
-0.9565310407902E+00  0.2134341381344E+00  0.0000000000000E+00
-0.9892060960877E+00  0.2584354360528E+00  0.0000000000000E+00
-0.1021881151385E+01  0.3034367339713E+00  0.0000000000000E+00
-0.1054556206683E+01  0.3484380318897E+00  0.0000000000000E+00
-0.1087231261980E+01  0.3934393298081E+00  0.0000000000000E+00
-0.4661358894282E+00 -0.4113546120754E+00  0.0000000000000E+00
-0.4965895947067E+00 -0.3671248415236E+00  0.0000000000000E+00
-0.5270432999851E+00 -0.3228950709718E+00  0.0000000000000E+00
-0.5574970052636E+00 -0.2786653004201E+00  0.0000000000000E+00
-0.5879507105420E+00 -0.2344355298683E+00  0.0000000000000E+00
-0.6184044158205E+00 -0.1902057593165E+00  0.0000000000000E+00
-0.6488581210989E+00 -0.1459759887648E+00  0.0000000000000E+00
-0.6793118263774E+00 -0.1017462182130E+00  0.0000000000000E+00
-0.7097655316558E+00 -0.5751644766124E-01  0.0000000000000E+00
-0.7402192369343E+00 -0.1328667710947E-01  0.0000000000000E+00
-0.7706729422127E+00  0.3094309344230E-01  0.0000000000000E+00
-0.8011266474912E+00  0.7517286399407E-01  0.0000000000000E+00
-0.8315803527696E+00  0.1194026345458E+00  0.0000000000000E+00
-0.8620340580481E+00  0.1636324050976E+00  0.0000000000000E+00
-0.8924877633265E+00  0.2078621756494E+00  0.0000000000000E+00
-0.9229414686050E+00  0.2520919462011E+00  0.0000000000000E+00
-0.9533951738834E+00  0.2963217167529E+00  0.0000000000000E+00
-0.9838488791619E+00  0.3405514873047E+00  0.0000000000000E+00
-0.1014302584440E+01  0.3847812578564E+00  0.0000000000000E+00
-0.4331566793992E+00 -0.4067328540872E+00  0.0000000000000E+00
-0.4614288249452E+00 -0.3634866017615E+00  0.0000000000000E+00
-0.4897009704912E+00 -0.3202403494357E+00  0.0000000000000E+00
-0.5179731160371E+00 -0.2769940971100E+00  0.0000000000000E+00
-0.5462452615831E+00 -0.2337478447842E+00  0.0000000000000E+00
-0.5745174071291E+00 -0.1905015924585E+00  0.0000000000000E+00
-0.6027895526750E+00 -0.1472553401327E+00  0.0000000000000E+00
-0.6310616982210E+00 -0.1040090878070E+00  0.0000000000000E+00
-0.6593338437670E+00 -0.6076283548125E-01  0.0000000000000E+00
-0.6876059893129E+00 -0.1751658315551E-01  0.0000000000000E+00
-0.7158781348589E+00  0.2572966917024E-01  0.0000000000000E+00
-0.7441502804048E+00  0.6897592149599E-01  0.0000000000000E+00
-0.7724224259508E+00  0.1122221738217E+00  0.0000000000000E+00
-0.8006945714968E+00  0.1554684261475E+00  0.0000000000000E+00
-0.8289667170427E+00  0.1987146784732E+00  0.0000000000000E+00
-0.8572388625887E+00  0.2419609307990E+00  0.0000000000000E+00
-0.8855110081347E+00  0.2852071831247E+00  0.0000000000000E+00
-0.9137831536806E+00  0.3284534354505E+00  0.0000000000000E+00
-0.9420552992266E+00  0.3716996877762E+00  0.0000000000000E+00
-0.4001452660089E+00 -0.4026538267990E+00  0.0000000000000E+00
-0.4262736922835E+00 -0.3605344241827E+00  0.0000000000000E+00
-0.4524021185581E+00 -0.3184150215665E+00  0.0000000000000E+00
-0.4785305448327E+00 -0.2762956189502E+00  0.0000000000000E+00
-0.5046589711073E+00 -0.2341762163340E+00  0.0000000000000E+00
-0.5307873973819E+00 -0.1920568137177E+00  0.0000000000000E+00
-0.5569158236565E+00 -0.1499374111015E+00  0.0000000000000E+00
-0.5830442499311E+00 -0.1078180084852E+00  0.0000000000000E+00
-0.6091726762057E+00 -0.6569860586900E-01  0.0000000000000E+00
-0.6353011024803E+00 -0.2357920325275E-01  0.0000000000000E+00
-0.6614295287548E+00  0.1854019936350E-01  0.0000000000000E+00
-0.6875579550294E+00  0.6065960197974E-01  0.0000000000000E+00
-0.7136863813040E+00  0.1027790045960E+00  0.0000000000000E+00
-0.7398148075786E+00  0.1448984072122E+00  0.0000000000000E+00
-0.7659432338532E+00  0.1870178098285E+00  0.0000000000000E+00
-0.7920716601278E+00  0.2291372124447E+00  0.0000000000000E+00
-0.8182000864024E+00  0.2712566150610E+00  0.0000000000000E+00
-0.8443285126770E+00  0.3133760176772E+00  0.0000000000000E+00
-0.8704569389516E+00  0.3554954202935E+00  0.0000000000000E+00
-0.3670941282270E+00 -0.3990479117006E+00  0.0000000000000E+00
-0.3911043433766E+00 -0.3581255480735E+00  0.0000000000000E+00
-0.4151145585263E+00 -0.3172031844463E+00  0.0000000000000E+00
-0.4391247736759E+00 -0.2762808208192E+00  0.0000000000000E+00
-0.4631349888256E+00 -0.2353584571920E+00  0.0000000000000E+00
-0.4871452039753E+00 -0.1944360935648E+00  0.0000000000000E+00
-0.5111554191249E+00 -0.1535137299377E+00  0.0000000000000E+00
-0.5351656342746E+00 -0.1125913663105E+00  0.0000000000000E+00
-0.5591758494243E+00 -0.7166900268338E-01  0.0000000000000E+00
-0.5831860645739E+00 -0.3074663905622E-01  0.0000000000000E+00
-0.6071962797236E+00  0.1017572457094E-01  0.0000000000000E+00
-0.6312064948732E+00  0.5109808819809E-01  0.0000000000000E+00
-0.6552167100229E+00  0.9202045182525E-01  0.0000000000000E+00
-0.6792269251726E+00  0.1329428154524E+00  0.0000000000000E+00
-0.7032371403222E+00  0.1738651790796E+00  0.0000000000000E+00
-0.7272473554719E+00  0.2147875427067E+00  0.0000000000000E+00
-0.7512575706216E+00  0.2557099063339E+00  0.0000000000000E+00
-0.7752677857712E+00  0.2966322699610E+00  0.0000000000000E+00
-0.7992780009209E+00  0.3375546335882E+00  0.0000000000000E+00
-0.3339899907783E+00 -0.3958444358955E+00  0.0000000000000E+00
-0.3558893495395E+00 -0.3561153468993E+00  0.0000000000000E+00
-0.3777887083006E+00 -0.3163862579032E+00  0.0000000000000E+00
-0.3996880670618E+00 -0.2766571689070E+00  0.0000000000000E+00
-0.4215874258230E+00 -0.2369280799109E+00  0.0000000000000E+00
-0.4434867845841E+00 -0.1971989909147E+00  0.0000000000000E+00
-0.4653861433453E+00 -0.1574699019185E+00  0.0000000000000E+00
-0.4872855021064E+00 -0.1177408129224E+00  0.0000000000000E+00
-0.5091848608676E+00 -0.7801172392620E-01  0.0000000000000E+00
-0.5310842196287E+00 -0.3828263493003E-01  0.0000000000000E+00
-0.5529835783899E+00  0.1446454066132E-02  0.0000000000000E+00
-0.5748829371510E+00  0.4117554306230E-01  0.0000000000000E+00
-0.5967822959122E+00  0.8090463205846E-01  0.0000000000000E+00
-0.6186816546733E+00  0.1206337210546E+00  0.0000000000000E+00
-0.6405810134345E+00  0.1603628100508E+00  0.0000000000000E+00
-0.6624803721956E+00  0.2000918990470E+00  0.0000000000000E+00
-0.6843797309568E+00  0.2398209880431E+00  0.0000000000000E+00
-0.7062790897179E+00  0.2795500770393E+00  0.0000000000000E+00
-0.7281784484791E+00  0.3192791660354E+00  0.0000000000000E+00
-0.3008163579508E+00 -0.3929631427710E+00  0.0000000000000E+00
-0.3205906658870E+00 -0.3543402622484E+00  0.0000000000000E+00
-0.3403649738232E+00 -0.3157173817257E+00  0.0000000000000E+00
-0.3601392817595E+00 -0.2770945012030E+00  0.0000000000000E+00
-0.3799135896957E+00 -0.2384716206803E+00  0.0000000000000E+00
-0.3996878976320E+00 -0.1998487401576E+00  0.0000000000000E+00
-0.4194622055682E+00 -0.1612258596350E+00  0.0000000000000E+00
-0.4392365135044E+00 -0.1226029791123E+00  0.0000000000000E+00
-0.4590108214407E+00 -0.8398009858960E-01  0.0000000000000E+00
-0.4787851293769E+00 -0.4535721806692E-01  0.0000000000000E+00
-0.4985594373131E+00 -0.6734337544235E-02  0.0000000000000E+00
-0.5183337452494E+00  0.3188854297845E-01  0.0000000000000E+00
-0.5381080531856E+00  0.7051142350113E-01  0.0000000000000E+00
-0.5578823611218E+00  0.1091343040238E+00  0.0000000000000E+00
-0.5776566690581E+00  0.1477571845465E+00  0.0000000000000E+00
-0.5974309769943E+00  0.1863800650692E+00  0.0000000000000E+00
-0.6172052849306E+00  0.2250029455919E+00  0.0000000000000E+00
-0.6369795928668E+00  0.2636258261145E+00  0.0000000000000E+00
-0.6567539008030E+00  0.3022487066372E+00  0.0000000000000E+00
-0.2675697753590E+00 -0.3903634585794E+00  0.0000000000000E+00
-0.2851962171292E+00 -0.3527163567611E+00  0.0000000000000E+00
-0.3028226588994E+00 -0.3150692549428E+00  0.0000000000000E+00
-0.3204491006696E+00 -0.2774221531245E+00  0.0000000000000E+00
-0.3380755424398E+00 -0.2397750513062E+00  0.0000000000000E+00
-0.3557019842100E+00 -0.2021279494878E+00  0.0000000000000E+00
-0.3733284259802E+00 -0.1644808476695E+00  0.0000000000000E+00
-0.3909548677504E+00 -0.1268337458512E+00  0.0000000000000E+00
-0.4085813095206E+00 -0.8918664403293E-01  0.0000000000000E+00
-0.4262077512908E+00 -0.5153954221463E-01  0.0000000000000E+00
-0.4438341930610E+00 -0.1389244039632E-01  0.0000000000000E+00
-0.4614606348312E+00  0.2375466142199E-01  0.0000000000000E+00
-0.4790870766014E+00  0.6140176324029E-01  0.0000000000000E+00
-0.4967135183717E+00  0.9904886505860E-01  0.0000000000000E+00
-0.5143399601419E+00  0.1366959668769E+00  0.0000000000000E+00
-0.5319664019121E+00  0.1743430686952E+00  0.0000000000000E+00
-0.5495928436823E+00  0.2119901705135E+00  0.0000000000000E+00
-0.5672192854525E+00  0.2496372723318E+00  0.0000000000000E+00
-0.5848457272227E+00  0.2872843741501E+00  0.0000000000000E+00
-0.2342578969919E+00 -0.3880438745316E+00  0.0000000000000E+00
-0.2497160431228E+00 -0.3512380881835E+00  0.0000000000000E+00
-0.2651741892537E+00 -0.3144323018355E+00  0.0000000000000E+00
-0.2806323353846E+00 -0.2776265154874E+00  0.0000000000000E+00
-0.2960904815155E+00 -0.2408207291393E+00  0.0000000000000E+00
-0.3115486276463E+00 -0.2040149427913E+00  0.0000000000000E+00
-0.3270067737772E+00 -0.1672091564432E+00  0.0000000000000E+00
-0.3424649199081E+00 -0.1304033700952E+00  0.0000000000000E+00
-0.3579230660390E+00 -0.9359758374711E-01  0.0000000000000E+00
-0.3733812121699E+00 -0.5679179739905E-01  0.0000000000000E+00
-0.3888393583008E+00 -0.1998601105098E-01  0.0000000000000E+00
-0.4042975044317E+00  0.1681977529708E-01  0.0000000000000E+00
-0.4197556505626E+00  0.5362556164514E-01  0.0000000000000E+00
-0.4352137966935E+00  0.9043134799320E-01  0.0000000000000E+00
-0.4506719428244E+00  0.1272371343413E+00  0.0000000000000E+00
-0.4661300889553E+00  0.1640429206893E+00  0.0000000000000E+00
-0.4815882350862E+00  0.2008487070374E+00  0.0000000000000E+00
-0.4970463812171E+00  0.2376544933854E+00  0.0000000000000E+00
-0.5125045273480E+00  0.2744602797335E+00  0.0000000000000E+00
-0.2008905517879E+00 -0.3860140358384E+00  0.0000000000000E+00
-0.2141644306440E+00 -0.3499224952607E+00  0.0000000000000E+00
-0.2274383095000E+00 -0.3138309546829E+00  0.0000000000000E+00
-0.2407121883561E+00 -0.2777394141052E+00  0.0000000000000E+00
-0.2539860672121E+00 -0.2416478735275E+00  0.0000000000000E+00
-0.2672599460682E+00 -0.2055563329498E+00  0.0000000000000E+00
-0.2805338249242E+00 -0.1694647923721E+00  0.0000000000000E+00
-0.2938077037803E+00 -0.1333732517943E+00  0.0000000000000E+00
-0.3070815826363E+00 -0.9728171121661E-01  0.0000000000000E+00
-0.3203554614924E+00 -0.6119017063889E-01  0.0000000000000E+00
-0.3336293403484E+00 -0.2509863006116E-01  0.0000000000000E+00
-0.3469032192045E+00  0.1099291051656E-01  0.0000000000000E+00
-0.3601770980605E+00  0.4708445109428E-01  0.0000000000000E+00
-0.3734509769166E+00  0.8317599167200E-01  0.0000000000000E+00
-0.3867248557726E+00  0.1192675322497E+00  0.0000000000000E+00
-0.3999987346287E+00  0.1553590728274E+00  0.0000000000000E+00
-0.4132726134847E+00  0.1914506134052E+00  0.0000000000000E+00
-0.4265464923408E+00  0.2275421539829E+00  0.0000000000000E+00
-0.4398203711968E+00  0.2636336945606E+00  0.0000000000000E+00
-0.1674771093533E+00 -0.3842843495524E+00  0.0000000000000E+00
-0.1785546413643E+00 -0.3487884211107E+00  0.0000000000000E+00
-0.1896321733754E+00 -0.3132924926690E+00  0.0000000000000E+00
-0.2007097053864E+00 -0.2777965642273E+00  0.0000000000000E+00
-0.2117872373974E+00 -0.2423006357856E+00  0.0000000000000E+00
-0.2228647694084E+00 -0.2068047073439E+00  0.0000000000000E+00
-0.2339423014194E+00 -0.1713087789022E+00  0.0000000000000E+00
-0.2450198334305E+00 -0.1358128504605E+00  0.0000000000000E+00
-0.2560973654415E+00 -0.1003169220188E+00  0.0000000000000E+00
-0.2671748974525E+00 -0.6482099357711E-01  0.0000000000000E+00
-0.2782524294635E+00 -0.2932506513542E-01  0.0000000000000E+00
-0.2893299614745E+00  0.6170863306275E-02  0.0000000000000E+00
-0.3004074934856E+00  0.4166679174797E-01  0.0000000000000E+00
-0.3114850254966E+00  0.7716272018966E-01  0.0000000000000E+00
-0.3225625575076E+00  0.1126586486314E+00  0.0000000000000E+00
-0.3336400895186E+00  0.1481545770730E+00  0.0000000000000E+00
-0.3447176215296E+00  0.1836505055147E+00  0.0000000000000E+00
-0.3557951535407E+00  0.2191464339564E+00  0.0000000000000E+00
-0.3668726855517E+00  0.2546423623981E+00  0.0000000000000E+00
-0.1340261091775E+00 -0.3828631734966E+00  0.0000000000000E+00
-0.1428982089424E+00 -0.3478509012348E+00  0.0000000000000E+00
-0.1517703087072E+00 -0.3128386289729E+00  0.0000000000000E+00
-0.1606424084721E+00 -0.2778263567111E+00  0.0000000000000E+00
-0.1695145082369E+00 -0.2428140844493E+00  0.0000000000000E+00
-0.1783866080018E+00 -0.2078018121875E+00  0.0000000000000E+00
-0.1872587077666E+00 -0.1727895399257E+00  0.0000000000000E+00
-0.1961308075315E+00 -0.1377772676639E+00  0.0000000000000E+00
-0.2050029072963E+00 -0.1027649954021E+00  0.0000000000000E+00
-0.2138750070612E+00 -0.6775272314032E-01  0.0000000000000E+00
-0.2227471068260E+00 -0.3274045087851E-01  0.0000000000000E+00
-0.2316192065909E+00  0.2271821383293E-02  0.0000000000000E+00
-0.2404913063557E+00  0.3728409364510E-01  0.0000000000000E+00
-0.2493634061206E+00  0.7229636590690E-01  0.0000000000000E+00
-0.2582355058855E+00  0.1073086381687E+00  0.0000000000000E+00
-0.2671076056503E+00  0.1423209104305E+00  0.0000000000000E+00
-0.2759797054152E+00  0.1773331826923E+00  0.0000000000000E+00
-0.2848518051800E+00  0.2123454549541E+00  0.0000000000000E+00
-0.2937239049449E+00  0.2473577272159E+00  0.0000000000000E+00
-0.1005454709900E+00 -0.3817562677518E+00  0.0000000000000E+00
-0.1072053602565E+00 -0.3471200718438E+00  0.0000000000000E+00
-0.1138652495230E+00 -0.3124838759358E+00  0.0000000000000E+00
-0.1205251387895E+00 -0.2778476800278E+00  0.0000000000000E+00
-0.1271850280560E+00 -0.2432114841198E+00  0.0000000000000E+00
-0.1338449173226E+00 -0.2085752882118E+00  0.0000000000000E+00
-0.1405048065891E+00 -0.1739390923039E+00  0.0000000000000E+00
-0.1471646958556E+00 -0.1393028963959E+00  0.0000000000000E+00
-0.1538245851221E+00 -0.1046667004879E+00  0.0000000000000E+00
-0.1604844743886E+00 -0.7003050457989E-01  0.0000000000000E+00
-0.1671443636552E+00 -0.3539430867190E-01  0.0000000000000E+00
-0.1738042529217E+00 -0.7581127639063E-03  0.0000000000000E+00
-0.1804641421882E+00  0.3387808314408E-01  0.0000000000000E+00
-0.1871240314547E+00  0.6851427905207E-01  0.0000000000000E+00
-0.1937839207212E+00  0.1031504749601E+00  0.0000000000000E+00
-0.2004438099878E+00  0.1377866708681E+00  0.0000000000000E+00
-0.2071036992543E+00  0.1724228667760E+00  0.0000000000000E+00
-0.2137635885208E+00  0.2070590626840E+00  0.0000000000000E+00
-0.2204234777873E+00  0.2416952585920E+00  0.0000000000000E+00
-0.6704270627605E-01 -0.3809667730720E+00  0.0000000000000E+00
-0.7148545141935E-01 -0.3466011322144E+00  0.0000000000000E+00
-0.7592819656265E-01 -0.3122354913569E+00  0.0000000000000E+00
-0.8037094170595E-01 -0.2778698504993E+00  0.0000000000000E+00
-0.8481368684925E-01 -0.2435042096418E+00  0.0000000000000E+00
-0.8925643199255E-01 -0.2091385687842E+00  0.0000000000000E+00
-0.9369917713585E-01 -0.1747729279267E+00  0.0000000000000E+00
-0.9814192227916E-01 -0.1404072870692E+00  0.0000000000000E+00
-0.1025846674225E+00 -0.1060416462116E+00  0.0000000000000E+00
-0.1070274125658E+00 -0.7167600535406E-01  0.0000000000000E+00
-0.1114701577091E+00 -0.3731036449652E-01  0.0000000000000E+00
-0.1159129028524E+00 -0.2944723638973E-02  0.0000000000000E+00
-0.1203556479957E+00  0.3142091721857E-01  0.0000000000000E+00
-0.1247983931390E+00  0.6578655807612E-01  0.0000000000000E+00
-0.1292411382823E+00  0.1001521989337E+00  0.0000000000000E+00
-0.1336838834256E+00  0.1345178397912E+00  0.0000000000000E+00
-0.1381266285689E+00  0.1688834806488E+00  0.0000000000000E+00
-0.1425693737122E+00  0.2032491215063E+00  0.0000000000000E+00
-0.1470121188555E+00  0.2376147623638E+00  0.0000000000000E+00
-0.3352511022345E-01 -0.3804951770728E+00  0.0000000000000E+00
-0.3574736497451E-01 -0.3462942814123E+00  0.0000000000000E+00
-0.3796961972557E-01 -0.3120933857518E+00  0.0000000000000E+00
-0.4019187447663E-01 -0.2778924900913E+00  0.0000000000000E+00
-0.4241412922770E-01 -0.2436915944307E+00  0.0000000000000E+00
-0.4463638397876E-01 -0.2094906987702E+00  0.0000000000000E+00
-0.4685863872982E-01 -0.1752898031097E+00  0.0000000000000E+00
-0.4908089348088E-01 -0.1410889074492E+00  0.0000000000000E+00
-0.5130314823194E-01 -0.1068880117887E+00  0.0000000000000E+00
-0.5352540298300E-01 -0.7268711612818E-01  0.0000000000000E+00
-0.5574765773406E-01 -0.3848622046767E-01  0.0000000000000E+00
-0.5796991248513E-01 -0.4285324807156E-02  0.0000000000000E+00
-0.6019216723619E-01  0.2991557085336E-01  0.0000000000000E+00
-0.6241442198725E-01  0.6411646651387E-01  0.0000000000000E+00
-0.6463667673831E-01  0.9831736217438E-01  0.0000000000000E+00
-0.6685893148937E-01  0.1325182578349E+00  0.0000000000000E+00
-0.6908118624043E-01  0.1667191534954E+00  0.0000000000000E+00
-0.7130344099149E-01  0.2009200491559E+00  0.0000000000000E+00
-0.7352569574256E-01  0.2351209448164E+00  0.0000000000000E+00
-0.9110412026432E-10 -0.3803390679715E+00  0.0000000000000E+00
-0.1822078997847E-09 -0.3461942289011E+00  0.0000000000000E+00
-0.2733118597163E-09 -0.3120493898306E+00  0.0000000000000E+00
-0.3644157225034E-09 -0.2779045507602E+00  0.0000000000000E+00
-0.4555196408017E-09 -0.2437597116898E+00  0.0000000000000E+00
-0.5466234480776E-09 -0.2096148726194E+00  0.0000000000000E+00
-0.6377270888201E-09 -0.1754700335490E+00  0.0000000000000E+00
-0.7288309516072E-09 -0.1413251944785E+00  0.0000000000000E+00
-0.8199347588832E-09 -0.1071803554081E+00  0.0000000000000E+00
-0.9110384551368E-09 -0.7303551633770E-01  0.0000000000000E+00
-0.1002142373435E-08 -0.3889067726728E-01  0.0000000000000E+00
-0.1093246125200E-08 -0.4745838196866E-02  0.0000000000000E+00
-0.1184349710431E-08  0.2939900087355E-01  0.0000000000000E+00
-0.1275453573218E-08  0.6354383994397E-01  0.0000000000000E+00
-0.1366557602539E-08  0.9768867901439E-01  0.0000000000000E+00
-0.1457661298793E-08  0.1318335180848E+00  0.0000000000000E+00
-0.1548765106068E-08  0.1659783571552E+00  0.0000000000000E+00
-0.1639868913344E-08  0.2001231962256E+00  0.0000000000000E+00
-0.1730972498576E-08  0.2342680352961E+00  0.0000000000000E+00
 0.3352511004131E-01 -0.3804951770771E+00  0.0000000000000E+00
 0.3574736461023E-01 -0.3462942814209E+00  0.0000000000000E+00
 0.3796961917915E-01 -0.3120933857647E+00  0.0000000000000E+00
 0.4019187374807E-01 -0.2778924901086E+00  0.0000000000000E+00
 0.4241412831699E-01 -0.2436915944524E+00  0.0000000000000E+00
 0.4463638288591E-01 -0.2094906987962E+00  0.0000000000000E+00
 0.4685863745483E-01 -0.1752898031400E+00  0.0000000000000E+00
 0.4908089202375E-01 -0.1410889074838E+00  0.0000000000000E+00
 0.5130314659267E-01 -0.1068880118276E+00  0.0000000000000E+00
 0.5352540116158E-01 -0.7268711617143E-01  0.0000000000000E+00
 0.5574765573050E-01 -0.3848622051524E-01  0.0000000000000E+00
 0.5796991029942E-01 -0.4285324859053E-02  0.0000000000000E+00
 0.6019216486834E-01  0.2991557079713E-01  0.0000000000000E+00
 0.6241441943726E-01  0.6411646645332E-01  0.0000000000000E+00
 0.6463667400618E-01  0.9831736210951E-01  0.0000000000000E+00
 0.6685892857510E-01  0.1325182577657E+00  0.0000000000000E+00
 0.6908118314402E-01  0.1667191534219E+00  0.0000000000000E+00
 0.7130343771294E-01  0.2009200490781E+00  0.0000000000000E+00
 0.7352569228186E-01  0.2351209447343E+00  0.0000000000000E+00
 0.6704270609402E-01 -0.3809667730804E+00  0.0000000000000E+00
 0.7148545105530E-01 -0.3466011322313E+00  0.0000000000000E+00
 0.7592819601657E-01 -0.3122354913822E+00  0.0000000000000E+00
 0.8037094097785E-01 -0.2778698505331E+00  0.0000000000000E+00
 0.8481368593912E-01 -0.2435042096840E+00  0.0000000000000E+00
 0.8925643090040E-01 -0.2091385688349E+00  0.0000000000000E+00
 0.9369917586167E-01 -0.1747729279858E+00  0.0000000000000E+00
 0.9814192082294E-01 -0.1404072871367E+00  0.0000000000000E+00
 0.1025846657842E+00 -0.1060416462876E+00  0.0000000000000E+00
 0.1070274107455E+00 -0.7167600543851E-01  0.0000000000000E+00
 0.1114701557068E+00 -0.3731036458941E-01  0.0000000000000E+00
 0.1159129006680E+00 -0.2944723740310E-02  0.0000000000000E+00
 0.1203556456293E+00  0.3142091710879E-01  0.0000000000000E+00
 0.1247983905906E+00  0.6578655795789E-01  0.0000000000000E+00
 0.1292411355519E+00  0.1001521988070E+00  0.0000000000000E+00
 0.1336838805131E+00  0.1345178396561E+00  0.0000000000000E+00
 0.1381266254744E+00  0.1688834805052E+00  0.0000000000000E+00
 0.1425693704357E+00  0.2032491213543E+00  0.0000000000000E+00
 0.1470121153970E+00  0.2376147622034E+00  0.0000000000000E+00
 0.1005454708081E+00 -0.3817562677643E+00  0.0000000000000E+00
 0.1072053598928E+00 -0.3471200718688E+00  0.0000000000000E+00
 0.1138652489775E+00 -0.3124838759733E+00  0.0000000000000E+00
 0.1205251380622E+00 -0.2778476800778E+00  0.0000000000000E+00
 0.1271850271469E+00 -0.2432114841823E+00  0.0000000000000E+00
 0.1338449162316E+00 -0.2085752882868E+00  0.0000000000000E+00
 0.1405048053162E+00 -0.1739390923913E+00  0.0000000000000E+00
 0.1471646944009E+00 -0.1393028964959E+00  0.0000000000000E+00
 0.1538245834856E+00 -0.1046667006004E+00  0.0000000000000E+00
 0.1604844725703E+00 -0.7003050470487E-01  0.0000000000000E+00
 0.1671443616550E+00 -0.3539430880938E-01  0.0000000000000E+00
 0.1738042507397E+00 -0.7581129138917E-03  0.0000000000000E+00
 0.1804641398244E+00  0.3387808298160E-01  0.0000000000000E+00
 0.1871240289091E+00  0.6851427887709E-01  0.0000000000000E+00
 0.1937839179937E+00  0.1031504747726E+00  0.0000000000000E+00
 0.2004438070784E+00  0.1377866706681E+00  0.0000000000000E+00
 0.2071036961631E+00  0.1724228665636E+00  0.0000000000000E+00
 0.2137635852478E+00  0.2070590624591E+00  0.0000000000000E+00
 0.2204234743325E+00  0.2416952583545E+00  0.0000000000000E+00
 0.1340261089962E+00 -0.3828631735131E+00  0.0000000000000E+00
 0.1428982085797E+00 -0.3478509012679E+00  0.0000000000000E+00
 0.1517703081632E+00 -0.3128386290227E+00  0.0000000000000E+00
 0.1606424077467E+00 -0.2778263567775E+00  0.0000000000000E+00
 0.1695145073302E+00 -0.2428140845323E+00  0.0000000000000E+00
 0.1783866069137E+00 -0.2078018122871E+00  0.0000000000000E+00
 0.1872587064972E+00 -0.1727895400418E+00  0.0000000000000E+00
 0.1961308060807E+00 -0.1377772677966E+00  0.0000000000000E+00
 0.2050029056642E+00 -0.1027649955514E+00  0.0000000000000E+00
 0.2138750052477E+00 -0.6775272330619E-01  0.0000000000000E+00
 0.2227471048312E+00 -0.3274045106098E-01  0.0000000000000E+00
 0.2316192044147E+00  0.2271821184241E-02  0.0000000000000E+00
 0.2404913039982E+00  0.3728409342946E-01  0.0000000000000E+00
 0.2493634035817E+00  0.7229636567468E-01  0.0000000000000E+00
 0.2582355031652E+00  0.1073086379199E+00  0.0000000000000E+00
 0.2671076027487E+00  0.1423209101651E+00  0.0000000000000E+00
 0.2759797023322E+00  0.1773331824103E+00  0.0000000000000E+00
 0.2848518019157E+00  0.2123454546555E+00  0.0000000000000E+00
 0.2937239014992E+00  0.2473577269008E+00  0.0000000000000E+00
 0.1674771091722E+00 -0.3842843495732E+00  0.0000000000000E+00
 0.1785546410022E+00 -0.3487884211524E+00  0.0000000000000E+00
 0.1896321728322E+00 -0.3132924927316E+00  0.0000000000000E+00
 0.2007097046621E+00 -0.2777965643107E+00  0.0000000000000E+00
 0.2117872364921E+00 -0.2423006358899E+00  0.0000000000000E+00
 0.2228647683220E+00 -0.2068047074691E+00  0.0000000000000E+00
 0.2339423001520E+00 -0.1713087790483E+00  0.0000000000000E+00
 0.2450198319819E+00 -0.1358128506275E+00  0.0000000000000E+00
 0.2560973638119E+00 -0.1003169222066E+00  0.0000000000000E+00
 0.2671748956418E+00 -0.6482099378580E-01  0.0000000000000E+00
 0.2782524274718E+00 -0.2932506536498E-01  0.0000000000000E+00
 0.2893299593017E+00  0.6170863055847E-02  0.0000000000000E+00
 0.3004074911317E+00  0.4166679147667E-01  0.0000000000000E+00
 0.3114850229616E+00  0.7716271989750E-01  0.0000000000000E+00
 0.3225625547916E+00  0.1126586483183E+00  0.0000000000000E+00
 0.3336400866215E+00  0.1481545767391E+00  0.0000000000000E+00
 0.3447176184515E+00  0.1836505051600E+00  0.0000000000000E+00
 0.3557951502814E+00  0.2191464335808E+00  0.0000000000000E+00
 0.3668726821114E+00  0.2546423620016E+00  0.0000000000000E+00
 0.2008905516076E+00 -0.3860140358638E+00  0.0000000000000E+00
 0.2141644302833E+00 -0.3499224953114E+00  0.0000000000000E+00
 0.2274383089590E+00 -0.3138309547591E+00  0.0000000000000E+00
 0.2407121876348E+00 -0.2777394142068E+00  0.0000000000000E+00
 0.2539860663105E+00 -0.2416478736544E+00  0.0000000000000E+00
 0.2672599449862E+00 -0.2055563331021E+00  0.0000000000000E+00
 0.2805338236619E+00 -0.1694647925498E+00  0.0000000000000E+00
 0.2938077023376E+00 -0.1333732519975E+00  0.0000000000000E+00
 0.3070815810133E+00 -0.9728171144512E-01  0.0000000000000E+00
 0.3203554596891E+00 -0.6119017089279E-01  0.0000000000000E+00
 0.3336293383648E+00 -0.2509863034046E-01  0.0000000000000E+00
 0.3469032170405E+00  0.1099291021187E-01  0.0000000000000E+00
 0.3601770957162E+00  0.4708445076420E-01  0.0000000000000E+00
 0.3734509743919E+00  0.8317599131653E-01  0.0000000000000E+00
 0.3867248530677E+00  0.1192675318689E+00  0.0000000000000E+00
 0.3999987317434E+00  0.1553590724212E+00  0.0000000000000E+00
 0.4132726104191E+00  0.1914506129735E+00  0.0000000000000E+00
 0.4265464890948E+00  0.2275421535259E+00  0.0000000000000E+00
 0.4398203677705E+00  0.2636336940782E+00  0.0000000000000E+00
 0.2342578968120E+00 -0.3880438745619E+00  0.0000000000000E+00
 0.2497160427631E+00 -0.3512380882442E+00  0.0000000000000E+00
 0.2651741887142E+00 -0.3144323019265E+00  0.0000000000000E+00
 0.2806323346653E+00 -0.2776265156088E+00  0.0000000000000E+00
 0.2960904806164E+00 -0.2408207292911E+00  0.0000000000000E+00
 0.3115486265674E+00 -0.2040149429734E+00  0.0000000000000E+00
 0.3270067725185E+00 -0.1672091566557E+00  0.0000000000000E+00
 0.3424649184696E+00 -0.1304033703380E+00  0.0000000000000E+00
 0.3579230644207E+00 -0.9359758402027E-01  0.0000000000000E+00
 0.3733812103718E+00 -0.5679179770256E-01  0.0000000000000E+00
 0.3888393563228E+00 -0.1998601138485E-01  0.0000000000000E+00
 0.4042975022739E+00  0.1681977493286E-01  0.0000000000000E+00
 0.4197556482250E+00  0.5362556125056E-01  0.0000000000000E+00
 0.4352137941761E+00  0.9043134756827E-01  0.0000000000000E+00
 0.4506719401272E+00  0.1272371338860E+00  0.0000000000000E+00
 0.4661300860782E+00  0.1640429202037E+00  0.0000000000000E+00
 0.4815882320293E+00  0.2008487065214E+00  0.0000000000000E+00
 0.4970463779804E+00  0.2376544928391E+00  0.0000000000000E+00
 0.5125045239315E+00  0.2744602791568E+00  0.0000000000000E+00
 0.2675697751805E+00 -0.3903634586150E+00  0.0000000000000E+00
 0.2851962167721E+00 -0.3527163568323E+00  0.0000000000000E+00
 0.3028226583638E+00 -0.3150692550497E+00  0.0000000000000E+00
 0.3204490999555E+00 -0.2774221532670E+00  0.0000000000000E+00
 0.3380755415472E+00 -0.2397750514843E+00  0.0000000000000E+00
 0.3557019831389E+00 -0.2021279497017E+00  0.0000000000000E+00
 0.3733284247305E+00 -0.1644808479190E+00  0.0000000000000E+00
 0.3909548663222E+00 -0.1268337461363E+00  0.0000000000000E+00
 0.4085813079139E+00 -0.8918664435365E-01  0.0000000000000E+00
 0.4262077495056E+00 -0.5153954257098E-01  0.0000000000000E+00
 0.4438341910973E+00 -0.1389244078831E-01  0.0000000000000E+00
 0.4614606326889E+00  0.2375466099436E-01  0.0000000000000E+00
 0.4790870742806E+00  0.6140176277703E-01  0.0000000000000E+00
 0.4967135158723E+00  0.9904886455970E-01  0.0000000000000E+00
 0.5143399574640E+00  0.1366959663424E+00  0.0000000000000E+00
 0.5319663990557E+00  0.1743430681250E+00  0.0000000000000E+00
 0.5495928406473E+00  0.2119901699077E+00  0.0000000000000E+00
 0.5672192822390E+00  0.2496372716904E+00  0.0000000000000E+00
 0.5848457238307E+00  0.2872843734730E+00  0.0000000000000E+00
 0.3008163577734E+00 -0.3929631428122E+00  0.0000000000000E+00
 0.3205906655322E+00 -0.3543402623307E+00  0.0000000000000E+00
 0.3403649732910E+00 -0.3157173818492E+00  0.0000000000000E+00
 0.3601392810498E+00 -0.2770945013677E+00  0.0000000000000E+00
 0.3799135888087E+00 -0.2384716208863E+00  0.0000000000000E+00
 0.3996878965675E+00 -0.1998487404048E+00  0.0000000000000E+00
 0.4194622043263E+00 -0.1612258599233E+00  0.0000000000000E+00
 0.4392365120851E+00 -0.1226029794418E+00  0.0000000000000E+00
 0.4590108198439E+00 -0.8398009896027E-01  0.0000000000000E+00
 0.4787851276028E+00 -0.4535721847878E-01  0.0000000000000E+00
 0.4985594353616E+00 -0.6734337997284E-02  0.0000000000000E+00
 0.5183337431204E+00  0.3188854248421E-01  0.0000000000000E+00
 0.5381080508792E+00  0.7051142296571E-01  0.0000000000000E+00
 0.5578823586381E+00  0.1091343034472E+00  0.0000000000000E+00
 0.5776566663969E+00  0.1477571839287E+00  0.0000000000000E+00
 0.5974309741557E+00  0.1863800644102E+00  0.0000000000000E+00
 0.6172052819145E+00  0.2250029448917E+00  0.0000000000000E+00
 0.6369795896734E+00  0.2636258253732E+00  0.0000000000000E+00
 0.6567538974322E+00  0.3022487058547E+00  0.0000000000000E+00
 0.3339899906020E+00 -0.3958444359414E+00  0.0000000000000E+00
 0.3558893491867E+00 -0.3561153469911E+00  0.0000000000000E+00
 0.3777887077715E+00 -0.3163862580408E+00  0.0000000000000E+00
 0.3996880663563E+00 -0.2766571690905E+00  0.0000000000000E+00
 0.4215874249411E+00 -0.2369280801402E+00  0.0000000000000E+00
 0.4434867835259E+00 -0.1971989911899E+00  0.0000000000000E+00
 0.4653861421107E+00 -0.1574699022396E+00  0.0000000000000E+00
 0.4872855006954E+00 -0.1177408132894E+00  0.0000000000000E+00
 0.5091848592802E+00 -0.7801172433906E-01  0.0000000000000E+00
 0.5310842178650E+00 -0.3828263538877E-01  0.0000000000000E+00
 0.5529835764498E+00  0.1446453561517E-02  0.0000000000000E+00
 0.5748829350346E+00  0.4117554251181E-01  0.0000000000000E+00
 0.5967822936193E+00  0.8090463146210E-01  0.0000000000000E+00
 0.6186816522041E+00  0.1206337204124E+00  0.0000000000000E+00
 0.6405810107889E+00  0.1603628093627E+00  0.0000000000000E+00
 0.6624803693737E+00  0.2000918983130E+00  0.0000000000000E+00
 0.6843797279585E+00  0.2398209872633E+00  0.0000000000000E+00
 0.7062790865433E+00  0.2795500762135E+00  0.0000000000000E+00
 0.7281784451280E+00  0.3192791651638E+00  0.0000000000000E+00
 0.3670941280509E+00 -0.3990479117477E+00  0.0000000000000E+00
 0.3911043430246E+00 -0.3581255481675E+00  0.0000000000000E+00
 0.4151145579982E+00 -0.3172031845874E+00  0.0000000000000E+00
 0.4391247729718E+00 -0.2762808210073E+00  0.0000000000000E+00
 0.4631349879455E+00 -0.2353584574271E+00  0.0000000000000E+00
 0.4871452029191E+00 -0.1944360938470E+00  0.0000000000000E+00
 0.5111554178927E+00 -0.1535137302669E+00  0.0000000000000E+00
 0.5351656328664E+00 -0.1125913666867E+00  0.0000000000000E+00
 0.5591758478400E+00 -0.7166900310660E-01  0.0000000000000E+00
 0.5831860628136E+00 -0.3074663952647E-01  0.0000000000000E+00
 0.6071962777873E+00  0.1017572405366E-01  0.0000000000000E+00
 0.6312064927609E+00  0.5109808763380E-01  0.0000000000000E+00
 0.6552167077345E+00  0.9202045121393E-01  0.0000000000000E+00
 0.6792269227082E+00  0.1329428147941E+00  0.0000000000000E+00
 0.7032371376818E+00  0.1738651783742E+00  0.0000000000000E+00
 0.7272473526555E+00  0.2147875419543E+00  0.0000000000000E+00
 0.7512575676291E+00  0.2557099055345E+00  0.0000000000000E+00
 0.7752677826027E+00  0.2966322691146E+00  0.0000000000000E+00
 0.7992779975764E+00  0.3375546326947E+00  0.0000000000000E+00
 0.4001452658322E+00 -0.4026538268434E+00  0.0000000000000E+00
 0.4262736919301E+00 -0.3605344242716E+00  0.0000000000000E+00
 0.4524021180279E+00 -0.3184150216998E+00  0.0000000000000E+00
 0.4785305441258E+00 -0.2762956191280E+00  0.0000000000000E+00
 0.5046589702237E+00 -0.2341762165562E+00  0.0000000000000E+00
 0.5307873963216E+00 -0.1920568139844E+00  0.0000000000000E+00
 0.5569158224194E+00 -0.1499374114126E+00  0.0000000000000E+00
 0.5830442485173E+00 -0.1078180088408E+00  0.0000000000000E+00
 0.6091726746152E+00 -0.6569860626900E-01  0.0000000000000E+00
 0.6353011007131E+00 -0.2357920369720E-01  0.0000000000000E+00
 0.6614295268109E+00  0.1854019887460E-01  0.0000000000000E+00
 0.6875579529088E+00  0.6065960144641E-01  0.0000000000000E+00
 0.7136863790067E+00  0.1027790040182E+00  0.0000000000000E+00
 0.7398148051046E+00  0.1448984065900E+00  0.0000000000000E+00
 0.7659432312024E+00  0.1870178091618E+00  0.0000000000000E+00
 0.7920716573003E+00  0.2291372117336E+00  0.0000000000000E+00
 0.8182000833982E+00  0.2712566143054E+00  0.0000000000000E+00
 0.8443285094961E+00  0.3133760168772E+00  0.0000000000000E+00
 0.8704569355939E+00  0.3554954194490E+00  0.0000000000000E+00
 0.4331566792210E+00 -0.4067328541253E+00  0.0000000000000E+00
 0.4614288245888E+00 -0.3634866018376E+00  0.0000000000000E+00
 0.4897009699565E+00 -0.3202403495500E+00  0.0000000000000E+00
 0.5179731153242E+00 -0.2769940972623E+00  0.0000000000000E+00
 0.5462452606920E+00 -0.2337478449747E+00  0.0000000000000E+00
 0.5745174060597E+00 -0.1905015926870E+00  0.0000000000000E+00
 0.6027895514275E+00 -0.1472553403993E+00  0.0000000000000E+00
 0.6310616967952E+00 -0.1040090881117E+00  0.0000000000000E+00
 0.6593338421629E+00 -0.6076283582400E-01  0.0000000000000E+00
 0.6876059875307E+00 -0.1751658353633E-01  0.0000000000000E+00
 0.7158781328984E+00  0.2572966875133E-01  0.0000000000000E+00
 0.7441502782662E+00  0.6897592103899E-01  0.0000000000000E+00
 0.7724224236339E+00  0.1122221733267E+00  0.0000000000000E+00
 0.8006945690017E+00  0.1554684256143E+00  0.0000000000000E+00
 0.8289667143694E+00  0.1987146779020E+00  0.0000000000000E+00
 0.8572388597371E+00  0.2419609301896E+00  0.0000000000000E+00
 0.8855110051049E+00  0.2852071824773E+00  0.0000000000000E+00
 0.9137831504726E+00  0.3284534347650E+00  0.0000000000000E+00
 0.9420552958404E+00  0.3716996870526E+00  0.0000000000000E+00
 0.4661358892480E+00 -0.4113546121035E+00  0.0000000000000E+00
 0.4965895943463E+00 -0.3671248415798E+00  0.0000000000000E+00
 0.5270432994446E+00 -0.3228950710562E+00  0.0000000000000E+00
 0.5574970045428E+00 -0.2786653005325E+00  0.0000000000000E+00
 0.5879507096411E+00 -0.2344355300089E+00  0.0000000000000E+00
 0.6184044147394E+00 -0.1902057594852E+00  0.0000000000000E+00
 0.6488581198376E+00 -0.1459759889615E+00  0.0000000000000E+00
 0.6793118249359E+00 -0.1017462184379E+00  0.0000000000000E+00
 0.7097655300342E+00 -0.5751644791423E-01  0.0000000000000E+00
 0.7402192351324E+00 -0.1328667739058E-01  0.0000000000000E+00
 0.7706729402307E+00  0.3094309313308E-01  0.0000000000000E+00
 0.8011266453290E+00  0.7517286365674E-01  0.0000000000000E+00
 0.8315803504272E+00  0.1194026341804E+00  0.0000000000000E+00
 0.8620340555255E+00  0.1636324047041E+00  0.0000000000000E+00
 0.8924877606238E+00  0.2078621752277E+00  0.0000000000000E+00
 0.9229414657220E+00  0.2520919457514E+00  0.0000000000000E+00
 0.9533951708203E+00  0.2963217162750E+00  0.0000000000000E+00
 0.9838488759186E+00  0.3405514867987E+00  0.0000000000000E+00
 0.1014302581017E+01  0.3847812573223E+00  0.0000000000000E+00
 0.4990802664438E+00 -0.4165840327379E+00  0.0000000000000E+00
 0.5317553215595E+00 -0.3715827348342E+00  0.0000000000000E+00
 0.5644303766752E+00 -0.3265814369305E+00  0.0000000000000E+00
 0.5971054317909E+00 -0.2815801390268E+00  0.0000000000000E+00
 0.6297804869067E+00 -0.2365788411232E+00  0.0000000000000E+00
 0.6624555420224E+00 -0.1915775432195E+00  0.0000000000000E+00
 0.6951305971381E+00 -0.1465762453158E+00  0.0000000000000E+00
 0.7278056522539E+00 -0.1015749474121E+00  0.0000000000000E+00
 0.7604807073696E+00 -0.5657364950839E-01  0.0000000000000E+00
 0.7931557624853E+00 -0.1157235160470E-01  0.0000000000000E+00
 0.8258308176011E+00  0.3342894629900E-01  0.0000000000000E+00
 0.8585058727168E+00  0.7843024420269E-01  0.0000000000000E+00
 0.8911809278325E+00  0.1234315421064E+00  0.0000000000000E+00
 0.9238559829483E+00  0.1684328400101E+00  0.0000000000000E+00
 0.9565310380640E+00  0.2134341379138E+00  0.0000000000000E+00
 0.9892060931797E+00  0.2584354358175E+00  0.0000000000000E+00
 0.1021881148295E+01  0.3034367337211E+00  0.0000000000000E+00
 0.1054556203411E+01  0.3484380316248E+00  0.0000000000000E+00
 0.1087231258527E+01  0.3934393295285E+00  0.0000000000000E+00
 0.5319747862026E+00 -0.4224941396770E+00  0.0000000000000E+00
 0.5669005035122E+00 -0.3770102860085E+00  0.0000000000000E+00
 0.6018262208219E+00 -0.3315264323400E+00  0.0000000000000E+00
 0.6367519381315E+00 -0.2860425786714E+00  0.0000000000000E+00
 0.6716776554412E+00 -0.2405587250029E+00  0.0000000000000E+00
 0.7066033727508E+00 -0.1950748713344E+00  0.0000000000000E+00
 0.7415290900604E+00 -0.1495910176658E+00  0.0000000000000E+00
 0.7764548073701E+00 -0.1041071639973E+00  0.0000000000000E+00
 0.8113805246797E+00 -0.5862331032874E-01  0.0000000000000E+00
 0.8463062419894E+00 -0.1313945666021E-01  0.0000000000000E+00
 0.8812319592990E+00  0.3234439700833E-01  0.0000000000000E+00
 0.9161576766086E+00  0.7782825067687E-01  0.0000000000000E+00
 0.9510833939183E+00  0.1233121043454E+00  0.0000000000000E+00
 0.9860091112279E+00  0.1687959580139E+00  0.0000000000000E+00
 0.1020934828538E+01  0.2142798116825E+00  0.0000000000000E+00
 0.1055860545847E+01  0.2597636653510E+00  0.0000000000000E+00
 0.1090786263157E+01  0.3052475190195E+00  0.0000000000000E+00
 0.1125711980466E+01  0.3507313726881E+00  0.0000000000000E+00
 0.1160637697776E+01  0.3962152263566E+00  0.0000000000000E+00
 0.5647851635818E+00 -0.4291779471573E+00  0.0000000000000E+00
 0.6019607638464E+00 -0.3835976335334E+00  0.0000000000000E+00
 0.6391363641111E+00 -0.3380173199096E+00  0.0000000000000E+00
 0.6763119643757E+00 -0.2924370062857E+00  0.0000000000000E+00
 0.7134875646404E+00 -0.2468566926618E+00  0.0000000000000E+00
 0.7506631649050E+00 -0.2012763790380E+00  0.0000000000000E+00
 0.7878387651697E+00 -0.1556960654141E+00  0.0000000000000E+00
 0.8250143654344E+00 -0.1101157517902E+00  0.0000000000000E+00
 0.8621899656990E+00 -0.6453543816633E-01  0.0000000000000E+00
 0.8993655659637E+00 -0.1895512454246E-01  0.0000000000000E+00
 0.9365411662283E+00  0.2662518908141E-01  0.0000000000000E+00
 0.9737167664930E+00  0.7220550270529E-01  0.0000000000000E+00
 0.1010892366758E+01  0.1177858163292E+00  0.0000000000000E+00
 0.1048067967022E+01  0.1633661299530E+00  0.0000000000000E+00
 0.1085243567287E+01  0.2089464435769E+00  0.0000000000000E+00
 0.1122419167552E+01  0.2545267572008E+00  0.0000000000000E+00
 0.1159594767816E+01  0.3001070708247E+00  0.0000000000000E+00
 0.1196770368081E+01  0.3456873844485E+00  0.0000000000000E+00
 0.1233945968346E+01  0.3912676980724E+00  0.0000000000000E+00
 0.5974622414189E+00 -0.4366441451446E+00  0.0000000000000E+00
 0.6368419582214E+00 -0.3913664748674E+00  0.0000000000000E+00
 0.6762216750239E+00 -0.3460888045901E+00  0.0000000000000E+00
 0.7156013918264E+00 -0.3008111343129E+00  0.0000000000000E+00
 0.7549811086289E+00 -0.2555334640357E+00  0.0000000000000E+00
 0.7943608254314E+00 -0.2102557937584E+00  0.0000000000000E+00
 0.8337405422339E+00 -0.1649781234812E+00  0.0000000000000E+00
 0.8731202590364E+00 -0.1197004532040E+00  0.0000000000000E+00
 0.9124999758389E+00 -0.7442278292673E-01  0.0000000000000E+00
 0.9518796926414E+00 -0.2914511264950E-01  0.0000000000000E+00
 0.9912594094439E+00  0.1613255762773E-01  0.0000000000000E+00
 0.1030639126246E+01  0.6141022790496E-01  0.0000000000000E+00
 0.1070018843049E+01  0.1066878981822E+00  0.0000000000000E+00
 0.1109398559851E+01  0.1519655684594E+00  0.0000000000000E+00
 0.1148778276654E+01  0.1972432387367E+00  0.0000000000000E+00
 0.1188157993456E+01  0.2425209090139E+00  0.0000000000000E+00
 0.1227537710259E+01  0.2877985792911E+00  0.0000000000000E+00
 0.1266917427061E+01  0.3330762495684E+00  0.0000000000000E+00
 0.1306297143864E+01  0.3783539198456E+00  0.0000000000000E+00
 0.6299559713731E+00 -0.4448788634348E+00  0.0000000000000E+00
 0.6714480731557E+00 -0.4002935754811E+00  0.0000000000000E+00
 0.7129401749383E+00 -0.3557082875275E+00  0.0000000000000E+00
 0.7544322767209E+00 -0.3111229995738E+00  0.0000000000000E+00
 0.7959243785035E+00 -0.2665377116201E+00  0.0000000000000E+00
 0.8374164802861E+00 -0.2219524236665E+00  0.0000000000000E+00
 0.8789085820687E+00 -0.1773671357128E+00  0.0000000000000E+00
 0.9204006838513E+00 -0.1327818477591E+00  0.0000000000000E+00
 0.9618927856339E+00 -0.8819655980548E-01  0.0000000000000E+00
 0.1003384887417E+01 -0.4361127185182E-01  0.0000000000000E+00
 0.1044876989199E+01  0.9740161018480E-03  0.0000000000000E+00
 0.1086369090982E+01  0.4555930405551E-01  0.0000000000000E+00
 0.1127861192764E+01  0.9014459200918E-01  0.0000000000000E+00
 0.1169353294547E+01  0.1347298799628E+00  0.0000000000000E+00
 0.1210845396330E+01  0.1793151679165E+00  0.0000000000000E+00
 0.1252337498112E+01  0.2239004558702E+00  0.0000000000000E+00
 0.1293829599895E+01  0.2684857438238E+00  0.0000000000000E+00
 0.1335321701677E+01  0.3130710317775E+00  0.0000000000000E+00
 0.1376813803460E+01  0.3576563197312E+00  0.0000000000000E+00
</DataArray>
</Points>
<Cells>
<DataArray type="Int64" Name="connectivity" format="ascii">
0 11 438 243
243 438 439 244
244 439 440 245
245 440 441 246
246 441 442 247
247 442 443 248
248 443 444 249
249 444 445 250
250 445 446 251
251 446 447 252
252 447 448 253
253 448 449 254
254 449 450 255
255 450 451 256
256 451 452 257
257 452 453 258
258 453 454 259
259 454 455 260
260 455 456 261
261 456 457 262
262 457 458 263
263 458 459 264
264 459 460 265
265 460 461 266
266 461 462 267
267 462 463 268
268 463 464 269
269 464 465 270
270 465 466 271
271 466 467 272
272 467 468 273
273 468 469 274
274 469 470 275
275 470 471 276
276 471 472 277
277 472 473 278
278 473 474 279
279 474 475 280
280 475 476 281
281 476 477 282
282 477 89 3
11 12 478 438
438 478 479 439
439 479 480 440
440 480 481 441
441 481 482 442
442 482 483 443
443 483 484 444
444 484 485 445
445 485 486 446
446 486 487 447
447 487 488 448
448 488 489 449
449 489 490 450
450 490 491 451
451 491 492 452
452 492 493 453
453 493 494 454
454 494 495 455
455 495 496 456
456 496 497 457
457 497 498 458
458 498 499 459
459 499 500 460
460 500 501 461
461 501 502 462
462 502 503 463
463 503 504 464
464 504 505 465
465 505 506 466
466 506 507 467
467 507 508 468
468 508 509 469
469 509 510 470
470 510 511 471
471 511 512 472
472 512 513 473
473 513 514 474
474 514 515 475
475 515 516 476
476 516 517 477
477 517 90 89
12 13 518 478
478 518 519 479
479 519 520 480
480 520 521 481
481 521 522 482
482 522 523 483
483 523 524 484
484 524 525 485
485 525 526 486
486 526 527 487
487 527 528 488
488 528 529 489
489 529 530 490
490 530 531 491
491 531 532 492
492 532 533 493
493 533 534 494
494 534 535 495
495 535 536 496
496 536 537 497
497 537 538 498
498 538 539 499
499 539 540 500
500 540 541 501
501 541 542 502
502 542 543 503
503 543 544 504
504 544 545 505
505 545 546 506
506 546 547 507
507 547 548 508
508 548 549 509
509 549 550 510
510 550 551 511
511 551 552 512
512 552 553 513
513 553 554 514
514 554 555 515
515 555 556 516
516 556 557 517
517 557 91 90
13 14 558 518
518 558 559 519
519 559 560 520
520 560 561 521
521 561 562 522
522 562 563 523
523 563 564 524
524 564 565 525
525 565 566 526
526 566 567 527
527 567 568 528
528 568 569 529
529 569 570 530
530 570 571 531
531 571 572 532
532 572 573 533
533 573 574 534
534 574 575 535
535 575 576 536
536 576 577 537
537 577 578 538
538 578 579 539
539 579 580 540
540 580 581 541
541 581 582 542
542 582 583 543
543 583 584 544
544 584 585 545
545 585 586 546
546 586 587 547
547 587 588 548
548 588 589 549
549 589 590 550
550 590 591 551
551 591 592 552
552 592 593 553
553 593 594 554
554 594 595 555
555 595 596 556
556 596 597 557
557 597 92 91
14 15 598 558
558 598 599 559
559 599 600 560
560 600 601 561
561 601 602 562
562 602 603 563
563 603 604 564
564 604 605 565
565 605 606 566
566 606 607 567
567 607 608 568
568 608 609 569
569 609 610 570
570 610 611 571
571 611 612 572
572 612 613 573
573 613 614 574
574 614 615 575
575 615 616 576
576 616 617 577
577 617 618 578
578 618 619 579
579 619 620 580
580 620 621 581
581 621 622 582
582 622 623 583
583 623 624 584
584 624 625 585
585 625 626 586
586 626 627 587
587 627 628 588
588 628 629 589
589 629 630 590
590 630 631 591
591 631 632 592
592 632 633 593
593 633 634 594
594 634 635 595
595 635 636 596
596 636 637 597
597 637 93 92
15 16 638 598
598 638 639 599
599 639 640 600
600 640 641 601
601 641 642 602
602 642 643 603
603 643 644 604
604 644 645 605
605 645 646 606
606 646 647 607
607 647 648 608
608 648 649 609
609 649 650 610
610 650 651 611
611 651 652 612
612 652 653 613
613 653 654 614
614 654 655 615
615 655 656 616
616 656 657 617
617 657 658 618
618 658 659 619
619 659 660 620
620 660 661 621
621 661 662 622
622 662 663 623
623 663 664 624
624 664 665 625
625 665 666 626
626 666 667 627
627 667 668 628
628 668 669 629
629 669 670 630
630 670 671 631
631 671 672 632
632 672 673 633
633 673 674 634
634 674 675 635
635 675 676 636
636 676 677 637
637 677 94 93
16 17 678 638
638 678 679 639
639 679 680 640
640 680 681 641
641 681 682 642
642 682 683 643
643 683 684 644
644 684 685 645
645 685 686 646
646 686 687 647
647 687 688 648
648 688 689 649
649 689 690 650
650 690 691 651
651 691 692 652
652 692 693 653
653 693 694 654
654 694 695 655
655 695 696 656
656 696 697 657
657 697 698 658
658 698 699 659
659 699 700 660
660 700 701 661
661 701 702 662
662 702 703 663
663 703 704 664
664 704 705 665
665 705 706 666
666 706 707 667
667 707 708 668
668 708 709 669
669 709 710 670
670 710 711 671
671 711 712 672
672 712 713 673
673 713 714 674
674 714 715 675
675 715 716 676
676 716 717 677
677 717 95 94
17 18 718 678
678 718 719 679
679 719 720 680
680 720 721 681
681 721 722 682
682 722 723 683
683 723 724 684
684 724 725 685
685 725 726 686
686 726 727 687
687 727 728 688
688 728 729 689
689 729 730 690
690 730 731 691
691 731 732 692
692 732 733 693
693 733 734 694
694 734 735 695
695 735 736 696
696 736 737 697
697 737 738 698
698 738 739 699
699 739 740 700
700 740 741 701
701 741 742 702
702 742 743 703
703 743 744 704
704 744 745 705
705 745 746 706
706 746 747 707
707 747 748 708
708 748 749 709
709 749 750 710
710 750 751 711
711 751 752 712
712 752 753 713
713 753 754 714
714 754 755 715
715 755 756 716
716 756 757 717
717 757 96 95
18 19 758 718
718 758 759 719
719 759 760 720
720 760 761 721
721 761 762 722
722 762 763 723
723 763 764 724
724 764 765 725
725 765 766 726
726 766 767 727
727 767 768 728
728 768 769 729
729 769 770 730
730 770 771 731
731 771 772 732
732 772 773 733
733 773 774 734
734 774 775 735
735 775 776 736
736 776 777 737
737 777 778 738
738 778 779 739
739 779 780 740
740 780 781 741
741 781 782 742
742 782 783 743
743 783 784 744
744 784 785 745
745 785 786 746
746 786 787 747
747 787 788 748
748 788 789 749
749 789 790 750
750 790 791 751
751 791 792 752
752 792 793 753
753 793 794 754
754 794 795 755
755 795 796 756
756 796 797 757
757 797 97 96
19 20 798 758
758 798 799 759
759 799 800 760
760 800 801 761
761 801 802 762
762 802 803 763
763 803 804 764
764 804 805 765
765 805 806 766
766 806 807 767
767 807 808 768
768 808 809 769
769 809 810 770
770 810 811 771
771 811 812 772
772 812 813 773
773 813 814 774
774 814 815 775
775 815 816 776
776 816 817 777
777 817 818 778
778 818 819 779
779 819 820 780
780 820 821 781
781 821 822 782
782 822 823 783
783 823 824 784
784 824 825 785
785 825 826 786
786 826 827 787
787 827 828 788
788 828 829 789
789 829 830 790
790 830 831 791
791 831 832 792
792 832 833 793
793 833 834 794
794 834 835 795
795 835 836 796
796 836 837 797
797 837 98 97
20 21 838 798
798 838 839 799
799 839 840 800
800 840 841 801
801 841 842 802
802 842 843 803
803 843 844 804
804 844 845 805
805 845 846 806
806 846 847 807
807 847 848 808
808 848 849 809
809 849 850 810
810 850 851 811
811 851 852 812
812 852 853 813
813 853 854 814
814 854 855 815
815 855 856 816
816 856 857 817
817 857 858 818
818 858 859 819
819 859 860 820
820 860 861 821
821 861 862 822
822 862 863 823
823 863 864 824
824 864 865 825
825 865 866 826
826 866 867 827
827 867 868 828
828 868 869 829
829 869 870 830
830 870 871 831
831 871 872 832
832 872 873 833
833 873 874 834
834 874 875 835
835 875 876 836
836 876 877 837
837 877 99 98
21 22 878 838
838 878 879 839
839 879 880 840
840 880 881 841
841 881 882 842
842 882 883 843
843 883 884 844
844 884 885 845
845 885 886 846
846 886 887 847
847 887 888 848
848 888 889 849
849 889 890 850
850 890 891 851
851 891 892 852
852 892 893 853
853 893 894 854
854 894 895 855
855 895 896 856
856 896 897 857
857 897 898 858
858 898 899 859
859 899 900 860
860 900 901 861
861 901 902 862
862 902 903 863
863 903 904 864
864 904 905 865
865 905 906 866
866 906 907 867
867 907 908 868
868 908 909 869
869 909 910 870
870 910 911 871
871 911 912 872
872 912 913 873
873 913 914 874
874 914 915 875
875 915 916 876
876 916 917 877
877 917 100 99
22 23 918 878
878 918 919 879
879 919 920 880
880 920 921 881
881 921 922 882
882 922 923 883
883 923 924 884
884 924 925 885
885 925 926 886
886 926 927 887
887 927 928 888
888 928 929 889
889 929 930 890
890 930 931 891
891 931 932 892
892 932 933 893
893 933 934 894
894 934 935 895
895 935 936 896
896 936 937 897
897 937 938 898
898 938 939 899
899 939 940 900
900 940 941 901
901 941 942 902
902 942 943 903
903 943 944 904
904 944 945 905
905 945 946 906
906 946 947 907
907 947 948 908
908 948 949 909
909 949 950 910
910 950 951 911
911 951 952 912
912 952 953 913
913 953 954 914
914 954 955 915
915 955 956 916
916 956 957 917
917 957 101 100
23 24 958 918
918 958 959 919
919 959 960 920
920 960 961 921
921 961 962 922
922 962 963 923
923 963 964 924
924 964 965 925
925 965 966 926
926 966 967 927
927 967 968 928
928 968 969 929
929 969 970 930
930 970 971 931
931 971 972 932
932 972 973 933
933 973 974 934
934 974 975 935
935 975 976 936
936 976 977 937
937 977 978 938
938 978 979 939
939 979 980 940
940 980 981 941
941 981 982 942
942 982 983 943
943 983 984 944
944 984 985 945
945 985 986 946
946 986 987 947
947 987 988 948
948 988 989 949
949 989 990 950
950 990 991 951
951 991 992 952
952 992 993 953
953 993 994 954
954 994 995 955
955 995 996 956
956 996 997 957
957 997 102 101
24 25 998 958
958 998 999 959
959 999 1000 960
960 1000 1001 961
961 1001 1002 962
962 1002 1003 963
963 1003 1004 964
964 1004 1005 965
965 1005 1006 966
966 1006 1007 967
967 1007 1008 968
968 1008 1009 969
969 1009 1010 970
970 1010 1011 971
971 1011 1012 972
972 1012 1013 973
973 1013 1014 974
974 1014 1015 975
975 1015 1016 976
976 1016 1017 977
977 1017 1018 978
978 1018 1019 979
979 1019 1020 980
980 1020 1021 981
981 1021 1022 982
982 1022 1023 983
983 1023 1024 984
984 1024 1025 985
985 1025 1026 986
986 1026 1027 987
987 1027 1028 988
988 1028 1029 989
989 1029 1030 990
990 1030 1031 991
991 1031 1032 992
992 1032 1033 993
993 1033 1034 994
994 1034 1035 995
995 1035 1036 996
996 1036 1037 997
997 1037 103 102
25 26 1038 998
998 1038 1039 999
999 1039 1040 1000
1000 1040 1041 1001
1001 1041 1042 1002
1002 1042 1043 1003
1003 1043 1044 1004
1004 1044 1045 1005
1005 1045 1046 1006
1006 1046 1047 1007
1007 1047 1048 1008
1008 1048 1049 1009
1009 1049 1050 1010
1010 1050 1051 1011
1011 1051 1052 1012
1012 1052 1053 1013
1013 1053 1054 1014
1014 1054 1055 1015
1015 1055 1056 1016
1016 1056 1057 1017
1017 1057 1058 1018
1018 1058 1059 1019
1019 1059 1060 1020
1020 1060 1061 1021
1021 1061 1062 1022
1022 1062 1063 1023
1023 1063 1064 1024
1024 1064 1065 1025
1025 1065 1066 1026
1026 1066 1067 1027
1027 1067 1068 1028
1028 1068 1069 1029
1029 1069 1070 1030
1030 1070 1071 1031
1031 1071 1072 1032
1032 1072 1073 1033
1033 1073 1074 1034
1034 1074 1075 1035
1035 1075 1076 1036
1036 1076 1077 1037
1037 1077 104 103
26 27 1078 1038
1038 1078 1079 1039
1039 1079 1080 1040
1040 1080 1081 1041
1041 1081 1082 1042
1042 1082 1083 1043
1043 1083 1084 1044
1044 1084 1085 1045
1045 1085 1086 1046
1046 1086 1087 1047
1047 1087 1088 1048
1048 1088 1089 1049
1049 1089 1090 1050
1050 1090 1091 1051
1051 1091 1092 1052
1052 1092 1093 1053
1053 1093 1094 1054
1054 1094 1095 1055
1055 1095 1096 1056
1056 1096 1097 1057
1057 1097 1098 1058
1058 1098 1099 1059
1059 1099 1100 1060
1060 1100 1101 1061
1061 1101 1102 1062
1062 1102 1103 1063
1063 1103 1104 1064
1064 1104 1105 1065
1065 1105 1106 1066
1066 1106 1107 1067
1067 1107 1108 1068
1068 1108 1109 1069
1069 1109 1110 1070
1070 1110 1111 1071
1071 1111 1112 1072
1072 1112 1113 1073
1073 1113 1114 1074
1074 1114 1115 1075
1075 1115 1116 1076
1076 1116 1117 1077
1077 1117 105 104
27 28 1118 1078
1078 1118 1119 1079
1079 1119 1120 1080
1080 1120 1121 1081
1081 1121 1122 1082
1082 1122 1123 1083
1083 1123 1124 1084
1084 1124 1125 1085
1085 1125 1126 1086
1086 1126 1127 1087
1087 1127 1128 1088
1088 1128 1129 1089
1089 1129 1130 1090
1090 1130 1131 1091
1091 1131 1132 1092
1092 1132 1133 1093
1093 1133 1134 1094
1094 1134 1135 1095
1095 1135 1136 1096
1096 1136 1137 1097
1097 1137 1138 1098
1098 1138 1139 1099
1099 1139 1140 1100
1100 1140 1141 1101
1101 1141 1142 1102
1102 1142 1143 1103
1103 1143 1144 1104
1104 1144 1145 1105
1105 1145 1146 1106
1106 1146 1147 1107
1107 1147 1148 1108
1108 1148 1149 1109
1109 1149 1150 1110
1110 1150 1151 1111
1111 1151 1152 1112
1112 1152 1153 1113
1113 1153 1154 1114
1114 1154 1155 1115
1115 1155 1156 1116
1116 1156 1157 1117
1117 1157 106 105
28 29 1158 1118
1118 1158 1159 1119
1119 1159 1160 1120
1120 1160 1161 1121
1121 1161 1162 1122
1122 1162 1163 1123
1123 1163 1164 1124
1124 1164 1165 1125
1125 1165 1166 1126
1126 1166 1167 1127
1127 1167 1168 1128
1128 1168 1169 1129
1129 1169 1170 1130
1130 1170 1171 1131
1131 1171 1172 1132
1132 1172 1173 1133
1133 1173 1174 1134
1134 1174 1175 1135
1135 1175 1176 1136
1136 1176 1177 1137
1137 1177 1178 1138
1138 1178 1179 1139
1139 1179 1180 1140
1140 1180 1181 1141
1141 1181 1182 1142
1142 1182 1183 1143
1143 1183 1184 1144
1144 1184 1185 1145
1145 1185 1186 1146
1146 1186 1187 1147
1147 1187 1188 1148
1148 1188 1189 1149
1149 1189 1190 1150
1150 1190 1191 1151
1151 1191 1192 1152
1152 1192 1193 1153
1153 1193 1194 1154
1154 1194 1195 1155
1155 1195 1196 1156
1156 1196 1197 1157
1157 1197 107 106
29 30 1198 1158
1158 1198 1199 1159
1159 1199 1200 1160
1160 1200 1201 1161
1161 1201 1202 1162
1162 1202 1203 1163
1163 1203 1204 1164
1164 1204 1205 1165
1165 1205 1206 1166
1166 1206 1207 1167
1167 1207 1208 1168
1168 1208 1209 1169
1169 1209 1210 1170
1170 1210 1211 1171
1171 1211 1212 1172
1172 1212 1213 1173
1173 1213 1214 1174
1174 1214 1215 1175
1175 1215 1216 1176
1176 1216 1217 1177
1177 1217 1218 1178
1178 1218 1219 1179
1179 1219 1220 1180
1180 1220 1221 1181
1181 1221 1222 1182
1182 1222 1223 1183
1183 1223 1224 1184
1184 1224 1225 1185
1185 1225 1226 1186
1186 1226 1227 1187
1187 1227 1228 1188
1188 1228 1229 1189
1189 1229 1230 1190
1190 1230 1231 1191
1191 1231 1232 1192
1192 1232 1233 1193
1193 1233 1234 1194
1194 1234 1235 1195
1195 1235 1236 1196
1196 1236 1237 1197
1197 1237 4 107
30 31 1238 1198
1198 1238 1239 1199
1199 1239 1240 1200
1200 1240 1241 1201
1201 1241 1242 1202
1202 1242 1243 1203
1203 1243 1244 1204
1204 1244 1245 1205
1205 1245 1246 1206
1206 1246 1247 1207
1207 1247 1248 1208
1208 1248 1249 1209
1209 1249 1250 1210
1210 1250 1251 1211
1211 1251 1252 1212
1212 1252 1253 1213
1213 1253 1254 1214
1214 1254 1255 1215
1215 1255 1256 1216
1216 1256 1257 1217
1217 1257 1258 1218
1218 1258 1259 1219
1219 1259 1260 1220
1220 1260 1261 1221
1221 1261 1262 1222
1222 1262 1263 1223
1223 1263 1264 1224
1224 1264 1265 1225
1225 1265 1266 1226
1226 1266 1267 1227
1227 1267 1268 1228
1228 1268 1269 1229
1229 1269 1270 1230
1230 1270 1271 1231
1231 1271 1272 1232
1232 1272 1273 1233
1233 1273 1274 1234
1234 1274 1275 1235
1235 1275 1276 1236
1236 1276 1277 1237
1237 1277 108 4
31 32 1278 1238
1238 1278 1279 1239
1239 1279 1280 1240
1240 1280 1281 1241
1241 1281 1282 1242
1242 1282 1283 1243
1243 1283 1284 1244
1244 1284 1285 1245
1245 1285 1286 1246
1246 1286 1287 1247
1247 1287 1288 1248
1248 1288 1289 1249
1249 1289 1290 1250
1250 1290 1291 1251
1251 1291 1292 1252
1252 1292 1293 1253
1253 1293 1294 1254
1254 1294 1295 1255
1255 1295 1296 1256
1256 1296 1297 1257
1257 1297 1298 1258
1258 1298 1299 1259
1259 1299 1300 1260
1260 1300 1301 1261
1261 1301 1302 1262
1262 1302 1303 1263
1263 1303 1304 1264
1264 1304 1305 1265
1265 1305 1306 1266
1266 1306 1307 1267
1267 1307 1308 1268
1268 1308 1309 1269
1269 1309 1310 1270
1270 1310 1311 1271
1271 1311 1312 1272
1272 1312 1313 1273
1273 1313 1314 1274
1274 1314 1315 1275
1275 1315 1316 1276
1276 1316 1317 1277
1277 1317 109 108
32 33 1318 1278
1278 1318 1319 1279
1279 1319 1320 1280
1280 1320 1321 1281
1281 1321 1322 1282
1282 1322 1323 1283
1283 1323 1324 1284
1284 1324 1325 1285
1285 1325 1326 1286
1286 1326 1327 1287
1287 1327 1328 1288
1288 1328 1329 1289
1289 1329 1330 1290
1290 1330 1331 1291
1291 1331 1332 1292
1292 1332 1333 1293
1293 1333 1334 1294
1294 1334 1335 1295
1295 1335 1336 1296
1296 1336 1337 1297
1297 1337 1338 1298
1298 1338 1339 1299
1299 1339 1340 1300
1300 1340 1341 1301
1301 1341 1342 1302
1302 1342 1343 1303
1303 1343 1344 1304
1304 1344 1345 1305
1305 1345 1346 1306
1306 1346 1347 1307
1307 1347 1348 1308
1308 1348 1349 1309
1309 1349 1350 1310
1310 1350 1351 1311
1311 1351 1352 1312
1312 1352 1353 1313
1313 1353 1354 1314
1314 1354 1355 1315
1315 1355 1356 1316
1316 1356 1357 1317
1317 1357 110 109
33 34 1358 1318
1318 1358 1359 1319
1319 1359 1360 1320
1320 1360 1361 1321
1321 1361 1362 1322
1322 1362 1363 1323
1323 1363 1364 1324
1324 1364 1365 1325
1325 1365 1366 1326
1326 1366 1367 1327
1327 1367 1368 1328
1328 1368 1369 1329
1329 1369 1370 1330
1330 1370 1371 1331
1331 1371 1372 1332
1332 1372 1373 1333
1333 1373 1374 1334
1334 1374 1375 1335
1335 1375 1376 1336
1336 1376 1377 1337
1337 1377 1378 1338
1338 1378 1379 1339
1339 1379 1380 1340
1340 1380 1381 1341
1341 1381 1382 1342
1342 1382 1383 1343
1343 1383 1384 1344
1344 1384 1385 1345
1345 1385 1386 1346
1346 1386 1387 1347
1347 1387 1388 1348
1348 1388 1389 1349
1349 1389 1390 1350
1350 1390 1391 1351
1351 1391 1392 1352
1352 1392 1393 1353
1353 1393 1394 1354
1354 1394 1395 1355
1355 1395 1396 1356
1356 1396 1397 1357
1357 1397 111 110
34 35 1398 1358
1358 1398 1399 1359
1359 1399 1400 1360
1360 1400 1401 1361
1361 1401 1402 1362
1362 1402 1403 1363
1363 1403 1404 1364
1364 1404 1405 1365
1365 1405 1406 1366
1366 1406 1407 1367
1367 1407 1408 1368
1368 1408 1409 1369
1369 1409 1410 1370
1370 1410 1411 1371
1371 1411 1412 1372
1372 1412 1413 1373
1373 1413 1414 1374
1374 1414 1415 1375
1375 1415 1416 1376
1376 1416 1417 1377
1377 1417 1418 1378
1378 1418 1419 1379
1379 1419 1420 1380
1380 1420 1421 1381
1381 1421 1422 1382
1382 1422 1423 1383
1383 1423 1424 1384
1384 1424 1425 1385
1385 1425 1426 1386
1386 1426 1427 1387
1387 1427 1428 1388
1388 1428 1429 1389
1389 1429 1430 1390
1390 1430 1431 1391
1391 1431 1432 1392
1392 1432 1433 1393
1393 1433 1434 1394
1394 1434 1435 1395
1395 1435 1436 1396
1396 1436 1437 1397
1397 1437 112 111
35 36 1438 1398
1398 1438 1439 1399
1399 1439 1440 1400
1400 1440 1441 1401
1401 1441 1442 1402
1402 1442 1443 1403
1403 1443 1444 1404
1404 1444 1445 1405
1405 1445 1446 1406
1406 1446 1447 1407
1407 1447 1448 1408
1408 1448 1449 1409
1409 1449 1450 1410
1410 1450 1451 1411
1411 1451 1452 1412
1412 1452 1453 1413
1413 1453 1454 1414
1414 1454 1455 1415
1415 1455 1456 1416
1416 1456 1457 1417
1417 1457 1458 1418
1418 1458 1459 1419
1419 1459 1460 1420
1420 1460 1461 1421
1421 1461 1462 1422
1422 1462 1463 1423
1423 1463 1464 1424
1424 1464 1465 1425
1425 1465 1466 1426
1426 1466 1467 1427
1427 1467 1468 1428
1428 1468 1469 1429
1429 1469 1470 1430
1430 1470 1471 1431
1431 1471 1472 1432
1432 1472 1473 1433
1433 1473 1474 1434
1434 1474 1475 1435
1435 1475 1476 1436
1436 1476 1477 1437
1437 1477 113 112
36 37 1478 1438
1438 1478 1479 1439
1439 1479 1480 1440
1440 1480 1481 1441
1441 1481 1482 1442
1442 1482 1483 1443
1443 1483 1484 1444
1444 1484 1485 1445
1445 1485 1486 1446
1446 1486 1487 1447
1447 1487 1488 1448
1448 1488 1489 1449
1449 1489 1490 1450
1450 1490 1491 1451
1451 1491 1492 1452
1452 1492 1493 1453
1453 1493 1494 1454
1454 1494 1495 1455
1455 1495 1496 1456
1456 1496 1497 1457
1457 1497 1498 1458
1458 1498 1499 1459
1459 1499 1500 1460
1460 1500 1501 1461
1461 1501 1502 1462
1462 1502 1503 1463
1463 1503 1504 1464
1464 1504 1505 1465
1465 1505 1506 1466
1466 1506 1507 1467
1467 1507 1508 1468
1468 1508 1509 1469
1469 1509 1510 1470
1470 1510 1511 1471
1471 1511 1512 1472
1472 1512 1513 1473
1473 1513 1514 1474
1474 1514 1515 1475
1475 1515 1516 1476
1476 1516 1517 1477
1477 1517 114 113
37 38 1518 1478
1478 1518 1519 1479
1479 1519 1520 1480
1480 1520 1521 1481
1481 1521 1522 1482
1482 1522 1523 1483
1483 1523 1524 1484
1484 1524 1525 1485
1485 1525 1526 1486
1486 1526 1527 1487
1487 1527 1528 1488
1488 1528 1529 1489
1489 1529 1530 1490
1490 1530 1531 1491
1491 1531 1532 1492
1492 1532 1533 1493
1493 1533 1534 1494
1494 1534 1535 1495
1495 1535 1536 1496
1496 1536 1537 1497
1497 1537 1538 1498
1498 1538 1539 1499
1499 1539 1540 1500
1500 1540 1541 1501
1501 1541 1542 1502
1502 1542 1543 1503
1503 1543 1544 1504
1504 1544 1545 1505
1505 1545 1546 1506
1506 1546 1547 1507
1507 1547 1548 1508
1508 1548 1549 1509
1509 1549 1550 1510
1510 1550 1551 1511
1511 1551 1552 1512
1512 1552 1553 1513
1513 1553 1554 1514
1514 1554 1555 1515
1515 1555 1556 1516
1516 1556 1557 1517
1517 1557 115 114
38 39 1558 1518
1518 1558 1559 1519
1519 1559 1560 1520
1520 1560 1561 1521
1521 1561 1562 1522
1522 1562 1563 1523
1523 1563 1564 1524
1524 1564 1565 1525
1525 1565 1566 1526
1526 1566 1567 1527
1527 1567 1568 1528
1528 1568 1569 1529
1529 1569 1570 1530
1530 1570 1571 1531
1531 1571 1572 1532
1532 1572 1573 1533
1533 1573 1574 1534
1534 1574 1575 1535
1535 1575 1576 1536
1536 1576 1577 1537
1537 1577 1578 1538
1538 1578 1579 1539
1539 1579 1580 1540
1540 1580 1581 1541
1541 1581 1582 1542
1542 1582 1583 1543
1543 1583 1584 1544
1544 1584 1585 1545
1545 1585 1586 1546
1546 1586 1587 1547
1547 1587 1588 1548
1548 1588 1589 1549
1549 1589 1590 1550
1550 1590 1591 1551
1551 1591 1592 1552
1552 1592 1593 1553
1553 1593 1594 1554
1554 1594 1595 1555
1555 1595 1596 1556
1556 1596 1597 1557
1557 1597 116 115
39 40 1598 1558
1558 1598 1599 1559
1559 1599 1600 1560
1560 1600 1601 1561
1561 1601 1602 1562
1562 1602 1603 1563
1563 1603 1604 1564
1564 1604 1605 1565
1565 1605 1606 1566
1566 1606 1607 1567
1567 1607 1608 1568
1568 1608 1609 1569
1569 1609 1610 1570
1570 1610 1611 1571
1571 1611 1612 1572
1572 1612 1613 1573
1573 1613 1614 1574
1574 1614 1615 1575
1575 1615 1616 1576
1576 1616 1617 1577
1577 1617 1618 1578
1578 1618 1619 1579
1579 1619 1620 1580
1580 1620 1621 1581
1581 1621 1622 1582
1582 1622 1623 1583
1583 1623 1624 1584
1584 1624 1625 1585
1585 1625 1626 1586
1586 1626 1627 1587
1587 1627 1628 1588
1588 1628 1629 1589
1589 1629 1630 1590
1590 1630 1631 1591
1591 1631 1632 1592
1592 1632 1633 1593
1593 1633 1634 1594
1594 1634 1635 1595
1595 1635 1636 1596
1596 1636 1637 1597
1597 1637 117 116
40 41 1638 1598
1598 1638 1639 1599
1599 1639 1640 1600
1600 1640 1641 1601
1601 1641 1642 1602
1602 1642 1643 1603
1603 1643 1644 1604
1604 1644 1645 1605
1605 1645 1646 1606
1606 1646 1647 1607
1607 1647 1648 1608
1608 1648 1649 1609
1609 1649 1650 1610
1610 1650 1651 1611
1611 1651 1652 1612
1612 1652 1653 1613
1613 1653 1654 1614
1614 1654 1655 1615
1615 1655 1656 1616
1616 1656 1657 1617
1617 1657 1658 1618
1618 1658 1659 1619
1619 1659 1660 1620
1620 1660 1661 1621
1621 1661 1662 1622
1622 1662 1663 1623
1623 1663 1664 1624
1624 1664 1665 1625
1625 1665 1666 1626
1626 1666 1667 1627
1627 1667 1668 1628
1628 1668 1669 1629
1629 1669 1670 1630
1630 1670 1671 1631
1631 1671 1672 1632
1632 1672 1673 1633
1633 1673 1674 1634
1634 1674 1675 1635
1635 1675 1676 1636
1636 1676 1677 1637
1637 1677 118 117
41 42 1678 1638
1638 1678 1679 1639
1639 1679 1680 1640
1640 1680 1681 1641
1641 1681 1682 1642
1642 1682 1683 1643
1643 1683 1684 1644
1644 1684 1685 1645
1645 1685 1686 1646
1646 1686 1687 1647
1647 1687 1688 1648
1648 1688 1689 1649
1649 1689 1690 1650
1650 1690 1691 1651
1651 1691 1692 1652
1652 1692 1693 1653
1653 1693 1694 1654
1654 1694 1695 1655
1655 1695 1696 1656
1656 1696 1697 1657
1657 1697 1698 1658
1658 1698 1699 1659
1659 1699 1700 1660
1660 1700 1701 1661
1661 1701 1702 1662
1662 1702 1703 1663
1663 1703 1704 1664
1664 1704 1705 1665
1665 1705 1706 1666
1666 1706 1707 1667
1667 1707 1708 1668
1668 1708 1709 1669
1669 1709 1710 1670
1670 1710 1711 1671
1671 1711 1712 1672
1672 1712 1713 1673
1673 1713 1714 1674
1674 1714 1715 1675
1675 1715 1716 1676
1676 1716 1717 1677
1677 1717 119 118
42 43 1718 1678
1678 1718 1719 1679
1679 1719 1720 1680
1680 1720 1721 1681
1681 1721 1722 1682
1682 1722 1723 1683
1683 1723 1724 1684
1684 1724 1725 1685
1685 1725 1726 1686
1686 1726 1727 1687
1687 1727 1728 1688
1688 1728 1729 1689
1689 1729 1730 1690
1690 1730 1731 1691
1691 1731 1732 1692
1692 1732 1733 1693
1693 1733 1734 1694
1694 1734 1735 1695
1695 1735 1736 1696
1696 1736 1737 1697
1697 1737 1738 1698
1698 1738 1739 1699
1699 1739 1740 1700
1700 1740 1741 1701
1701 1741 1742 1702
1702 1742 1743 1703
1703 1743 1744 1704
1704 1744 1745 1705
1705 1745 1746 1706
1706 1746 1747 1707
1707 1747 1748 1708
1708 1748 1749 1709
1709 1749 1750 1710
1710 1750 1751 1711
1711 1751 1752 1712
1712 1752 1753 1713
1713 1753 1754 1714
1714 1754 1755 1715
1715 1755 1756 1716
1716 1756 1757 1717
1717 1757 120 119
43 44 1758 1718
1718 1758 1759 1719
1719 1759 1760 1720
1720 1760 1761 1721
1721 1761 1762 1722
1722 1762 1763 1723
1723 1763 1764 1724
1724 1764 1765 1725
1725 1765 1766 1726
1726 1766 1767 1727
1727 1767 1768 1728
1728 1768 1769 1729
1729 1769 1770 1730
1730 1770 1771 1731
1731 1771 1772 1732
1732 1772 1773 1733
1733 1773 1774 1734
1734 1774 1775 1735
1735 1775 1776 1736
1736 1776 1777 1737
1737 1777 1778 1738
1738 1778 1779 1739
1739 1779 1780 1740
1740 1780 1781 1741
1741 1781 1782 1742
1742 1782 1783 1743
1743 1783 1784 1744
1744 1784 1785 1745
1745 1785 1786 1746
1746 1786 1787 1747
1747 1787 1788 1748
1748 1788 1789 1749
1749 1789 1790 1750
1750 1790 1791 1751
1751 1791 1792 1752
1752 1792 1793 1753
1753 1793 1794 1754
1754 1794 1795 1755
1755 1795 1796 1756
1756 1796 1797 1757
1757 1797 121 120
44 45 1798 1758
1758 1798 1799 1759
1759 1799 1800 1760
1760 1800 1801 1761
1761 1801 1802 1762
1762 1802 1803 1763
1763 1803 1804 1764
1764 1804 1805 1765
1765 1805 1806 1766
1766 1806 1807 1767
1767 1807 1808 1768
1768 1808 1809 1769
1769 1809 1810 1770
1770 1810 1811 1771
1771 1811 1812 1772
1772 1812 1813 1773
1773 1813 1814 1774
1774 1814 1815 1775
1775 1815 1816 1776
1776 1816 1817 1777
1777 1817 1818 1778
1778 1818 1819 1779
1779 1819 1820 1780
1780 1820 1821 1781
1781 1821 1822 1782
1782 1822 1823 1783
1783 1823 1824 1784
1784 1824 1825 1785
1785 1825 1826 1786
1786 1826 1827 1787
1787 1827 1828 1788
1788 1828 1829 1789
1789 1829 1830 1790
1790 1830 1831 1791
1791 1831 1832 1792
1792 1832 1833 1793
1793 1833 1834 1794
1794 1834 1835 1795
1795 1835 1836 1796
1796 1836 1837 1797
1797 1837 122 121
45 46 1838 1798
1798 1838 1839 1799
1799 1839 1840 1800
1800 1840 1841 1801
1801 1841 1842 1802
1802 1842 1843 1803
1803 1843 1844 1804
1804 1844 1845 1805
1805 1845 1846 1806
1806 1846 1847 1807
1807 1847 1848 1808
1808 1848 1849 1809
1809 1849 1850 1810
1810 1850 1851 1811
1811 1851 1852 1812
1812 1852 1853 1813
1813 1853 1854 1814
1814 1854 1855 1815
1815 1855 1856 1816
1816 1856 1857 1817
1817 1857 1858 1818
1818 1858 1859 1819
1819 1859 1860 1820
1820 1860 1861 1821
1821 1861 1862 1822
1822 1862 1863 1823
1823 1863 1864 1824
1824 1864 1865 1825
1825 1865 1866 1826
1826 1866 1867 1827
1827 1867 1868 1828
1828 1868 1869 1829
1829 1869 1870 1830
1830 1870 1871 1831
1831 1871 1872 1832
1832 1872 1873 1833
1833 1873 1874 1834
1834 1874 1875 1835
1835 1875 1876 1836
1836 1876 1877 1837
1837 1877 123 122
46 47 1878 1838
1838 1878 1879 1839
1839 1879 1880 1840
1840 1880 1881 1841
1841 1881 1882 1842
1842 1882 1883 1843
1843 1883 1884 1844
1844 1884 1885 1845
1845 1885 1886 1846
1846 1886 1887 1847
1847 1887 1888 1848
1848 1888 1889 1849
1849 1889 1890 1850
1850 1890 1891 1851
1851 1891 1892 1852
1852 1892 1893 1853
1853 1893 1894 1854
1854 1894 1895 1855
1855 1895 1896 1856
1856 1896 1897 1857
1857 1897 1898 1858
1858 1898 1899 1859
1859 1899 1900 1860
1860 1900 1901 1861
1861 1901 1902 1862
1862 1902 1903 1863
1863 1903 1904 1864
1864 1904 1905 1865
1865 1905 1906 1866
1866 1906 1907 1867
1867 1907 1908 1868
1868 1908 1909 1869
1869 1909 1910 1870
1870 1910 1911 1871
1871 1911 1912 1872
1872 1912 1913 1873
1873 1913 1914 1874
1874 1914 1915 1875
1875 1915 1916 1876
1876 1916 1917 1877
1877 1917 124 123
47 48 1918 1878
1878 1918 1919 1879
1879 1919 1920 1880
1880 1920 1921 1881
1881 1921 1922 1882
1882 1922 1923 1883
1883 1923 1924 1884
1884 1924 1925 1885
1885 1925 1926 1886
1886 1926 1927 1887
1887 1927 1928 1888
1888 1928 1929 1889
1889 1929 1930 1890
1890 1930 1931 1891
1891 1931 1932 1892
1892 1932 1933 1893
1893 1933 1934 1894
1894 1934 1935 1895
1895 1935 1936 1896
1896 1936 1937 1897
1897 1937 1938 1898
1898 1938 1939 1899
1899 1939 1940 1900
1900 1940 1941 1901
1901 1941 1942 1902
1902 1942 1943 1903
1903 1943 1944 1904
1904 1944 1945 1905
1905 1945 1946 1906
1906 1946 1947 1907
1907 1947 1948 1908
1908 1948 1949 1909
1909 1949 1950 1910
1910 1950 1951 1911
1911 1951 1952 1912
1912 1952 1953 1913
1913 1953 1954 1914
1914 1954 1955 1915
1915 1955 1956 1916
1916 1956 1957 1917
1917 1957 125 124
48 49 1958 1918
1918 1958 1959 1919
1919 1959 1960 1920
1920 1960 1961 1921
1921 1961 1962 1922
1922 1962 1963 1923
1923 1963 1964 1924
1924 1964 1965 1925
1925 1965 1966 1926
1926 1966 1967 1927
1927 1967 1968 1928
1928 1968 1969 1929
1929 1969 1970 1930
1930 1970 1971 1931
1931 1971 1972 1932
1932 1972 1973 1933
1933 1973 1974 1934
1934 1974 1975 1935
1935 1975 1976 1936
1936 1976 1977 1937
1937 1977 1978 1938
1938 1978 1979 1939
1939 1979 1980 1940
1940 1980 1981 1941
1941 1981 1982 1942
1942 1982 1983 1943
1943 1983 1984 1944
1944 1984 1985 1945
1945 1985 1986 1946
1946 1986 1987 1947
1947 1987 1988 1948
1948 1988 1989 1949
1949 1989 1990 1950
1950 1990 1991 1951
1951 1991 1992 1952
1952 1992 1993 1953
1953 1993 1994 1954
1954 1994 1995 1955
1955 1995 1996 1956
1956 1996 1997 1957
1957 1997 126 125
49 1 1998 1958
1958 1998 1999 1959
1959 1999 2000 1960
1960 2000 2001 1961
1961 2001 2002 1962
1962 2002 2003 1963
1963 2003 2004 1964
1964 2004 2005 1965
1965 2005 2006 1966
1966 2006 2007 1967
1967 2007 2008 1968
1968 2008 2009 1969
1969 2009 2010 1970
1970 2010 2011 1971
1971 2011 2012 1972
1972 2012 2013 1973
1973 2013 2014 1974
1974 2014 2015 1975
1975 2015 2016 1976
1976 2016 2017 1977
1977 2017 2018 1978
1978 2018 2019 1979
1979 2019 2020 1980
1980 2020 2021 1981
1981 2021 2022 1982
1982 2022 2023 1983
1983 2023 2024 1984
1984 2024 2025 1985
1985 2025 2026 1986
1986 2026 2027 1987
1987 2027 2028 1988
1988 2028 2029 1989
1989 2029 2030 1990
1990 2030 2031 1991
1991 2031 2032 1992
1992 2032 2033 1993
1993 2033 2034 1994
1994 2034 2035 1995
1995 2035 2036 1996
1996 2036 2037 1997
1997 2037 127 126
1 50 2038 1998
1998 2038 2039 1999
1999 2039 2040 2000
2000 2040 2041 2001
2001 2041 2042 2002
2002 2042 2043 2003
2003 2043 2044 2004
2004 2044 2045 2005
2005 2045 2046 2006
2006 2046 2047 2007
2007 2047 2048 2008
2008 2048 2049 2009
2009 2049 2050 2010
2010 2050 2051 2011
2011 2051 2052 2012
2012 2052 2053 2013
2013 2053 2054 2014
2014 2054 2055 2015
2015 2055 2056 2016
2016 2056 2057 2017
2017 2057 2058 2018
2018 2058 2059 2019
2019 2059 2060 2020
2020 2060 2061 2021
2021 2061 2062 2022
2022 2062 2063 2023
2023 2063 2064 2024
2024 2064 2065 2025
2025 2065 2066 2026
2026 2066 2067 2027
2027 2067 2068 2028
2028 2068 2069 2029
2029 2069 2070 2030
2030 2070 2071 2031
2031 2071 2072 2032
2032 2072 2073 2033
2033 2073 2074 2034
2034 2074 2075 2035
2035 2075 2076 2036
2036 2076 2077 2037
2037 2077 128 127
50 51 2078 2038
2038 2078 2079 2039
2039 2079 2080 2040
2040 2080 2081 2041
2041 2081 2082 2042
2042 2082 2083 2043
2043 2083 2084 2044
2044 2084 2085 2045
2045 2085 2086 2046
2046 2086 2087 2047
2047 2087 2088 2048
2048 2088 2089 2049
2049 2089 2090 2050
2050 2090 2091 2051
2051 2091 2092 2052
2052 2092 2093 2053
2053 2093 2094 2054
2054 2094 2095 2055
2055 2095 2096 2056
2056 2096 2097 2057
2057 2097 2098 2058
2058 2098 2099 2059
2059 2099 2100 2060
2060 2100 2101 2061
2061 2101 2102 2062
2062 2102 2103 2063
2063 2103 2104 2064
2064 2104 2105 2065
2065 2105 2106 2066
2066 2106 2107 2067
2067 2107 2108 2068
2068 2108 2109 2069
2069 2109 2110 2070
2070 2110 2111 2071
2071 2111 2112 2072
2072 2112 2113 2073
2073 2113 2114 2074
2074 2114 2115 2075
2075 2115 2116 2076
2076 2116 2117 2077
2077 2117 129 128
51 52 2118 2078
2078 2118 2119 2079
2079 2119 2120 2080
2080 2120 2121 2081
2081 2121 2122 2082
2082 2122 2123 2083
2083 2123 2124 2084
2084 2124 2125 2085
2085 2125 2126 2086
2086 2126 2127 2087
2087 2127 2128 2088
2088 2128 2129 2089
2089 2129 2130 2090
2090 2130 2131 2091
2091 2131 2132 2092
2092 2132 2133 2093
2093 2133 2134 2094
2094 2134 2135 2095
2095 2135 2136 2096
2096 2136 2137 2097
2097 2137 2138 2098
2098 2138 2139 2099
2099 2139 2140 2100
2100 2140 2141 2101
2101 2141 2142 2102
2102 2142 2143 2103
2103 2143 2144 2104
2104 2144 2145 2105
2105 2145 2146 2106
2106 2146 2147 2107
2107 2147 2148 2108
2108 2148 2149 2109
2109 2149 2150 2110
2110 2150 2151 2111
2111 2151 2152 2112
2112 2152 2153 2113
2113 2153 2154 2114
2114 2154 2155 2115
2115 2155 2156 2116
2116 2156 2157 2117
2117 2157 130 129
52 53 2158 2118
2118 2158 2159 2119
2119 2159 2160 2120
2120 2160 2161 2121
2121 2161 2162 2122
2122 2162 2163 2123
2123 2163 2164 2124
2124 2164 2165 2125
2125 2165 2166 2126
2126 2166 2167 2127
2127 2167 2168 2128
2128 2168 2169 2129
2129 2169 2170 2130
2130 2170 2171 2131
2131 2171 2172 2132
2132 2172 2173 2133
2133 2173 2174 2134
2134 2174 2175 2135
2135 2175 2176 2136
2136 2176 2177 2137
2137 2177 2178 2138
2138 2178 2179 2139
2139 2179 2180 2140
2140 2180 2181 2141
2141 2181 2182 2142
2142 2182 2183 2143
2143 2183 2184 2144
2144 2184 2185 2145
2145 2185 2186 2146
2146 2186 2187 2147
2147 2187 2188 2148
2148 2188 2189 2149
2149 2189 2190 2150
2150 2190 2191 2151
2151 2191 2192 2152
2152 2192 2193 2153
2153 2193 2194 2154
2154 2194 2195 2155
2155 2195 2196 2156
2156 2196 2197 2157
2157 2197 131 130
53 54 2198 2158
2158 2198 2199 2159
2159 2199 2200 2160
2160 2200 2201 2161
2161 2201 2202 2162
2162 2202 2203 2163
2163 2203 2204 2164
2164 2204 2205 2165
2165 2205 2206 2166
2166 2206 2207 2167
2167 2207 2208 2168
2168 2208 2209 2169
2169 2209 2210 2170
2170 2210 2211 2171
2171 2211 2212 2172
2172 2212 2213 2173
2173 2213 2214 2174
2174 2214 2215 2175
2175 2215 2216 2176
2176 2216 2217 2177
2177 2217 2218 2178
2178 2218 2219 2179
2179 2219 2220 2180
2180 2220 2221 2181
2181 2221 2222 2182
2182 2222 2223 2183
2183 2223 2224 2184
2184 2224 2225 2185
2185 2225 2226 2186
2186 2226 2227 2187
2187 2227 2228 2188
2188 2228 2229 2189
2189 2229 2230 2190
2190 2230 2231 2191
2191 2231 2232 2192
2192 2232 2233 2193
2193 2233 2234 2194
2194 2234 2235 2195
2195 2235 2236 2196
2196 2236 2237 2197
2197 2237 132 131
54 55 2238 2198
2198 2238 2239 2199
2199 2239 2240 2200
2200 2240 2241 2201
2201 2241 2242 2202
2202 2242 2243 2203
2203 2243 2244 2204
2204 2244 2245 2205
2205 2245 2246 2206
2206 2246 2247 2207
2207 2247 2248 2208
2208 2248 2249 2209
2209 2249 2250 2210
2210 2250 2251 2211
2211 2251 2252 2212
2212 2252 2253 2213
2213 2253 2254 2214
2214 2254 2255 2215
2215 2255 2256 2216
2216 2256 2257 2217
2217 2257 2258 2218
2218 2258 2259 2219
2219 2259 2260 2220
2220 2260 2261 2221
2221 2261 2262 2222
2222 2262 2263 2223
2223 2263 2264 2224
2224 2264 2265 2225
2225 2265 2266 2226
2226 2266 2267 2227
2227 2267 2268 2228
2228 2268 2269 2229
2229 2269 2270 2230
2230 2270 2271 2231
2231 2271 2272 2232
2232 2272 2273 2233
2233 2273 2274 2234
2234 2274 2275 2235
2235 2275 2276 2236
2236 2276 2277 2237
2237 2277 133 132
55 56 2278 2238
2238 2278 2279 2239
2239 2279 2280 2240
2240 2280 2281 2241
2241 2281 2282 2242
2242 2282 2283 2243
2243 2283 2284 2244
2244 2284 2285 2245
2245 2285 2286 2246
2246 2286 2287 2247
2247 2287 2288 2248
2248 2288 2289 2249
2249 2289 2290 2250
2250 2290 2291 2251
2251 2291 2292 2252
2252 2292 2293 2253
2253 2293 2294 2254
2254 2294 2295 2255
2255 2295 2296 2256
2256 2296 2297 2257
2257 2297 2298 2258
2258 2298 2299 2259
2259 2299 2300 2260
2260 2300 2301 2261
2261 2301 2302 2262
2262 2302 2303 2263
2263 2303 2304 2264
2264 2304 2305 2265
2265 2305 2306 2266
2266 2306 2307 2267
2267 2307 2308 2268
2268 2308 2309 2269
2269 2309 2310 2270
2270 2310 2311 2271
2271 2311 2312 2272
2272 2312 2313 2273
2273 2313 2314 2274
2274 2314 2315 2275
2275 2315 2316 2276
2276 2316 2317 2277
2277 2317 134 133
56 57 2318 2278
2278 2318 2319 2279
2279 2319 2320 2280
2280 2320 2321 2281
2281 2321 2322 2282
2282 2322 2323 2283
2283 2323 2324 2284
2284 2324 2325 2285
2285 2325 2326 2286
2286 2326 2327 2287
2287 2327 2328 2288
2288 2328 2329 2289
2289 2329 2330 2290
2290 2330 2331 2291
2291 2331 2332 2292
2292 2332 2333 2293
2293 2333 2334 2294
2294 2334 2335 2295
2295 2335 2336 2296
2296 2336 2337 2297
2297 2337 2338 2298
2298 2338 2339 2299
2299 2339 2340 2300
2300 2340 2341 2301
2301 2341 2342 2302
2302 2342 2343 2303
2303 2343 2344 2304
2304 2344 2345 2305
2305 2345 2346 2306
2306 2346 2347 2307
2307 2347 2348 2308
2308 2348 2349 2309
2309 2349 2350 2310
2310 2350 2351 2311
2311 2351 2352 2312
2312 2352 2353 2313
2313 2353 2354 2314
2314 2354 2355 2315
2315 2355 2356 2316
2316 2356 2357 2317
2317 2357 135 134
57 58 2358 2318
2318 2358 2359 2319
2319 2359 2360 2320
2320 2360 2361 2321
2321 2361 2362 2322
2322 2362 2363 2323
2323 2363 2364 2324
2324 2364 2365 2325
2325 2365 2366 2326
2326 2366 2367 2327
2327 2367 2368 2328
2328 2368 2369 2329
2329 2369 2370 2330
2330 2370 2371 2331
2331 2371 2372 2332
2332 2372 2373 2333
2333 2373 2374 2334
2334 2374 2375 2335
2335 2375 2376 2336
2336 2376 2377 2337
2337 2377 2378 2338
2338 2378 2379 2339
2339 2379 2380 2340
2340 2380 2381 2341
2341 2381 2382 2342
2342 2382 2383 2343
2343 2383 2384 2344
2344 2384 2385 2345
2345 2385 2386 2346
2346 2386 2387 2347
2347 2387 2388 2348
2348 2388 2389 2349
2349 2389 2390 2350
2350 2390 2391 2351
2351 2391 2392 2352
2352 2392 2393 2353
2353 2393 2394 2354
2354 2394 2395 2355
2355 2395 2396 2356
2356 2396 2397 2357
2357 2397 136 135
58 59 2398 2358
2358 2398 2399 2359
2359 2399 2400 2360
2360 2400 2401 2361
2361 2401 2402 2362
2362 2402 2403 2363
2363 2403 2404 2364
2364 2404 2405 2365
2365 2405 2406 2366
2366 2406 2407 2367
2367 2407 2408 2368
2368 2408 2409 2369
2369 2409 2410 2370
2370 2410 2411 2371
2371 2411 2412 2372
2372 2412 2413 2373
2373 2413 2414 2374
2374 2414 2415 2375
2375 2415 2416 2376
2376 2416 2417 2377
2377 2417 2418 2378
2378 2418 2419 2379
2379 2419 2420 2380
2380 2420 2421 2381
2381 2421 2422 2382
2382 2422 2423 2383
2383 2423 2424 2384
2384 2424 2425 2385
2385 2425 2426 2386
2386 2426 2427 2387
2387 2427 2428 2388
2388 2428 2429 2389
2389 2429 2430 2390
2390 2430 2431 2391
2391 2431 2432 2392
2392 2432 2433 2393
2393 2433 2434 2394
2394 2434 2435 2395
2395 2435 2436 2396
2396 2436 2437 2397
2397 2437 137 136
59 60 2438 2398
2398 2438 2439 2399
2399 2439 2440 2400
2400 2440 2441 2401
2401 2441 2442 2402
2402 2442 2443 2403
2403 2443 2444 2404
2404 2444 2445 2405
2405 2445 2446 2406
2406 2446 2447 2407
2407 2447 2448 2408
2408 2448 2449 2409
2409 2449 2450 2410
2410 2450 2451 2411
2411 2451 2452 2412
2412 2452 2453 2413
2413 2453 2454 2414
2414 2454 2455 2415
2415 2455 2456 2416
2416 2456 2457 2417
2417 2457 2458 2418
2418 2458 2459 2419
2419 2459 2460 2420
2420 2460 2461 2421
2421 2461 2462 2422
2422 2462 2463 2423
2423 2463 2464 2424
2424 2464 2465 2425
2425 2465 2466 2426
2426 2466 2467 2427
2427 2467 2468 2428
2428 2468 2469 2429
2429 2469 2470 2430
2430 2470 2471 2431
2431 2471 2472 2432
2432 2472 2473 2433
2433 2473 2474 2434
2434 2474 2475 2435
2435 2475 2476 2436
2436 2476 2477 2437
2437 2477 138 137
60 61 2478 2438
2438 2478 2479 2439
2439 2479 2480 2440
2440 2480 2481 2441
2441 2481 2482 2442
2442 2482 2483 2443
2443 2483 2484 2444
2444 2484 2485 2445
2445 2485 2486 2446
2446 2486 2487 2447
2447 2487 2488 2448
2448 2488 2489 2449
2449 2489 2490 2450
2450 2490 2491 2451
2451 2491 2492 2452
2452 2492 2493 2453
2453 2493 2494 2454
2454 2494 2495 2455
2455 2495 2496 2456
2456 2496 2497 2457
2457 2497 2498 2458
2458 2498 2499 2459
2459 2499 2500 2460
2460 2500 2501 2461
2461 2501 2502 2462
2462 2502 2503 2463
2463 2503 2504 2464
2464 2504 2505 2465
2465 2505 2506 2466
2466 2506 2507 2467
2467 2507 2508 2468
2468 2508 2509 2469
2469 2509 2510 2470
2470 2510 2511 2471
2471 2511 2512 2472
2472 2512 2513 2473
2473 2513 2514 2474
2474 2514 2515 2475
2475 2515 2516 2476
2476 2516 2517 2477
2477 2517 139 138
61 62 2518 2478
2478 2518 2519 2479
2479 2519 2520 2480
2480 2520 2521 2481
2481 2521 2522 2482
2482 2522 2523 2483
2483 2523 2524 2484
2484 2524 2525 2485
2485 2525 2526 2486
2486 2526 2527 2487
2487 2527 2528 2488
2488 2528 2529 2489
2489 2529 2530 2490
2490 2530 2531 2491
2491 2531 2532 2492
2492 2532 2533 2493
2493 2533 2534 2494
2494 2534 2535 2495
2495 2535 2536 2496
2496 2536 2537 2497
2497 2537 2538 2498
2498 2538 2539 2499
2499 2539 2540 2500
2500 2540 2541 2501
2501 2541 2542 2502
2502 2542 2543 2503
2503 2543 2544 2504
2504 2544 2545 2505
2505 2545 2546 2506
2506 2546 2547 2507
2507 2547 2548 2508
2508 2548 2549 2509
2509 2549 2550 2510
2510 2550 2551 2511
2511 2551 2552 2512
2512 2552 2553 2513
2513 2553 2554 2514
2514 2554 2555 2515
2515 2555 2556 2516
2516 2556 2557 2517
2517 2557 140 139
62 63 2558 2518
2518 2558 2559 2519
2519 2559 2560 2520
2520 2560 2561 2521
2521 2561 2562 2522
2522 2562 2563 2523
2523 2563 2564 2524
2524 2564 2565 2525
2525 2565 2566 2526
2526 2566 2567 2527
2527 2567 2568 2528
2528 2568 2569 2529
2529 2569 2570 2530
2530 2570 2571 2531
2531 2571 2572 2532
2532 2572 2573 2533
2533 2573 2574 2534
2534 2574 2575 2535
2535 2575 2576 2536
2536 2576 2577 2537
2537 2577 2578 2538
2538 2578 2579 2539
2539 2579 2580 2540
2540 2580 2581 2541
2541 2581 2582 2542
2542 2582 2583 2543
2543 2583 2584 2544
2544 2584 2585 2545
2545 2585 2586 2546
2546 2586 2587 2547
2547 2587 2588 2548
2548 2588 2589 2549
2549 2589 2590 2550
2550 2590 2591 2551
2551 2591 2592 2552
2552 2592 2593 2553
2553 2593 2594 2554
2554 2594 2595 2555
2555 2595 2596 2556
2556 2596 2597 2557
2557 2597 141 140
63 64 2598 2558
2558 2598 2599 2559
2559 2599 2600 2560
2560 2600 2601 2561
2561 2601 2602 2562
2562 2602 2603 2563
2563 2603 2604 2564
2564 2604 2605 2565
2565 2605 2606 2566
2566 2606 2607 2567
2567 2607 2608 2568
2568 2608 2609 2569
2569 2609 2610 2570
2570 2610 2611 2571
2571 2611 2612 2572
2572 2612 2613 2573
2573 2613 2614 2574
2574 2614 2615 2575
2575 2615 2616 2576
2576 2616 2617 2577
2577 2617 2618 2578
2578 2618 2619 2579
2579 2619 2620 2580
2580 2620 2621 2581
2581 2621 2622 2582
2582 2622 2623 2583
2583 2623 2624 2584
2584 2624 2625 2585
2585 2625 2626 2586
2586 2626 2627 2587
2587 2627 2628 2588
2588 2628 2629 2589
2589 2629 2630 2590
2590 2630 2631 2591
2591 2631 2632 2592
2592 2632 2633 2593
2593 2633 2634 2594
2594 2634 2635 2595
2595 2635 2636 2596
2596 2636 2637 2597
2597 2637 142 141
64 65 2638 2598
2598 2638 2639 2599
2599 2639 2640 2600
2600 2640 2641 2601
2601 2641 2642 2602
2602 2642 2643 2603
2603 2643 2644 2604
2604 2644 2645 2605
2605 2645 2646 2606
2606 2646 2647 2607
2607 2647 2648 2608
2608 2648 2649 2609
2609 2649 2650 2610
2610 2650 2651 2611
2611 2651 2652 2612
2612 2652 2653 2613
2613 2653 2654 2614
2614 2654 2655 2615
2615 2655 2656 2616
2616 2656 2657 2617
2617 2657 2658 2618
2618 2658 2659 2619
2619 2659 2660 2620
2620 2660 2661 2621
2621 2661 2662 2622
2622 2662 2663 2623
2623 2663 2664 2624
2624 2664 2665 2625
2625 2665 2666 2626
2626 2666 2667 2627
2627 2667 2668 2628
2628 2668 2669 2629
2629 2669 2670 2630
2630 2670 2671 2631
2631 2671 2672 2632
2632 2672 2673 2633
2633 2673 2674 2634
2634 2674 2675 2635
2635 2675 2676 2636
2636 2676 2677 2637
2637 2677 143 142
65 66 2678 2638
2638 2678 2679 2639
2639 2679 2680 2640
2640 2680 2681 2641
2641 2681 2682 2642
2642 2682 2683 2643
2643 2683 2684 2644
2644 2684 2685 2645
2645 2685 2686 2646
2646 2686 2687 2647
2647 2687 2688 2648
2648 2688 2689 2649
2649 2689 2690 2650
2650 2690 2691 2651
2651 2691 2692 2652
2652 2692 2693 2653
2653 2693 2694 2654
2654 2694 2695 2655
2655 2695 2696 2656
2656 2696 2697 2657
2657 2697 2698 2658
2658 2698 2699 2659
2659 2699 2700 2660
2660 2700 2701 2661
2661 2701 2702 2662
2662 2702 2703 2663
2663 2703 2704 2664
2664 2704 2705 2665
2665 2705 2706 2666
2666 2706 2707 2667
2667 2707 2708 2668
2668 2708 2709 2669
2669 2709 2710 2670
2670 2710 2711 2671
2671 2711 2712 2672
2672 2712 2713 2673
2673 2713 2714 2674
2674 2714 2715 2675
2675 2715 2716 2676
2676 2716 2717 2677
2677 2717 144 143
66 67 2718 2678
2678 2718 2719 2679
2679 2719 2720 2680
2680 2720 2721 2681
2681 2721 2722 2682
2682 2722 2723 2683
2683 2723 2724 2684
2684 2724 2725 2685
2685 2725 2726 2686
2686 2726 2727 2687
2687 2727 2728 2688
2688 2728 2729 2689
2689 2729 2730 2690
2690 2730 2731 2691
2691 2731 2732 2692
2692 2732 2733 2693
2693 2733 2734 2694
2694 2734 2735 2695
2695 2735 2736 2696
2696 2736 2737 2697
2697 2737 2738 2698
2698 2738 2739 2699
2699 2739 2740 2700
2700 2740 2741 2701
2701 2741 2742 2702
2702 2742 2743 2703
2703 2743 2744 2704
2704 2744 2745 2705
2705 2745 2746 2706
2706 2746 2747 2707
2707 2747 2748 2708
2708 2748 2749 2709
2709 2749 2750 2710
2710 2750 2751 2711
2711 2751 2752 2712
2712 2752 2753 2713
2713 2753 2754 2714
2714 2754 2755 2715
2715 2755 2756 2716
2716 2756 2757 2717
2717 2757 145 144
67 68 2758 2718
2718 2758 2759 2719
2719 2759 2760 2720
2720 2760 2761 2721
2721 2761 2762 2722
2722 2762 2763 2723
2723 2763 2764 2724
2724 2764 2765 2725
2725 2765 2766 2726
2726 2766 2767 2727
2727 2767 2768 2728
2728 2768 2769 2729
2729 2769 2770 2730
2730 2770 2771 2731
2731 2771 2772 2732
2732 2772 2773 2733
2733 2773 2774 2734
2734 2774 2775 2735
2735 2775 2776 2736
2736 2776 2777 2737
2737 2777 2778 2738
2738 2778 2779 2739
2739 2779 2780 2740
2740 2780 2781 2741
2741 2781 2782 2742
2742 2782 2783 2743
2743 2783 2784 2744
2744 2784 2785 2745
2745 2785 2786 2746
2746 2786 2787 2747
2747 2787 2788 2748
2748 2788 2789 2749
2749 2789 2790 2750
2750 2790 2791 2751
2751 2791 2792 2752
2752 2792 2793 2753
2753 2793 2794 2754
2754 2794 2795 2755
2755 2795 2796 2756
2756 2796 2797 2757
2757 2797 146 145
68 69 2798 2758
2758 2798 2799 2759
2759 2799 2800 2760
2760 2800 2801 2761
2761 2801 2802 2762
2762 2802 2803 2763
2763 2803 2804 2764
2764 2804 2805 2765
2765 2805 2806 2766
2766 2806 2807 2767
2767 2807 2808 2768
2768 2808 2809 2769
2769 2809 2810 2770
2770 2810 2811 2771
2771 2811 2812 2772
2772 2812 2813 2773
2773 2813 2814 2774
2774 2814 2815 2775
2775 2815 2816 2776
2776 2816 2817 2777
2777 2817 2818 2778
2778 2818 2819 2779
2779 2819 2820 2780
2780 2820 2821 2781
2781 2821 2822 2782
2782 2822 2823 2783
2783 2823 2824 2784
2784 2824 2825 2785
2785 2825 2826 2786
2786 2826 2827 2787
2787 2827 2828 2788
2788 2828 2829 2789
2789 2829 2830 2790
2790 2830 2831 2791
2791 2831 2832 2792
2792 2832 2833 2793
2793 2833 2834 2794
2794 2834 2835 2795
2795 2835 2836 2796
2796 2836 2837 2797
2797 2837 5 146
69 70 2838 2798
2798 2838 2839 2799
2799 2839 2840 2800
2800 2840 2841 2801
2801 2841 2842 2802
2802 2842 2843 2803
2803 2843 2844 2804
2804 2844 2845 2805
2805 2845 2846 2806
2806 2846 2847 2807
2807 2847 2848 2808
2808 2848 2849 2809
2809 2849 2850 2810
2810 2850 2851 2811
2811 2851 2852 2812
2812 2852 2853 2813
2813 2853 2854 2814
2814 2854 2855 2815
2815 2855 2856 2816
2816 2856 2857 2817
2817 2857 2858 2818
2818 2858 2859 2819
2819 2859 2860 2820
2820 2860 2861 2821
2821 2861 2862 2822
2822 2862 2863 2823
2823 2863 2864 2824
2824 2864 2865 2825
2825 2865 2866 2826
2826 2866 2867 2827
2827 2867 2868 2828
2828 2868 2869 2829
2829 2869 2870 2830
2830 2870 2871 2831
2831 2871 2872 2832
2832 2872 2873 2833
2833 2873 2874 2834
2834 2874 2875 2835
2835 2875 2876 2836
2836 2876 2877 2837
2837 2877 147 5
70 71 2878 2838
2838 2878 2879 2839
2839 2879 2880 2840
2840 2880 2881 2841
2841 2881 2882 2842
2842 2882 2883 2843
2843 2883 2884 2844
2844 2884 2885 2845
2845 2885 2886 2846
2846 2886 2887 2847
2847 2887 2888 2848
2848 2888 2889 2849
2849 2889 2890 2850
2850 2890 2891 2851
2851 2891 2892 2852
2852 2892 2893 2853
2853 2893 2894 2854
2854 2894 2895 2855
2855 2895 2896 2856
2856 2896 2897 2857
2857 2897 2898 2858
2858 2898 2899 2859
2859 2899 2900 2860
2860 2900 2901 2861
2861 2901 2902 2862
2862 2902 2903 2863
2863 2903 2904 2864
2864 2904 2905 2865
2865 2905 2906 2866
2866 2906 2907 2867
2867 2907 2908 2868
2868 2908 2909 2869
2869 2909 2910 2870
2870 2910 2911 2871
2871 2911 2912 2872
2872 2912 2913 2873
2873 2913 2914 2874
2874 2914 2915 2875
2875 2915 2916 2876
2876 2916 2917 2877
2877 2917 148 147
71 72 2918 2878
2878 2918 2919 2879
2879 2919 2920 2880
2880 2920 2921 2881
2881 2921 2922 2882
2882 2922 2923 2883
2883 2923 2924 2884
2884 2924 2925 2885
2885 2925 2926 2886
2886 2926 2927 2887
2887 2927 2928 2888
2888 2928 2929 2889
2889 2929 2930 2890
2890 2930 2931 2891
2891 2931 2932 2892
2892 2932 2933 2893
2893 2933 2934 2894
2894 2934 2935 2895
2895 2935 2936 2896
2896 2936 2937 2897
2897 2937 2938 2898
2898 2938 2939 2899
2899 2939 2940 2900
2900 2940 2941 2901
2901 2941 2942 2902
2902 2942 2943 2903
2903 2943 2944 2904
2904 2944 2945 2905
2905 2945 2946 2906
2906 2946 2947 2907
2907 2947 2948 2908
2908 2948 2949 2909
2909 2949 2950 2910
2910 2950 2951 2911
2911 2951 2952 2912
2912 2952 2953 2913
2913 2953 2954 2914
2914 2954 2955 2915
2915 2955 2956 2916
2916 2956 2957 2917
2917 2957 149 148
72 73 2958 2918
2918 2958 2959 2919
2919 2959 2960 2920
2920 2960 2961 2921
2921 2961 2962 2922
2922 2962 2963 2923
2923 2963 2964 2924
2924 2964 2965 2925
2925 2965 2966 2926
2926 2966 2967 2927
2927 2967 2968 2928
2928 2968 2969 2929
2929 2969 2970 2930
2930 2970 2971 2931
2931 2971 2972 2932
2932 2972 2973 2933
2933 2973 2974 2934
2934 2974 2975 2935
2935 2975 2976 2936
2936 2976 2977 2937
2937 2977 2978 2938
2938 2978 2979 2939
2939 2979 2980 2940
2940 2980 2981 2941
2941 2981 2982 2942
2942 2982 2983 2943
2943 2983 2984 2944
2944 2984 2985 2945
2945 2985 2986 2946
2946 2986 2987 2947
2947 2987 2988 2948
2948 2988 2989 2949
2949 2989 2990 2950
2950 2990 2991 2951
2951 2991 2992 2952
2952 2992 2993 2953
2953 2993 2994 2954
2954 2994 2995 2955
2955 2995 2996 2956
2956 2996 2997 2957
2957 2997 150 149
73 74 2998 2958
2958 2998 2999 2959
2959 2999 3000 2960
2960 3000 3001 2961
2961 3001 3002 2962
2962 3002 3003 2963
2963 3003 3004 2964
2964 3004 3005 2965
2965 3005 3006 2966
2966 3006 3007 2967
2967 3007 3008 2968
2968 3008 3009 2969
2969 3009 3010 2970
2970 3010 3011 2971
2971 3011 3012 2972
2972 3012 3013 2973
2973 3013 3014 2974
2974 3014 3015 2975
2975 3015 3016 2976
2976 3016 3017 2977
2977 3017 3018 2978
2978 3018 3019 2979
2979 3019 3020 2980
2980 3020 3021 2981
2981 3021 3022 2982
2982 3022 3023 2983
2983 3023 3024 2984
2984 3024 3025 2985
2985 3025 3026 2986
2986 3026 3027 2987
2987 3027 3028 2988
2988 3028 3029 2989
2989 3029 3030 2990
2990 3030 3031 2991
2991 3031 3032 2992
2992 3032 3033 2993
2993 3033 3034 2994
2994 3034 3035 2995
2995 3035 3036 2996
2996 3036 3037 2997
2997 3037 151 150
74 75 3038 2998
2998 3038 3039 2999
2999 3039 3040 3000
3000 3040 3041 3001
3001 3041 3042 3002
3002 3042 3043 3003
3003 3043 3044 3004
3004 3044 3045 3005
3005 3045 3046 3006
3006 3046 3047 3007
3007 3047 3048 3008
3008 3048 3049 3009
3009 3049 3050 3010
3010 3050 3051 3011
3011 3051 3052 3012
3012 3052 3053 3013
3013 3053 3054 3014
3014 3054 3055 3015
3015 3055 3056 3016
3016 3056 3057 3017
3017 3057 3058 3018
3018 3058 3059 3019
3019 3059 3060 3020
3020 3060 3061 3021
3021 3061 3062 3022
3022 3062 3063 3023
3023 3063 3064 3024
3024 3064 3065 3025
3025 3065 3066 3026
3026 3066 3067 3027
3027 3067 3068 3028
3028 3068 3069 3029
3029 3069 3070 3030
3030 3070 3071 3031
3031 3071 3072 3032
3032 3072 3073 3033
3033 3073 3074 3034
3034 3074 3075 3035
3035 3075 3076 3036
3036 3076 3077 3037
3037 3077 152 151
75 76 3078 3038
3038 3078 3079 3039
3039 3079 3080 3040
3040 3080 3081 3041
3041 3081 3082 3042
3042 3082 3083 3043
3043 3083 3084 3044
3044 3084 3085 3045
3045 3085 3086 3046
3046 3086 3087 3047
3047 3087 3088 3048
3048 3088 3089 3049
3049 3089 3090 3050
3050 3090 3091 3051
3051 3091 3092 3052
3052 3092 3093 3053
3053 3093 3094 3054
3054 3094 3095 3055
3055 3095 3096 3056
3056 3096 3097 3057
3057 3097 3098 3058
3058 3098 3099 3059
3059 3099 3100 3060
3060 3100 3101 3061
3061 3101 3102 3062
3062 3102 3103 3063
3063 3103 3104 3064
3064 3104 3105 3065
3065 3105 3106 3066
3066 3106 3107 3067
3067 3107 3108 3068
3068 3108 3109 3069
3069 3109 3110 3070
3070 3110 3111 3071
3071 3111 3112 3072
3072 3112 3113 3073
3073 3113 3114 3074
3074 3114 3115 3075
3075 3115 3116 3076
3076 3116 3117 3077
3077 3117 153 152
76 77 3118 3078
3078 3118 3119 3079
3079 3119 3120 3080
3080 3120 3121 3081
3081 3121 3122 3082
3082 3122 3123 3083
3083 3123 3124 3084
3084 3124 3125 3085
3085 3125 3126 3086
3086 3126 3127 3087
3087 3127 3128 3088
3088 3128 3129 3089
3089 3129 3130 3090
3090 3130 3131 3091
3091 3131 3132 3092
3092 3132 3133 3093
3093 3133 3134 3094
3094 3134 3135 3095
3095 3135 3136 3096
3096 3136 3137 3097
3097 3137 3138 3098
3098 3138 3139 3099
3099 3139 3140 3100
3100 3140 3141 3101
3101 3141 3142 3102
3102 3142 3143 3103
3103 3143 3144 3104
3104 3144 3145 3105
3105 3145 3146 3106
3106 3146 3147 3107
3107 3147 3148 3108
3108 3148 3149 3109
3109 3149 3150 3110
3110 3150 3151 3111
3111 3151 3152 3112
3112 3152 3153 3113
3113 3153 3154 3114
3114 3154 3155 3115
3115 3155 3156 3116
3116 3156 3157 3117
3117 3157 154 153
77 78 3158 3118
3118 3158 3159 3119
3119 3159 3160 3120
3120 3160 3161 3121
3121 3161 3162 3122
3122 3162 3163 3123
3123 3163 3164 3124
3124 3164 3165 3125
3125 3165 3166 3126
3126 3166 3167 3127
3127 3167 3168 3128
3128 3168 3169 3129
3129 3169 3170 3130
3130 3170 3171 3131
3131 3171 3172 3132
3132 3172 3173 3133
3133 3173 3174 3134
3134 3174 3175 3135
3135 3175 3176 3136
3136 3176 3177 3137
3137 3177 3178 3138
3138 3178 3179 3139
3139 3179 3180 3140
3140 3180 3181 3141
3141 3181 3182 3142
3142 3182 3183 3143
3143 3183 3184 3144
3144 3184 3185 3145
3145 3185 3186 3146
3146 3186 3187 3147
3147 3187 3188 3148
3148 3188 3189 3149
3149 3189 3190 3150
3150 3190 3191 3151
3151 3191 3192 3152
3152 3192 3193 3153
3153 3193 3194 3154
3154 3194 3195 3155
3155 3195 3196 3156
3156 3196 3197 3157
3157 3197 155 154
78 79 3198 3158
3158 3198 3199 3159
3159 3199 3200 3160
3160 3200 3201 3161
3161 3201 3202 3162
3162 3202 3203 3163
3163 3203 3204 3164
3164 3204 3205 3165
3165 3205 3206 3166
3166 3206 3207 3167
3167 3207 3208 3168
3168 3208 3209 3169
3169 3209 3210 3170
3170 3210 3211 3171
3171 3211 3212 3172
3172 3212 3213 3173
3173 3213 3214 3174
3174 3214 3215 3175
3175 3215 3216 3176
3176 3216 3217 3177
3177 3217 3218 3178
3178 3218 3219 3179
3179 3219 3220 3180
3180 3220 3221 3181
3181 3221 3222 3182
3182 3222 3223 3183
3183 3223 3224 3184
3184 3224 3225 3185
3185 3225 3226 3186
3186 3226 3227 3187
3187 3227 3228 3188
3188 3228 3229 3189
3189 3229 3230 3190
3190 3230 3231 3191
3191 3231 3232 3192
3192 3232 3233 3193
3193 3233 3234 3194
3194 3234 3235 3195
3195 3235 3236 3196
3196 3236 3237 3197
3197 3237 156 155
79 80 3238 3198
3198 3238 3239 3199
3199 3239 3240 3200
3200 3240 3241 3201
3201 3241 3242 3202
3202 3242 3243 3203
3203 3243 3244 3204
3204 3244 3245 3205
3205 3245 3246 3206
3206 3246 3247 3207
3207 3247 3248 3208
3208 3248 3249 3209
3209 3249 3250 3210
3210 3250 3251 3211
3211 3251 3252 3212
3212 3252 3253 3213
3213 3253 3254 3214
3214 3254 3255 3215
3215 3255 3256 3216
3216 3256 3257 3217
3217 3257 3258 3218
3218 3258 3259 3219
3219 3259 3260 3220
3220 3260 3261 3221
3221 3261 3262 3222
3222 3262 3263 3223
3223 3263 3264 3224
3224 3264 3265 3225
3225 3265 3266 3226
3226 3266 3267 3227
3227 3267 3268 3228
3228 3268 3269 3229
3229 3269 3270 3230
3230 3270 3271 3231
3231 3271 3272 3232
3232 3272 3273 3233
3233 3273 3274 3234
3234 3274 3275 3235
3235 3275 3276 3236
3236 3276 3277 3237
3237 3277 157 156
80 81 3278 3238
3238 3278 3279 3239
3239 3279 3280 3240
3240 3280 3281 3241
3241 3281 3282 3242
3242 3282 3283 3243
3243 3283 3284 3244
3244 3284 3285 3245
3245 3285 3286 3246
3246 3286 3287 3247
3247 3287 3288 3248
3248 3288 3289 3249
3249 3289 3290 3250
3250 3290 3291 3251
3251 3291 3292 3252
3252 3292 3293 3253
3253 3293 3294 3254
3254 3294 3295 3255
3255 3295 3296 3256
3256 3296 3297 3257
3257 3297 3298 3258
3258 3298 3299 3259
3259 3299 3300 3260
3260 3300 3301 3261
3261 3301 3302 3262
3262 3302 3303 3263
3263 3303 3304 3264
3264 3304 3305 3265
3265 3305 3306 3266
3266 3306 3307 3267
3267 3307 3308 3268
3268 3308 3309 3269
3269 3309 3310 3270
3270 3310 3311 3271
3271 3311 3312 3272
3272 3312 3313 3273
3273 3313 3314 3274
3274 3314 3315 3275
3275 3315 3316 3276
3276 3316 3317 3277
3277 3317 158 157
81 82 3318 3278
3278 3318 3319 3279
3279 3319 3320 3280
3280 3320 3321 3281
3281 3321 3322 3282
3282 3322 3323 3283
3283 3323 3324 3284
3284 3324 3325 3285
3285 3325 3326 3286
3286 3326 3327 3287
3287 3327 3328 3288
3288 3328 3329 3289
3289 3329 3330 3290
3290 3330 3331 3291
3291 3331 3332 3292
3292 3332 3333 3293
3293 3333 3334 3294
3294 3334 3335 3295
3295 3335 3336 3296
3296 3336 3337 3297
3297 3337 3338 3298
3298 3338 3339 3299
3299 3339 3340 3300
3300 3340 3341 3301
3301 3341 3342 3302
3302 3342 3343 3303
3303 3343 3344 3304
3304 3344 3345 3305
3305 3345 3346 3306
3306 3346 3347 3307
3307 3347 3348 3308
3308 3348 3349 3309
3309 3349 3350 3310
3310 3350 3351 3311
3311 3351 3352 3312
3312 3352 3353 3313
3313 3353 3354 3314
3314 3354 3355 3315
3315 3355 3356 3316
3316 3356 3357 3317
3317 3357 159 158
82 83 3358 3318
3318 3358 3359 3319
3319 3359 3360 3320
3320 3360 3361 3321
3321 3361 3362 3322
3322 3362 3363 3323
3323 3363 3364 3324
3324 3364 3365 3325
3325 3365 3366 3326
3326 3366 3367 3327
3327 3367 3368 3328
3328 3368 3369 3329
3329 3369 3370 3330
3330 3370 3371 3331
3331 3371 3372 3332
3332 3372 3373 3333
3333 3373 3374 3334
3334 3374 3375 3335
3335 3375 3376 3336
3336 3376 3377 3337
3337 3377 3378 3338
3338 3378 3379 3339
3339 3379 3380 3340
3340 3380 3381 3341
3341 3381 3382 3342
3342 3382 3383 3343
3343 3383 3384 3344
3344 3384 3385 3345
3345 3385 3386 3346
3346 3386 3387 3347
3347 3387 3388 3348
3348 3388 3389 3349
3349 3389 3390 3350
3350 3390 3391 3351
3351 3391 3392 3352
3352 3392 3393 3353
3353 3393 3394 3354
3354 3394 3395 3355
3355 3395 3396 3356
3356 3396 3397 3357
3357 3397 160 159
83 84 3398 3358
3358 3398 3399 3359
3359 3399 3400 3360
3360 3400 3401 3361
3361 3401 3402 3362
3362 3402 3403 3363
3363 3403 3404 3364
3364 3404 3405 3365
3365 3405 3406 3366
3366 3406 3407 3367
3367 3407 3408 3368
3368 3408 3409 3369
3369 3409 3410 3370
3370 3410 3411 3371
3371 3411 3412 3372
3372 3412 3413 3373
3373 3413 3414 3374
3374 3414 3415 3375
3375 3415 3416 3376
3376 3416 3417 3377
3377 3417 3418 3378
3378 3418 3419 3379
3379 3419 3420 3380
3380 3420 3421 3381
3381 3421 3422 3382
3382 3422 3423 3383
3383 3423 3424 3384
3384 3424 3425 3385
3385 3425 3426 3386
3386 3426 3427 3387
3387 3427 3428 3388
3388 3428 3429 3389
3389 3429 3430 3390
3390 3430 3431 3391
3391 3431 3432 3392
3392 3432 3433 3393
3393 3433 3434 3394
3394 3434 3435 3395
3395 3435 3436 3396
3396 3436 3437 3397
3397 3437 161 160
84 85 3438 3398
3398 3438 3439 3399
3399 3439 3440 3400
3400 3440 3441 3401
3401 3441 3442 3402
3402 3442 3443 3403
3403 3443 3444 3404
3404 3444 3445 3405
3405 3445 3446 3406
3406 3446 3447 3407
3407 3447 3448 3408
3408 3448 3449 3409
3409 3449 3450 3410
3410 3450 3451 3411
3411 3451 3452 3412
3412 3452 3453 3413
3413 3453 3454 3414
3414 3454 3455 3415
3415 3455 3456 3416
3416 3456 3457 3417
3417 3457 3458 3418
3418 3458 3459 3419
3419 3459 3460 3420
3420 3460 3461 3421
3421 3461 3462 3422
3422 3462 3463 3423
3423 3463 3464 3424
3424 3464 3465 3425
3425 3465 3466 3426
3426 3466 3467 3427
3427 3467 3468 3428
3428 3468 3469 3429
3429 3469 3470 3430
3430 3470 3471 3431
3431 3471 3472 3432
3432 3472 3473 3433
3433 3473 3474 3434
3434 3474 3475 3435
3435 3475 3476 3436
3436 3476 3477 3437
3437 3477 162 161
85 86 3478 3438
3438 3478 3479 3439
3439 3479 3480 3440
3440 3480 3481 3441
3441 3481 3482 3442
3442 3482 3483 3443
3443 3483 3484 3444
3444 3484 3485 3445
3445 3485 3486 3446
3446 3486 3487 3447
3447 3487 3488 3448
3448 3488 3489 3449
3449 3489 3490 3450
3450 3490 3491 3451
3451 3491 3492 3452
3452 3492 3493 3453
3453 3493 3494 3454
3454 3494 3495 3455
3455 3495 3496 3456
3456 3496 3497 3457
3457 3497 3498 3458
3458 3498 3499 3459
3459 3499 3500 3460
3460 3500 3501 3461
3461 3501 3502 3462
3462 3502 3503 3463
3463 3503 3504 3464
3464 3504 3505 3465
3465 3505 3506 3466
3466 3506 3507 3467
3467 3507 3508 3468
3468 3508 3509 3469
3469 3509 3510 3470
3470 3510 3511 3471
3471 3511 3512 3472
3472 3512 3513 3473
3473 3513 3514 3474
3474 3514 3515 3475
3475 3515 3516 3476
3476 3516 3517 3477
3477 3517 163 162
86 87 3518 3478
3478 3518 3519 3479
3479 3519 3520 3480
3480 3520 3521 3481
3481 3521 3522 3482
3482 3522 3523 3483
3483 3523 3524 3484
3484 3524 3525 3485
3485 3525 3526 3486
3486 3526 3527 3487
3487 3527 3528 3488
3488 3528 3529 3489
3489 3529 3530 3490
3490 3530 3531 3491
3491 3531 3532 3492
3492 3532 3533 3493
3493 3533 3534 3494
3494 3534 3535 3495
3495 3535 3536 3496
3496 3536 3537 3497
3497 3537 3538 3498
3498 3538 3539 3499
3499 3539 3540 3500
3500 3540 3541 3501
3501 3541 3542 3502
3502 3542 3543 3503
3503 3543 3544 3504
3504 3544 3545 3505
3505 3545 3546 3506
3506 3546 3547 3507
3507 3547 3548 3508
3508 3548 3549 3509
3509 3549 3550 3510
3510 3550 3551 3511
3511 3551 3552 3512
3512 3552 3553 3513
3513 3553 3554 3514
3514 3554 3555 3515
3515 3555 3556 3516
3516 3556 3557 3517
3517 3557 164 163
87 88 3558 3518
3518 3558 3559 3519
3519 3559 3560 3520
3520 3560 3561 3521
3521 3561 3562 3522
3522 3562 3563 3523
3523 3563 3564 3524
3524 3564 3565 3525
3525 3565 3566 3526
3526 3566 3567 3527
3527 3567 3568 3528
3528 3568 3569 3529
3529 3569 3570 3530
3530 3570 3571 3531
3531 3571 3572 3532
3532 3572 3573 3533
3533 3573 3574 3534
3534 3574 3575 3535
3535 3575 3576 3536
3536 3576 3577 3537
3537 3577 3578 3538
3538 3578 3579 3539
3539 3579 3580 3540
3540 3580 3581 3541
3541 3581 3582 3542
3542 3582 3583 3543
3543 3583 3584 3544
3544 3584 3585 3545
3545 3585 3586 3546
3546 3586 3587 3547
3547 3587 3588 3548
3548 3588 3589 3549
3549 3589 3590 3550
3550 3590 3591 3551
3551 3591 3592 3552
3552 3592 3593 3553
3553 3593 3594 3554
3554 3594 3595 3555
3555 3595 3596 3556
3556 3596 3597 3557
3557 3597 165 164
88 2 322 3558
3558 322 321 3559
3559 321 320 3560
3560 320 319 3561
3561 319 318 3562
3562 318 317 3563
3563 317 316 3564
3564 316 315 3565
3565 315 314 3566
3566 314 313 3567
3567 313 312 3568
3568 312 311 3569
3569 311 310 3570
3570 310 309 3571
3571 309 308 3572
3572 308 307 3573
3573 307 306 3574
3574 306 305 3575
3575 305 304 3576
3576 304 303 3577
3577 303 302 3578
3578 302 301 3579
3579 301 300 3580
3580 300 299 3581
3581 299 298 3582
3582 298 297 3583
3583 297 296 3584
3584 296 295 3585
3585 295 294 3586
3586 294 293 3587
3587 293 292 3588
3588 292 291 3589
3589 291 290 3590
3590 290 289 3591
3591 289 288 3592
3592 288 287 3593
3593 287 286 3594
3594 286 285 3595
3595 285 284 3596
3596 284 283 3597
3597 283 6 165
4 108 3598 380
380 3598 3599 379
379 3599 3600 378
378 3600 3601 377
377 3601 3602 376
376 3602 3603 375
375 3603 3604 374
374 3604 3605 373
373 3605 3606 372
372 3606 3607 371
371 3607 3608 370
370 3608 3609 369
369 3609 3610 368
368 3610 3611 367
367 3611 3612 366
366 3612 3613 365
365 3613 3614 364
364 3614 3615 363
363 3615 3616 362
362 3616 323 9
108 109 3617 3598
3598 3617 3618 3599
3599 3618 3619 3600
3600 3619 3620 3601
3601 3620 3621 3602
3602 3621 3622 3603
3603 3622 3623 3604
3604 3623 3624 3605
3605 3624 3625 3606
3606 3625 3626 3607
3607 3626 3627 3608
3608 3627 3628 3609
3609 3628 3629 3610
3610 3629 3630 3611
3611 3630 3631 3612
3612 3631 3632 3613
3613 3632 3633 3614
3614 3633 3634 3615
3615 3634 3635 3616
3616 3635 324 323
109 110 3636 3617
3617 3636 3637 3618
3618 3637 3638 3619
3619 3638 3639 3620
3620 3639 3640 3621
3621 3640 3641 3622
3622 3641 3642 3623
3623 3642 3643 3624
3624 3643 3644 3625
3625 3644 3645 3626
3626 3645 3646 3627
3627 3646 3647 3628
3628 3647 3648 3629
3629 3648 3649 3630
3630 3649 3650 3631
3631 3650 3651 3632
3632 3651 3652 3633
3633 3652 3653 3634
3634 3653 3654 3635
3635 3654 325 324
110 111 3655 3636
3636 3655 3656 3637
3637 3656 3657 3638
3638 3657 3658 3639
3639 3658 3659 3640
3640 3659 3660 3641
3641 3660 3661 3642
3642 3661 3662 3643
3643 3662 3663 3644
3644 3663 3664 3645
3645 3664 3665 3646
3646 3665 3666 3647
3647 3666 3667 3648
3648 3667 3668 3649
3649 3668 3669 3650
3650 3669 3670 3651
3651 3670 3671 3652
3652 3671 3672 3653
3653 3672 3673 3654
3654 3673 326 325
111 112 3674 3655
3655 3674 3675 3656
3656 3675 3676 3657
3657 3676 3677 3658
3658 3677 3678 3659
3659 3678 3679 3660
3660 3679 3680 3661
3661 3680 3681 3662
3662 3681 3682 3663
3663 3682 3683 3664
3664 3683 3684 3665
3665 3684 3685 3666
3666 3685 3686 3667
3667 3686 3687 3668
3668 3687 3688 3669
3669 3688 3689 3670
3670 3689 3690 3671
3671 3690 3691 3672
3672 3691 3692 3673
3673 3692 327 326
112 113 3693 3674
3674 3693 3694 3675
3675 3694 3695 3676
3676 3695 3696 3677
3677 3696 3697 3678
3678 3697 3698 3679
3679 3698 3699 3680
3680 3699 3700 3681
3681 3700 3701 3682
3682 3701 3702 3683
3683 3702 3703 3684
3684 3703 3704 3685
3685 3704 3705 3686
3686 3705 3706 3687
3687 3706 3707 3688
3688 3707 3708 3689
3689 3708 3709 3690
3690 3709 3710 3691
3691 3710 3711 3692
3692 3711 328 327
113 114 3712 3693
3693 3712 3713 3694
3694 3713 3714 3695
3695 3714 3715 3696
3696 3715 3716 3697
3697 3716 3717 3698
3698 3717 3718 3699
3699 3718 3719 3700
3700 3719 3720 3701
3701 3720 3721 3702
3702 3721 3722 3703
3703 3722 3723 3704
3704 3723 3724 3705
3705 3724 3725 3706
3706 3725 3726 3707
3707 3726 3727 3708
3708 3727 3728 3709
3709 3728 3729 3710
3710 3729 3730 3711
3711 3730 329 328
114 115 3731 3712
3712 3731 3732 3713
3713 3732 3733 3714
3714 3733 3734 3715
3715 3734 3735 3716
3716 3735 3736 3717
3717 3736 3737 3718
3718 3737 3738 3719
3719 3738 3739 3720
3720 3739 3740 3721
3721 3740 3741 3722
3722 3741 3742 3723
3723 3742 3743 3724
3724 3743 3744 3725
3725 3744 3745 3726
3726 3745 3746 3727
3727 3746 3747 3728
3728 3747 3748 3729
3729 3748 3749 3730
3730 3749 330 329
115 116 3750 3731
3731 3750 3751 3732
3732 3751 3752 3733
3733 3752 3753 3734
3734 3753 3754 3735
3735 3754 3755 3736
3736 3755 3756 3737
3737 3756 3757 3738
3738 3757 3758 3739
3739 3758 3759 3740
3740 3759 3760 3741
3741 3760 3761 3742
3742 3761 3762 3743
3743 3762 3763 3744
3744 3763 3764 3745
3745 3764 3765 3746
3746 3765 3766 3747
3747 3766 3767 3748
3748 3767 3768 3749
3749 3768 331 330
116 117 3769 3750
3750 3769 3770 3751
3751 3770 3771 3752
3752 3771 3772 3753
3753 3772 3773 3754
3754 3773 3774 3755
3755 3774 3775 3756
3756 3775 3776 3757
3757 3776 3777 3758
3758 3777 3778 3759
3759 3778 3779 3760
3760 3779 3780 3761
3761 3780 3781 3762
3762 3781 3782 3763
3763 3782 3783 3764
3764 3783 3784 3765
3765 3784 3785 3766
3766 3785 3786 3767
3767 3786 3787 3768
3768 3787 332 331
117 118 3788 3769
3769 3788 3789 3770
3770 3789 3790 3771
3771 3790 3791 3772
3772 3791 3792 3773
3773 3792 3793 3774
3774 3793 3794 3775
3775 3794 3795 3776
3776 3795 3796 3777
3777 3796 3797 3778
3778 3797 3798 3779
3779 3798 3799 3780
3780 3799 3800 3781
3781 3800 3801 3782
3782 3801 3802 3783
3783 3802 3803 3784
3784 3803 3804 3785
3785 3804 3805 3786
3786 3805 3806 3787
3787 3806 333 332
118 119 3807 3788
3788 3807 3808 3789
3789 3808 3809 3790
3790 3809 3810 3791
3791 3810 3811 3792
3792 3811 3812 3793
3793 3812 3813 3794
3794 3813 3814 3795
3795 3814 3815 3796
3796 3815 3816 3797
3797 3816 3817 3798
3798 3817 3818 3799
3799 3818 3819 3800
3800 3819 3820 3801
3801 3820 3821 3802
3802 3821 3822 3803
3803 3822 3823 3804
3804 3823 3824 3805
3805 3824 3825 3806
3806 3825 334 333
119 120 3826 3807
3807 3826 3827 3808
3808 3827 3828 3809
3809 3828 3829 3810
3810 3829 3830 3811
3811 3830 3831 3812
3812 3831 3832 3813
3813 3832 3833 3814
3814 3833 3834 3815
3815 3834 3835 3816
3816 3835 3836 3817
3817 3836 3837 3818
3818 3837 3838 3819
3819 3838 3839 3820
3820 3839 3840 3821
3821 3840 3841 3822
3822 3841 3842 3823
3823 3842 3843 3824
3824 3843 3844 3825
3825 3844 335 334
120 121 3845 3826
3826 3845 3846 3827
3827 3846 3847 3828
3828 3847 3848 3829
3829 3848 3849 3830
3830 3849 3850 3831
3831 3850 3851 3832
3832 3851 3852 3833
3833 3852 3853 3834
3834 3853 3854 3835
3835 3854 3855 3836
3836 3855 3856 3837
3837 3856 3857 3838
3838 3857 3858 3839
3839 3858 3859 3840
3840 3859 3860 3841
3841 3860 3861 3842
3842 3861 3862 3843
3843 3862 3863 3844
3844 3863 336 335
121 122 3864 3845
3845 3864 3865 3846
3846 3865 3866 3847
3847 3866 3867 3848
3848 3867 3868 3849
3849 3868 3869 3850
3850 3869 3870 3851
3851 3870 3871 3852
3852 3871 3872 3853
3853 3872 3873 3854
3854 3873 3874 3855
3855 3874 3875 3856
3856 3875 3876 3857
3857 3876 3877 3858
3858 3877 3878 3859
3859 3878 3879 3860
3860 3879 3880 3861
3861 3880 3881 3862
3862 3881 3882 3863
3863 3882 337 336
122 123 3883 3864
3864 3883 3884 3865
3865 3884 3885 3866
3866 3885 3886 3867
3867 3886 3887 3868
3868 3887 3888 3869
3869 3888 3889 3870
3870 3889 3890 3871
3871 3890 3891 3872
3872 3891 3892 3873
3873 3892 3893 3874
3874 3893 3894 3875
3875 3894 3895 3876
3876 3895 3896 3877
3877 3896 3897 3878
3878 3897 3898 3879
3879 3898 3899 3880
3880 3899 3900 3881
3881 3900 3901 3882
3882 3901 338 337
123 124 3902 3883
3883 3902 3903 3884
3884 3903 3904 3885
3885 3904 3905 3886
3886 3905 3906 3887
3887 3906 3907 3888
3888 3907 3908 3889
3889 3908 3909 3890
3890 3909 3910 3891
3891 3910 3911 3892
3892 3911 3912 3893
3893 3912 3913 3894
3894 3913 3914 3895
3895 3914 3915 3896
3896 3915 3916 3897
3897 3916 3917 3898
3898 3917 3918 3899
3899 3918 3919 3900
3900 3919 3920 3901
3901 3920 339 338
124 125 3921 3902
3902 3921 3922 3903
3903 3922 3923 3904
3904 3923 3924 3905
3905 3924 3925 3906
3906 3925 3926 3907
3907 3926 3927 3908
3908 3927 3928 3909
3909 3928 3929 3910
3910 3929 3930 3911
3911 3930 3931 3912
3912 3931 3932 3913
3913 3932 3933 3914
3914 3933 3934 3915
3915 3934 3935 3916
3916 3935 3936 3917
3917 3936 3937 3918
3918 3937 3938 3919
3919 3938 3939 3920
3920 3939 340 339
125 126 3940 3921
3921 3940 3941 3922
3922 3941 3942 3923
3923 3942 3943 3924
3924 3943 3944 3925
3925 3944 3945 3926
3926 3945 3946 3927
3927 3946 3947 3928
3928 3947 3948 3929
3929 3948 3949 3930
3930 3949 3950 3931
3931 3950 3951 3932
3932 3951 3952 3933
3933 3952 3953 3934
3934 3953 3954 3935
3935 3954 3955 3936
3936 3955 3956 3937
3937 3956 3957 3938
3938 3957 3958 3939
3939 3958 341 340
126 127 3959 3940
3940 3959 3960 3941
3941 3960 3961 3942
3942 3961 3962 3943
3943 3962 3963 3944
3944 3963 3964 3945
3945 3964 3965 3946
3946 3965 3966 3947
3947 3966 3967 3948
3948 3967 3968 3949
3949 3968 3969 3950
3950 3969 3970 3951
3951 3970 3971 3952
3952 3971 3972 3953
3953 3972 3973 3954
3954 3973 3974 3955
3955 3974 3975 3956
3956 3975 3976 3957
3957 3976 3977 3958
3958 3977 342 341
127 128 3978 3959
3959 3978 3979 3960
3960 3979 3980 3961
3961 3980 3981 3962
3962 3981 3982 3963
3963 3982 3983 3964
3964 3983 3984 3965
3965 3984 3985 3966
3966 3985 3986 3967
3967 3986 3987 3968
3968 3987 3988 3969
3969 3988 3989 3970
3970 3989 3990 3971
3971 3990 3991 3972
3972 3991 3992 3973
3973 3992 3993 3974
3974 3993 3994 3975
3975 3994 3995 3976
3976 3995 3996 3977
3977 3996 343 342
128 129 3997 3978
3978 3997 3998 3979
3979 3998 3999 3980
3980 3999 4000 3981
3981 4000 4001 3982
3982 4001 4002 3983
3983 4002 4003 3984
3984 4003 4004 3985
3985 4004 4005 3986
3986 4005 4006 3987
3987 4006 4007 3988
3988 4007 4008 3989
3989 4008 4009 3990
3990 4009 4010 3991
3991 4010 4011 3992
3992 4011 4012 3993
3993 4012 4013 3994
3994 4013 4014 3995
3995 4014 4015 3996
3996 4015 344 343
129 130 4016 3997
3997 4016 4017 3998
3998 4017 4018 3999
3999 4018 4019 4000
4000 4019 4020 4001
4001 4020 4021 4002
4002 4021 4022 4003
4003 4022 4023 4004
4004 4023 4024 4005
4005 4024 4025 4006
4006 4025 4026 4007
4007 4026 4027 4008
4008 4027 4028 4009
4009 4028 4029 4010
4010 4029 4030 4011
4011 4030 4031 4012
4012 4031 4032 4013
4013 4032 4033 4014
4014 4033 4034 4015
4015 4034 345 344
130 131 4035 4016
4016 4035 4036 4017
4017 4036 4037 4018
4018 4037 4038 4019
4019 4038 4039 4020
4020 4039 4040 4021
4021 4040 4041 4022
4022 4041 4042 4023
4023 4042 4043 4024
4024 4043 4044 4025
4025 4044 4045 4026
4026 4045 4046 4027
4027 4046 4047 4028
4028 4047 4048 4029
4029 4048 4049 4030
4030 4049 4050 4031
4031 4050 4051 4032
4032 4051 4052 4033
4033 4052 4053 4034
4034 4053 346 345
131 132 4054 4035
4035 4054 4055 4036
4036 4055 4056 4037
4037 4056 4057 4038
4038 4057 4058 4039
4039 4058 4059 4040
4040 4059 4060 4041
4041 4060 4061 4042
4042 4061 4062 4043
4043 4062 4063 4044
4044 4063 4064 4045
4045 4064 4065 4046
4046 4065 4066 4047
4047 4066 4067 4048
4048 4067 4068 4049
4049 4068 4069 4050
4050 4069 4070 4051
4051 4070 4071 4052
4052 4071 4072 4053
4053 4072 347 346
132 133 4073 4054
4054 4073 4074 4055
4055 4074 4075 4056
4056 4075 4076 4057
4057 4076 4077 4058
4058 4077 4078 4059
4059 4078 4079 4060
4060 4079 4080 4061
4061 4080 4081 4062
4062 4081 4082 4063
4063 4082 4083 4064
4064 4083 4084 4065
4065 4084 4085 4066
4066 4085 4086 4067
4067 4086 4087 4068
4068 4087 4088 4069
4069 4088 4089 4070
4070 4089 4090 4071
4071 4090 4091 4072
4072 4091 348 347
133 134 4092 4073
4073 4092 4093 4074
4074 4093 4094 4075
4075 4094 4095 4076
4076 4095 4096 4077
4077 4096 4097 4078
4078 4097 4098 4079
4079 4098 4099 4080
4080 4099 4100 4081
4081 4100 4101 4082
4082 4101 4102 4083
4083 4102 4103 4084
4084 4103 4104 4085
4085 4104 4105 4086
4086 4105 4106 4087
4087 4106 4107 4088
4088 4107 4108 4089
4089 4108 4109 4090
4090 4109 4110 4091
4091 4110 349 348
134 135 4111 4092
4092 4111 4112 4093
4093 4112 4113 4094
4094 4113 4114 4095
4095 4114 4115 4096
4096 4115 4116 4097
4097 4116 4117 4098
4098 4117 4118 4099
4099 4118 4119 4100
4100 4119 4120 4101
4101 4120 4121 4102
4102 4121 4122 4103
4103 4122 4123 4104
4104 4123 4124 4105
4105 4124 4125 4106
4106 4125 4126 4107
4107 4126 4127 4108
4108 4127 4128 4109
4109 4128 4129 4110
4110 4129 350 349
135 136 4130 4111
4111 4130 4131 4112
4112 4131 4132 4113
4113 4132 4133 4114
4114 4133 4134 4115
4115 4134 4135 4116
4116 4135 4136 4117
4117 4136 4137 4118
4118 4137 4138 4119
4119 4138 4139 4120
4120 4139 4140 4121
4121 4140 4141 4122
4122 4141 4142 4123
4123 4142 4143 4124
4124 4143 4144 4125
4125 4144 4145 4126
4126 4145 4146 4127
4127 4146 4147 4128
4128 4147 4148 4129
4129 4148 351 350
136 137 4149 4130
4130 4149 4150 4131
4131 4150 4151 4132
4132 4151 4152 4133
4133 4152 4153 4134
4134 4153 4154 4135
4135 4154 4155 4136
4136 4155 4156 4137
4137 4156 4157 4138
4138 4157 4158 4139
4139 4158 4159 4140
4140 4159 4160 4141
4141 4160 4161 4142
4142 4161 4162 4143
4143 4162 4163 4144
4144 4163 4164 4145
4145 4164 4165 4146
4146 4165 4166 4147
4147 4166 4167 4148
4148 4167 352 351
137 138 4168 4149
4149 4168 4169 4150
4150 4169 4170 4151
4151 4170 4171 4152
4152 4171 4172 4153
4153 4172 4173 4154
4154 4173 4174 4155
4155 4174 4175 4156
4156 4175 4176 4157
4157 4176 4177 4158
4158 4177 4178 4159
4159 4178 4179 4160
4160 4179 4180 4161
4161 4180 4181 4162
4162 4181 4182 4163
4163 4182 4183 4164
4164 4183 4184 4165
4165 4184 4185 4166
4166 4185 4186 4167
4167 4186 353 352
138 139 4187 4168
4168 4187 4188 4169
4169 4188 4189 4170
4170 4189 4190 4171
4171 4190 4191 4172
4172 4191 4192 4173
4173 4192 4193 4174
4174 4193 4194 4175
4175 4194 4195 4176
4176 4195 4196 4177
4177 4196 4197 4178
4178 4197 4198 4179
4179 4198 4199 4180
4180 4199 4200 4181
4181 4200 4201 4182
4182 4201 4202 4183
4183 4202 4203 4184
4184 4203 4204 4185
4185 4204 4205 4186
4186 4205 354 353
139 140 4206 4187
4187 4206 4207 4188
4188 4207 4208 4189
4189 4208 4209 4190
4190 4209 4210 4191
4191 4210 4211 4192
4192 4211 4212 4193
4193 4212 4213 4194
4194 4213 4214 4195
4195 4214 4215 4196
4196 4215 4216 4197
4197 4216 4217 4198
4198 4217 4218 4199
4199 4218 4219 4200
4200 4219 4220 4201
4201 4220 4221 4202
4202 4221 4222 4203
4203 4222 4223 4204
4204 4223 4224 4205
4205 4224 355 354
140 141 4225 4206
4206 4225 4226 4207
4207 4226 4227 4208
4208 4227 4228 4209
4209 4228 4229 4210
4210 4229 4230 4211
4211 4230 4231 4212
4212 4231 4232 4213
4213 4232 4233 4214
4214 4233 4234 4215
4215 4234 4235 4216
4216 4235 4236 4217
4217 4236 4237 4218
4218 4237 4238 4219
4219 4238 4239 4220
4220 4239 4240 4221
4221 4240 4241 4222
4222 4241 4242 4223
4223 4242 4243 4224
4224 4243 356 355
141 142 4244 4225
4225 4244 4245 4226
4226 4245 4246 4227
4227 4246 4247 4228
4228 4247 4248 4229
4229 4248 4249 4230
4230 4249 4250 4231
4231 4250 4251 4232
4232 4251 4252 4233
4233 4252 4253 4234
4234 4253 4254 4235
4235 4254 4255 4236
4236 4255 4256 4237
4237 4256 4257 4238
4238 4257 4258 4239
4239 4258 4259 4240
4240 4259 4260 4241
4241 4260 4261 4242
4242 4261 4262 4243
4243 4262 357 356
142 143 4263 4244
4244 4263 4264 4245
4245 4264 4265 4246
4246 4265 4266 4247
4247 4266 4267 4248
4248 4267 4268 4249
4249 4268 4269 4250
4250 4269 4270 4251
4251 4270 4271 4252
4252 4271 4272 4253
4253 4272 4273 4254
4254 4273 4274 4255
4255 4274 4275 4256
4256 4275 4276 4257
4257 4276 4277 4258
4258 4277 4278 4259
4259 4278 4279 4260
4260 4279 4280 4261
4261 4280 4281 4262
4262 4281 358 357
143 144 4282 4263
4263 4282 4283 4264
4264 4283 4284 4265
4265 4284 4285 4266
4266 4285 4286 4267
4267 4286 4287 4268
4268 4287 4288 4269
4269 4288 4289 4270
4270 4289 4290 4271
4271 4290 4291 4272
4272 4291 4292 4273
4273 4292 4293 4274
4274 4293 4294 4275
4275 4294 4295 4276
4276 4295 4296 4277
4277 4296 4297 4278
4278 4297 4298 4279
4279 4298 4299 4280
4280 4299 4300 4281
4281 4300 359 358
144 145 4301 4282
4282 4301 4302 4283
4283 4302 4303 4284
4284 4303 4304 4285
4285 4304 4305 4286
4286 4305 4306 4287
4287 4306 4307 4288
4288 4307 4308 4289
4289 4308 4309 4290
4290 4309 4310 4291
4291 4310 4311 4292
4292 4311 4312 4293
4293 4312 4313 4294
4294 4313 4314 4295
4295 4314 4315 4296
4296 4315 4316 4297
4297 4316 4317 4298
4298 4317 4318 4299
4299 4318 4319 4300
4300 4319 360 359
145 146 4320 4301
4301 4320 4321 4302
4302 4321 4322 4303
4303 4322 4323 4304
4304 4323 4324 4305
4305 4324 4325 4306
4306 4325 4326 4307
4307 4326 4327 4308
4308 4327 4328 4309
4309 4328 4329 4310
4310 4329 4330 4311
4311 4330 4331 4312
4312 4331 4332 4313
4313 4332 4333 4314
4314 4333 4334 4315
4315 4334 4335 4316
4316 4335 4336 4317
4317 4336 4337 4318
4318 4337 4338 4319
4319 4338 361 360
146 5 399 4320
4320 399 398 4321
4321 398 397 4322
4322 397 396 4323
4323 396 395 4324
4324 395 394 4325
4325 394 393 4326
4326 393 392 4327
4327 392 391 4328
4328 391 390 4329
4329 390 389 4330
4330 389 388 4331
4331 388 387 4332
4332 387 386 4333
4333 386 385 4334
4334 385 384 4335
4335 384 383 4336
4336 383 382 4337
4337 382 381 4338
4338 381 10 361
3 89 4339 166
166 4339 4340 167
167 4340 4341 168
168 4341 4342 169
169 4342 4343 170
170 4343 4344 171
171 4344 4345 172
172 4345 4346 173
173 4346 4347 174
174 4347 4348 175
175 4348 4349 176
176 4349 4350 177
177 4350 4351 178
178 4351 4352 179
179 4352 4353 180
180 4353 4354 181
181 4354 4355 182
182 4355 4356 183
183 4356 4357 184
184 4357 418 7
89 90 4358 4339
4339 4358 4359 4340
4340 4359 4360 4341
4341 4360 4361 4342
4342 4361 4362 4343
4343 4362 4363 4344
4344 4363 4364 4345
4345 4364 4365 4346
4346 4365 4366 4347
4347 4366 4367 4348
4348 4367 4368 4349
4349 4368 4369 4350
4350 4369 4370 4351
4351 4370 4371 4352
4352 4371 4372 4353
4353 4372 4373 4354
4354 4373 4374 4355
4355 4374 4375 4356
4356 4375 4376 4357
4357 4376 417 418
90 91 4377 4358
4358 4377 4378 4359
4359 4378 4379 4360
4360 4379 4380 4361
4361 4380 4381 4362
4362 4381 4382 4363
4363 4382 4383 4364
4364 4383 4384 4365
4365 4384 4385 4366
4366 4385 4386 4367
4367 4386 4387 4368
4368 4387 4388 4369
4369 4388 4389 4370
4370 4389 4390 4371
4371 4390 4391 4372
4372 4391 4392 4373
4373 4392 4393 4374
4374 4393 4394 4375
4375 4394 4395 4376
4376 4395 416 417
91 92 4396 4377
4377 4396 4397 4378
4378 4397 4398 4379
4379 4398 4399 4380
4380 4399 4400 4381
4381 4400 4401 4382
4382 4401 4402 4383
4383 4402 4403 4384
4384 4403 4404 4385
4385 4404 4405 4386
4386 4405 4406 4387
4387 4406 4407 4388
4388 4407 4408 4389
4389 4408 4409 4390
4390 4409 4410 4391
4391 4410 4411 4392
4392 4411 4412 4393
4393 4412 4413 4394
4394 4413 4414 4395
4395 4414 415 416
92 93 4415 4396
4396 4415 4416 4397
4397 4416 4417 4398
4398 4417 4418 4399
4399 4418 4419 4400
4400 4419 4420 4401
4401 4420 4421 4402
4402 4421 4422 4403
4403 4422 4423 4404
4404 4423 4424 4405
4405 4424 4425 4406
4406 4425 4426 4407
4407 4426 4427 4408
4408 4427 4428 4409
4409 4428 4429 4410
4410 4429 4430 4411
4411 4430 4431 4412
4412 4431 4432 4413
4413 4432 4433 4414
4414 4433 414 415
93 94 4434 4415
4415 4434 4435 4416
4416 4435 4436 4417
4417 4436 4437 4418
4418 4437 4438 4419
4419 4438 4439 4420
4420 4439 4440 4421
4421 4440 4441 4422
4422 4441 4442 4423
4423 4442 4443 4424
4424 4443 4444 4425
4425 4444 4445 4426
4426 4445 4446 4427
4427 4446 4447 4428
4428 4447 4448 4429
4429 4448 4449 4430
4430 4449 4450 4431
4431 4450 4451 4432
4432 4451 4452 4433
4433 4452 413 414
94 95 4453 4434
4434 4453 4454 4435
4435 4454 4455 4436
4436 4455 4456 4437
4437 4456 4457 4438
4438 4457 4458 4439
4439 4458 4459 4440
4440 4459 4460 4441
4441 4460 4461 4442
4442 4461 4462 4443
4443 4462 4463 4444
4444 4463 4464 4445
4445 4464 4465 4446
4446 4465 4466 4447
4447 4466 4467 4448
4448 4467 4468 4449
4449 4468 4469 4450
4450 4469 4470 4451
4451 4470 4471 4452
4452 4471 412 413
95 96 4472 4453
4453 4472 4473 4454
4454 4473 4474 4455
4455 4474 4475 4456
4456 4475 4476 4457
4457 4476 4477 4458
4458 4477 4478 4459
4459 4478 4479 4460
4460 4479 4480 4461
4461 4480 4481 4462
4462 4481 4482 4463
4463 4482 4483 4464
4464 4483 4484 4465
4465 4484 4485 4466
4466 4485 4486 4467
4467 4486 4487 4468
4468 4487 4488 4469
4469 4488 4489 4470
4470 4489 4490 4471
4471 4490 411 412
96 97 4491 4472
4472 4491 4492 4473
4473 4492 4493 4474
4474 4493 4494 4475
4475 4494 4495 4476
4476 4495 4496 4477
4477 4496 4497 4478
4478 4497 4498 4479
4479 4498 4499 4480
4480 4499 4500 4481
4481 4500 4501 4482
4482 4501 4502 4483
4483 4502 4503 4484
4484 4503 4504 4485
4485 4504 4505 4486
4486 4505 4506 4487
4487 4506 4507 4488
4488 4507 4508 4489
4489 4508 4509 4490
4490 4509 410 411
97 98 4510 4491
4491 4510 4511 4492
4492 4511 4512 4493
4493 4512 4513 4494
4494 4513 4514 4495
4495 4514 4515 4496
4496 4515 4516 4497
4497 4516 4517 4498
4498 4517 4518 4499
4499 4518 4519 4500
4500 4519 4520 4501
4501 4520 4521 4502
4502 4521 4522 4503
4503 4522 4523 4504
4504 4523 4524 4505
4505 4524 4525 4506
4506 4525 4526 4507
4507 4526 4527 4508
4508 4527 4528 4509
4509 4528 409 410
98 99 4529 4510
4510 4529 4530 4511
4511 4530 4531 4512
4512 4531 4532 4513
4513 4532 4533 4514
4514 4533 4534 4515
4515 4534 4535 4516
4516 4535 4536 4517
4517 4536 4537 4518
4518 4537 4538 4519
4519 4538 4539 4520
4520 4539 4540 4521
4521 4540 4541 4522
4522 4541 4542 4523
4523 4542 4543 4524
4524 4543 4544 4525
4525 4544 4545 4526
4526 4545 4546 4527
4527 4546 4547 4528
4528 4547 408 409
99 100 4548 4529
4529 4548 4549 4530
4530 4549 4550 4531
4531 4550 4551 4532
4532 4551 4552 4533
4533 4552 4553 4534
4534 4553 4554 4535
4535 4554 4555 4536
4536 4555 4556 4537
4537 4556 4557 4538
4538 4557 4558 4539
4539 4558 4559 4540
4540 4559 4560 4541
4541 4560 4561 4542
4542 4561 4562 4543
4543 4562 4563 4544
4544 4563 4564 4545
4545 4564 4565 4546
4546 4565 4566 4547
4547 4566 407 408
100 101 4567 4548
4548 4567 4568 4549
4549 4568 4569 4550
4550 4569 4570 4551
4551 4570 4571 4552
4552 4571 4572 4553
4553 4572 4573 4554
4554 4573 4574 4555
4555 4574 4575 4556
4556 4575 4576 4557
4557 4576 4577 4558
4558 4577 4578 4559
4559 4578 4579 4560
4560 4579 4580 4561
4561 4580 4581 4562
4562 4581 4582 4563
4563 4582 4583 4564
4564 4583 4584 4565
4565 4584 4585 4566
4566 4585 406 407
101 102 4586 4567
4567 4586 4587 4568
4568 4587 4588 4569
4569 4588 4589 4570
4570 4589 4590 4571
4571 4590 4591 4572
4572 4591 4592 4573
4573 4592 4593 4574
4574 4593 4594 4575
4575 4594 4595 4576
4576 4595 4596 4577
4577 4596 4597 4578
4578 4597 4598 4579
4579 4598 4599 4580
4580 4599 4600 4581
4581 4600 4601 4582
4582 4601 4602 4583
4583 4602 4603 4584
4584 4603 4604 4585
4585 4604 405 406
102 103 4605 4586
4586 4605 4606 4587
4587 4606 4607 4588
4588 4607 4608 4589
4589 4608 4609 4590
4590 4609 4610 4591
4591 4610 4611 4592
4592 4611 4612 4593
4593 4612 4613 4594
4594 4613 4614 4595
4595 4614 4615 4596
4596 4615 4616 4597
4597 4616 4617 4598
4598 4617 4618 4599
4599 4618 4619 4600
4600 4619 4620 4601
4601 4620 4621 4602
4602 4621 4622 4603
4603 4622 4623 4604
4604 4623 404 405
103 104 4624 4605
4605 4624 4625 4606
4606 4625 4626 4607
4607 4626 4627 4608
4608 4627 4628 4609
4609 4628 4629 4610
4610 4629 4630 4611
4611 4630 4631 4612
4612 4631 4632 4613
4613 4632 4633 4614
4614 4633 4634 4615
4615 4634 4635 4616
4616 4635 4636 4617
4617 4636 4637 4618
4618 4637 4638 4619
4619 4638 4639 4620
4620 4639 4640 4621
4621 4640 4641 4622
4622 4641 4642 4623
4623 4642 403 404
104 105 4643 4624
4624 4643 4644 4625
4625 4644 4645 4626
4626 4645 4646 4627
4627 4646 4647 4628
4628 4647 4648 4629
4629 4648 4649 4630
4630 4649 4650 4631
4631 4650 4651 4632
4632 4651 4652 4633
4633 4652 4653 4634
4634 4653 4654 4635
4635 4654 4655 4636
4636 4655 4656 4637
4637 4656 4657 4638
4638 4657 4658 4639
4639 4658 4659 4640
4640 4659 4660 4641
4641 4660 4661 4642
4642 4661 402 403
105 106 4662 4643
4643 4662 4663 4644
4644 4663 4664 4645
4645 4664 4665 4646
4646 4665 4666 4647
4647 4666 4667 4648
4648 4667 4668 4649
4649 4668 4669 4650
4650 4669 4670 4651
4651 4670 4671 4652
4652 4671 4672 4653
4653 4672 4673 4654
4654 4673 4674 4655
4655 4674 4675 4656
4656 4675 4676 4657
4657 4676 4677 4658
4658 4677 4678 4659
4659 4678 4679 4660
4660 4679 4680 4661
4661 4680 401 402
106 107 4681 4662
4662 4681 4682 4663
4663 4682 4683 4664
4664 4683 4684 4665
4665 4684 4685 4666
4666 4685 4686 4667
4667 4686 4687 4668
4668 4687 4688 4669
4669 4688 4689 4670
4670 4689 4690 4671
4671 4690 4691 4672
4672 4691 4692 4673
4673 4692 4693 4674
4674 4693 4694 4675
4675 4694 4695 4676
4676 4695 4696 4677
4677 4696 4697 4678
4678 4697 4698 4679
4679 4698 4699 4680
4680 4699 400 401
107 4 380 4681
4681 380 379 4682
4682 379 378 4683
4683 378 377 4684
4684 377 376 4685
4685 376 375 4686
4686 375 374 4687
4687 374 373 4688
4688 373 372 4689
4689 372 371 4690
4690 371 370 4691
4691 370 369 4692
4692 369 368 4693
4693 368 367 4694
4694 367 366 4695
4695 366 365 4696
4696 365 364 4697
4697 364 363 4698
4698 363 362 4699
4699 362 9 400
5 147 4700 399
399 4700 4701 398
398 4701 4702 397
397 4702 4703 396
396 4703 4704 395
395 4704 4705 394
394 4705 4706 393
393 4706 4707 392
392 4707 4708 391
391 4708 4709 390
390 4709 4710 389
389 4710 4711 388
388 4711 4712 387
387 4712 4713 386
386 4713 4714 385
385 4714 4715 384
384 4715 4716 383
383 4716 4717 382
382 4717 4718 381
381 4718 419 10
147 148 4719 4700
4700 4719 4720 4701
4701 4720 4721 4702
4702 4721 4722 4703
4703 4722 4723 4704
4704 4723 4724 4705
4705 4724 4725 4706
4706 4725 4726 4707
4707 4726 4727 4708
4708 4727 4728 4709
4709 4728 4729 4710
4710 4729 4730 4711
4711 4730 4731 4712
4712 4731 4732 4713
4713 4732 4733 4714
4714 4733 4734 4715
4715 4734 4735 4716
4716 4735 4736 4717
4717 4736 4737 4718
4718 4737 420 419
148 149 4738 4719
4719 4738 4739 4720
4720 4739 4740 4721
4721 4740 4741 4722
4722 4741 4742 4723
4723 4742 4743 4724
4724 4743 4744 4725
4725 4744 4745 4726
4726 4745 4746 4727
4727 4746 4747 4728
4728 4747 4748 4729
4729 4748 4749 4730
4730 4749 4750 4731
4731 4750 4751 4732
4732 4751 4752 4733
4733 4752 4753 4734
4734 4753 4754 4735
4735 4754 4755 4736
4736 4755 4756 4737
4737 4756 421 420
149 150 4757 4738
4738 4757 4758 4739
4739 4758 4759 4740
4740 4759 4760 4741
4741 4760 4761 4742
4742 4761 4762 4743
4743 4762 4763 4744
4744 4763 4764 4745
4745 4764 4765 4746
4746 4765 4766 4747
4747 4766 4767 4748
4748 4767 4768 4749
4749 4768 4769 4750
4750 4769 4770 4751
4751 4770 4771 4752
4752 4771 4772 4753
4753 4772 4773 4754
4754 4773 4774 4755
4755 4774 4775 4756
4756 4775 422 421
150 151 4776 4757
4757 4776 4777 4758
4758 4777 4778 4759
4759 4778 4779 4760
4760 4779 4780 4761
4761 4780 4781 4762
4762 4781 4782 4763
4763 4782 4783 4764
4764 4783 4784 4765
4765 4784 4785 4766
4766 4785 4786 4767
4767 4786 4787 4768
4768 4787 4788 4769
4769 4788 4789 4770
4770 4789 4790 4771
4771 4790 4791 4772
4772 4791 4792 4773
4773 4792 4793 4774
4774 4793 4794 4775
4775 4794 423 422
151 152 4795 4776
4776 4795 4796 4777
4777 4796 4797 4778
4778 4797 4798 4779
4779 4798 4799 4780
4780 4799 4800 4781
4781 4800 4801 4782
4782 4801 4802 4783
4783 4802 4803 4784
4784 4803 4804 4785
4785 4804 4805 4786
4786 4805 4806 4787
4787 4806 4807 4788
4788 4807 4808 4789
4789 4808 4809 4790
4790 4809 4810 4791
4791 4810 4811 4792
4792 4811 4812 4793
4793 4812 4813 4794
4794 4813 424 423
152 153 4814 4795
4795 4814 4815 4796
4796 4815 4816 4797
4797 4816 4817 4798
4798 4817 4818 4799
4799 4818 4819 4800
4800 4819 4820 4801
4801 4820 4821 4802
4802 4821 4822 4803
4803 4822 4823 4804
4804 4823 4824 4805
4805 4824 4825 4806
4806 4825 4826 4807
4807 4826 4827 4808
4808 4827 4828 4809
4809 4828 4829 4810
4810 4829 4830 4811
4811 4830 4831 4812
4812 4831 4832 4813
4813 4832 425 424
153 154 4833 4814
4814 4833 4834 4815
4815 4834 4835 4816
4816 4835 4836 4817
4817 4836 4837 4818
4818 4837 4838 4819
4819 4838 4839 4820
4820 4839 4840 4821
4821 4840 4841 4822
4822 4841 4842 4823
4823 4842 4843 4824
4824 4843 4844 4825
4825 4844 4845 4826
4826 4845 4846 4827
4827 4846 4847 4828
4828 4847 4848 4829
4829 4848 4849 4830
4830 4849 4850 4831
4831 4850 4851 4832
4832 4851 426 425
154 155 4852 4833
4833 4852 4853 4834
4834 4853 4854 4835
4835 4854 4855 4836
4836 4855 4856 4837
4837 4856 4857 4838
4838 4857 4858 4839
4839 4858 4859 4840
4840 4859 4860 4841
4841 4860 4861 4842
4842 4861 4862 4843
4843 4862 4863 4844
4844 4863 4864 4845
4845 4864 4865 4846
4846 4865 4866 4847
4847 4866 4867 4848
4848 4867 4868 4849
4849 4868 4869 4850
4850 4869 4870 4851
4851 4870 427 426
155 156 4871 4852
4852 4871 4872 4853
4853 4872 4873 4854
4854 4873 4874 4855
4855 4874 4875 4856
4856 4875 4876 4857
4857 4876 4877 4858
4858 4877 4878 4859
4859 4878 4879 4860
4860 4879 4880 4861
4861 4880 4881 4862
4862 4881 4882 4863
4863 4882 4883 4864
4864 4883 4884 4865
4865 4884 4885 4866
4866 4885 4886 4867
4867 4886 4887 4868
4868 4887 4888 4869
4869 4888 4889 4870
4870 4889 428 427
156 157 4890 4871
4871 4890 4891 4872
4872 4891 4892 4873
4873 4892 4893 4874
4874 4893 4894 4875
4875 4894 4895 4876
4876 4895 4896 4877
4877 4896 4897 4878
4878 4897 4898 4879
4879 4898 4899 4880
4880 4899 4900 4881
4881 4900 4901 4882
4882 4901 4902 4883
4883 4902 4903 4884
4884 4903 4904 4885
4885 4904 4905 4886
4886 4905 4906 4887
4887 4906 4907 4888
4888 4907 4908 4889
4889 4908 429 428
157 158 4909 4890
4890 4909 4910 4891
4891 4910 4911 4892
4892 4911 4912 4893
4893 4912 4913 4894
4894 4913 4914 4895
4895 4914 4915 4896
4896 4915 4916 4897
4897 4916 4917 4898
4898 4917 4918 4899
4899 4918 4919 4900
4900 4919 4920 4901
4901 4920 4921 4902
4902 4921 4922 4903
4903 4922 4923 4904
4904 4923 4924 4905
4905 4924 4925 4906
4906 4925 4926 4907
4907 4926 4927 4908
4908 4927 430 429
158 159 4928 4909
4909 4928 4929 4910
4910 4929 4930 4911
4911 4930 4931 4912
4912 4931 4932 4913
4913 4932 4933 4914
4914 4933 4934 4915
4915 4934 4935 4916
4916 4935 4936 4917
4917 4936 4937 4918
4918 4937 4938 4919
4919 4938 4939 4920
4920 4939 4940 4921
4921 4940 4941 4922
4922 4941 4942 4923
4923 4942 4943 4924
4924 4943 4944 4925
4925 4944 4945 4926
4926 4945 4946 4927
4927 4946 431 430
159 160 4947 4928
4928 4947 4948 4929
4929 4948 4949 4930
4930 4949 4950 4931
4931 4950 4951 4932
4932 4951 4952 4933
4933 4952 4953 4934
4934 4953 4954 4935
4935 4954 4955 4936
4936 4955 4956 4937
4937 4956 4957 4938
4938 4957 4958 4939
4939 4958 4959 4940
4940 4959 4960 4941
4941 4960 4961 4942
4942 4961 4962 4943
4943 4962 4963 4944
4944 4963 4964 4945
4945 4964 4965 4946
4946 4965 432 431
160 161 4966 4947
4947 4966 4967 4948
4948 4967 4968 4949
4949 4968 4969 4950
4950 4969 4970 4951
4951 4970 4971 4952
4952 4971 4972 4953
4953 4972 4973 4954
4954 4973 4974 4955
4955 4974 4975 4956
4956 4975 4976 4957
4957 4976 4977 4958
4958 4977 4978 4959
4959 4978 4979 4960
4960 4979 4980 4961
4961 4980 4981 4962
4962 4981 4982 4963
4963 4982 4983 4964
4964 4983 4984 4965
4965 4984 433 432
161 162 4985 4966
4966 4985 4986 4967
4967 4986 4987 4968
4968 4987 4988 4969
4969 4988 4989 4970
4970 4989 4990 4971
4971 4990 4991 4972
4972 4991 4992 4973
4973 4992 4993 4974
4974 4993 4994 4975
4975 4994 4995 4976
4976 4995 4996 4977
4977 4996 4997 4978
4978 4997 4998 4979
4979 4998 4999 4980
4980 4999 5000 4981
4981 5000 5001 4982
4982 5001 5002 4983
4983 5002 5003 4984
4984 5003 434 433
162 163 5004 4985
4985 5004 5005 4986
4986 5005 5006 4987
4987 5006 5007 4988
4988 5007 5008 4989
4989 5008 5009 4990
4990 5009 5010 4991
4991 5010 5011 4992
4992 5011 5012 4993
4993 5012 5013 4994
4994 5013 5014 4995
4995 5014 5015 4996
4996 5015 5016 4997
4997 5016 5017 4998
4998 5017 5018 4999
4999 5018 5019 5000
5000 5019 5020 5001
5001 5020 5021 5002
5002 5021 5022 5003
5003 5022 435 434
163 164 5023 5004
5004 5023 5024 5005
5005 5024 5025 5006
5006 5025 5026 5007
5007 5026 5027 5008
5008 5027 5028 5009
5009 5028 5029 5010
5010 5029 5030 5011
5011 5030 5031 5012
5012 5031 5032 5013
5013 5032 5033 5014
5014 5033 5034 5015
5015 5034 5035 5016
5016 5035 5036 5017
5017 5036 5037 5018
5018 5037 5038 5019
5019 5038 5039 5020
5020 5039 5040 5021
5021 5040 5041 5022
5022 5041 436 435
164 165 5042 5023
5023 5042 5043 5024
5024 5043 5044 5025
5025 5044 5045 5026
5026 5045 5046 5027
5027 5046 5047 5028
5028 5047 5048 5029
5029 5048 5049 5030
5030 5049 5050 5031
5031 5050 5051 5032
5032 5051 5052 5033
5033 5052 5053 5034
5034 5053 5054 5035
5035 5054 5055 5036
5036 5055 5056 5037
5037 5056 5057 5038
5038 5057 5058 5039
5039 5058 5059 5040
5040 5059 5060 5041
5041 5060 437 436
165 6 242 5042
5042 242 241 5043
5043 241 240 5044
5044 240 239 5045
5045 239 238 5046
5046 238 237 5047
5047 237 236 5048
5048 236 235 5049
5049 235 234 5050
5050 234 233 5051
5051 233 232 5052
5052 232 231 5053
5053 231 230 5054
5054 230 229 5055
5055 229 228 5056
5056 228 227 5057
5057 227 226 5058
5058 226 225 5059
5059 225 224 5060
5060 224 8 437
9 323 5061 400
400 5061 5062 401
401 5062 5063 402
402 5063 5064 403
403 5064 5065 404
404 5065 5066 405
405 5066 5067 406
406 5067 5068 407
407 5068 5069 408
408 5069 5070 409
409 5070 5071 410
410 5071 5072 411
411 5072 5073 412
412 5073 5074 413
413 5074 5075 414
414 5075 5076 415
415 5076 5077 416
416 5077 5078 417
417 5078 5079 418
418 5079 185 7
323 324 5080 5061
5061 5080 5081 5062
5062 5081 5082 5063
5063 5082 5083 5064
5064 5083 5084 5065
5065 5084 5085 5066
5066 5085 5086 5067
5067 5086 5087 5068
5068 5087 5088 5069
5069 5088 5089 5070
5070 5089 5090 5071
5071 5090 5091 5072
5072 5091 5092 5073
5073 5092 5093 5074
5074 5093 5094 5075
5075 5094 5095 5076
5076 5095 5096 5077
5077 5096 5097 5078
5078 5097 5098 5079
5079 5098 186 185
324 325 5099 5080
5080 5099 5100 5081
5081 5100 5101 5082
5082 5101 5102 5083
5083 5102 5103 5084
5084 5103 5104 5085
5085 5104 5105 5086
5086 5105 5106 5087
5087 5106 5107 5088
5088 5107 5108 5089
5089 5108 5109 5090
5090 5109 5110 5091
5091 5110 5111 5092
5092 5111 5112 5093
5093 5112 5113 5094
5094 5113 5114 5095
5095 5114 5115 5096
5096 5115 5116 5097
5097 5116 5117 5098
5098 5117 187 186
325 326 5118 5099
5099 5118 5119 5100
5100 5119 5120 5101
5101 5120 5121 5102
5102 5121 5122 5103
5103 5122 5123 5104
5104 5123 5124 5105
5105 5124 5125 5106
5106 5125 5126 5107
5107 5126 5127 5108
5108 5127 5128 5109
5109 5128 5129 5110
5110 5129 5130 5111
5111 5130 5131 5112
5112 5131 5132 5113
5113 5132 5133 5114
5114 5133 5134 5115
5115 5134 5135 5116
5116 5135 5136 5117
5117 5136 188 187
326 327 5137 5118
5118 5137 5138 5119
5119 5138 5139 5120
5120 5139 5140 5121
5121 5140 5141 5122
5122 5141 5142 5123
5123 5142 5143 5124
5124 5143 5144 5125
5125 5144 5145 5126
5126 5145 5146 5127
5127 5146 5147 5128
5128 5147 5148 5129
5129 5148 5149 5130
5130 5149 5150 5131
5131 5150 5151 5132
5132 5151 5152 5133
5133 5152 5153 5134
5134 5153 5154 5135
5135 5154 5155 5136
5136 5155 189 188
327 328 5156 5137
5137 5156 5157 5138
5138 5157 5158 5139
5139 5158 5159 5140
5140 5159 5160 5141
5141 5160 5161 5142
5142 5161 5162 5143
5143 5162 5163 5144
5144 5163 5164 5145
5145 5164 5165 5146
5146 5165 5166 5147
5147 5166 5167 5148
5148 5167 5168 5149
5149 5168 5169 5150
5150 5169 5170 5151
5151 5170 5171 5152
5152 5171 5172 5153
5153 5172 5173 5154
5154 5173 5174 5155
5155 5174 190 189
328 329 5175 5156
5156 5175 5176 5157
5157 5176 5177 5158
5158 5177 5178 5159
5159 5178 5179 5160
5160 5179 5180 5161
5161 5180 5181 5162
5162 5181 5182 5163
5163 5182 5183 5164
5164 5183 5184 5165
5165 5184 5185 5166
5166 5185 5186 5167
5167 5186 5187 5168
5168 5187 5188 5169
5169 5188 5189 5170
5170 5189 5190 5171
5171 5190 5191 5172
5172 5191 5192 5173
5173 5192 5193 5174
5174 5193 191 190
329 330 5194 5175
5175 5194 5195 5176
5176 5195 5196 5177
5177 5196 5197 5178
5178 5197 5198 5179
5179 5198 5199 5180
5180 5199 5200 5181
5181 5200 5201 5182
5182 5201 5202 5183
5183 5202 5203 5184
5184 5203 5204 5185
5185 5204 5205 5186
5186 5205 5206 5187
5187 5206 5207 5188
5188 5207 5208 5189
5189 5208 5209 5190
5190 5209 5210 5191
5191 5210 5211 5192
5192 5211 5212 5193
5193 5212 192 191
330 331 5213 5194
5194 5213 5214 5195
5195 5214 5215 5196
5196 5215 5216 5197
5197 5216 5217 5198
5198 5217 5218 5199
5199 5218 5219 5200
5200 5219 5220 5201
5201 5220 5221 5202
5202 5221 5222 5203
5203 5222 5223 5204
5204 5223 5224 5205
5205 5224 5225 5206
5206 5225 5226 5207
5207 5226 5227 5208
5208 5227 5228 5209
5209 5228 5229 5210
5210 5229 5230 5211
5211 5230 5231 5212
5212 5231 193 192
331 332 5232 5213
5213 5232 5233 5214
5214 5233 5234 5215
5215 5234 5235 5216
5216 5235 5236 5217
5217 5236 5237 5218
5218 5237 5238 5219
5219 5238 5239 5220
5220 5239 5240 5221
5221 5240 5241 5222
5222 5241 5242 5223
5223 5242 5243 5224
5224 5243 5244 5225
5225 5244 5245 5226
5226 5245 5246 5227
5227 5246 5247 5228
5228 5247 5248 5229
5229 5248 5249 5230
5230 5249 5250 5231
5231 5250 194 193
332 333 5251 5232
5232 5251 5252 5233
5233 5252 5253 5234
5234 5253 5254 5235
5235 5254 5255 5236
5236 5255 5256 5237
5237 5256 5257 5238
5238 5257 5258 5239
5239 5258 5259 5240
5240 5259 5260 5241
5241 5260 5261 5242
5242 5261 5262 5243
5243 5262 5263 5244
5244 5263 5264 5245
5245 5264 5265 5246
5246 5265 5266 5247
5247 5266 5267 5248
5248 5267 5268 5249
5249 5268 5269 5250
5250 5269 195 194
333 334 5270 5251
5251 5270 5271 5252
5252 5271 5272 5253
5253 5272 5273 5254
5254 5273 5274 5255
5255 5274 5275 5256
5256 5275 5276 5257
5257 5276 5277 5258
5258 5277 5278 5259
5259 5278 5279 5260
5260 5279 5280 5261
5261 5280 5281 5262
5262 5281 5282 5263
5263 5282 5283 5264
5264 5283 5284 5265
5265 5284 5285 5266
5266 5285 5286 5267
5267 5286 5287 5268
5268 5287 5288 5269
5269 5288 196 195
334 335 5289 5270
5270 5289 5290 5271
5271 5290 5291 5272
5272 5291 5292 5273
5273 5292 5293 5274
5274 5293 5294 5275
5275 5294 5295 5276
5276 5295 5296 5277
5277 5296 5297 5278
5278 5297 5298 5279
5279 5298 5299 5280
5280 5299 5300 5281
5281 5300 5301 5282
5282 5301 5302 5283
5283 5302 5303 5284
5284 5303 5304 5285
5285 5304 5305 5286
5286 5305 5306 5287
5287 5306 5307 5288
5288 5307 197 196
335 336 5308 5289
5289 5308 5309 5290
5290 5309 5310 5291
5291 5310 5311 5292
5292 5311 5312 5293
5293 5312 5313 5294
5294 5313 5314 5295
5295 5314 5315 5296
5296 5315 5316 5297
5297 5316 5317 5298
5298 5317 5318 5299
5299 5318 5319 5300
5300 5319 5320 5301
5301 5320 5321 5302
5302 5321 5322 5303
5303 5322 5323 5304
5304 5323 5324 5305
5305 5324 5325 5306
5306 5325 5326 5307
5307 5326 198 197
336 337 5327 5308
5308 5327 5328 5309
5309 5328 5329 5310
5310 5329 5330 5311
5311 5330 5331 5312
5312 5331 5332 5313
5313 5332 5333 5314
5314 5333 5334 5315
5315 5334 5335 5316
5316 5335 5336 5317
5317 5336 5337 5318
5318 5337 5338 5319
5319 5338 5339 5320
5320 5339 5340 5321
5321 5340 5341 5322
5322 5341 5342 5323
5323 5342 5343 5324
5324 5343 5344 5325
5325 5344 5345 5326
5326 5345 199 198
337 338 5346 5327
5327 5346 5347 5328
5328 5347 5348 5329
5329 5348 5349 5330
5330 5349 5350 5331
5331 5350 5351 5332
5332 5351 5352 5333
5333 5352 5353 5334
5334 5353 5354 5335
5335 5354 5355 5336
5336 5355 5356 5337
5337 5356 5357 5338
5338 5357 5358 5339
5339 5358 5359 5340
5340 5359 5360 5341
5341 5360 5361 5342
5342 5361 5362 5343
5343 5362 5363 5344
5344 5363 5364 5345
5345 5364 200 199
338 339 5365 5346
5346 5365 5366 5347
5347 5366 5367 5348
5348 5367 5368 5349
5349 5368 5369 5350
5350 5369 5370 5351
5351 5370 5371 5352
5352 5371 5372 5353
5353 5372 5373 5354
5354 5373 5374 5355
5355 5374 5375 5356
5356 5375 5376 5357
5357 5376 5377 5358
5358 5377 5378 5359
5359 5378 5379 5360
5360 5379 5380 5361
5361 5380 5381 5362
5362 5381 5382 5363
5363 5382 5383 5364
5364 5383 201 200
339 340 5384 5365
5365 5384 5385 5366
5366 5385 5386 5367
5367 5386 5387 5368
5368 5387 5388 5369
5369 5388 5389 5370
5370 5389 5390 5371
5371 5390 5391 5372
5372 5391 5392 5373
5373 5392 5393 5374
5374 5393 5394 5375
5375 5394 5395 5376
5376 5395 5396 5377
5377 5396 5397 5378
5378 5397 5398 5379
5379 5398 5399 5380
5380 5399 5400 5381
5381 5400 5401 5382
5382 5401 5402 5383
5383 5402 202 201
340 341 5403 5384
5384 5403 5404 5385
5385 5404 5405 5386
5386 5405 5406 5387
5387 5406 5407 5388
5388 5407 5408 5389
5389 5408 5409 5390
5390 5409 5410 5391
5391 5410 5411 5392
5392 5411 5412 5393
5393 5412 5413 5394
5394 5413 5414 5395
5395 5414 5415 5396
5396 5415 5416 5397
5397 5416 5417 5398
5398 5417 5418 5399
5399 5418 5419 5400
5400 5419 5420 5401
5401 5420 5421 5402
5402 5421 203 202
341 342 5422 5403
5403 5422 5423 5404
5404 5423 5424 5405
5405 5424 5425 5406
5406 5425 5426 5407
5407 5426 5427 5408
5408 5427 5428 5409
5409 5428 5429 5410
5410 5429 5430 5411
5411 5430 5431 5412
5412 5431 5432 5413
5413 5432 5433 5414
5414 5433 5434 5415
5415 5434 5435 5416
5416 5435 5436 5417
5417 5436 5437 5418
5418 5437 5438 5419
5419 5438 5439 5420
5420 5439 5440 5421
5421 5440 204 203
342 343 5441 5422
5422 5441 5442 5423
5423 5442 5443 5424
5424 5443 5444 5425
5425 5444 5445 5426
5426 5445 5446 5427
5427 5446 5447 5428
5428 5447 5448 5429
5429 5448 5449 5430
5430 5449 5450 5431
5431 5450 5451 5432
5432 5451 5452 5433
5433 5452 5453 5434
5434 5453 5454 5435
5435 5454 5455 5436
5436 5455 5456 5437
5437 5456 5457 5438
5438 5457 5458 5439
5439 5458 5459 5440
5440 5459 205 204
343 344 5460 5441
5441 5460 5461 5442
5442 5461 5462 5443
5443 5462 5463 5444
5444 5463 5464 5445
5445 5464 5465 5446
5446 5465 5466 5447
5447 5466 5467 5448
5448 5467 5468 5449
5449 5468 5469 5450
5450 5469 5470 5451
5451 5470 5471 5452
5452 5471 5472 5453
5453 5472 5473 5454
5454 5473 5474 5455
5455 5474 5475 5456
5456 5475 5476 5457
5457 5476 5477 5458
5458 5477 5478 5459
5459 5478 206 205
344 345 5479 5460
5460 5479 5480 5461
5461 5480 5481 5462
5462 5481 5482 5463
5463 5482 5483 5464
5464 5483 5484 5465
5465 5484 5485 5466
5466 5485 5486 5467
5467 5486 5487 5468
5468 5487 5488 5469
5469 5488 5489 5470
5470 5489 5490 5471
5471 5490 5491 5472
5472 5491 5492 5473
5473 5492 5493 5474
5474 5493 5494 5475
5475 5494 5495 5476
5476 5495 5496 5477
5477 5496 5497 5478
5478 5497 207 206
345 346 5498 5479
5479 5498 5499 5480
5480 5499 5500 5481
5481 5500 5501 5482
5482 5501 5502 5483
5483 5502 5503 5484
5484 5503 5504 5485
5485 5504 5505 5486
5486 5505 5506 5487
5487 5506 5507 5488
5488 5507 5508 5489
5489 5508 5509 5490
5490 5509 5510 5491
5491 5510 5511 5492
5492 5511 5512 5493
5493 5512 5513 5494
5494 5513 5514 5495
5495 5514 5515 5496
5496 5515 5516 5497
5497 5516 208 207
346 347 5517 5498
5498 5517 5518 5499
5499 5518 5519 5500
5500 5519 5520 5501
5501 5520 5521 5502
5502 5521 5522 5503
5503 5522 5523 5504
5504 5523 5524 5505
5505 5524 5525 5506
5506 5525 5526 5507
5507 5526 5527 5508
5508 5527 5528 5509
5509 5528 5529 5510
5510 5529 5530 5511
5511 5530 5531 5512
5512 5531 5532 5513
5513 5532 5533 5514
5514 5533 5534 5515
5515 5534 5535 5516
5516 5535 209 208
347 348 5536 5517
5517 5536 5537 5518
5518 5537 5538 5519
5519 5538 5539 5520
5520 5539 5540 5521
5521 5540 5541 5522
5522 5541 5542 5523
5523 5542 5543 5524
5524 5543 5544 5525
5525 5544 5545 5526
5526 5545 5546 5527
5527 5546 5547 5528
5528 5547 5548 5529
5529 5548 5549 5530
5530 5549 5550 5531
5531 5550 5551 5532
5532 5551 5552 5533
5533 5552 5553 5534
5534 5553 5554 5535
5535 5554 210 209
348 349 5555 5536
5536 5555 5556 5537
5537 5556 5557 5538
5538 5557 5558 5539
5539 5558 5559 5540
5540 5559 5560 5541
5541 5560 5561 5542
5542 5561 5562 5543
5543 5562 5563 5544
5544 5563 5564 5545
5545 5564 5565 5546
5546 5565 5566 5547
5547 5566 5567 5548
5548 5567 5568 5549
5549 5568 5569 5550
5550 5569 5570 5551
5551 5570 5571 5552
5552 5571 5572 5553
5553 5572 5573 5554
5554 5573 211 210
349 350 5574 5555
5555 5574 5575 5556
5556 5575 5576 5557
5557 5576 5577 5558
5558 5577 5578 5559
5559 5578 5579 5560
5560 5579 5580 5561
5561 5580 5581 5562
5562 5581 5582 5563
5563 5582 5583 5564
5564 5583 5584 5565
5565 5584 5585 5566
5566 5585 5586 5567
5567 5586 5587 5568
5568 5587 5588 5569
5569 5588 5589 5570
5570 5589 5590 5571
5571 5590 5591 5572
5572 5591 5592 5573
5573 5592 212 211
350 351 5593 5574
5574 5593 5594 5575
5575 5594 5595 5576
5576 5595 5596 5577
5577 5596 5597 5578
5578 5597 5598 5579
5579 5598 5599 5580
5580 5599 5600 5581
5581 5600 5601 5582
5582 5601 5602 5583
5583 5602 5603 5584
5584 5603 5604 5585
5585 5604 5605 5586
5586 5605 5606 5587
5587 5606 5607 5588
5588 5607 5608 5589
5589 5608 5609 5590
5590 5609 5610 5591
5591 5610 5611 5592
5592 5611 213 212
351 352 5612 5593
5593 5612 5613 5594
5594 5613 5614 5595
5595 5614 5615 5596
5596 5615 5616 5597
5597 5616 5617 5598
5598 5617 5618 5599
5599 5618 5619 5600
5600 5619 5620 5601
5601 5620 5621 5602
5602 5621 5622 5603
5603 5622 5623 5604
5604 5623 5624 5605
5605 5624 5625 5606
5606 5625 5626 5607
5607 5626 5627 5608
5608 5627 5628 5609
5609 5628 5629 5610
5610 5629 5630 5611
5611 5630 214 213
352 353 5631 5612
5612 5631 5632 5613
5613 5632 5633 5614
5614 5633 5634 5615
5615 5634 5635 5616
5616 5635 5636 5617
5617 5636 5637 5618
5618 5637 5638 5619
5619 5638 5639 5620
5620 5639 5640 5621
5621 5640 5641 5622
5622 5641 5642 5623
5623 5642 5643 5624
5624 5643 5644 5625
5625 5644 5645 5626
5626 5645 5646 5627
5627 5646 5647 5628
5628 5647 5648 5629
5629 5648 5649 5630
5630 5649 215 214
353 354 5650 5631
5631 5650 5651 5632
5632 5651 5652 5633
5633 5652 5653 5634
5634 5653 5654 5635
5635 5654 5655 5636
5636 5655 5656 5637
5637 5656 5657 5638
5638 5657 5658 5639
5639 5658 5659 5640
5640 5659 5660 5641
5641 5660 5661 5642
5642 5661 5662 5643
5643 5662 5663 5644
5644 5663 5664 5645
5645 5664 5665 5646
5646 5665 5666 5647
5647 5666 5667 5648
5648 5667 5668 5649
5649 5668 216 215
354 355 5669 5650
5650 5669 5670 5651
5651 5670 5671 5652
5652 5671 5672 5653
5653 5672 5673 5654
5654 5673 5674 5655
5655 5674 5675 5656
5656 5675 5676 5657
5657 5676 5677 5658
5658 5677 5678 5659
5659 5678 5679 5660
5660 5679 5680 5661
5661 5680 5681 5662
5662 5681 5682 5663
5663 5682 5683 5664
5664 5683 5684 5665
5665 5684 5685 5666
5666 5685 5686 5667
5667 5686 5687 5668
5668 5687 217 216
355 356 5688 5669
5669 5688 5689 5670
5670 5689 5690 5671
5671 5690 5691 5672
5672 5691 5692 5673
5673 5692 5693 5674
5674 5693 5694 5675
5675 5694 5695 5676
5676 5695 5696 5677
5677 5696 5697 5678
5678 5697 5698 5679
5679 5698 5699 5680
5680 5699 5700 5681
5681 5700 5701 5682
5682 5701 5702 5683
5683 5702 5703 5684
5684 5703 5704 5685
5685 5704 5705 5686
5686 5705 5706 5687
5687 5706 218 217
356 357 5707 5688
5688 5707 5708 5689
5689 5708 5709 5690
5690 5709 5710 5691
5691 5710 5711 5692
5692 5711 5712 5693
5693 5712 5713 5694
5694 5713 5714 5695
5695 5714 5715 5696
5696 5715 5716 5697
5697 5716 5717 5698
5698 5717 5718 5699
5699 5718 5719 5700
5700 5719 5720 5701
5701 5720 5721 5702
5702 5721 5722 5703
5703 5722 5723 5704
5704 5723 5724 5705
5705 5724 5725 5706
5706 5725 219 218
357 358 5726 5707
5707 5726 5727 5708
5708 5727 5728 5709
5709 5728 5729 5710
5710 5729 5730 5711
5711 5730 5731 5712
5712 5731 5732 5713
5713 5732 5733 5714
5714 5733 5734 5715
5715 5734 5735 5716
5716 5735 5736 5717
5717 5736 5737 5718
5718 5737 5738 5719
5719 5738 5739 5720
5720 5739 5740 5721
5721 5740 5741 5722
5722 5741 5742 5723
5723 5742 5743 5724
5724 5743 5744 5725
5725 5744 220 219
358 359 5745 5726
5726 5745 5746 5727
5727 5746 5747 5728
5728 5747 5748 5729
5729 5748 5749 5730
5730 5749 5750 5731
5731 5750 5751 5732
5732 5751 5752 5733
5733 5752 5753 5734
5734 5753 5754 5735
5735 5754 5755 5736
5736 5755 5756 5737
5737 5756 5757 5738
5738 5757 5758 5739
5739 5758 5759 5740
5740 5759 5760 5741
5741 5760 5761 5742
5742 5761 5762 5743
5743 5762 5763 5744
5744 5763 221 220
359 360 5764 5745
5745 5764 5765 5746
5746 5765 5766 5747
5747 5766 5767 5748
5748 5767 5768 5749
5749 5768 5769 5750
5750 5769 5770 5751
5751 5770 5771 5752
5752 5771 5772 5753
5753 5772 5773 5754
5754 5773 5774 5755
5755 5774 5775 5756
5756 5775 5776 5757
5757 5776 5777 5758
5758 5777 5778 5759
5759 5778 5779 5760
5760 5779 5780 5761
5761 5780 5781 5762
5762 5781 5782 5763
5763 5782 222 221
360 361 5783 5764
5764 5783 5784 5765
5765 5784 5785 5766
5766 5785 5786 5767
5767 5786 5787 5768
5768 5787 5788 5769
5769 5788 5789 5770
5770 5789 5790 5771
5771 5790 5791 5772
5772 5791 5792 5773
5773 5792 5793 5774
5774 5793 5794 5775
5775 5794 5795 5776
5776 5795 5796 5777
5777 5796 5797 5778
5778 5797 5798 5779
5779 5798 5799 5780
5780 5799 5800 5781
5781 5800 5801 5782
5782 5801 223 222
361 10 419 5783
5783 419 420 5784
5784 420 421 5785
5785 421 422 5786
5786 422 423 5787
5787 423 424 5788
5788 424 425 5789
5789 425 426 5790
5790 426 427 5791
5791 427 428 5792
5792 428 429 5793
5793 429 430 5794
5794 430 431 5795
5795 431 432 5796
5796 432 433 5797
5797 433 434 5798
5798 434 435 5799
5799 435 436 5800
5800 436 437 5801
5801 437 8 223
</DataArray>
<DataArray type="Int64" Name="offsets" format="ascii">
4
8
12
16
20
24
28
32
36
40
44
48
52
56
60
64
68
72
76
80
84
88
92
96
100
104
108
112
116
120
124
128
132
136
140
144
148
152
156
160
164
168
172
176
180
184
188
192
196
200
204
208
212
216
220
224
228
232
236
240
244
248
252
256
260
264
268
272
276
280
284
288
292
296
300
304
308
312
316
320
324
328
332
336
340
344
348
352
356
360
364
368
372
376
380
384
388
392
396
400
404
408
412
416
420
424
428
432
436
440
444
448
452
456
460
464
468
472
476
480
484
488
492
496
500
504
508
512
516
520
524
528
532
536
540
544
548
552
556
560
564
568
572
576
580
584
588
592
596
600
604
608
612
616
620
624
628
632
636
640
644
648
652
656
660
664
668
672
676
680
684
688
692
696
700
704
708
712
716
720
724
728
732
736
740
744
748
752
756
760
764
768
772
776
780
784
788
792
796
800
804
808
812
816
820
824
828
832
836
840
844
848
852
856
860
864
868
872
876
880
884
888
892
896
900
904
908
912
916
920
924
928
932
936
940
944
948
952
956
960
964
968
972
976
980
984
988
992
996
1000
1004
1008
1012
1016
1020
1024
1028
1032
1036
1040
1044
1048
1052
1056
1060
1064
1068
1072
1076
1080
1084
1088
1092
1096
1100
1104
1108
1112
1116
1120
1124
1128
1132
1136
1140
1144
1148
1152
1156
1160
1164
1168
1172
1176
1180
1184
1188
1192
1196
1200
1204
1208
1212
1216
1220
1224
1228
1232
1236
1240
1244
1248
1252
1256
1260
1264
1268
1272
1276
1280
1284
1288
1292
1296
1300
1304
1308
1312
1316
1320
1324
1328
1332
1336
1340
1344
1348
1352
1356
1360
1364
1368
1372
1376
1380
1384
1388
1392
1396
1400
1404
1408
1412
1416
1420
1424
1428
1432
1436
1440
1444
1448
1452
1456
1460
1464
1468
1472
1476
1480
1484
1488
1492
1496
1500
1504
1508
1512
1516
1520
1524
1528
1532
1536
1540
1544
1548
1552
1556
1560
1564
1568
1572
1576
1580
1584
1588
1592
1596
1600
1604
1608
1612
1616
1620
1624
1628
1632
1636
1640
1644
1648
1652
1656
1660
1664
1668
1672
1676
1680
1684
1688
1692
1696
1700
1704
1708
1712
1716
1720
1724
1728
1732
1736
1740
1744
1748
1752
1756
1760
1764
1768
1772
1776
1780
1784
1788
1792
1796
1800
1804
1808
1812
1816
1820
1824
1828
1832
1836
1840
1844
1848
1852
1856
1860
1864
1868
1872
1876
1880
1884
1888
1892
1896
1900
1904
1908
1912
1916
1920
1924
1928
1932
1936
1940
1944
1948
1952
1956
1960
1964
1968
1972
1976
1980
1984
1988
1992
1996
2000
2004
2008
2012
2016
2020
2024
2028
2032
2036
2040
2044
2048
2052
2056
2060
2064
2068
2072
2076
2080
2084
2088
2092
2096
2100
2104
2108
2112
2116
2120
2124
2128
2132
2136
2140
2144
2148
2152
2156
2160
2164
2168
2172
2176
2180
2184
2188
2192
2196
2200
2204
2208
2212
2216
2220
2224
2228
2232
2236
2240
2244
2248
2252
2256
2260
2264
2268
2272
2276
2280
2284
2288
2292
2296
2300
2304
2308
2312
2316
2320
2324
2328
2332
2336
2340
2344
2348
2352
2356
2360
2364
2368
2372
2376
2380
2384
2388
2392
2396
2400
2404
2408
2412
2416
2420
2424
2428
2432
2436
2440
2444
2448
2452
2456
2460
2464
2468
2472
2476
2480
2484
2488
2492
2496
2500
2504
2508
2512
2516
2520
2524
2528
2532
2536
2540
2544
2548
2552
2556
2560
2564
2568
2572
2576
2580
2584
2588
2592
2596
2600
2604
2608
2612
2616
2620
2624
2628
2632
2636
2640
2644
2648
2652
2656
2660
2664
2668
2672
2676
2680
2684
2688
2692
2696
2700
2704
2708
2712
2716
2720
2724
2728
2732
2736
2740
2744
2748
2752
2756
2760
2764
2768
2772
2776
2780
2784
2788
2792
2796
2800
2804
2808
2812
2816
2820
2824
2828
2832
2836
2840
2844
2848
2852
2856
2860
2864
2868
2872
2876
2880
2884
2888
2892
2896
2900
2904
2908
2912
2916
2920
2924
2928
2932
2936
2940
2944
2948
2952
2956
2960
2964
2968
2972
2976
2980
2984
2988
2992
2996
3000
3004
3008
3012
3016
3020
3024
3028
3032
3036
3040
3044
3048
3052
3056
3060
3064
3068
3072
3076
3080
3084
3088
3092
3096
3100
3104
3108
3112
3116
3120
3124
3128
3132
3136
3140
3144
3148
3152
3156
3160
3164
3168
3172
3176
3180
3184
3188
3192
3196
3200
3204
3208
3212
3216
3220
3224
3228
3232
3236
3240
3244
3248
3252
3256
3260
3264
3268
3272
3276
3280
3284
3288
3292
3296
3300
3304
3308
3312
3316
3320
3324
3328
3332
3336
3340
3344
3348
3352
3356
3360
3364
3368
3372
3376
3380
3384
3388
3392
3396
3400
3404
3408
3412
3416
3420
3424
3428
3432
3436
3440
3444
3448
3452
3456
3460
3464
3468
3472
3476
3480
3484
3488
3492
3496
3500
3504
3508
3512
3516
3520
3524
3528
3532
3536
3540
3544
3548
3552
3556
3560
3564
3568
3572
3576
3580
3584
3588
3592
3596
3600
3604
3608
3612
3616
3620
3624
3628
3632
3636
3640
3644
3648
3652
3656
3660
3664
3668
3672
3676
3680
3684
3688
3692
3696
3700
3704
3708
3712
3716
3720
3724
3728
3732
3736
3740
3744
3748
3752
3756
3760
3764
3768
3772
3776
3780
3784
3788
3792
3796
3800
3804
3808
3812
3816
3820
3824
3828
3832
3836
3840
3844
3848
3852
3856
3860
3864
3868
3872
3876
3880
3884
3888
3892
3896
3900
3904
3908
3912
3916
3920
3924
3928
3932
3936
3940
3944
3948
3952
3956
3960
3964
3968
3972
3976
3980
3984
3988
3992
3996
4000
4004
4008
4012
4016
4020
4024
4028
4032
4036
4040
4044
4048
4052
4056
4060
4064
4068
4072
4076
4080
4084
4088
4092
4096
4100
4104
4108
4112
4116
4120
4124
4128
4132
4136
4140
4144
4148
4152
4156
4160
4164
4168
4172
4176
4180
4184
4188
4192
4196
4200
4204
4208
4212
4216
4220
4224
4228
4232
4236
4240
4244
4248
4252
4256
4260
4264
4268
4272
4276
4280
4284
4288
4292
4296
4300
4304
4308
4312
4316
4320
4324
4328
4332
4336
4340
4344
4348
4352
4356
4360
4364
4368
4372
4376
4380
4384
4388
4392
4396
4400
4404
4408
4412
4416
4420
4424
4428
4432
4436
4440
4444
4448
4452
4456
4460
4464
4468
4472
4476
4480
4484
4488
4492
4496
4500
4504
4508
4512
4516
4520
4524
4528
4532
4536
4540
4544
4548
4552
4556
4560
4564
4568
4572
4576
4580
4584
4588
4592
4596
4600
4604
4608
4612
4616
4620
4624
4628
4632
4636
4640
4644
4648
4652
4656
4660
4664
4668
4672
4676
4680
4684
4688
4692
4696
4700
4704
4708
4712
4716
4720
4724
4728
4732
4736
4740
4744
4748
4752
4756
4760
4764
4768
4772
4776
4780
4784
4788
4792
4796
4800
4804
4808
4812
4816
4820
4824
4828
4832
4836
4840
4844
4848
4852
4856
4860
4864
4868
4872
4876
4880
4884
4888
4892
4896
4900
4904
4908
4912
4916
4920
4924
4928
4932
4936
4940
4944
4948
4952
4956
4960
4964
4968
4972
4976
4980
4984
4988
4992
4996
5000
5004
5008
5012
5016
5020
5024
5028
5032
5036
5040
5044
5048
5052
5056
5060
5064
5068
5072
5076
5080
5084
5088
5092
5096
5100
5104
5108
5112
5116
5120
5124
5128
5132
5136
5140
5144
5148
5152
5156
5160
5164
5168
5172
5176
5180
5184
5188
5192
5196
5200
5204
5208
5212
5216
5220
5224
5228
5232
5236
5240
5244
5248
5252
5256
5260
5264
5268
5272
5276
5280
5284
5288
5292
5296
5300
5304
5308
5312
5316
5320
5324
5328
5332
5336
5340
5344
5348
5352
5356
5360
5364
5368
5372
5376
5380
5384
5388
5392
5396
5400
5404
5408
5412
5416
5420
5424
5428
5432
5436
5440
5444
5448
5452
5456
5460
5464
5468
5472
5476
5480
5484
5488
5492
5496
5500
5504
5508
5512
5516
5520
5524
5528
5532
5536
5540
5544
5548
5552
5556
5560
5564
5568
5572
5576
5580
5584
5588
5592
5596
5600
5604
5608
5612
5616
5620
5624
5628
5632
5636
5640
5644
5648
5652
5656
5660
5664
5668
5672
5676
5680
5684
5688
5692
5696
5700
5704
5708
5712
5716
5720
5724
5728
5732
5736
5740
5744
5748
5752
5756
5760
5764
5768
5772
5776
5780
5784
5788
5792
5796
5800
5804
5808
5812
5816
5820
5824
5828
5832
5836
5840
5844
5848
5852
5856
5860
5864
5868
5872
5876
5880
5884
5888
5892
5896
5900
5904
5908
5912
5916
5920
5924
5928
5932
5936
5940
5944
5948
5952
5956
5960
5964
5968
5972
5976
5980
5984
5988
5992
5996
6000
6004
6008
6012
6016
6020
6024
6028
6032
6036
6040
6044
6048
6052
6056
6060
6064
6068
6072
6076
6080
6084
6088
6092
6096
6100
6104
6108
6112
6116
6120
6124
6128
6132
6136
6140
6144
6148
6152
6156
6160
6164
6168
6172
6176
6180
6184
6188
6192
6196
6200
6204
6208
6212
6216
6220
6224
6228
6232
6236
6240
6244
6248
6252
6256
6260
6264
6268
6272
6276
6280
6284
6288
6292
6296
6300
6304
6308
6312
6316
6320
6324
6328
6332
6336
6340
6344
6348
6352
6356
6360
6364
6368
6372
6376
6380
6384
6388
6392
6396
6400
6404
6408
6412
6416
6420
6424
6428
6432
6436
6440
6444
6448
6452
6456
6460
6464
6468
6472
6476
6480
6484
6488
6492
6496
6500
6504
6508
6512
6516
6520
6524
6528
6532
6536
6540
6544
6548
6552
6556
6560
6564
6568
6572
6576
6580
6584
6588
6592
6596
6600
6604
6608
6612
6616
6620
6624
6628
6632
6636
6640
6644
6648
6652
6656
6660
6664
6668
6672
6676
6680
6684
6688
6692
6696
6700
6704
6708
6712
6716
6720
6724
6728
6732
6736
6740
6744
6748
6752
6756
6760
6764
6768
6772
6776
6780
6784
6788
6792
6796
6800
6804
6808
6812
6816
6820
6824
6828
6832
6836
6840
6844
6848
6852
6856
6860
6864
6868
6872
6876
6880
6884
6888
6892
6896
6900
6904
6908
6912
6916
6920
6924
6928
6932
6936
6940
6944
6948
6952
6956
6960
6964
6968
6972
6976
6980
6984
6988
6992
6996
7000
7004
7008
7012
7016
7020
7024
7028
7032
7036
7040
7044
7048
7052
7056
7060
7064
7068
7072
7076
7080
7084
7088
7092
7096
7100
7104
7108
7112
7116
7120
7124
7128
7132
7136
7140
7144
7148
7152
7156
7160
7164
7168
7172
7176
7180
7184
7188
7192
7196
7200
7204
7208
7212
7216
7220
7224
7228
7232
7236
7240
7244
7248
7252
7256
7260
7264
7268
7272
7276
7280
7284
7288
7292
7296
7300
7304
7308
7312
7316
7320
7324
7328
7332
7336
7340
7344
7348
7352
7356
7360
7364
7368
7372
7376
7380
7384
7388
7392
7396
7400
7404
7408
7412
7416
7420
7424
7428
7432
7436
7440
7444
7448
7452
7456
7460
7464
7468
7472
7476
7480
7484
7488
7492
7496
7500
7504
7508
7512
7516
7520
7524
7528
7532
7536
7540
7544
7548
7552
7556
7560
7564
7568
7572
7576
7580
7584
7588
7592
7596
7600
7604
7608
7612
7616
7620
7624
7628
7632
7636
7640
7644
7648
7652
7656
7660
7664
7668
7672
7676
7680
7684
7688
7692
7696
7700
7704
7708
7712
7716
7720
7724
7728
7732
7736
7740
7744
7748
7752
7756
7760
7764
7768
7772
7776
7780
7784
7788
7792
7796
7800
7804
7808
7812
7816
7820
7824
7828
7832
7836
7840
7844
7848
7852
7856
7860
7864
7868
7872
7876
7880
7884
7888
7892
7896
7900
7904
7908
7912
7916
7920
7924
7928
7932
7936
7940
7944
7948
7952
7956
7960
7964
7968
7972
7976
7980
7984
7988
7992
7996
8000
8004
8008
8012
8016
8020
8024
8028
8032
8036
8040
8044
8048
8052
8056
8060
8064
8068
8072
8076
8080
8084
8088
8092
8096
8100
8104
8108
8112
8116
8120
8124
8128
8132
8136
8140
8144
8148
8152
8156
8160
8164
8168
8172
8176
8180
8184
8188
8192
8196
8200
8204
8208
8212
8216
8220
8224
8228
8232
8236
8240
8244
8248
8252
8256
8260
8264
8268
8272
8276
8280
8284
8288
8292
8296
8300
8304
8308
8312
8316
8320
8324
8328
8332
8336
8340
8344
8348
8352
8356
8360
8364
8368
8372
8376
8380
8384
8388
8392
8396
8400
8404
8408
8412
8416
8420
8424
8428
8432
8436
8440
8444
8448
8452
8456
8460
8464
8468
8472
8476
8480
8484
8488
8492
8496
8500
8504
8508
8512
8516
8520
8524
8528
8532
8536
8540
8544
8548
8552
8556
8560
8564
8568
8572
8576
8580
8584
8588
8592
8596
8600
8604
8608
8612
8616
8620
8624
8628
8632
8636
8640
8644
8648
8652
8656
8660
8664
8668
8672
8676
8680
8684
8688
8692
8696
8700
8704
8708
8712
8716
8720
8724
8728
8732
8736
8740
8744
8748
8752
8756
8760
8764
8768
8772
8776
8780
8784
8788
8792
8796
8800
8804
8808
8812
8816
8820
8824
8828
8832
8836
8840
8844
8848
8852
8856
8860
8864
8868
8872
8876
8880
8884
8888
8892
8896
8900
8904
8908
8912
8916
8920
8924
8928
8932
8936
8940
8944
8948
8952
8956
8960
8964
8968
8972
8976
8980
8984
8988
8992
8996
9000
9004
9008
9012
9016
9020
9024
9028
9032
9036
9040
9044
9048
9052
9056
9060
9064
9068
9072
9076
9080
9084
9088
9092
9096
9100
9104
9108
9112
9116
9120
9124
9128
9132
9136
9140
9144
9148
9152
9156
9160
9164
9168
9172
9176
9180
9184
9188
9192
9196
9200
9204
9208
9212
9216
9220
9224
9228
9232
9236
9240
9244
9248
9252
9256
9260
9264
9268
9272
9276
9280
9284
9288
9292
9296
9300
9304
9308
9312
9316
9320
9324
9328
9332
9336
9340
9344
9348
9352
9356
9360
9364
9368
9372
9376
9380
9384
9388
9392
9396
9400
9404
9408
9412
9416
9420
9424
9428
9432
9436
9440
9444
9448
9452
9456
9460
9464
9468
9472
9476
9480
9484
9488
9492
9496
9500
9504
9508
9512
9516
9520
9524
9528
9532
9536
9540
9544
9548
9552
9556
9560
9564
9568
9572
9576
9580
9584
9588
9592
9596
9600
9604
9608
9612
9616
9620
9624
9628
9632
9636
9640
9644
9648
9652
9656
9660
9664
9668
9672
9676
9680
9684
9688
9692
9696
9700
9704
9708
9712
9716
9720
9724
9728
9732
9736
9740
9744
9748
9752
9756
9760
9764
9768
9772
9776
9780
9784
9788
9792
9796
9800
9804
9808
9812
9816
9820
9824
9828
9832
9836
9840
9844
9848
9852
9856
9860
9864
9868
9872
9876
9880
9884
9888
9892
9896
9900
9904
9908
9912
9916
9920
9924
9928
9932
9936
9940
9944
9948
9952
9956
9960
9964
9968
9972
9976
9980
9984
9988
9992
9996
10000
10004
10008
10012
10016
10020
10024
10028
10032
10036
10040
10044
10048
10052
10056
10060
10064
10068
10072
10076
10080
10084
10088
10092
10096
10100
10104
10108
10112
10116
10120
10124
10128
10132
10136
10140
10144
10148
10152
10156
10160
10164
10168
10172
10176
10180
10184
10188
10192
10196
10200
10204
10208
10212
10216
10220
10224
10228
10232
10236
10240
10244
10248
10252
10256
10260
10264
10268
10272
10276
10280
10284
10288
10292
10296
10300
10304
10308
10312
10316
10320
10324
10328
10332
10336
10340
10344
10348
10352
10356
10360
10364
10368
10372
10376
10380
10384
10388
10392
10396
10400
10404
10408
10412
10416
10420
10424
10428
10432
10436
10440
10444
10448
10452
10456
10460
10464
10468
10472
10476
10480
10484
10488
10492
10496
10500
10504
10508
10512
10516
10520
10524
10528
10532
10536
10540
10544
10548
10552
10556
10560
10564
10568
10572
10576
10580
10584
10588
10592
10596
10600
10604
10608
10612
10616
10620
10624
10628
10632
10636
10640
10644
10648
10652
10656
10660
10664
10668
10672
10676
10680
10684
10688
10692
10696
10700
10704
10708
10712
10716
10720
10724
10728
10732
10736
10740
10744
10748
10752
10756
10760
10764
10768
10772
10776
10780
10784
10788
10792
10796
10800
10804
10808
10812
10816
10820
10824
10828
10832
10836
10840
10844
10848
10852
10856
10860
10864
10868
10872
10876
10880
10884
10888
10892
10896
10900
10904
10908
10912
10916
10920
10924
10928
10932
10936
10940
10944
10948
10952
10956
10960
10964
10968
10972
10976
10980
10984
10988
10992
10996
11000
11004
11008
11012
11016
11020
11024
11028
11032
11036
11040
11044
11048
11052
11056
11060
11064
11068
11072
11076
11080
11084
11088
11092
11096
11100
11104
11108
11112
11116
11120
11124
11128
11132
11136
11140
11144
11148
11152
11156
11160
11164
11168
11172
11176
11180
11184
11188
11192
11196
11200
11204
11208
11212
11216
11220
11224
11228
11232
11236
11240
11244
11248
11252
11256
11260
11264
11268
11272
11276
11280
11284
11288
11292
11296
11300
11304
11308
11312
11316
11320
11324
11328
11332
11336
11340
11344
11348
11352
11356
11360
11364
11368
11372
11376
11380
11384
11388
11392
11396
11400
11404
11408
11412
11416
11420
11424
11428
11432
11436
11440
11444
11448
11452
11456
11460
11464
11468
11472
11476
11480
11484
11488
11492
11496
11500
11504
11508
11512
11516
11520
11524
11528
11532
11536
11540
11544
11548
11552
11556
11560
11564
11568
11572
11576
11580
11584
11588
11592
11596
11600
11604
11608
11612
11616
11620
11624
11628
11632
11636
11640
11644
11648
11652
11656
11660
11664
11668
11672
11676
11680
11684
11688
11692
11696
11700
11704
11708
11712
11716
11720
11724
11728
11732
11736
11740
11744
11748
11752
11756
11760
11764
11768
11772
11776
11780
11784
11788
11792
11796
11800
11804
11808
11812
11816
11820
11824
11828
11832
11836
11840
11844
11848
11852
11856
11860
11864
11868
11872
11876
11880
11884
11888
11892
11896
11900
11904
11908
11912
11916
11920
11924
11928
11932
11936
11940
11944
11948
11952
11956
11960
11964
11968
11972
11976
11980
11984
11988
11992
11996
12000
12004
12008
12012
12016
12020
12024
12028
12032
12036
12040
12044
12048
12052
12056
12060
12064
12068
12072
12076
12080
12084
12088
12092
12096
12100
12104
12108
12112
12116
12120
12124
12128
12132
12136
12140
12144
12148
12152
12156
12160
12164
12168
12172
12176
12180
12184
12188
12192
12196
12200
12204
12208
12212
12216
12220
12224
12228
12232
12236
12240
12244
12248
12252
12256
12260
12264
12268
12272
12276
12280
12284
12288
12292
12296
12300
12304
12308
12312
12316
12320
12324
12328
12332
12336
12340
12344
12348
12352
12356
12360
12364
12368
12372
12376
12380
12384
12388
12392
12396
12400
12404
12408
12412
12416
12420
12424
12428
12432
12436
12440
12444
12448
12452
12456
12460
12464
12468
12472
12476
12480
12484
12488
12492
12496
12500
12504
12508
12512
12516
12520
12524
12528
12532
12536
12540
12544
12548
12552
12556
12560
12564
12568
12572
12576
12580
12584
12588
12592
12596
12600
12604
12608
12612
12616
12620
12624
12628
12632
12636
12640
12644
12648
12652
12656
12660
12664
12668
12672
12676
12680
12684
12688
12692
12696
12700
12704
12708
12712
12716
12720
12724
12728
12732
12736
12740
12744
12748
12752
12756
12760
12764
12768
12772
12776
12780
12784
12788
12792
12796
12800
12804
12808
12812
12816
12820
12824
12828
12832
12836
12840
12844
12848
12852
12856
12860
12864
12868
12872
12876
12880
12884
12888
12892
12896
12900
12904
12908
12912
12916
12920
12924
12928
12932
12936
12940
12944
12948
12952
12956
12960
12964
12968
12972
12976
12980
12984
12988
12992
12996
13000
13004
13008
13012
13016
13020
13024
13028
13032
13036
13040
13044
13048
13052
13056
13060
13064
13068
13072
13076
13080
13084
13088
13092
13096
13100
13104
13108
13112
13116
13120
13124
13128
13132
13136
13140
13144
13148
13152
13156
13160
13164
13168
13172
13176
13180
13184
13188
13192
13196
13200
13204
13208
13212
13216
13220
13224
13228
13232
13236
13240
13244
13248
13252
13256
13260
13264
13268
13272
13276
13280
13284
13288
13292
13296
13300
13304
13308
13312
13316
13320
13324
13328
13332
13336
13340
13344
13348
13352
13356
13360
13364
13368
13372
13376
13380
13384
13388
13392
13396
13400
13404
13408
13412
13416
13420
13424
13428
13432
13436
13440
13444
13448
13452
13456
13460
13464
13468
13472
13476
13480
13484
13488
13492
13496
13500
13504
13508
13512
13516
13520
13524
13528
13532
13536
13540
13544
13548
13552
13556
13560
13564
13568
13572
13576
13580
13584
13588
13592
13596
13600
13604
13608
13612
13616
13620
13624
13628
13632
13636
13640
13644
13648
13652
13656
13660
13664
13668
13672
13676
13680
13684
13688
13692
13696
13700
13704
13708
13712
13716
13720
13724
13728
13732
13736
13740
13744
13748
13752
13756
13760
13764
13768
13772
13776
13780
13784
13788
13792
13796
13800
13804
13808
13812
13816
13820
13824
13828
13832
13836
13840
13844
13848
13852
13856
13860
13864
13868
13872
13876
13880
13884
13888
13892
13896
13900
13904
13908
13912
13916
13920
13924
13928
13932
13936
13940
13944
13948
13952
13956
13960
13964
13968
13972
13976
13980
13984
13988
13992
13996
14000
14004
14008
14012
14016
14020
14024
14028
14032
14036
14040
14044
14048
14052
14056
14060
14064
14068
14072
14076
14080
14084
14088
14092
14096
14100
14104
14108
14112
14116
14120
14124
14128
14132
14136
14140
14144
14148
14152
14156
14160
14164
14168
14172
14176
14180
14184
14188
14192
14196
14200
14204
14208
14212
14216
14220
14224
14228
14232
14236
14240
14244
14248
14252
14256
14260
14264
14268
14272
14276
14280
14284
14288
14292
14296
14300
14304
14308
14312
14316
14320
14324
14328
14332
14336
14340
14344
14348
14352
14356
14360
14364
14368
14372
14376
14380
14384
14388
14392
14396
14400
14404
14408
14412
14416
14420
14424
14428
14432
14436
14440
14444
14448
14452
14456
14460
14464
14468
14472
14476
14480
14484
14488
14492
14496
14500
14504
14508
14512
14516
14520
14524
14528
14532
14536
14540
14544
14548
14552
14556
14560
14564
14568
14572
14576
14580
14584
14588
14592
14596
14600
14604
14608
14612
14616
14620
14624
14628
14632
14636
14640
14644
14648
14652
14656
14660
14664
14668
14672
14676
14680
14684
14688
14692
14696
14700
14704
14708
14712
14716
14720
14724
14728
14732
14736
14740
14744
14748
14752
14756
14760
14764
14768
14772
14776
14780
14784
14788
14792
14796
14800
14804
14808
14812
14816
14820
14824
14828
14832
14836
14840
14844
14848
14852
14856
14860
14864
14868
14872
14876
14880
14884
14888
14892
14896
14900
14904
14908
14912
14916
14920
14924
14928
14932
14936
14940
14944
14948
14952
14956
14960
14964
14968
14972
14976
14980
14984
14988
14992
14996
15000
15004
15008
15012
15016
15020
15024
15028
15032
15036
15040
15044
15048
15052
15056
15060
15064
15068
15072
15076
15080
15084
15088
15092
15096
15100
15104
15108
15112
15116
15120
15124
15128
15132
15136
15140
15144
15148
15152
15156
15160
15164
15168
15172
15176
15180
15184
15188
15192
15196
15200
15204
15208
15212
15216
15220
15224
15228
15232
15236
15240
15244
15248
15252
15256
15260
15264
15268
15272
15276
15280
15284
15288
15292
15296
15300
15304
15308
15312
15316
15320
15324
15328
15332
15336
15340
15344
15348
15352
15356
15360
15364
15368
15372
15376
15380
15384
15388
15392
15396
15400
15404
15408
15412
15416
15420
15424
15428
15432
15436
15440
15444
15448
15452
15456
15460
15464
15468
15472
15476
15480
15484
15488
15492
15496
15500
15504
15508
15512
15516
15520
15524
15528
15532
15536
15540
15544
15548
15552
15556
15560
15564
15568
15572
15576
15580
15584
15588
15592
15596
15600
15604
15608
15612
15616
15620
15624
15628
15632
15636
15640
15644
15648
15652
15656
15660
15664
15668
15672
15676
15680
15684
15688
15692
15696
15700
15704
15708
15712
15716
15720
15724
15728
15732
15736
15740
15744
15748
15752
15756
15760
15764
15768
15772
15776
15780
15784
15788
15792
15796
15800
15804
15808
15812
15816
15820
15824
15828
15832
15836
15840
15844
15848
15852
15856
15860
15864
15868
15872
15876
15880
15884
15888
15892
15896
15900
15904
15908
15912
15916
15920
15924
15928
15932
15936
15940
15944
15948
15952
15956
15960
15964
15968
15972
15976
15980
15984
15988
15992
15996
16000
16004
16008
16012
16016
16020
16024
16028
16032
16036
16040
16044
16048
16052
16056
16060
16064
16068
16072
16076
16080
16084
16088
16092
16096
16100
16104
16108
16112
16116
16120
16124
16128
16132
16136
16140
16144
16148
16152
16156
16160
16164
16168
16172
16176
16180
16184
16188
16192
16196
16200
16204
16208
16212
16216
16220
16224
16228
16232
16236
16240
16244
16248
16252
16256
16260
16264
16268
16272
16276
16280
16284
16288
16292
16296
16300
16304
16308
16312
16316
16320
16324
16328
16332
16336
16340
16344
16348
16352
16356
16360
16364
16368
16372
16376
16380
16384
16388
16392
16396
16400
16404
16408
16412
16416
16420
16424
16428
16432
16436
16440
16444
16448
16452
16456
16460
16464
16468
16472
16476
16480
16484
16488
16492
16496
16500
16504
16508
16512
16516
16520
16524
16528
16532
16536
16540
16544
16548
16552
16556
16560
16564
16568
16572
16576
16580
16584
16588
16592
16596
16600
16604
16608
16612
16616
16620
16624
16628
16632
16636
16640
16644
16648
16652
16656
16660
16664
16668
16672
16676
16680
16684
16688
16692
16696
16700
16704
16708
16712
16716
16720
16724
16728
16732
16736
16740
16744
16748
16752
16756
16760
16764
16768
16772
16776
16780
16784
16788
16792
16796
16800
16804
16808
16812
16816
16820
16824
16828
16832
16836
16840
16844
16848
16852
16856
16860
16864
16868
16872
16876
16880
16884
16888
16892
16896
16900
16904
16908
16912
16916
16920
16924
16928
16932
16936
16940
16944
16948
16952
16956
16960
16964
16968
16972
16976
16980
16984
16988
16992
16996
17000
17004
17008
17012
17016
17020
17024
17028
17032
17036
17040
17044
17048
17052
17056
17060
17064
17068
17072
17076
17080
17084
17088
17092
17096
17100
17104
17108
17112
17116
17120
17124
17128
17132
17136
17140
17144
17148
17152
17156
17160
17164
17168
17172
17176
17180
17184
17188
17192
17196
17200
17204
17208
17212
17216
17220
17224
17228
17232
17236
17240
17244
17248
17252
17256
17260
17264
17268
17272
17276
17280
17284
17288
17292
17296
17300
17304
17308
17312
17316
17320
17324
17328
17332
17336
17340
17344
17348
17352
17356
17360
17364
17368
17372
17376
17380
17384
17388
17392
17396
17400
17404
17408
17412
17416
17420
17424
17428
17432
17436
17440
17444
17448
17452
17456
17460
17464
17468
17472
17476
17480
17484
17488
17492
17496
17500
17504
17508
17512
17516
17520
17524
17528
17532
17536
17540
17544
17548
17552
17556
17560
17564
17568
17572
17576
17580
17584
17588
17592
17596
17600
17604
17608
17612
17616
17620
17624
17628
17632
17636
17640
17644
17648
17652
17656
17660
17664
17668
17672
17676
17680
17684
17688
17692
17696
17700
17704
17708
17712
17716
17720
17724
17728
17732
17736
17740
17744
17748
17752
17756
17760
17764
17768
17772
17776
17780
17784
17788
17792
17796
17800
17804
17808
17812
17816
17820
17824
17828
17832
17836
17840
17844
17848
17852
17856
17860
17864
17868
17872
17876
17880
17884
17888
17892
17896
17900
17904
17908
17912
17916
17920
17924
17928
17932
17936
17940
17944
17948
17952
17956
17960
17964
17968
17972
17976
17980
17984
17988
17992
17996
18000
18004
18008
18012
18016
18020
18024
18028
18032
18036
18040
18044
18048
18052
18056
18060
18064
18068
18072
18076
18080
18084
18088
18092
18096
18100
18104
18108
18112
18116
18120
18124
18128
18132
18136
18140
18144
18148
18152
18156
18160
18164
18168
18172
18176
18180
18184
18188
18192
18196
18200
18204
18208
18212
18216
18220
18224
18228
18232
18236
18240
18244
18248
18252
18256
18260
18264
18268
18272
18276
18280
18284
18288
18292
18296
18300
18304
18308
18312
18316
18320
18324
18328
18332
18336
18340
18344
18348
18352
18356
18360
18364
18368
18372
18376
18380
18384
18388
18392
18396
18400
18404
18408
18412
18416
18420
18424
18428
18432
18436
18440
18444
18448
18452
18456
18460
18464
18468
18472
18476
18480
18484
18488
18492
18496
18500
18504
18508
18512
18516
18520
18524
18528
18532
18536
18540
18544
18548
18552
18556
18560
18564
18568
18572
18576
18580
18584
18588
18592
18596
18600
18604
18608
18612
18616
18620
18624
18628
18632
18636
18640
18644
18648
18652
18656
18660
18664
18668
18672
18676
18680
18684
18688
18692
18696
18700
18704
18708
18712
18716
18720
18724
18728
18732
18736
18740
18744
18748
18752
18756
18760
18764
18768
18772
18776
18780
18784
18788
18792
18796
18800
18804
18808
18812
18816
18820
18824
18828
18832
18836
18840
18844
18848
18852
18856
18860
18864
18868
18872
18876
18880
18884
18888
18892
18896
18900
18904
18908
18912
18916
18920
18924
18928
18932
18936
18940
18944
18948
18952
18956
18960
18964
18968
18972
18976
18980
18984
18988
18992
18996
19000
19004
19008
19012
19016
19020
19024
19028
19032
19036
19040
19044
19048
19052
19056
19060
19064
19068
19072
19076
19080
19084
19088
19092
19096
19100
19104
19108
19112
19116
19120
19124
19128
19132
19136
19140
19144
19148
19152
19156
19160
19164
19168
19172
19176
19180
19184
19188
19192
19196
19200
19204
19208
19212
19216
19220
19224
19228
19232
19236
19240
19244
19248
19252
19256
19260
19264
19268
19272
19276
19280
19284
19288
19292
19296
19300
19304
19308
19312
19316
19320
19324
19328
19332
19336
19340
19344
19348
19352
19356
19360
19364
19368
19372
19376
19380
19384
19388
19392
19396
19400
19404
19408
19412
19416
19420
19424
19428
19432
19436
19440
19444
19448
19452
19456
19460
19464
19468
19472
19476
19480
19484
19488
19492
19496
19500
19504
19508
19512
19516
19520
19524
19528
19532
19536
19540
19544
19548
19552
19556
19560
19564
19568
19572
19576
19580
19584
19588
19592
19596
19600
19604
19608
19612
19616
19620
19624
19628
19632
19636
19640
19644
19648
19652
19656
19660
19664
19668
19672
19676
19680
19684
19688
19692
19696
19700
19704
19708
19712
19716
19720
19724
19728
19732
19736
19740
19744
19748
19752
19756
19760
19764
19768
19772
19776
19780
19784
19788
19792
19796
19800
19804
19808
19812
19816
19820
19824
19828
19832
19836
19840
19844
19848
19852
19856
19860
19864
19868
19872
19876
19880
19884
19888
19892
19896
19900
19904
19908
19912
19916
19920
19924
19928
19932
19936
19940
19944
19948
19952
19956
19960
19964
19968
19972
19976
19980
19984
19988
19992
19996
20000
20004
20008
20012
20016
20020
20024
20028
20032
20036
20040
20044
20048
20052
20056
20060
20064
20068
20072
20076
20080
20084
20088
20092
20096
20100
20104
20108
20112
20116
20120
20124
20128
20132
20136
20140
20144
20148
20152
20156
20160
20164
20168
20172
20176
20180
20184
20188
20192
20196
20200
20204
20208
20212
20216
20220
20224
20228
20232
20236
20240
20244
20248
20252
20256
20260
20264
20268
20272
20276
20280
20284
20288
20292
20296
20300
20304
20308
20312
20316
20320
20324
20328
20332
20336
20340
20344
20348
20352
20356
20360
20364
20368
20372
20376
20380
20384
20388
20392
20396
20400
20404
20408
20412
20416
20420
20424
20428
20432
20436
20440
20444
20448
20452
20456
20460
20464
20468
20472
20476
20480
20484
20488
20492
20496
20500
20504
20508
20512
20516
20520
20524
20528
20532
20536
20540
20544
20548
20552
20556
20560
20564
20568
20572
20576
20580
20584
20588
20592
20596
20600
20604
20608
20612
20616
20620
20624
20628
20632
20636
20640
20644
20648
20652
20656
20660
20664
20668
20672
20676
20680
20684
20688
20692
20696
20700
20704
20708
20712
20716
20720
20724
20728
20732
20736
20740
20744
20748
20752
20756
20760
20764
20768
20772
20776
20780
20784
20788
20792
20796
20800
20804
20808
20812
20816
20820
20824
20828
20832
20836
20840
20844
20848
20852
20856
20860
20864
20868
20872
20876
20880
20884
20888
20892
20896
20900
20904
20908
20912
20916
20920
20924
20928
20932
20936
20940
20944
20948
20952
20956
20960
20964
20968
20972
20976
20980
20984
20988
20992
20996
21000
21004
21008
21012
21016
21020
21024
21028
21032
21036
21040
21044
21048
21052
21056
21060
21064
21068
21072
21076
21080
21084
21088
21092
21096
21100
21104
21108
21112
21116
21120
21124
21128
21132
21136
21140
21144
21148
21152
21156
21160
21164
21168
21172
21176
21180
21184
21188
21192
21196
21200
21204
21208
21212
21216
21220
21224
21228
21232
21236
21240
21244
21248
21252
21256
21260
21264
21268
21272
21276
21280
21284
21288
21292
21296
21300
21304
21308
21312
21316
21320
21324
21328
21332
21336
21340
21344
21348
21352
21356
21360
21364
21368
21372
21376
21380
21384
21388
21392
21396
21400
21404
21408
21412
21416
21420
21424
21428
21432
21436
21440
21444
21448
21452
21456
21460
21464
21468
21472
21476
21480
21484
21488
21492
21496
21500
21504
21508
21512
21516
21520
21524
21528
21532
21536
21540
21544
21548
21552
21556
21560
21564
21568
21572
21576
21580
21584
21588
21592
21596
21600
21604
21608
21612
21616
21620
21624
21628
21632
21636
21640
21644
21648
21652
21656
21660
21664
21668
21672
21676
21680
21684
21688
21692
21696
21700
21704
21708
21712
21716
21720
21724
21728
21732
21736
21740
21744
21748
21752
21756
21760
21764
21768
21772
21776
21780
21784
21788
21792
21796
21800
21804
21808
21812
21816
21820
21824
21828
21832
21836
21840
21844
21848
21852
21856
21860
21864
21868
21872
21876
21880
21884
21888
21892
21896
21900
21904
21908
21912
21916
21920
21924
21928
21932
21936
21940
21944
21948
21952
21956
21960
21964
21968
21972
21976
21980
21984
21988
21992
21996
22000
22004
22008
22012
22016
22020
22024
22028
22032
22036
22040
22044
22048
22052
22056
22060
22064
22068
22072
22076
22080
22084
22088
22092
22096
22100
22104
22108
22112
22116
22120
22124
22128
22132
22136
22140
22144
22148
22152
22156
22160
22164
22168
22172
22176
22180
22184
22188
22192
22196
22200
22204
22208
22212
22216
22220
22224
22228
22232
22236
22240
22244
22248
22252
22256
22260
22264
22268
22272
22276
22280
22284
22288
22292
22296
22300
22304
22308
22312
22316
22320
22324
22328
22332
22336
22340
22344
22348
22352
22356
22360
22364
22368
22372
22376
22380
22384
22388
22392
22396
22400
22404
22408
22412
22416
22420
22424
22428
22432
22436
22440
22444
22448
22452
22456
22460
22464
22468
22472
22476
22480
22484
22488
22492
22496
22500
22504
22508
22512
22516
22520
22524
22528
22532
22536
22540
22544
22548
22552
22556
22560
22564
22568
22572
22576
22580
22584
22588
22592
22596
22600
22604
22608
22612
22616
22620
22624
22628
22632
22636
22640
22644
22648
22652
22656
22660
22664
22668
22672
22676
22680
22684
22688
22692
22696
22700
22704
22708
22712
22716
22720
</DataArray>
<DataArray type="Int64" Name="types" format="ascii">
9
9
9
9
9
9
9
9
9
9
9
9
9
9
9
9
9
9
9
9
9
9
9
9
9
9
9
9
9
9
9
9
9
9
9
9
9
9
9
9
9
9
9
9
9
9
9
9
9
9
9
9
9
9
9
9
9
9
9
9
9
9
9
9
9
9
9
9
9
9
9
9
9
9
9
9
9
9
9
9
9
9
9
9
9
9
9
9
9
9
9
9
9
9
9
9
9
9
9
9
9
9
9
9
9
9
9
9
9
9
9
9
9
9
9
9
9
9
9
9
9
9
9
9
9
9
9
9
9
9
9
9
9
9
9
9
9
9
9
9
9
9
9
9
9
9
9
9
9
9
9
9
9
9
9
9
9
9
9
9
9
9
9
9
9
9
9
9
9
9
9
9
9
9
9
9
9
9
9
9
9
9
9
9
9
9
9
9
9
9
9
9
9
9
9
9
9
9
9
9
9
9
9
9
9
9
9
9
9
9
9
9
9
9
9
9
9
9
9
9
9
9
9
9
9
9
9
9
9
9
9
9
9
9
9
9
9
9
9
9
9
9
9
9
9
9
9
9
9
9
9
9
9
9
9
9
9
9
9
9
9
9
9
9
9
9
9
9
9
9
9
9
9
9
9
9
9
9
9
9
9
9
9
9
9
9
9
9
9
9
9
9
9
9
9
9
9
9
9
9
9
9
9
9
9
9
9
9
9
9
9
9
9
9
9
9
9
9
9
9
9
9
9
9
9
9
9
9
9
9
9
9
9
9
9
9
9
9
9
9
9
9
9
9
9
9
9
9
9
9
9
9
9
9
9
9
9
9
9
9
9
9
9
9
9
9
9
9
9
9
9
9
9
9
9
9
9
9
9
9
9
9
9
9
9
9
9
9
9
9
9
9
9
9
9
9
9
9
9
9
9
9
9
9
9
9
9
9
9
9
9
9
9
9
9
9
9
9
9
9
9
9
9
9
9
9
9
9
9
9
9
9
9
9
9
9
9
9
9
9
9
9
9
9
9
9
9
9
9
9
9
9
9
9
9
9
9
9
9
9
9
9
9
9
9
9
9
9
9
9
9
9
9
9
9
9
9
9
9
9
9
9
9
9
9
9
9
9
9
9
9
9
9
9
9
9
9
9
9
9
9
9
9
9
9
9
9
9
9
9
9
9
9
9
9
9
9
9
9
9
9
9
9
9
9
9
9
9
9
9
9
9
9
9
9
9
9
9
9
9
9
9
9
9
9
9
9
9
9
9
9
9
9
9
9
9
9
9
9
9
9
9
9
9
9
9
9
9
9
9
9
9
9
9
9
9
9
9
9
9
9
9
9
9
9
9
9
9
9
9
9
9
9
9
9
9
9
9
9
9
9
9
9
9
9
9
9
9
9
9
9
9
9
9
9
9
9
9
9
9
9
9
9
9
9
9
9
9
9
9
9
9
9
9
9
9
9
9
9
9
9
9
9
9
9
9
9
9
9
9
9
9
9
9
9
9
9
9
9
9
9
9
9
9
9
9
9
9
9
9
9
9
9
9
9
9
9
9
9
9
9
9
9
9
9
9
9
9
9
9
9
9
9
9
9
9
9
9
9
9
9
9
9
9
9
9
9
9
9
9
9
9
9
9
9
9
9
9
9
9
9
9
9
9
9
9
9
9
9
9
9
9
9
9
9
9
9
9
9
9
9
9
9
9
9
9
9
9
9
9
9
9
9
9
9
9
9
9
9
9
9
9
9
9
9
9
9
9
9
9
9
9
9
9
9
9
9
9
9
9
9
9
9
9
9
9
9
9
9
9
9
9
9
9
9
9
9
9
9
9
9
9
9
9
9
9
9
9
9
9
9
9
9
9
9
9
9
9
9
9
9
9
9
9
9
9
9
9
9
9
9
9
9
9
9
9
9
9
9
9
9
9
9
9
9
9
9
9
9
9
9
9
9
9
9
9
9
9
9
9
9
9
9
9
9
9
9
9
9
9
9
9
9
9
9
9
9
9
9
9
9
9
9
9
9
9
9
9
9
9
9
9
9
9
9
9
9
9
9
9
9
9
9
9
9
9
9
9
9
9
9
9
9
9
9
9
9
9
9
9
9
9
9
9
9
9
9
9
9
9
9
9
9
9
9
9
9
9
9
9
9
9
9
9
9
9
9
9
9
9
9
9
9
9
9
9
9
9
9
9
9
9
9
9
9
9
9
9
9
9
9
9
9
9
9
9
9
9
9
9
9
9
9
9
9
9
9
9
9
9
9
9
9
9
9
9
9
9
9
9
9
9
9
9
9
9
9
9
9
9
9
9
9
9
9
9
9
9
9
9
9
9
9
9
9
9
9
9
9
9
9
9
9
9
9
9
9
9
9
9
9
9
9
9
9
9
9
9
9
9
9
9
9
9
9
9
9
9
9
9
9
9
9
9
9
9
9
9
9
9
9
9
9
9
9
9
9
9
9
9
9
9
9
9
9
9
9
9
9
9
9
9
9
9
9
9
9
9
9
9
9
9
9
9
9
9
9
9
9
9
9
9
9
9
9
9
9
9
9
9
9
9
9
9
9
9
9
9
9
9
9
9
9
9
9
9
9
9
9
9
9
9
9
9
9
9
9
9
9
9
9
9
9
9
9
9
9
9
9
9
9
9
9
9
9
9
9
9
9
9
9
9
9
9
9
9
9
9
9
9
9
9
9
9
9
9
9
9
9
9
9
9
9
9
9
9
9
9
9
9
9
9
9
9
9
9
9
9
9
9
9
9
9
9
9
9
9
9
9
9
9
9
9
9
9
9
9
9
9
9
9
9
9
9
9
9
9
9
9
9
9
9
9
9
9
9
9
9
9
9
9
9
9
9
9
9
9
9
9
9
9
9
9
9
9
9
9
9
9
9
9
9
9
9
9
9
9
9
9
9
9
9
9
9
9
9
9
9
9
9
9
9
9
9
9
9
9
9
9
9
9
9
9
9
9
9
9
9
9
9
9
9
9
9
9
9
9
9
9
9
9
9
9
9
9
9
9
9
9
9
9
9
9
9
9
9
9
9
9
9
9
9
9
9
9
9
9
9
9
9
9
9
9
9
9
9
9
9
9
9
9
9
9
9
9
9
9
9
9
9
9
9
9
9
9
9
9
9
9
9
9
9
9
9
9
9
9
9
9
9
9
9
9
9
9
9
9
9
9
9
9
9
9
9
9
9
9
9
9
9
9
9
9
9
9
9
9
9
9
9
9
9
9
9
9
9
9
9
9
9
9
9
9
9
9
9
9
9
9
9
9
9
9
9
9
9
9
9
9
9
9
9
9
9
9
9
9
9
9
9
9
9
9
9
9
9
9
9
9
9
9
9
9
9
9
9
9
9
9
9
9
9
9
9
9
9
9
9
9
9
9
9
9
9
9
9
9
9
9
9
9
9
9
9
9
9
9
9
9
9
9
9
9
9
9
9
9
9
9
9
9
9
9
9
9
9
9
9
9
9
9
9
9
9
9
9
9
9
9
9
9
9
9
9
9
9
9
9
9
9
9
9
9
9
9
9
9
9
9
9
9
9
9
9
9
9
9
9
9
9
9
9
9
9
9
9
9
9
9
9
9
9
9
9
9
9
9
9
9
9
9
9
9
9
9
9
9
9
9
9
9
9
9
9
9
9
9
9
9
9
9
9
9
9
9
9
9
9
9
9
9
9
9
9
9
9
9
9
9
9
9
9
9
9
9
9
9
9
9
9
9
9
9
9
9
9
9
9
9
9
9
9
9
9
9
9
9
9
9
9
9
9
9
9
9
9
9
9
9
9
9
9
9
9
9
9
9
9
9
9
9
9
9
9
9
9
9
9
9
9
9
9
9
9
9
9
9
9
9
9
9
9
9
9
9
9
9
9
9
9
9
9
9
9
9
9
9
9
9
9
9
9
9
9
9
9
9
9
9
9
9
9
9
9
9
9
9
9
9
9
9
9
9
9
9
9
9
9
9
9
9
9
9
9
9
9
9
9
9
9
9
9
9
9
9
9
9
9
9
9
9
9
9
9
9
9
9
9
9
9
9
9
9
9
9
9
9
9
9
9
9
9
9
9
9
9
9
9
9
9
9
9
9
9
9
9
9
9
9
9
9
9
9
9
9
9
9
9
9
9
9
9
9
9
9
9
9
9
9
9
9
9
9
9
9
9
9
9
9
9
9
9
9
9
9
9
9
9
9
9
9
9
9
9
9
9
9
9
9
9
9
9
9
9
9
9
9
9
9
9
9
9
9
9
9
9
9
9
9
9
9
9
9
9
9
9
9
9
9
9
9
9
9
9
9
9
9
9
9
9
9
9
9
9
9
9
9
9
9
9
9
9
9
9
9
9
9
9
9
9
9
9
9
9
9
9
9
9
9
9
9
9
9
9
9
9
9
9
9
9
9
9
9
9
9
9
9
9
9
9
9
9
9
9
9
9
9
9
9
9
9
9
9
9
9
9
9
9
9
9
9
9
9
9
9
9
9
9
9
9
9
9
9
9
9
9
9
9
9
9
9
9
9
9
9
9
9
9
9
9
9
9
9
9
9
9
9
9
9
9
9
9
9
9
9
9
9
9
9
9
9
9
9
9
9
9
9
9
9
9
9
9
9
9
9
9
9
9
9
9
9
9
9
9
9
9
9
9
9
9
9
9
9
9
9
9
9
9
9
9
9
9
9
9
9
9
9
9
9
9
9
9
9
9
9
9
9
9
9
9
9
9
9
9
9
9
9
9
9
9
9
9
9
9
9
9
9
9
9
9
9
9
9
9
9
9
9
9
9
9
9
9
9
9
9
9
9
9
9
9
9
9
9
9
9
9
9
9
9
9
9
9
9
9
9
9
9
9
9
9
9
9
9
9
9
9
9
9
9
9
9
9
9
9
9
9
9
9
9
9
9
9
9
9
9
9
9
9
9
9
9
9
9
9
9
9
9
9
9
9
9
9
9
9
9
9
9
9
9
9
9
9
9
9
9
9
9
9
9
9
9
9
9
9
9
9
9
9
9
9
9
9
9
9
9
9
9
9
9
9
9
9
9
9
9
9
9
9
9
9
9
9
9
9
9
9
9
9
9
9
9
9
9
9
9
9
9
9
9
9
9
9
9
9
9
9
9
9
9
9
9
9
9
9
9
9
9
9
9
9
9
9
9
9
9
9
9
9
9
9
9
9
9
9
9
9
9
9
9
9
9
9
9
9
9
9
9
9
9
9
9
9
9
9
9
9
9
9
9
9
9
9
9
9
9
9
9
9
9
9
9
9
9
9
9
9
9
9
9
9
9
9
9
9
9
9
9
9
9
9
9
9
9
9
9
9
9
9
9
9
9
9
9
9
9
9
9
9
9
9
9
9
9
9
9
9
9
9
9
9
9
9
9
9
9
9
9
9
9
9
9
9
9
9
9
9
9
9
9
9
9
9
9
9
9
9
9
9
9
9
9
9
9
9
9
9
9
9
9
9
9
9
9
9
9
9
9
9
9
9
9
9
9
9
9
9
9
9
9
9
9
9
9
9
9
9
9
9
9
9
9
9
9
9
9
9
9
9
9
9
9
9
9
9
9
9
9
9
9
9
9
9
9
9
9
9
9
9
9
9
9
9
9
9
9
9
9
9
9
9
9
9
9
9
9
9
9
9
9
9
9
9
9
9
9
9
9
9
9
9
9
9
9
9
9
9
9
9
9
9
9
9
9
9
9
9
9
9
9
9
9
9
9
9
9
9
9
9
9
9
9
9
9
9
9
9
9
9
9
9
9
9
9
9
9
9
9
9
9
9
9
9
9
9
9
9
9
9
9
9
9
9
9
9
9
9
9
9
9
9
9
9
9
9
9
9
9
9
9
9
9
9
9
9
9
9
9
9
9
9
9
9
9
9
9
9
9
9
9
9
9
9
9
9
9
9
9
9
9
9
9
9
9
9
9
9
9
9
9
9
9
9
9
9
9
9
9
9
9
9
9
9
9
9
9
9
9
9
9
9
9
9
9
9
9
9
9
9
9
9
9
9
9
9
9
9
9
9
9
9
9
9
9
9
9
9
9
9
9
9
9
9
9
9
9
9
9
9
9
9
9
9
9
9
9
9
9
9
9
9
9
9
9
9
9
9
9
9
9
9
9
9
9
9
9
9
9
9
9
9
9
9
9
9
9
9
9
9
9
9
9
9
9
9
9
9
9
9
9
9
9
9
9
9
9
9
9
9
9
9
9
9
9
9
9
9
9
9
9
9
9
9
9
9
9
9
9
9
9
9
9
9
9
9
9
9
9
9
9
9
9
9
9
9
9
9
9
9
9
9
9
9
9
9
9
9
9
9
9
9
9
9
9
9
9
9
9
9
9
9
9
9
9
9
9
9
9
9
9
9
9
9
9
9
9
9
9
9
9
9
9
9
9
9
9
9
9
9
9
9
9
9
9
9
9
9
9
9
9
9
9
9
9
9
9
9
9
9
9
9
9
9
9
9
9
9
9
9
9
9
9
9
9
9
9
9
9
9
9
9
9
9
9
9
9
9
9
9
9
9
9
9
9
9
9
9
9
9
9
9
9
9
9
9
9
9
9
9
9
9
9
9
9
9
9
9
9
9
9
9
9
9
9
9
9
9
9
9
9
9
9
9
9
9
9
9
9
9
9
9
9
9
9
9
9
9
9
9
9
9
9
9
9
9
9
9
9
9
9
9
9
9
9
9
9
9
9
9
9
9
9
9
9
9
9
9
9
9
9
9
9
9
9
9
9
9
9
9
9
9
9
9
9
9
9
9
9
9
9
9
9
9
9
9
9
9
9
9
9
9
9
9
9
9
9
9
9
9
9
9
9
9
9
9
9
9
9
9
9
9
9
9
9
9
9
9
9
9
9
9
9
9
9
9
9
9
9
9
9
9
9
9
9
9
9
9
9
9
9
9
9
9
9
9
9
9
9
9
9
9
9
9
9
9
9
9
9
9
9
9
9
9
9
9
9
9
9
9
9
9
9
9
9
9
9
9
9
9
9
9
9
9
9
9
9
9
9
9
9
9
9
9
9
9
9
9
9
9
9
9
9
9
9
9
9
9
9
9
9
9
9
9
9
9
9
9
9
9
9
9
9
9
9
9
9
9
9
9
9
9
9
9
9
9
9
9
9
9
9
9
9
9
9
9
9
9
9
9
9
9
9
9
9
9
9
9
9
9
9
9
9
9
9
9
9
9
9
9
9
9
9
9
9
9
9
9
9
9
9
9
9
9
9
9
9
9
9
9
9
9
9
9
9
9
9
9
9
9
9
9
9
9
9
9
9
9
9
9
9
9
9
9
9
9
9
9
9
9
9
9
9
9
9
9
9
9
9
9
9
9
9
9
9
9
9
9
9
9
9
9
9
9
9
9
9
9
9
9
9
9
9
9
9
9
9
9
9
9
9
9
9
9
9
9
9
9
9
9
9
9
9
9
9
9
9
9
9
9
9
9
9
9
9
9
9
9
9
9
9
9
9
9
9
9
9
9
9
9
9
9
9
9
9
9
9
9
9
9
9
9
9
9
9
9
9
9
9
9
9
9
9
9
9
9
9
9
9
9
9
9
9
9
9
9
9
9
9
9
9
9
9
9
9
9
9
9
9
9
9
9
9
9
9
9
9
9
9
9
9
9
9
9
9
9
9
9
9
9
9
9
9
9
9
9
9
9
9
9
9
9
9
9
9
9
9
9
9
9
9
9
9
9
9
9
9
9
9
9
9
9
9
9
9
9
9
9
9
9
9
9
9
9
9
9
9
9
9
9
9
9
9
9
9
9
9
9
9
9
9
9
9
9
9
9
9
9
9
9
9
9
9
9
9
9
9
9
9
9
9
9
9
9
9
9
9
9
9
9
9
9
9
9
9
9
9
9
9
9
9
9
9
9
9
9
9
9
9
9
9
9
9
9
9
9
9
9
9
9
9
9
9
9
9
9
9
9
9
9
9
9
9
9
9
9
9
9
9
9
9
9
9
9
9
9
9
9
9
9
9
9
9
9
9
9
9
9
9
9
9
9
9
9
9
9
9
9
9
9
9
9
9
9
9
9
9
9
9
9
9
9
9
9
9
9
9
9
9
9
9
9
9
9
9
9
9
9
9
9
9
9
9
9
9
9
9
9
9
9
9
9
9
9
9
9
9
9
9
9
9
9
9
9
9
9
9
9
9
9
9
9
9
9
9
9
9
9
9
9
9
9
9
9
9
9
9
9
9
9
9
9
9
9
9
9
9
9
9
9
9
9
9
9
9
9
9
9
9
9
9
9
9
9
9
9
9
9
9
9
9
9
9
9
9
9
9
9
9
9
9
9
9
9
9
9
9
9
9
9
9
9
9
9
9
9
9
9
9
9
9
9
9
9
9
9
9
9
9
9
9
9
9
9
9
9
9
9
9
9
9
9
9
9
9
9
9
9
9
9
9
9
9
9
9
9
9
9
9
9
9
9
9
9
9
9
9
9
9
9
9
9
9
9
9
9
9
9
9
9
9
9
9
9
9
9
9
9
9
9
9
9
9
9
9
9
9
9
9
9
9
9
9
9
9
9
9
9
9
9
9
9
9
9
9
9
9
9
9
9
9
9
9
9
9
9
9
9
9
9
9
9
9
9
9
9
9
9
9
9
9
9
9
9
9
9
9
9
9
9
9
9
9
9
9
9
9
9
9
9
9
9
9
9
9
9
9
9
9
9
9
9
9
9
9
9
9
9
9
9
9
9
9
9
9
9
9
9
9
9
9
9
9
9
9
9
9
9
9
9
9
9
9
9
9
9
9
9
9
9
9
9
9
9
9
9
9
9
9
9
9
9
9
9
9
9
9
9
9
9
9
9
9
9
9
9
9
9
9
9
9
9
9
9
9
9
9
9
9
9
9
9
9
9
9
9
9
9
9
9
9
9
9
9
9
9
9
9
9
9
9
9
9
9
9
9
9
9
9
9
9
9
9
9
9
9
9
9
9
9
9
9
9
9
9
9
9
9
9
9
9
9
9
9
9
9
9
9
9
9
9
9
9
9
9
9
9
9
9
9
9
9
9
9
9
9
9
9
9
9
9
9
9
9
9
9
9
9
9
9
9
9
9
9
9
9
9
9
9
9
9
9
9
9
9
9
9
9
9
9
9
9
9
9
9
9
9
9
9
9
9
9
9
9
9
9
9
9
9
9
9
9
9
9
9
9
9
9
9
9
9
9
9
9
9
9
9
9
9
9
9
9
9
9
9
9
9
9
9
9
9
9
9
9
9
9
9
9
9
9
9
9
9
9
9
9
9
9
9
9
9
9
9
9
9
9
9
9
9
9
9
9
9
9
9
9
9
9
9
9
9
9
9
9
9
9
9
9
9
9
9
9
9
9
9
9
9
9
9
9
9
9
9
9
9
9
9
9
9
9
9
9
9
9
9
9
9
9
9
9
9
9
9
9
9
9
9
9
9
9
9
9
9
9
9
9
9
9
9
9
9
9
9
9
9
9
9
9
9
9
9
9
9
9
9
9
9
9
9
9
9
9
9
9
9
9
9
9
9
9
9
9
9
9
9
9
9
9
9
9
9
9
9
9
9
9
9
9
9
9
9
9
9
9
9
9
9
9
9
9
9
9
9
9
9
9
9
9
9
9
9
9
9
9
9
9
9
9
9
9
9
9
9
9
9
9
9
9
9
9
9
9
9
9
9
9
9
9
9
9
9
9
9
9
9
9
9
9
9
9
9
9
9
9
9
9
9
9
9
9
9
9
9
9
9
9
9
9
9
9
9
9
9
9
9
9
9
9
9
9
9
9
9
9
9
9
9
9
9
9
9
9
9
9
9
9
9
9
9
9
9
9
9
9
9
9
9
9
9
9
9
9
9
9
9
9
9
9
9
9
9
9
9
9
9
9
9
9
9
9
9
9
9
9
9
9
9
9
9
9
9
9
9
9
9
9
9
9
9
9
9
9
9
9
9
9
9
9
9
9
9
9
9
9
9
9
9
9
9
9
9
9
9
9
9
9
9
9
9
9
9
9
9
9
9
9
9
9
9
9
9
9
9
9
9
9
9
9
9
9
9
9
9
9
9
9
9
9
9
9
9
9
9
9
9
9
9
9
9
9
9
9
9
9
9
9
9
9
9
9
9
9
9
9
9
9
9
9
9
9
9
9
9
9
9
9
9
9
9
9
9
9
9
9
9
9
9
9
9
9
9
9
9
9
9
9
9
9
9
9
9
9
9
9
9
9
9
9
9
9
9
9
9
9
9
9
9
9
9
9
9
9
9
9
9
9
9
9
9
9
9
9
9
9
9
9
9
9
9
9
9
9
9
9
9
9
9
9
9
9
9
9
9
9
9
9
9
9
9
9
9
9
9
9
9
9
9
9
9
9
9
9
9
9
9
9
9
9
9
9
9
9
9
9
9
9
9
9
9
9
9
9
9
9
9
9
9
9
9
9
9
9
9
9
9
9
9
9
9
9
9
9
9
9
9
9
9
9
9
9
9
9
9
9
9
9
9
9
9
9
9
9
9
9
9
9
9
9
9
9
9
9
9
9
9
9
9
9
9
9
9
9
9
9
9
9
9
9
9
9
9
9
9
9
9
9
9
9
9
9
9
9
9
9
9
9
9
9
9
9
9
9
9
9
9
9
9
9
9
9
9
9
9
9
9
9
9
9
9
9
9
9
9
9
9
9
9
9
9
9
9
9
9
9
9
9
9
9
9
9
9
9
9
9
9
9
9
9
9
9
9
9
9
9
9
9
9
9
9
9
9
9
9
9
9
9
9
9
9
9
9
9
9
9
9
9
9
9
9
9
9
9
9
9
9
9
9
9
9
9
9
9
9
9
9
9
9
9
9
9
9
9
9
9
9
9
9
9
9
9
9
9
9
9
9
9
9
9
9
9
9
9
9
9
9
9
9
9
9
9
9
9
9
9
9
9
9
9
9
9
9
9
9
9
9
9
9
9
9
9
9
9
9
9
9
9
9
9
9
9
9
9
9
9
9
9
9
9
9
9
9
9
9
9
9
9
9
9
9
9
9
9
9
9
9
9
9
9
9
9
9
9
9
9
9
9
9
9
9
9
9
9
9
9
9
9
9
9
9
9
9
9
9
9
9
9
9
9
9
9
9
9
9
9
9
9
9
9
9
9
9
9
9
9
9
9
9
9
9
9
9
9
9
9
9
9
9
9
9
9
9
9
9
9
9
9
9
9
9
9
9
9
9
9
9
9
9
9
9
9
9
9
9
9
9
9
9
9
9
9
9
9
9
9
9
9
9
9
9
9
9
9
9
9
9
9
9
9
9
9
9
9
9
9
9
9
9
9
9
9
9
9
9
9
9
9
9
9
9
9
9
9
9
9
9
9
9
9
9
9
9
9
9
9
9
9
9
9
9
9
9
9
9
9
9
9
9
9
9
9
9
9
9
9
9
9
9
9
9
9
9
9
9
9
9
9
9
9
9
9
9
9
9
9
9
9
9
9
9
9
9
9
9
9
9
9
9
9
9
9
9
9
9
9
9
9
9
9
9
9
9
9
9
9
9
9
9
9
9
9
9
9
9
9
9
9
9
9
9
9
9
9
9
9
9
9
9
9
9
9
9
9
9
9
9
9
9
9
9
9
9
9
9
9
9
9
9
9
9
9
9
9
9
9
9
9
9
9
9
9
9
9
9
9
9
9
9
9
9
9
9
9
9
9
9
9
9
9
9
9
9
9
9
9
9
9
9
9
9
9
9
9
9
9
9
9
9
9
9
9
9
9
9
9
9
9
9
9
9
9
9
9
9
9
9
9
9
9
9
9
9
9
9
9
9
9
9
9
9
9
9
9
9
9
9
9
9
9
9
9
9
9
9
9
9
9
9
9
9
9
9
9
9
9
9
9
9
9
9
9
9
9
9
9
9
9
9
9
9
9
9
9
9
9
9
9
9
9
9
9
9
9
9
9
9
9
9
9
9
9
9
9
9
9
9
9
9
9
9
9
9
9
9
9
9
9
9
9
9
9
9
9
9
9
9
9
9
9
9
9
9
9
9
9
9
9
9
9
9
9
9
9
9
9
9
9
9
9
9
9
9
9
9
9
9
9
9
9
9
9
9
9
9
9
9
9
9
9
9
9
9
9
9
9
9
9
9
9
9
9
9
9
9
9
9
9
9
9
9
9
9
9
9
9
9
9
9
9
9
9
9
9
9
9
9
9
9
9
9
9
9
9
9
9
9
9
9
9
9
9
9
9
9
9
9
9
9
9
9
9
9
9
9
9
9
9
9
9
9
9
9
9
9
9
9
9
9
9
9
9
9
9
9
9
9
9
9
9
9
9
9
9
9
9
9
9
9
9
9
9
9
9
9
9
9
9
9
9
9
9
9
9
9
9
9
9
9
9
9
9
9
9
9
9
9
9
9
9
9
9
9
9
9
9
9
9
9
9
9
9
9
9
9
9
9
9
9
9
9
9
9
9
9
9
9
9
9
9
9
9
9
9
9
9
9
9
9
9
9
9
9
9
9
9
9
9
9
9
9
9
9
9
9
9
9
9
9
9
9
9
9
9
9
9
9
9
9
9
9
9
9
9
9
9
9
9
9
9
9
9
9
9
9
9
9
9
9
9
9
9
9
9
9
9
9
9
9
9
9
9
9
9
9
9
9
9
9
9
9
9
9
9
9
9
9
9
9
9
9
9
9
9
9
9
9
9
9
9
9
9
9
9
9
9
9
9
9
9
9
9
9
9
9
9
9
9
9
9
9
9
9
9
9
9
9
9
9
9
9
9
9
9
9
9
9
9
9
9
9
9
9
9
9
9
9
9
9
9
9
9
9
9
9
9
9
9
9
9
9
9
9
9
9
9
9
9
9
9
9
9
9
9
</DataArray>
</Cells>
<PointData Vectors="'U'">
<DataArray type="Float64" Name="U" NumberOfComponents="2" ComponentName0="U1" ComponentName1="U2" format="ascii">
-0.6341878333230E-37 -0.1597463583856E-36
 0.1463041914418E-38 -0.4382037657166E-37
-0.2484499948564E-37  0.6291965341809E-37
-0.4464359730408E-01 -0.4411206208058E-01
-0.3784554051680E-01 -0.1996716948880E-01
-0.3280973087623E-01  0.1742726175797E-02
-0.3210748645239E-01  0.1269611414711E-01
-0.9225701740112E+00 -0.6796800622121E+00
-0.5326183037462E+00  0.1937392416814E+00
-0.5109734277831E+00 -0.3863552515347E+00
-0.2442428397877E+00 -0.4534131350476E-01
-0.2611853875669E-37 -0.2087053254652E-36
-0.2749191186050E-37 -0.1859224283338E-36
-0.2544427044345E-37 -0.1734875730544E-36
-0.2309895151272E-37 -0.1648991355281E-36
-0.2094187705760E-37 -0.1581921623406E-36
-0.1902548313807E-37 -0.1525641579733E-36
-0.1732464188972E-37 -0.1476190987257E-36
-0.1580515124252E-37 -0.1431362373340E-36
-0.1443711590006E-37 -0.1389818156548E-36
-0.1319652983604E-37 -0.1350696985725E-36
-0.1206443119981E-37 -0.1313417670080E-36
-0.1102578244927E-37 -0.1277573180561E-36
-0.1006853071137E-37 -0.1242869615314E-36
-0.9182895070001E-38 -0.1209089247453E-36
-0.8360840199919E-38 -0.1176067214107E-36
-0.7595688237358E-38 -0.1143676294475E-36
-0.6881830488961E-38 -0.1111816674145E-36
-0.6214510871740E-38 -0.1080408885789E-36
-0.5589662033937E-38 -0.1049388842085E-36
-0.5003932276515E-38 -0.1018705109671E-36
-0.4453979007297E-38 -0.9883116850547E-37
-0.3937234550523E-38 -0.9581745166223E-37
-0.3451389114364E-38 -0.9282631183098E-37
-0.2994370882131E-38 -0.8985516280216E-37
-0.2564336274057E-38 -0.8690179022389E-37
-0.2159639020774E-38 -0.8396427998004E-37
-0.1778803206012E-38 -0.8104096251136E-37
-0.1420501137469E-38 -0.7813036905637E-37
-0.1083534957955E-38 -0.7523119613095E-37
-0.7668212199941E-39 -0.7234227660978E-37
-0.4693782933359E-39 -0.6946255623848E-37
-0.1903156529437E-39 -0.6659107385575E-37
 0.7117490737372E-40 -0.6372694525077E-37
 0.3158265698408E-39 -0.6086934943332E-37
 0.5443036085106E-39 -0.5801751706682E-37
 0.7572062826857E-39 -0.5517072076522E-37
 0.9550749013968E-39 -0.5232826661162E-37
 0.1138392998001E-38 -0.4948948705423E-37
 0.1307589775214E-38 -0.4665373463421E-37
 0.1605074761951E-38 -0.4098879000835E-37
 0.1733962955222E-38 -0.3815835778551E-37
 0.1849930521907E-38 -0.3532846466160E-37
 0.1953150457386E-38 -0.3249849388889E-37
 0.2043743755974E-38 -0.2966782407062E-37
 0.2121777982709E-38 -0.2683582613976E-37
 0.2187265199343E-38 -0.2400186060649E-37
 0.2240159370287E-38 -0.2116527463792E-37
 0.2280353110549E-38 -0.1832539928888E-37
 0.2307673647445E-38 -0.1548154650143E-37
 0.2321878103600E-38 -0.1263300579875E-37
 0.2322647673983E-38 -0.9779040864264E-38
 0.2309580816884E-38 -0.6918885222782E-38
 0.2282185139407E-38 -0.4051737562258E-38
 0.2239867612847E-38 -0.1176755864189E-38
 0.2181923130891E-38  0.1706949868089E-38
 0.2107520589865E-38  0.4600326365032E-38
 0.2015686438859E-38  0.7504389098619E-38
 0.1905285920593E-38  0.1042023861678E-37
 0.1775089318094E-38  0.1334911794020E-37
 0.1623460636925E-38  0.1629212312281E-37
 0.1448498876319E-38  0.1925096715605E-37
 0.1248201824045E-38  0.2222727499716E-37
 0.1020110431868E-38  0.2522298632345E-37
 0.7613269400244E-39  0.2824039251396E-37
 0.4684185974612E-39  0.3128225596755E-37
 0.1372900213913E-39  0.3435198625003E-37
-0.2369864940626E-39  0.3745390262479E-37
-0.6603993398199E-39  0.4059363503806E-37
-0.1140308472595E-38  0.4377875479159E-37
-0.1685871711693E-38  0.4701980193385E-37
-0.2308625820610E-38  0.5033203056456E-37
-0.3023246254746E-38  0.5373852954141E-37
-0.3848390854313E-38  0.5727617402781E-37
-0.4806973662183E-38  0.6100796576779E-37
-0.5922710220790E-38  0.6505166225821E-37
-0.7197676299256E-38  0.6965740682079E-37
-0.8487146323173E-38  0.7547030913955E-37
-0.8701619051513E-38  0.8473697781136E-37
-0.4365928462833E-01 -0.4032899217121E-01
-0.4296896664275E-01 -0.3786818860367E-01
-0.4240758764954E-01 -0.3599029562104E-01
-0.4193910775493E-01 -0.3442610589529E-01
-0.4153593494010E-01 -0.3305793008939E-01
-0.4117913068664E-01 -0.3182438119569E-01
-0.4085586773642E-01 -0.3068997680906E-01
-0.4055754927203E-01 -0.2963247838630E-01
-0.4027837158563E-01 -0.2863700060472E-01
-0.4001435164070E-01 -0.2769302255840E-01
-0.3976269588984E-01 -0.2679276761354E-01
-0.3952139820688E-01 -0.2593027306633E-01
-0.3928898468458E-01 -0.2510082909743E-01
-0.3906435059326E-01 -0.2430062396943E-01
-0.3884665574629E-01 -0.2352651068254E-01
-0.3863525833758E-01 -0.2277584847106E-01
-0.3842967561598E-01 -0.2204638929524E-01
-0.3822957318225E-01 -0.2133619622854E-01
-0.3803477297219E-01 -0.2064355864145E-01
-0.3766091132406E-01 -0.1930994851634E-01
-0.3747955078831E-01 -0.1866505119639E-01
-0.3730146729218E-01 -0.1803201865104E-01
-0.3712667608582E-01 -0.1741005893462E-01
-0.3695516232787E-01 -0.1679837751411E-01
-0.3678689427326E-01 -0.1619621676730E-01
-0.3662183279846E-01 -0.1560287155897E-01
-0.3645993635354E-01 -0.1501768591908E-01
-0.3630116476397E-01 -0.1444005179390E-01
-0.3614548117101E-01 -0.1386940602486E-01
-0.3599285212052E-01 -0.1330522418200E-01
-0.3584324846028E-01 -0.1274701974376E-01
-0.3569664449725E-01 -0.1219433843232E-01
-0.3555301788036E-01 -0.1164675619689E-01
-0.3541234920155E-01 -0.1110387681437E-01
-0.3527462119089E-01 -0.1056532831665E-01
-0.3513981859188E-01 -0.1003076228680E-01
-0.3500792735299E-01 -0.9499850652547E-02
-0.3487893432906E-01 -0.8972284535180E-02
-0.3475282682348E-01 -0.8447772516682E-02
-0.3462959217574E-01 -0.7926039077567E-02
-0.3450921742103E-01 -0.7406823305023E-02
-0.3439168898502E-01 -0.6889877714672E-02
-0.3427699238254E-01 -0.6374967037647E-02
-0.3416511194964E-01 -0.5861867084668E-02
-0.3405603076143E-01 -0.5350364408501E-02
-0.3394973019948E-01 -0.4840254283616E-02
-0.3384619010083E-01 -0.4331341340505E-02
-0.3374538841071E-01 -0.3823437826354E-02
-0.3364730115839E-01 -0.3316363338210E-02
-0.3355190256390E-01 -0.2809945270467E-02
-0.3345916461935E-01 -0.2304016459973E-02
-0.3336905759966E-01 -0.1798417635156E-02
-0.3328154983425E-01 -0.1292995637836E-02
-0.3319660824712E-01 -0.7876048283189E-03
-0.3311419969151E-01 -0.2821099604219E-03
-0.3303429297943E-01  0.2236140863596E-03
-0.3295686924168E-01  0.7296704241996E-03
-0.3288193308356E-01  0.1236136491614E-02
-0.3273878691472E-01  0.2253265621982E-02
-0.3267040146997E-01  0.2765244631123E-02
-0.3260436798563E-01  0.3278466971279E-02
-0.3254065579852E-01  0.3793010596513E-02
-0.3247925851336E-01  0.4308974068932E-02
-0.3242019351404E-01  0.4826469747066E-02
-0.3236350274408E-01  0.5345619005498E-02
-0.3230926181583E-01  0.5866554934137E-02
-0.3225759474390E-01  0.6389428847952E-02
-0.3220869621346E-01  0.6914423986841E-02
-0.3216286497715E-01  0.7441780473230E-02
-0.3212055432003E-01  0.7971840112018E-02
-0.3208244854165E-01  0.8505129252280E-02
-0.3204957820856E-01  0.9042514274820E-02
-0.3202348879277E-01  0.9585504440866E-02
-0.3200646947866E-01  0.1013686850248E-01
-0.3200179990564E-01  0.1070196514347E-01
-0.3201383559026E-01  0.1129187381859E-01
-0.3204696966930E-01  0.1193247595115E-01
-0.1904456096831E+00 -0.1420991343057E+00
-0.2642939383016E+00 -0.2266339333469E+00
-0.3233428013206E+00 -0.2968216654456E+00
-0.3752258483841E+00 -0.3614313055225E+00
-0.4239909557185E+00 -0.4222039386823E+00
-0.4718900451665E+00 -0.4782032851766E+00
-0.5196069678169E+00 -0.5256936527011E+00
-0.5664429295741E+00 -0.5648390880634E+00
-0.6118850630455E+00 -0.5975366006910E+00
-0.6557777583305E+00 -0.6249597128852E+00
-0.6979687078401E+00 -0.6476334038244E+00
-0.7381773840202E+00 -0.6657709947103E+00
-0.7760426951174E+00 -0.6796649671392E+00
-0.8111142006125E+00 -0.6894954621974E+00
-0.8428264583091E+00 -0.6953727933498E+00
-0.8706060958125E+00 -0.6976562951792E+00
-0.8940613548506E+00 -0.6972609848009E+00
-0.9115910160519E+00 -0.6926367160222E+00
-0.9212128009794E+00 -0.6848439072600E+00
-0.9203781793809E+00 -0.6806500342290E+00
-0.9160840865551E+00 -0.6863911039627E+00
-0.9110990893060E+00 -0.6947446032446E+00
-0.9063876686121E+00 -0.7030421770358E+00
-0.9015753857700E+00 -0.7095547793986E+00
-0.8957239763407E+00 -0.7134097864563E+00
-0.8879430515099E+00 -0.7141618992041E+00
-0.8774888297784E+00 -0.7116724946042E+00
-0.8638897828196E+00 -0.7060287774211E+00
-0.8470467940055E+00 -0.6973995686502E+00
-0.8274299552724E+00 -0.6859338109666E+00
-0.8057949291087E+00 -0.6714978871391E+00
-0.7828403772899E+00 -0.6538303340537E+00
-0.7591492381245E+00 -0.6327481048385E+00
-0.7352126645886E+00 -0.6081598794199E+00
-0.7114585065290E+00 -0.5800472990227E+00
-0.6882716109785E+00 -0.5484547677770E+00
-0.6660076823439E+00 -0.5134894557227E+00
-0.6450054287566E+00 -0.4753291168931E+00
-0.6256020415873E+00 -0.4342381317377E+00
-0.6081114651020E+00 -0.3905847866631E+00
-0.5926953202643E+00 -0.3448454077159E+00
-0.5794001334674E+00 -0.2976984243615E+00
-0.5681929639836E+00 -0.2501202518446E+00
-0.5590117485355E+00 -0.2035353542934E+00
-0.5519217430212E+00 -0.1601705621825E+00
-0.5471776276555E+00 -0.1226217582229E+00
-0.5445588370802E+00 -0.9064201328241E-01
-0.5436596729827E+00 -0.6213262280283E-01
-0.5444422589476E+00 -0.3598354946357E-01
-0.5465626074819E+00 -0.1144464659505E-01
-0.5493816230694E+00  0.1212506538232E-01
-0.5523175087330E+00  0.3520080584608E-01
-0.5548112598393E+00  0.5811948966868E-01
-0.5563423134293E+00  0.8107709280378E-01
-0.5563451094051E+00  0.1041391533553E+00
-0.5541253023462E+00  0.1272158759541E+00
-0.5495163377162E+00  0.1500653415193E+00
-0.5425231394872E+00  0.1724152441202E+00
-0.5079934040398E+00  0.2204350174001E+00
-0.4752690765792E+00  0.2373171204284E+00
-0.4383902401094E+00  0.2434239772838E+00
-0.4006850732560E+00  0.2428023416514E+00
-0.3632663045074E+00  0.2399476629014E+00
-0.3264369765480E+00  0.2344105150263E+00
-0.2905460850559E+00  0.2264046483001E+00
-0.2559035115594E+00  0.2162531462685E+00
-0.2227958514658E+00  0.2041398822443E+00
-0.1915043198358E+00  0.1901812083888E+00
-0.1622828580809E+00  0.1746003473863E+00
-0.1353828723022E+00  0.1575136178656E+00
-0.1111132563337E+00  0.1388815136023E+00
-0.8995454406628E-01  0.1185791337633E+00
-0.7243779349209E-01  0.9721864465200E-01
-0.5880228849376E-01  0.7645802260064E-01
-0.4930588600690E-01  0.5696045457981E-01
-0.4390175553759E-01  0.3921935906017E-01
-0.4116911802490E-01  0.2381335100671E-01
-0.6314052661957E-03 -0.1177924132066E-02
-0.1041507442553E-02 -0.2064820160337E-02
-0.1407082936328E-02 -0.2914249712174E-02
-0.1757267182805E-02 -0.3741086984487E-02
-0.2110833504229E-02 -0.4556007394714E-02
-0.2476908183266E-02 -0.5363727047106E-02
-0.2861743534317E-02 -0.6166672984078E-02
-0.3269413001695E-02 -0.6966213838644E-02
-0.3702790933197E-02 -0.7763135865747E-02
-0.4163916585134E-02 -0.8557918697676E-02
-0.4654260454351E-02 -0.9350877176396E-02
-0.5174881875326E-02 -0.1014224742899E-01
-0.5726540182106E-02 -0.1093224351650E-01
-0.6309770901903E-02 -0.1172109430424E-01
-0.6924941992083E-02 -0.1250907162671E-01
-0.7572298461937E-02 -0.1329651635001E-01
-0.8252004923786E-02 -0.1408387056643E-01
-0.8964142924852E-02 -0.1487166751980E-01
-0.9708796781360E-02 -0.1566063056276E-01
-0.1048601759845E-01 -0.1645164948175E-01
-0.1129587740094E-01 -0.1724587938294E-01
-0.1213848439539E-01 -0.1804484554889E-01
-0.1301401922585E-01 -0.1885073529524E-01
-0.1392312294108E-01 -0.1966722555710E-01
-0.1486752551535E-01 -0.2049978300568E-01
-0.1584974384151E-01 -0.2135357087402E-01
-0.1687252299056E-01 -0.2223269178704E-01
-0.1793863312067E-01 -0.2314051694109E-01
-0.1905100942064E-01 -0.2408037782282E-01
-0.2021309708448E-01 -0.2505628690752E-01
-0.2142933218627E-01 -0.2607352800754E-01
-0.2270576434727E-01 -0.2713909451118E-01
-0.2405068778721E-01 -0.2826151922343E-01
-0.2547497988467E-01 -0.2944989684586E-01
-0.2699361379638E-01 -0.3071656744278E-01
-0.2862851717964E-01 -0.3208227901987E-01
-0.3041717966177E-01 -0.3358115590419E-01
-0.3241337365650E-01 -0.3527075652511E-01
-0.3478111289512E-01 -0.3725880525644E-01
-0.3755798967680E-01 -0.3992233960306E-01
-0.3043347480946E-01  0.1212629609493E-01
-0.2922116252356E-01  0.1172371077352E-01
-0.2803372811072E-01  0.1140936031270E-01
-0.2686804932608E-01  0.1113487715511E-01
-0.2570959491019E-01  0.1088465355032E-01
-0.2455600291601E-01  0.1064946246665E-01
-0.2340688260070E-01  0.1042346405519E-01
-0.2226367420193E-01  0.1020311173117E-01
-0.2112866473863E-01  0.9986608188667E-02
-0.2000468299944E-01  0.9771877585818E-02
-0.1889475215949E-01  0.9556507562580E-02
-0.1780189499100E-01  0.9338857465324E-02
-0.1672903988065E-01  0.9117890190501E-02
-0.1567892089433E-01  0.8892909291027E-02
-0.1465396496400E-01  0.8663249829362E-02
-0.1365619930935E-01  0.8427956795347E-02
-0.1268720400484E-01  0.8185593602676E-02
-0.1174819790219E-01  0.7934349156817E-02
-0.1084028124246E-01  0.7672744347700E-02
-0.9964636250858E-02  0.7400665410931E-02
-0.9122417843538E-02  0.7118477688522E-02
-0.8314663066758E-02  0.6826641452602E-02
-0.7542303065400E-02  0.6525642580503E-02
-0.6806182447719E-02  0.6215973916961E-02
-0.6107038621908E-02  0.5898113066812E-02
-0.5445572653814E-02  0.5572545897783E-02
-0.4822393269343E-02  0.5239741871053E-02
-0.4238052157718E-02  0.4900172397646E-02
-0.3693033625985E-02  0.4554313799159E-02
-0.3187744982243E-02  0.4202654056556E-02
-0.2722500331431E-02  0.3845700958517E-02
-0.2297492972870E-02  0.3483989943417E-02
-0.1912748580786E-02  0.3118088557610E-02
-0.1568055048316E-02  0.2748596567129E-02
-0.1262839838470E-02  0.2376135837026E-02
-0.9959927400299E-03  0.2001308252065E-02
-0.7654141898505E-03  0.1624613196798E-02
-0.5676091683151E-03  0.1246158765166E-02
-0.3946431406898E-03  0.8645524016618E-03
-0.2333286244205E-03  0.4789760481030E-03
-0.5037575148862E+00 -0.3822060581933E+00
-0.4963566078516E+00 -0.3778253724873E+00
-0.4887842483416E+00 -0.3731886393985E+00
-0.4810566157490E+00 -0.3682737928874E+00
-0.4731915618863E+00 -0.3630614853647E+00
-0.4652081191113E+00 -0.3575353523469E+00
-0.4571262475202E+00 -0.3516820206516E+00
-0.4489664789527E+00 -0.3454910208391E+00
-0.4407497456620E+00 -0.3389548591320E+00
-0.4324971509172E+00 -0.3320689998072E+00
-0.4242298407976E+00 -0.3248318825026E+00
-0.4159689209576E+00 -0.3172448132083E+00
-0.4077354413273E+00 -0.3093120976176E+00
-0.3995503436596E+00 -0.3010412453568E+00
-0.3914343406493E+00 -0.2924430555546E+00
-0.3834077364999E+00 -0.2835316118498E+00
-0.3754902258461E+00 -0.2743242275126E+00
-0.3677006673599E+00 -0.2648413318356E+00
-0.3600568430548E+00 -0.2551063000795E+00
-0.3525752112822E+00 -0.2451452239637E+00
-0.3452706624887E+00 -0.2349866206162E+00
-0.3381562805891E+00 -0.2246611193612E+00
-0.3312431246075E+00 -0.2142011308352E+00
-0.3245400217991E+00 -0.2036404040237E+00
-0.3180533998851E+00 -0.1930135226099E+00
-0.3117871739887E+00 -0.1823553561470E+00
-0.3057426993036E+00 -0.1717004640566E+00
-0.2999188058035E+00 -0.1610824471769E+00
-0.2943119164124E+00 -0.1505332621387E+00
-0.2889162493928E+00 -0.1400826114415E+00
-0.2837240427633E+00 -0.1297575429243E+00
-0.2787257985547E+00 -0.1195821717723E+00
-0.2739106072044E+00 -0.1095772585763E+00
-0.2692665598319E+00 -0.9976000188095E-01
-0.2647811243296E+00 -0.9014388316045E-01
-0.2604415023649E+00 -0.8073888220416E-01
-0.2562347200798E+00 -0.7155184552957E-01
-0.2521471124604E+00 -0.6258698102291E-01
-0.2481625252515E+00 -0.5384691263211E-01
-0.4876334220254E+00 -0.3634829330197E+00
-0.4641224807751E+00 -0.3407056582434E+00
-0.4404139777111E+00 -0.3180360636884E+00
-0.4164867473392E+00 -0.2954981063827E+00
-0.3923331234165E+00 -0.2731195327839E+00
-0.3679533170871E+00 -0.2509325574709E+00
-0.3433525411279E+00 -0.2289804928724E+00
-0.3185493703923E+00 -0.2073244150306E+00
-0.2935826529757E+00 -0.1860488553459E+00
-0.2685157189667E+00 -0.1652649461016E+00
-0.2434326690866E+00 -0.1451070146514E+00
-0.2184273528224E+00 -0.1257247670184E+00
-0.1935961718773E+00 -0.1072782860212E+00
-0.1690443409281E+00 -0.8993928098219E-01
-0.1449034434772E+00 -0.7389325045728E-01
-0.1213410104096E+00 -0.5933655946367E-01
-0.9855668102288E-01 -0.4647306844190E-01
-0.7680489367383E-01 -0.3550973785437E-01
-0.5642445796155E-01 -0.2663598343890E-01
-0.2243399439351E+00 -0.4206656642760E-01
-0.2049703892287E+00 -0.3887302912407E-01
-0.1861785251315E+00 -0.3570978209930E-01
-0.1680082368565E+00 -0.3259110346508E-01
-0.1505074154095E+00 -0.2954381381366E-01
-0.1337267150499E+00 -0.2659310760648E-01
-0.1177305993835E+00 -0.2375880150745E-01
-0.1025943919841E+00 -0.2105294433154E-01
-0.8840299115900E-01 -0.1847858971265E-01
-0.7525157719974E-01 -0.1603129379283E-01
-0.6324754154158E-01 -0.1370451408071E-01
-0.5251293739258E-01 -0.1149590160069E-01
-0.4318690587758E-01 -0.9409528124520E-02
-0.3542663552976E-01 -0.7452832351068E-02
-0.2940787795721E-01 -0.5632592337050E-02
-0.2532286413091E-01 -0.3951384096626E-02
-0.2337606070885E-01 -0.2400745275132E-02
-0.2379350216902E-01 -0.9579790987970E-03
-0.2683729361657E-01  0.4112409511423E-03
-0.5415933921329E+00 -0.4121588675585E+00
-0.5721639478633E+00 -0.4377219326712E+00
-0.6025284945135E+00 -0.4628324196102E+00
-0.6325262561396E+00 -0.4872860271975E+00
-0.6619946489433E+00 -0.5108864218515E+00
-0.6907694097263E+00 -0.5334461242497E+00
-0.7186841654421E+00 -0.5547883626939E+00
-0.7455700012185E+00 -0.5747491423433E+00
-0.7712549958315E+00 -0.5931794049155E+00
-0.7955636625919E+00 -0.6099473150635E+00
-0.8183162866593E+00 -0.6249408708802E+00
-0.8393282509787E+00 -0.6380711886518E+00
-0.8584095949260E+00 -0.6492769944991E+00
-0.8753652805714E+00 -0.6585310911378E+00
-0.8899969939205E+00 -0.6658498898114E+00
-0.9021078795556E+00 -0.6713075958574E+00
-0.9115127594519E+00 -0.6750575837382E+00
-0.9180596171148E+00 -0.6773659071978E+00
-0.9216791573750E+00 -0.6786678629167E+00
-0.2563362134971E+00 -0.3596805983479E-01
-0.2690867464045E+00 -0.2589159374938E-01
-0.2824818115563E+00 -0.1523725679691E-01
-0.2964524577883E+00 -0.4118220721283E-02
-0.3109161192529E+00  0.7364007753958E-02
-0.3257812051066E+00  0.1911664640746E-01
-0.3409499043964E+00  0.3105809306884E-01
-0.3563212656443E+00  0.4312065833434E-01
-0.3717952697537E+00  0.5525315237221E-01
-0.3872776110040E+00  0.6742270122785E-01
-0.4026847257010E+00  0.7961539081406E-01
-0.4179484569284E+00  0.9183538760935E-01
-0.4330196243314E+00  0.1041022975551E+00
-0.4478697217995E+00  0.1164467431673E+00
-0.4624900979158E+00  0.1289044940796E+00
-0.4768883755893E+00  0.1415099148501E+00
-0.4910824730456E+00  0.1542897770650E+00
-0.5050932292089E+00  0.1672584083602E+00
-0.5189364574075E+00  0.1804141077991E+00
-0.5221590405780E-03 -0.9946481406435E-03
-0.9622513614421E-03 -0.1930796506680E-02
-0.1327241166820E-02 -0.2784651195521E-02
-0.1680500538087E-02 -0.3612931552846E-02
-0.2035497736979E-02 -0.4424909063305E-02
-0.2402988244279E-02 -0.5227199750106E-02
-0.2789097025773E-02 -0.6022987514503E-02
-0.3198049539683E-02 -0.6814158398113E-02
-0.3632750425601E-02 -0.7601838543777E-02
-0.4095267993168E-02 -0.8386744763180E-02
-0.4587084756329E-02 -0.9169362585734E-02
-0.5109265555700E-02 -0.9950053950782E-02
-0.5662569887207E-02 -0.1072912714813E-01
-0.6247529924024E-02 -0.1150688216483E-01
-0.6864507504972E-02 -0.1228364440728E-01
-0.7513739204632E-02 -0.1305979439504E-01
-0.8195378980694E-02 -0.1383580240487E-01
-0.8909495284818E-02 -0.1461221992473E-01
-0.9656156416520E-02 -0.1538977901477E-01
-0.1043539327931E-01 -0.1616936869181E-01
-0.1124725118472E-01 -0.1695213145299E-01
-0.1209179842142E-01 -0.1773956573682E-01
-0.1296916781600E-01 -0.1853370155973E-01
-0.1387998569443E-01 -0.1933737211622E-01
-0.1482604003594E-01 -0.2015489519259E-01
-0.1580994852955E-01 -0.2099090416835E-01
-0.1683453830881E-01 -0.2184948120967E-01
-0.1790262113018E-01 -0.2273413258855E-01
-0.1901714128938E-01 -0.2364819497824E-01
-0.2018154509669E-01 -0.2459537732901E-01
-0.2140029363212E-01 -0.2558025775732E-01
-0.2267952213805E-01 -0.2660863427705E-01
-0.2402760182491E-01 -0.2768790211085E-01
-0.2545543900304E-01 -0.2882621838003E-01
-0.2697784064916E-01 -0.3003328824089E-01
-0.2861778369545E-01 -0.3132420535092E-01
-0.3040968824819E-01 -0.3272328579371E-01
-0.3242723521419E-01 -0.3426111547869E-01
-0.3474672692852E-01 -0.3603294160261E-01
-0.3793587888709E-01 -0.3792537078474E-01
-0.4458434032561E-03 -0.9005034661369E-03
-0.8777932913261E-03 -0.1806996504748E-02
-0.1249566447147E-02 -0.2664892777290E-02
-0.1604086204133E-02 -0.3489429828408E-02
-0.1960958715863E-02 -0.4296712215150E-02
-0.2329848508872E-02 -0.5092424658134E-02
-0.2717309492501E-02 -0.5880377596236E-02
-0.3127583112714E-02 -0.6662728547140E-02
-0.3563635370393E-02 -0.7440850133206E-02
-0.4027558403370E-02 -0.8215637449104E-02
-0.4520850482312E-02 -0.8987712612898E-02
-0.5044583379668E-02 -0.9757541227558E-02
-0.5599518444576E-02 -0.1052551058459E-01
-0.6186185860278E-02 -0.1129198032680E-01
-0.6804942603122E-02 -0.1205731986372E-01
-0.7456017974914E-02 -0.1282194042156E-01
-0.8139556499991E-02 -0.1358633083083E-01
-0.8855614863191E-02 -0.1435104975302E-01
-0.9604247072823E-02 -0.1511682304435E-01
-0.1038546652025E-01 -0.1588451761798E-01
-0.1119929638072E-01 -0.1665522947981E-01
-0.1204578077243E-01 -0.1743035384481E-01
-0.1292507557328E-01 -0.1821162172276E-01
-0.1383787221081E-01 -0.1900123163731E-01
-0.1478598117580E-01 -0.1980274790407E-01
-0.1577202126820E-01 -0.2062032141991E-01
-0.1679884319305E-01 -0.2145786482297E-01
-0.1786929594671E-01 -0.2231882538073E-01
-0.1898637091435E-01 -0.2320638434903E-01
-0.2015357636257E-01 -0.2412385153894E-01
-0.2137547207647E-01 -0.2507506816149E-01
-0.2265829483428E-01 -0.2606477532805E-01
-0.2401047969583E-01 -0.2709911573642E-01
-0.2544305462722E-01 -0.2818453921710E-01
-0.2697143925360E-01 -0.2932746341583E-01
-0.2861873514539E-01 -0.3053732545581E-01
-0.3042451483537E-01 -0.3182470288654E-01
-0.3245324367540E-01 -0.3320946407743E-01
-0.3484542786596E-01 -0.3466916663892E-01
-0.3817884925334E-01 -0.3610640211072E-01
-0.3900053143676E-03 -0.8405820240202E-03
-0.8001334960972E-03 -0.1707492322375E-02
-0.1173135764814E-02 -0.2553757528253E-02
-0.1529255318596E-02 -0.3371943431724E-02
-0.1887456075737E-02 -0.4171973544197E-02
-0.2257733050059E-02 -0.4959886022761E-02
-0.2646504460365E-02 -0.5739186205781E-02
-0.3058098742104E-02 -0.6512185079857E-02
-0.3495501374762E-02 -0.7280368329936E-02
-0.3960828291358E-02 -0.8044748642492E-02
-0.4455589688060E-02 -0.8806044712885E-02
-0.4980864018042E-02 -0.9564800768767E-02
-0.5537414608709E-02 -0.1032146573011E-01
-0.6125770307023E-02 -0.1107644602045E-01
-0.6746284115141E-02 -0.1183014452713E-01
-0.7399179201291E-02 -0.1258299355953E-01
-0.8084592098198E-02 -0.1333549061049E-01
-0.8802569661288E-02 -0.1408819016890E-01
-0.9553154492944E-02 -0.1484179731827E-01
-0.1033634721504E-01 -0.1559713659332E-01
-0.1115215830639E-01 -0.1635522504536E-01
-0.1200063622288E-01 -0.1711729736891E-01
-0.1288199829232E-01 -0.1788476708085E-01
-0.1379701791306E-01 -0.1865934049830E-01
-0.1474751256675E-01 -0.1944403093211E-01
-0.1573606292628E-01 -0.2024256418198E-01
-0.1676551022631E-01 -0.2105859836214E-01
-0.1783873795051E-01 -0.2189539203923E-01
-0.1895880931325E-01 -0.2275586002788E-01
-0.2012933868826E-01 -0.2364284938679E-01
-0.2135502298745E-01 -0.2455947222105E-01
-0.2264222843872E-01 -0.2550945668573E-01
-0.2399950756028E-01 -0.2649758589445E-01
-0.2543825101990E-01 -0.2752826325504E-01
-0.2697451171567E-01 -0.2860463364147E-01
-0.2863318105947E-01 -0.2972973911872E-01
-0.3045533459210E-01 -0.3090573850474E-01
-0.3251265965038E-01 -0.3212605844593E-01
-0.3498402613889E-01 -0.3333615981811E-01
-0.3828957627944E-01 -0.3452929843759E-01
-0.3469969538772E-03 -0.7973017677436E-03
-0.7316706507413E-03 -0.1626847624721E-02
-0.1099985731240E-02 -0.2453216320494E-02
-0.1456411428832E-02 -0.3260531942435E-02
-0.1815465922484E-02 -0.4051238288736E-02
-0.2186856907517E-02 -0.4829922298864E-02
-0.2576836529876E-02 -0.5599702976973E-02
-0.2989692925647E-02 -0.6362750617312E-02
-0.3428416053800E-02 -0.7120569170872E-02
-0.3895126730996E-02 -0.7874217107824E-02
-0.4391341314613E-02 -0.8624469223836E-02
-0.4918141455535E-02 -0.9371921112255E-02
-0.5476291241232E-02 -0.1011706469806E-01
-0.6066317948620E-02 -0.1086033934464E-01
-0.6688571082475E-02 -0.1160217026048E-01
-0.7343268706082E-02 -0.1234300086277E-01
-0.8030540976790E-02 -0.1308332734392E-01
-0.8750427362250E-02 -0.1382368892597E-01
-0.9502962896881E-02 -0.1456475627328E-01
-0.1028814181548E-01 -0.1530729334822E-01
-0.1110597527757E-01 -0.1605221153062E-01
-0.1195654020190E-01 -0.1680055880978E-01
-0.1284013158571E-01 -0.1755345040132E-01
-0.1375760213680E-01 -0.1831219796123E-01
-0.1471076899535E-01 -0.1907938009431E-01
-0.1570216299004E-01 -0.1985834038240E-01
-0.1673460246698E-01 -0.2065243813240E-01
-0.1781100489643E-01 -0.2146466165190E-01
-0.1893452168643E-01 -0.2229758829089E-01
-0.2010890005171E-01 -0.2315357104099E-01
-0.2133899871070E-01 -0.2403501015287E-01
-0.2263134530096E-01 -0.2494465083093E-01
-0.2399470704746E-01 -0.2588588339435E-01
-0.2544092762342E-01 -0.2686108542948E-01
-0.2698702152402E-01 -0.2787016553697E-01
-0.2865945047207E-01 -0.2891128995177E-01
-0.3050161737143E-01 -0.2997835323544E-01
-0.3259415593606E-01 -0.3104999462905E-01
-0.3511061968017E-01 -0.3208671691623E-01
-0.3830246809104E-01 -0.3314244363089E-01
-0.3124319912673E-03 -0.7633170703126E-03
-0.6718824767601E-03 -0.1559537105039E-02
-0.1031441877256E-02 -0.2362760425854E-02
-0.1386169570724E-02 -0.3155437062969E-02
-0.1745349227891E-02 -0.3934699249370E-02
-0.2117470394294E-02 -0.4702798931847E-02
-0.2508460705058E-02 -0.5462143974779E-02
-0.2922473215917E-02 -0.6214610463787E-02
-0.3362454304075E-02 -0.6961604040322E-02
-0.3830509481256E-02 -0.7704166977143E-02
-0.4328149574717E-02 -0.8443088003376E-02
-0.4856453877145E-02 -0.9178986767498E-02
-0.5416184399089E-02 -0.9912378920548E-02
-0.6007865762945E-02 -0.1064372249018E-01
-0.6631843978592E-02 -0.1137345355580E-01
-0.7288332868040E-02 -0.1210201659597E-01
-0.7977457922813E-02 -0.1282989674553E-01
-0.8699254027905E-02 -0.1355760750366E-01
-0.9453753123205E-02 -0.1428577292155E-01
-0.1024095063737E-01 -0.1501508119972E-01
-0.1106087183677E-01 -0.1574632081828E-01
-0.1191363841876E-01 -0.1648034705946E-01
-0.1279962705456E-01 -0.1721800582828E-01
-0.1371976170770E-01 -0.1796028265678E-01
-0.1467585635350E-01 -0.1870939372895E-01
-0.1567039287758E-01 -0.1946833170118E-01
-0.1670616496601E-01 -0.2024013678381E-01
-0.1778612573610E-01 -0.2102748089549E-01
-0.1891352425344E-01 -0.2183256570015E-01
-0.2009225493313E-01 -0.2265724330368E-01
-0.2132735338206E-01 -0.2350323165632E-01
-0.2262554326995E-01 -0.2437234003716E-01
-0.2399586687121E-01 -0.2526664284660E-01
-0.2545070238134E-01 -0.2618664547757E-01
-0.2700803132860E-01 -0.2712960347577E-01
-0.2869566929406E-01 -0.2808999083290E-01
-0.3055935471652E-01 -0.2905632122191E-01
-0.3268149996037E-01 -0.3000626009561E-01
-0.3520497438762E-01 -0.3092638951399E-01
-0.3825195390975E-01 -0.3189513018040E-01
-0.2837144013908E-03 -0.7350148291068E-03
-0.6195449953800E-03 -0.1501629321236E-02
-0.9679868122944E-03 -0.2280944123294E-02
-0.1319065307190E-02 -0.3056509949842E-02
-0.1677432689688E-02 -0.3822417898088E-02
-0.2049803728770E-02 -0.4578655820840E-02
-0.2441534791633E-02 -0.5326666226829E-02
-0.2856549478914E-02 -0.6067908248675E-02
-0.3297695759785E-02 -0.6803599433826E-02
-0.3767036530977E-02 -0.7534706570392E-02
-0.4266062476593E-02 -0.8261993627773E-02
-0.4795842530541E-02 -0.8986077495355E-02
-0.5357132452730E-02 -0.9707478549720E-02
-0.5950452255172E-02 -0.1042665921459E-01
-0.6576143975932E-02 -0.1114405504554E-01
-0.7234417842504E-02 -0.1186010173281E-01
-0.7925396393946E-02 -0.1257526406571E-01
-0.8649112918443E-02 -0.1329002031977E-01
-0.9405601070464E-02 -0.1400493755979E-01
-0.1019486523851E-01 -0.1472061697475E-01
-0.1101695604616E-01 -0.1543771560594E-01
-0.1187204942206E-01 -0.1615690104569E-01
-0.1276060160327E-01 -0.1687877925963E-01
-0.1368359923495E-01 -0.1760405945586E-01
-0.1464285295847E-01 -0.1833464376955E-01
-0.1564080203843E-01 -0.1907319847479E-01
-0.1668021958184E-01 -0.1982243953224E-01
-0.1776409684390E-01 -0.2058470208652E-01
-0.1889578446831E-01 -0.2136179948473E-01
-0.2007932890011E-01 -0.2215509621689E-01
-0.2131995015238E-01 -0.2296567297680E-01
-0.2262458739802E-01 -0.2379448532475E-01
-0.2400258652236E-01 -0.2464243786428E-01
-0.2546685187698E-01 -0.2550848283463E-01
-0.2703616664052E-01 -0.2638793817729E-01
-0.2873931168435E-01 -0.2727298171280E-01
-0.3062265838653E-01 -0.2815073790186E-01
-0.3276254453265E-01 -0.2900560912821E-01
-0.3526351210557E-01 -0.2984579113439E-01
-0.3816171440171E-01 -0.3075236962254E-01
-0.2592354453934E-03 -0.7104172008437E-03
-0.5734212312306E-03 -0.1450460751457E-02
-0.9095845537100E-03 -0.2206220641002E-02
-0.1255428307074E-02 -0.2963278000770E-02
-0.1611991468473E-02 -0.3714314443702E-02
-0.1984059522625E-02 -0.4457537477567E-02
-0.2376207825100E-02 -0.5193363972288E-02
-0.2792030088553E-02 -0.5922748774478E-02
-0.3234221081640E-02 -0.6646656172384E-02
-0.3704770001171E-02 -0.7365927968999E-02
-0.4205130219606E-02 -0.8081268654858E-02
-0.4736350561253E-02 -0.8793267576573E-02
-0.5299175143461E-02 -0.9502431693520E-02
-0.5894116642589E-02 -0.1020921404787E-01
-0.6521512172017E-02 -0.1091403864323E-01
-0.7181568758630E-02 -0.1161732298069E-01
-0.7874407609310E-02 -0.1231950291505E-01
-0.8600063402097E-02 -0.1302101317990E-01
-0.9358576276731E-02 -0.1372235559087E-01
-0.1014996664627E-01 -0.1442403711922E-01
-0.1097431884531E-01 -0.1512658134497E-01
-0.1183186744336E-01 -0.1583047862421E-01
-0.1272314337912E-01 -0.1653612184132E-01
-0.1364918839942E-01 -0.1724398155890E-01
-0.1461181106378E-01 -0.1795568089716E-01
-0.1561341607732E-01 -0.1867358102781E-01
-0.1665676214286E-01 -0.1940007886643E-01
-0.1774488059721E-01 -0.2013717098757E-01
-0.1888122276167E-01 -0.2088628942054E-01
-0.2006998425463E-01 -0.2164834099565E-01
-0.2131656685032E-01 -0.2242383222471E-01
-0.2262812489952E-01 -0.2321297731569E-01
-0.2401429310152E-01 -0.2401571567579E-01
-0.2548840603094E-01 -0.2482984803290E-01
-0.2706976446643E-01 -0.2564951539134E-01
-0.2878738521269E-01 -0.2646613651809E-01
-0.3068587007291E-01 -0.2726859727705E-01
-0.3283033958106E-01 -0.2805026385866E-01
-0.3528931621149E-01 -0.2883308109367E-01
-0.3804674177369E-01 -0.2969063282551E-01
-0.2379517729436E-03 -0.6883556424707E-03
-0.5324477246082E-03 -0.1404221192797E-02
-0.8559394817386E-03 -0.2137226431292E-02
-0.1195390027181E-02 -0.2875117002025E-02
-0.1549224389087E-02 -0.3610183967297E-02
-0.1920406974333E-02 -0.4339409261749E-02
-0.2312613157041E-02 -0.5062275512203E-02
-0.2729017447402E-02 -0.5779199734949E-02
-0.3172109104327E-02 -0.6490850393252E-02
-0.3643772066030E-02 -0.7197907012281E-02
-0.4145403748155E-02 -0.7900985406366E-02
-0.4678021913098E-02 -0.8600625421455E-02
-0.5242352713423E-02 -0.9297303953346E-02
-0.5838898108449E-02 -0.9991451763111E-02
-0.6467988895781E-02 -0.1068347093131E-01
-0.7129829015531E-02 -0.1137375203745E-01
-0.7824539780270E-02 -0.1206269429568E-01
-0.8552160067439E-02 -0.1275068191819E-01
-0.9312740876706E-02 -0.1343814541166E-01
-0.1010632447983E-01 -0.1412549389902E-01
-0.1093303446301E-01 -0.1481311991185E-01
-0.1179316502644E-01 -0.1550134938010E-01
-0.1268731591784E-01 -0.1619038594120E-01
-0.1361657763833E-01 -0.1688049135946E-01
-0.1458275844388E-01 -0.1757303730334E-01
-0.1558823631124E-01 -0.1827009998962E-01
-0.1663576151238E-01 -0.1897376997306E-01
-0.1772840575990E-01 -0.1968571687548E-01
-0.1886971573178E-01 -0.2040701318106E-01
-0.2006402613154E-01 -0.2113815194378E-01
-0.2131690626391E-01 -0.2187914427550E-01
-0.2263570269824E-01 -0.2262959881513E-01
-0.2403027983022E-01 -0.2338872849244E-01
-0.2551423786555E-01 -0.2415360735253E-01
-0.2710700421346E-01 -0.2491794874477E-01
-0.2883688887930E-01 -0.2567374865793E-01
-0.3074458234773E-01 -0.2641337132052E-01
-0.3288182113979E-01 -0.2713835348801E-01
-0.3528743065736E-01 -0.2787761250894E-01
-0.3791629172161E-01 -0.2869379428857E-01
-0.2191579369111E-03 -0.6680983909078E-03
-0.4957588524587E-03 -0.1361659940228E-02
-0.8066510488525E-03 -0.2072840960371E-02
-0.1138933897953E-02 -0.2791373316296E-02
-0.1489248228605E-02 -0.3509737827949E-02
-0.1858976222971E-02 -0.4224171668955E-02
-0.2250864306641E-02 -0.4933391684574E-02
-0.2667604352590E-02 -0.5637295066047E-02
-0.3111434324637E-02 -0.6336235002167E-02
-0.3584103115751E-02 -0.7030703812601E-02
-0.4086933389895E-02 -0.7721205970027E-02
-0.4620900287644E-02 -0.8408213316262E-02
-0.5186705067073E-02 -0.9092158002471E-02
-0.5784835085270E-02 -0.9773436825336E-02
-0.6415613049904E-02 -0.1045242047096E-01
-0.7079239635201E-02 -0.1112946471667E-01
-0.7775837437390E-02 -0.1180492544788E-01
-0.8505452005679E-02 -0.1247913079222E-01
-0.9268148910792E-02 -0.1315243599240E-01
-0.1006399667545E-01 -0.1382515158819E-01
-0.1089316126959E-01 -0.1449754431685E-01
-0.1175599529457E-01 -0.1516978925113E-01
-0.1265316120172E-01 -0.1584192190111E-01
-0.1358579290756E-01 -0.1651402003563E-01
-0.1455570001443E-01 -0.1718722729942E-01
-0.1556524030435E-01 -0.1786335512360E-01
-0.1661716005319E-01 -0.1854420590519E-01
-0.1771456926290E-01 -0.1923114351910E-01
-0.1886110035678E-01 -0.1992491356201E-01
-0.2006120999101E-01 -0.2062564990367E-01
-0.2132060872037E-01 -0.2133295857233E-01
-0.2264678993462E-01 -0.2204599201744E-01
-0.2404975123990E-01 -0.2276348475126E-01
-0.2554314341127E-01 -0.2348219264897E-01
-0.2714606275109E-01 -0.2419605844524E-01
-0.2888517672386E-01 -0.2489857803097E-01
-0.3079582076428E-01 -0.2558610324297E-01
-0.3291634240658E-01 -0.2626639898219E-01
-0.3526291715692E-01 -0.2697065634427E-01
-0.3777609010975E-01 -0.2775043148847E-01
-0.2023589576568E-03 -0.6491654211558E-03
-0.4626632943054E-03 -0.1321895538416E-02
-0.7612964689106E-03 -0.2012169383372E-02
-0.1085946889492E-02 -0.2711429507176E-02
-0.1432106453554E-02 -0.3412645421884E-02
-0.1799856349647E-02 -0.4111677144633E-02
-0.2191052433760E-02 -0.4806664457488E-02
-0.2607871488820E-02 -0.5497039324143E-02
-0.3052264852568E-02 -0.6182841706882E-02
-0.3525820195717E-02 -0.6864363677179E-02
-0.4029767652149E-02 -0.7541982501206E-02
-0.4565028202915E-02 -0.8216087375413E-02
-0.5132271007531E-02 -0.8887053317328E-02
-0.5731964604684E-02 -0.9555232952448E-02
-0.6364421525768E-02 -0.1022095719524E-01
-0.7029838707763E-02 -0.1088454013318E-01
-0.7728340887941E-02 -0.1154628873996E-01
-0.8459982298018E-02 -0.1220647091161E-01
-0.9224845969994E-02 -0.1286536455805E-01
-0.1002302962742E-01 -0.1352318312182E-01
-0.1085474282142E-01 -0.1418007453367E-01
-0.1172039391728E-01 -0.1483607656213E-01
-0.1262070207740E-01 -0.1549107551408E-01
-0.1355683994908E-01 -0.1614498672013E-01
-0.1453061953918E-01 -0.1679874698716E-01
-0.1554438311453E-01 -0.1745392366413E-01
-0.1660087513789E-01 -0.1811205321773E-01
-0.1770323901860E-01 -0.1877422166425E-01
-0.1885517912312E-01 -0.1944088796145E-01
-0.2006125020852E-01 -0.2011188862130E-01
-0.2132726636460E-01 -0.2078652126037E-01
-0.2266080307218E-01 -0.2146363442243E-01
-0.2407186730387E-01 -0.2214172170927E-01
-0.2557391610150E-01 -0.2281758132926E-01
-0.2718525155189E-01 -0.2348588735341E-01
-0.2893013422362E-01 -0.2414211831828E-01
-0.3083784531789E-01 -0.2478636010117E-01
-0.3293458732914E-01 -0.2543053561248E-01
-0.3522018673581E-01 -0.2610524759020E-01
-0.3762973639310E-01 -0.2685216324616E-01
-0.1871960612277E-03 -0.6312295968846E-03
-0.4326110370204E-03 -0.1284294202019E-02
-0.7194711813543E-03 -0.1954504709657E-02
-0.1036260089548E-02 -0.2634732773395E-02
-0.1377784085294E-02 -0.3318565897240E-02
-0.1743097396662E-02 -0.4001747141680E-02
-0.2133245388365E-02 -0.4682015652465E-02
-0.2549885892329E-02 -0.5358412427932E-02
-0.2994660889494E-02 -0.6030683460571E-02
-0.3468975725997E-02 -0.6698918299073E-02
-0.3973952184401E-02 -0.7363357712655E-02
-0.4510446153038E-02 -0.8024297608493E-02
-0.5079087543364E-02 -0.8682045967517E-02
-0.5680321706779E-02 -0.9336902691270E-02
-0.6314448681531E-02 -0.9989151781564E-02
-0.6981660917495E-02 -0.1063905983916E-01
-0.7682085789650E-02 -0.1128688048875E-01
-0.8415787681579E-02 -0.1193281860185E-01
-0.9182869095026E-02 -0.1257707430393E-01
-0.9983458576942E-02 -0.1321976706889E-01
-0.1081780895428E-01 -0.1386093401288E-01
-0.1168638082985E-01 -0.1450048879710E-01
-0.1258994427279E-01 -0.1513818575235E-01
-0.1352970628379E-01 -0.1577379722331E-01
-0.1450748143301E-01 -0.1640807316187E-01
-0.1552559904953E-01 -0.1704235817944E-01
-0.1658680140566E-01 -0.1767794783490E-01
-0.1769425749304E-01 -0.1831568255264E-01
-0.1885172584741E-01 -0.1895577962104E-01
-0.2006382939831E-01 -0.1959784375373E-01
-0.2133643829616E-01 -0.2024096176592E-01
-0.2267713094278E-01 -0.2088382395310E-01
-0.2409578377047E-01 -0.2152489493842E-01
-0.2560541062464E-01 -0.2216130511486E-01
-0.2722310737223E-01 -0.2278878472803E-01
-0.2897020848532E-01 -0.2340492023497E-01
-0.3086984657772E-01 -0.2401290311899E-01
-0.3293787923072E-01 -0.2462705262738E-01
-0.3516286641387E-01 -0.2527583947774E-01
-0.3747954902303E-01 -0.2599263197004E-01
-0.1734017367860E-03 -0.6140607370734E-03
-0.4051630006519E-03 -0.1248391450220E-02
-0.6808062182175E-03 -0.1899289483901E-02
-0.9896771633474E-03 -0.2560802739493E-02
-0.1326223262642E-02 -0.3227168780363E-02
-0.1688715108021E-02 -0.3894186962461E-02
-0.2077488262520E-02 -0.4559345399017E-02
-0.2493700266657E-02 -0.5221374447534E-02
-0.2938673722252E-02 -0.5879757109058E-02
-0.3413616516071E-02 -0.6534387131461E-02
-0.3919528918018E-02 -0.7185365495507E-02
-0.4457191880862E-02 -0.7832888070031E-02
-0.5027189274995E-02 -0.8477188444766E-02
-0.5629938916062E-02 -0.9118506996481E-02
-0.6265725888413E-02 -0.9757074997747E-02
-0.6934737152022E-02 -0.1039310691232E-01
-0.7637102837640E-02 -0.1102679972353E-01
-0.8372898373032E-02 -0.1165829373712E-01
-0.9142246866784E-02 -0.1228771218717E-01
-0.9945308149490E-02 -0.1291508489137E-01
-0.1078237687015E-01 -0.1354034668128E-01
-0.1165396176997E-01 -0.1416329982884E-01
-0.1256087816881E-01 -0.1478358261885E-01
-0.1350436306257E-01 -0.1540084245727E-01
-0.1448623266389E-01 -0.1601566174283E-01
-0.1550880378861E-01 -0.1662918419708E-01
-0.1657481353952E-01 -0.1724249122931E-01
-0.1768744579990E-01 -0.1785621242534E-01
-0.1885049193331E-01 -0.1847037058149E-01
-0.2006860804782E-01 -0.1908440459765E-01
-0.2134766557631E-01 -0.1969728408917E-01
-0.2269515794255E-01 -0.2030767262025E-01
-0.2412068664227E-01 -0.2091418199432E-01
-0.2563659024810E-01 -0.2151448361716E-01
-0.2725843408869E-01 -0.2210552481655E-01
-0.2900435548349E-01 -0.2268688282737E-01
-0.3089165968107E-01 -0.2326411227532E-01
-0.3292777736316E-01 -0.2385259446353E-01
-0.3509386481941E-01 -0.2447797445376E-01
-0.3732706520726E-01 -0.2516687005158E-01
-0.1607715613276E-03 -0.5974924325423E-03
-0.3799662246054E-03 -0.1213840794569E-02
-0.6449735402364E-03 -0.1846083049923E-02
-0.9459929569513E-03 -0.2489228994924E-02
-0.1277336930915E-02 -0.3138145762293E-02
-0.1636696921849E-02 -0.3788797319695E-02
-0.2023805130591E-02 -0.4438539792837E-02
-0.2439353050218E-02 -0.5085870247157E-02
-0.2884345201524E-02 -0.5730046122133E-02
-0.3359783087027E-02 -0.6370778916496E-02
-0.3866535405086E-02 -0.7008031695862E-02
-0.4405299788574E-02 -0.7641897151305E-02
-0.4976607886262E-02 -0.8272529619132E-02
-0.5580845808600E-02 -0.8900104926075E-02
-0.6218281167986E-02 -0.9524797160580E-02
-0.6889094214125E-02 -0.1014676516211E-01
-0.7593417576414E-02 -0.1076614709075E-01
-0.8331338043911E-02 -0.1138301827283E-01
-0.9102999654230E-02 -0.1199742703850E-01
-0.9908592995621E-02 -0.1260931869605E-01
-0.1074845221187E-01 -0.1321853456804E-01
-0.1162312969682E-01 -0.1382477775144E-01
-0.1253348043165E-01 -0.1442758540797E-01
-0.1348076685506E-01 -0.1502649705095E-01
-0.1446680474399E-01 -0.1562194635443E-01
-0.1549389675310E-01 -0.1621489822456E-01
-0.1656476937479E-01 -0.1680624748369E-01
-0.1768260808930E-01 -0.1739644853761E-01
-0.1885121277596E-01 -0.1798537690595E-01
-0.2007523398432E-01 -0.1857236917502E-01
-0.2136048522796E-01 -0.1915636331880E-01
-0.2271428415860E-01 -0.1973610832241E-01
-0.2414581907509E-01 -0.2031049836116E-01
-0.2566655563465E-01 -0.2087787505402E-01
-0.2729030667921E-01 -0.2143643245737E-01
-0.2903195267761E-01 -0.2198748388407E-01
-0.3090353644379E-01 -0.2253823797402E-01
-0.3290585790379E-01 -0.2310420622217E-01
-0.3501549358461E-01 -0.2370802178055E-01
-0.3717333638136E-01 -0.2437089628509E-01
-0.1491459530705E-03 -0.5814015562829E-03
-0.3567345262971E-03 -0.1180379530027E-02
-0.6116854475913E-03 -0.1794535364660E-02
-0.9050049574476E-03 -0.2419664197255E-02
-0.1231019813788E-02 -0.3051216330933E-02
-0.1587008110686E-02 -0.3685382570401E-02
-0.1972201530868E-02 -0.4319477350070E-02
-0.2386869077098E-02 -0.4951833746741E-02
-0.2831707628353E-02 -0.5581523238314E-02
-0.3307509265703E-02 -0.6208093237333E-02
-0.3815004336927E-02 -0.6831374940938E-02
-0.4354800471526E-02 -0.7451357916854E-02
-0.4927371727394E-02 -0.8068114725789E-02
-0.5533068655763E-02 -0.8681753352472E-02
-0.6172138903882E-02 -0.9292387598994E-02
-0.6844754615788E-02 -0.9900118337950E-02
-0.7551050308860E-02 -0.1050502377497E-01
-0.8291123905642E-02 -0.1110711483883E-01
-0.9065139962530E-02 -0.1170636781978E-01
-0.9873318480200E-02 -0.1230264923691E-01
-0.1071603010405E-01 -0.1289571574095E-01
-0.1159386611486E-01 -0.1348518297583E-01
-0.1250771554808E-01 -0.1407050108641E-01
-0.1345886139831E-01 -0.1465111794569E-01
-0.1444911577518E-01 -0.1522733687760E-01
-0.1548076362183E-01 -0.1579996593100E-01
-0.1655651318136E-01 -0.1636974088938E-01
-0.1767953603732E-01 -0.1693697622160E-01
-0.1885361405955E-01 -0.1750144560957E-01
-0.2008335127435E-01 -0.1806244197649E-01
-0.2137444262904E-01 -0.1861894624769E-01
-0.2273394170748E-01 -0.1916988270402E-01
-0.2417050004021E-01 -0.1971452157099E-01
-0.2569455708201E-01 -0.2025193402237E-01
-0.2731805126058E-01 -0.2078149745173E-01
-0.2905270603951E-01 -0.2130594793284E-01
-0.3090597901938E-01 -0.2183354063329E-01
-0.3287360506878E-01 -0.2237931235845E-01
-0.3492958862477E-01 -0.2296297942866E-01
-0.3701910444711E-01 -0.2360145048437E-01
-0.1383979993656E-03 -0.5656951679681E-03
-0.3352337110896E-03 -0.1147805505448E-02
-0.5806913395725E-03 -0.1744366654977E-02
-0.8665198935542E-03 -0.2351815789167E-02
-0.1187156701763E-02 -0.2966129479598E-02
-0.1539597428153E-02 -0.3583756115409E-02
-0.1922667288604E-02 -0.4202034130321E-02
-0.2336260667115E-02 -0.4819191665959E-02
-0.2780783980813E-02 -0.5434152937161E-02
-0.3256822024923E-02 -0.6046322043425E-02
-0.3764963236608E-02 -0.6655407494962E-02
-0.4305720377869E-02 -0.7261298487623E-02
-0.4879505494996E-02 -0.7863985400369E-02
-0.5486630150541E-02 -0.8463506720460E-02
-0.6127319632352E-02 -0.9059914165026E-02
-0.6801736455207E-02 -0.9653249394477E-02
-0.7510016095883E-02 -0.1024353050150E-01
-0.8252266887407E-02 -0.1083070546386E-01
-0.9028672856473E-02 -0.1141468208771E-01
-0.9839481401098E-02 -0.1199525420275E-01
-0.1068509616473E-01 -0.1257210256802E-01
-0.1156614233115E-01 -0.1314476662060E-01
-0.1248353729776E-01 -0.1371262288903E-01
-0.1343857931849E-01 -0.1427504314410E-01
-0.1443307251812E-01 -0.1483221819216E-01
-0.1546927890668E-01 -0.1538482070460E-01
-0.1654987898785E-01 -0.1593345425099E-01
-0.1767801326229E-01 -0.1647832710877E-01
-0.1885741771267E-01 -0.1701915334101E-01
-0.2009260822468E-01 -0.1755523425920E-01
-0.2138910189334E-01 -0.1808565559092E-01
-0.2275360694970E-01 -0.1860958371921E-01
-0.2419413512286E-01 -0.1912672019193E-01
-0.2571999397126E-01 -0.1963686928709E-01
-0.2734121281145E-01 -0.2014047047055E-01
-0.2906656583059E-01 -0.2064136273534E-01
-0.3089962520221E-01 -0.2114836243069E-01
-0.3283236474842E-01 -0.2167567164552E-01
-0.3483761304984E-01 -0.2224032733673E-01
-0.3686490827511E-01 -0.2285581379916E-01
-0.1284251157007E-03 -0.5503018882774E-03
-0.3152703304078E-03 -0.1115961064133E-02
-0.5517735253018E-03 -0.1695351812500E-02
-0.8303571659047E-03 -0.2285437819093E-02
-0.1145628441767E-02 -0.2882663094505E-02
-0.1494401965104E-02 -0.3483743606493E-02
-0.1875179376723E-02 -0.4086087592000E-02
-0.2287528984504E-02 -0.4687866687631E-02
-0.2731588407566E-02 -0.5287893685717E-02
-0.3207741538307E-02 -0.5885451118939E-02
-0.3716434314851E-02 -0.6480136137482E-02
-0.4258081593206E-02 -0.7071742482908E-02
-0.4833030012304E-02 -0.7660179791045E-02
-0.5441549220651E-02 -0.8245416894035E-02
-0.6083839914689E-02 -0.8827442847450E-02
-0.6760053376341E-02 -0.9406239880791E-02
-0.7470324840274E-02 -0.9981766698425E-02
-0.8214771893162E-02 -0.1055391051315E-01
-0.8993596441917E-02 -0.1112251474034E-01
-0.9807070726661E-02 -0.1168730685391E-01
-0.1065562749267E-01 -0.1224790036386E-01
-0.1153992066370E-01 -0.1280376928013E-01
-0.1246089017820E-01 -0.1335422926107E-01
-0.1341984382282E-01 -0.1389859079887E-01
-0.1441857244915E-01 -0.1443694933054E-01
-0.1545930851227E-01 -0.1496986280339E-01
-0.1654469383289E-01 -0.1549782807968E-01
-0.1767781951612E-01 -0.1602097863949E-01
-0.1886234732672E-01 -0.1653900685639E-01
-0.2010266424986E-01 -0.1705126675614E-01
-0.2140405403178E-01 -0.1755699726810E-01
-0.2277280864139E-01 -0.1805565156800E-01
-0.2421622059345E-01 -0.1854738484769E-01
-0.2574240555181E-01 -0.1903269726677E-01
-0.2735951871538E-01 -0.1951293945283E-01
-0.2907365652888E-01 -0.1999275729515E-01
-0.3088517284845E-01 -0.2048116010617E-01
-0.3278333220065E-01 -0.2099132802835E-01
-0.3474073869844E-01 -0.2153791863398E-01
-0.3671114840510E-01 -0.2213168350938E-01
-0.1191431894394E-03 -0.5351660650092E-03
-0.2966831285207E-03 -0.1084721747951E-02
-0.5247429292806E-03 -0.1647308466571E-02
-0.7963502736720E-03 -0.2220323505005E-02
-0.1106316089246E-02 -0.2800622066140E-02
-0.1451351123847E-02 -0.3385184532565E-02
-0.1829704597931E-02 -0.3971519299314E-02
-0.2240665506571E-02 -0.4557779975769E-02
-0.2684126892328E-02 -0.5142699848461E-02
-0.3160281389201E-02 -0.5725461371626E-02
-0.3669434447237E-02 -0.6305562933714E-02
-0.4211901717133E-02 -0.6882709381141E-02
-0.4787962080291E-02 -0.7456732594056E-02
-0.5397840899811E-02 -0.8027532921932E-02
-0.6041712261827E-02 -0.8595037297751E-02
-0.6719714578647E-02 -0.9159169239894E-02
-0.7431981418573E-02 -0.9719829575544E-02
-0.8178638098120E-02 -0.1027684756120E-01
-0.8959902366296E-02 -0.1083000672282E-01
-0.9776068321317E-02 -0.1137897463427E-01
-0.1062759361298E-01 -0.1192330600241E-01
-0.1151515559333E-01 -0.1246241972075E-01
-0.1243971077499E-01 -0.1299558267890E-01
-0.1340257034406E-01 -0.1352205815316E-01
-0.1440550576907E-01 -0.1404186251311E-01
-0.1545071222185E-01 -0.1455545849695E-01
-0.1654078086540E-01 -0.1506325996842E-01
-0.1767873455607E-01 -0.1556535401834E-01
-0.1886813293221E-01 -0.1606144426206E-01
-0.2011319552149E-01 -0.1655097349406E-01
-0.2141892293165E-01 -0.1703336898946E-01
-0.2279113247230E-01 -0.1750839550070E-01
-0.2423634231802E-01 -0.1797665777956E-01
-0.2576145673493E-01 -0.1843928771145E-01
-0.2737284317077E-01 -0.1889838698356E-01
-0.2907422154438E-01 -0.1935915111562E-01
-0.3086333214655E-01 -0.1983051510411E-01
-0.3272755754508E-01 -0.2032456423217E-01
-0.3463990864901E-01 -0.2085389567574E-01
-0.3655812456682E-01 -0.2142708125529E-01
-0.1104823772625E-03 -0.5202437331631E-03
-0.2793365068533E-03 -0.1053988222298E-02
-0.4994350877325E-03 -0.1600087865140E-02
-0.7643470307236E-03 -0.2156298773808E-02
-0.1069103675743E-02 -0.2719835819099E-02
-0.1410369769179E-02 -0.3287932715126E-02
-0.1786201994534E-02 -0.3858216729464E-02
-0.2195653515060E-02 -0.4428853149350E-02
-0.2638398044107E-02 -0.4998523327898E-02
-0.3114448920986E-02 -0.5566330021183E-02
-0.3623975279591E-02 -0.6131686002124E-02
-0.4167193849624E-02 -0.6694214935523E-02
-0.4744314423295E-02 -0.7253675181347E-02
-0.5355516283129E-02 -0.7809900924253E-02
-0.6000945136811E-02 -0.8362758505635E-02
-0.6680724900424E-02 -0.8912114291044E-02
-0.7394985880611E-02 -0.9457813428449E-02
-0.8143859300839E-02 -0.9999630541110E-02
-0.8927576353568E-02 -0.1053729406607E-01
-0.9746449677802E-02 -0.1107041816682E-01
-0.1060095740374E-01 -0.1159850694842E-01
-0.1149179488076E-01 -0.1212093401652E-01
-0.1241992908953E-01 -0.1263692893193E-01
-0.1338666813233E-01 -0.1314572098830E-01
-0.1439375733463E-01 -0.1364726278535E-01
-0.1544334605261E-01 -0.1414193996623E-01
-0.1653796220941E-01 -0.1463010494467E-01
-0.1768054158984E-01 -0.1511182341683E-01
-0.1887451501799E-01 -0.1558683779603E-01
-0.2012389932027E-01 -0.1605470738424E-01
-0.2143336923189E-01 -0.1651507058539E-01
-0.2280822249971E-01 -0.1696801156455E-01
-0.2425417095755E-01 -0.1741456081622E-01
-0.2577692153622E-01 -0.1785640235006E-01
-0.2738117505904E-01 -0.1829623339503E-01
-0.2906858107561E-01 -0.1873958478820E-01
-0.3083479668389E-01 -0.1919513352438E-01
-0.3266596027789E-01 -0.1967386394124E-01
-0.3453588638012E-01 -0.2018662462714E-01
-0.3640605126046E-01 -0.2074028190672E-01
-0.1023840292320E-03 -0.5054997600532E-03
-0.2631154969747E-03 -0.1023680412977E-02
-0.4757065862703E-03 -0.1553567874763E-02
-0.7342090783831E-03 -0.2093216778701E-02
-0.1033879954593E-02 -0.2640155652493E-02
-0.1371380648145E-02 -0.3191856072588E-02
-0.1744624927496E-02 -0.3746074350979E-02
-0.2152469521467E-02 -0.4301009738477E-02
-0.2594393940799E-02 -0.4855314892840E-02
-0.3070245676711E-02 -0.5408031615214E-02
-0.3580063423493E-02 -0.5958500192928E-02
-0.4123966657366E-02 -0.6506271547517E-02
-0.4702095703386E-02 -0.7051035712450E-02
-0.5314582542279E-02 -0.7592563979843E-02
-0.5961543010519E-02 -0.8130664489029E-02
-0.6643084949705E-02 -0.8665148742425E-02
-0.7359333688975E-02 -0.9195808993638E-02
-0.8110424302556E-02 -0.9722368970632E-02
-0.8896598747347E-02 -0.1024450702811E-01
-0.9718184634975E-02 -0.1076179037093E-01
-0.1057567598830E-01 -0.1127368041796E-01
-0.1146978063629E-01 -0.1177951481239E-01
-0.1240146980907E-01 -0.1227849653305E-01
-0.1337204177268E-01 -0.1276983322055E-01
-0.1438320848243E-01 -0.1325342785835E-01
-0.1543706444093E-01 -0.1372960550333E-01
-0.1653606154858E-01 -0.1419867625790E-01
-0.1768303025293E-01 -0.1466070576679E-01
-0.1888124777972E-01 -0.1511549733369E-01
-0.2013449716084E-01 -0.1556274655055E-01
-0.2144709236562E-01 -0.1600231474232E-01
-0.2282378018486E-01 -0.1643459964869E-01
-0.2426945482819E-01 -0.1686102007283E-01
-0.2578866619857E-01 -0.1728372605059E-01
-0.2738459016498E-01 -0.1770586739536E-01
-0.2905710154211E-01 -0.1813313863538E-01
-0.3080022537511E-01 -0.1857383647171E-01
-0.3259934864030E-01 -0.1903789125167E-01
-0.3442929779158E-01 -0.1953463267683E-01
-0.3625505345112E-01 -0.2006976359105E-01
-0.9479839736179E-04 -0.4909057984110E-03
-0.2479218666359E-03 -0.9937331800569E-03
-0.4534319717346E-03 -0.1507647581747E-02
-0.7058110228613E-03 -0.2030953311929E-02
-0.1000539417293E-02 -0.2561452125791E-02
-0.1334306200307E-02 -0.3096835934592E-02
-0.1704922822401E-02 -0.3634994156908E-02
-0.2111084581575E-02 -0.4174176207362E-02
-0.2552100983535E-02 -0.4713025224467E-02
-0.3027667898915E-02 -0.5250538882984E-02
-0.3537700724582E-02 -0.5785997684404E-02
-0.4082224510531E-02 -0.6318888608346E-02
-0.4661310598396E-02 -0.6848839246297E-02
-0.5275042997353E-02 -0.7375562036114E-02
-0.5923506467771E-02 -0.7898810025885E-02
-0.6606791278937E-02 -0.8418342766042E-02
-0.7325015993331E-02 -0.8933902889497E-02
-0.8078317308186E-02 -0.9445167290377E-02
-0.8866945057893E-02 -0.9951769373380E-02
-0.9691238079623E-02 -0.1045323573821E-01
-0.1055170159372E-01 -0.1094899271027E-01
-0.1144905034118E-01 -0.1143835076710E-01
-0.1238425351348E-01 -0.1192049632226E-01
-0.1335859261504E-01 -0.1239462672057E-01
-0.1437373872266E-01 -0.1286060822696E-01
-0.1543172222650E-01 -0.1331872007136E-01
-0.1653490639500E-01 -0.1376924663082E-01
-0.1768599909060E-01 -0.1421227111882E-01
-0.1888810160384E-01 -0.1464767450704E-01
-0.2014473678387E-01 -0.1507530115947E-01
-0.2145983106190E-01 -0.1549523776390E-01
-0.2283756165906E-01 -0.1590817936497E-01
-0.2428201153583E-01 -0.1631588726601E-01
-0.2579663302350E-01 -0.1672089132998E-01
-0.2738322849091E-01 -0.1712666788530E-01
-0.2904017213369E-01 -0.1753894137849E-01
-0.3076023797094E-01 -0.1796555473143E-01
-0.3252841916464E-01 -0.1841544863933E-01
-0.3432071856191E-01 -0.1889665612109E-01
-0.3610504884509E-01 -0.1941395951090E-01
-0.8768331020664E-04 -0.4764383971850E-03
-0.2336737502320E-03 -0.9640976743491E-03
-0.4325077013127E-03 -0.1462257603881E-02
-0.6790511831838E-03 -0.1969432689840E-02
-0.9690006000444E-03 -0.2483662783187E-02
-0.1299094020015E-02 -0.3002841960917E-02
-0.1667073011758E-02 -0.3524992420754E-02
-0.2071501762359E-02 -0.4048424918378E-02
-0.2511542305532E-02 -0.4571788475003E-02
-0.2986753209187E-02 -0.5094051377711E-02
-0.3496934503501E-02 -0.5614446293169E-02
-0.4042020521296E-02 -0.6132405138196E-02
-0.4622014820396E-02 -0.6647499443494E-02
-0.5236953246507E-02 -0.7159387493060E-02
-0.5886888526426E-02 -0.7667771042981E-02
-0.6571891911095E-02 -0.8172361242942E-02
-0.7292073306987E-02 -0.8672854924555E-02
-0.8047568605073E-02 -0.9168886617201E-02
-0.8838632385357E-02 -0.9660050149636E-02
-0.9665610735573E-02 -0.1014583790987E-01
-0.1052901520992E-01 -0.1062564855284E-01
-0.1142956178800E-01 -0.1109877380107E-01
-0.1236821125850E-01 -0.1156439288707E-01
-0.1334622137685E-01 -0.1202170328916E-01
-0.1436521485400E-01 -0.1247054627646E-01
-0.1542714900989E-01 -0.1291116832417E-01
-0.1653428681016E-01 -0.1334384208824E-01
-0.1768919836198E-01 -0.1376868210522E-01
-0.1889479056653E-01 -0.1418565828486E-01
-0.2015430627408E-01 -0.1459476889112E-01
-0.2147126794000E-01 -0.1499631948543E-01
-0.2284927957540E-01 -0.1539127700942E-01
-0.2429163836510E-01 -0.1578169337064E-01
-0.2580077783830E-01 -0.1617039431874E-01
-0.2737728725240E-01 -0.1656107340610E-01
-0.2901829727994E-01 -0.1695938398009E-01
-0.3071564947027E-01 -0.1737267935076E-01
-0.3245422432242E-01 -0.1780898613789E-01
-0.3421120865365E-01 -0.1827526411124E-01
-0.3595729749766E-01 -0.1877533892949E-01
-0.8100168735552E-04 -0.4620792360677E-03
-0.2202949685977E-03 -0.9347257634397E-03
-0.4128295062594E-03 -0.1417314024227E-02
-0.6538139620292E-03 -0.1908536267356E-02
-0.9391511104243E-03 -0.2406640094008E-02
-0.1265643135118E-02 -0.2909704078699E-02
-0.1630988065289E-02 -0.3415880217500E-02
-0.2033645442153E-02 -0.3923548154682E-02
-0.2472650777556E-02 -0.4431375158135E-02
-0.2947439549815E-02 -0.4938312971640E-02
-0.3457704928563E-02 -0.5443557512560E-02
-0.4003294978786E-02 -0.5946494333757E-02
-0.4584147330221E-02 -0.6446645469484E-02
-0.5200249961245E-02 -0.6943620072600E-02
-0.5851622924543E-02 -0.7437072731380E-02
-0.6538317182694E-02 -0.7926669992641E-02
-0.7260432174902E-02 -0.8412066821881E-02
-0.8018100586297E-02 -0.8892859803206E-02
-0.8811578642714E-02 -0.9368608316097E-02
-0.9641215785629E-02 -0.9838776479252E-02
-0.1050752518075E-01 -0.1030274204776E-01
-0.1141121855394E-01 -0.1075978555871E-01
-0.1235324209325E-01 -0.1120908741173E-01
-0.1333482292233E-01 -0.1164985435772E-01
-0.1435752793358E-01 -0.1208191271386E-01
-0.1542323254013E-01 -0.1250548710982E-01
-0.1653408821857E-01 -0.1292084973593E-01
-0.1769251333277E-01 -0.1332815677838E-01
-0.1890120418379E-01 -0.1372747421900E-01
-0.2016310747489E-01 -0.1411895467925E-01
-0.2148133056811E-01 -0.1450311154822E-01
-0.2285890723439E-01 -0.1488115534579E-01
-0.2429838035766E-01 -0.1525537814862E-01
-0.2580124395622E-01 -0.1562882727719E-01
-0.2736702105157E-01 -0.1600532463143E-01
-0.2899181639183E-01 -0.1639037981300E-01
-0.3066679388357E-01 -0.1679084152345E-01
-0.3237690946728E-01 -0.1721390781826E-01
-0.3410056007901E-01 -0.1766558267961E-01
-0.3581088227386E-01 -0.1814905167532E-01
-0.7472158173952E-04 -0.4478125141555E-03
-0.2077216756469E-03 -0.9055807015928E-03
-0.3943116513751E-03 -0.1372757867482E-02
-0.6300066517422E-03 -0.1848187463073E-02
-0.9109045967155E-03 -0.2330298696581E-02
-0.1233881678732E-02 -0.2817337874310E-02
-0.1596613279372E-02 -0.3307581980964E-02
-0.1997476932772E-02 -0.3799484161127E-02
-0.2435400663769E-02 -0.4291739593644E-02
-0.2909710557173E-02 -0.4783294468955E-02
-0.3420001663837E-02 -0.5273318066019E-02
-0.3966040741209E-02 -0.5761157954833E-02
-0.4547701865133E-02 -0.6246293317804E-02
-0.5164925852137E-02 -0.6728289474113E-02
-0.5817699709415E-02 -0.7206758301232E-02
-0.6506052980988E-02 -0.7681325845329E-02
-0.7230072868463E-02 -0.8151609360086E-02
-0.7989886434405E-02 -0.8617171996722E-02
-0.8785748419239E-02 -0.9077543751601E-02
-0.9618007715367E-02 -0.9532166184838E-02
-0.1048717441854E-01 -0.9980402513740E-02
-0.1139395059274E-01 -0.1042152906644E-01
-0.1233926173838E-01 -0.1085473495178E-01
-0.1332429760612E-01 -0.1127924426007E-01
-0.1435056203927E-01 -0.1169487702689E-01
-0.1541984017731E-01 -0.1210184513200E-01
-0.1653416181584E-01 -0.1250042913330E-01
-0.1769578145876E-01 -0.1289083403428E-01
-0.1890717174484E-01 -0.1327322510978E-01
-0.2017097190478E-01 -0.1364790535448E-01
-0.2148986981042E-01 -0.1401558066821E-01
-0.2286634019823E-01 -0.1437767419903E-01
-0.2430221105393E-01 -0.1473666912607E-01
-0.2579811968832E-01 -0.1509576814480E-01
-0.2735266150605E-01 -0.1545884920605E-01
-0.2896110622313E-01 -0.1583122676399E-01
-0.3061414387627E-01 -0.1621924947920E-01
-0.3229694869933E-01 -0.1662936055880E-01
-0.3398909180502E-01 -0.1706675601052E-01
-0.3566588413162E-01 -0.1753407090580E-01
-0.6881504700591E-04 -0.4336250833273E-03
-0.1958978721737E-03 -0.8766316932857E-03
-0.3768780369608E-03 -0.1328539274544E-02
-0.6075453173868E-03 -0.1788320612432E-02
-0.8841808301971E-03 -0.2254564077362E-02
-0.1203740759877E-02 -0.2725668136530E-02
-0.1563894231623E-02 -0.3200028874649E-02
-0.1962955963389E-02 -0.3676175334508E-02
-0.2399763576430E-02 -0.4152838017807E-02
-0.2873546725367E-02 -0.4628966857732E-02
-0.3383811087248E-02 -0.5103713602711E-02
-0.3930247404459E-02 -0.5576395787842E-02
-0.4512668978613E-02 -0.6046456331836E-02
-0.5130970520716E-02 -0.6513422164608E-02
-0.5785105870986E-02 -0.6976867132859E-02
-0.6475082172339E-02 -0.7436381096641E-02
-0.7200972685908E-02 -0.7891547894811E-02
-0.7962896456484E-02 -0.8341901789218E-02
-0.8761103621083E-02 -0.8786948351766E-02
-0.9595938659229E-02 -0.9226112030646E-02
-0.1046790399915E-01 -0.9658747438098E-02
-0.1137768676533E-01 -0.1008413306277E-01
-0.1232618585757E-01 -0.1050147344939E-01
-0.1331454714913E-01 -0.1091001702176E-01
-0.1434420455888E-01 -0.1130958484761E-01
-0.1541684521813E-01 -0.1170038340077E-01
-0.1653436820918E-01 -0.1208270817093E-01
-0.1769885405087E-01 -0.1245681730129E-01
-0.1891254179700E-01 -0.1282297523542E-01
-0.2017775641447E-01 -0.1318162784458E-01
-0.2149676780413E-01 -0.1353365530705E-01
-0.2287150949285E-01 -0.1388066149490E-01
-0.2430313934548E-01 -0.1422527451619E-01
-0.2579152105745E-01 -0.1457079488213E-01
-0.2733445082475E-01 -0.1492109890981E-01
-0.2892652778352E-01 -0.1528127221062E-01
-0.3055813261453E-01 -0.1565717797858E-01
-0.3221475406473E-01 -0.1605458177872E-01
-0.3387709038579E-01 -0.1647798666616E-01
-0.3552234857413E-01 -0.1692959330372E-01
-0.6325748960506E-04 -0.4195059191432E-03
-0.1847741864238E-03 -0.8478527820911E-03
-0.3604608754813E-03 -0.1284615868273E-02
-0.5863538875178E-03 -0.1728879199073E-02
-0.8589054165980E-03 -0.2179371059802E-02
-0.1175154707044E-02 -0.2634627840836E-02
-0.1532777328282E-02 -0.3093158293387E-02
-0.1930041317767E-02 -0.3553568123626E-02
-0.2365709068936E-02 -0.4014628720294E-02
-0.2838925900245E-02 -0.4475301544429E-02
-0.3349116682748E-02 -0.4934728935217E-02
-0.3895901615147E-02 -0.5392205833945E-02
-0.4479036305428E-02 -0.5847145320445E-02
-0.5098370707690E-02 -0.6299041417956E-02
-0.5753825600921E-02 -0.6747434747464E-02
-0.6445384895385E-02 -0.7191883425908E-02
-0.7173106297799E-02 -0.7631942247395E-02
-0.7937098494767E-02 -0.8067121103661E-02
-0.8737603954356E-02 -0.8496905952199E-02
-0.9574958958923E-02 -0.8920709284499E-02
-0.1044965379599E-01 -0.9337882595160E-02
-0.1136235554862E-01 -0.9747712288439E-02
-0.1231393083747E-01 -0.1014942425762E-01
-0.1330547547663E-01 -0.1054229719873E-01
-0.1433834705310E-01 -0.1092615921118E-01
-0.1541412771529E-01 -0.1130121705006E-01
-0.1653457807282E-01 -0.1166778562295E-01
-0.1770159657300E-01 -0.1202617803503E-01
-0.1891718179717E-01 -0.1237675500021E-01
-0.2018334180052E-01 -0.1272009511846E-01
-0.2150193508187E-01 -0.1305723285056E-01
-0.2287437688541E-01 -0.1338992120681E-01
-0.2430120292589E-01 -0.1372089090057E-01
-0.2578158439231E-01 -0.1405349117652E-01
-0.2731263515587E-01 -0.1439155186766E-01
-0.2888842445446E-01 -0.1473990928171E-01
-0.3049915383464E-01 -0.1510396406809E-01
-0.3213069098514E-01 -0.1548887591080E-01
-0.3376479783184E-01 -0.1589855953428E-01
-0.3538033359163E-01 -0.1633486871274E-01
-0.5802714929228E-04 -0.4054457179809E-03
-0.1743068804834E-03 -0.8192219563620E-03
-0.3449995779721E-03 -0.1240951429070E-02
-0.5663633244810E-03 -0.1669814356532E-02
-0.8350094511261E-03 -0.2104662443327E-02
-0.1148061172526E-02 -0.2544157130063E-02
-0.1503210194735E-02 -0.2986913231602E-02
-0.1898691337193E-02 -0.3431612709939E-02
-0.2333205129725E-02 -0.3877071912598E-02
-0.2805823705152E-02 -0.4322270290870E-02
-0.3315899385126E-02 -0.4766347955986E-02
-0.3862987347747E-02 -0.5208584148938E-02
-0.4446788795365E-02 -0.5648368291680E-02
-0.5067110509924E-02 -0.6085166931046E-02
-0.5723840517744E-02 -0.6518492306682E-02
-0.6416938815642E-02 -0.6947875288773E-02
-0.7146446047979E-02 -0.7372846007273E-02
-0.7912458285829E-02 -0.7792894429624E-02
-0.8715207349508E-02 -0.8207491524763E-02
-0.9555017655712E-02 -0.8616042668904E-02
-0.1043236303998E-01 -0.9017901270309E-02
-0.1134788566051E-01 -0.9412366789086E-02
-0.1230241447025E-01 -0.9798691578200E-02
-0.1329698943926E-01 -0.1017618952241E-01
-0.1433288597393E-01 -0.1054470050228E-01
-0.1541157511835E-01 -0.1090443570460E-01
-0.1653467258722E-01 -0.1125573207758E-01
-0.1770388869143E-01 -0.1159895736832E-01
-0.1892097750827E-01 -0.1193456343839E-01
-0.2018763121927E-01 -0.1226324958708E-01
-0.2150530766796E-01 -0.1258618374228E-01
-0.2287493046485E-01 -0.1290523771117E-01
-0.2429646257626E-01 -0.1322320682923E-01
-0.2576846016083E-01 -0.1354344800529E-01
-0.2728745983656E-01 -0.1386971053618E-01
-0.2884712008581E-01 -0.1420657131666E-01
-0.3043756553267E-01 -0.1455899590173E-01
-0.3204508239860E-01 -0.1493160512134E-01
-0.3365242479932E-01 -0.1532781503331E-01
-0.3523990288852E-01 -0.1574919395731E-01
-0.5310468075503E-04 -0.3914365808884E-03
-0.1644570430909E-03 -0.7907204447565E-03
-0.3304398288797E-03 -0.1197514850122E-02
-0.5475109038271E-03 -0.1611083678076E-02
-0.8124291872281E-03 -0.2030387919453E-02
-0.1122401191748E-02 -0.2454202524750E-02
-0.1475142011623E-02 -0.2881241857689E-02
-0.1868864394331E-02 -0.3310262915192E-02
-0.2302218685931E-02 -0.3740129887484E-02
-0.2774214013614E-02 -0.4169845538188E-02
-0.3284138000482E-02 -0.4598554057049E-02
-0.3831486276450E-02 -0.5025525315297E-02
-0.4415909052292E-02 -0.5450130956263E-02
-0.5037171706516E-02 -0.5871815354973E-02
-0.5695129999210E-02 -0.6290067180009E-02
-0.6389719480636E-02 -0.6704394538523E-02
-0.7120962343831E-02 -0.7114307232200E-02
-0.7888939893706E-02 -0.7519279633658E-02
-0.8693870440271E-02 -0.7918772134922E-02
-0.9536063013969E-02 -0.8312187507219E-02
-0.1041597088308E-01 -0.8698885642231E-02
-0.1133420665505E-01 -0.9078183587883E-02
-0.1229155656565E-01 -0.9449364488731E-02
-0.1328899941467E-01 -0.9811781359698E-02
-0.1432772320777E-01 -0.1016528944240E-01
-0.1540908267822E-01 -0.1051010710656E-01
-0.1653454358293E-01 -0.1084659432783E-01
-0.1770562398485E-01 -0.1117517138608E-01
-0.1892383205058E-01 -0.1149637445307E-01
-0.2019054832502E-01 -0.1181101028098E-01
-0.2150684408675E-01 -0.1212035937620E-01
-0.2287318048359E-01 -0.1242638387351E-01
-0.2428899717441E-01 -0.1273191025599E-01
-0.2575230807722E-01 -0.1304026932207E-01
-0.2725916600426E-01 -0.1335510478243E-01
-0.2880291879707E-01 -0.1368073169737E-01
-0.3037369343000E-01 -0.1402171031574E-01
-0.3195821558250E-01 -0.1438218381530E-01
-0.3354015930684E-01 -0.1476514347457E-01
-0.3510112125965E-01 -0.1517191640145E-01
-0.4847281301903E-04 -0.3774717609608E-03
-0.1551899231097E-03 -0.7623321386164E-03
-0.3167327972059E-03 -0.1154279254182E-02
-0.5297395583662E-03 -0.1552650161390E-02
-0.7911056760324E-03 -0.1956503031061E-02
-0.1098119140256E-02 -0.2364716047435E-02
-0.1448523712439E-02 -0.2776096867494E-02
-0.1840519222683E-02 -0.3189475766356E-02
-0.2272715972468E-02 -0.3603766729806E-02
-0.2744069300936E-02 -0.4018000185530E-02
-0.3253809516394E-02 -0.4431329908650E-02
-0.3801378043020E-02 -0.4843022171509E-02
-0.4386377571554E-02 -0.5252436377199E-02
-0.5008533982848E-02 -0.5658999849874E-02
-0.5667671410773E-02 -0.6062182401529E-02
-0.6363700568604E-02 -0.6461473790315E-02
-0.7096623937686E-02 -0.6856367732697E-02
-0.7866506032354E-02 -0.7246327182651E-02
-0.8673548931274E-02 -0.7630806127880E-02
-0.9518042934052E-02 -0.8009208901294E-02
-0.1040041685282E-01 -0.8380905985979E-02
-0.1132124941042E-01 -0.8745235954617E-02
-0.1228127945662E-01 -0.9101516327481E-02
-0.1328141980191E-01 -0.9449142274263E-02
-0.1432276650828E-01 -0.9787986901146E-02
-0.1540655373913E-01 -0.1011827726102E-01
-0.1653409357460E-01 -0.1044039593790E-01
-0.1770670956168E-01 -0.1075481218449E-01
-0.1892566490786E-01 -0.1106213838940E-01
-0.2019203546304E-01 -0.1136327485295E-01
-0.2150652260169E-01 -0.1165959426731E-01
-0.2286915568020E-01 -0.1195312288953E-01
-0.2427889947121E-01 -0.1224668931577E-01
-0.2573329313352E-01 -0.1254357094619E-01
-0.2722798804947E-01 -0.1284728820901E-01
-0.2875610494849E-01 -0.1316189748090E-01
-0.3030783379176E-01 -0.1349158414310E-01
-0.3187034729949E-01 -0.1384006827849E-01
-0.3342817044796E-01 -0.1420997650250E-01
-0.3496405032850E-01 -0.1460242838859E-01
-0.4411607155609E-04 -0.3635454599130E-03
-0.1464743833315E-03 -0.7340431302287E-03
-0.3038344790522E-03 -0.1111221287204E-02
-0.5129973150340E-03 -0.1494481361353E-02
-0.7709844403995E-03 -0.1882968336414E-02
-0.1075162680055E-02 -0.2275654531302E-02
-0.1423308152664E-02 -0.2671435008677E-02
-0.1813615224218E-02 -0.3069211240908E-02
-0.2244662899525E-02 -0.3467948244323E-02
-0.2715361017811E-02 -0.3866707645930E-02
-0.3224889454706E-02 -0.4264657592387E-02
-0.3772640582249E-02 -0.4661065984916E-02
-0.4358173043977E-02 -0.5055285159967E-02
-0.4981175224822E-02 -0.5446730283741E-02
-0.5641440403127E-02 -0.5834856879635E-02
-0.6338854201063E-02 -0.6219140652806E-02
-0.7073398263212E-02 -0.6599063343660E-02
-0.7845118430875E-02 -0.6974080479402E-02
-0.8654197993046E-02 -0.7343643557220E-02
-0.9500905373991E-02 -0.7707162287068E-02
-0.1038564129340E-01 -0.8064021394497E-02
-0.1130894657709E-01 -0.8413584338236E-02
-0.1227150843414E-01 -0.8755205889599E-02
-0.1327416940905E-01 -0.9088325547651E-02
-0.1431792978434E-01 -0.9412835811529E-02
-0.1540389984850E-01 -0.9728972819082E-02
-0.1653323558442E-01 -0.1003714016291E-01
-0.1770706545940E-01 -0.1033785137118E-01
-0.1892641074694E-01 -0.1063178610231E-01
-0.2019205176940E-01 -0.1091992409674E-01
-0.2150433853576E-01 -0.1120371074991E-01
-0.2286289994070E-01 -0.1148521270482E-01
-0.2426627250141E-01 -0.1176723585237E-01
-0.2571158250673E-01 -0.1205298255775E-01
-0.2719415199015E-01 -0.1234583817647E-01
-0.2870694380189E-01 -0.1264960744531E-01
-0.3024025658158E-01 -0.1296813070672E-01
-0.3178170848352E-01 -0.1330475280973E-01
-0.3331661123375E-01 -0.1366178476725E-01
-0.3482874745498E-01 -0.1404016552856E-01
-0.4002055008172E-04 -0.3496526627219E-03
-0.1382824486408E-03 -0.7058413350768E-03
-0.2917051427068E-03 -0.1068320533069E-02
-0.4972368016120E-03 -0.1436548673041E-02
-0.7520151665180E-03 -0.1809748679127E-02
-0.1053482677173E-02 -0.2186978988309E-02
-0.1399450223714E-02 -0.2567216613820E-02
-0.1788112715584E-02 -0.2949431979466E-02
-0.2218025365629E-02 -0.3332641824124E-02
-0.2688059921741E-02 -0.3715941829197E-02
-0.3197352194111E-02 -0.4098518656596E-02
-0.3745250426247E-02 -0.4479646546400E-02
-0.4331272644046E-02 -0.4858675565369E-02
-0.4955071799182E-02 -0.5235013353993E-02
-0.5616411194858E-02 -0.5608105527915E-02
-0.6315151237223E-02 -0.5977417877185E-02
-0.7051251748554E-02 -0.6342424107106E-02
-0.7824738169006E-02 -0.6702576100280E-02
-0.8635772619670E-02 -0.7057326503571E-02
-0.9484598725207E-02 -0.7406093864814E-02
-0.1037158575108E-01 -0.7748280355694E-02
-0.1129723295889E-01 -0.8083277131326E-02
-0.1226217210147E-01 -0.8410478425597E-02
-0.1326717174614E-01 -0.8729369464295E-02
-0.1431313327921E-01 -0.9039862798295E-02
-0.1540104074850E-01 -0.9342203105798E-02
-0.1653189284861E-01 -0.9636812421169E-02
-0.1770662394837E-01 -0.9924242996980E-02
-0.1892601819717E-01 -0.1020523230400E-01
-0.2019057133331E-01 -0.1048082557143E-01
-0.2150030181184E-01 -0.1075252260996E-01
-0.2285446937902E-01 -0.1102240924636E-01
-0.2425122660541E-01 -0.1129324774432E-01
-0.2568734317233E-01 -0.1156814863715E-01
-0.2715787444502E-01 -0.1185035508336E-01
-0.2865568243173E-01 -0.1214342979620E-01
-0.3017120829452E-01 -0.1245089647577E-01
-0.3169250784482E-01 -0.1277576638232E-01
-0.3320562053201E-01 -0.1312007534653E-01
-0.3469526553880E-01 -0.1348460387812E-01
-0.3617372220795E-04 -0.3357890012301E-03
-0.1305889300296E-03 -0.6777161751738E-03
-0.2803088573939E-03 -0.1025559012557E-02
-0.4824148119282E-03 -0.1378826698203E-02
-0.7341514105672E-03 -0.1736812511343E-02
-0.1033033092502E-02 -0.2098653977749E-02
-0.1376906912411E-02 -0.2463405071906E-02
-0.1763973108268E-02 -0.2830102876762E-02
-0.2192769504881E-02 -0.3197816144677E-02
-0.2662136348719E-02 -0.3565676905103E-02
-0.3171171240269E-02 -0.3932893911205E-02
-0.3719182962083E-02 -0.4298751964838E-02
-0.4305652274874E-02 -0.4662603280803E-02
-0.4930198791656E-02 -0.5023852322705E-02
-0.5592556811936E-02 -0.5381938960484E-02
-0.6292561522698E-02 -0.5736323016385E-02
-0.7030150080203E-02 -0.6086473905463E-02
-0.7805325959064E-02 -0.6431843418156E-02
-0.8618227928234E-02 -0.6771888707368E-02
-0.9469072124996E-02 -0.7106040266202E-02
-0.1035819329083E-01 -0.7433720482554E-02
-0.1128604581898E-01 -0.7754350496591E-02
-0.1225320264662E-01 -0.8067365602194E-02
-0.1326035522897E-01 -0.8372297448480E-02
-0.1430830365526E-01 -0.8669078533918E-02
-0.1539790427267E-01 -0.8957960733423E-02
-0.1652999843857E-01 -0.9239381187821E-02
-0.1770532877839E-01 -0.9513924720463E-02
-0.1892444862763E-01 -0.9782376933445E-02
-0.2018758144752E-01 -0.1004583502546E-01
-0.2149443470605E-01 -0.1030583630804E-01
-0.2284392977067E-01 -0.1056446708711E-01
-0.2423387691269E-01 -0.1082442860328E-01
-0.2566073998182E-01 -0.1108872684493E-01
-0.2711936189234E-01 -0.1136045927181E-01
-0.2860255053524E-01 -0.1164295775280E-01
-0.3010091412142E-01 -0.1193945585344E-01
-0.3160293428834E-01 -0.1225266737768E-01
-0.3309532408329E-01 -0.1258438663140E-01
-0.3456365263341E-01 -0.1293525425307E-01
-0.3256428638422E-04 -0.3219506424885E-03
-0.1233711150023E-03 -0.6496583252905E-03
-0.2696131021642E-03 -0.9829207870541E-03
-0.4684919405132E-03 -0.1321292750851E-02
-0.7173503494414E-03 -0.1664131377952E-02
-0.1013770891326E-02 -0.2010647149684E-02
-0.1355637363923E-02 -0.2359966490082E-02
-0.1741159089674E-02 -0.2711190888928E-02
-0.2168861942267E-02 -0.3063441115870E-02
-0.2637560505015E-02 -0.3415887382537E-02
-0.3146319528686E-02 -0.3767763610962E-02
-0.3694412732803E-02 -0.4118368934066E-02
-0.4281286863756E-02 -0.4467061757495E-02
-0.4906530299111E-02 -0.4813247418838E-02
-0.5569849380935E-02 -0.5156363961831E-02
-0.6271054188240E-02 -0.5495868972193E-02
-0.7010058509956E-02 -0.5831231101507E-02
-0.7786842461169E-02 -0.6161905355765E-02
-0.8601519479010E-02 -0.6487356460559E-02
-0.9454275774622E-02 -0.6807029613089E-02
-0.1034540880077E-01 -0.7120369771388E-02
-0.1127532515376E-01 -0.7426829860419E-02
-0.1224453606077E-01 -0.7725887269975E-02
-0.1325365330682E-01 -0.8017120146120E-02
-0.1430337398296E-01 -0.8300480172575E-02
-0.1539442613443E-01 -0.8576224417649E-02
-0.1652749477557E-01 -0.8844801204905E-02
-0.1770313434277E-01 -0.9106821389373E-02
-0.1892167489836E-01 -0.9363109032714E-02
-0.2018308092939E-01 -0.9614800417673E-02
-0.2148676980869E-01 -0.9863454910421E-02
-0.2283135435567E-01 -0.1011114298193E-01
-0.2421434134443E-01 -0.1036049059037E-01
-0.2563193434460E-01 -0.1061438986680E-01
-0.2707881050694E-01 -0.1087579183132E-01
-0.2854776167250E-01 -0.1114780950543E-01
-0.3002958033621E-01 -0.1143341074583E-01
-0.3151315953682E-01 -0.1173504325519E-01
-0.3298583626685E-01 -0.1205428810159E-01
-0.3443395291772E-01 -0.1239166166281E-01
-0.2918203728288E-04 -0.3081341945780E-03
-0.1166085080001E-03 -0.6216594919192E-03
-0.2595884310669E-03 -0.9403916017746E-03
-0.4554322579501E-03 -0.1263926391340E-02
-0.7015725418933E-03 -0.1591679395721E-02
-0.9956559302030E-03 -0.1922928729556E-02
-0.1335602895464E-02 -0.2256869229781E-02
-0.1719634738375E-02 -0.2592664642622E-02
-0.2146269975553E-02 -0.2929487562288E-02
-0.2614302683795E-02 -0.3266547843649E-02
-0.3122769653391E-02 -0.3603107219853E-02
-0.3670913665695E-02 -0.3938482504765E-02
-0.4258150585852E-02 -0.4272041972075E-02
-0.4884039649780E-02 -0.4603195578411E-02
-0.5548260349415E-02 -0.4931383201396E-02
-0.6250597874136E-02 -0.5256063686310E-02
-0.6990942085908E-02 -0.5576708213516E-02
-0.7769248520997E-02 -0.5892778057250E-02
-0.8585603517090E-02 -0.6203748290846E-02
-0.9440161178334E-02 -0.6509081234302E-02
-0.1033317921784E-01 -0.6808246374175E-02
-0.1126501388855E-01 -0.7100729766590E-02
-0.1223611228010E-01 -0.7386051426101E-02
-0.1324700451724E-01 -0.7663835523854E-02
-0.1429828366417E-01 -0.7934051609179E-02
-0.1539054966323E-01 -0.8196959410141E-02
-0.1652433311615E-01 -0.8453014081405E-02
-0.1770000485034E-01 -0.8702845769478E-02
-0.1891768017422E-01 -0.8947307517796E-02
-0.2017707857626E-01 -0.9187562581815E-02
-0.2147734819893E-01 -0.9425178434922E-02
-0.2281682191938E-01 -0.9662195637107E-02
-0.2419273890371E-01 -0.9901153355831E-02
-0.2560108310463E-01 -0.1014482334944E-01
-0.2703640595844E-01 -0.1039601151890E-01
-0.2849151409368E-01 -0.1065762431974E-01
-0.2995739583696E-01 -0.1093238621451E-01
-0.3142333962046E-01 -0.1122250605518E-01
-0.3287726076521E-01 -0.1152937561262E-01
-0.3430620651823E-01 -0.1185340010399E-01
-0.2601775989584E-04 -0.2943366283607E-03
-0.1102826165841E-03 -0.5937122330396E-03
-0.2502081956838E-03 -0.8979585980857E-03
-0.4432030394644E-03 -0.1206709054536E-02
-0.6867817275010E-03 -0.1519432844279E-02
-0.9786508635992E-03 -0.1835471126479E-02
-0.1316767016201E-02 -0.2154083577539E-02
-0.1699365639698E-02 -0.2474494194821E-02
-0.2124961758629E-02 -0.2795927079077E-02
-0.2592333488771E-02 -0.3117632888871E-02
-0.3100494109867E-02 -0.3438903431569E-02
-0.3648659321549E-02 -0.3759076166059E-02
-0.4236217113732E-02 -0.4077532558313E-02
-0.4862699651744E-02 -0.4393690620729E-02
-0.5527760734344E-02 -0.4706995454482E-02
-0.6231160979924E-02 -0.5016910411771E-02
-0.6972765903649E-02 -0.5322912247978E-02
-0.7752505420522E-02 -0.5624471297227E-02
-0.8570437217884E-02 -0.5921075465783E-02
-0.9426681375388E-02 -0.6212206286493E-02
-0.1032145373393E-01 -0.6497359360409E-02
-0.1125505804044E-01 -0.6776054805100E-02
-0.1222787528148E-01 -0.7047855336542E-02
-0.1324035248248E-01 -0.7312430209076E-02
-0.1429297828894E-01 -0.7569765055815E-02
-0.1538622547391E-01 -0.7820119318337E-02
-0.1652047298327E-01 -0.8063950343051E-02
-0.1769591347381E-01 -0.8301900779558E-02
-0.1891245676859E-01 -0.8534843510844E-02
-0.2016959172819E-01 -0.8763957517083E-02
-0.2146621782285E-01 -0.8990805912688E-02
-0.2280041517468E-01 -0.9217387329879E-02
-0.2416918834010E-01 -0.9446145020896E-02
-0.2556833780824E-01 -0.9679726130050E-02
-0.2699232354202E-01 -0.9920794262689E-02
-0.2843399178151E-01 -0.1017206150407E-01
-0.2988453380800E-01 -0.1043602919279E-01
-0.3133361656042E-01 -0.1071469105913E-01
-0.3276969171775E-01 -0.1100926993658E-01
-0.3418045004989E-01 -0.1132007082030E-01
-0.2306314233518E-04 -0.2805552113578E-03
-0.1043767742516E-03 -0.5658098046328E-03
-0.2414483124162E-03 -0.8556100659508E-03
-0.4317745328086E-03 -0.1149623724716E-02
-0.6729446490491E-03 -0.1447369800205E-02
-0.9627210544423E-03 -0.1748248571284E-02
-0.1299095434245E-02 -0.2051581426196E-02
-0.1680318977428E-02 -0.2356650782138E-02
-0.2104906456117E-02 -0.2662731858462E-02
-0.2571624028753E-02 -0.2969117037327E-02
-0.3079465510912E-02 -0.3275130133670E-02
-0.3627623119449E-02 -0.3580131861656E-02
-0.4215459844508E-02 -0.3883519865593E-02
-0.4842482819927E-02 -0.4184723343684E-02
-0.5508321348621E-02 -0.4483195733814E-02
-0.6212711890527E-02 -0.4778407885084E-02
-0.6955495331173E-02 -0.5069844921110E-02
-0.7736575098932E-02 -0.5356988764331E-02
-0.8555978898653E-02 -0.5639342354232E-02
-0.9413791133653E-02 -0.5916408211981E-02
-0.1031018395915E-01 -0.6187709291723E-02
-0.1124540683409E-01 -0.6452800324964E-02
-0.1221977312775E-01 -0.6711286407825E-02
-0.1323364585501E-01 -0.6962880538157E-02
-0.1428740944533E-01 -0.7207582277026E-02
-0.1538141110034E-01 -0.7445647525949E-02
-0.1651588158314E-01 -0.7677531016233E-02
-0.1769084151889E-01 -0.7903881188056E-02
-0.1890600505752E-01 -0.8125582061695E-02
-0.2016064496361E-01 -0.8343818005823E-02
-0.2145343207015E-01 -0.8560136739034E-02
-0.2278221939443E-01 -0.8776484817352E-02
-0.2414380707665E-01 -0.8995202497374E-02
-0.2553384418183E-01 -0.9218809895965E-02
-0.2694672838990E-01 -0.9449832209407E-02
-0.2837536539047E-01 -0.9690799013455E-02
-0.2981115311152E-01 -0.9944006864053E-02
-0.3124411973071E-01 -0.1021125506905E-01
-0.3266321462720E-01 -0.1049361489162E-01
-0.3405671693364E-01 -0.1079130017835E-01
-0.2031070437055E-04 -0.2667874509640E-03
-0.9887599404186E-04 -0.5379460266101E-03
-0.2332870676876E-03 -0.8133352238609E-03
-0.4211197600036E-03 -0.1092654639688E-02
-0.6600308956000E-03 -0.1375469792762E-02
-0.9478344883592E-03 -0.1661236759365E-02
-0.1282556051647E-02 -0.1949335937354E-02
-0.1662463602241E-02 -0.2239106524760E-02
-0.2086074368449E-02 -0.2529874444073E-02
-0.2552146080437E-02 -0.2820974529592E-02
-0.3059656770922E-02 -0.3111764250215E-02
-0.3607778531106E-02 -0.3401629861586E-02
-0.4195852097498E-02 -0.3689987850107E-02
-0.4823361573886E-02 -0.3976281427958E-02
-0.5489912997732E-02 -0.4259975204428E-02
-0.6195219170953E-02 -0.4540550253763E-02
-0.6939096199996E-02 -0.4817502604985E-02
-0.7721420336839E-02 -0.5090328035361E-02
-0.8542188190102E-02 -0.5358546440842E-02
-0.9401447099873E-02 -0.5621682808109E-02
-0.1029932403850E-01 -0.5879288362123E-02
-0.1123601276824E-01 -0.6130952661667E-02
-0.1221175796269E-01 -0.6376322516689E-02
-0.1322683821391E-01 -0.6615152999234E-02
-0.1428153448567E-01 -0.6847455149002E-02
-0.1537607059719E-01 -0.7073477859247E-02
-0.1651053321090E-01 -0.7293668373132E-02
-0.1768477761294E-01 -0.7508674382912E-02
-0.1889833245482E-01 -0.7719382856944E-02
-0.2015026890363E-01 -0.7926974144505E-02
-0.2143904850468E-01 -0.8132970885922E-02
-0.2276232122410E-01 -0.8339259088538E-02
-0.2411671030438E-01 -0.8548070669394E-02
-0.2549774170688E-01 -0.8761797756675E-02
-0.2689977564869E-01 -0.8982831744227E-02
-0.2831579298357E-01 -0.9213531061720E-02
-0.2973739933117E-01 -0.9456004030990E-02
-0.3115496681355E-01 -0.9711873618366E-02
-0.3255790688228E-01 -0.9982074354932E-02
-0.3393503732639E-01 -0.1026673640950E-01
-0.1775373979108E-04 -0.2530310468521E-03
-0.9376685025201E-04 -0.5101151733255E-03
-0.2257049600523E-03 -0.7711240424157E-03
-0.4112143563727E-03 -0.1035787058153E-02
-0.6480127760212E-03 -0.1303713540642E-02
-0.9339617081730E-03 -0.1574412590290E-02
-0.1267118970191E-02 -0.1847321316223E-02
-0.1645770104782E-02 -0.2121834260959E-02
-0.2068437059446E-02 -0.2397327638967E-02
-0.2533872254795E-02 -0.2673179313595E-02
-0.3041041296758E-02 -0.2948781803613E-02
-0.3589099285259E-02 -0.3223548895356E-02
-0.4177367324882E-02 -0.3496918275007E-02
-0.4805308450288E-02 -0.3768349702141E-02
-0.5472506691230E-02 -0.4037321515058E-02
-0.6178651774309E-02 -0.4303327478894E-02
-0.6923535006536E-02 -0.4565876809628E-02
-0.7707004946319E-02 -0.4824481148259E-02
-0.8529026208218E-02 -0.5078679003642E-02
-0.9389607943800E-02 -0.5328019024872E-02
-0.1028883075567E-01 -0.5572081331886E-02
-0.1122683166297E-01 -0.5810490223144E-02
-0.1220378598146E-01 -0.6042933261635E-02
-0.1321988793469E-01 -0.6269205657847E-02
-0.1427531626895E-01 -0.6489327259589E-02
-0.1537017412838E-01 -0.6703536349096E-02
-0.1650440866336E-01 -0.6912267825554E-02
-0.1767771693378E-01 -0.7116162343875E-02
-0.1888945247275E-01 -0.7316102191096E-02
-0.2013849915758E-01 -0.7513255209555E-02
-0.2142312779457E-01 -0.7709110543745E-02
-0.2274080774337E-01 -0.7905486668960E-02
-0.2408801035201E-01 -0.8104503281764E-02
-0.2546016346290E-01 -0.8308424699788E-02
-0.2685161088566E-01 -0.8519513576703E-02
-0.2825542095253E-01 -0.8739967961928E-02
-0.2966340599257E-01 -0.8971722840480E-02
-0.3106626500540E-01 -0.9216240644786E-02
-0.3245383866997E-01 -0.9474331859828E-02
-0.3381543857958E-01 -0.9746049079099E-02
-0.1538627026165E-04 -0.2392838489331E-03
-0.8903738224501E-04 -0.4823118731196E-03
-0.2186845694765E-03 -0.7289670770224E-03
-0.4020364338489E-03 -0.9790070301123E-03
-0.6368652068142E-03 -0.1232082677451E-02
-0.9210757488664E-03 -0.1487753873176E-02
-0.1252756483592E-02 -0.1745512521824E-02
-0.1630210863467E-02 -0.2004807281248E-02
-0.2051967450346E-02 -0.2265064274299E-02
-0.2516776124887E-02 -0.2525704850162E-02
-0.3023593137381E-02 -0.2786157753554E-02
-0.3571559529593E-02 -0.3045866017944E-02
-0.4159979279177E-02 -0.3304290596906E-02
-0.4788296271555E-02 -0.3560910044892E-02
-0.5456073809515E-02 -0.3815218713812E-02
-0.6162979204004E-02 -0.4066725265320E-02
-0.6908779066401E-02 -0.4314954131726E-02
-0.7693293912572E-02 -0.4559434576025E-02
-0.8516455676651E-02 -0.4799725121959E-02
-0.9378234452247E-02 -0.5035399017057E-02
-0.1027866358690E-01 -0.5266065634610E-02
-0.1121782265827E-01 -0.5491383661645E-02
-0.1219581735568E-01 -0.5711080206929E-02
-0.1321275801954E-01 -0.5924988475230E-02
-0.1426872287361E-01 -0.6133134294805E-02
-0.1536369754049E-01 -0.6335741667724E-02
-0.1649749465716E-01 -0.6533228377854E-02
-0.1766966046953E-01 -0.6726222057661E-02
-0.1887938384294E-01 -0.6915593268881E-02
-0.2012537535592E-01 -0.7102489753884E-02
-0.2140573274574E-01 -0.7288359911597E-02
-0.2271776562373E-01 -0.7474949014662E-02
-0.2405781610732E-01 -0.7664261881322E-02
-0.2542123593203E-01 -0.7858436077918E-02
-0.2680237032508E-01 -0.8059610833342E-02
-0.2819438461621E-01 -0.8269833927639E-02
-0.2958929532687E-01 -0.8490880392182E-02
-0.3097811167568E-01 -0.8724065949789E-02
-0.3235107328726E-01 -0.8970087883840E-02
-0.3369794504660E-01 -0.9228926155043E-02
-0.1320300962689E-04 -0.2255438215830E-03
-0.8467701948893E-04 -0.4545310247246E-03
-0.2122104549505E-03 -0.6868553308643E-03
-0.3935664738507E-03 -0.9223012119197E-03
-0.6265656252698E-03 -0.1160559535561E-02
-0.9091520904805E-03 -0.1401239103139E-02
-0.1239443079904E-02 -0.1643885060812E-02
-0.1615760096528E-02 -0.1887999160090E-02
-0.2036639914804E-02 -0.2133057092402E-02
-0.2500832353884E-02 -0.2378524053826E-02
-0.3007287134687E-02 -0.2623865996469E-02
-0.3555133995613E-02 -0.2868556665820E-02
-0.4143662185400E-02 -0.3112082075718E-02
-0.4772298320280E-02 -0.3353941546898E-02
-0.5440586276491E-02 -0.3593647462704E-02
-0.6148171680817E-02 -0.3830725331746E-02
-0.6894796671459E-02 -0.4064716585872E-02
-0.7680253535378E-02 -0.4295169626871E-02
-0.8504441045213E-02 -0.4521664154949E-02
-0.9367289615189E-02 -0.4743798711545E-02
-0.1026878474289E-01 -0.4961212043696E-02
-0.1120894819761E-01 -0.5173596648472E-02
-0.1218781614197E-01 -0.5380717771492E-02
-0.1320541591274E-01 -0.5582444311721E-02
-0.1426172730136E-01 -0.5778805148928E-02
-0.1535662193959E-01 -0.5970006326290E-02
-0.1648978327019E-01 -0.6156443878145E-02
-0.1766061432995E-01 -0.6338726771919E-02
-0.1886814972391E-01 -0.6517707393972E-02
-0.2011094030872E-01 -0.6694506649608E-02
-0.2138692749754E-01 -0.6870526010611E-02
-0.2269328047362E-01 -0.7047433026162E-02
-0.2402623263266E-01 -0.7227115993639E-02
-0.2538107898212E-01 -0.7411587457309E-02
-0.2675218123157E-01 -0.7602868636470E-02
-0.2813280893896E-01 -0.7802866470218E-02
-0.2951517915845E-01 -0.8013208034148E-02
-0.3089059520298E-01 -0.8235074427504E-02
-0.3224966772306E-01 -0.8469058995388E-02
-0.3358257826882E-01 -0.8715073032075E-02
-0.1119933728962E-04 -0.2118090120668E-03
-0.8067652436723E-04 -0.4267677221889E-03
-0.2062690749759E-03 -0.6447801300414E-03
-0.3857872426569E-03 -0.8656566948926E-03
-0.6170939195446E-03 -0.1089126941337E-02
-0.8981686190940E-03 -0.1314847242864E-02
-0.1227155442399E-02 -0.1542414776633E-02
-0.1602393904164E-02 -0.1771383570795E-02
-0.2022430357883E-02 -0.2001278599809E-02
-0.2486016803354E-02 -0.2231609190127E-02
-0.2992099052785E-02 -0.2461879308261E-02
-0.3539798141335E-02 -0.2691594643283E-02
-0.4128390890922E-02 -0.2920267801800E-02
-0.4757288491217E-02 -0.3147420576685E-02
-0.5426016709402E-02 -0.3372585141650E-02
-0.6134200286381E-02 -0.3595305554585E-02
-0.6881557222212E-02 -0.3815141792083E-02
-0.7667851544511E-02 -0.4031662681132E-02
-0.8492948580997E-02 -0.4244470034968E-02
-0.9356738683476E-02 -0.4453188164875E-02
-0.1025915918203E-01 -0.4657485101514E-02
-0.1120017398354E-01 -0.4857086380569E-02
-0.1217975016529E-01 -0.5051793815404E-02
-0.1319783329620E-01 -0.5241509590122E-02
-0.1425430717047E-01 -0.5426262653803E-02
-0.1534893327108E-01 -0.5606237448808E-02
-0.1648127140459E-01 -0.5781803802629E-02
-0.1765058910193E-01 -0.5953546741440E-02
-0.1885577697769E-01 -0.6122294615257E-02
-0.2009523925555E-01 -0.6289135564057E-02
-0.2136677682315E-01 -0.6455418920570E-02
-0.2266743628484E-01 -0.6622730991484E-02
-0.2399336085415E-01 -0.6792842748054E-02
-0.2533980586986E-01 -0.6967643940397E-02
-0.2670116224055E-01 -0.7149043178306E-02
-0.2807080912035E-01 -0.7338815298499E-02
-0.2944115960684E-01 -0.7538450151211E-02
-0.3080379560038E-01 -0.7749004767250E-02
-0.3214967303102E-01 -0.7970976454827E-02
-0.3346935696893E-01 -0.8204210992080E-02
-0.9371279845018E-05 -0.1980775226370E-03
-0.7702795131872E-04 -0.3990171881625E-03
-0.2008487294786E-03 -0.6027330120914E-03
-0.3786837286748E-03 -0.8090608515414E-03
-0.6084323765818E-03 -0.1017768030392E-02
-0.8881055986390E-03 -0.1228557524355E-02
-0.1215872453391E-02 -0.1441077657089E-02
-0.1590090306634E-02 -0.1654934115914E-02
-0.2009316285870E-02 -0.1869700932658E-02
-0.2472306629297E-02 -0.2084931782731E-02
-0.2978005693616E-02 -0.2300169295246E-02
-0.3525528279989E-02 -0.2514952116364E-02
-0.4114141001457E-02 -0.2728820730807E-02
-0.4743241429523E-02 -0.2941320854715E-02
-0.5412338554728E-02 -0.3152005961387E-02
-0.6121037092088E-02 -0.3360440121022E-02
-0.6869031344552E-02 -0.3566203172151E-02
-0.7656057198227E-02 -0.3768885435573E-02
-0.8481946441175E-02 -0.3968111565581E-02
-0.9346549206987E-02 -0.4163531921048E-02
-0.1024975460337E-01 -0.4354843542508E-02
-0.1119146891364E-01 -0.4541804072594E-02
-0.1217159088500E-01 -0.4724250201158E-02
-0.1318998587283E-01 -0.4902114920918E-02
-0.1424644440523E-01 -0.5075424255398E-02
-0.1534062190848E-01 -0.5244337477919E-02
-0.1647196027576E-01 -0.5409193957224E-02
-0.1763959925213E-01 -0.5570549880415E-02
-0.1884229551595E-01 -0.5729204274277E-02
-0.2007831920549E-01 -0.5886207341832E-02
-0.2134534553280E-01 -0.6042851939751E-02
-0.2264031498068E-01 -0.6200640482477E-02
-0.2395929733319E-01 -0.6361226496317E-02
-0.2529752328813E-01 -0.6526379526367E-02
-0.2664942368322E-01 -0.6697900873219E-02
-0.2800849113244E-01 -0.6877441325846E-02
-0.2936732970878E-01 -0.7066363077925E-02
-0.3071778506185E-01 -0.7265608291092E-02
-0.3205113464929E-01 -0.7475584960770E-02
-0.3335829703267E-01 -0.7696075821529E-02
-0.7715500322063E-05 -0.1843474856825E-03
-0.7372462097982E-04 -0.3712747142126E-03
-0.1959395214711E-03 -0.5607056259995E-03
-0.3722431000970E-03 -0.7525011974244E-03
-0.6005656470016E-03 -0.9464660814961E-03
-0.8789456535062E-03 -0.1142349270902E-02
-0.1205575201747E-02 -0.1339849662283E-02
-0.1578829279567E-02 -0.1538624177376E-02
-0.1997276868418E-02 -0.1738295741045E-02
-0.2459680367481E-02 -0.1938462539134E-02
-0.2964985000410E-02 -0.2138706364059E-02
-0.3512301696142E-02 -0.2338599626936E-02
-0.4100889004557E-02 -0.2537711740717E-02
-0.4730132656646E-02 -0.2735613552089E-02
-0.5399526211649E-02 -0.2931881103572E-02
-0.6108655275174E-02 -0.3126099711654E-02
-0.6857190992980E-02 -0.3317870177430E-02
-0.7644841367282E-02 -0.3506805180193E-02
-0.8471404730381E-02 -0.3692552752003E-02
-0.9336691056758E-02 -0.3874789400309E-02
-0.1024054142372E-01 -0.4053240744224E-02
-0.1118280500172E-01 -0.4227695472111E-02
-0.1216331324901E-01 -0.4398023371431E-02
-0.1318185314341E-01 -0.4564185735830E-02
-0.1423812492774E-01 -0.4726202689437E-02
-0.1533168225691E-01 -0.4884204870423E-02
-0.1646185493221E-01 -0.5038497161098E-02
-0.1762766257914E-01 -0.5189602392347E-02
-0.1882773771562E-01 -0.5338285532282E-02
-0.2006022836339E-01 -0.5485554377137E-02
-0.2132269797281E-01 -0.5632641756143E-02
-0.2261199605700E-01 -0.5780964293955E-02
-0.2392413411247E-01 -0.5932058513121E-02
-0.2525433145480E-01 -0.6087576595123E-02
-0.2659706791201E-01 -0.6249217670998E-02
-0.2794595222109E-01 -0.6418515867165E-02
-0.2929377398512E-01 -0.6596714221269E-02
-0.3063262845897E-01 -0.6784648015699E-02
-0.3195409269748E-01 -0.6982641634418E-02
-0.3324941150918E-01 -0.7190416681622E-02
-0.6229294564146E-05 -0.1706170412459E-03
-0.7076110829112E-04 -0.3435356063662E-03
-0.1915333370192E-03 -0.5186896405422E-03
-0.3664546814146E-03 -0.6959652641734E-03
-0.5934807256454E-03 -0.8752043636626E-03
-0.8706737610118E-03 -0.1056201733011E-02
-0.1196246993494E-02 -0.1238706566157E-02
-0.1568592786139E-02 -0.1422426778906E-02
-0.1986292992747E-02 -0.1607034083914E-02
-0.2448118007659E-02 -0.1792171285117E-02
-0.2953016148350E-02 -0.1977459698792E-02
-0.3500096748376E-02 -0.2162506112914E-02
-0.4088612379581E-02 -0.2346909694125E-02
-0.4717938682773E-02 -0.2530267393844E-02
-0.5387555142064E-02 -0.2712178864718E-02
-0.6097029221126E-02 -0.2892251685816E-02
-0.6846009539720E-02 -0.3070108517533E-02
-0.7634176604331E-02 -0.3245385073215E-02
-0.8461295543083E-02 -0.3417753125840E-02
-0.9327136432020E-02 -0.3586915276980E-02
-0.1023149274017E-01 -0.3752625160575E-02
-0.1117415728629E-01 -0.3914701348556E-02
-0.1215489553891E-01 -0.4073044890638E-02
-0.1317341818027E-01 -0.4227642873888E-02
-0.1422933835501E-01 -0.4378506597669E-02
-0.1532211237357E-01 -0.4525734721897E-02
-0.1645096380692E-01 -0.4669593849540E-02
-0.1761479971380E-01 -0.4810569313210E-02
-0.1881213789865E-01 -0.4949387810159E-02
-0.2004101563307E-01 -0.5087010906273E-02
-0.2129889760673E-01 -0.5224608554760E-02
-0.2258255629921E-01 -0.5363510342945E-02
-0.2388795861792E-01 -0.5505136686278E-02
-0.2521032422532E-01 -0.5651025411589E-02
-0.2654418961185E-01 -0.5802778417519E-02
-0.2788328135946E-01 -0.5961819903466E-02
-0.2922056894190E-01 -0.6129281264066E-02
-0.3054838377475E-01 -0.6305897803574E-02
-0.3185858223223E-01 -0.6491915100290E-02
-0.3314271060401E-01 -0.6686995082056E-02
-0.4910594467376E-05 -0.1568843162725E-03
-0.6813324390341E-04 -0.3157951341848E-03
-0.1876238425228E-03 -0.4766766579802E-03
-0.3613099476567E-03 -0.6394404794316E-03
-0.5871669467275E-03 -0.8039659910890E-03
-0.8632772529090E-03 -0.9700939322127E-03
-0.1187873365005E-02 -0.1137623804844E-02
-0.1559364805783E-02 -0.1306314453252E-02
-0.1976347309607E-02 -0.1475886325985E-02
-0.2437601056379E-02 -0.1646026898033E-02
-0.2942079622032E-02 -0.1816397233573E-02
-0.3488892957989E-02 -0.1986638920420E-02
-0.4077289693475E-02 -0.2156381488974E-02
-0.4706637105089E-02 -0.2325248747026E-02
-0.5376401966404E-02 -0.2492864780906E-02
-0.6086134611759E-02 -0.2658860243192E-02
-0.6835461849271E-02 -0.2822880360020E-02
-0.7624037198532E-02 -0.2984584380805E-02
-0.8451592991064E-02 -0.3143668027084E-02
-0.9317859852683E-02 -0.3299859805666E-02
-0.1022258427919E-01 -0.3452940693126E-02
-0.1116550372779E-01 -0.3602757908410E-02
-0.1214631920742E-01 -0.3749241899530E-02
-0.1316466739897E-01 -0.3892403066481E-02
-0.1422007770217E-01 -0.4032241028750E-02
-0.1531191360491E-01 -0.4168819262260E-02
-0.1643929829823E-01 -0.4302362536083E-02
-0.1760103366271E-01 -0.4433314905743E-02
-0.1879553186798E-01 -0.4562361076645E-02
-0.2002073018577E-01 -0.4690413152094E-02
-0.2127400666327E-01 -0.4818575987661E-02
-0.2255206955692E-01 -0.4948091447563E-02
-0.2385085359740E-01 -0.5080265107180E-02
-0.2516558921070E-01 -0.5216523551183E-02
-0.2649087608105E-01 -0.5358376154172E-02
-0.2782055964041E-01 -0.5507143297458E-02
-0.2914778349337E-01 -0.5663851326439E-02
-0.3046510246105E-01 -0.5829141475633E-02
-0.3176463344446E-01 -0.6003184529365E-02
-0.3303820164214E-01 -0.6185583817655E-02
-0.3757977989644E-05 -0.1431474051452E-03
-0.6583812863817E-04 -0.2880484824409E-03
-0.1842064989030E-03 -0.4346581318191E-03
-0.3568025358896E-03 -0.5829140524546E-03
-0.5816159932267E-03 -0.7327337853045E-03
-0.8567458258414E-03 -0.8840045132977E-03
-0.1180442099010E-02 -0.1036576334114E-02
-0.1551131360082E-02 -0.1190259118474E-02
-0.1967424272037E-02 -0.1344822043109E-02
-0.2428112589665E-02 -0.1499997247408E-02
-0.2932157281190E-02 -0.1655485631060E-02
-0.3478671085307E-02 -0.1810963820362E-02
-0.4066900684054E-02 -0.1966092112155E-02
-0.4696206693648E-02 -0.2120521709989E-02
-0.5366044547181E-02 -0.2273901751913E-02
-0.6075948501062E-02 -0.2425886582617E-02
-0.6825524340693E-02 -0.2576144524534E-02
-0.7614399217869E-02 -0.2724358707689E-02
-0.8442273218807E-02 -0.2870248872501E-02
-0.9308838140326E-02 -0.3013569128259E-02
-0.1021379433554E-01 -0.3154127036395E-02
-0.1115682509784E-01 -0.3291797176462E-02
-0.1213756871163E-01 -0.3426537527049E-02
-0.1315559033140E-01 -0.3558379370310E-02
-0.1421033909483E-01 -0.3687307877849E-02
-0.1530109024277E-01 -0.3813348281943E-02
-0.1642687238104E-01 -0.3936680199381E-02
-0.1758638939432E-01 -0.4057702976192E-02
-0.1877795649697E-01 -0.4177056061465E-02
-0.1999942108923E-01 -0.4295599401566E-02
-0.2124808584553E-01 -0.4414371090948E-02
-0.2252060657140E-01 -0.4534525071405E-02
-0.2381289709353E-01 -0.4657253647795E-02
-0.2512020790301E-01 -0.4783875332524E-02
-0.2643720749022E-01 -0.4915811442495E-02
-0.2775786062232E-01 -0.5054284048611E-02
-0.2907547932752E-01 -0.5200220177821E-02
-0.3038282974525E-01 -0.5354171982909E-02
-0.3167227182781E-01 -0.5516238747625E-02
-0.3293588903190E-01 -0.5685965975459E-02
-0.2770686050701E-05 -0.1294043514536E-03
-0.6387416121116E-04 -0.2602907062217E-03
-0.1812785929707E-03 -0.3926252913200E-03
-0.3529282743512E-03 -0.5263728711929E-03
-0.5768219211459E-03 -0.6614901549559E-03
-0.8510715618313E-03 -0.7979116215359E-03
-0.1173943245207E-02 -0.9355385199652E-03
-0.1543880538440E-02 -0.1074231996066E-02
-0.1959510170374E-02 -0.1213809978493E-02
-0.2419637299887E-02 -0.1354049195873E-02
-0.2923232419831E-02 -0.1494690331257E-02
-0.3469413199493E-02 -0.1635445106025E-02
-0.4057426337371E-02 -0.1776004785583E-02
-0.4686627472102E-02 -0.1916048306421E-02
-0.5356462068128E-02 -0.2055250282998E-02
-0.6066449387292E-02 -0.2193289192042E-02
-0.6816175046730E-02 -0.2329856821879E-02
-0.7605240548935E-02 -0.2464660386629E-02
-0.8433314417182E-02 -0.2597443596677E-02
-0.9300050398710E-02 -0.2727985767120E-02
-0.1020510371252E-01 -0.2856120222503E-02
-0.1114810487298E-01 -0.2981747589247E-02
-0.1212863135519E-01 -0.3104851527037E-02
-0.1314617941394E-01 -0.3225481838141E-02
-0.1420012150460E-01 -0.3343606577863E-02
-0.1528964921397E-01 -0.3459209825223E-02
-0.1641370226389E-01 -0.3572422955518E-02
-0.1757089348404E-01 -0.3683597498569E-02
-0.1875944939067E-01 -0.3793324802793E-02
-0.1997713701877E-01 -0.3902410449609E-02
-0.2122119412725E-01 -0.4011824604951E-02
-0.2248823488839E-01 -0.4122633511800E-02
-0.2377416249275E-01 -0.4235918024061E-02
-0.2507425586224E-01 -0.4352891778843E-02
-0.2638325718691E-01 -0.4474892258218E-02
-0.2769525071146E-01 -0.4603048156814E-02
-0.2900371131229E-01 -0.4738192096352E-02
-0.3030160499999E-01 -0.4880791264456E-02
-0.3158151844776E-01 -0.5030876068267E-02
-0.3283577437278E-01 -0.5187934701372E-02
-0.1948646448918E-05 -0.1156531290163E-03
-0.6224107892285E-04 -0.2325166814479E-03
-0.1788392846665E-03 -0.3505690552404E-03
-0.3496852264092E-03 -0.4698033804440E-03
-0.5727811940167E-03 -0.5902169466640E-03
-0.8462489522526E-03 -0.7117927388511E-03
-0.1168369136982E-02 -0.8344839734361E-03
-0.1537602513113E-02 -0.9582034554350E-03
-0.1952593151160E-02 -0.1082817904043E-02
-0.2412161522497E-02 -0.1208148480540E-02
-0.2915289802407E-02 -0.1333975452903E-02
-0.3461102723480E-02 -0.1460045512381E-02
-0.4048848938859E-02 -0.1586080900426E-02
-0.4677880771177E-02 -0.1711788431431E-02
-0.5347635085281E-02 -0.1836868440189E-02
-0.6057617256328E-02 -0.1961023810945E-02
-0.6807393643688E-02 -0.2083970022027E-02
-0.7596540907232E-02 -0.2205438450715E-02
-0.8424696807726E-02 -0.2325196627188E-02
-0.9291477965490E-02 -0.2443048601131E-02
-0.1019649563474E-01 -0.2558852594969E-02
-0.1113932910259E-01 -0.2672533961738E-02
-0.1211949710724E-01 -0.2784100230570E-02
-0.1313642975583E-01 -0.2893617446427E-02
-0.1418942646918E-01 -0.3001033988399E-02
-0.1527759975918E-01 -0.3106290022726E-02
-0.1639980603923E-01 -0.3209465812363E-02
-0.1755457375510E-01 -0.3310862266217E-02
-0.1874004854176E-01 -0.3411020170335E-02
-0.1995392595611E-01 -0.3510688970126E-02
-0.2119338852173E-01 -0.3610770175808E-02
-0.2245501871779E-01 -0.3712242924933E-02
-0.2373471848453E-01 -0.3816078650914E-02
-0.2502780276705E-01 -0.3923389323089E-02
-0.2632909181199E-01 -0.4035432577358E-02
-0.2763278930486E-01 -0.4153248123438E-02
-0.2893252762046E-01 -0.4277578309657E-02
-0.3022146180448E-01 -0.4408808629021E-02
-0.3149238988885E-01 -0.4546902584994E-02
-0.3273785623044E-01 -0.4691291357927E-02
-0.1292505476158E-05 -0.1018916242578E-03
-0.6094001316601E-04 -0.2047210614716E-03
-0.1768896734117E-03 -0.3084799600963E-03
-0.3470737542143E-03 -0.4131914876211E-03
-0.5694927345746E-03 -0.5188953416379E-03
-0.8422749348609E-03 -0.6256245887216E-03
-0.1163714417105E-02 -0.7333854812620E-03
-0.1532289560277E-02 -0.8421429847604E-03
-0.1946663240770E-02 -0.9518126414914E-03
-0.2405673267720E-02 -0.1062259790280E-02
-0.2908315706361E-02 -0.1173303929618E-02
-0.3453724487383E-02 -0.1284726411947E-02
-0.4041152135356E-02 -0.1396280272747E-02
-0.4669949295452E-02 -0.1507700166997E-02
-0.5339545593605E-02 -0.1618712225915E-02
-0.6049433642651E-02 -0.1729043866955E-02
-0.6799161500884E-02 -0.1838434352781E-02
-0.7588281868947E-02 -0.1946639195110E-02
-0.8416402650508E-02 -0.2053449510029E-02
-0.9283104389945E-02 -0.2158693554564E-02
-0.1018795568994E-01 -0.2262253559499E-02
-0.1113048631018E-01 -0.2364078296720E-02
-0.1211015846037E-01 -0.2464197408250E-02
-0.1312633895409E-01 -0.2562691002062E-02
-0.1417825786860E-01 -0.2659485335472E-02
-0.1526495318005E-01 -0.2754474049313E-02
-0.1638520341717E-01 -0.2847683627833E-02
-0.1753745902014E-01 -0.2939361830268E-02
-0.1871979210612E-01 -0.3029996763122E-02
-0.1992983502730E-01 -0.3120280354240E-02
-0.2116472400830E-01 -0.3211045120738E-02
-0.2242101896788E-01 -0.3303184013935E-02
-0.2369462921005E-01 -0.3397561260906E-02
-0.2498091266923E-01 -0.3495190377521E-02
-0.2627477163689E-01 -0.3597252928005E-02
-0.2757052917903E-01 -0.3704703521860E-02
-0.2886197014015E-01 -0.3818197615241E-02
-0.3014242835317E-01 -0.3938041434148E-02
-0.3140489863039E-01 -0.4064132883081E-02
-0.3264213042321E-01 -0.4195846217231E-02
-0.8036676699451E-06 -0.8811761633415E-04
-0.5997355954814E-04 -0.1768982245136E-03
-0.1754328815551E-03 -0.2663480690445E-03
-0.3450965971179E-03 -0.3565224365536E-03
-0.5669579850195E-03 -0.4475057058332E-03
-0.8391489312984E-03 -0.5393829778617E-03
-0.1159976055727E-02 -0.6322148533599E-03
-0.1527936066384E-02 -0.7260190545802E-03
-0.1941712348917E-02 -0.8207599474205E-03
-0.2400162228174E-02 -0.9163466731698E-03
-0.2902297937778E-02 -0.1012637437826E-02
-0.3447264752938E-02 -0.1109447759765E-02
-0.4034320966520E-02 -0.1206561101742E-02
-0.4662817158134E-02 -0.1303739749966E-02
-0.5332177060454E-02 -0.1400735553823E-02
-0.6041881656178E-02 -0.1497300455063E-02
-0.6791461695236E-02 -0.1593197481261E-02
-0.7580446867523E-02 -0.1688206158673E-02
-0.8408416216807E-02 -0.1782140888879E-02
-0.9274915376022E-02 -0.1874853570745E-02
-0.1017947173707E-01 -0.1966249547689E-02
-0.1112156736219E-01 -0.2056299732734E-02
-0.1210061025764E-01 -0.2145054194825E-02
-0.1311590687920E-01 -0.2232605034007E-02
-0.1416662167388E-01 -0.2318854058147E-02
-0.1525172255995E-01 -0.2403645911363E-02
-0.1636991543216E-01 -0.2486950821101E-02
-0.1751957879273E-01 -0.2568961116374E-02
-0.1869871814129E-01 -0.2650110412922E-02
-0.1990491029035E-01 -0.2731032083191E-02
-0.2113525338748E-01 -0.2812489657700E-02
-0.2238629317709E-01 -0.2895291110115E-02
-0.2365395426677E-01 -0.2980195841935E-02
-0.2493364405237E-01 -0.3068122143983E-02
-0.2622035064571E-01 -0.3160179099577E-02
-0.2750851656161E-01 -0.3257239639586E-02
-0.2879207451213E-01 -0.3359874988958E-02
-0.3006452745143E-01 -0.3468313674891E-02
-0.3131905298982E-01 -0.3582388578786E-02
-0.3254858985743E-01 -0.3701416885918E-02
-0.4843448103166E-06 -0.7432875670219E-04
-0.5934586515565E-04 -0.1490422209692E-03
-0.1744741586299E-03 -0.2241628831858E-03
-0.3437589696134E-03 -0.2997806899603E-03
-0.5651809818881E-03 -0.3760274594437E-03
-0.8368728929853E-03 -0.4530426718798E-03
-0.1157153371270E-02 -0.5309428217212E-03
-0.1524538533758E-02 -0.6097990517368E-03
-0.1937734269757E-02 -0.6896244882626E-03
-0.2395619784130E-02 -0.7703715539602E-03
-0.2897225845763E-02 -0.8519364553317E-03
-0.3441711238297E-02 -0.9341681906035E-03
-0.4028341898370E-02 -0.1016880103055E-02
-0.4656469919724E-02 -0.1099861739481E-02
-0.5325514464530E-02 -0.1182890448944E-02
-0.6034946016141E-02 -0.1265742569592E-02
-0.6784279034451E-02 -0.1348204776938E-02
-0.7573021200473E-02 -0.1430080417087E-02
-0.8400723773956E-02 -0.1511206826759E-02
-0.9266898739834E-02 -0.1591458959790E-02
-0.1017103383165E-01 -0.1670764387201E-02
-0.1111256535753E-01 -0.1749114931669E-02
-0.1209084954480E-01 -0.1826579487575E-02
-0.1310513549141E-01 -0.1903260194129E-02
-0.1415452573304E-01 -0.1979032201798E-02
-0.1523792252987E-01 -0.2053688820622E-02
-0.1635396420437E-01 -0.2127141713566E-02
-0.1750096306415E-01 -0.2199525718049E-02
-0.1867686442115E-01 -0.2271218414799E-02
-0.1987919660996E-01 -0.2342793882109E-02
-0.2110502723252E-01 -0.2414946971702E-02
-0.2235089554941E-01 -0.2488402147225E-02
-0.2361274882069E-01 -0.2563816523496E-02
-0.2488605000006E-01 -0.2642016426334E-02
-0.2616587672781E-01 -0.2724041905856E-02
-0.2744679131647E-01 -0.2810687226571E-02
-0.2872287029222E-01 -0.2902441361100E-02
-0.2998777667050E-01 -0.2999455818783E-02
-0.3123485729107E-01 -0.3101498192730E-02
-0.3245722465816E-01 -0.3207828138819E-02
-0.3376153594851E-06 -0.6052254692200E-04
-0.5906273469415E-04 -0.1211467166555E-03
-0.1740210076468E-03 -0.1819132476864E-03
-0.3430686785367E-03 -0.2429498087841E-03
-0.5641684434004E-03 -0.3044389493227E-03
-0.8354513516178E-03 -0.3665772833038E-03
-0.1155248049323E-02 -0.4295389628846E-03
-0.1522095579962E-02 -0.4934492482820E-03
-0.1934724674898E-02 -0.5583698608259E-03
-0.2392039000540E-02 -0.6242958065574E-03
-0.2893090329510E-02 -0.6911603836168E-03
-0.3437053136887E-02 -0.7588451882834E-03
-0.4023202852443E-02 -0.8271927227934E-03
-0.4650894623780E-02 -0.8960192741563E-03
-0.5319544333455E-02 -0.9651273472425E-03
-0.6028613085127E-02 -0.1034317445829E-02
-0.6777600082061E-02 -0.1103399695058E-02
-0.7565992040021E-02 -0.1172201007443E-02
-0.8393313576352E-02 -0.1240581270429E-02
-0.9259044376130E-02 -0.1308437900404E-02
-0.1016263416339E-01 -0.1375719837363E-02
-0.1110347553337E-01 -0.1442438643250E-02
-0.1208087544313E-01 -0.1508680533500E-02
-0.1309402868283E-01 -0.1574555859660E-02
-0.1414197958853E-01 -0.1639911027243E-02
-0.1522356907235E-01 -0.1704485800416E-02
-0.1633737274598E-01 -0.1768131121513E-02
-0.1748164213213E-01 -0.1830922464291E-02
-0.1865426830962E-01 -0.1893180057841E-02
-0.1985273759700E-01 -0.1955418202475E-02
-0.2107409390959E-01 -0.2018263639685E-02
-0.2231487705856E-01 -0.2082359023748E-02
-0.2357106378346E-01 -0.2148261878465E-02
-0.2483817842018E-01 -0.2216709882923E-02
-0.2611139191419E-01 -0.2288677408917E-02
-0.2738538715761E-01 -0.2364882722988E-02
-0.2865438112964E-01 -0.2445733898384E-02
-0.2991218852494E-01 -0.2531305198340E-02
-0.3115231210532E-01 -0.2621297653303E-02
-0.3236802243841E-01 -0.2714912435998E-02
-0.3674958677099E-06 -0.4669631161750E-04
-0.5913175764313E-04 -0.9320491990008E-04
-0.1740833345701E-03 -0.1395872267416E-03
-0.3430362582789E-03 -0.1860122840283E-03
-0.5639298649766E-03 -0.2327172571748E-03
-0.8348914669833E-03 -0.2799590772413E-03
-0.1154264149671E-02 -0.3279715164071E-03
-0.1520607918793E-02 -0.3769346392826E-03
-0.1932681083905E-02 -0.4269584480976E-03
-0.2389414598966E-02 -0.4780796215573E-03
-0.2889883818373E-02 -0.5302674188984E-03
-0.3433281107533E-02 -0.5834349522048E-03
-0.4018893204296E-02 -0.6374529925988E-03
-0.4646079800005E-02 -0.6921639101230E-03
-0.5314254746494E-02 -0.7473949121770E-03
-0.6022870866122E-02 -0.8029703512572E-03
-0.6771413143487E-02 -0.8587235389127E-03
-0.7559348403021E-02 -0.9145046575969E-03
-0.8386175814273E-02 -0.9701957421958E-03
-0.9251344181301E-02 -0.1025716088627E-02
-0.1015426694923E-01 -0.1081035188326E-02
-0.1109429512486E-01 -0.1136183247167E-02
-0.1207068897442E-01 -0.1191262406203E-02
-0.1308259206899E-01 -0.1246389536070E-02
-0.1412899424055E-01 -0.1301380330509E-02
-0.1520867926592E-01 -0.1355918912839E-02
-0.1632016470070E-01 -0.1409793480918E-02
-0.1746164635310E-01 -0.1463018431797E-02
-0.1863096654444E-01 -0.1515855514120E-02
-0.1982557544054E-01 -0.1568758976899E-02
-0.2104249946714E-01 -0.1622288240604E-02
-0.2227828539110E-01 -0.1677006059927E-02
-0.2352894578933E-01 -0.1733373223680E-02
-0.2479007202114E-01 -0.1792042175339E-02
-0.2605693230983E-01 -0.1853924928797E-02
-0.2732433149523E-01 -0.1919666151954E-02
-0.2858662450557E-01 -0.1989593828782E-02
-0.2983777015002E-01 -0.2063703854746E-02
-0.3107141399056E-01 -0.2141628200707E-02
-0.3228096811320E-01 -0.2222507765907E-02
-0.5790266114353E-06 -0.3284717010944E-04
-0.5956246104922E-04 -0.6520951085476E-04
-0.1746736270402E-03 -0.9717199167297E-04
-0.3436751308572E-03 -0.1289494035304E-03
-0.5644776309704E-03 -0.1608380765779E-03
-0.8352030827531E-03 -0.1931588904298E-03
-0.1154208116513E-02 -0.2262073691497E-03
-0.1520078343872E-02 -0.2602190042210E-03
-0.1931602840249E-02 -0.2953515604445E-03
-0.2387742939909E-02 -0.3316822248374E-03
-0.2887600268213E-02 -0.3692148442821E-03
-0.3430387286917E-02 -0.4078927600367E-03
-0.4015403810280E-02 -0.4476139615066E-03
-0.4642015501241E-02 -0.4882461222710E-03
-0.5309635376680E-02 -0.5296406065990E-03
-0.6017709044436E-02 -0.5716452298462E-03
-0.6765708302582E-02 -0.6141161780338E-03
-0.7553081177287E-02 -0.6569265791043E-03
-0.8379302625523E-02 -0.6999802073102E-03
-0.9243792046310E-02 -0.7432176780581E-03
-0.1014592840409E-01 -0.7866282711209E-03
-0.1108502331150E-01 -0.8302598287697E-03
-0.1206029298278E-01 -0.8742291422135E-03
-0.1307083288881E-01 -0.9186580486119E-03
-0.1411558203211E-01 -0.9633296842566E-03
-0.1519327116731E-01 -0.1007870545089E-02
-0.1630236424014E-01 -0.1052004174054E-02
-0.1744100607388E-01 -0.1095682307254E-02
-0.1860699522758E-01 -0.1139107231651E-02
-0.1979775097839E-01 -0.1182673036706E-02
-0.2101028780042E-01 -0.1226872790534E-02
-0.2224116520514E-01 -0.1272191443386E-02
-0.2348643753031E-01 -0.1318996072279E-02
-0.2474176868948E-01 -0.1367857431544E-02
-0.2600252847198E-01 -0.1419628530120E-02
-0.2726364577232E-01 -0.1474882645399E-02
-0.2851961199601E-01 -0.1533868050060E-02
-0.2976452353420E-01 -0.1596500362360E-02
-0.3099215589555E-01 -0.1662338570949E-02
-0.3219604459718E-01 -0.1730460072520E-02
-0.9783739468898E-06 -0.1897199973031E-04
-0.6036649085806E-04 -0.3715254421976E-04
-0.1758071626623E-03 -0.5465365902173E-04
-0.3450017859653E-03 -0.7174104402125E-04
-0.5658271313340E-03 -0.8877549037493E-04
-0.8363987725337E-03 -0.1061459232851E-03
-0.1155088768043E-02 -0.1242118790674E-03
-0.1520511685000E-02 -0.1432647653464E-03
-0.1931491056415E-02 -0.1635093209649E-03
-0.2387021972050E-02 -0.1850617775870E-03
-0.2886235122579E-02 -0.2079589318414E-03
-0.3428365264315E-02 -0.2321728612667E-03
-0.4012726993433E-02 -0.2576275730457E-03
-0.4638693295981E-02 -0.2842151592493E-03
-0.5305677484607E-02 -0.3118105215182E-03
-0.6013118977398E-02 -0.3402845011395E-03
-0.6760477402215E-02 -0.3695158141949E-03
-0.7547183088482E-02 -0.3994001961399E-03
-0.8372688044425E-02 -0.4298627608593E-03
-0.9236383783855E-02 -0.4608649186105E-03
-0.1013761664263E-01 -0.4924150410492E-03
-0.1107566109061E-01 -0.5245776991162E-03
-0.1204969197818E-01 -0.5574831894596E-03
-0.1305875981951E-01 -0.5912569113679E-03
-0.1410175644007E-01 -0.6256477204632E-03
-0.1517736358749E-01 -0.6602225999923E-03
-0.1628399583855E-01 -0.6946386231666E-03
-0.1741975142264E-01 -0.7287833801274E-03
-0.1858238965156E-01 -0.7627988218962E-03
-0.1976930357550E-01 -0.7970188879695E-03
-0.2097750059032E-01 -0.8318713979478E-03
-0.2220355812274E-01 -0.8677657515722E-03
-0.2344357777502E-01 -0.9049785111507E-03
-0.2469330148891E-01 -0.9440024724082E-03
-0.2594820533768E-01 -0.9856351033763E-03
-0.2720334527348E-01 -0.1030380378950E-02
-0.2845334890524E-01 -0.1078406916810E-02
-0.2969244497406E-01 -0.1129547616860E-02
-0.3091452671289E-01 -0.1183283103108E-02
-0.3211323282308E-01 -0.1238621622420E-02
-0.1572952936637E-05 -0.5067393421432E-05
-0.6155782840084E-04 -0.9025341303102E-05
-0.1775022542631E-03 -0.1201711893297E-04
-0.3470359877202E-03 -0.1436546574126E-04
-0.5679968897306E-03 -0.1650177535883E-04
-0.8384938845773E-03 -0.1888759320137E-04
-0.1156917278119E-02 -0.2194879855068E-04
-0.1521914756129E-02 -0.2603298461573E-04
-0.1932348554190E-02 -0.3139072791906E-04
-0.2387251182015E-02 -0.3817549186645E-04
-0.2885785279954E-02 -0.4645509990276E-04
-0.3427210067446E-02 -0.5622866807676E-04
-0.4010856544855E-02 -0.6744488504220E-04
-0.4636106280212E-02 -0.8001929018436E-04
-0.5302373935095E-02 -0.9384964927553E-04
-0.6009093710460E-02 -0.1088293599836E-03
-0.6755714054997E-02 -0.1248593075318E-03
-0.7541648701275E-02 -0.1418574969793E-03
-0.8366327989724E-02 -0.1597700022491E-03
-0.9229117099688E-02 -0.1785785501060E-03
-0.1012933163097E-01 -0.1983099850835E-03
-0.1106621120700E-01 -0.2190448098683E-03
-0.1203889204329E-01 -0.2409258231153E-03
-0.1304638286186E-01 -0.2640807381249E-03
-0.1408753194410E-01 -0.2882225318239E-03
-0.1516097595452E-01 -0.3128568853685E-03
-0.1626508414451E-01 -0.3375726672237E-03
-0.1739791220906E-01 -0.3621919076379E-03
-0.1855718425023E-01 -0.3867954137685E-03
-0.1974027114619E-01 -0.4116570529918E-03
-0.2094417741008E-01 -0.4371405861424E-03
-0.2216550291764E-01 -0.4635822427829E-03
-0.2340040161143E-01 -0.4911714454346E-03
-0.2464469890826E-01 -0.5203269974158E-03
-0.2589398241936E-01 -0.5517944980519E-03
-0.2714343923357E-01 -0.5860106580802E-03
-0.2838783422382E-01 -0.6230642045778E-03
-0.2962152476664E-01 -0.6627027653970E-03
-0.3083851098895E-01 -0.7043222614377E-03
-0.3203251233090E-01 -0.7468523565552E-03
-0.2371574628468E-05  0.8870392180907E-05
-0.6315304846636E-04  0.1918164012478E-04
-0.1797805366099E-03  0.3075416730809E-04
-0.3498010076700E-03  0.4320092175193E-04
-0.5710086974994E-03  0.5601280822936E-04
-0.8415065761072E-03  0.6865060699288E-04
-0.1159707139484E-02  0.8061977644523E-04
-0.1524296284062E-02  0.9151659685991E-04
-0.1934179789070E-02  0.1010462285492E-03
-0.2388431533017E-02  0.1090201915507E-03
-0.2886249054325E-02  0.1153418613425E-03
-0.3426918145159E-02  0.1199869797735E-03
-0.4009787724545E-02  0.1229836302585E-03
-0.4634249090730E-02  0.1243938608815E-03
-0.5299719217129E-02  0.1242977469571E-03
-0.6005627998417E-02  0.1227798176852E-03
-0.6751413661277E-02  0.1199173805673E-03
-0.7536474430433E-02  0.1157704862784E-03
-0.8360220265712E-02  0.1103724500665E-03
-0.9221991581043E-02  0.1037216515962E-03
-0.1012107515986E-01  0.9577330586869E-04
-0.1105667810865E-01  0.8643165465960E-04
-0.1202790077025E-01  0.7554224908972E-04
-0.1303371325937E-01  0.6297614460886E-04
-0.1407292393272E-01  0.4905771099964E-04
-0.1514412821574E-01  0.3434426515991E-04
-0.1624565389399E-01  0.1931681134900E-04
-0.1737551786792E-01  0.4220247790125E-05
-0.1853141259608E-01 -0.1096430723527E-04
-0.1971069022802E-01 -0.2645074272196E-04
-0.2091035589128E-01 -0.4253998058201E-04
-0.2212703577213E-01 -0.5949754414334E-04
-0.2335694076711E-01 -0.7742926729556E-04
-0.2459598518966E-01 -0.9668421326482E-04
-0.2583987406479E-01 -0.1179601033216E-03
-0.2708393100443E-01 -0.1416284971796E-03
-0.2832306069747E-01 -0.1676975511928E-03
-0.2955174686421E-01 -0.1958272530535E-03
-0.3076408820343E-01 -0.2253233463245E-03
-0.3195386188870E-01 -0.2550223658632E-03
-0.3384623754217E-05  0.2284550422185E-04
-0.6517162762920E-04  0.4747897873126E-04
-0.1826673008912E-03  0.7367844118759E-04
-0.3533238843423E-03  0.1009838874391E-03
-0.5748877476301E-03  0.1288003361502E-03
-0.8454578275080E-03  0.1565053751171E-03
-0.1163474096918E-02  0.1835336060783E-03
-0.1527666805074E-02  0.2094257057569E-03
-0.1936990744176E-02  0.2338446873378E-03
-0.2390565374756E-02  0.2565697257911E-03
-0.2887626107189E-02  0.2774779363854E-03
-0.3427487319731E-02  0.2965220007358E-03
-0.4009517228352E-02  0.3137083207910E-03
-0.4633117879939E-02  0.3290776042142E-03
-0.5297709419947E-02  0.3426884808810E-03
-0.6002718277159E-02  0.3546038842512E-03
-0.6747573372012E-02  0.3648796621091E-03
-0.7531658491249E-02  0.3735542221051E-03
-0.8354364497310E-02  0.3806405787121E-03
-0.9215008613665E-02  0.3861175781712E-03
-0.1011285074072E-01  0.3899229332891E-03
-0.1104706781863E-01  0.3919461768335E-03
-0.1201672710575E-01  0.3920218992889E-03
-0.1302076331497E-01  0.3900208316320E-03
-0.1405794849348E-01  0.3863060207523E-03
-0.1512684060736E-01  0.3814993829030E-03
-0.1622572967040E-01  0.3761534046438E-03
-0.1735259722587E-01  0.3705812579210E-03
-0.1850510719425E-01  0.3648267801079E-03
-0.1968059582453E-01  0.3587360058128E-03
-0.2087607163078E-01  0.3520696672698E-03
-0.2208819024763E-01  0.3446304545731E-03
-0.2331322360857E-01  0.3363924177091E-03
-0.2454718029779E-01  0.3270716249768E-03
-0.2578588929604E-01  0.3160138557933E-03
-0.2702481769508E-01  0.3029102468620E-03
-0.2825901446275E-01  0.2878345339077E-03
-0.2948308810764E-01  0.2712173891204E-03
-0.3069123049015E-01  0.2538440864055E-03
-0.3187725900726E-01  0.2369887530916E-03
-0.4624274343124E-05  0.3686257512128E-04
-0.6763631442843E-04  0.7587848435098E-04
-0.1861918868047E-03  0.1167759339498E-03
-0.3576357138039E-03  0.1590116832871E-03
-0.5796627698537E-03  0.2018954519171E-03
-0.8503714393858E-03  0.2447156969789E-03
-0.1168236060073E-02  0.2868342506428E-03
-0.1532038548901E-02  0.3277373402691E-03
-0.1940788824228E-02  0.3670486056770E-03
-0.2393656366816E-02  0.4045180566307E-03
-0.2889917405317E-02  0.4399994080344E-03
-0.3428916775767E-02  0.4734245265496E-03
-0.4010043201353E-02  0.5047797412158E-03
-0.4632710346439E-02  0.5340854986703E-03
-0.5296342274339E-02  0.5613796797844E-03
-0.6000362710467E-02  0.5867040741741E-03
-0.6744192137258E-02  0.6100933887919E-03
-0.7527200947181E-02  0.6315646554788E-03
-0.8348762175224E-02  0.6511108522098E-03
-0.9208171423227E-02  0.6686915842728E-03
-0.1010466364188E-01  0.6842274012820E-03
-0.1103738796431E-01  0.6975935366192E-03
-0.1200538137149E-01  0.7086141373870E-03
-0.1300754640262E-01  0.7171603289069E-03
-0.1404262241864E-01  0.7236350171408E-03
-0.1510913366189E-01  0.7287262184080E-03
-0.1620533592743E-01  0.7330594557696E-03
-0.1732917855984E-01  0.7370175134075E-03
-0.1847829960295E-01  0.7407077885335E-03
-0.1965002161792E-01  0.7440362803425E-03
-0.2084135852359E-01  0.7468242995952E-03
-0.2204899774635E-01  0.7489403049486E-03
-0.2326927571946E-01  0.7504344015268E-03
-0.2449830051225E-01  0.7510828165932E-03
-0.2573203241335E-01  0.7502697893146E-03
-0.2696609044841E-01  0.7477466640266E-03
-0.2819567552534E-01  0.7436694459002E-03
-0.2941551917948E-01  0.7385678092952E-03
-0.3061990046743E-01  0.7333098897890E-03
-0.3180267717245E-01  0.7292860971243E-03
-0.6104753292451E-05  0.5092683321338E-04
-0.7057357462655E-04  0.1043934612123E-03
-0.1903881403990E-03  0.1600692642089E-03
-0.3627719671796E-03  0.2173154860405E-03
-0.5853661519601E-03  0.2753357493952E-03
-0.8562739909838E-03  0.3333231123628E-03
-0.1174012970171E-02  0.3905652181088E-03
-0.1537425279627E-02  0.4464958346401E-03
-0.1945582712007E-02  0.5007027866728E-03
-0.2397709367977E-02  0.5529106522305E-03
-0.2893125144180E-02  0.6029529157054E-03
-0.3431207011127E-02  0.6507430038947E-03
-0.4011365207196E-02  0.6962488049617E-03
-0.4633025714026E-02  0.7394715569416E-03
-0.5295617133985E-02  0.7804290441064E-03
-0.5998561168099E-02  0.8191423188099E-03
-0.6741270677095E-02  0.8556252237484E-03
-0.7523103671149E-02  0.8898736395896E-03
-0.8343416606127E-02  0.9218607216361E-03
-0.9201485013151E-02  0.9515270565091E-03
-0.1009652081219E-01  0.9787762676422E-03
-0.1102764768372E-01  0.1003469556233E-02
-0.1199387514935E-01  0.1025420961007E-02
-0.1299407682771E-01  0.1044502518698E-02
-0.1402696303944E-01  0.1061158013207E-02
-0.1509102801918E-01  0.1076142949444E-02
-0.1618449678484E-01  0.1090157381782E-02
-0.1730528939228E-01  0.1103655047553E-02
-0.1845102024995E-01  0.1116807821126E-02
-0.1961899983516E-01  0.1129581859697E-02
-0.2080624870620E-01  0.1141858171751E-02
-0.2200948755188E-01  0.1153568683591E-02
-0.2322511999824E-01  0.1164835682547E-02
-0.2444935857507E-01  0.1175490153646E-02
-0.2567830279857E-01  0.1184949119068E-02
-0.2690773468922E-01  0.1193020567024E-02
-0.2813301559909E-01  0.1199945393962E-02
-0.2934900842396E-01  0.1206353811484E-02
-0.3055004660826E-01  0.1213225988372E-02
-0.3173007688980E-01  0.1221953103741E-02
-0.7842664473811E-05  0.6504425530302E-04
-0.7401412875334E-04  0.1330390223132E-03
-0.1952949522014E-03  0.2035839129769E-03
-0.3687728352570E-03  0.2759298842790E-03
-0.5920340419904E-03  0.3491621439455E-03
-0.8631947563657E-03  0.4223719025652E-03
-0.1180826625442E-02  0.4947719752736E-03
-0.1543842108913E-02  0.5657467424920E-03
-0.1951382213387E-02  0.6348526897038E-03
-0.2402730327606E-02  0.7017932820045E-03
-0.2897252683050E-02  0.7663852264133E-03
-0.3434359806011E-02  0.8285259671831E-03
-0.4013484220249E-02  0.8881665600752E-03
-0.4634064737309E-02  0.9452900217672E-03
-0.5295534987052E-02  0.9998946201437E-03
-0.5997315238043E-02  0.1051981012089E-02
-0.6738811491174E-02  0.1101542397816E-02
-0.7519370350757E-02  0.1148553682044E-02
-0.8338332913160E-02  0.1192968358434E-02
-0.9194956160394E-02  0.1234708147463E-02
-0.1008843087137E-01  0.1273659881835E-02
-0.1101785760815E-01  0.1309670852379E-02
-0.1198222125241E-01  0.1342545133197E-02
-0.1298036978255E-01  0.1372155972421E-02
-0.1401098816399E-01  0.1398988868826E-02
-0.1507254434833E-01  0.1423868074011E-02
-0.1616323594186E-01  0.1447569596266E-02
-0.1728095641057E-01  0.1470619468554E-02
-0.1842329838201E-01  0.1493255056930E-02
-0.1958756126093E-01  0.1515503076342E-02
-0.2077077267440E-01  0.1537303641373E-02
-0.2196968707649E-01  0.1558650116630E-02
-0.2318077705701E-01  0.1579733160022E-02
-0.2440036405106E-01  0.1600432737449E-02
-0.2562469552172E-01  0.1620192005736E-02
-0.2684972905322E-01  0.1638871413352E-02
-0.2807100207716E-01  0.1656797705549E-02
-0.2928350659091E-01  0.1674713732496E-02
-0.3048165484527E-01  0.1693705195614E-02
-0.3165928294273E-01  0.1715253997256E-02
-0.9857479365381E-05  0.7922310064558E-04
-0.7799401366327E-04  0.1618404365535E-03
-0.2009575984647E-03  0.2473679635648E-03
-0.3756845439627E-03  0.3349287645978E-03
-0.5997072853497E-03  0.4234756509757E-03
-0.8711658809624E-03  0.5119915570135E-03
-0.1188699638693E-02  0.5996149032451E-03
-0.1551302697666E-02  0.6856850264068E-03
-0.1958193117714E-02  0.7697324961072E-03
-0.2408718211044E-02  0.8514444752788E-03
-0.2902292963875E-02  0.9306244725264E-03
-0.3438362601401E-02  0.1007156309095E-02
-0.4016382470070E-02  0.1080975609421E-02
-0.4635804553710E-02  0.1152047907197E-02
-0.5296067882104E-02  0.1220352276487E-02
-0.5996591804595E-02  0.1285869065800E-02
-0.6736776164299E-02  0.1348570804628E-02
-0.7515957077495E-02  0.1408411343383E-02
-0.8333461427800E-02  0.1465324416242E-02
-0.9188529073375E-02  0.1519212746664E-02
-0.1008033142283E-01  0.1569946192559E-02
-0.1100794812622E-01  0.1617357888065E-02
-0.1197034212820E-01  0.1661241669600E-02
-0.1296633895493E-01  0.1701471877881E-02
-0.1399460182717E-01  0.1738576308478E-02
-0.1505357602919E-01  0.1773449109855E-02
-0.1614143491384E-01  0.1806943658306E-02
-0.1725604770026E-01  0.1839659706040E-02
-0.1839498655515E-01  0.1871901321099E-02
-0.1955554009696E-01  0.1903756521401E-02
-0.2073474254521E-01  0.1935224429187E-02
-0.2192938161519E-01  0.1966358363482E-02
-0.2313599973897E-01  0.1997413917009E-02
-0.2435103150623E-01  0.2028314029500E-02
-0.2557088208902E-01  0.2058520327650E-02
-0.2679170174242E-01  0.2087940280852E-02
-0.2800922185320E-01  0.2116987829372E-02
-0.2921858430235E-01  0.2146531441986E-02
-0.3041422982010E-01  0.2177777871960E-02
-0.3159002277495E-01  0.2212322450883E-02
-0.1217172660587E-04  0.9346973244095E-04
-0.8255445735999E-04  0.1908096293671E-03
-0.2074268397920E-03  0.2914350597745E-03
-0.3835577233469E-03  0.3943198203821E-03
-0.6084299300771E-03  0.4982685453097E-03
-0.8802225209512E-03  0.6021499522931E-03
-0.1197659038762E-02  0.7050302282537E-03
-0.1559828232070E-02  0.8062098061279E-03
-0.1966033407493E-02  0.9052000304305E-03
-0.2415690187760E-02  0.1001677249621E-02
-0.2908264289011E-02  0.1095435619426E-02
-0.3443236345051E-02  0.1186347755872E-02
-0.4020084715624E-02  0.1274335242498E-02
-0.4638274650427E-02  0.1359346862964E-02
-0.5297250788279E-02  0.1441342850249E-02
-0.5996431976848E-02  0.1520283404224E-02
-0.6735212557797E-02  0.1596120466059E-02
-0.7512919064889E-02  0.1668786896876E-02
-0.8328865322421E-02  0.1738196731324E-02
-0.9182275505273E-02  0.1804233724780E-02
-0.1007230344728E-01  0.1866750710458E-02
-0.1099801014374E-01  0.1925566501843E-02
-0.1195833940991E-01  0.1980464437654E-02
-0.1295209768766E-01  0.2031319765227E-02
-0.1397793031038E-01  0.2078702976766E-02
-0.1503426378011E-01  0.2123579034070E-02
-0.1611925058138E-01  0.2166879885934E-02
-0.1723073814553E-01  0.2209280303893E-02
-0.1836627943297E-01  0.2251152286353E-02
-0.1952315222762E-01  0.2292646105745E-02
-0.2069839615215E-01  0.2333820194395E-02
-0.2188883048532E-01  0.2374786837427E-02
-0.2309106675707E-01  0.2415863438293E-02
-0.2430165523070E-01  0.2457009609476E-02
-0.2551716799209E-01  0.2497696544473E-02
-0.2673396586069E-01  0.2537870789082E-02
-0.2794800053798E-01  0.2578034286317E-02
-0.2915457558066E-01  0.2619190378067E-02
-0.3034818221525E-01  0.2662714986298E-02
-0.3152252998180E-01  0.2710245164634E-02
-0.1481196506529E-04  0.1077934974872E-03
-0.8774360726650E-04  0.2199702144822E-03
-0.2147609584362E-03  0.3358234582200E-03
-0.3924490512365E-03  0.4541518854568E-03
-0.6182496377035E-03  0.5735943801136E-03
-0.8904009254610E-03  0.6929005678990E-03
-0.1207730627217E-02  0.8110688711243E-03
-0.1569436430991E-02  0.9273690340807E-03
-0.1974915201222E-02  0.1041301116566E-02
-0.2423654823536E-02  0.1152536636240E-02
-0.2915173179462E-02  0.1260864278675E-02
-0.3448986563760E-02  0.1366147707547E-02
-0.4024596208141E-02  0.1468295640849E-02
-0.4641480501133E-02  0.1567240648680E-02
-0.5299089762260E-02  0.1662924319373E-02
-0.5996842673876E-02  0.1755286747933E-02
-0.6734128684837E-02  0.1844259286813E-02
-0.7510265617428E-02  0.1929753814050E-02
-0.8324555350352E-02  0.2011664679606E-02
-0.9176207756588E-02  0.2089856651684E-02
-0.1006436081038E-01  0.2164165413803E-02
-0.1098805902693E-01  0.2234395164225E-02
-0.1194622985226E-01  0.2300318278193E-02
-0.1293766403302E-01  0.2361810453625E-02
-0.1396099296466E-01  0.2419485010741E-02
-0.1501462836387E-01  0.2474378402692E-02
-0.1609670529139E-01  0.2527502168684E-02
-0.1720505179418E-01  0.2579607303656E-02
-0.1833720265933E-01  0.2631135024034E-02
-0.1949042433803E-01  0.2682299105870E-02
-0.2066175989162E-01  0.2733218188069E-02
-0.2184805725921E-01  0.2784063376664E-02
-0.2304599467202E-01  0.2835211572022E-02
-0.2425223892345E-01  0.2886652965683E-02
-0.2546353741778E-01  0.2937858154318E-02
-0.2667648247466E-01  0.2988802682774E-02
-0.2788727680913E-01  0.3040072762020E-02
-0.2909141907872E-01  0.3092826827710E-02
-0.3028343535107E-01  0.3148623098463E-02
-0.3145687142672E-01  0.3209281233395E-02
-0.1780947167010E-04  0.1222056356127E-03
-0.9361761855288E-04  0.2493502530588E-03
-0.2230264863810E-03  0.3805777879643E-03
-0.4024213960816E-03  0.5144803670485E-03
-0.6292176197832E-03  0.6495119369265E-03
-0.9017388916418E-03  0.7843001141279E-03
-0.1218940711808E-02  0.9177831550858E-03
-0.1580145227009E-02  0.1049210784892E-02
-0.1984850955767E-02  0.1178080982588E-02
-0.2432621311597E-02  0.1304066769895E-02
-0.2923027096423E-02  0.1426955121847E-02
-0.3455619999959E-02  0.1546602716513E-02
-0.4029923634624E-02  0.1662906289232E-02
-0.4645429181066E-02  0.1775782491757E-02
-0.5301592581056E-02  0.1885154283633E-02
-0.5997832615079E-02  0.1990941570327E-02
-0.6733534407353E-02  0.2093055026944E-02
-0.7508007910404E-02  0.2191385496035E-02
-0.8320544132420E-02  0.2285807619447E-02
-0.9170339959864E-02  0.2376167125627E-02
-0.1005651912400E-01  0.2462282368467E-02
-0.1097811172409E-01  0.2543942524164E-02
-0.1193403152200E-01  0.2620908339124E-02
-0.1292305696818E-01  0.2693055222052E-02
-0.1394380957579E-01  0.2761039148818E-02
-0.1499469042136E-01  0.2825968449816E-02
-0.1607382069684E-01  0.2888935017694E-02
-0.1717901147686E-01  0.2950767103092E-02
-0.1830778026784E-01  0.3011976421166E-02
-0.1945738133641E-01  0.3072841774679E-02
-0.2062485852875E-01  0.3133543572376E-02
-0.2180708432887E-01  0.3194312667513E-02
-0.2300079941235E-01  0.3255584384982E-02
-0.2420278563734E-01  0.3317374068172E-02
-0.2540997269795E-01  0.3379140736077E-02
-0.2661920667162E-01  0.3440875180030E-02
-0.2782698158174E-01  0.3503242047030E-02
-0.2902903329351E-01  0.3567566539224E-02
-0.3021993533432E-01  0.3635641775360E-02
-0.3139302809481E-01  0.3709518428306E-02
-0.2120129957535E-04  0.1367198474162E-03
-0.1002422267551E-03  0.2789835505006E-03
-0.2322993372629E-03  0.4257506082947E-03
-0.4135440710492E-03  0.5753684445352E-03
-0.6413882420062E-03  0.7260857296329E-03
-0.9142751456440E-03  0.8764084276934E-03
-0.1231315558930E-02  0.1025226368523E-02
-0.1591972393141E-02  0.1171782728500E-02
-0.1995853255573E-02  0.1315583777241E-02
-0.2442599376091E-02  0.1456310492632E-02
-0.2931834413524E-02  0.1593751569172E-02
-0.3463144620444E-02  0.1727758242474E-02
-0.4036075142947E-02  0.1858215776571E-02
-0.4650129396779E-02  0.1985024917617E-02
-0.5304768769877E-02  0.2108089811965E-02
-0.5999412342774E-02  0.2227309953820E-02
-0.6733441452258E-02  0.2342575161070E-02
-0.7506159001138E-02  0.2453755131241E-02
-0.8316846167724E-02  0.2560704744453E-02
-0.9164688097546E-02  0.2663250621060E-02
-0.1004879577922E-01  0.2761193577254E-02
-0.1096818681749E-01  0.2854307276033E-02
-0.1192176386478E-01  0.2942339985654E-02
-0.1290829646497E-01  0.3025165793595E-02
-0.1392640042069E-01  0.3103482818623E-02
-0.1497447049677E-01  0.3178471298960E-02
-0.1605061773290E-01  0.3251303901947E-02
-0.1715263871831E-01  0.3322886890025E-02
-0.1827803452231E-01  0.3393803646017E-02
-0.1942404614444E-01  0.3464399727922E-02
-0.2058771500734E-01  0.3534919574521E-02
-0.2176593288632E-01  0.3605656008764E-02
-0.2295549660932E-01  0.3677103438337E-02
-0.2415329871738E-01  0.3749298382419E-02
-0.2535645533915E-01  0.3821676872925E-02
-0.2656208925695E-01  0.3894227866174E-02
-0.2776703411010E-01  0.3967681323905E-02
-0.2896732432091E-01  0.4043541092383E-02
-0.3015761265705E-01  0.4123887173691E-02
-0.3133097099754E-01  0.4211049762825E-02
-0.2503167331984E-04  0.1513531126683E-03
-0.1076947430812E-03  0.3089114105751E-03
-0.2426660765229E-03  0.4714044254219E-03
-0.4258929284325E-03  0.6368884671282E-03
-0.6548183707199E-03  0.8033864366236E-03
-0.9280485310572E-03  0.9692881638441E-03
-0.1244880756773E-02  0.1133452127068E-02
-0.1604935152811E-02  0.1295131462522E-02
-0.2007934618364E-02  0.1453852005937E-02
-0.2453599200726E-02  0.1609308918627E-02
-0.2941604412125E-02  0.1761295463354E-02
-0.3471569642933E-02  0.1909658405036E-02
-0.4043060379633E-02  0.2054271600294E-02
-0.4655591524542E-02  0.2195019585612E-02
-0.5308629635852E-02  0.2331787296365E-02
-0.6001594248692E-02  0.2464453452963E-02
-0.6733863430011E-02  0.2592886744696E-02
-0.7504733841199E-02  0.2716935559636E-02
-0.8313477844697E-02  0.2836434940596E-02
-0.9159270021301E-02  0.2951192335594E-02
-0.1004120998525E-01  0.3060990820676E-02
-0.1095830458934E-01  0.3165588010132E-02
-0.1190944779579E-01  0.3264718689715E-02
-0.1289340359261E-01  0.3358254302228E-02
-0.1390878636306E-01  0.3446934220747E-02
-0.1495398910368E-01  0.3532010194543E-02
-0.1602711662772E-01  0.3614735637800E-02
-0.1712595366561E-01  0.3696095167186E-02
-0.1824798574177E-01  0.3776744739658E-02
-0.1939043942354E-01  0.3857098475669E-02
-0.2055035014013E-01  0.3937467769103E-02
-0.2172462273399E-01  0.4018211108491E-02
-0.2291010182009E-01  0.4099884930211E-02
-0.2410378268686E-01  0.4182545368634E-02
-0.2530296775268E-01  0.4265594841367E-02
-0.2650507785297E-01  0.4348999665504E-02
-0.2770734259733E-01  0.4433533582144E-02
-0.2890617975263E-01  0.4520883621581E-02
-0.3009637848721E-01  0.4613469893293E-02
-0.3127066902435E-01  0.4713971031562E-02
-0.2935385965277E-04  0.1661268672958E-03
-0.1160666000695E-03  0.3391850604887E-03
-0.2542253046403E-03  0.5176143052350E-03
-0.4395501744573E-03  0.6991235447158E-03
-0.6695663691410E-03  0.8814911604554E-03
-0.9430969757227E-03  0.1063004185082E-02
-0.1259660500287E-02  0.1242513476393E-02
-0.1619049794176E-02  0.1419301679507E-02
-0.2021107334393E-02  0.1592925877047E-02
-0.2465631393359E-02  0.1763100953509E-02
-0.2952347305924E-02  0.1929626719254E-02
-0.3480905584053E-02  0.2092345720126E-02
-0.4050890542618E-02  0.2251119955378E-02
-0.4661827659308E-02  0.2405817107096E-02
-0.5313188309563E-02  0.2556302284040E-02
-0.6004392606651E-02  0.2702432931699E-02
-0.6734815858136E-02  0.2844056250652E-02
-0.7503749292240E-02  0.2980999102593E-02
-0.8310457454612E-02  0.3113076602225E-02
-0.9154105474357E-02  0.3240076985269E-02
-0.1003378281589E-01  0.3361765431093E-02
-0.1094848710468E-01  0.3477882979801E-02
-0.1189710582015E-01  0.3588149822521E-02
-0.1287840066326E-01  0.3692433158160E-02
-0.1389098900244E-01  0.3791512319504E-02
-0.1493326685004E-01  0.3886709663027E-02
-0.1600333696923E-01  0.3979358743110E-02
-0.1709897505647E-01  0.4070522284332E-02
-0.1821765213143E-01  0.4160929257835E-02
-0.1935657925080E-01  0.4251064035705E-02
-0.2051278217043E-01  0.4341308436734E-02
-0.2168317189453E-01  0.4432091877356E-02
-0.2286463052130E-01  0.4524038586697E-02
-0.2405424413572E-01  0.4617226419589E-02
-0.2524949523832E-01  0.4711016070847E-02
-0.2644811934473E-01  0.4805327706555E-02
-0.2764780447210E-01  0.4900946351565E-02
-0.2884546405254E-01  0.4999732856966E-02
-0.3003612005115E-01  0.5104502289255E-02
-0.3121209171565E-01  0.5218381770933E-02
-0.3423272483175E-04  0.1810687263919E-03
-0.1254666178606E-03  0.3698690588592E-03
-0.2670890796155E-03  0.5644712700895E-03
-0.4546037244180E-03  0.7621692928340E-03
-0.6856906311762E-03  0.9604833726004E-03
-0.9594562209590E-03  0.1157622542660E-02
-0.1275676826739E-02  0.1352461711416E-02
-0.1634331320115E-02  0.1544335199875E-02
-0.2035383359608E-02  0.1732842616322E-02
-0.2478706996840E-02  0.1917722840256E-02
-0.2964074298416E-02  0.2098783032621E-02
-0.3491164327942E-02  0.2275860914950E-02
-0.4059578445233E-02  0.2448805615682E-02
-0.4668851668208E-02  0.2617466967685E-02
-0.5318459786509E-02  0.2781689425862E-02
-0.6007823601743E-02  0.2941308530336E-02
-0.6736316178012E-02  0.3096149550302E-02
-0.7503224131162E-02  0.3246017553564E-02
-0.8307805189746E-02  0.3390707623835E-02
-0.9149216094860E-02  0.3529988786273E-02
-0.1002653723766E-01  0.3663608258127E-02
-0.1093875828303E-01  0.3791290061118E-02
-0.1188476215415E-01  0.3912738644083E-02
-0.1286331139170E-01  0.4027815125596E-02
-0.1387303084904E-01  0.4137337078780E-02
-0.1491232459544E-01  0.4242695971126E-02
-0.1597929780120E-01  0.4345304157480E-02
-0.1707172019842E-01  0.4446301417354E-02
-0.1818704958400E-01  0.4546489445844E-02
-0.1932248069592E-01  0.4646424160292E-02
-0.2047502613279E-01  0.4746561589479E-02
-0.2164159589156E-01  0.4847408858272E-02
-0.2281909769469E-01  0.4949666994819E-02
-0.2400469230328E-01  0.5053442722828E-02
-0.2519602825948E-01  0.5158052022165E-02
-0.2639116338839E-01  0.5263345131819E-02
-0.2758830797294E-01  0.5370073085285E-02
-0.2878501431893E-01  0.5480239383021E-02
-0.2997669325079E-01  0.5597105778855E-02
-0.3115520798622E-01  0.5724387603746E-02
-0.3974830529202E-04  0.1962150641355E-03
-0.1360252098947E-03  0.4010461575316E-03
-0.2813842121970E-03  0.6120866961430E-03
-0.4711458263075E-03  0.8261355826681E-03
-0.7032475233285E-03  0.1040452270713E-02
-0.9771583203464E-03  0.1253208856526E-02
-0.1292948851923E-02  0.1463344812580E-02
-0.1650793174361E-02  0.1670269806642E-02
-0.2050774286297E-02  0.1873635678721E-02
-0.2492837559323E-02  0.2073207638632E-02
-0.2976797681883E-02  0.2268799528187E-02
-0.3502359223085E-02  0.2460242673418E-02
-0.4069138599989E-02  0.2647371729989E-02
-0.4676679259355E-02  0.2830017345579E-02
-0.5324460982229E-02  0.3008002301277E-02
-0.6011905373276E-02  0.3181139489555E-02
-0.6738383785996E-02  0.3349231733187E-02
-0.7503179069253E-02  0.3512061988992E-02
-0.8305543153598E-02  0.3669405191825E-02
-0.9144625429613E-02  0.3821011209844E-02
-0.1001949815147E-01  0.3966609370301E-02
-0.1092914399553E-01  0.4105906403497E-02
-0.1187244289208E-01  0.4238589938452E-02
-0.1284816112497E-01  0.4364513012892E-02
-0.1385493559211E-01  0.4484529298141E-02
-0.1489118372133E-01  0.4600097196569E-02
-0.1595501784136E-01  0.4712705608325E-02
-0.1704420506231E-01  0.4823569240820E-02
-0.1815619156365E-01  0.4933561162599E-02
-0.1928815541500E-01  0.5043309368967E-02
-0.2043709311847E-01  0.5153347841760E-02
-0.2159990677326E-01  0.5264269474532E-02
-0.2277351698295E-01  0.5376864524139E-02
-0.2395513925222E-01  0.5491282086299E-02
-0.2514256492114E-01  0.5606798945946E-02
-0.2633416744348E-01  0.5723176048758E-02
-0.2752873626953E-01  0.5841072847377E-02
-0.2872463683407E-01  0.5962572460104E-02
-0.2991791131296E-01  0.6091419454756E-02
-0.3109998199674E-01  0.6232105152768E-02
-0.4600091304400E-04  0.2116149805226E-03
-0.1478997970632E-03  0.4328243598453E-03
-0.2972531012162E-03  0.6605979694510E-03
-0.4892705609572E-03  0.8911480132170E-03
-0.7222886133634E-03  0.1121491196240E-02
-0.9962299673223E-03  0.1349825946682E-02
-0.1311492089830E-02  0.1575205517521E-02
-0.1668447094079E-02  0.1797137962217E-02
-0.2067291414307E-02  0.2015333954611E-02
-0.2508035272382E-02  0.2229584744925E-02
-0.2990530978292E-02  0.2439708465602E-02
-0.3514505203102E-02  0.2645527445360E-02
-0.4079587314794E-02  0.2846859684012E-02
-0.4685328056182E-02  0.3043514997657E-02
-0.5331210789150E-02  0.3235293314063E-02
-0.6016658057485E-02  0.3421984050556E-02
-0.6741040062751E-02  0.3603367011109E-02
-0.7503636766415E-02  0.3779202674987E-02
-0.8303695359850E-02  0.3949245683723E-02
-0.9140358928271E-02  0.4113226850329E-02
-0.1001269241059E-01  0.4270857862435E-02
-0.1091967214528E-01  0.4421828165418E-02
-0.1186017617488E-01  0.4565807710825E-02
-0.1283297709902E-01  0.4702639415594E-02
-0.1383672842252E-01  0.4833210521477E-02
-0.1486986647762E-01  0.4959043424429E-02
-0.1593051578618E-01  0.5081700183326E-02
-0.1701644445351E-01  0.5202466905958E-02
-0.1812508903165E-01  0.5322285221631E-02
-0.1925361121144E-01  0.5441854520226E-02
-0.2039898937615E-01  0.5561789943564E-02
-0.2155811175709E-01  0.5682779024537E-02
-0.2272789917006E-01  0.5805716902481E-02
-0.2390559916881E-01  0.5930815801804E-02
-0.2508911307719E-01  0.6057331188906E-02
-0.2627710332315E-01  0.6184927410795E-02
-0.2746897528532E-01  0.6314107557846E-02
-0.2866410550854E-01  0.6446928277153E-02
-0.2985952838143E-01  0.6587613712192E-02
-0.3104636412386E-01  0.6741672432642E-02
-0.5311863117220E-04  0.2273365861191E-03
-0.1612817226243E-03  0.4653473477536E-03
-0.3148534696139E-03  0.7101756150117E-03
-0.5090696699273E-03  0.9573485040861E-03
-0.7428571150816E-03  0.1203694569091E-02
-0.1016690791478E-02  0.1447530539663E-02
-0.1331317971281E-02  0.1688079039707E-02
-0.1687303143413E-02  0.1924965442075E-02
-0.2084945945034E-02  0.2157960987766E-02
-0.2524313185548E-02  0.2386879452599E-02
-0.3005289124920E-02  0.2611538989867E-02
-0.3527618932286E-02  0.2831749294595E-02
-0.4090942802141E-02  0.3047308993613E-02
-0.4694817678360E-02  0.3258005169792E-02
-0.5338730137206E-02  0.3463613606983E-02
-0.6022103833450E-02  0.3663899371218E-02
-0.6744308405948E-02  0.3858618638862E-02
-0.7504621847164E-02  0.4047508995723E-02
-0.8302287726643E-02  0.4230304596720E-02
-0.9136443921420E-02  0.4406717324212E-02
-0.1000614881338E-01  0.4576441677689E-02
-0.1091037272697E-01  0.4739150226147E-02
-0.1184799236035E-01  0.4894494812444E-02
-0.1281778873133E-01  0.5042306354493E-02
-0.1381843642984E-01  0.5183502845803E-02
-0.1484839643861E-01  0.5319666893621E-02
-0.1590581074522E-01  0.5452428937993E-02
-0.1698845231079E-01  0.5583141158435E-02
-0.1809375047009E-01  0.5712808990095E-02
-0.1921885162560E-01  0.5842200778514E-02
-0.2036071530681E-01  0.5972014868670E-02
-0.2151621152679E-01  0.6103042393119E-02
-0.2268224990392E-01  0.6236301563627E-02
-0.2385608639512E-01  0.6372095786837E-02
-0.2503569130787E-01  0.6509692868509E-02
-0.2621996495386E-01  0.6648676107216E-02
-0.2740892687630E-01  0.6789333663239E-02
-0.2860316510284E-01  0.6933538366339E-02
-0.2980121728723E-01  0.7085911463062E-02
-0.3099427303071E-01  0.7253267916816E-02
-0.6126864733541E-04  0.2434773090281E-03
-0.1764048842481E-03  0.4988101639446E-03
-0.3343558113385E-03  0.7610318975524E-03
-0.5306259988026E-03  0.1024893864035E-02
-0.7649836282343E-03  0.1287152620122E-02
-0.1038551884108E-02  0.1546368957405E-02
-0.1352433702713E-02  0.1801990522704E-02
-0.1707369977889E-02  0.2053769948236E-02
-0.2103749315291E-02  0.2301534235543E-02
-0.2541685501886E-02  0.2545112563511E-02
-0.3021088704378E-02  0.2784316920100E-02
-0.3541718974381E-02  0.3018939768232E-02
-0.4103225300007E-02  0.3248757202659E-02
-0.4705169828866E-02  0.3473531497008E-02
-0.5347042058958E-02  0.3693012953701E-02
-0.6028266974480E-02  0.3906941409560E-02
-0.6748214270745E-02  0.4115048796189E-02
-0.7506160925287E-02  0.4317049343189E-02
-0.8301348073913E-02  0.4512656443808E-02
-0.9132909586517E-02  0.4701563139542E-02
-0.9999898067151E-02  0.4883447379542E-02
-0.1090127785677E-01  0.5057965791054E-02
-0.1183592418770E-01  0.5224752380844E-02
-0.1280262795263E-01  0.5383624666488E-02
-0.1380008909370E-01  0.5535528472084E-02
-0.1482679910408E-01  0.5682101936624E-02
-0.1588092285231E-01  0.5825037391689E-02
-0.1696024218687E-01  0.5965745458793E-02
-0.1806218206480E-01  0.6105288115113E-02
-0.1918387562460E-01  0.6244497859296E-02
-0.2032226443144E-01  0.6384156379975E-02
-0.2147419825216E-01  0.6525166487535E-02
-0.2263656665332E-01  0.6668688975974E-02
-0.2380661181347E-01  0.6815152587736E-02
-0.2498232758914E-01  0.6963888407370E-02
-0.2616277609943E-01  0.7114449640016E-02
-0.2734852903040E-01  0.7266883329958E-02
-0.2854154454435E-01  0.7422674626538E-02
-0.2974254189645E-01  0.7586620213747E-02
-0.3094356129875E-01  0.7767144357458E-02
-0.7067495871578E-04  0.2601814913540E-03
-0.1935559263975E-03  0.5334832124905E-03
-0.3559363891167E-03  0.8134302018981E-03
-0.5540037700227E-03  0.1093950261483E-02
-0.7886815886075E-03  0.1371943130884E-02
-0.1061814963629E-02  0.1646371936660E-02
-0.1374842606783E-02  0.1916952443418E-02
-0.1728655377558E-02  0.2183559827663E-02
-0.2123713683012E-02  0.2446064468121E-02
-0.2560167954383E-02  0.2704300134394E-02
-0.3037948214354E-02  0.2958064657883E-02
-0.3556825978532E-02  0.3207127872965E-02
-0.4116457197487E-02  0.3451239879893E-02
-0.4716408379424E-02  0.3690135999158E-02
-0.5356171750540E-02  0.3923539746682E-02
-0.6035173895498E-02  0.4151164907461E-02
-0.6752785208368E-02  0.4372718579257E-02
-0.7508282628194E-02  0.4587891134434E-02
-0.8300906114390E-02  0.4796374807973E-02
-0.9129786885436E-02  0.4997843757971E-02
-0.9993972691222E-02  0.5191960124807E-02
-0.1089242172508E-01  0.5378366151195E-02
-0.1182400688533E-01  0.5556679344444E-02
-0.1278752953559E-01  0.5726703384113E-02
-0.1378171884463E-01  0.5889409242887E-02
-0.1480510263789E-01  0.6046484993155E-02
-0.1585587405396E-01  0.6199676241048E-02
-0.1693182791185E-01  0.6350441478405E-02
-0.1803038805014E-01  0.6499888785262E-02
-0.1914867740557E-01  0.6648906997151E-02
-0.2028362236029E-01  0.6798358585952E-02
-0.2143205336572E-01  0.6949264035716E-02
-0.2259083492011E-01  0.7102945823949E-02
-0.2375717730094E-01  0.7259995777158E-02
-0.2492905406325E-01  0.7419874243150E-02
-0.2610559508265E-01  0.7582200551111E-02
-0.2728778358012E-01  0.7746828653311E-02
-0.2847898919013E-01  0.7914643163520E-02
-0.2968292807616E-01  0.8090179151510E-02
-0.3089395103958E-01  0.8283689570849E-02
-0.8164703823650E-04  0.2776718990783E-03
-0.2130846358507E-03  0.5697495277920E-03
-0.3797619608495E-03  0.8676925602271E-03
-0.5792351869099E-03  0.1164680012610E-02
-0.8139434707880E-03  0.1458119650778E-02
-0.1086472693062E-02  0.1747549087967E-02
-0.1398545027054E-02  0.2032962174977E-02
-0.1751167067375E-02  0.2314332952575E-02
-0.2144852567490E-02  0.2591555320917E-02
-0.2579778256388E-02  0.2864453328145E-02
-0.3055888371580E-02  0.3132801156225E-02
-0.3572962879242E-02  0.3396340077615E-02
-0.4130663164633E-02  0.3654790614030E-02
-0.4728559456557E-02  0.3907859052106E-02
-0.5366146633485E-02  0.4155240941550E-02
-0.6042853204610E-02  0.4396623314719E-02
-0.6758050915069E-02  0.4631687919991E-02
-0.7511017639655E-02  0.4860100752615E-02
-0.8300993464729E-02  0.5081532334797E-02
-0.9127108500612E-02  0.5295637626796E-02
-0.9988406871870E-02  0.5502063613286E-02
-0.1088384046613E-01  0.5700440341588E-02
-0.1181227821157E-01  0.5890371664318E-02
-0.1277253142993E-01  0.6071648697071E-02
-0.1376336173942E-01  0.6245265715370E-02
-0.1478333882215E-01  0.6412954242756E-02
-0.1583068917048E-01  0.6576501846607E-02
-0.1690322453953E-01  0.6737400524999E-02
-0.1799837132241E-01  0.6896790060192E-02
-0.1911324644317E-01  0.7055604139998E-02
-0.2024476593929E-01  0.7214779989797E-02
-0.2138974530545E-01  0.7375458332526E-02
-0.2254502397251E-01  0.7539139755222E-02
-0.2370776853438E-01  0.7706617075014E-02
-0.2487589668333E-01  0.7877554170376E-02
-0.2604851139000E-01  0.8051776536350E-02
-0.2722678842565E-01  0.8229119041968E-02
-0.2841532562694E-01  0.8409747281610E-02
-0.2962164727600E-01  0.8597220534126E-02
-0.3084491633941E-01  0.8803534154563E-02
-0.9462808264875E-04  0.2963095367164E-03
-0.2354097389643E-03  0.6081630013575E-03
-0.4059597909138E-03  0.9241976231547E-03
-0.6063042588049E-03  0.1237215222726E-02
-0.8407397657197E-03  0.1545697014468E-02
-0.1112510538759E-02  0.1849884004296E-02
-0.1423539774426E-02  0.2149999874806E-02
-0.1774913842036E-02  0.2446075886872E-02
-0.2167181631469E-02  0.2738003076190E-02
-0.2600536610720E-02  0.3025578401019E-02
-0.3074932439677E-02  0.3308541970838E-02
-0.3590155101614E-02  0.3586600355817E-02
-0.4145870279917E-02  0.3859441017914E-02
-0.4741651522995E-02  0.4126739343987E-02
-0.5376996413159E-02  0.4388161966664E-02
-0.6051335755502E-02  0.4643368661601E-02
-0.6764043289608E-02  0.4892015440003E-02
-0.7514398763630E-02  0.5133743415514E-02
-0.8301643689126E-02  0.5368200669724E-02
-0.9124908786094E-02  0.5595022214073E-02
-0.9983236263442E-02  0.5813840091160E-02
-0.1087557189959E-01  0.6024274780484E-02
-0.1180077836472E-01  0.6225921326683E-02
-0.1275767506135E-01  0.6418562420973E-02
-0.1374505825720E-01  0.6603215667163E-02
-0.1476154427515E-01  0.6781648794161E-02
-0.1580539729089E-01  0.6955676487786E-02
-0.1687444963065E-01  0.7126804926759E-02
-0.1796613437190E-01  0.7296186297934E-02
-0.1907756784863E-01  0.7464783384175E-02
-0.2020566270326E-01  0.7633598034045E-02
-0.2134722742766E-01  0.7803889060332E-02
-0.2249908231657E-01  0.7977346032469E-02
-0.2365834681223E-01  0.8154996642083E-02
-0.2482285982336E-01  0.8336782093193E-02
-0.2599162682461E-01  0.8522895414308E-02
-0.2716576208735E-01  0.8713485032707E-02
-0.2835057525406E-01  0.8908180937133E-02
-0.2955784964684E-01  0.9108630866491E-02
-0.3079547526989E-01  0.9327743019189E-02
-0.1102796049162E-03  0.3167159233532E-03
-0.2610056591160E-03  0.6495375673596E-03
-0.4345632716160E-03  0.9833483819531E-03
-0.6351329537700E-03  0.1311612480794E-02
-0.8690236256677E-03  0.1634638477982E-02
-0.1139909884255E-02  0.1953330880203E-02
-0.1449826079885E-02  0.2268026714723E-02
-0.1799907019150E-02  0.2578763603367E-02
-0.2190719560187E-02  0.2885396755821E-02
-0.2622466262125E-02  0.3187676905890E-02
-0.3095106566311E-02  0.3485299473396E-02
-0.3608430760334E-02  0.3777930350809E-02
-0.4162108145599E-02  0.4065220835072E-02
-0.4755715444659E-02  0.4346813921474E-02
-0.5388753123491E-02  0.4622346716751E-02
-0.6060654689318E-02  0.4891451512922E-02
-0.6770796486735E-02  0.5153758386668E-02
-0.7518460997844E-02  0.5408883130001E-02
-0.8302892376214E-02  0.5656450508222E-02
-0.9123223749440E-02  0.5896074260328E-02
-0.9978497727015E-02  0.6127370721454E-02
-0.1086765506576E-01  0.6349953259749E-02
-0.1178954963492E-01  0.6563415371159E-02
-0.1274300549351E-01  0.6767540125697E-02
-0.1372685419260E-01  0.6963372168576E-02
-0.1473976196666E-01  0.7152707659516E-02
-0.1578003354206E-01  0.7337368719508E-02
-0.1684552488921E-01  0.7518849775450E-02
-0.1793368052921E-01  0.7698290092949E-02
-0.1904162305162E-01  0.7876661046808E-02
-0.2016627069998E-01  0.8055014523406E-02
-0.2130443634622E-01  0.8234719570626E-02
-0.2245293310835E-01  0.8417657077384E-02
-0.2360884039924E-01  0.8605113021832E-02
-0.2476990892368E-01  0.8797373926778E-02
-0.2593501546201E-01  0.8995144085886E-02
-0.2710503036617E-01  0.9199320204052E-02
-0.2828512325525E-01  0.9409782856848E-02
-0.2949073382270E-01  0.9625548881221E-02
-0.3074384076174E-01  0.9858153229701E-02
-0.1296357900487E-03  0.3400489686552E-03
-0.2903284084491E-03  0.6950689027561E-03
-0.4654238935943E-03  0.1045457224637E-02
-0.6655851165952E-03  0.1387793451151E-02
-0.8987423440998E-03  0.1724853798908E-02
-0.1168650969946E-02  0.2057810856736E-02
-0.1477406434840E-02  0.2386984010863E-02
-0.1826162080865E-02  0.2712359918641E-02
-0.2215488983338E-02  0.3033718427683E-02
-0.2645594079061E-02  0.3350746096377E-02
-0.3116440106538E-02  0.3663083131856E-02
-0.3627820845820E-02  0.3970349562909E-02
-0.4179408986360E-02  0.4272158022315E-02
-0.4770784543937E-02  0.4568118179856E-02
-0.5401451161859E-02  0.4857837461419E-02
-0.6070845473364E-02  0.5140920810084E-02
-0.6778346977645E-02  0.5416972431420E-02
-0.7523241631394E-02  0.5685582481797E-02
-0.8304777282268E-02  0.5946351456739E-02
-0.9122091144870E-02  0.6198869921989E-02
-0.9974229086493E-02  0.6442736106251E-02
-0.1086012952516E-01  0.6677557164761E-02
-0.1177863566886E-01  0.6902934637967E-02
-0.1272857137454E-01  0.7118668293140E-02
-0.1370880171370E-01  0.7325840509211E-02
-0.1471804319109E-01  0.7526267907351E-02
-0.1575464139520E-01  0.7721753311328E-02
-0.1681647828932E-01  0.7913744519304E-02
-0.1790101561933E-01  0.8103335193562E-02
-0.1900539093557E-01  0.8291479671894E-02
-0.2012653886657E-01  0.8479261215173E-02
-0.2126129107562E-01  0.8668144626626E-02
-0.2240647044425E-01  0.8860194253881E-02
-0.2355913479354E-01  0.9056957823282E-02
-0.2471695650203E-01  0.9259121556562E-02
-0.2587867132872E-01  0.9468019525634E-02
-0.2704492029653E-01  0.9685609656462E-02
-0.2821989515207E-01  0.9913553118445E-02
-0.2942003936650E-01  0.1014908624844E-01
-0.3068689882429E-01  0.1039793925652E-01
-0.1543930038217E-03  0.3687178073661E-03
-0.3235581271736E-03  0.7464039424441E-03
-0.4981086412835E-03  0.1110434960128E-02
-0.6975207966203E-03  0.1465531863305E-02
-0.9298449131178E-03  0.1816207502904E-02
-0.1198716269716E-02  0.2163203766251E-02
-0.1506290919589E-02  0.2506796624630E-02
-0.1853699898701E-02  0.2846817621118E-02
-0.2241517612929E-02  0.3182944296155E-02
-0.2669951058070E-02  0.3514779587358E-02
-0.3138965938800E-02  0.3841900095835E-02
-0.3648359374783E-02  0.4163875789233E-02
-0.4197807717728E-02  0.4480279089751E-02
-0.4786894620304E-02  0.4790686118773E-02
-0.5415127291576E-02  0.5094675038196E-02
-0.6081945907546E-02  0.5391824020119E-02
-0.6786733582792E-02  0.5681711797643E-02
-0.7528780321611E-02  0.5963902784823E-02
-0.8307338488530E-02  0.6237972255210E-02
-0.9121550695383E-02  0.6503485340916E-02
-0.9970468976265E-02  0.6760017755474E-02
-0.1085303430161E-01  0.7007167144560E-02
-0.1176807996934E-01  0.7244553256006E-02
-0.1271442436118E-01  0.7472021028419E-02
-0.1369096053283E-01  0.7690714551214E-02
-0.1469645004768E-01  0.7902462911200E-02
-0.1572927551463E-01  0.8109011911968E-02
-0.1678734662261E-01  0.8311715674168E-02
-0.1786814991080E-01  0.8511580723165E-02
-0.1896884915841E-01  0.8709513384343E-02
-0.2008640810982E-01  0.8906606388079E-02
-0.2121769252636E-01  0.9104400837570E-02
-0.2235955808428E-01  0.9305120597436E-02
-0.2350906191278E-01  0.9510562552544E-02
-0.2466384641803E-01  0.9721806557125E-02
-0.2582248795942E-01  0.9940981490928E-02
-0.2698551660727E-01  0.1017109064759E-01
-0.2815629934523E-01  0.1041695124772E-01
-0.2934720412428E-01  0.1067911280150E-01
-0.3061965505452E-01  0.1095241298311E-01
-0.1874317021433E-03  0.4086514653254E-03
-0.3597909561849E-03  0.8049407971513E-03
-0.5319818963322E-03  0.1177250022369E-02
-0.7309066003137E-03  0.1544682618577E-02
-0.9622521216065E-03  0.1908439790817E-02
-0.1230111581698E-02  0.2269372142950E-02
-0.1536495852978E-02  0.2627369267043E-02
-0.1882549701938E-02  0.2982081375542E-02
-0.2268838824715E-02  0.3333045485136E-02
-0.2695572907930E-02  0.3679768194851E-02
-0.3162720696209E-02  0.4021755664869E-02
-0.3670083512694E-02  0.4358525391603E-02
-0.4217341985098E-02  0.4689609181657E-02
-0.4804083955307E-02  0.5014550268786E-02
-0.5429820639488E-02  0.5332898646796E-02
-0.6093996137346E-02  0.5644206817231E-02
-0.6795997526053E-02  0.5948028841476E-02
-0.7535119220228E-02  0.6243903600330E-02
-0.8310618620901E-02  0.6531380295699E-02
-0.9121644579221E-02  0.6809996218792E-02
-0.9967257219284E-02  0.7079299035877E-02
-0.1084640666867E-01  0.7338865723219E-02
-0.1175792321401E-01  0.7588337804672E-02
-0.1270061782170E-01  0.7827653821342E-02
-0.1367339955175E-01  0.8058070116529E-02
-0.1467505890843E-01  0.8281418652572E-02
-0.1570400555158E-01  0.8499332431448E-02
-0.1675817883134E-01  0.8713008521476E-02
-0.1783510063706E-01  0.8923314483849E-02
-0.1893197602351E-01  0.9131072070378E-02
-0.2004581281017E-01  0.9337359832230E-02
-0.2117352622617E-01  0.9543774161400E-02
-0.2231202514447E-01  0.9752659627243E-02
-0.2345840746152E-01  0.9966007247919E-02
-0.2461029978574E-01  0.1018528729191E-01
-0.2576631832554E-01  0.1041333735892E-01
-0.2692646028746E-01  0.1065479973819E-01
-0.2809523033858E-01  0.1091578537111E-01
-0.2927741930997E-01  0.1121047916500E-01
-0.3053586486286E-01  0.1152875779414E-01
-0.5529102914866E-01 -0.2573762455558E-01
-0.7475479286225E-01 -0.3431685217604E-01
-0.9566238608569E-01 -0.4493835681995E-01
-0.1176937456836E+00 -0.5743452939051E-01
-0.1405959235295E+00 -0.7161528084735E-01
-0.1641649896024E+00 -0.8729040804711E-01
-0.1882288692258E+00 -0.1042752204280E+00
-0.2126485659546E+00 -0.1223935786279E+00
-0.2373094221491E+00 -0.1414805310343E+00
-0.2621064026870E+00 -0.1613809173492E+00
-0.2869388141251E+00 -0.1819488873753E+00
-0.3117168863481E+00 -0.2030527151729E+00
-0.3363718917125E+00 -0.2245821604472E+00
-0.3608597155021E+00 -0.2464519516147E+00
-0.3851569133206E+00 -0.2685994131864E+00
-0.4092540394183E+00 -0.2909794581946E+00
-0.4331490699770E+00 -0.3135573593480E+00
-0.4568497806894E+00 -0.3363043425102E+00
-0.4803756524014E+00 -0.3591965693837E+00
-0.5418095318354E-01 -0.2486648595402E-01
-0.7274808285417E-01 -0.3316850801632E-01
-0.9282580956315E-01 -0.4347091912477E-01
-0.1141100644143E+00 -0.5562052671091E-01
-0.1363511362412E+00 -0.6944272902209E-01
-0.1593420511351E+00 -0.8475961519554E-01
-0.1829068349224E+00 -0.1013969374743E+00
-0.2069000904190E+00 -0.1191874131088E+00
-0.2311990255869E+00 -0.1379730058042E+00
-0.2556910263918E+00 -0.1576039388547E+00
-0.2802692684125E+00 -0.1779386915528E+00
-0.3048387994409E+00 -0.1988486664432E+00
-0.3293258473984E+00 -0.2202251203077E+00
-0.3536812276483E+00 -0.2419826934955E+00
-0.3778766686418E+00 -0.2640575179639E+00
-0.4018988087067E+00 -0.2864025006698E+00
-0.4257438199916E+00 -0.3089810613913E+00
-0.4494187402760E+00 -0.3317630317947E+00
-0.4729441182645E+00 -0.3547210030662E+00
-0.5309104244314E-01 -0.2401872298545E-01
-0.7077936051044E-01 -0.3206038898573E-01
-0.9004021565821E-01 -0.4206214224519E-01
-0.1105838951057E+00 -0.5388302595107E-01
-0.1321642924958E+00 -0.6736120244400E-01
-0.1545725872967E+00 -0.8232996105422E-01
-0.1776294023465E+00 -0.9862467313829E-01
-0.2011837096661E+00 -0.1160864023554E+00
-0.2251056430525E+00 -0.1345639750729E+00
-0.2492759393774E+00 -0.1539132421948E+00
-0.2735823120878E+00 -0.1739973699907E+00
-0.2979251001477E+00 -0.1946912977335E+00
-0.3222258457189E+00 -0.2158882506486E+00
-0.3464305446775E+00 -0.2375032310837E+00
-0.3705063400661E+00 -0.2594714559043E+00
-0.3944361909739E+00 -0.2817441470380E+00
-0.4182143293430E+00 -0.3042829468463E+00
-0.4418473774649E+00 -0.3270557529343E+00
-0.4653571284883E+00 -0.3500337159691E+00
-0.5201884862028E-01 -0.2319242623078E-01
-0.6884424636307E-01 -0.3098786685242E-01
-0.8730053731952E-01 -0.4070476937221E-01
-0.1071105690885E+00 -0.5221173112214E-01
-0.1280319889717E+00 -0.6535786132724E-01
-0.1498548520212E+00 -0.7998643534253E-01
-0.1723968244683E+00 -0.9594174779351E-01
-0.1955018721310E+00 -0.1130727439137E+00
-0.2190339225901E+00 -0.1312349612074E+00
-0.2428678636220E+00 -0.1502899783851E+00
-0.2668865598993E+00 -0.1701058753702E+00
-0.2909861029631E+00 -0.1905614264347E+00
-0.3150837216928E+00 -0.2115521771266E+00
-0.3391209034672E+00 -0.2329938426947E+00
-0.3630604797630E+00 -0.2548210598549E+00
-0.3868819335591E+00 -0.2769836618844E+00
-0.4105776029238E+00 -0.2994416669125E+00
-0.4341536028040E+00 -0.3221616170228E+00
-0.4576324066618E+00 -0.3451142544106E+00
-0.5096257265752E-01 -0.2238571282301E-01
-0.6693946947085E-01 -0.2994703386847E-01
-0.8460298690601E-01 -0.3939229011079E-01
-0.1036867442674E+00 -0.5059758953068E-01
-0.1239519948653E+00 -0.6342132047903E-01
-0.1451881242546E+00 -0.7771572096468E-01
-0.1672101775641E+00 -0.9333332679381E-01
-0.1898576425257E+00 -0.1101305231226E+00
-0.2129889606540E+00 -0.1279693564778E+00
-0.2364738580330E+00 -0.1467171322357E+00
-0.2601909071952E+00 -0.1662469635974E+00
-0.2840323980777E+00 -0.1864416600029E+00
-0.3079116287936E+00 -0.2071993551129E+00
-0.3317659088640E+00 -0.2284367893218E+00
-0.3555540359454E+00 -0.2500883484379E+00
-0.3792522181892E+00 -0.2721028152914E+00
-0.4028508653672E+00 -0.2944389913787E+00
-0.4263553008604E+00 -0.3170625963115E+00
-0.4497879372144E+00 -0.3399445835835E+00
-0.4992094062706E-01 -0.2159691227344E-01
-0.6506269793256E-01 -0.2893441812852E-01
-0.8194490078140E-01 -0.3811899669596E-01
-0.1003101966697E+00 -0.4903260593850E-01
-0.1199230998514E+00 -0.6154152594230E-01
-0.1405725602540E+00 -0.7550601973376E-01
-0.1620712543745E+00 -0.9078623372202E-01
-0.1842546315347E+00 -0.1072455566589E+00
-0.2069762532181E+00 -0.1247523083843E+00
-0.2301012773598E+00 -0.1431794480168E+00
-0.2535044877295E+00 -0.1624051583702E+00
-0.2770747977790E+00 -0.1823164077310E+00
-0.3007219526924E+00 -0.2028141275432E+00
-0.3243794137667E+00 -0.2238163632194E+00
-0.3480022118426E+00 -0.2452575805509E+00
-0.3715634314232E+00 -0.2670859037486E+00
-0.3950514581259E+00 -0.2892593519492E+00
-0.4184704697013E+00 -0.3117432773991E+00
-0.4418421284432E+00 -0.3345091369286E+00
-0.4889314159133E-01 -0.2082452575837E-01
-0.6321241831585E-01 -0.2794696913613E-01
-0.7932460246693E-01 -0.3687988294220E-01
-0.9697970170926E-01 -0.4750976903301E-01
-0.1159450135502E+00 -0.5970963449116E-01
-0.1360091251442E+00 -0.7334693367013E-01
-0.1569825236508E+00 -0.8828883040929E-01
-0.1786969869790E+00 -0.1044052930587E+00
-0.2010017096929E+00 -0.1215706541288E+00
-0.2237577976108E+00 -0.1396634015075E+00
-0.2468367000061E+00 -0.1585667617689E+00
-0.2701243526823E+00 -0.1781719282706E+00
-0.2935273097981E+00 -0.1983827948269E+00
-0.3169754991736E+00 -0.2191189653399E+00
-0.3404204229029E+00 -0.2403153130985E+00
-0.3638321448950E+00 -0.2619196924175E+00
-0.3871968967159E+00 -0.2838897465329E+00
-0.4105173628988E+00 -0.3061908083730E+00
-0.4338138927755E+00 -0.3287949659493E+00
-0.4787875618569E-01 -0.2006721044106E-01
-0.6138780532551E-01 -0.2698200081097E-01
-0.7674124668438E-01 -0.3567056551562E-01
-0.9369487734596E-01 -0.4602293832479E-01
-0.1120182209967E+00 -0.5791788909115E-01
-0.1314994598543E+00 -0.7122932549837E-01
-0.1519470118498E+00 -0.8583087777227E-01
-0.1731892893400E+00 -0.1015986828218E+00
-0.1950715578498E+00 -0.1184128099394E+00
-0.2174513220525E+00 -0.1361571132708E+00
-0.2401971056562E+00 -0.1547197917017E+00
-0.2631922355357E+00 -0.1739962862526E+00
-0.2863404129838E+00 -0.1938935810583E+00
-0.3095683223148E+00 -0.2143330653079E+00
-0.3328241419731E+00 -0.2352503254463E+00
-0.3560749805948E+00 -0.2565933027383E+00
-0.3793047764881E+00 -0.2783196138289E+00
-0.4025144133537E+00 -0.3003948346617E+00
-0.4257225112395E+00 -0.3227917250897E+00
-0.4687770154493E-01 -0.1932376447804E-01
-0.5958862249712E-01 -0.2603715477710E-01
-0.7419470389975E-01 -0.3448721929588E-01
-0.9045607453298E-01 -0.4456676079178E-01
-0.1081438889377E+00 -0.5615952219619E-01
-0.1270458043789E+00 -0.6914521842718E-01
-0.1469682436093E+00 -0.8340343827951E-01
-0.1677365091286E+00 -0.9881609272631E-01
-0.1891923139363E+00 -0.1152687039064E+00
-0.2111899576324E+00 -0.1326503039050E+00
-0.2335954054074E+00 -0.1508539592248E+00
-0.2562897118427E+00 -0.1697793473186E+00
-0.2791740351764E+00 -0.1893366384184E+00
-0.3021720776737E+00 -0.2094492026501E+00
-0.3252288684359E+00 -0.2300536099859E+00
-0.3483086006333E+00 -0.2510981961798E+00
-0.3713927854608E+00 -0.2725408366300E+00
-0.3944802488488E+00 -0.2943475446511E+00
-0.4175875976310E+00 -0.3164917657475E+00
-0.4589018009532E-01 -0.1859311196282E-01
-0.5781513128632E-01 -0.2511036394828E-01
-0.7168545207181E-01 -0.3332651757448E-01
-0.8726426936474E-01 -0.4313659124164E-01
-0.1043237667434E+00 -0.5442866398104E-01
-0.1226509080957E+00 -0.6708769827959E-01
-0.1420501613653E+00 -0.8099877824296E-01
-0.1623439347011E+00 -0.9604921397310E-01
-0.1833707152425E+00 -0.1121296949032E+00
-0.2049819471144E+00 -0.1291342260217E+00
-0.2270413657244E+00 -0.1469606128254E+00
-0.2494280577024E+00 -0.1655127309163E+00
-0.2720409183566E+00 -0.1847040022674E+00
-0.2948009011728E+00 -0.2044599385550E+00
-0.3176500346119E+00 -0.2247183197052E+00
-0.3405496209554E+00 -0.2454281266419E+00
-0.3634786232294E+00 -0.2665477142173E+00
-0.3864335995603E+00 -0.2880436735851E+00
-0.4094289559124E+00 -0.3098901553988E+00
-0.4491662827794E-01 -0.1787428495971E-01
-0.5606800247188E-01 -0.2419981551145E-01
-0.6921447058020E-01 -0.3218557371952E-01
-0.8412095544074E-01 -0.4172841637014E-01
-0.1005600854734E+00 -0.5272025493889E-01
-0.1183179375293E+00 -0.6505082071451E-01
-0.1371970425165E+00 -0.7861027494735E-01
-0.1570170985282E+00 -0.9329097430673E-01
-0.1776136532759E+00 -0.1089884937098E+00
-0.1988356057396E+00 -0.1256015965357E+00
-0.2205447556727E+00 -0.1430326817377E+00
-0.2426184951064E+00 -0.1611897625323E+00
-0.2649537078767E+00 -0.1799895495004E+00
-0.2874688065284E+00 -0.1993598192011E+00
-0.3101029479850E+00 -0.2192397400442E+00
-0.3328145609900E+00 -0.2395791298910E+00
-0.3555799550505E+00 -0.2603369814143E+00
-0.3783932465325E+00 -0.2814805561755E+00
-0.4012665051276E+00 -0.3029847394808E+00
-0.4395767858189E-01 -0.1716641320552E-01
-0.5434825076435E-01 -0.2330392472563E-01
-0.6678316273199E-01 -0.3106189722293E-01
-0.8102806626121E-01 -0.4033879578636E-01
-0.9685548608960E-01 -0.5102997683846E-01
-0.1140504113194E+00 -0.6302953682695E-01
-0.1324134408092E+00 -0.7623234096432E-01
-0.1517617237657E+00 -0.9053546456765E-01
-0.1719281229582E+00 -0.1058390944156E+00
-0.1927592697165E+00 -0.1220465340574E+00
-0.2141152916586E+00 -0.1390646188999E+00
-0.2358721311032E+00 -0.1568054207564E+00
-0.2579248858603E+00 -0.1751889484612E+00
-0.2801896139817E+00 -0.1941453292721E+00
-0.3026027163046E+00 -0.2136152502864E+00
-0.3251197643221E+00 -0.2335495006890E+00
-0.3477143251800E+00 -0.2539078102733E+00
-0.3703779254723E+00 -0.2746581551709E+00
-0.3931201785829E+00 -0.2957761684800E+00
-0.4301411711150E-01 -0.1646870862867E-01
-0.5265716246800E-01 -0.2242130389789E-01
-0.6439326751780E-01 -0.2995334530481E-01
-0.7798788223269E-01 -0.3896479835094E-01
-0.9321292790196E-01 -0.4935417783675E-01
-0.1098521121807E+00 -0.6101961110619E-01
-0.1277041024894E+00 -0.7386033851794E-01
-0.1465836443195E+00 -0.8777785255894E-01
-0.1663211451714E+00 -0.1026766901242E+00
-0.1867612191590E+00 -0.1184644777253E+00
-0.2077625587984E+00 -0.1350523232259E+00
-0.2291998763910E+00 -0.1523562628979E+00
-0.2509666867002E+00 -0.1702995884105E+00
-0.2729768628513E+00 -0.1888148275659E+00
-0.2951641568418E+00 -0.2078442701526E+00
-0.3174813029125E+00 -0.2273397574429E+00
-0.3398990539941E+00 -0.2472618007782E+00
-0.3624062183378E+00 -0.2675790858457E+00
-0.3850098310981E+00 -0.2882679674294E+00
-0.4208685078048E-01 -0.1578045545652E-01
-0.5099623977601E-01 -0.2155073931365E-01
-0.6204679229483E-01 -0.2885808496131E-01
-0.7500296058928E-01 -0.3760395089701E-01
-0.8963562058369E-01 -0.4768981107197E-01
-0.1057270225335E+00 -0.5901755316662E-01
-0.1230739057725E+00 -0.7149050717838E-01
-0.1414887474973E+00 -0.8501430904993E-01
-0.1607997110200E+00 -0.9949759896681E-01
-0.1808496218709E+00 -0.1148521141560E+00
-0.2014959521843E+00 -0.1309930678232E+00
-0.2226123824513E+00 -0.1478403547324E+00
-0.2440910288767E+00 -0.1653205117516E+00
-0.2658437368964E+00 -0.1833684840769E+00
-0.2878017135607E+00 -0.2019282058754E+00
-0.3099148834375E+00 -0.2209526028383E+00
-0.3321511310158E+00 -0.2404029627407E+00
-0.3544964343593E+00 -0.2602486289450E+00
-0.3769551204373E+00 -0.2804666067349E+00
-0.4117687694513E-01 -0.1510100067114E-01
-0.4936714927479E-01 -0.2069116958659E-01
-0.5974594985211E-01 -0.2777455740519E-01
-0.7207606866555E-01 -0.3625418979690E-01
-0.8612695804245E-01 -0.4603437584376E-01
-0.1016792606209E+00 -0.5702055118955E-01
-0.1185277996147E+00 -0.6911989188129E-01
-0.1364829149909E+00 -0.8224193227883E-01
-0.1553707237648E+00 -0.9629918647238E-01
-0.1750324744721E+00 -0.1112072985170E+00
-0.1953246153403E+00 -0.1268854202613E+00
-0.2161199756039E+00 -0.1432571905533E+00
-0.2373094429531E+00 -0.1602523350786E+00
-0.2588029843729E+00 -0.1778082043164E+00
-0.2805293667556E+00 -0.1958703812308E+00
-0.3024357433684E+00 -0.2143928659333E+00
-0.3244870946362E+00 -0.2333376740930E+00
-0.3466664727091E+00 -0.2526747123178E+00
-0.3689753599227E+00 -0.2723815174624E+00
-0.4028525403208E-01 -0.1442974379358E-01
-0.4777167199147E-01 -0.1984166396083E-01
-0.5749309631514E-01 -0.2670144291903E-01
-0.6921011636714E-01 -0.3491381286057E-01
-0.8269044950770E-01 -0.4438585837441E-01
-0.9771301198881E-01 -0.5502640359988E-01
-0.1140707362027E+00 -0.6674626734360E-01
-0.1315719561638E+00 -0.7945866659332E-01
-0.1500409319405E+00 -0.9307977950501E-01
-0.1693175338633E+00 -0.1075289644382E+00
-0.1892573683137E+00 -0.1227291489418E+00
-0.2097325799020E+00 -0.1386075966339E+00
-0.2306329872882E+00 -0.1550971508764E+00
-0.2518668242079E+00 -0.1721375311405E+00
-0.2733605267624E+00 -0.1896759421248E+00
-0.2950585288339E+00 -0.2076674126412E+00
-0.3169228910513E+00 -0.2260746007920E+00
-0.3389336614180E+00 -0.2448678439481E+00
-0.3610893422688E+00 -0.2640250433418E+00
-0.3941307958593E-01 -0.1376613095708E-01
-0.4621166605296E-01 -0.1900140652765E-01
-0.5529068514321E-01 -0.2563763321610E-01
-0.6640810681939E-01 -0.3358144002074E-01
-0.7932967001423E-01 -0.4274268216760E-01
-0.9383248113604E-01 -0.5303346069230E-01
-0.1097076240687E+00 -0.6436807235749E-01
-0.1267615621757E+00 -0.7666323049035E-01
-0.1448168833496E+00 -0.8983858874826E-01
-0.1637122694476E+00 -0.1038170413018E+00
-0.1833026561589E+00 -0.1185251353975E+00
-0.2034596596726E+00 -0.1338936388454E+00
-0.2240721821299E+00 -0.1498584311178E+00
-0.2450468687268E+00 -0.1663615454667E+00
-0.2663079419129E+00 -0.1833517559805E+00
-0.2877971840845E+00 -0.2007850455506E+00
-0.3094737419163E+00 -0.2186245989021E+00
-0.3313146016105E+00 -0.2368410187266E+00
-0.3533151614585E+00 -0.2554123587015E+00
-0.3856146684124E-01 -0.1310964650649E-01
-0.4468902674353E-01 -0.1816967803302E-01
-0.5314121682303E-01 -0.2458220123875E-01
-0.6367308067870E-01 -0.3225597088798E-01
-0.7604820256534E-01 -0.4110365420639E-01
-0.9004183320788E-01 -0.5104056067363E-01
-0.1054432700305E+00 -0.6198433677507E-01
-0.1220572481343E+00 -0.7385503538606E-01
-0.1397048667139E+00 -0.8657561978685E-01
-0.1582238030119E+00 -0.1000723578836E+00
-0.1774684853488E+00 -0.1142752706073E+00
-0.1973101503708E+00 -0.1291185118243E+00
-0.2176369324034E+00 -0.1445409096896E+00
-0.2383540353929E+00 -0.1604867426556E+00
-0.2593835957944E+00 -0.1769062829963E+00
-0.2806648306115E+00 -0.1937563710268E+00
-0.3021540019430E+00 -0.2110005786295E+00
-0.3238250009307E+00 -0.2286095817887E+00
-0.3456700195776E+00 -0.2465613373761E+00
-0.3773152705134E-01 -0.1245980768547E-01
-0.4320565621072E-01 -0.1734584186519E-01
-0.5104720076918E-01 -0.2353437617885E-01
-0.6100807412504E-01 -0.3093654832182E-01
-0.7284959475188E-01 -0.3946791760764E-01
-0.8634515052791E-01 -0.4904697223455E-01
-0.1012823360899E+00 -0.5959461473209E-01
-0.1174643101426E+00 -0.7103410996039E-01
-0.1347108680278E+00 -0.8329158871057E-01
-0.1528588629997E+00 -0.9629654905276E-01
-0.1717623741091E+00 -0.1099823524464E+00
-0.1912924026654E+00 -0.1242864267963E+00
-0.2113364627634E+00 -0.1391504603049E+00
-0.2317984695609E+00 -0.1545209003635E+00
-0.2525986140369E+00 -0.1703494338981E+00
-0.2736736541364E+00 -0.1865936468939E+00
-0.2949770223278E+00 -0.2032173421132E+00
-0.3164795093849E+00 -0.2201910576748E+00
-0.3381700295472E+00 -0.2374923778478E+00
-0.3692435321341E-01 -0.1181615905266E-01
-0.4176343546605E-01 -0.1652933012901E-01
-0.4901111969605E-01 -0.2249351880756E-01
-0.5841607900451E-01 -0.2962252228756E-01
-0.6973731699944E-01 -0.3783490424142E-01
-0.8274639027511E-01 -0.4705233648371E-01
-0.9722929713091E-01 -0.5719891637615E-01
-0.1129877829836E+00 -0.6820102190284E-01
-0.1298405275908E+00 -0.7998783376507E-01
-0.1476237397008E+00 -0.9249195689152E-01
-0.1661913040479E+00 -0.1056499756049E+00
-0.1854141282703E+00 -0.1194024895075E+00
-0.2051792548536E+00 -0.1336939616377E+00
-0.2253894698715E+00 -0.1484729301081E+00
-0.2459631741372E+00 -0.1636924072396E+00
-0.2668347949305E+00 -0.1793106049223E+00
-0.2879550176127E+00 -0.1952913909259E+00
-0.3092915579794E+00 -0.2116049426864E+00
-0.3308300175253E+00 -0.2282281817698E+00
-0.3614100634332E-01 -0.1117826750269E-01
-0.4036420062613E-01 -0.1571963076510E-01
-0.4703539912990E-01 -0.2145909822388E-01
-0.5590000842503E-01 -0.2831341532858E-01
-0.6671472627587E-01 -0.3620428893358E-01
-0.7924934754708E-01 -0.4505661019679E-01
-0.9328840396123E-01 -0.5479764040602E-01
-0.1086324031954E+00 -0.6535679971483E-01
-0.1250991026154E+00 -0.7666622602543E-01
-0.1425242463333E+00 -0.8866152947716E-01
-0.1607616781112E+00 -0.1012824174085E+00
-0.1796823526056E+00 -0.1144725718016E+00
-0.1991729919188E+00 -0.1281791532442E+00
-0.2191354214981E+00 -0.1423527160630E+00
-0.2394864235464E+00 -0.1569475096411E+00
-0.2601582466443E+00 -0.1719222513296E+00
-0.2810989408771E+00 -0.1872407061815E+00
-0.3022732057124E+00 -0.2028724646917E+00
-0.3236633333845E+00 -0.2187934893242E+00
-0.3538250436466E-01 -0.1054571792213E-01
-0.3900972349755E-01 -0.1491627569361E-01
-0.4512238222872E-01 -0.2043066996938E-01
-0.5346266806499E-01 -0.2700888962760E-01
-0.6378503561754E-01 -0.3457594531202E-01
-0.7585762426119E-01 -0.4306001057669E-01
-0.8946365223869E-01 -0.5239150778732E-01
-0.1044025781820E+00 -0.6250285512501E-01
-0.1204914361622E+00 -0.7332907984794E-01
-0.1375656869175E+00 -0.8480871827530E-01
-0.1554792859468E+00 -0.9688452067019E-01
-0.1741033756064E+00 -0.1095031781296E+00
-0.1933245123882E+00 -0.1226144836892E+00
-0.2130437392131E+00 -0.1361709426026E+00
-0.2331764083705E+00 -0.1501279605348E+00
-0.2536527662983E+00 -0.1644446467424E+00
-0.2744183702693E+00 -0.1790845025140E+00
-0.2954349967359E+00 -0.1940163118746E+00
-0.3166816731891E+00 -0.2092147882882E+00
-0.3464981331747E-01 -0.9918109217661E-02
-0.3770169601111E-01 -0.1411882960975E-01
-0.4327430928171E-01 -0.1940785505638E-01
-0.5110673249745E-01 -0.2570871517618E-01
-0.6095128876037E-01 -0.3294990284997E-01
-0.7257460320390E-01 -0.4106296116835E-01
-0.8575875666127E-01 -0.4998149642588E-01
-0.1003023608462E+00 -0.5964090607806E-01
-0.1160219320593E+00 -0.6997906327778E-01
-0.1327528308166E+00 -0.8093737457247E-01
-0.1503492768468E+00 -0.9246157427699E-01
-0.1686827412284E+00 -0.1045013079995E+00
-0.1876397734391E+00 -0.1170089522093E+00
-0.2071208218256E+00 -0.1299389122571E+00
-0.2270400148357E+00 -0.1432476833577E+00
-0.2473257982953E+00 -0.1568946676957E+00
-0.2679214101542E+00 -0.1708429576261E+00
-0.2887858318050E+00 -0.1850603301490E+00
-0.3098949082961E+00 -0.1995199877425E+00
-0.3394384066850E-01 -0.9295050472050E-02
-0.3644171813065E-01 -0.1332687908268E-01
-0.4149330140071E-01 -0.1839031948915E-01
-0.4883472597658E-01 -0.2441273861443E-01
-0.5821633929906E-01 -0.3132630471161E-01
-0.6940342666688E-01 -0.3906603863233E-01
-0.8217712991157E-01 -0.4756877665141E-01
-0.9633542933489E-01 -0.5677290034525E-01
-0.1116945355352E+00 -0.6661910870229E-01
-0.1280898938785E+00 -0.7705164552469E-01
-0.1453761404726E+00 -0.8801919242246E-01
-0.1634252162033E+00 -0.9947431565154E-01
-0.1821238255327E+00 -0.1113719456129E+00
-0.2013720195128E+00 -0.1236683562049E+00
-0.2210829256846E+00 -0.1363210857019E+00
-0.2411834153495E+00 -0.1492897523965E+00
-0.2616146110501E+00 -0.1625369196800E+00
-0.2823328592974E+00 -0.1760291883451E+00
-0.3033109359337E+00 -0.1897380327468E+00
-0.3326543089714E-01 -0.8676157282523E-02
-0.3523128949942E-01 -0.1254002196365E-01
-0.3978134872574E-01 -0.1737775427369E-01
-0.4664900805276E-01 -0.2312085278833E-01
-0.5558283478059E-01 -0.2970536656158E-01
-0.6634698011476E-01 -0.3706992070268E-01
-0.7872186684178E-01 -0.4515464803881E-01
-0.9250507242758E-01 -0.5390094052132E-01
-0.1075127201646E+00 -0.6325232478840E-01
-0.1235805268711E+00 -0.7315587117036E-01
-0.1405636961965E+00 -0.8356319417461E-01
-0.1583347790760E+00 -0.9442976902208E-01
-0.1767807992237E+00 -0.1057130728724E+00
-0.1958016157115E+00 -0.1173712401587E+00
-0.2153095936583E+00 -0.1293628316286E+00
-0.2352302792282E+00 -0.1416476340992E+00
-0.2555029122538E+00 -0.1541875958868E+00
-0.2760813929883E+00 -0.1669480146962E+00
-0.2969355633039E+00 -0.1798984783517E+00
-0.3261536424083E-01 -0.8061049051706E-02
-0.3407180627368E-01 -0.1175785794820E-01
-0.3814030502027E-01 -0.1636985692039E-01
-0.4455176622044E-01 -0.2183296828723E-01
-0.5305320819274E-01 -0.2808733793974E-01
-0.6340788354374E-01 -0.3507533732193E-01
-0.7539573670347E-01 -0.4274047998494E-01
-0.8881418347384E-01 -0.5102721327452E-01
-0.1034794840955E+00 -0.5988191304232E-01
-0.1192278142323E+00 -0.6925448623848E-01
-0.1359150941360E+00 -0.7909948771639E-01
-0.1534146226804E+00 -0.8937531283583E-01
-0.1716139075200E+00 -0.1000420027500E+00
-0.1904128270356E+00 -0.1110595714797E+00
-0.2097232358678E+00 -0.1223876124303E+00
-0.2294696256784E+00 -0.1339860686881E+00
-0.2495896125989E+00 -0.1458162287521E+00
-0.2700348630186E+00 -0.1578420121408E+00
-0.2907724320830E+00 -0.1700310325720E+00
-0.3199435557781E-01 -0.7449344192172E-02
-0.3296455803069E-01 -0.1097997660540E-01
-0.3657188180689E-01 -0.1536631004063E-01
-0.4254500736518E-01 -0.2054898183753E-01
-0.5062966757618E-01 -0.2647246038317E-01
-0.6058848054984E-01 -0.3308301849710E-01
-0.7220117302442E-01 -0.4032764903169E-01
-0.8526525232819E-01 -0.4815391541867E-01
-0.9959734510292E-01 -0.5651108132221E-01
-0.1150342730199E+00 -0.6535191907118E-01
-0.1314328183562E+00 -0.7463395181999E-01
-0.1486671613554E+00 -0.8431852889873E-01
-0.1666254561477E+00 -0.9436829831916E-01
-0.1852078148513E+00 -0.1047452025126E+00
-0.2043258442401E+00 -0.1154099124136E+00
-0.2239032707418E+00 -0.1263225550585E+00
-0.2438763690868E+00 -0.1374437609057E+00
-0.2641948024809E+00 -0.1487360548480E+00
-0.2848229884695E+00 -0.1601650690946E+00
-0.3140305889705E-01 -0.6840658293946E-02
-0.3191073379195E-01 -0.1020594877370E-01
-0.3507765393423E-01 -0.1436676408919E-01
-0.4063056212977E-01 -0.1926875003591E-01
-0.4831419958901E-01 -0.2486093237839E-01
-0.5789084218143E-01 -0.3109365061174E-01
-0.6914027901548E-01 -0.3791748628731E-01
-0.8186037355931E-01 -0.4528319169170E-01
-0.9586835276605E-01 -0.5314297061299E-01
-0.1110018700580E+00 -0.6145250526880E-01
-0.1271187096771E+00 -0.7017233329247E-01
-0.1440940595787E+00 -0.7926681321514E-01
-0.1618168774498E+00 -0.8870126858538E-01
-0.1801877231040E+00 -0.9843965062395E-01
-0.1991182253728E+00 -0.1084437903167E+00
-0.2185316506361E+00 -0.1186740692229E+00
-0.2383632350054E+00 -0.1290905096756E+00
-0.2585608816304E+00 -0.1396542854483E+00
-0.2790865122540E+00 -0.1503291222204E+00
-0.3084207132911E-01 -0.6234599057367E-02
-0.3091142687142E-01 -0.9435313765043E-02
-0.3365906259947E-01 -0.1337081513682E-01
-0.3881008516441E-01 -0.1799205763155E-01
-0.4610856755563E-01 -0.2325286861440E-01
-0.5531676426830E-01 -0.2910782688518E-01
-0.6621482587201E-01 -0.3551121886553E-01
-0.7860124741111E-01 -0.4241706648769E-01
-0.9229409375573E-01 -0.4978057585828E-01
-0.1071320331749E+00 -0.5756039573449E-01
-0.1229739843109E+00 -0.6572013935568E-01
-0.1396962589951E+00 -0.7422724857961E-01
-0.1571887660328E+00 -0.8304981589863E-01
-0.1753527219171E+00 -0.9215391406307E-01
-0.1941000508538E+00 -0.1015026565675E+00
-0.2133538779753E+00 -0.1110567947490E+00
-0.2330487229738E+00 -0.1207758387839E+00
-0.2531309801511E+00 -0.1306197067319E+00
-0.2735602022296E+00 -0.1405503637521E+00
-0.3031194174123E-01 -0.5630762465477E-02
-0.2996764684022E-01 -0.8667567599063E-02
-0.3231742680252E-01 -0.1237798407922E-01
-0.3708506447754E-01 -0.1671858837055E-01
-0.4401431914808E-01 -0.2164826343258E-01
-0.5286777503758E-01 -0.2712600387362E-01
-0.6342626213830E-01 -0.3310991925087E-01
-0.7548919269782E-01 -0.3955738546659E-01
-0.8887571008688E-01 -0.4642667884170E-01
-0.1034256767715E+00 -0.5367947930691E-01
-0.1189992687697E+00 -0.6128254749569E-01
-0.1354740244059E+00 -0.6920649757920E-01
-0.1527409367917E+00 -0.7742230633278E-01
-0.1707020774484E+00 -0.8589831271709E-01
-0.1892699379160E+00 -0.9459907714425E-01
-0.2083678329065E+00 -0.1034858825380E+00
-0.2279299096508E+00 -0.1125178649337E+00
-0.2479013141885E+00 -0.1216538177720E+00
-0.2682393371450E+00 -0.1308541309046E+00
-0.2981318300036E-01 -0.5028728901726E-02
-0.2908033668527E-01 -0.7902150385933E-02
-0.3105396010923E-01 -0.1138769499193E-01
-0.3545683565294E-01 -0.1544789590066E-01
-0.4203279856271E-01 -0.2004695580945E-01
-0.5054514718623E-01 -0.2514846106428E-01
-0.6077572770627E-01 -0.3071445917058E-01
-0.7252516459203E-01 -0.3670576300794E-01
-0.8561392261416E-01 -0.4308378846907E-01
-0.9988323327987E-01 -0.4981331490140E-01
-0.1151946419773E+00 -0.5686432761990E-01
-0.1314269993003E+00 -0.6421071107753E-01
-0.1484724958947E+00 -0.7182645834529E-01
-0.1662342387422E+00 -0.7968234887374E-01
-0.1846255509278E+00 -0.8774459841505E-01
-0.2035702783351E+00 -0.9597523380587E-01
-0.2230025683285E+00 -0.1043331948242E+00
-0.2428665979268E+00 -0.1127763006419E+00
-0.2631174866465E+00 -0.1212635556865E+00
-0.2934628521306E-01 -0.4428054604077E-02
-0.2825039011262E-01 -0.7138426960401E-02
-0.2986978540028E-01 -0.1039924569928E-01
-0.3392659174539E-01 -0.1417936704337E-01
-0.4016515270806E-01 -0.1844858744989E-01
-0.4834990315004E-01 -0.2317525426835E-01
-0.5826406073550E-01 -0.2832545760022E-01
-0.6970976528024E-01 -0.3386352398968E-01
-0.8250904745912E-01 -0.3975407590504E-01
-0.9650467792175E-01 -0.4596506003053E-01
-0.1115596718610E+00 -0.5246976359232E-01
-0.1275542585279E+00 -0.5924544044427E-01
-0.1443819133931E+00 -0.6626923973249E-01
-0.1619469319043E+00 -0.7351457943683E-01
-0.1801637154462E+00 -0.8094958474570E-01
-0.1989569908046E+00 -0.8853729786544E-01
-0.2182613181060E+00 -0.9623668503202E-01
-0.2380202212338E+00 -0.1040047501869E+00
-0.2581867332970E+00 -0.1117992850405E+00
-0.2891173825006E-01 -0.3828266516770E-02
-0.2747868167177E-01 -0.6375669528974E-02
-0.2876596324938E-01 -0.9411781297001E-02
-0.3249540679262E-01 -0.1291219099682E-01
-0.3841235129309E-01 -0.1685257063722E-01
-0.4628283502999E-01 -0.2120618204678E-01
-0.5589181989863E-01 -0.2594324416535E-01
-0.6704327005211E-01 -0.3103166251923E-01
-0.7956102723386E-01 -0.3643932802525E-01
-0.9328956702653E-01 -0.4213741956353E-01
-0.1080934643290E+00 -0.4810259854562E-01
-0.1238543734236E+00 -0.5431557900783E-01
-0.1404671107988E+00 -0.6075679991875E-01
-0.1578372738992E+00 -0.6740252655776E-01
-0.1758805559433E+00 -0.7422309218241E-01
-0.1945229146074E+00 -0.8118290018071E-01
-0.2136997899580E+00 -0.8824123032053E-01
-0.2333544356673E+00 -0.9535443779462E-01
-0.2534379003176E+00 -0.1024792117178E+00
-0.2851005655030E-01 -0.3228848641694E-02
-0.2676609685234E-01 -0.5613027829041E-02
-0.2774351590683E-01 -0.8424254403461E-02
-0.3116425152937E-01 -0.1164531795528E-01
-0.3677519796136E-01 -0.1525804855963E-01
-0.4434451635085E-01 -0.1924074711790E-01
-0.5365930011806E-01 -0.2356781875651E-01
-0.6452564857247E-01 -0.2821079790368E-01
-0.7676945884477E-01 -0.3314089942438E-01
-0.9023707389063E-01 -0.3833259582566E-01
-0.1047947106316E+00 -0.4376598728679E-01
-0.1203254777003E+00 -0.4942532177378E-01
-0.1367255558092E+00 -0.5529443604426E-01
-0.1539019053739E+00 -0.6135263747359E-01
-0.1717716660496E+00 -0.6757279673943E-01
-0.1902623551373E+00 -0.7392112141032E-01
-0.2093108273368E+00 -0.8035760140147E-01
-0.2288605650663E+00 -0.8683814123899E-01
-0.2488608224788E+00 -0.9331830341376E-01
-0.2814181600743E-01 -0.2629225665464E-02
-0.2611357366911E-01 -0.4849489692500E-02
-0.2680345805167E-01 -0.7435378342559E-02
-0.2993401217501E-01 -0.1037741543465E-01
-0.3525434316880E-01 -0.1366385942619E-01
-0.4253531571998E-01 -0.1727812286439E-01
-0.5156654975802E-01 -0.2119881604972E-01
-0.6215658615007E-01 -0.2540113311499E-01
-0.7413361839287E-01 -0.2985966382145E-01
-0.8734601720081E-01 -0.3455223423860E-01
-0.1016617210071E+00 -0.3946244173041E-01
-0.1169653123015E+00 -0.4457812023601E-01
-0.1331543332448E+00 -0.4988656738433E-01
-0.1501371064594E+00 -0.5537026649995E-01
-0.1678322778000E+00 -0.6100494724821E-01
-0.1861691800115E+00 -0.6675916702518E-01
-0.2050866784264E+00 -0.7259423180246E-01
-0.2245291751894E+00 -0.7846591216395E-01
-0.2444445591181E+00 -0.8432841933660E-01
-0.2780770574601E-01 -0.2028732479742E-02
-0.2552215489934E-01 -0.4083824667130E-02
-0.2594682972157E-01 -0.6443564064650E-02
-0.2880550860346E-01 -0.9106828200605E-02
-0.3385030043233E-01 -0.1206850983423E-01
-0.4085541882489E-01 -0.1531713687483E-01
-0.4961340139249E-01 -0.1883548835142E-01
-0.5993552236813E-01 -0.2260243594619E-01
-0.7165250698313E-01 -0.2659599119175E-01
-0.8461491217629E-01 -0.3079739771195E-01
-0.9869248001846E-01 -0.3519380896004E-01
-0.1137712882484E+00 -0.3977667950777E-01
-0.1297502277085E+00 -0.4453677483231E-01
-0.1465389370161E+00 -0.4945978270889E-01
-0.1640574911888E+00 -0.5452447616125E-01
-0.1822371247114E+00 -0.5970239044213E-01
-0.2010192917847E+00 -0.6495705750533E-01
-0.2203502750592E+00 -0.7024487269076E-01
-0.2401775819040E+00 -0.7551828032131E-01
-0.2750860626298E-01 -0.1426566645584E-02
-0.2499304436311E-01 -0.3314455895066E-02
-0.2517471055016E-01 -0.5446839436319E-02
-0.2777949059346E-01 -0.7831513801105E-02
-0.3256344025280E-01 -0.1047014912836E-01
-0.3930483152537E-01 -0.1335623470336E-01
-0.4779947862938E-01 -0.1647666859753E-01
-0.5786166384879E-01 -0.1981399260747E-01
-0.6932486671044E-01 -0.2334968893962E-01
-0.8204198648645E-01 -0.2706849355208E-01
-0.9588465781855E-01 -0.3096118741920E-01
-0.1107404893783E+00 -0.3502287868248E-01
-0.1265097261350E+00 -0.3924776079250E-01
-0.1431032622081E+00 -0.4362462224067E-01
-0.1604424406932E+00 -0.4813522561571E-01
-0.1784601285178E+00 -0.5275435138806E-01
-0.1971006909020E+00 -0.5744926826644E-01
-0.2163134761542E+00 -0.6217858937731E-01
-0.2360476720850E+00 -0.6689314527182E-01
-0.2724571563179E-01 -0.8215561476426E-03
-0.2452767239179E-01 -0.2539341518332E-02
-0.2448821998557E-01 -0.4442665504198E-02
-0.2685662123267E-01 -0.6549093102661E-02
-0.3139401837006E-01 -0.8866552442165E-02
-0.3788340561070E-01 -0.1139348747520E-01
-0.4612423828235E-01 -0.1412078042380E-01
-0.5593403947197E-01 -0.1703461981183E-01
-0.6714924706828E-01 -0.2012000600452E-01
-0.7962525168521E-01 -0.2336526969961E-01
-0.9323568043997E-01 -0.2676491613520E-01
-0.1078697302913E+00 -0.3031775805591E-01
-0.1234290506916E+00 -0.3402137231185E-01
-0.1398257855706E+00 -0.3786743067305E-01
-0.1569823464003E+00 -0.4184034345664E-01
-0.1748328746080E+00 -0.4591783462373E-01
-0.1933238171709E+00 -0.5007110392830E-01
-0.2124084311616E+00 -0.5426624891949E-01
-0.2320416515724E+00 -0.5845376624584E-01
-0.2702090178861E-01 -0.2123278390199E-03
-0.2412771452592E-01 -0.1754849644798E-02
-0.2388829746785E-01 -0.3428326317809E-02
-0.2603754053922E-01 -0.5256769696113E-02
-0.3034216286222E-01 -0.7255106805967E-02
-0.3659084162263E-01 -0.9426564361006E-02
-0.4458698326583E-01 -0.1176584774617E-01
-0.5415153580452E-01 -0.1426265076822E-01
-0.6512404459231E-01 -0.1690559973181E-01
-0.7736254576191E-01 -0.1968677165827E-01
-0.9074277049834E-01 -0.2260450930067E-01
-0.1051555795899E+00 -0.2566142684286E-01
-0.1205041330378E+00 -0.2885848319174E-01
-0.1367019381240E+00 -0.3219002850736E-01
-0.1536724082779E+00 -0.3564248654624E-01
-0.1713504833951E+00 -0.3919571073800E-01
-0.1896843692990E+00 -0.4282338889590E-01
-0.2086266457142E+00 -0.4649837746856E-01
-0.2281440309455E+00 -0.5019346150433E-01
-0.1736845529749E+00 -0.1116238176402E+00
-0.2511010053847E+00 -0.1972326140850E+00
-0.3110872160126E+00 -0.2685736650431E+00
-0.3638749032020E+00 -0.3323823633033E+00
-0.4135172764699E+00 -0.3922149495351E+00
-0.4619163855939E+00 -0.4481195794639E+00
-0.5094512857967E+00 -0.4968084639075E+00
-0.5558352124923E+00 -0.5375722267603E+00
-0.6008275997157E+00 -0.5718153988536E+00
-0.6443645405288E+00 -0.6007459658864E+00
-0.6863436137593E+00 -0.6250126966005E+00
-0.7265326101356E+00 -0.6449057689638E+00
-0.7646189303619E+00 -0.6607385699433E+00
-0.8001964631834E+00 -0.6727101270442E+00
-0.8327365491640E+00 -0.6809242022633E+00
-0.8616689284967E+00 -0.6856691303925E+00
-0.8866077904616E+00 -0.6876211931591E+00
-0.9060271784330E+00 -0.6855463815967E+00
-0.9178920809140E+00 -0.6808457383490E+00
-0.1580478206643E+00 -0.9556488455405E-01
-0.2362265057820E+00 -0.1708892652546E+00
-0.2979715581003E+00 -0.2412698127739E+00
-0.3516449729683E+00 -0.3043826513769E+00
-0.4019263152978E+00 -0.3633190965192E+00
-0.4506262202609E+00 -0.4187535366184E+00
-0.4980701379708E+00 -0.4679092495223E+00
-0.5441383614860E+00 -0.5098590946919E+00
-0.5887481337874E+00 -0.5455470642998E+00
-0.6319287443355E+00 -0.5759979953499E+00
-0.6736481105900E+00 -0.6018743831417E+00
-0.7137357636972E+00 -0.6235240197613E+00
-0.7519331328257E+00 -0.6412973695464E+00
-0.7878847806391E+00 -0.6554111400656E+00
-0.8211107428854E+00 -0.6659711756333E+00
-0.8510835027375E+00 -0.6732236805553E+00
-0.8774267414287E+00 -0.6778003495438E+00
-0.8985846571053E+00 -0.6785649951637E+00
-0.9124057330393E+00 -0.6769330687649E+00
-0.1446424939847E+00 -0.8419257142760E-01
-0.2211331292106E+00 -0.1499507616490E+00
-0.2839039040178E+00 -0.2159333704346E+00
-0.3385298360418E+00 -0.2775711555455E+00
-0.3893080367630E+00 -0.3354475190640E+00
-0.4381778342348E+00 -0.3901368474550E+00
-0.4855067737512E+00 -0.4392973172249E+00
-0.5313031434745E+00 -0.4819901797047E+00
-0.5755758688643E+00 -0.5188715151505E+00
-0.6184115596662E+00 -0.5507441548646E+00
-0.6598401734127E+00 -0.5781919070816E+00
-0.6997558457915E+00 -0.6015710819459E+00
-0.7379607052439E+00 -0.6212553369741E+00
-0.7741547308323E+00 -0.6374821662442E+00
-0.8079132069686E+00 -0.6503664741008E+00
-0.8387578081919E+00 -0.6601487088011E+00
-0.8663410282122E+00 -0.6674371076084E+00
-0.8890284467921E+00 -0.6711415524525E+00
-0.9044857629987E+00 -0.6724527556306E+00
-0.1331053886110E+00 -0.7545744586427E-01
-0.2066445311412E+00 -0.1328493703857E+00
-0.2693247397166E+00 -0.1934508344916E+00
-0.3245660857452E+00 -0.2523457008708E+00
-0.3757356993671E+00 -0.3086867515198E+00
-0.4246717038697E+00 -0.3623322963670E+00
-0.4718316925025E+00 -0.4111424402882E+00
-0.5173401811533E+00 -0.4542004589712E+00
-0.5612803340174E+00 -0.4919722423665E+00
-0.6037711997745E+00 -0.5250760261879E+00
-0.6448836071504E+00 -0.5539850102112E+00
-0.6845670805043E+00 -0.5790197148465E+00
-0.7226843771598E+00 -0.6005505597516E+00
-0.7589931560543E+00 -0.6188276857330E+00
-0.7931244456325E+00 -0.6339801527093E+00
-0.8246520324556E+00 -0.6462505578567E+00
-0.8532711721606E+00 -0.6562347700179E+00
-0.8772452943395E+00 -0.6628362604453E+00
-0.8940349333811E+00 -0.6668844928821E+00
-0.1231184615059E+00 -0.6841741659343E-01
-0.1930271278094E+00 -0.1186265704695E+00
-0.2546806409614E+00 -0.1736978492349E+00
-0.3099654114470E+00 -0.2290855626731E+00
-0.3612982761493E+00 -0.2832485135198E+00
-0.4101930980651E+00 -0.3354609256413E+00
-0.4571151508444E+00 -0.3835865964476E+00
-0.5022899113454E+00 -0.4266733466007E+00
-0.5458684597414E+00 -0.4650286168133E+00
-0.5879930741660E+00 -0.4991214757078E+00
-0.6287580774099E+00 -0.5293176357966E+00
-0.6681536327314E+00 -0.5558799077472E+00
-0.7060962641269E+00 -0.5791506353255E+00
-0.7423988220849E+00 -0.5993784981828E+00
-0.7767463625423E+00 -0.6167019600153E+00
-0.8087651226776E+00 -0.6313647231242E+00
-0.8382022335167E+00 -0.6439483037269E+00
-0.8632176415169E+00 -0.6533139430633E+00
-0.8810780345712E+00 -0.6598710368014E+00
-0.1144178431404E+00 -0.6257574846220E-01
-0.1803562513394E+00 -0.1066244251417E+00
-0.2402710552018E+00 -0.1563814696994E+00
-0.2949988054459E+00 -0.2078868335437E+00
-0.3461499305434E+00 -0.2593521669158E+00
-0.3948389786498E+00 -0.3096951797583E+00
-0.4414331036940E+00 -0.3567827034558E+00
-0.4862087263630E+00 -0.3995726456341E+00
-0.5293738050854E+00 -0.4382069539868E+00
-0.5710900410831E+00 -0.4730217232706E+00
-0.6114648002640E+00 -0.5042855774832E+00
-0.6505152291886E+00 -0.5321978948631E+00
-0.6882011482802E+00 -0.5570571800969E+00
-0.7243844008326E+00 -0.5790960918371E+00
-0.7588002363731E+00 -0.5984529535883E+00
-0.7911261031723E+00 -0.6153652137581E+00
-0.8211659190064E+00 -0.6303929334678E+00
-0.8469907764829E+00 -0.6423364802376E+00
-0.8657083210292E+00 -0.6511786591103E+00
-0.1067916169286E+00 -0.5762884830235E-01
-0.1686243853430E+00 -0.9638238651175E-01
-0.2262860309266E+00 -0.1411880439481E+00
-0.2799131754519E+00 -0.1886993771089E+00
-0.3304870456356E+00 -0.2371217028556E+00
-0.3787396787549E+00 -0.2852098521788E+00
-0.4248785636523E+00 -0.3308978246238E+00
-0.4691686653532E+00 -0.3730610526343E+00
-0.5118503076097E+00 -0.4116674577466E+00
-0.5530987601950E+00 -0.4469225697678E+00
-0.5930276744897E+00 -0.4790045551014E+00
-0.6316706019242E+00 -0.5080498752986E+00
-0.6690197793602E+00 -0.5343052667221E+00
-0.7049779209904E+00 -0.5579761990796E+00
-0.7393251545100E+00 -0.5791905143655E+00
-0.7717875200689E+00 -0.5981699208746E+00
-0.8022267300054E+00 -0.6154439627076E+00
-0.8286505839600E+00 -0.6297488227407E+00
-0.8480572939343E+00 -0.6406673684736E+00
-0.1000682710806E+00 -0.5337484881172E-01
-0.1577882049359E+00 -0.8756321201766E-01
-0.2128406477891E+00 -0.1278310332387E+00
-0.2649110160844E+00 -0.1714011986972E+00
-0.3145128730065E+00 -0.2165942127847E+00
-0.3620549302362E+00 -0.2621349617447E+00
-0.4075697656441E+00 -0.3060923685856E+00
-0.4512614624452E+00 -0.3473015033191E+00
-0.4933713216502E+00 -0.3855694485780E+00
-0.5340771131875E+00 -0.4209731752792E+00
-0.5734923465999E+00 -0.4536034136639E+00
-0.6116586815805E+00 -0.4835351951836E+00
-0.6485908537456E+00 -0.5109600033927E+00
-0.6842239634179E+00 -0.5360487542761E+00
-0.7183770085071E+00 -0.5589102617116E+00
-0.7508208864951E+00 -0.5797417010337E+00
-0.7814726556184E+00 -0.5990332722029E+00
-0.8083092894614E+00 -0.6154658557023E+00
-0.8282774497066E+00 -0.6282697392434E+00
-0.9410774739359E-01 -0.4967104753394E-01
-0.1477893568571E+00 -0.7991126271468E-01
-0.2000001599753E+00 -0.1160599198841E+00
-0.2501498743263E+00 -0.1558406399749E+00
-0.2984171838341E+00 -0.1977433854647E+00
-0.3449585031195E+00 -0.2405450510048E+00
-0.3896480229966E+00 -0.2824975290987E+00
-0.4326008589033E+00 -0.3224466076444E+00
-0.4740305715052E+00 -0.3600694910773E+00
-0.5141034173046E+00 -0.3953250200211E+00
-0.5529252377182E+00 -0.4282204051116E+00
-0.5905385555039E+00 -0.4587710800481E+00
-0.6269717638700E+00 -0.4871121165551E+00
-0.6621842707629E+00 -0.5133754973089E+00
-0.6960278709305E+00 -0.5376450565614E+00
-0.7283138185701E+00 -0.5600868699184E+00
-0.7590092733534E+00 -0.5811444533365E+00
-0.7860966860274E+00 -0.5994615582890E+00
-0.8065324853953E+00 -0.6139758262971E+00
-0.8879474280708E-01 -0.4641208420735E-01
-0.1385644762038E+00 -0.7322728094905E-01
-0.1877966433192E+00 -0.1056587844399E+00
-0.2357482541297E+00 -0.1418580061816E+00
-0.2823669070274E+00 -0.1805016365346E+00
-0.3276243466821E+00 -0.2204640706292E+00
-0.3712694263214E+00 -0.2602052279006E+00
-0.4133202323980E+00 -0.2986264827642E+00
-0.4539419689509E+00 -0.3353142255612E+00
-0.4932761036204E+00 -0.3701280305535E+00
-0.5314129043659E+00 -0.4029995977517E+00
-0.5683890417832E+00 -0.4338882985882E+00
-0.6042385949002E+00 -0.4628735430899E+00
-0.6389378272114E+00 -0.4900463355951E+00
-0.6723655132253E+00 -0.5154621206990E+00
-0.7043683174992E+00 -0.5392519929668E+00
-0.7349562009522E+00 -0.5618075318324E+00
-0.7621549282171E+00 -0.5817602284532E+00
-0.7829919773681E+00 -0.5978223053030E+00
-0.8403374778359E-01 -0.4351764293233E-01
-0.1300502046477E+00 -0.6735257330794E-01
-0.1762400052283E+00 -0.9644212079302E-01
-0.2217926201392E+00 -0.1292965185513E+00
-0.2665032919458E+00 -0.1647765973481E+00
-0.3102169551842E+00 -0.2018755663168E+00
-0.3525955459446E+00 -0.2392672729510E+00
-0.3935669339075E+00 -0.2759413685498E+00
-0.4332369911897E+00 -0.3114324144026E+00
-0.4717124557648E+00 -0.3455244943015E+00
-0.5090611558662E+00 -0.3780860504154E+00
-0.5453080133398E+00 -0.4090266149227E+00
-0.5804856930361E+00 -0.4383729150741E+00
-0.6145805554580E+00 -0.4661750836253E+00
-0.6474929240002E+00 -0.4924590682720E+00
-0.6790997184499E+00 -0.5173197003222E+00
-0.7094450353604E+00 -0.5410936158395E+00
-0.7366355820835E+00 -0.5624292983071E+00
-0.7578287139505E+00 -0.5798845172791E+00
-0.7974530983697E-01 -0.4092503184807E-01
-0.1221857603247E+00 -0.6215864401330E-01
-0.1653253609775E+00 -0.8825043140230E-01
-0.2083438209040E+00 -0.1180076515499E+00
-0.2509424248564E+00 -0.1504625582012E+00
-0.2928856922596E+00 -0.1847331951063E+00
-0.3337855093781E+00 -0.2196995500608E+00
-0.3734955488941E+00 -0.2544593279941E+00
-0.4120601599314E+00 -0.2885292790660E+00
-0.4495458598432E+00 -0.3216428226629E+00
-0.4859933168869E+00 -0.3536201037493E+00
-0.5214112033844E+00 -0.3843295708647E+00
-0.5558248121242E+00 -0.4137506070543E+00
-0.5892246757767E+00 -0.4418947056574E+00
-0.6215277208556E+00 -0.4687592948167E+00
-0.6526359480643E+00 -0.4944039762130E+00
-0.6826181468598E+00 -0.5191096164545E+00
-0.7096980238427E+00 -0.5415732808242E+00
-0.7312175314971E+00 -0.5602704594944E+00
-0.7586317046320E-01 -0.3858444319595E-01
-0.1149142472147E+00 -0.5754013552095E-01
-0.1550380828819E+00 -0.8094631714740E-01
-0.1954425166062E+00 -0.1078535419761E+00
-0.2357773118271E+00 -0.1374481627303E+00
-0.2757620366649E+00 -0.1689698381785E+00
-0.3149901547934E+00 -0.2014882131842E+00
-0.3532615525326E+00 -0.2342176053174E+00
-0.3905637057021E+00 -0.2666838579456E+00
-0.4269218597637E+00 -0.2985927439925E+00
-0.4623474505781E+00 -0.3297318507263E+00
-0.4968302444280E+00 -0.3599389201682E+00
-0.5303836929527E+00 -0.3891533229309E+00
-0.5629976437586E+00 -0.4173520812616E+00
-0.5946013193279E+00 -0.4445069008794E+00
-0.6251168075694E+00 -0.4706451392504E+00
-0.6546278680688E+00 -0.4959930702496E+00
-0.6815085685635E+00 -0.5193284767188E+00
-0.7033349281935E+00 -0.5391160225756E+00
-0.7233202723986E-01 -0.3645577162455E-01
-0.1081832794317E+00 -0.5340983775136E-01
-0.1453573206858E+00 -0.7441118000126E-01
-0.1831136148807E+00 -0.9870784984059E-01
-0.2210805596819E+00 -0.1256214896218E+00
-0.2589587650219E+00 -0.1545049116818E+00
-0.2963481517649E+00 -0.1845961710925E+00
-0.3330160372158E+00 -0.2152260572194E+00
-0.3689022935416E+00 -0.2459489366660E+00
-0.4039936152675E+00 -0.2764624870254E+00
-0.4382727513905E+00 -0.3065366516122E+00
-0.4717099088037E+00 -0.3359893396875E+00
-0.5043039651545E+00 -0.3647285219428E+00
-0.5360405384142E+00 -0.3927024199690E+00
-0.5668576874358E+00 -0.4198612429429E+00
-0.5966930194679E+00 -0.4462045864059E+00
-0.6256357080213E+00 -0.4719070215893E+00
-0.6522398873658E+00 -0.4958581504506E+00
-0.6743590078697E+00 -0.5165809706143E+00
-0.6910576032366E-01 -0.3450638456981E-01
-0.1019452256982E+00 -0.4969503412887E-01
-0.1362585004029E+00 -0.6854248407132E-01
-0.1713698558090E+00 -0.9045580625110E-01
-0.2069071729051E+00 -0.1148733677250E+00
-0.2425703474723E+00 -0.1412500159039E+00
-0.2779837306606E+00 -0.1689690722153E+00
-0.3129016991169E+00 -0.1974714994742E+00
-0.3472283419344E+00 -0.2263527713813E+00
-0.3809173304800E+00 -0.2553178620381E+00
-0.4139255073806E+00 -0.2841321012565E+00
-0.4462047459467E+00 -0.3126039619442E+00
-0.4777384175611E+00 -0.3406191140861E+00
-0.5085058504699E+00 -0.3681035809852E+00
-0.5384515506669E+00 -0.3949912343620E+00
-0.5675248048569E+00 -0.4212593378352E+00
-0.5958112665232E+00 -0.4470349145821E+00
-0.6220703673889E+00 -0.4713479807282E+00
-0.6444694823961E+00 -0.4928453321372E+00
-0.6614601756738E-01 -0.3270948713248E-01
-0.9615723883837E-01 -0.4633473145380E-01
-0.1277151197185E+00 -0.6325146711556E-01
-0.1602146980827E+00 -0.8299384568653E-01
-0.1932972379983E+00 -0.1050995040918E+00
-0.2266740652478E+00 -0.1291132114279E+00
-0.2600056356257E+00 -0.1545404848350E+00
-0.2930500178633E+00 -0.1809222425182E+00
-0.3256881727739E+00 -0.2079018802430E+00
-0.3578480513885E+00 -0.2352028554606E+00
-0.3894650340336E+00 -0.2625964809381E+00
-0.4204754289811E+00 -0.2898910322759E+00
-0.4508478361049E+00 -0.3169587887174E+00
-0.4805547579975E+00 -0.3437105685293E+00
-0.5095460146061E+00 -0.3700695221337E+00
-0.5377798148057E+00 -0.3959963869982E+00
-0.5653305314435E+00 -0.4215754483796E+00
-0.5911830720637E+00 -0.4460016956774E+00
-0.6138475378698E+00 -0.4681060411540E+00
-0.6342109468889E-01 -0.3104287431680E-01
-0.9078115421470E-01 -0.4327741986383E-01
-0.1197000147353E+00 -0.5846122177378E-01
-0.1496446249235E+00 -0.7622901621395E-01
-0.1802783777948E+00 -0.9620182629949E-01
-0.2113315238314E+00 -0.1180021934852E+00
-0.2425069546638E+00 -0.1412362029090E+00
-0.2735794463144E+00 -0.1655323943757E+00
-0.3044190216447E+00 -0.1905843414901E+00
-0.3349360337689E+00 -0.2161412928049E+00
-0.3650498721295E+00 -0.2419885220634E+00
-0.3946851224142E+00 -0.2679417874850E+00
-0.4237976978517E+00 -0.2938682146717E+00
-0.4523541279744E+00 -0.3196704095554E+00
-0.4803097366174E+00 -0.3452665761574E+00
-0.5076303562424E+00 -0.3706067335861E+00
-0.5343732327973E+00 -0.3957372332582E+00
-0.5597638296062E+00 -0.4200368607734E+00
-0.5826752965807E+00 -0.4425738568775E+00
-0.6090510235986E-01 -0.2948766984893E-01
-0.8578328527383E-01 -0.4047926595114E-01
-0.1121862192851E+00 -0.5410491642411E-01
-0.1396509363414E+00 -0.7007846369020E-01
-0.1678680001093E+00 -0.8808928635669E-01
-0.1965903795310E+00 -0.1078266214539E+00
-0.2255655894332E+00 -0.1289777299923E+00
-0.2545944341997E+00 -0.1512457304860E+00
-0.2835468579405E+00 -0.1743732307004E+00
-0.3123237609474E+00 -0.1981392031662E+00
-0.3408344326429E+00 -0.2223482800304E+00
-0.3689961338959E+00 -0.2468295992433E+00
-0.3967550612989E+00 -0.2714523453706E+00
-0.4240736549571E+00 -0.2961176567941E+00
-0.4509140929411E+00 -0.3207446911431E+00
-0.4772501692615E+00 -0.3452786597085E+00
-0.5031190386037E+00 -0.3697327070754E+00
-0.5279977142266E+00 -0.3936805525307E+00
-0.5511342035193E+00 -0.4164707849850E+00
-0.5857763792836E-01 -0.2802781278383E-01
-0.8113413044694E-01 -0.3790099730926E-01
-0.1051470491450E+00 -0.5012514771038E-01
-0.1302213198692E+00 -0.6446889785261E-01
-0.1560753232985E+00 -0.8067834779434E-01
-0.1824861869264E+00 -0.9849974929496E-01
-0.2092451631343E+00 -0.1176849839116E+00
-0.2361850941730E+00 -0.1379990148653E+00
-0.2631848913869E+00 -0.1592299184029E+00
-0.2901435595964E+00 -0.1811875468938E+00
-0.3169660988056E+00 -0.2036988841105E+00
-0.3435669318017E+00 -0.2266104082392E+00
-0.3698858693801E+00 -0.2497991817267E+00
-0.3958836041518E+00 -0.2731710452761E+00
-0.4215311149800E+00 -0.2966522042451E+00
-0.4468118330821E+00 -0.3201896926499E+00
-0.4717430243385E+00 -0.3437693700881E+00
-0.4960628659831E+00 -0.3671636299352E+00
-0.5194005873648E+00 -0.3900280817421E+00
-0.2645953728754E-01  0.1015080359097E-02
-0.2333387444958E-01 -0.1800954492527E-03
-0.2299918037561E-01 -0.1368230797750E-02
-0.2515999390111E-01 -0.2585891267500E-02
-0.2955819567119E-01 -0.3848849146610E-02
-0.3596241554937E-01 -0.5160311777275E-02
-0.4418070948592E-01 -0.6538230838815E-02
-0.5404445871489E-01 -0.7997315141692E-02
-0.6539430232415E-01 -0.9540436830316E-02
-0.7808619811623E-01 -0.1117102399320E-01
-0.9199376797750E-01 -0.1289998961353E-01
-0.1070068907550E+00 -0.1474477072549E-01
-0.1230273072768E+00 -0.1671874439191E-01
-0.1399685776918E+00 -0.1883051610898E-01
-0.1577554092525E+00 -0.2108706222906E-01
-0.1763213713293E+00 -0.2349073317676E-01
-0.1956053010527E+00 -0.2602523173171E-01
-0.2155327681715E+00 -0.2885337599837E-01
-0.2359066386342E+00 -0.3217473708810E-01
-0.2612830688587E-01  0.1629223456103E-02
-0.2295601700785E-01  0.6480619714238E-03
-0.2274303249368E-01 -0.2384353118992E-03
-0.2515830220252E-01 -0.1069128041190E-02
-0.2991384463257E-01 -0.1853851335420E-02
-0.3675192735473E-01 -0.2590992911359E-02
-0.4547867478431E-01 -0.3322210044235E-02
-0.5593035803219E-01 -0.4086338884473E-02
-0.6794472913877E-01 -0.4898245401814E-02
-0.8137265094720E-01 -0.5770372262177E-02
-0.9608326008465E-01 -0.6723964873808E-02
-0.1119632899782E+00 -0.7789711072232E-02
-0.1289107842462E+00 -0.8992323350671E-02
-0.1468363041214E+00 -0.1035493300551E-01
-0.1656615131171E+00 -0.1190708844477E-01
-0.1853125999354E+00 -0.1367516630541E-01
-0.2057123695207E+00 -0.1564251958826E-01
-0.2267480890507E+00 -0.1815724583984E-01
-0.2480478334569E+00 -0.2159078217559E-01
-0.2584842426599E-01  0.2265134622100E-02
-0.2267159829319E-01  0.1534921355822E-02
-0.2261940414439E-01  0.1001104859326E-02
-0.2532927669340E-01  0.6149548693695E-03
-0.3048520630937E-01  0.3715316437336E-03
-0.3780388579679E-01  0.2760692352708E-03
-0.4708693048280E-01  0.2602399342820E-03
-0.5817355356615E-01  0.2578103252206E-03
-0.7089800161085E-01  0.2397398588465E-03
-0.8510573885020E-01  0.1827833770364E-03
-0.1006610043064E+00  0.5346034934845E-04
-0.1174466435245E+00 -0.1942184012257E-03
-0.1353561072608E+00 -0.5978581594439E-03
-0.1542953451191E+00 -0.1196050772021E-02
-0.1741803787142E+00 -0.2040343116934E-02
-0.1949278413952E+00 -0.3176329370752E-02
-0.2164476690892E+00 -0.4576782260314E-02
-0.2385832929793E+00 -0.6769473314469E-02
-0.2608260682012E+00 -0.1032087891171E-01
-0.2562676324325E-01  0.2926677096920E-02
-0.2249110933907E-01  0.2490783710126E-02
-0.2263983608791E-01  0.2364031720027E-02
-0.2568323103268E-01  0.2483699068601E-02
-0.3128069210114E-01  0.2847403304019E-02
-0.3912415162195E-01  0.3462869827001E-02
-0.4900807022944E-01  0.4231467195682E-02
-0.6077267948338E-01  0.5055881137530E-02
-0.7424815422771E-01  0.5890527566895E-02
-0.8927416350219E-01  0.6699567222054E-02
-0.1057095260921E+00  0.7435638076907E-02
-0.1234324511721E+00  0.8036022289156E-02
-0.1423311170534E+00  0.8449815003823E-02
-0.1623059825398E+00  0.8623631329108E-02
-0.1832666253561E+00  0.8485993394014E-02
-0.2051212395298E+00  0.7975741974335E-02
-0.2277717175197E+00  0.7135577683213E-02
-0.2510215191834E+00  0.5245530578694E-02
-0.2742149303231E+00  0.1511205733916E-02
-0.2547161135072E-01  0.3618209886400E-02
-0.2242566711454E-01  0.3525718253116E-02
-0.2281524282536E-01  0.3865411533059E-02
-0.2622924583367E-01  0.4555675108072E-02
-0.3230663629470E-01  0.5594989903162E-02
-0.4071574088884E-01  0.6992248049860E-02
-0.5124111325764E-01  0.8614295724013E-02
-0.6372213730396E-01  0.1032861820427E-01
-0.7798434734647E-01  0.1207073363821E-01
-0.9386118880355E-01  0.1379062303421E-01
-0.1112055993759E+00  0.1542578565693E-01
-0.1298906625930E+00  0.1689594400510E-01
-0.1497991022745E+00  0.1813719610495E-01
-0.1708258468706E+00  0.1908241685029E-01
-0.1928744239473E+00  0.1964147742596E-01
-0.2158461466573E+00  0.1973876016764E-01
-0.2396393388595E+00  0.1943180978852E-01
-0.2640119957136E+00  0.1779413697520E-01
-0.2881456903786E+00  0.1379783069830E-01
-0.2539249516218E-01  0.4344424803392E-02
-0.2248699363564E-01  0.4650726071019E-02
-0.2315611764175E-01  0.5521439192226E-02
-0.2697501121027E-01  0.6850766357139E-02
-0.3356721815104E-01  0.8636580227877E-02
-0.4257877588597E-01  0.1088781012299E-01
-0.5378155280215E-01  0.1343192383403E-01
-0.6701227351067E-01  0.1609672907200E-01
-0.8209125924501E-01  0.1879660994724E-01
-0.9884532939164E-01  0.2146607116554E-01
-0.1171212646655E+00  0.2402658706068E-01
-0.1367868955282E+00  0.2637987986859E-01
-0.1577197364427E+00  0.2844960844484E-01
-0.1798095688140E+00  0.3015569841346E-01
-0.2029543403154E+00  0.3138966183013E-01
-0.2270493565760E+00  0.3206094535708E-01
-0.2519901686410E+00  0.3224004502665E-01
-0.2774817275763E+00  0.3078630283649E-01
-0.3025305895449E+00  0.2644122951895E-01
-0.2540021320902E-01  0.5110622805726E-02
-0.2268739188458E-01  0.5877935310030E-02
-0.2367245469581E-01  0.7349677698706E-02
-0.2792675137459E-01  0.9390130342807E-02
-0.3506436114290E-01  0.1199548991182E-01
-0.4471046470472E-01  0.1517383629184E-01
-0.5662144031072E-01  0.1870781759082E-01
-0.7062960590669E-01  0.2238075910781E-01
-0.8654947982628E-01  0.2608385410962E-01
-0.1042009236170E+00  0.2973513697232E-01
-0.1234245252204E+00  0.3323948925607E-01
-0.1440830601063E+00  0.3648045913630E-01
-0.1660492800320E+00  0.3936993768747E-01
-0.1892081484206E+00  0.4181548080338E-01
-0.2134520393094E+00  0.4369009701125E-01
-0.2386697404242E+00  0.4488759906102E-01
-0.2647524500308E+00  0.4549081078329E-01
-0.2913450865765E+00  0.4414099988388E-01
-0.3172726678564E+00  0.3935670420802E-01
-0.2550692570210E-01  0.5922831836982E-02
-0.2303970091584E-01  0.7220810684931E-02
-0.2437363438419E-01  0.9369168298248E-02
-0.2908909978084E-01  0.1219622679188E-01
-0.3679765446569E-01  0.1569599872238E-01
-0.4710509726158E-01  0.1987518523780E-01
-0.5974949249105E-01  0.2446557268257E-01
-0.7455704908214E-01  0.2920089017520E-01
-0.9133585474146E-01  0.3394729114422E-01
-0.1098985826018E+00  0.3860566176176E-01
-0.1300798475140E+00  0.4306405492218E-01
-0.1517378037851E+00  0.4718798079760E-01
-0.1747408621687E+00  0.5087847474703E-01
-0.1989691658052E+00  0.5403140365331E-01
-0.2243088171072E+00  0.5650125848945E-01
-0.2506404655589E+00  0.5816610788388E-01
-0.2778479240642E+00  0.5912173722043E-01
-0.3055110170418E+00  0.5778964044707E-01
-0.3322717197071E+00  0.5247417086322E-01
-0.2572627629962E-01  0.6787929370852E-02
-0.2355724101079E-01  0.8694306537827E-02
-0.2526827978113E-01  0.1160051741683E-01
-0.3046496600156E-01  0.1529280802211E-01
-0.3876428162007E-01  0.1976328143151E-01
-0.4975406007706E-01  0.2501718118849E-01
-0.6315120166180E-01  0.3072874942733E-01
-0.7877411619372E-01  0.3657668350296E-01
-0.9642377346324E-01  0.4240048495542E-01
-0.1159055681667E+00  0.4808359119815E-01
-0.1370486256729E+00  0.5349744345243E-01
-0.1597070543572E+00  0.5849014422536E-01
-0.1837451548527E+00  0.6295326357168E-01
-0.2090377725728E+00  0.6677205793793E-01
-0.2354633698622E+00  0.6978295449129E-01
-0.2628920489983E+00  0.7184888007698E-01
-0.2911965142928E+00  0.7308030229560E-01
-0.3198885499378E+00  0.7167791468374E-01
-0.3474291791839E+00  0.6574012873360E-01
-0.2607353093558E-01  0.7713768558662E-02
-0.2425374239376E-01  0.1031500311438E-01
-0.2636409695412E-01  0.1406594462470E-01
-0.3205540484392E-01  0.1870488225820E-01
-0.4095896663908E-01  0.2422332669329E-01
-0.5264586160090E-01  0.3062550608799E-01
-0.6680893455249E-01  0.3752070556270E-01
-0.8325708315700E-01  0.4452679595802E-01
-0.1017834134089E+00  0.5145530613522E-01
-0.1221861601760E+00  0.5817244901527E-01
-0.1442897192577E+00  0.6453396191705E-01
-0.1679447738046E+00  0.7037193410684E-01
-0.1930114209238E+00  0.7557056576578E-01
-0.2193582006114E+00  0.8000614521890E-01
-0.2468539984420E+00  0.8349801776960E-01
-0.2753554990738E+00  0.8589518865042E-01
-0.3047204055472E+00  0.8732529404446E-01
-0.3343913800907E+00  0.8576691250184E-01
-0.3626527499516E+00  0.7911897297037E-01
-0.2656572451849E-01  0.8709319807900E-02
-0.2514325066169E-01  0.1210122466594E-01
-0.2766770448304E-01  0.1678928740592E-01
-0.3385950243827E-01  0.2245864144152E-01
-0.4337394556691E-01  0.2910285596588E-01
-0.5576616042666E-01  0.3672612076190E-01
-0.7070199970170E-01  0.4486444993096E-01
-0.8797910287961E-01  0.5306866897038E-01
-0.1073819564453E+00  0.6112142403225E-01
-0.1287020659383E+00  0.6887273298489E-01
-0.1517601296898E+00  0.7616458951145E-01
-0.1764039397711E+00  0.8281552685244E-01
-0.2024888374522E+00  0.8870530340722E-01
-0.2298754973091E+00  0.9370341665892E-01
-0.2584208631893E+00  0.9761349889737E-01
-0.2879651714407E+00  0.1002722271336E+00
-0.3183474695893E+00  0.1018274079502E+00
-0.3489417251176E+00  0.1000333006637E+00
-0.3778607601857E+00  0.9259323314983E-01
-0.2722180531303E-01  0.9784837293441E-02
-0.2623999905913E-01  0.1407313346205E-01
-0.2918445882501E-01  0.1979594329522E-01
-0.3587429784702E-01  0.2658134715288E-01
-0.4599897219688E-01  0.3442926536557E-01
-0.5909777852680E-01  0.4334525742524E-01
-0.7480665092964E-01  0.5278253655224E-01
-0.9291025136356E-01  0.6221815410203E-01
-0.1131837982869E+00  0.7140563931907E-01
-0.1354129264907E+00  0.8018114206320E-01
-0.1594158641335E+00  0.8837641559710E-01
-0.1850377434896E+00  0.9580020565570E-01
-0.2121279798220E+00  0.1023315158027E+00
-0.2405372795590E+00  0.1078355003368E+00
-0.2701080316367E+00  0.1121015134485E+00
-0.3006611383724E+00  0.1149555733543E+00
-0.3320139504814E+00  0.1165689950391E+00
-0.3634733730377E+00  0.1144683543305E+00
-0.3929858627432E+00  0.1061623580528E+00
-0.2806276361857E-01  0.1095207018818E-01
-0.2755823419012E-01  0.1625278783078E-01
-0.3091828874381E-01  0.2311271588388E-01
-0.3809477268228E-01  0.3110116874043E-01
-0.4882136886498E-01  0.4023064312184E-01
-0.6262066167734E-01  0.5050955989541E-01
-0.7909597160508E-01  0.6129701345715E-01
-0.9801748566166E-01  0.7198898701627E-01
-0.1191507943031E+00  0.8231092142105E-01
-0.1422770016395E+00  0.9208955362044E-01
-0.1672130438458E+00  0.1011520217110E+00
-0.1938009807934E+00  0.1093024043478E+00
-0.2218823502303E+00  0.1164229817675E+00
-0.2512953246294E+00  0.1223767504301E+00
-0.2818651255664E+00  0.1269398525089E+00
-0.3133909089846E+00  0.1299291177173E+00
-0.3456662720990E+00  0.1315429432397E+00
-0.3779336712334E+00  0.1290757263682E+00
-0.4079775643902E+00  0.1198398743796E+00
-0.2911171969255E-01  0.1222455687785E-01
-0.2911196768312E-01  0.1866413733675E-01
-0.3287156070437E-01  0.2676748851698E-01
-0.4051396524131E-01  0.3604695376734E-01
-0.5182612750541E-01  0.4653595905270E-01
-0.6631170160343E-01  0.5824648627843E-01
-0.8353954585017E-01  0.7042939020826E-01
-0.1032645100722E+00  0.8239189607299E-01
-0.1252426451232E+00  0.9383493626546E-01
-0.1492521672371E+00  0.1045837144501E+00
-0.1751093176344E+00  0.1144689732906E+00
-0.2026515785860E+00  0.1232961196071E+00
-0.2317098005504E+00  0.1309541870484E+00
-0.2621068156558E+00  0.1373051950890E+00
-0.2936484038427E+00  0.1421123644741E+00
-0.3261103706165E+00  0.1451844565859E+00
-0.3592618329869E+00  0.1467507229729E+00
-0.3922842018128E+00  0.1438680446745E+00
-0.4228030783355E+00  0.1336490093583E+00
-0.3039392642700E-01  0.1361809802655E-01
-0.3091459590559E-01  0.2133291796546E-01
-0.3504502395771E-01  0.3078856037294E-01
-0.4312332146039E-01  0.4144790919445E-01
-0.5499604735247E-01  0.5337564337983E-01
-0.7014423113794E-01  0.6658517750188E-01
-0.8810278333124E-01  0.8020044964341E-01
-0.1086116258368E+00  0.9343292667146E-01
-0.1314176527404E+00  0.1059678111467E+00
-0.1562974144422E+00  0.1176418096059E+00
-0.1830655946646E+00  0.1282998233404E+00
-0.2115521109325E+00  0.1377540300618E+00
-0.2415736407439E+00  0.1459017569774E+00
-0.2729350625275E+00  0.1526035298574E+00
-0.3054211692517E+00  0.1576090271217E+00
-0.3387838918005E+00  0.1607197611270E+00
-0.3727687325902E+00  0.1621997736128E+00
-0.4065000053181E+00  0.1588626988488E+00
-0.4374461666772E+00  0.1476172201251E+00
-0.3193659481904E-01  0.1515169837256E-01
-0.3297825383991E-01  0.2428637187480E-01
-0.3743794750430E-01  0.3520327182271E-01
-0.4591353724138E-01  0.4733315459909E-01
-0.5831179335581E-01  0.6078312735104E-01
-0.7408679979625E-01  0.7555803774464E-01
-0.9274576532780E-01  0.9062936357126E-01
-0.1140158894406E+00  0.1051101777568E+00
-0.1376342689886E+00  0.1186890943717E+00
-0.1633750151600E+00  0.1312335143542E+00
-0.1910479519808E+00  0.1426132957586E+00
-0.2204710113029E+00  0.1526496059337E+00
-0.2514431811292E+00  0.1612462398535E+00
-0.2837495745619E+00  0.1682599145597E+00
-0.3171534907641E+00  0.1734255812428E+00
-0.3513836415001E+00  0.1765382234038E+00
-0.3861645063039E+00  0.1779005904296E+00
-0.4205674191167E+00  0.1740774327712E+00
-0.4519039612643E+00  0.1617704043700E+00
-0.3376836114732E-01  0.1684978496181E-01
-0.3531245392515E-01  0.2755281056380E-01
-0.4004885399814E-01  0.4003459748901E-01
-0.4887638179669E-01  0.5373151372362E-01
-0.6175145533020E-01  0.6879852051479E-01
-0.7810033115814E-01  0.8520330984083E-01
-0.9742189002917E-01  0.1017301360550E+00
-0.1194324040533E+00  0.1174081533568E+00
-0.1438539478342E+00  0.1319645800187E+00
-0.1704532745417E+00  0.1453207914560E+00
-0.1990292522481E+00  0.1573773657628E+00
-0.2293830522262E+00  0.1679600477778E+00
-0.2612935186456E+00  0.1769737200157E+00
-0.2945255094113E+00  0.1842681799411E+00
-0.3288213788554E+00  0.1895626713140E+00
-0.3638883075793E+00  0.1926463267268E+00
-0.3994340838049E+00  0.1938640462354E+00
-0.4344808007870E+00  0.1895264532839E+00
-0.4661821319569E+00  0.1761277054742E+00
-0.3591738757998E-01  0.1875020489776E-01
-0.3792110849008E-01  0.3115905906286E-01
-0.4287780373640E-01  0.4529360288962E-01
-0.5200916327775E-01  0.6067154738040E-01
-0.6528702443360E-01  0.7747974564959E-01
-0.8213317443380E-01  0.9556460057159E-01
-0.1020777233456E+00  0.1135030018004E+00
-0.1248180151212E+00  0.1302897470032E+00
-0.1500455899848E+00  0.1457452160871E+00
-0.1775091093104E+00  0.1598623987236E+00
-0.2069896494920E+00  0.1725642097955E+00
-0.2382687527487E+00  0.1836690763000E+00
-0.2711046306419E+00  0.1930764729194E+00
-0.3052427179568E+00  0.2006272371687E+00
-0.3404056928492E+00  0.2060246146050E+00
-0.3762814989046E+00  0.2090524459414E+00
-0.4125672611404E+00  0.2100995687633E+00
-0.4482385100552E+00  0.2052177493407E+00
-0.4802889234896E+00  0.1906974851873E+00
-0.3840783615217E-01  0.2092592174142E-01
-0.4078925196630E-01  0.3513358425080E-01
-0.4594194195953E-01  0.5093751110696E-01
-0.5531747378995E-01  0.6821176112562E-01
-0.6887413476386E-01  0.8691179159013E-01
-0.8611566412651E-01  0.1066838788878E+00
-0.1066565026523E+00  0.1259175462912E+00
-0.1301392249360E+00  0.1436881534710E+00
-0.1561903838591E+00  0.1599733870072E+00
-0.1845286610948E+00  0.1748227619789E+00
-0.2149153097129E+00  0.1881549104616E+00
-0.2471129321250E+00  0.1997678534601E+00
-0.2808601164723E+00  0.2095523956354E+00
-0.3158847223235E+00  0.2173396280544E+00
-0.3518911269017E+00  0.2228181810014E+00
-0.3885502424688E+00  0.2257661801484E+00
-0.4255559774463E+00  0.2266154023847E+00
-0.4618381646526E+00  0.2211516819308E+00
-0.4942283925869E+00  0.2054743936487E+00
-0.5341453937150E+00 -0.4081025721964E+00
-0.5645602825295E+00 -0.4338075232958E+00
-0.5948476651557E+00 -0.4591305669775E+00
-0.6248533108923E+00 -0.4838711883389E+00
-0.6544212286607E+00 -0.5078324801397E+00
-0.6833913644742E+00 -0.5308247211521E+00
-0.7115987406734E+00 -0.5526673225348E+00
-0.7388727945018E+00 -0.5731905706598E+00
-0.7650367548554E+00 -0.5922373267895E+00
-0.7899068843985E+00 -0.6096647120039E+00
-0.8132915019702E+00 -0.6253458843926E+00
-0.8349897679455E+00 -0.6391721469301E+00
-0.8547903231979E+00 -0.6510557909954E+00
-0.8724700387975E+00 -0.6609342990131E+00
-0.8877933760938E+00 -0.6687768317470E+00
-0.9005131577578E+00 -0.6745943807670E+00
-0.9103738826205E+00 -0.6784558604054E+00
-0.9171191434308E+00 -0.6805147265083E+00
-0.9205080368937E+00 -0.6810587781536E+00
-0.5262517365239E+00 -0.4036151526317E+00
-0.5562319662885E+00 -0.4292729849801E+00
-0.5861602241864E+00 -0.4546260919808E+00
-0.6158935204315E+00 -0.4794876260589E+00
-0.6452849947071E+00 -0.5036679978226E+00
-0.6741821370812E+00 -0.5269814140313E+00
-0.7024252643319E+00 -0.5492489392340E+00
-0.7298464881533E+00 -0.5703004859807E+00
-0.7562688174763E+00 -0.5899764154627E+00
-0.7815051631355E+00 -0.6081289442625E+00
-0.8053570538157E+00 -0.6246234588418E+00
-0.8276129165150E+00 -0.6393398994519E+00
-0.8480458235484E+00 -0.6521745007202E+00
-0.8664106907541E+00 -0.6630423558402E+00
-0.8824410306118E+00 -0.6718815118003E+00
-0.8958454583362E+00 -0.6786596197321E+00
-0.9063038266785E+00 -0.6833845944696E+00
-0.9134610230903E+00 -0.6861217105713E+00
-0.9169085802927E+00 -0.6870229642399E+00
-0.5179875518062E+00 -0.3987009392648E+00
-0.5473209239184E+00 -0.4241486140390E+00
-0.5766683832539E+00 -0.4493745880171E+00
-0.6059030019900E+00 -0.4742075416098E+00
-0.6348905306074E+00 -0.4984702699723E+00
-0.6634890717738E+00 -0.5219857581416E+00
-0.6915477376171E+00 -0.5445810653590E+00
-0.7189053603593E+00 -0.5660897904443E+00
-0.7453893332058E+00 -0.5863538609092E+00
-0.7708143791161E+00 -0.6052249438082E+00
-0.7949810122045E+00 -0.6225656144186E+00
-0.8176734341724E+00 -0.6382504067379E+00
-0.8386565899384E+00 -0.6521669468301E+00
-0.8576720970757E+00 -0.6642175078266E+00
-0.8744327800343E+00 -0.6743215145956E+00
-0.8886155507326E+00 -0.6824197348648E+00
-0.8998522006721E+00 -0.6884809939163E+00
-0.9077158763108E+00 -0.6925118048894E+00
-0.9116932723607E+00 -0.6945676014072E+00
-0.5093843616890E+00 -0.3933313863794E+00
-0.5378764505820E+00 -0.4183946975255E+00
-0.5664382622789E+00 -0.4433218825273E+00
-0.5949613205017E+00 -0.4679581121797E+00
-0.6233271949089E+00 -0.4921411841677E+00
-0.6514079374935E+00 -0.5157064632364E+00
-0.6790651776017E+00 -0.5384906155862E+00
-0.7061488678563E+00 -0.5603343226060E+00
-0.7324960037476E+00 -0.5810842818059E+00
-0.7579292738898E+00 -0.6005947347215E+00
-0.7822554390342E+00 -0.6187286395812E+00
-0.8052631503514E+00 -0.6353585698409E+00
-0.8267198328000E+00 -0.6503674532605E+00
-0.8463671703147E+00 -0.6636493594866E+00
-0.8639146527660E+00 -0.6751106898945E+00
-0.8790306453938E+00 -0.6846722921985E+00
-0.8913305918208E+00 -0.6922730759977E+00
-0.9003625666069E+00 -0.6978750090029E+00
-0.9055893091634E+00 -0.7014656998136E+00
-0.5004838947960E+00 -0.3874927215589E+00
-0.5279656295439E+00 -0.4119981587430E+00
-0.5555621463049E+00 -0.4364511843793E+00
-0.5831840480878E+00 -0.4607139237914E+00
-0.6107306027096E+00 -0.4846406651253E+00
-0.6380904471073E+00 -0.5080814792772E+00
-0.6651409925585E+00 -0.5308853890092E+00
-0.6917473288093E+00 -0.5529029492582E+00
-0.7177609800200E+00 -0.5739883034056E+00
-0.7430185805057E+00 -0.5940008005514E+00
-0.7673403580401E+00 -0.6128062252240E+00
-0.7905281840644E+00 -0.6302776581653E+00
-0.8123628281630E+00 -0.6462959915027E+00
-0.8325999136096E+00 -0.6607501707119E+00
-0.8509639179704E+00 -0.6735373368592E+00
-0.8671394610667E+00 -0.6845632038032E+00
-0.8807593468939E+00 -0.6937431808376E+00
-0.8913901407491E+00 -0.7010047376963E+00
-0.8985223102674E+00 -0.7062896305401E+00
-0.4913548502833E+00 -0.3812052993614E+00
-0.5177083272969E+00 -0.4050123483592E+00
-0.5442115256265E+00 -0.4288448810964E+00
-0.5707932705977E+00 -0.4525817977044E+00
-0.5973708732934E+00 -0.4760942794482E+00
-0.6238507692718E+00 -0.4992482001076E+00
-0.6501280756401E+00 -0.5219065560489E+00
-0.6760856444168E+00 -0.5439316725104E+00
-0.7015929249235E+00 -0.5651871139977E+00
-0.7265047522847E+00 -0.5855392829917E+00
-0.7506600343208E+00 -0.6048586872209E+00
-0.7738801884855E+00 -0.6230208353896E+00
-0.7959670578413E+00 -0.6399067070982E+00
-0.8166998860714E+00 -0.6554027513095E+00
-0.8358307386019E+00 -0.6694004160502E+00
-0.8530775277029E+00 -0.6817953326933E+00
-0.8681136465372E+00 -0.6924865523901E+00
-0.8805536400744E+00 -0.7013767858668E+00
-0.8899374702064E+00 -0.7083760710414E+00
-0.4820527350479E+00 -0.3744834099350E+00
-0.5071967444919E+00 -0.3974766973833E+00
-0.5325160976698E+00 -0.4205648949933E+00
-0.5579561193643E+00 -0.4436431607988E+00
-0.5834513887844E+00 -0.4665993959097E+00
-0.6089261424889E+00 -0.4893156474816E+00
-0.6342938606676E+00 -0.5116697923773E+00
-0.6594564258281E+00 -0.5335372439574E+00
-0.6843031004182E+00 -0.5547925610885E+00
-0.7087094526279E+00 -0.5753108927114E+00
-0.7325362625537E+00 -0.5949691995218E+00
-0.7556283529396E+00 -0.6136471785515E+00
-0.7778131950725E+00 -0.6312277923687E+00
-0.7988990217261E+00 -0.6475972826132E+00
-0.8186720069723E+00 -0.6626445406669E+00
-0.8368918043789E+00 -0.6762597471318E+00
-0.8532842760101E+00 -0.6883323661481E+00
-0.8675295279100E+00 -0.6987491723143E+00
-0.8792414205053E+00 -0.7073949169643E+00
-0.4726264330085E+00 -0.3673400665942E+00
-0.4965089727043E+00 -0.3894262322390E+00
-0.5205840681655E+00 -0.4116666215653E+00
-0.5448113883236E+00 -0.4339719146321E+00
-0.5691412604525E+00 -0.4562461907153E+00
-0.5935147829271E+00 -0.4783875564743E+00
-0.6178633713085E+00 -0.5002891651307E+00
-0.6421079792952E+00 -0.5218403994808E+00
-0.6661581740538E+00 -0.5429280933734E+00
-0.6899111856866E+00 -0.5634377122774E+00
-0.7132509964780E+00 -0.5832544240395E+00
-0.7360474839097E+00 -0.6022639795122E+00
-0.7581555761701E+00 -0.6203532970069E+00
-0.7794143091503E+00 -0.6374106084828E+00
-0.7996455694853E+00 -0.6533249812124E+00
-0.8186521202102E+00 -0.6679849833144E+00
-0.8362141323322E+00 -0.6812762397081E+00
-0.8520824513009E+00 -0.6930777558868E+00
-0.8659648036546E+00 -0.7032573773403E+00
-0.4631234480058E+00 -0.3597911602419E+00
-0.4857197829766E+00 -0.3808996615248E+00
-0.5085184154996E+00 -0.4022108269871E+00
-0.5314910854081E+00 -0.4236499202111E+00
-0.5546019317079E+00 -0.4451363561734E+00
-0.5778073337417E+00 -0.4665837779887E+00
-0.6010553906451E+00 -0.4879005406694E+00
-0.6242851738669E+00 -0.5089904182773E+00
-0.6474258739304E+00 -0.5297534262655E+00
-0.6703959416873E+00 -0.5500866864428E+00
-0.6931023018269E+00 -0.5698852720695E+00
-0.7154396940884E+00 -0.5890429630252E+00
-0.7372901750361E+00 -0.6074528198030E+00
-0.7585227883480E+00 -0.6250074503621E+00
-0.7789933780848E+00 -0.6415987913609E+00
-0.7985444646394E+00 -0.6571171428180E+00
-0.8170049742596E+00 -0.6714490597064E+00
-0.8341893637399E+00 -0.6844734210474E+00
-0.8498945510857E+00 -0.6960545397401E+00
-0.4535899493234E+00 -0.3518542447734E+00
-0.4749009998863E+00 -0.3719367078298E+00
-0.4964175644114E+00 -0.3922593110418E+00
-0.5181212876640E+00 -0.4127607909254E+00
-0.5399880517909E+00 -0.4333748103644E+00
-0.5619876027061E+00 -0.4540296780075E+00
-0.5840829678548E+00 -0.4746484359887E+00
-0.6062297243279E+00 -0.4951491788559E+00
-0.6283751921704E+00 -0.5154455205784E+00
-0.6504576301647E+00 -0.5354471531860E+00
-0.6724055093090E+00 -0.5550604491859E+00
-0.6941369363652E+00 -0.5741890555565E+00
-0.7155592987353E+00 -0.5927344121865E+00
-0.7365692054382E+00 -0.6105961018011E+00
-0.7570528123278E+00 -0.6276718970529E+00
-0.7768866510700E+00 -0.6438573016003E+00
-0.7959391642365E+00 -0.6590442512948E+00
-0.8140733271361E+00 -0.6731183803206E+00
-0.8311514541387E+00 -0.6859535077299E+00
-0.4440745441256E+00 -0.3435512433885E+00
-0.4641292769398E+00 -0.3625833618615E+00
-0.4843872139280E+00 -0.3818825791080E+00
-0.5048379933308E+00 -0.4013998463697E+00
-0.5254672540311E+00 -0.4210817815552E+00
-0.5462561239419E+00 -0.4408701846895E+00
-0.5671806001925E+00 -0.4607018547326E+00
-0.5882108308333E+00 -0.4805086155602E+00
-0.6093103374419E+00 -0.5002174949552E+00
-0.6304352328410E+00 -0.5197510200566E+00
-0.6515334970607E+00 -0.5390276005203E+00
-0.6725443821533E+00 -0.5579619696997E+00
-0.6933980253894E+00 -0.5764656464128E+00
-0.7140153645638E+00 -0.5944473661630E+00
-0.7343084753156E+00 -0.6118134103380E+00
-0.7541815035429E+00 -0.6284677310944E+00
-0.7735324726774E+00 -0.6443117228309E+00
-0.7922565050859E+00 -0.6592434083727E+00
-0.8102516245970E+00 -0.6731557119369E+00
-0.4346158578400E+00 -0.3348951882896E+00
-0.4534612945428E+00 -0.3528648492730E+00
-0.4725030432082E+00 -0.3711184021918E+00
-0.4917371163421E+00 -0.3896176923049E+00
-0.5111571180413E+00 -0.4083209219853E+00
-0.5307536765884E+00 -0.4271820709175E+00
-0.5505138255021E+00 -0.4461505409347E+00
-0.5704203131377E+00 -0.4651709719244E+00
-0.5904508543727E+00 -0.4841831970571E+00
-0.6105773567144E+00 -0.5031223199496E+00
-0.6307651663352E+00 -0.5219189041169E+00
-0.6509723907031E+00 -0.5404992674643E+00
-0.6711493655834E+00 -0.5587858732031E+00
-0.6912383470797E+00 -0.5766978053181E+00
-0.7111735276266E+00 -0.5941513139647E+00
-0.7308815039452E+00 -0.6110604178774E+00
-0.7502823758877E+00 -0.6273375643355E+00
-0.7692917216735E+00 -0.6428944028909E+00
-0.7878237365973E+00 -0.6576429230517E+00
-0.4252420126105E+00 -0.3258910643367E+00
-0.4429328460322E+00 -0.3427870579566E+00
-0.4608093918835E+00 -0.3599736789675E+00
-0.4788726692517E+00 -0.3774223228070E+00
-0.4971226624042E+00 -0.3951013959315E+00
-0.5155577753657E+00 -0.4129757105546E+00
-0.5341742586549E+00 -0.4310060304256E+00
-0.5529655750440E+00 -0.4491487424788E+00
-0.5719216994987E+00 -0.4673556407935E+00
-0.5910283658848E+00 -0.4855738201834E+00
-0.6102662859845E+00 -0.5037456846140E+00
-0.6296103774214E+00 -0.5218090805494E+00
-0.6490290468724E+00 -0.5396975680524E+00
-0.6684835830528E+00 -0.5573408446553E+00
-0.6879277193002E+00 -0.5746653416812E+00
-0.7073074270217E+00 -0.5915950246506E+00
-0.7265609919842E+00 -0.6080524567400E+00
-0.7456193833956E+00 -0.6239602376553E+00
-0.7644067189234E+00 -0.6392430276863E+00
-0.4159775576465E+00 -0.3165439726704E+00
-0.4325728419376E+00 -0.3323528278694E+00
-0.4493404305841E+00 -0.3484490482469E+00
-0.4662851784316E+00 -0.3648122036289E+00
-0.4834120532606E+00 -0.3814195082237E+00
-0.5007256726858E+00 -0.3982452303811E+00
-0.5182298192373E+00 -0.4152601923839E+00
-0.5359268974805E+00 -0.4324313501993E+00
-0.5538173158947E+00 -0.4497214500000E+00
-0.5718987891459E+00 -0.4670887669994E+00
-0.5901655666039E+00 -0.4844869401624E+00
-0.6086076020215E+00 -0.5018649228187E+00
-0.6272096872828E+00 -0.5191670740185E+00
-0.6459505784286E+00 -0.5363334190579E+00
-0.6648021415449E+00 -0.5533001113146E+00
-0.6837285341209E+00 -0.5700001340901E+00
-0.7026854097420E+00 -0.5863642934790E+00
-0.7216190832281E+00 -0.6023225677125E+00
-0.7404655528222E+00 -0.6178058558555E+00
-0.4068461687482E+00 -0.3068623108311E+00
-0.4224087983132E+00 -0.3215682996704E+00
-0.4381284809139E+00 -0.3365484935796E+00
-0.4540128919992E+00 -0.3517892254144E+00
-0.4700707549646E+00 -0.3672750881670E+00
-0.4863114964314E+00 -0.3829883844282E+00
-0.5027448832492E+00 -0.3989086202368E+00
-0.5193806059380E+00 -0.4150120371194E+00
-0.5362277834155E+00 -0.4312711817628E+00
-0.5532943712309E+00 -0.4476545203327E+00
-0.5705864617025E+00 -0.4641261123648E+00
-0.5881074704413E+00 -0.4806453665432E+00
-0.6058572101256E+00 -0.4971669067901E+00
-0.6238308581286E+00 -0.5136405810411E+00
-0.6420178266311E+00 -0.5300116459951E+00
-0.6604005371158E+00 -0.5462211585682E+00
-0.6789530785813E+00 -0.5622065996268E+00
-0.6976397031650E+00 -0.5779027500286E+00
-0.7164131237287E+00 -0.5932428310174E+00
-0.3978713355588E+00 -0.2968586944709E+00
-0.4124683379804E+00 -0.3104448097517E+00
-0.4272063304661E+00 -0.3242822527506E+00
-0.4420949321326E+00 -0.3383626830089E+00
-0.4571455515968E+00 -0.3526766061593E+00
-0.4723711743735E+00 -0.3672128816487E+00
-0.4877861422146E+00 -0.3819582436339E+00
-0.5034058912709E+00 -0.3968968257470E+00
-0.5192466198354E+00 -0.4120096858742E+00
-0.5353248588374E+00 -0.4272743336423E+00
-0.5516569199742E+00 -0.4426642705840E+00
-0.5682581985497E+00 -0.4581485606000E+00
-0.5851423119915E+00 -0.4736914557040E+00
-0.6023200615835E+00 -0.4892521077436E+00
-0.6197982139055E+00 -0.5047843984465E+00
-0.6375781065869E+00 -0.5202369146728E+00
-0.6556540842874E+00 -0.5355530806791E+00
-0.6740117439049E+00 -0.5506714395532E+00
-0.6926259310767E+00 -0.5655260862248E+00
-0.3890763799687E+00 -0.2865501401195E+00
-0.4027793866397E+00 -0.2989993470524E+00
-0.4166075878944E+00 -0.3116675812890E+00
-0.4305718095632E+00 -0.3245503895008E+00
-0.4446852331328E+00 -0.3376426978757E+00
-0.4589633111446E+00 -0.3509383944266E+00
-0.4734236946037E+00 -0.3644299062172E+00
-0.4880861424936E+00 -0.3781077560165E+00
-0.5029723839570E+00 -0.3919600879276E+00
-0.5181059025858E+00 -0.4059721565577E+00
-0.5335116099434E+00 -0.4201257799210E+00
-0.5492153729480E+00 -0.4343987629855E+00
-0.5652433589072E+00 -0.4487643067484E+00
-0.5816211656319E+00 -0.4631904264228E+00
-0.5983727156735E+00 -0.4776394097502E+00
-0.6155189159742E+00 -0.4920673483292E+00
-0.6330761135500E+00 -0.5064237648566E+00
-0.6510544027288E+00 -0.5206513277617E+00
-0.6694557398914E+00 -0.5346855900600E+00
-0.3804842444403E+00 -0.2759579729515E+00
-0.3933699442821E+00 -0.2872545118252E+00
-0.4063664117983E+00 -0.2987287923340E+00
-0.4194850961431E+00 -0.3103788370633E+00
-0.4327402084818E+00 -0.3222025010784E+00
-0.4461487473508E+00 -0.3341971431582E+00
-0.4597305648822E+00 -0.3463592853608E+00
-0.4735084485461E+00 -0.3586842392899E+00
-0.4875081928698E+00 -0.3711656816467E+00
-0.5017586331216E+00 -0.3837951643534E+00
-0.5162916079982E+00 -0.3965615472629E+00
-0.5311418114659E+00 -0.4094503453346E+00
-0.5463464863180E+00 -0.4224429883628E+00
-0.5619449066139E+00 -0.4355160011603E+00
-0.5779775988006E+00 -0.4486401263024E+00
-0.5944852713086E+00 -0.4617794285372E+00
-0.6115074702176E+00 -0.4748904327999E+00
-0.6290810588878E+00 -0.4879213428836E+00
-0.6472387703027E+00 -0.5008113121081E+00
-0.3721172402452E+00 -0.2651076371637E+00
-0.3842677955953E+00 -0.2752383292783E+00
-0.3965171557346E+00 -0.2854971008044E+00
-0.4088769825649E+00 -0.2958831079728E+00
-0.4213619611921E+00 -0.3063956842391E+00
-0.4339899066406E+00 -0.3170341112815E+00
-0.4467819452613E+00 -0.3277973815636E+00
-0.4597627510198E+00 -0.3386839277876E+00
-0.4729608190989E+00 -0.3496912970788E+00
-0.4864087577494E+00 -0.3608157478590E+00
-0.5001435744314E+00 -0.3720517463736E+00
-0.5142069234566E+00 -0.3833913388696E+00
-0.5286452690803E+00 -0.3948233760799E+00
-0.5435099005396E+00 -0.4063325715525E+00
-0.5588567167514E+00 -0.4178983886338E+00
-0.5747456888048E+00 -0.4294937781565E+00
-0.5912399309091E+00 -0.4410838325784E+00
-0.6084043954009E+00 -0.4526244750900E+00
-0.6263044253880E+00 -0.4640613704090E+00
-0.3639968479180E+00 -0.2540284825236E+00
-0.3755003312640E+00 -0.2629840693710E+00
-0.3870941831968E+00 -0.2720104982631E+00
-0.3987900598151E+00 -0.2811068349655E+00
-0.4106027726441E+00 -0.2902725382328E+00
-0.4225504416250E+00 -0.2995073341185E+00
-0.4346547546006E+00 -0.3088110938866E+00
-0.4469413211107E+00 -0.3181836915428E+00
-0.4594401133405E+00 -0.3276248183149E+00
-0.4721859891535E+00 -0.3371337296772E+00
-0.4852192907994E+00 -0.3467088963097E+00
-0.4985865070640E+00 -0.3563475241026E+00
-0.5123409739690E+00 -0.3660449006386E+00
-0.5265435657603E+00 -0.3757935182659E+00
-0.5412632889535E+00 -0.3855819213090E+00
-0.5565776337406E+00 -0.3953932371194E+00
-0.5725724737620E+00 -0.4052033982067E+00
-0.5893412894314E+00 -0.4149791640709E+00
-0.6069835082111E+00 -0.4246762080129E+00
-0.3561427028044E+00 -0.2427528455552E+00
-0.3670927314438E+00 -0.2505287040571E+00
-0.3781292062785E+00 -0.2583115861367E+00
-0.3892637593140E+00 -0.2660994232399E+00
-0.4005112046557E+00 -0.2738906165568E+00
-0.4118896956268E+00 -0.2816840099831E+00
-0.4234210145504E+00 -0.2894788852656E+00
-0.4351309893122E+00 -0.2972749594067E+00
-0.4470500399775E+00 -0.3050723660816E+00
-0.4592138657717E+00 -0.3128716012804E+00
-0.4716642882527E+00 -0.3206734084138E+00
-0.4844502695949E+00 -0.3284785690559E+00
-0.4976291231283E+00 -0.3362875512307E+00
-0.5112679210902E+00 -0.3440999461666E+00
-0.5254450702950E+00 -0.3519135957069E+00
-0.5402519486460E+00 -0.3597232785912E+00
-0.5557943324646E+00 -0.3675188004478E+00
-0.5721931016096E+00 -0.3752823861468E+00
-0.5895835508933E+00 -0.3829854411910E+00
-0.3485697113610E+00 -0.2313138549107E+00
-0.3590623987364E+00 -0.2379088286183E+00
-0.3696429519451E+00 -0.2444416275935E+00
-0.3803231547312E+00 -0.2509082575942E+00
-0.3911179185592E+00 -0.2573051384241E+00
-0.4020453979699E+00 -0.2636291645337E+00
-0.4131272550685E+00 -0.2698778096335E+00
-0.4243890708614E+00 -0.2760492610980E+00
-0.4358609126951E+00 -0.2821425743441E+00
-0.4475780793342E+00 -0.2881578389856E+00
-0.4595820587390E+00 -0.2940963467662E+00
-0.4719217491414E+00 -0.2999607451038E+00
-0.4846550117564E+00 -0.3057551472713E+00
-0.4978506418806E+00 -0.3114851463169E+00
-0.5115908575043E+00 -0.3171576362463E+00
-0.5259743884775E+00 -0.3227802660151E+00
-0.5411201463229E+00 -0.3283602165612E+00
-0.5571710478360E+00 -0.3339017833164E+00
-0.5742968332359E+00 -0.3394022228717E+00
-0.3412902246968E+00 -0.2197471088251E+00
-0.3514235050061E+00 -0.2251643958131E+00
-0.3616520896771E+00 -0.2304464103041E+00
-0.3719882745502E+00 -0.2355867771707E+00
-0.3824473757500E+00 -0.2405793765170E+00
-0.3930477534372E+00 -0.2454184808867E+00
-0.4038109933352E+00 -0.2500989576596E+00
-0.4147622392937E+00 -0.2546165268813E+00
-0.4259306833666E+00 -0.2589680750033E+00
-0.4373502354463E+00 -0.2631520324785E+00
-0.4490604136767E+00 -0.2671688284740E+00
-0.4611075222471E+00 -0.2710214392675E+00
-0.4735462191419E+00 -0.2747160472432E+00
-0.4864416298596E+00 -0.2782628214985E+00
-0.4998722447747E+00 -0.2816768105096E+00
-0.5139339611252E+00 -0.2849788802474E+00
-0.5287457964354E+00 -0.2881964857610E+00
-0.5444579575836E+00 -0.2913636834854E+00
-0.5612619503132E+00 -0.2945188155303E+00
-0.3343144602506E+00 -0.2080906336814E+00
-0.3441880041143E+00 -0.2123390793261E+00
-0.3541707984125E+00 -0.2163770140720E+00
-0.3642761789568E+00 -0.2201956589311E+00
-0.3745203609143E+00 -0.2237862883637E+00
-0.3849223216061E+00 -0.2271404473792E+00
-0.3955038454656E+00 -0.2302502493883E+00
-0.4062897085239E+00 -0.2331087469532E+00
-0.4173079933535E+00 -0.2357103854184E+00
-0.4285905411141E+00 -0.2380515639725E+00
-0.4401735661480E+00 -0.2401313426446E+00
-0.4520984837593E+00 -0.2419523498028E+00
-0.4644130398158E+00 -0.2435219657623E+00
-0.4771728943047E+00 -0.2448538875556E+00
-0.4904439248895E+00 -0.2459702215063E+00
-0.5043057370334E+00 -0.2469043077391E+00
-0.5188573133388E+00 -0.2477045407665E+00
-0.5342266955008E+00 -0.2484394633282E+00
-0.5505889822864E+00 -0.2492037966571E+00
-0.3276501871594E+00 -0.1963841547941E+00
-0.3373651304689E+00 -0.1994792974628E+00
-0.3472100268751E+00 -0.2022885615638E+00
-0.3571999102162E+00 -0.2048012708423E+00
-0.3673525153651E+00 -0.2070066615487E+00
-0.3776879742913E+00 -0.2088942166475E+00
-0.3882286803378E+00 -0.2104540882786E+00
-0.3989992673412E+00 -0.2116775998228E+00
-0.4100266644035E+00 -0.2125578451802E+00
-0.4213402000881E+00 -0.2130904231322E+00
-0.4329717409330E+00 -0.2132743644012E+00
-0.4449558599089E+00 -0.2131133337507E+00
-0.4573300442532E+00 -0.2126172259220E+00
-0.4701349758865E+00 -0.2118043329556E+00
-0.4834149683922E+00 -0.2107043613471E+00
-0.4972187596366E+00 -0.2093627595592E+00
-0.5116011735554E+00 -0.2078471779336E+00
-0.5266269963042E+00 -0.2062576035933E+00
-0.5423816341534E+00 -0.2047437110381E+00
-0.3213025246388E+00 -0.1846683321834E+00
-0.3309610720256E+00 -0.1866331979780E+00
-0.3407769964705E+00 -0.1882389071185E+00
-0.3507677508259E+00 -0.1894740136454E+00
-0.3609532246149E+00 -0.1903270652328E+00
-0.3713552124768E+00 -0.1907871523477E+00
-0.3819970638141E+00 -0.1908445470123E+00
-0.3929034113164E+00 -0.1904914232884E+00
-0.4040998953249E+00 -0.1897226857249E+00
-0.4156128111900E+00 -0.1885369538030E+00
-0.4274686056330E+00 -0.1869377686705E+00
-0.4396931338163E+00 -0.1849351098992E+00
-0.4523105571306E+00 -0.1825473414102E+00
-0.4653417036183E+00 -0.1798037571395E+00
-0.4788016074639E+00 -0.1767479868184E+00
-0.4926957546315E+00 -0.1734426925469E+00
-0.5070141575434E+00 -0.1699763273748E+00
-0.5217216955674E+00 -0.1664735843999E+00
-0.5367405078622E+00 -0.1631131419927E+00
-0.3152738137516E+00 -0.1729839187523E+00
-0.3249787355516E+00 -0.1738495086919E+00
-0.3348748269907E+00 -0.1742870748628E+00
-0.3449826352311E+00 -0.1742861886397E+00
-0.3553246731908E+00 -0.1738369210530E+00
-0.3659246234130E+00 -0.1729307760643E+00
-0.3768067404679E+00 -0.1715617061323E+00
-0.3879952798746E+00 -0.1697272110272E+00
-0.3995138164868E+00 -0.1674295583213E+00
-0.4113843274120E+00 -0.1646771792953E+00
-0.4236259032993E+00 -0.1614862991123E+00
-0.4362529138857E+00 -0.1578828601879E+00
-0.4492723787591E+00 -0.1539047939090E+00
-0.4626801582958E+00 -0.1496046856399E+00
-0.4764553322228E+00 -0.1450528532191E+00
-0.4905516465328E+00 -0.1403407956724E+00
-0.5048839322148E+00 -0.1355848133806E+00
-0.5193047995512E+00 -0.1309290863197E+00
-0.5335613634302E+00 -0.1265462768678E+00
-0.3095633969991E+00 -0.1613707188891E+00
-0.3194172785727E+00 -0.1611759837589E+00
-0.3295018143894E+00 -0.1604909517698E+00
-0.3398411202266E+00 -0.1593085219695E+00
-0.3504603881198E+00 -0.1576231645842E+00
-0.3613847917482E+00 -0.1554324121667E+00
-0.3726385944053E+00 -0.1527383752185E+00
-0.3842441982518E+00 -0.1495492932765E+00
-0.3962209400590E+00 -0.1458811580426E+00
-0.4085834629161E+00 -0.1417594366881E+00
-0.4213394829901E+00 -0.1372208945581E+00
-0.4344867266370E+00 -0.1323154691036E+00
-0.4480087292193E+00 -0.1271080734218E+00
-0.4618690447631E+00 -0.1216800885893E+00
-0.4760031747887E+00 -0.1161300961562E+00
-0.4903071197639E+00 -0.1105730125762E+00
-0.5046206872066E+00 -0.1051359794198E+00
-0.5187026071112E+00 -0.9994756173474E-01
-0.5321907952329E+00 -0.9511171376520E-01
-0.3041666985909E+00 -0.1498660349689E+00
-0.3142702321101E+00 -0.1486568636684E+00
-0.3246486600992E+00 -0.1469035043827E+00
-0.3353297777325E+00 -0.1446047126915E+00
-0.3463408781928E+00 -0.1417624542152E+00
-0.3577073525998E+00 -0.1383840302306E+00
-0.3694514638064E+00 -0.1344840470365E+00
-0.3815909350664E+00 -0.1300862408937E+00
-0.3941371169920E+00 -0.1252251656809E+00
-0.4070925515577E+00 -0.1199477003113E+00
-0.4204477645081E+00 -0.1143142560213E+00
-0.4341771040157E+00 -0.1083994613376E+00
-0.4482334152297E+00 -0.1022919637874E+00
-0.4625413108644E+00 -0.9609278840397E-01
-0.4769888017667E+00 -0.8991139048599E-01
-0.4914171767568E+00 -0.8385805672161E-01
-0.5056096358841E+00 -0.7803052425301E-01
-0.5192811440052E+00 -0.7249147386542E-01
-0.5320815282694E+00 -0.6723238406910E-01
-0.2990717447759E+00 -0.1385017195209E+00
-0.3095184824314E+00 -0.1363275752079E+00
-0.3202880152909E+00 -0.1335650442407E+00
-0.3314114284852E+00 -0.1302211209843E+00
-0.3429167763097E+00 -0.1263080825318E+00
-0.3548274577664E+00 -0.1218461699843E+00
-0.3671606924837E+00 -0.1168657456071E+00
-0.3799256538657E+00 -0.1114089498138E+00
-0.3931210349462E+00 -0.1055308353313E+00
-0.4067319312313E+00 -0.9929986238524E-01
-0.4207259869986E+00 -0.9279753048835E-01
-0.4350488088918E+00 -0.8611680509841E-01
-0.4496187418026E+00 -0.7935886857677E-01
-0.4643212847980E+00 -0.7262758063436E-01
-0.4790038110444E+00 -0.6602088154986E-01
-0.4934721027551E+00 -0.5961826690987E-01
-0.5074920625703E+00 -0.5346363739739E-01
-0.5208042690319E+00 -0.4754408044761E-01
-0.5331679337116E+00 -0.4177119906186E-01
-0.2942496606597E+00 -0.1272981982839E+00
-0.3051111063940E+00 -0.1242034270921E+00
-0.3163456694073E+00 -0.1204868988144E+00
-0.3279866875108E+00 -0.1161657388816E+00
-0.3400607979181E+00 -0.1112646469097E+00
-0.3525863485214E+00 -0.1058188860579E+00
-0.3655717560635E+00 -0.9987616787490E-01
-0.3790133460399E+00 -0.9349754029869E-01
-0.3928925575467E+00 -0.8675728245150E-01
-0.4071725667156E+00 -0.7974168449378E-01
-0.4217945016586E+00 -0.7254648489424E-01
-0.4366735608070E+00 -0.6527266396355E-01
-0.4516955640877E+00 -0.5802025941148E-01
-0.4667148402669E+00 -0.5087990405145E-01
-0.4815550079754E+00 -0.4392195826702E-01
-0.4960153244100E+00 -0.3718360269788E-01
-0.5098870355219E+00 -0.3065548345363E-01
-0.5229861284900E+00 -0.2427242154600E-01
-0.5352044303116E+00 -0.1791712035749E-01
-0.2896554731843E+00 -0.1162659328985E+00
-0.3009666635085E+00 -0.1122828931128E+00
-0.3127023428242E+00 -0.1076565896024E+00
-0.3248962571199E+00 -0.1024153438112E+00
-0.3375706161962E+00 -0.9659734506560E-01
-0.3507350550742E+00 -0.9025354047455E-01
-0.3643852310661E+00 -0.8344867059851E-01
-0.3785007074714E+00 -0.7626078712223E-01
-0.3930422473600E+00 -0.6877939490962E-01
-0.4079488400281E+00 -0.6110219907778E-01
-0.4231349277631E+00 -0.5333035769182E-01
-0.4384884781700E+00 -0.4556213904290E-01
-0.4538708151918E+00 -0.3788497757371E-01
-0.4691195274641E+00 -0.3036615148284E-01
-0.4840563344736E+00 -0.2304276257542E-01
-0.4985023932406E+00 -0.1591255339007E-01
-0.5123035776764E+00 -0.8928573209900E-02
-0.5253653579117E+00 -0.2002510798078E-02
-0.5376879534386E+00  0.4978871346231E-02
-0.2852467320863E+00 -0.1054171226671E+00
-0.2970102164734E+00 -0.1005708333231E+00
-0.3092493027010E+00 -0.9507178456134E-01
-0.3219954382080E+00 -0.8895941022469E-01
-0.3352627611106E+00 -0.8228521228657E-01
-0.3490484092901E+00 -0.7511501422533E-01
-0.3633318466435E+00 -0.6752854503603E-01
-0.3780732314765E+00 -0.5961714137183E-01
-0.3932113410968E+00 -0.5147995861521E-01
-0.4086617108489E+00 -0.4321886496805E-01
-0.4243157332772E+00 -0.3493211075143E-01
-0.4400415891848E+00 -0.2670692904324E-01
-0.4556880694986E+00 -0.1861141172996E-01
-0.4710925640323E+00 -0.1068635186370E-01
-0.4860945922483E+00 -0.2938296035977E-02
-0.5005558122920E+00  0.4664158041092E-02
-0.5143854586046E+00  0.1218796822737E-01
-0.5275653929765E+00  0.1972449356277E-01
-0.5401628245263E+00  0.2736963527989E-01
-0.2809812353322E+00 -0.9476444841557E-01
-0.2931684902952E+00 -0.8907611999824E-01
-0.3058809018826E+00 -0.8273670767454E-01
-0.3191439948846E+00 -0.7579538486658E-01
-0.3329598670691E+00 -0.6831565140769E-01
-0.3473098338256E+00 -0.6037623106166E-01
-0.3621549731123E+00 -0.5206864081322E-01
-0.3774353544078E+00 -0.4349284744400E-01
-0.3930690434027E+00 -0.3475174880736E-01
-0.4089518768789E+00 -0.2594480053882E-01
-0.4249589252605E+00 -0.1716103595255E-01
-0.4409485258212E+00 -0.8471806629522E-02
-0.4567697569636E+00  0.7617893616849E-04
-0.4722741087495E+00  0.8466577136032E-02
-0.4873316057783E+00  0.1671648950304E-01
-0.5018502817955E+00  0.2487507914954E-01
-0.5157951930709E+00  0.3301598727462E-01
-0.5291996502191E+00  0.4122321291892E-01
-0.5421600483276E+00  0.4957323425504E-01
-0.2768188136675E+00 -0.8432204510980E-01
-0.2893732821286E+00 -0.7781344588047E-01
-0.3024996183301E+00 -0.7066454518220E-01
-0.3162128397888E+00 -0.6293178018481E-01
-0.3304991384653E+00 -0.5468863385791E-01
-0.3453218129917E+00 -0.4602421077778E-01
-0.3606232107673E+00 -0.3703815837323E-01
-0.3763249290520E+00 -0.2783434099391E-01
-0.3923280633856E+00 -0.1851408944684E-01
-0.4085148009510E+00 -0.9169409580302E-02
-0.4247522382353E+00  0.1236885542208E-03
-0.4408990438580E+00  0.9311362841982E-02
-0.4568153721048E+00  0.1836695461773E-01
-0.4723759906289E+00  0.2729387637747E-01
-0.4874856654853E+00  0.3612514040383E-01
-0.5020942291807E+00  0.4491831138984E-01
-0.5162067123712E+00  0.5374537435368E-01
-0.5298828765082E+00  0.6267877811068E-01
-0.5432228977399E+00  0.7177734077006E-01
-0.2727176123824E+00 -0.7410478596680E-01
-0.2855537054774E+00 -0.6680149668419E-01
-0.2990040012279E+00 -0.5887464396614E-01
-0.3130673253882E+00 -0.5038486159173E-01
-0.3277109058665E+00 -0.4141382781005E-01
-0.3428796608489E+00 -0.3205856479976E-01
-0.3584991754379E+00 -0.2242331321080E-01
-0.3744764124455E+00 -0.1261141176867E-01
-0.3907010879721E+00 -0.2718297651433E-02
-0.4070489740635E+00  0.7174802976131E-02
-0.4233875957337E+00  0.1700648078556E-01
-0.4395845174064E+00  0.2673969665417E-01
-0.4555180478829E+00  0.3636463091675E-01
-0.4710895833933E+00  0.4589897145116E-01
-0.4862358192452E+00  0.5538474677675E-01
-0.5009378364062E+00  0.6488115301510E-01
-0.5152232957084E+00  0.7445379923774E-01
-0.5291590047432E+00  0.8416236136508E-01
-0.5428348588449E+00  0.9405011223635E-01
-0.2686310101668E+00 -0.6412996239555E-01
-0.2816298818079E+00 -0.5606580193795E-01
-0.2952781553720E+00 -0.4739625500201E-01
-0.3095521467943E+00 -0.3818432714669E-01
-0.3243987174569E+00 -0.2851904863754E-01
-0.3397470608847E+00 -0.1850378398780E-01
-0.3555103526859E+00 -0.8243528801812E-02
-0.3715863624055E+00  0.2163050937210E-02
-0.3878599855444E+00  0.1262974981365E-01
-0.4042078698955E+00  0.2308792417606E-01
-0.4205051841206E+00  0.3349065319232E-01
-0.4366342612958E+00  0.4381556091867E-01
-0.4524944960053E+00  0.5406568943956E-01
-0.4680122739330E+00  0.6426774663079E-01
-0.4831489722239E+00  0.7446720848142E-01
-0.4979045170229E+00  0.8472028201620E-01
-0.5123143207461E+00  0.9508370041386E-01
-0.5264392639620E+00  0.1056044669376E+00
-0.5403518305540E+00  0.1163121564118E+00
-0.2645414226718E+00 -0.5442329542613E-01
-0.2775818364553E+00 -0.4564596632619E-01
-0.2912971943093E+00 -0.3627578566238E-01
-0.3056329311623E+00 -0.2637878673540E-01
-0.3205200573589E+00 -0.1605629930007E-01
-0.3358776394053E+00 -0.5414824632001E-02
-0.3516114062930E+00  0.5444192529230E-02
-0.3676153888205E+00  0.1643035059994E-01
-0.3837754658967E+00  0.2746874873250E-01
-0.3999747984392E+00  0.3850370720781E-01
-0.4161007464992E+00  0.4950150357904E-01
-0.4320527779520E+00  0.6045164792986E-01
-0.4477505176427E+00  0.7136615497703E-01
-0.4631406441066E+00  0.8227635322283E-01
-0.4782009565410E+00  0.9322706379436E-01
-0.4929399665078E+00  0.1042685604234E+00
-0.5073912135164E+00  0.1154475082035E+00
-0.5216033785486E+00  0.1267987140535E+00
-0.5356289079545E+00  0.1383393941347E+00
-0.2604404851759E+00 -0.4501244909470E-01
-0.2734153196511E+00 -0.3558072672293E-01
-0.2870622611158E+00 -0.2554384356447E-01
-0.3013068571776E+00 -0.1500286615836E-01
-0.3160749308960E+00 -0.4066754765807E-02
-0.3312791012532E+00  0.7161052028269E-02
-0.3468217583562E+00  0.1858735556889E-01
-0.3625975116647E+00  0.3013255316735E-01
-0.3784975680219E+00  0.4173380284985E-01
-0.3944151978955E+00  0.5334762716492E-01
-0.4102520101551E+00  0.6495147012400E-01
-0.4259244124179E+00  0.7654372363491E-01
-0.4413694029116E+00  0.8814181670456E-01
-0.4565485861610E+00  0.9977814246994E-01
-0.4714492398978E+00  0.1114939544502E+00
-0.4860815998766E+00  0.1233318887852E+00
-0.5004724344999E+00  0.1353283028530E+00
-0.5146561484408E+00  0.1475067757341E+00
-0.5286659931634E+00  0.1598737089546E+00
</DataArray>
</PointData>
   <DataArray type="Float64" Name="Load" NumberOfComponents="1"    ComponentName0="Load" format="ascii">
 0.6826275982407E+01
 0.6194983481952E+01
 0.5708204999190E+01
 0.5562277016251E+01
 0.5464500272536E+01
 0.5408525765176E+01
 0.5370521672673E+01
 0.5343624394643E+01
 0.5323098583742E+01
 0.5306598096988E+01
 0.5292778733142E+01
 0.5280969772334E+01
 0.5270909735567E+01
 0.5262622976742E+01
 0.5256347048459E+01
 0.5252497908278E+01
 0.5251659585673E+01
 0.5254597305844E+01
 0.5262289377638E+01
 0.5276003507394E+01
 0.5297430648086E+01
 0.5328996846648E+01
 0.5374613320117E+01
 0.5439927250559E+01
 0.5526198431203E+01
 0.5627616540763E+01
 0.5737641852283E+01
 0.5853059820840E+01
 0.5974688316486E+01
 0.6106425621922E+01
 0.6253749520782E+01
 0.6422198679585E+01
 0.6615694743602E+01
 0.6842087346094E+01
 0.7124405355598E+01
 0.7492032064861E+01
 0.8008124179193E+01
 0.8655187194679E+01
 0.1004945858222E+02
 0.1005705765542E+02
 0.1965568718451E+02
 0.5862146971088E+01
 0.6105537033925E+01
 0.5739509147406E+01
 0.5535170391119E+01
 0.5428797202075E+01
 0.5358026412469E+01
 0.5310971782505E+01
 0.5276984123065E+01
 0.5251270951948E+01
 0.5230868893386E+01
 0.5214131182519E+01
 0.5200138162366E+01
 0.5188451212700E+01
 0.5178957056703E+01
 0.5171783981434E+01
 0.5167256669411E+01
 0.5165878693987E+01
 0.5168337044536E+01
 0.5175529708384E+01
 0.5188623580465E+01
 0.5209164731460E+01
 0.5239266771589E+01
 0.5281471086557E+01
 0.5337758146039E+01
 0.5408040061416E+01
 0.5489788330587E+01
 0.5579662119489E+01
 0.5675538921364E+01
 0.5777367201970E+01
 0.5886871626294E+01
 0.6006660097085E+01
 0.6139529753357E+01
 0.6289004761500E+01
 0.6461243636685E+01
 0.6664702939263E+01
 0.6913629179304E+01
 0.7199692669747E+01
 0.7573680677825E+01
 0.7748253513994E+01
 0.6722115784794E+01
 0.1311132927175E+02
 0.5316351689273E+01
 0.5765749092156E+01
 0.5670158638403E+01
 0.5484389154013E+01
 0.5373720851142E+01
 0.5298646166547E+01
 0.5245659262942E+01
 0.5206859920876E+01
 0.5177129667704E+01
 0.5153533183281E+01
 0.5134264538767E+01
 0.5118279030170E+01
 0.5105019420552E+01
 0.5094270249701E+01
 0.5086068456700E+01
 0.5080654108828E+01
 0.5078446985754E+01
 0.5080043768613E+01
 0.5086233708087E+01
 0.5098032946542E+01
 0.5116739056639E+01
 0.5143878645445E+01
 0.5180660591420E+01
 0.5227354688076E+01
 0.5283446769862E+01
 0.5347864718007E+01
 0.5419058504153E+01
 0.5495614555920E+01
 0.5576857920855E+01
 0.5662874670059E+01
 0.5754129698245E+01
 0.5851411503758E+01
 0.5956329099896E+01
 0.6070173653587E+01
 0.6192073272048E+01
 0.6312639855747E+01
 0.6409149929820E+01
 0.6422614630871E+01
 0.5883934797042E+01
 0.5414828128667E+01
 0.1094067439764E+02
 0.4953935590914E+01
 0.5431569309715E+01
 0.5510799635314E+01
 0.5401447693098E+01
 0.5301322339501E+01
 0.5228575073844E+01
 0.5174034188017E+01
 0.5132612824703E+01
 0.5100240539566E+01
 0.5074245805160E+01
 0.5052916356605E+01
 0.5035189445439E+01
 0.5020459108298E+01
 0.5008445781258E+01
 0.4999116305191E+01
 0.4992635075186E+01
 0.4989337468633E+01
 0.4989719553782E+01
 0.4994438925131E+01
 0.5004319925245E+01
 0.5020327387770E+01
 0.5043340280332E+01
 0.5073612776298E+01
 0.5110598302566E+01
 0.5153653053114E+01
 0.5202364867746E+01
 0.5256076274699E+01
 0.5313743606147E+01
 0.5374209535345E+01
 0.5436347523709E+01
 0.5499030017641E+01
 0.5561274601305E+01
 0.5622051724463E+01
 0.5678140779776E+01
 0.5720025446254E+01
 0.5726168908970E+01
 0.5657904336953E+01
 0.5389528102606E+01
 0.4755394231444E+01
 0.5093169861383E+01
 0.9808763494626E+01
 0.4686969705530E+01
 0.5140570458577E+01
 0.5315365534596E+01
 0.5285603718920E+01
 0.5212443551984E+01
 0.5147845136090E+01
 0.5095648035556E+01
 0.5053907590397E+01
 0.5020280136560E+01
 0.4992748738403E+01
 0.4969877207225E+01
 0.4950705048353E+01
 0.4934643956713E+01
 0.4921390880937E+01
 0.4910865273049E+01
 0.4903166827878E+01
 0.4898548232542E+01
 0.4897398009839E+01
 0.4900225879257E+01
 0.4907635184797E+01
 0.4920224749534E+01
 0.4938302328323E+01
 0.4961496475577E+01
 0.4988868808539E+01
 0.5019732498134E+01
 0.5053936816476E+01
 0.5091198129692E+01
 0.5130595543974E+01
 0.5170583783214E+01
 0.5209156226878E+01
 0.5243984972183E+01
 0.5272495768450E+01
 0.5291227656523E+01
 0.5293223353905E+01
 0.5263630705468E+01
 0.5176158885182E+01
 0.4982762474340E+01
 0.4598294639374E+01
 0.4169056568361E+01
 0.5111105169586E+01
 0.9045394420629E+01
 0.4475370540429E+01
 0.4891165622170E+01
 0.5112995743436E+01
 0.5147404787686E+01
 0.5108165714590E+01
 0.5057187012011E+01
 0.5010505241127E+01
 0.4970596326390E+01
 0.4937066766097E+01
 0.4908864604376E+01
 0.4884994343003E+01
 0.4864700818412E+01
 0.4847477627851E+01
 0.4833037303618E+01
 0.4821275237811E+01
 0.4812238713820E+01
 0.4806101742360E+01
 0.4803142412192E+01
 0.4803713641720E+01
 0.4808185717715E+01
 0.4816805872218E+01
 0.4829428271459E+01
 0.4845287871454E+01
 0.4863259031107E+01
 0.4882625752140E+01
 0.4903289233104E+01
 0.4925053685003E+01
 0.4946971276526E+01
 0.4967187763494E+01
 0.4983076863409E+01
 0.4991420364853E+01
 0.4988372915017E+01
 0.4968629615285E+01
 0.4922914217308E+01
 0.4834675175034E+01
 0.4678065417598E+01
 0.4416453928494E+01
 0.4049069737490E+01
 0.3910972021696E+01
 0.5195933665014E+01
 0.8460209507382E+01
 0.4298441267465E+01
 0.4675403698991E+01
 0.4916505980700E+01
 0.4997282476464E+01
 0.4991538113519E+01
 0.4957599665954E+01
 0.4918989972440E+01
 0.4882726276567E+01
 0.4850542385779E+01
 0.4822498178967E+01
 0.4798170031990E+01
 0.4777091384883E+01
 0.4758893761267E+01
 0.4743341302392E+01
 0.4730327868386E+01
 0.4719861395966E+01
 0.4712043389078E+01
 0.4707042776473E+01
 0.4705054631898E+01
 0.4706221822598E+01
 0.4710482183516E+01
 0.4717350435177E+01
 0.4725820732929E+01
 0.4734679031636E+01
 0.4743173188382E+01
 0.4751148838566E+01
 0.4758352205405E+01
 0.4763737232115E+01
 0.4765219569433E+01
 0.4759767298494E+01
 0.4743565966495E+01
 0.4711926406053E+01
 0.4658500747201E+01
 0.4573379834005E+01
 0.4441291578056E+01
 0.4242779600735E+01
 0.3967546277460E+01
 0.3693269530126E+01
 0.3829481767826E+01
 0.5259449939236E+01
 0.7982197564854E+01
 0.4144524491096E+01
 0.4485720555504E+01
 0.4730649989805E+01
 0.4842693281889E+01
 0.4866275812131E+01
 0.4850491929378E+01
 0.4821708488111E+01
 0.4790523968795E+01
 0.4760758968294E+01
 0.4733630321512E+01
 0.4709359363964E+01
 0.4687829709151E+01
 0.4668855303421E+01
 0.4652282990760E+01
 0.4638025819050E+01
 0.4626065618810E+01
 0.4616439438416E+01
 0.4609212304264E+01
 0.4604428093742E+01
 0.4602021427452E+01
 0.4601673864342E+01
 0.4602656431063E+01
 0.4603820766676E+01
 0.4603912781818E+01
 0.4602136424961E+01
 0.4598233999745E+01
 0.4591832816519E+01
 0.4581773435899E+01
 0.4565825725721E+01
 0.4540742874344E+01
 0.4502409731450E+01
 0.4445775217288E+01
 0.4364329823396E+01
 0.4249076153976E+01
 0.4088530640780E+01
 0.3874362501505E+01
 0.3626420480151E+01
 0.3476478469256E+01
 0.3831025489348E+01
 0.5282929083349E+01
 0.7577519800053E+01
 0.4006607500106E+01
 0.4316110208883E+01
 0.4556495246665E+01
 0.4688306261637E+01
 0.4735773936443E+01
 0.4737507393991E+01
 0.4719429464633E+01
 0.4694346995787E+01
 0.4667864534657E+01
 0.4642309129768E+01
 0.4618566229929E+01
 0.4596904872401E+01
 0.4577353127310E+01
 0.4559865249081E+01
 0.4544391550504E+01
 0.4530900628720E+01
 0.4519374614464E+01
 0.4509783440695E+01
 0.4502032833793E+01
 0.4495876528006E+01
 0.4490793630583E+01
 0.4485886944561E+01
 0.4479928946962E+01
 0.4471650746493E+01
 0.4460210829604E+01
 0.4445237003201E+01
 0.4426228220990E+01
 0.4401933832315E+01
 0.4370068623168E+01
 0.4327349655272E+01
 0.4269653035101E+01
 0.4192054037312E+01
 0.4088704148670E+01
 0.3952780373855E+01
 0.3778445227220E+01
 0.3570586641887E+01
 0.3375339106531E+01
 0.3353021799589E+01
 0.3863344014451E+01
 0.5269675618126E+01
 0.7226808423817E+01
 0.3880243913658E+01
 0.4162035870190E+01
 0.4393531679131E+01
 0.4536789265696E+01
 0.4602733002869E+01
 0.4620284662684E+01
 0.4613016737378E+01
 0.4594643004256E+01
 0.4572082773946E+01
 0.4548640217309E+01
 0.4525837827574E+01
 0.4504339031435E+01
 0.4484404057836E+01
 0.4466112191782E+01
 0.4449465804980E+01
 0.4434432289045E+01
 0.4420949419029E+01
 0.4408903687014E+01
 0.4398080221558E+01
 0.4388082874630E+01
 0.4378237780281E+01
 0.4367537501422E+01
 0.4354717261609E+01
 0.4338509081132E+01
 0.4318032123135E+01
 0.4292811273161E+01
 0.4262238352719E+01
 0.4225016783646E+01
 0.4178901146638E+01
 0.4120740847341E+01
 0.4046679130937E+01
 0.3952364541822E+01
 0.3833289614295E+01
 0.3685716042252E+01
 0.3510424969351E+01
 0.3325127573828E+01
 0.3195124163358E+01
 0.3288586817472E+01
 0.3899888866119E+01
 0.5228038890747E+01
 0.6917520879678E+01
 0.3762489446548E+01
 0.4020112616435E+01
 0.4240657891409E+01
 0.4389511869248E+01
 0.4469129308013E+01
 0.4500294038439E+01
 0.4503353600198E+01
 0.4491913036939E+01
 0.4473691900558E+01
 0.4452775632467E+01
 0.4431258426047E+01
 0.4410183691723E+01
 0.4390048434658E+01
 0.4371067282333E+01
 0.4353305811297E+01
 0.4336740988181E+01
 0.4321277318900E+01
 0.4306731464807E+01
 0.4292788090532E+01
 0.4278932625450E+01
 0.4264381480976E+01
 0.4248061337017E+01
 0.4228699327652E+01
 0.4205041101607E+01
 0.4176179520135E+01
 0.4141561923326E+01
 0.4100511548040E+01
 0.4051743806939E+01
 0.3993147993028E+01
 0.3921860641760E+01
 0.3834537098108E+01
 0.3727769606014E+01
 0.3598888376536E+01
 0.3447757318169E+01
 0.3281864245317E+01
 0.3129754144531E+01
 0.3068347211955E+01
 0.3259033442441E+01
 0.3928601856778E+01
 0.5166015832973E+01
 0.6640901544095E+01
 0.3651321867035E+01
 0.3887809980010E+01
 0.4096629834740E+01
 0.4247047486380E+01
 0.4336322526523E+01
 0.4378763346491E+01
 0.4391279640971E+01
 0.4386677627162E+01
 0.4373004836362E+01
 0.4354902344617E+01
 0.4334942649175E+01
 0.4314515537298E+01
 0.4294347302104E+01
 0.4274791158309E+01
 0.4255983265551E+01
 0.4237919395124E+01
 0.4220481892540E+01
 0.4203432236117E+01
 0.4186375701364E+01
 0.4168709255341E+01
 0.4149576404060E+01
 0.4127872211011E+01
 0.4102337507635E+01
 0.4071744154859E+01
 0.4035176957809E+01
 0.3992038808216E+01
 0.3941631424430E+01
 0.3882744982371E+01
 0.3813493633370E+01
 0.3731436738711E+01
 0.3633943105139E+01
 0.3518823027280E+01
 0.3385544451952E+01
 0.3237711141457E+01
 0.3088923555330E+01
 0.2975869841355E+01
 0.2980453107400E+01
 0.3248216630870E+01
 0.3945002912153E+01
 0.5089934138953E+01
 0.6390549411585E+01
 0.3545308239941E+01
 0.3763220899706E+01
 0.3960254293929E+01
 0.4109502678321E+01
 0.4205195094865E+01
 0.4256665523663E+01
 0.4277549597244E+01
 0.4279448047120E+01
 0.4270351399919E+01
 0.4255231177687E+01
 0.4237028639911E+01
 0.4217432045515E+01
 0.4197379378120E+01
 0.4177359275537E+01
 0.4157582187195E+01
 0.4138070169686E+01
 0.4118694076579E+01
 0.4099175052277E+01
 0.4079059760113E+01
 0.4057684123667E+01
 0.4034149681676E+01
 0.4007346856204E+01
 0.3976047750316E+01
 0.3939063849730E+01
 0.3895493523484E+01
 0.3844731749746E+01
 0.3786108351681E+01
 0.3718550096799E+01
 0.3640476781509E+01
 0.3549981976784E+01
 0.3445297719671E+01
 0.3325624388531E+01
 0.3192680475656E+01
 0.3053632713672E+01
 0.2927187069779E+01
 0.2855396199217E+01
 0.2919887989882E+01
 0.3245805641957E+01
 0.3948317126900E+01
 0.5004449824821E+01
 0.6161637752684E+01
 0.3443405570106E+01
 0.3644892630240E+01
 0.3830462386371E+01
 0.3976723954409E+01
 0.4076280130839E+01
 0.4134739716510E+01
 0.4162813209579E+01
 0.4170704822522E+01
 0.4166063125298E+01
 0.4153986721192E+01
 0.4137671451917E+01
 0.4119047076398E+01
 0.4099237928386E+01
 0.4078859459535E+01
 0.4058196724343E+01
 0.4037303702858E+01
 0.4016049598699E+01
 0.3994129588802E+01
 0.3971051353967E+01
 0.3946114210309E+01
 0.3918403596044E+01
 0.3886827020931E+01
 0.3850202977950E+01
 0.3807396824641E+01
 0.3757543742949E+01
 0.3700067691847E+01
 0.3634374681175E+01
 0.3559584699270E+01
 0.3474490858119E+01
 0.3377804338732E+01
 0.3268715792883E+01
 0.3147889776836E+01
 0.3019248237107E+01
 0.2893122457667E+01
 0.2792140259661E+01
 0.2761188863891E+01
 0.2877802780398E+01
 0.3245468137911E+01
 0.3939430308559E+01
 0.4912885631765E+01
 0.5950440582251E+01
 0.3344836801847E+01
 0.3531705455907E+01
 0.3706327929556E+01
 0.3848424011255E+01
 0.3949864704946E+01
 0.4013526374767E+01
 0.4047610741264E+01
 0.4060883892034E+01
 0.4060461193769E+01
 0.4051398540990E+01
 0.4037036921639E+01
 0.4019486591000E+01
 0.4000027641364E+01
 0.3979389427981E+01
 0.3957928955551E+01
 0.3935735928844E+01
 0.3912686628902E+01
 0.3888463640100E+01
 0.3862553616978E+01
 0.3834240639919E+01
 0.3802615651443E+01
 0.3766621146052E+01
 0.3725135552239E+01
 0.3677092744252E+01
 0.3621688079691E+01
 0.3558409534637E+01
 0.3486783041794E+01
 0.3406170262295E+01
 0.3315789604020E+01
 0.3215023733500E+01
 0.3104064792841E+01
 0.2985029931448E+01
 0.2863875625192E+01
 0.2753571349914E+01
 0.2679473472016E+01
 0.2687172222963E+01
 0.2847606830647E+01
 0.3243505495948E+01
 0.3919856846692E+01
 0.4817593406536E+01
 0.5754024310643E+01
 0.3249011113508E+01
 0.3422786025322E+01
 0.3587061798553E+01
 0.3724256917757E+01
 0.3826067938952E+01
 0.3893405103854E+01
 0.3932378441335E+01
 0.3950369471315E+01
 0.3953847635118E+01
 0.3947693901087E+01
 0.3935296216622E+01
 0.3918884650596E+01
 0.3899861616180E+01
 0.3879054372564E+01
 0.3856886763664E+01
 0.3833486276307E+01
 0.3808743698131E+01
 0.3782341063865E+01
 0.3753760003296E+01
 0.3722287782393E+01
 0.3687038895063E+01
 0.3647005817208E+01
 0.3601139247309E+01
 0.3548456021318E+01
 0.3488233907475E+01
 0.3420056509492E+01
 0.3343607226734E+01
 0.3258527788494E+01
 0.3164496918870E+01
 0.3061593720228E+01
 0.2951007721479E+01
 0.2836228521033E+01
 0.2724996996235E+01
 0.2632343730576E+01
 0.2585250434926E+01
 0.2628321419988E+01
 0.2824504217697E+01
 0.3237890858969E+01
 0.3891239418819E+01
 0.4720256995551E+01
 0.5570037888984E+01
 0.3155471174375E+01
 0.3317445181081E+01
 0.3471997068066E+01
 0.3603861618921E+01
 0.3704897787532E+01
 0.3774629668192E+01
 0.3817459334831E+01
 0.3839492059539E+01
 0.3846499564245E+01
 0.3843092040889E+01
 0.3832621145220E+01
 0.3817379771397E+01
 0.3798858513603E+01
 0.3777964629840E+01
 0.3755181795733E+01
 0.3730675756927E+01
 0.3704357853630E+01
 0.3675920086845E+01
 0.3644853000170E+01
 0.3610462721606E+01
 0.3571902354234E+01
 0.3528227037875E+01
 0.3478470931912E+01
 0.3421747472340E+01
 0.3357436982003E+01
 0.3285245823351E+01
 0.3205045113265E+01
 0.3116784059968E+01
 0.3020619734536E+01
 0.2917326114753E+01
 0.2809046992776E+01
 0.2700514649082E+01
 0.2600959812124E+01
 0.2526901529587E+01
 0.2505983962396E+01
 0.2580569206266E+01
 0.2805076674824E+01
 0.3227617988032E+01
 0.3855111188702E+01
 0.4622130088505E+01
 0.5396565236220E+01
 0.3063857330819E+01
 0.3215133012011E+01
 0.3360571808032E+01
 0.3486886083479E+01
 0.3586291237541E+01
 0.3657357905523E+01
 0.3703116162580E+01
 0.3728530002344E+01
 0.3738666004948E+01
 0.3737799957087E+01
 0.3729180279279E+01
 0.3715111706763E+01
 0.3697139937026E+01
 0.3676233497482E+01
 0.3652927554806E+01
 0.3627425223209E+01
 0.3599663057652E+01
 0.3569351935779E+01
 0.3536003198302E+01
 0.3498955003696E+01
 0.3457411571934E+01
 0.3410501426728E+01
 0.3357352154701E+01
 0.3297186087192E+01
 0.3229503455475E+01
 0.3154155398094E+01
 0.3071223205943E+01
 0.2980979868361E+01
 0.2884062865724E+01
 0.2781916713341E+01
 0.2677566454531E+01
 0.2576825860317E+01
 0.2490105950890E+01
 0.2434880728747E+01
 0.2438653571660E+01
 0.2540680247723E+01
 0.2786941191027E+01
 0.3212275869614E+01
 0.3812766238527E+01
 0.4524224197211E+01
 0.5232004893408E+01
 0.2973882728649E+01
 0.3115406031726E+01
 0.3252312553736E+01
 0.3372999800289E+01
 0.3470142195026E+01
 0.3541676111359E+01
 0.3589544506613E+01
 0.3617713263371E+01
 0.3630566761754E+01
 0.3632009554976E+01
 0.3625135896753E+01
 0.3612218707285E+01
 0.3594828102694E+01
 0.3573975252124E+01
 0.3550237672310E+01
 0.3523853831705E+01
 0.3494788843898E+01
 0.3462779776951E+01
 0.3427368677543E+01
 0.3387936631241E+01
 0.3343749264200E+01
 0.3294017442631E+01
 0.3237970783578E+01
 0.3174951037763E+01
 0.3104592450204E+01
 0.3026907551080E+01
 0.2942202448620E+01
 0.2851079630311E+01
 0.2754644894203E+01
 0.2654970677012E+01
 0.2555869575157E+01
 0.2464059934831E+01
 0.2390829743290E+01
 0.2354132308102E+01
 0.2380688923547E+01
 0.2506119768556E+01
 0.2768473351268E+01
 0.3191822284620E+01
 0.3765106482374E+01
 0.4427485793488E+01
 0.5074967029728E+01
 0.2885315701441E+01
 0.3017902892990E+01
 0.3146819637095E+01
 0.3261899362720E+01
 0.3356320472384E+01
 0.3427618285901E+01
 0.3476884990923E+01
 0.3507228349801E+01
 0.3522392777246E+01
 0.3525895947665E+01
 0.3520641674925E+01
 0.3508835245041E+01
 0.3492043801320E+01
 0.3471303370391E+01
 0.3447224354281E+01
 0.3420077690167E+01
 0.3389859188211E+01
 0.3356337894632E+01
 0.3319094620328E+01
 0.3277562223378E+01
 0.3231076056545E+01
 0.3178936637696E+01
 0.3120482713319E+01
 0.3055183899999E+01
 0.2982819067100E+01
 0.2903573346693E+01
 0.2817984855380E+01
 0.2726981719942E+01
 0.2632114137328E+01
 0.2536026323919E+01
 0.2443212461942E+01
 0.2361115264251E+01
 0.2301616236154E+01
 0.2282738924042E+01
 0.2329933024635E+01
 0.2474934367835E+01
 0.2748581995787E+01
 0.3166477284403E+01
 0.3712661305039E+01
 0.4332437598096E+01
 0.4924279225030E+01
 0.2797968035583E+01
 0.2922336712180E+01
 0.3043773290895E+01
 0.3153338021311E+01
 0.3244722034447E+01
 0.3315227896661E+01
 0.3365289810587E+01
 0.3397287726070E+01
 0.3414379411966E+01
 0.3419696175237E+01
 0.3415928037797E+01
 0.3405184725777E+01
 0.3389006954742E+01
 0.3368439321568E+01
 0.3344115810483E+01
 0.3316336380760E+01
 0.3285128658387E+01
 0.3250298063996E+01
 0.3211470520916E+01
 0.3168137608693E+01
 0.3119710852786E+01
 0.3065585991503E+01
 0.3005216158110E+01
 0.2938204716911E+01
 0.2864481835155E+01
 0.2784410780411E+01
 0.2698761396553E+01
 0.2608774457172E+01
 0.2516410222695E+01
 0.2424818166593E+01
 0.2339061346125E+01
 0.2267130768099E+01
 0.2221244945607E+01
 0.2219157217946E+01
 0.2284701057677E+01
 0.2445697306581E+01
 0.2726655879773E+01
 0.3136508003699E+01
 0.3656745022503E+01
 0.4236129867003E+01
 0.4793228233139E+01
 0.2711685043066E+01
 0.2828461753140E+01
 0.2942886660800E+01
 0.3047069438381E+01
 0.3135202138076E+01
 0.3204475049690E+01
 0.3254820071636E+01
 0.3288006777202E+01
 0.3306664539331E+01
 0.3313550236954E+01
 0.3311127316770E+01
 0.3301389207857E+01
 0.3285830728066E+01
 0.3265490510033E+01
 0.3241017210511E+01
 0.3212735953133E+01
 0.3180706371525E+01
 0.3144773351356E+01
 0.3104612699893E+01
 0.3059779968543E+01
 0.3009767648676E+01
 0.2954070709402E+01
 0.2892260223992E+01
 0.2824076833228E+01
 0.2749605203421E+01
 0.2669387496424E+01
 0.2584419092596E+01
 0.2496233834862E+01
 0.2407161311411E+01
 0.2320785312586E+01
 0.2242626172663E+01
 0.2181059701060E+01
 0.2148417548948E+01
 0.2161910164787E+01
 0.2243531229336E+01
 0.2417318864016E+01
 0.2702314026083E+01
 0.3102402404369E+01
 0.3597496786742E+01
 0.4140808930480E+01
 0.4667376409912E+01
 0.2626333079761E+01
 0.2736060467936E+01
 0.2843893563071E+01
 0.2942843079025E+01
 0.3027578349416E+01
 0.3095263234463E+01
 0.3145452118309E+01
 0.3179407707698E+01
 0.3199289933862E+01
 0.3207500752456E+01
 0.3206272537999E+01
 0.3197467939819E+01
 0.3182520205059E+01
 0.3162449322732E+01
 0.3137910266059E+01
 0.3109249192144E+01
 0.3076557120834E+01
 0.3039720311574E+01
 0.2998467814554E+01
 0.2952422912470E+01
 0.2901162423395E+01
 0.2844283194262E+01
 0.2781476282345E+01
 0.2712621088878E+01
 0.2637957084694E+01
 0.2558202310623E+01
 0.2474567165538E+01
 0.2388854793091E+01
 0.2303720458463E+01
 0.2223111614384E+01
 0.2152900867362E+01
 0.2101702601242E+01
 0.2081771962090E+01
 0.2109564977406E+01
 0.2205111923637E+01
 0.2388888194701E+01
 0.2675299927854E+01
 0.3064378973106E+01
 0.3535440067917E+01
 0.4046166471073E+01
 0.4542662723019E+01
 0.2541801905392E+01
 0.2644959142912E+01
 0.2746583391085E+01
 0.2840462646988E+01
 0.2921713581434E+01
 0.2987533559012E+01
 0.3037198714642E+01
 0.3071554703489E+01
 0.3092349204038E+01
 0.3101653654070E+01
 0.3101471435172E+01
 0.3093525467062E+01
 0.3079175447258E+01
 0.3059412068330E+01
 0.3034889063125E+01
 0.3005969455762E+01
 0.2972774431093E+01
 0.2935232545861E+01
 0.2893128222490E+01
 0.2846154891157E+01
 0.2793975693590E+01
 0.2736290594868E+01
 0.2672911037605E+01
 0.2603854491343E+01
 0.2529512623136E+01
 0.2450772731688E+01
 0.2369045770415E+01
 0.2286376840537E+01
 0.2205701190156E+01
 0.2131260568006E+01
 0.2069182040029E+01
 0.2028188900134E+01
 0.2020301236758E+01
 0.2061064454741E+01
 0.2168503249792E+01
 0.2359819671897E+01
 0.2645536790202E+01
 0.3022827971685E+01
 0.3471048793382E+01
 0.3952195077995E+01
 0.4420581957132E+01
 0.2457997931605E+01
 0.2555009898337E+01
 0.2650774497983E+01
 0.2739753197014E+01
 0.2817477745445E+01
 0.2881220023944E+01
 0.2930056435277E+01
 0.2964492576755E+01
 0.2985917641107E+01
 0.2996099627451E+01
 0.2996819891173E+01
 0.2989657286814E+01
 0.2975889332986E+01
 0.2956468766950E+01
 0.2932041419145E+01
 0.2902983110339E+01
 0.2869443506255E+01
 0.2831393539323E+01
 0.2788674048061E+01
 0.2741049820567E+01
 0.2688271065145E+01
 0.2630140773330E+01
 0.2566589607875E+01
 0.2497770402478E+01
 0.2424221852945E+01
 0.2346990916215E+01
 0.2267671659302E+01
 0.2188521591031E+01
 0.2112709970202E+01
 0.2044706721424E+01
 0.1990804353944E+01
 0.1959722333895E+01
 0.1963116615085E+01
 0.2015514385322E+01
 0.2132957906355E+01
 0.2329696969311E+01
 0.2613046898447E+01
 0.2978109997148E+01
 0.3404742860420E+01
 0.3858951400214E+01
 0.4301167388387E+01
 0.2374840964783E+01
 0.2466085957930E+01
 0.2556309292380E+01
 0.2640558657092E+01
 0.2714748545241E+01
 0.2776252683664E+01
 0.2824009547868E+01
 0.2858250072648E+01
 0.2880054397072E+01
 0.2890915183469E+01
 0.2892402187189E+01
 0.2885949590951E+01
 0.2872747046341E+01
 0.2853702560200E+01
 0.2829448331107E+01
 0.2800369100265E+01
 0.2766640987627E+01
 0.2728276665581E+01
 0.2685173482895E+01
 0.2637167719451E+01
 0.2584096248173E+01
 0.2525863754895E+01
 0.2462517503884E+01
 0.2394341187476E+01
 0.2322013193442E+01
 0.2246728190184E+01
 0.2170243853458E+01
 0.2094999542193E+01
 0.2024353677574E+01
 0.1962942823398E+01
 0.1917145471920E+01
 0.1895581065929E+01
 0.1909439483201E+01
 0.1972164293672E+01
 0.2097886784087E+01
 0.2298235678934E+01
 0.2577909402956E+01
 0.2930559112575E+01
 0.3336855834055E+01
 0.3766362940227E+01
 0.4184247855837E+01
 0.2292261688570E+01
 0.2378077819562E+01
 0.2463050266525E+01
 0.2542739509347E+01
 0.2613411698273E+01
 0.2672559896903E+01
 0.2719033100498E+01
 0.2752842726232E+01
 0.2774804555540E+01
 0.2786163855018E+01
 0.2788291493493E+01
 0.2782479290731E+01
 0.2769825850998E+01
 0.2751189396556E+01
 0.2727183688755E+01
 0.2698198774546E+01
 0.2664434961505E+01
 0.2625945431933E+01
 0.2582683315912E+01
 0.2534555564962E+01
 0.2481484280301E+01
 0.2423473376410E+01
 0.2360682788765E+01
 0.2293521002466E+01
 0.2222796994505E+01
 0.2149839458885E+01
 0.2076548936878E+01
 0.2005516077385E+01
 0.1940245789854E+01
 0.1885485133661E+01
 0.1847628843478E+01
 0.1835115797995E+01
 0.1858592434062E+01
 0.1930388772767E+01
 0.2062830582876E+01
 0.2265250398749E+01
 0.2540236779276E+01
 0.2880474279819E+01
 0.3267621832784E+01
 0.3674332921664E+01
 0.4069613755701E+01
 0.2210199678629E+01
 0.2290890177799E+01
 0.2370876715858E+01
 0.2446170669996E+01
 0.2513360761602E+01
 0.2570069861042E+01
 0.2615095310038E+01
 0.2648275244641E+01
 0.2670200986911E+01
 0.2681897372343E+01
 0.2684550446988E+01
 0.2679314170885E+01
 0.2667194998684E+01
 0.2648997840486E+01
 0.2625314095593E+01
 0.2596535804212E+01
 0.2562885039786E+01
 0.2524453777811E+01
 0.2481249495101E+01
 0.2433248157724E+01
 0.2380454737043E+01
 0.2322968896668E+01
 0.2261058163406E+01
 0.2195248446231E+01
 0.2126468841810E+01
 0.2056167209186E+01
 0.1986365692535E+01
 0.1919776472670E+01
 0.1860011178406E+01
 0.1811877007857E+01
 0.1781724671165E+01
 0.1777746448856E+01
 0.1809989826002E+01
 0.1889670303437E+01
 0.2027435532440E+01
 0.2230629130264E+01
 0.2500158898033E+01
 0.2828112149846E+01
 0.3197207699153E+01
 0.3582774869883E+01
 0.3957051510115E+01
 0.2128601811715E+01
 0.2204439430886E+01
 0.2279682001701E+01
 0.2350739560834E+01
 0.2414496691250E+01
 0.2468711587115E+01
 0.2512159353047E+01
 0.2544543431345E+01
 0.2566265938882E+01
 0.2578156734309E+01
 0.2581231723627E+01
 0.2576513083257E+01
 0.2564915686790E+01
 0.2547188922088E+01
 0.2523898713807E+01
 0.2495436103619E+01
 0.2462042422184E+01
 0.2423846330282E+01
 0.2380907619698E+01
 0.2333268889196E+01
 0.2281014814487E+01
 0.2224336443792E+01
 0.2163602840302E+01
 0.2099448926865E+01
 0.2032912464375E+01
 0.1965544948731E+01
 0.1899468948794E+01
 0.1837489834062E+01
 0.1783289547525E+01
 0.1741690937296E+01
 0.1718949394031E+01
 0.1722957792087E+01
 0.1763128234453E+01
 0.1849583600627E+01
 0.1991432882781E+01
 0.2194313774912E+01
 0.2457811338727E+01
 0.2773690586290E+01
 0.3125739547339E+01
 0.3491617817416E+01
 0.3846355263669E+01
 0.2047420983339E+01
 0.2118651665841E+01
 0.2189371291402E+01
 0.2256344422716E+01
 0.2316727309693E+01
 0.2368415547446E+01
 0.2410184780361E+01
 0.2441635833240E+01
 0.2463012508737E+01
 0.2474973309115E+01
 0.2478378745359E+01
 0.2474126336488E+01
 0.2463041242128E+01
 0.2445816224500E+01
 0.2422989349231E+01
 0.2394947989455E+01
 0.2361950190966E+01
 0.2324158884573E+01
 0.2281683647883E+01
 0.2234630713018E+01
 0.2183160601088E+01
 0.2127550629334E+01
 0.2068264546628E+01
 0.2006037094689E+01
 0.1942002608956E+01
 0.1877800467266E+01
 0.1815633056720E+01
 0.1758372444834E+01
 0.1709738083086E+01
 0.1674529708837E+01
 0.1658864422677E+01
 0.1670294778567E+01
 0.1717577411275E+01
 0.1809781805461E+01
 0.1954622113198E+01
 0.2156285350372E+01
 0.2413328724210E+01
 0.2717396012830E+01
 0.3053318958240E+01
 0.3400804009453E+01
 0.3737331817854E+01
 0.1966615061069E+01
 0.2033460998880E+01
 0.2099859651007E+01
 0.2162892797856E+01
 0.2219966669157E+01
 0.2269114002090E+01
 0.2309128529027E+01
 0.2339535025148E+01
 0.2360445853569E+01
 0.2372369776863E+01
 0.2376026305623E+01
 0.2372196047406E+01
 0.2361617282282E+01
 0.2344925946946E+01
 0.2322630499506E+01
 0.2295112284465E+01
 0.2262643528112E+01
 0.2225418781824E+01
 0.2183594474056E+01
 0.2137336955787E+01
 0.2086878154845E+01
 0.2032575926187E+01
 0.1974981235903E+01
 0.1914918907368E+01
 0.1853607442200E+01
 0.1792758490206E+01
 0.1734634599045E+01
 0.1682150182504E+01
 0.1639033057757E+01
 0.1610026532657E+01
 0.1601074053221E+01
 0.1619357499540E+01
 0.1672971655725E+01
 0.1769984284741E+01
 0.1916857126621E+01
 0.2116552908038E+01
 0.2366841398953E+01
 0.2659390263464E+01
 0.2980031700524E+01
 0.3310285378876E+01
 0.3629802678698E+01
 0.1886146023934E+01
 0.1948808210845E+01
 0.2011070450455E+01
 0.2070300205076E+01
 0.2124134410735E+01
 0.2170741153560E+01
 0.2208945692290E+01
 0.2238218679484E+01
 0.2258564268890E+01
 0.2270361035169E+01
 0.2274201236189E+01
 0.2270756586515E+01
 0.2260682000727E+01
 0.2244557104483E+01
 0.2222859541251E+01
 0.2195962555915E+01
 0.2164150058540E+01
 0.2127645400924E+01
 0.2086648605267E+01
 0.2041382208700E+01
 0.1992144637916E+01
 0.1939368071710E+01
 0.1883682778423E+01
 0.1825993607132E+01
 0.1767590773604E+01
 0.1710243037363E+01
 0.1656254674003E+01
 0.1608560391041E+01
 0.1570870827619E+01
 0.1547844611453E+01
 0.1545223036032E+01
 0.1569796211964E+01
 0.1629001905934E+01
 0.1729966114335E+01
 0.1878035121139E+01
 0.2075145499619E+01
 0.2318474122388E+01
 0.2599816030800E+01
 0.2905952530639E+01
 0.3220021019446E+01
 0.3523604988636E+01
 0.1805979250797E+01
 0.1864639613943E+01
 0.1922934017799E+01
 0.1978488975619E+01
 0.2029155129047E+01
 0.2073233164529E+01
 0.2109590079305E+01
 0.2137660429454E+01
 0.2157360115015E+01
 0.2168955022893E+01
 0.2172923054286E+01
 0.2169835047431E+01
 0.2160266500587E+01
 0.2144741786189E+01
 0.2123706975099E+01
 0.2097525404517E+01
 0.2066490231756E+01
 0.2030850673248E+01
 0.1990846841964E+01
 0.1946753201401E+01
 0.1898929406219E+01
 0.1847875390407E+01
 0.1794292523440E+01
 0.1739155505624E+01
 0.1683814004031E+01
 0.1630079410658E+01
 0.1580280709558E+01
 0.1537353208365E+01
 0.1504968271274E+01
 0.1487676244497E+01
 0.1490993907188E+01
 0.1521306510619E+01
 0.1585408562034E+01
 0.1689549081529E+01
 0.1838087686087E+01
 0.2032106397741E+01
 0.2268345746609E+01
 0.2538800883117E+01
 0.2831147961023E+01
 0.3129975652374E+01
 0.3418591742560E+01
 0.1726082924306E+01
 0.1780906097568E+01
 0.1835386487234E+01
 0.1887387216092E+01
 0.1934957740869E+01
 0.1976528058588E+01
 0.2011014585796E+01
 0.2037830531631E+01
 0.2056820575149E+01
 0.2068153426056E+01
 0.2072204539934E+01
 0.2069451681540E+01
 0.2060395113393E+01
 0.2045505404981E+01
 0.2025196659256E+01
 0.1999820731885E+01
 0.1969677667166E+01
 0.1935039542449E+01
 0.1896182881837E+01
 0.1853429573299E+01
 0.1807194965714E+01
 0.1758039944923E+01
 0.1706728640761E+01
 0.1654295486510E+01
 0.1602137718029E+01
 0.1552095745141E+01
 0.1506507767675E+01
 0.1468292341752E+01
 0.1441062697644E+01
 0.1429241514204E+01
 0.1438104126968E+01
 0.1473624657474E+01
 0.1541974972936E+01
 0.1648593977029E+01
 0.1796973646896E+01
 0.1987488858463E+01
 0.2216569247394E+01
 0.2476460082825E+01
 0.2755677905963E+01
 0.3040118659407E+01
 0.3314631343897E+01
 0.1646427531405E+01
 0.1697562330962E+01
 0.1748368828281E+01
 0.1796927914585E+01
 0.1841474912423E+01
 0.1880565591500E+01
 0.1913171481001E+01
 0.1938696437350E+01
 0.1956928351943E+01
 0.1967952369819E+01
 0.1972052347918E+01
 0.1969620406920E+01
 0.1961085819520E+01
 0.1946867065116E+01
 0.1927346167626E+01
 0.1902862132721E+01
 0.1873719619245E+01
 0.1840210535223E+01
 0.1802644022075E+01
 0.1761384726488E+01
 0.1716897987959E+01
 0.1669798716297E+01
 0.1620905451636E+01
 0.1571302446350E+01
 0.1522423154107E+01
 0.1476124374994E+01
 0.1434739611498E+01
 0.1401155585832E+01
 0.1378911532477E+01
 0.1372286863885E+01
 0.1386303308583E+01
 0.1426523299456E+01
 0.1498521727882E+01
 0.1606994165804E+01
 0.1754673455091E+01
 0.1941353121534E+01
 0.2163252043124E+01
 0.2412898783047E+01
 0.2679597010274E+01
 0.2950423761509E+01
 0.3211607117988E+01
 0.1566985439313E+01
 0.1614566080348E+01
 0.1661826002703E+01
 0.1707048138997E+01
 0.1748642504347E+01
 0.1785287058383E+01
 0.1816012571886E+01
 0.1840223218742E+01
 0.1857662227209E+01
 0.1868342999518E+01
 0.1872467538286E+01
 0.1870349259833E+01
 0.1862350625998E+01
 0.1848839892433E+01
 0.1830167108077E+01
 0.1806657238302E+01
 0.1778617380456E+01
 0.1746356252525E+01
 0.1710211761350E+01
 0.1670586554058E+01
 0.1627990172134E+01
 0.1583084595883E+01
 0.1536734529547E+01
 0.1490064456934E+01
 0.1444533344524E+01
 0.1402002821222E+01
 0.1364789363647E+01
 0.1335734936337E+01
 0.1318291658991E+01
 0.1316583454176E+01
 0.1335370421243E+01
 0.1379807435775E+01
 0.1454901556293E+01
 0.1564670127567E+01
 0.1711184675779E+01
 0.1893764156026E+01
 0.2108496295309E+01
 0.2348213611957E+01
 0.2602955583197E+01
 0.2860868759133E+01
 0.3109416430952E+01
 0.1487730533751E+01
 0.1531877627340E+01
 0.1575706241457E+01
 0.1617688337209E+01
 0.1656399068646E+01
 0.1690635094549E+01
 0.1719489318091E+01
 0.1742373929855E+01
 0.1758997566492E+01
 0.1769312031871E+01
 0.1773446106990E+01
 0.1771640873060E+01
 0.1764195990700E+01
 0.1751431422480E+01
 0.1733665502858E+01
 0.1711208120483E+01
 0.1684366738299E+01
 0.1653463904528E+01
 0.1618862431492E+01
 0.1580998180057E+01
 0.1540419095931E+01
 0.1497827337614E+01
 0.1454125726543E+01
 0.1410469813043E+01
 0.1368334098763E+01
 0.1329574587211E+01
 0.1296479954241E+01
 0.1271836507727E+01
 0.1258998622081E+01
 0.1261925495460E+01
 0.1285111137156E+01
 0.1333310759179E+01
 0.1410994887989E+01
 0.1521564915231E+01
 0.1666518431360E+01
 0.1844790036162E+01
 0.2052399279795E+01
 0.2282493978203E+01
 0.2525800443772E+01
 0.2771435455886E+01
 0.3007969805086E+01
 0.1408637908420E+01
 0.1449459267290E+01
 0.1489960416460E+01
 0.1528791718131E+01
 0.1564685386714E+01
 0.1596553468511E+01
 0.1623552899880E+01
 0.1645109902011E+01
 0.1660906759634E+01
 0.1670842257706E+01
 0.1674979488809E+01
 0.1673492945831E+01
 0.1666623252253E+01
 0.1654644002068E+01
 0.1637842184005E+01
 0.1616511706992E+01
 0.1590958435622E+01
 0.1561515837184E+01
 0.1528567805702E+01
 0.1492578657398E+01
 0.1454129001828E+01
 0.1413954418605E+01
 0.1372988076507E+01
 0.1332407923047E+01
 0.1293694797204E+01
 0.1258689740637E+01
 0.1229644350616E+01
 0.1209280258600E+01
 0.1200845706151E+01
 0.1208128563039E+01
 0.1235355314698E+01
 0.1286892334333E+01
 0.1366705984227E+01
 0.1477640366017E+01
 0.1620696579321E+01
 0.1794500756285E+01
 0.1995053769060E+01
 0.2215823145859E+01
 0.2448175643865E+01
 0.2682109597855E+01
 0.2907189975912E+01
 0.1329683594828E+01
 0.1367274870119E+01
 0.1404541486546E+01
 0.1440303696774E+01
 0.1473444040181E+01
 0.1502986867749E+01
 0.1528154244461E+01
 0.1548390978050E+01
 0.1563359596939E+01
 0.1572912988762E+01
 0.1577055018174E+01
 0.1575898685277E+01
 0.1569629041431E+01
 0.1558475177188E+01
 0.1542693174829E+01
 0.1522560177901E+01
 0.1498378603275E+01
 0.1470490018874E+01
 0.1439295651465E+01
 0.1405283591908E+01
 0.1369061487493E+01
 0.1331391778390E+01
 0.1293230548693E+01
 0.1255770020608E+01
 0.1220488980280E+01
 0.1189205275646E+01
 0.1164125571433E+01
 0.1147899533764E+01
 0.1143662895829E+01
 0.1155027896485E+01
 0.1185954602073E+01
 0.1240433568254E+01
 0.1321959546640E+01
 0.1432873912725E+01
 0.1573749438240E+01
 0.1742967336546E+01
 0.1936548374829E+01
 0.2148279090508E+01
 0.2370123022964E+01
 0.2592880719609E+01
 0.2807010831956E+01
 0.1250844326767E+01
 0.1285289497853E+01
 0.1319404015104E+01
 0.1352171409756E+01
 0.1382619034422E+01
 0.1409880711046E+01
 0.1433244055526E+01
 0.1452175736853E+01
 0.1466323635017E+01
 0.1475500503167E+01
 0.1479656402516E+01
 0.1478847274696E+01
 0.1473205731074E+01
 0.1462918127130E+01
 0.1448210120892E+01
 0.1429341410750E+01
 0.1406609236885E+01
 0.1380360563331E+01
 0.1351010308736E+01
 0.1319065777450E+01
 0.1285156189805E+01
 0.1250064531099E+01
 0.1214762751169E+01
 0.1180449803180E+01
 0.1148594845406E+01
 0.1120985374131E+01
 0.1099776608916E+01
 0.1087540547916E+01
 0.1087295839511E+01
 0.1102476790628E+01
 0.1136780248580E+01
 0.1193835529707E+01
 0.1276697818859E+01
 0.1387255967037E+01
 0.1525714022705E+01
 0.1690261228497E+01
 0.1876967949242E+01
 0.2079935295138E+01
 0.2291682745096E+01
 0.2503742041441E+01
 0.2707376466409E+01
 0.1172097331771E+01
 0.1203469063434E+01
 0.1234503739401E+01
 0.1264343280979E+01
 0.1292155457499E+01
 0.1317180973745E+01
 0.1338772833514E+01
 0.1356421693081E+01
 0.1369764531348E+01
 0.1378578460815E+01
 0.1382764171157E+01
 0.1382324324081E+01
 0.1377341873577E+01
 0.1367962088645E+01
 0.1354380710159E+01
 0.1336839410656E+01
 0.1315628651371E+01
 0.1291098220265E+01
 0.1263673223152E+01
 0.1233875770797E+01
 0.1202351390755E+01
 0.1169897579471E+01
 0.1137495514975E+01
 0.1106343931472E+01
 0.1077895590634E+01
 0.1053901510642E+01
 0.1036460209077E+01
 0.1028061763865E+01
 0.1031604767858E+01
 0.1050345024394E+01
 0.1087721057637E+01
 0.1147016530843E+01
 0.1230878062643E+01
 0.1340787724686E+01
 0.1476632627862E+01
 0.1636453888672E+01
 0.1816393954778E+01
 0.2010861405543E+01
 0.2212893696063E+01
 0.2414690262542E+01
 0.2608240170683E+01
 0.1093420144775E+01
 0.1121780025566E+01
 0.1149797188298E+01
 0.1176768640345E+01
 0.1201999186734E+01
 0.1224834047956E+01
 0.1244690916492E+01
 0.1261085506568E+01
 0.1273646383362E+01
 0.1282118323735E+01
 0.1286356133384E+01
 0.1286312335354E+01
 0.1282022657953E+01
 0.1273592802620E+01
 0.1261189116080E+01
 0.1245034761095E+01
 0.1225411951235E+01
 0.1202670874307E+01
 0.1177243477580E+01
 0.1149662452318E+01
 0.1120584594191E+01
 0.1090816182627E+01
 0.1061341414061E+01
 0.1033352448205E+01
 0.1008279666532E+01
 0.9878324650569E+00
 0.9740485751069E+00
 0.9693332288004E+00
 0.9764634249939E+00
 0.9985173747846E+00
 0.1038681513090E+01
 0.1099909980096E+01
 0.1184470389580E+01
 0.1293479351477E+01
 0.1426551725341E+01
 0.1581616516821E+01
 0.1754904847306E+01
 0.1941123816560E+01
 0.2133793811247E+01
 0.2325725322357E+01
 0.2509563463399E+01
 0.1014790439505E+01
 0.1040189113279E+01
 0.1065241343339E+01
 0.1089397395495E+01
 0.1112096650507E+01
 0.1132786653158E+01
 0.1150948562789E+01
 0.1166123224910E+01
 0.1177932094947E+01
 0.1186089801712E+01
 0.1190407862485E+01
 0.1190791195827E+01
 0.1187230397521E+01
 0.1179792992859E+01
 0.1168616472630E+01
 0.1153905104551E+01
 0.1135931526534E+01
 0.1115044063289E+01
 0.1091678334369E+01
 0.1066373586323E+01
 0.1039793088685E+01
 0.1012746494350E+01
 0.9862152391401E+00
 0.9613791356236E+00
 0.9396409569501E+00
 0.9226642644976E+00
 0.9124230153630E+00
 0.9112358882221E+00
 0.9217580275985E+00
 0.9468922233589E+00
 0.9895800739119E+00
 0.1052462483575E+01
 0.1137455903990E+01
 0.1245348490457E+01
 0.1375521115406E+01
 0.1525819930464E+01
 0.1692576475977E+01
 0.1870786206655E+01
 0.2054420343207E+01
 0.2236850132022E+01
 0.2411315157883E+01
 0.9361858735342E+00
 0.9586630750143E+00
 0.9807933407062E+00
 0.1002179760749E+01
 0.1022394658397E+01
 0.1040985818783E+01
 0.1057496102765E+01
 0.1071490588747E+01
 0.1082583798593E+01
 0.1090461347869E+01
 0.1094893226176E+01
 0.1095738716242E+01
 0.1092945061356E+01
 0.1086542887925E+01
 0.1076641391221E+01
 0.1063425662793E+01
 0.1047157584867E+01
 0.1028181527173E+01
 0.1006933800805E+01
 0.9839563946789E+00
 0.9599145110289E+00
 0.9356160867354E+00
 0.9120344400698E+00
 0.8903318254799E+00
 0.8718789009756E+00
 0.8582900650501E+00
 0.8514735445163E+00
 0.8536608834410E+00
 0.8673862536492E+00
 0.8953802502198E+00
 0.9403476216346E+00
 0.1004632163721E+01
 0.1089825107885E+01
 0.1196419029728E+01
 0.1323593280107E+01
 0.1469134542485E+01
 0.1629482491143E+01
 0.1799910021270E+01
 0.1974810060886E+01
 0.2148070257146E+01
 0.2313470441973E+01
 0.8575839436548E+00
 0.8771684502456E+00
 0.8964102190846E+00
 0.9150660601462E+00
 0.9328403304262E+00
 0.9493789818725E+00
 0.9642842109503E+00
 0.9771434541210E+00
 0.9875633865515E+00
 0.9952007539829E+00
 0.9997850085616E+00
 0.1001131254208E+01
 0.9991448870149E+00
 0.9938208216619E+00
 0.9852405544111E+00
 0.9735698321920E+00
 0.9590587560134E+00
 0.9420458259974E+00
 0.9229652578716E+00
 0.9023581851138E+00
 0.8808874520770E+00
 0.8593544998283E+00
 0.8387195745360E+00
 0.8201226947942E+00
 0.8048985838483E+00
 0.7946099954394E+00
 0.7910984550595E+00
 0.7965088457457E+00
 0.8132562697231E+00
 0.8439032184845E+00
 0.8909260539646E+00
 0.9563871749366E+00
 0.1041576532789E+01
 0.1146720087600E+01
 0.1270822900638E+01
 0.1411630425519E+01
 0.1565694767153E+01
 0.1728554922630E+01
 0.1894999392602E+01
 0.2059393554298E+01
 0.2216009964798E+01
 0.7789618492060E+00
 0.7956713684406E+00
 0.8120487341923E+00
 0.8280066485258E+00
 0.8433811943217E+00
 0.8579142899004E+00
 0.8712644026278E+00
 0.8830384421907E+00
 0.8928332612526E+00
 0.9002759520860E+00
 0.9050557252447E+00
 0.9069445201635E+00
 0.9058071686409E+00
 0.9016040051689E+00
 0.8943894797184E+00
 0.8843099492751E+00
 0.8716028673857E+00
 0.8565991282684E+00
 0.8397282566472E+00
 0.8215271401045E+00
 0.8026522101468E+00
 0.7838939185924E+00
 0.7661948569693E+00
 0.7506686306729E+00
 0.7386108677032E+00
 0.7315310215526E+00
 0.7312039087417E+00
 0.7396892308303E+00
 0.7592858365328E+00
 0.7923928842915E+00
 0.8412670518294E+00
 0.9077044319928E+00
 0.9927156027448E+00
 0.1096285215162E+01
 0.1217266548426E+01
 0.1353377495579E+01
 0.1501283899902E+01
 0.1656779284310E+01
 0.1815024592803E+01
 0.1970829834958E+01
 0.2118919007747E+01
 0.7002963607721E+00
 0.7141373802034E+00
 0.7276652699384E+00
 0.7409520170700E+00
 0.7539655550182E+00
 0.7665412422204E+00
 0.7783899035339E+00
 0.7891339661435E+00
 0.7983574456255E+00
 0.8056561481217E+00
 0.8106787410085E+00
 0.8131546603126E+00
 0.8129093027514E+00
 0.8098695439025E+00
 0.8040635218201E+00
 0.7956182923325E+00
 0.7847579556342E+00
 0.7718042357224E+00
 0.7571795484458E+00
 0.7414133306231E+00
 0.7251517505490E+00
 0.7091700247272E+00
 0.6943888380802E+00
 0.6818916724326E+00
 0.6729325463183E+00
 0.6689667946281E+00
 0.6717034962426E+00
 0.6831196354583E+00
 0.7054014337409E+00
 0.7407899726236E+00
 0.7913309550131E+00
 0.8585684757495E+00
 0.9432536398719E+00
 0.1045151717750E+01
 0.1162982449814E+01
 0.1294445721982E+01
 0.1436319696504E+01
 0.1584640648224E+01
 0.1734921828133E+01
 0.1882390413293E+01
 0.2022186572333E+01
 0.6215636943604E+00
 0.6325313529389E+00
 0.6432159436117E+00
 0.6538532688632E+00
 0.6645434115255E+00
 0.6752120160215E+00
 0.6856172801147E+00
 0.6953920358930E+00
 0.7041034464478E+00
 0.7113136624780E+00
 0.7166300437456E+00
 0.7197399514527E+00
 0.7204304129664E+00
 0.7185960133037E+00
 0.7142394242775E+00
 0.7074686324120E+00
 0.6984938328791E+00
 0.6876261687599E+00
 0.6752786767649E+00
 0.6619702811108E+00
 0.6483331869625E+00
 0.6351233164913E+00
 0.6232354728251E+00
 0.6137197431974E+00
 0.6077866868029E+00
 0.6068376026399E+00
 0.6125178552417E+00
 0.6267251734788E+00
 0.6515374792715E+00
 0.6890432944928E+00
 0.7410858180454E+00
 0.8089705391801E+00
 0.8932070666081E+00
 0.9933601468840E+00
 0.1108030384660E+01
 0.1234905446905E+01
 0.1370871776148E+01
 0.1512196299014E+01
 0.1654727349376E+01
 0.1794087695375E+01
 0.1925804533625E+01
 0.5427393949691E+00
 0.5508174960100E+00
 0.5586571068943E+00
 0.5666633528144E+00
 0.5750684974387E+00
 0.5838841964740E+00
 0.5929096260200E+00
 0.6017816479043E+00
 0.6100456444174E+00
 0.6172271945480E+00
 0.6228913304526E+00
 0.6266837086908E+00
 0.6283541117880E+00
 0.6277661216593E+00
 0.6248979326357E+00
 0.6198388389383E+00
 0.6127847129355E+00
 0.6040348201901E+00
 0.5939906372161E+00
 0.5831575797330E+00
 0.5721502487539E+00
 0.5617013073430E+00
 0.5526759098712E+00
 0.5460879080754E+00
 0.5431032957426E+00
 0.5450704784994E+00
 0.5535743477566E+00
 0.5704378931503E+00
 0.5976356281491E+00
 0.6371089979803E+00
 0.6905066390113E+00
 0.7589077977513E+00
 0.8425967763050E+00
 0.9409539239516E+00
 0.1052471675522E+01
 0.1174827776372E+01
 0.1305010264220E+01
 0.1439503963845E+01
 0.1574477753705E+01
 0.1705934757527E+01
 0.1829766801357E+01
 0.4637982412711E+00
 0.4689596814258E+00
 0.4739467482732E+00
 0.4793400272776E+00
 0.4855028859090E+00
 0.4925267067593E+00
 0.5002432816283E+00
 0.5082857535751E+00
 0.5161721071669E+00
 0.5233882549494E+00
 0.5294559867298E+00
 0.5339798433544E+00
 0.5366737232199E+00
 0.5373717037797E+00
 0.5360286626906E+00
 0.5327157081940E+00
 0.5276140558901E+00
 0.5210098304482E+00
 0.5132907445200E+00
 0.5049456344630E+00
 0.4965677563418E+00
 0.4888624960652E+00
 0.4826617143622E+00
 0.4789406545348E+00
 0.4788205876508E+00
 0.4835995651629E+00
 0.4948067892597E+00
 0.5141961920668E+00
 0.5436441146345E+00
 0.5849499326941E+00
 0.6395747443046E+00
 0.7083827766818E+00
 0.7914476279577E+00
 0.8879790354029E+00
 0.9963691940020E+00
 0.1114284963251E+01
 0.1238806516032E+01
 0.1366622614249E+01
 0.1494210321267E+01
 0.1617944828829E+01
 0.1734068326964E+01
 0.3847142154512E+00
 0.3869225439140E+00
 0.3890482438143E+00
 0.3918533363314E+00
 0.3958282980011E+00
 0.4011340967689E+00
 0.4076237484564E+00
 0.4149174843273E+00
 0.4225001894364E+00
 0.4298156624647E+00
 0.4363423710514E+00
 0.4416450555476E+00
 0.4454036151469E+00
 0.4474244542754E+00
 0.4476404769847E+00
 0.4461051775273E+00
 0.4429847449543E+00
 0.4385507610766E+00
 0.4331747232561E+00
 0.4273254702466E+00
 0.4215707808262E+00
 0.4165844448008E+00
 0.4131614045413E+00
 0.4122365486839E+00
 0.4148876957714E+00
 0.4223671730017E+00
 0.4361554297664E+00
 0.4579443545899E+00
 0.4895172781258E+00
 0.5325352994240E+00
 0.5882775111534E+00
 0.6574030863884E+00
 0.7397882201371E+00
 0.8344839438510E+00
 0.9397875243485E+00
 0.1053350924829E+01
 0.1172334047947E+01
 0.1293613644287E+01
 0.1413963787236E+01
 0.1530130974354E+01
 0.1638704218924E+01
 0.3054606753476E+00
 0.3046748728487E+00
 0.3039411176754E+00
 0.3042067459692E+00
 0.3060778644923E+00
 0.3097663547981E+00
 0.3151295116954E+00
 0.3217641523819E+00
 0.3291180988623E+00
 0.3365934532471E+00
 0.3436279081641E+00
 0.3497495684821E+00
 0.3546072902663E+00
 0.3579821268819E+00
 0.3597864604058E+00
 0.3600565975380E+00
 0.3589429849799E+00
 0.3567007171150E+00
 0.3536818764808E+00
 0.3503309607467E+00
 0.3471851632538E+00
 0.3448816147981E+00
 0.3441746506273E+00
 0.3459581781862E+00
 0.3512703934086E+00
 0.3613260877448E+00
 0.3775671896783E+00
 0.4016320501580E+00
 0.4352151476002E+00
 0.4798405219099E+00
 0.5366083798961E+00
 0.6059814116554E+00
 0.6876508275370E+00
 0.7805195578206E+00
 0.8827930858952E+00
 0.9921016411072E+00
 0.1105669383856E+01
 0.1220542199572E+01
 0.1333779430261E+01
 0.1442505720249E+01
 0.1543668490127E+01
 0.2260112805283E+00
 0.2222014280921E+00
 0.2186582646862E+00
 0.2165110646243E+00
 0.2164479806394E+00
 0.2186888472487E+00
 0.2230644134121E+00
 0.2291375001046E+00
 0.2363236142456E+00
 0.2439942202157E+00
 0.2515571609516E+00
 0.2585121096352E+00
 0.2644821409365E+00
 0.2692258433413E+00
 0.2726361241831E+00
 0.2747315875075E+00
 0.2756449066809E+00
 0.2756110696750E+00
 0.2749574982070E+00
 0.2740976769698E+00
 0.2735308214875E+00
 0.2738507603867E+00
 0.2757676079935E+00
 0.2801363192869E+00
 0.2879647418042E+00
 0.3004451820883E+00
 0.3189967223905E+00
 0.3452139532492E+00
 0.3807033222392E+00
 0.4268477006137E+00
 0.4845675392825E+00
 0.5541360928600E+00
 0.6350717802879E+00
 0.7261395008719E+00
 0.8254544372845E+00
 0.9306156208390E+00
 0.1038892958880E+01
 0.1147478934542E+01
 0.1253703094481E+01
 0.1355081207212E+01
 0.1448952675820E+01
 0.1463446626821E+00
 0.1395585124044E+00
 0.1334688805071E+00
 0.1293619468862E+00
 0.1278812178284E+00
 0.1291015493626E+00
 0.1327376169486E+00
 0.1383191731103E+00
 0.1452855670784E+00
 0.1530420111199E+00
 0.1610134730300E+00
 0.1686968487607E+00
 0.1756995521891E+00
 0.1817589363267E+00
 0.1867451421488E+00
 0.1906533227593E+00
 0.1935907610735E+00
 0.1957627695930E+00
 0.1974604890267E+00
 0.1990532123029E+00
 0.2009890992389E+00
 0.2038089049103E+00
 0.2081765305411E+00
 0.2149180177682E+00
 0.2250338987548E+00
 0.2397239985859E+00
 0.2604094140321E+00
 0.2886494427779E+00
 0.3259532897449E+00
 0.3735470411926E+00
 0.4321636904003E+00
 0.5018925876963E+00
 0.5820924429505E+00
 0.6714007382624E+00
 0.7678427711499E+00
 0.8689743711317E+00
 0.9720898243533E+00
 0.1074501956013E+01
 0.1173788499177E+01
 0.1267870312924E+01
 0.1354544036745E+01
 0.6648476260844E-01
 0.5741815631934E-01
 0.5093343346676E-01
 0.4842781965137E-01
 0.4922558807277E-01
 0.5177934977615E-01
 0.5516322147522E-01
 0.5927682603203E-01
 0.6433249367955E-01
 0.7039710187481E-01
 0.7725088267609E-01
 0.8448733020462E-01
 0.9167267573241E-01
 0.9845606817743E-01
 0.1046156713304E+00
 0.1100633498749E+00
 0.1148303202638E+00
 0.1190473349338E+00
 0.1229276305568E+00
 0.1267582499687E+00
 0.1309059184163E+00
 0.1358434020453E+00
 0.1421981948298E+00
 0.1508076044687E+00
 0.1627295908775E+00
 0.1792373498041E+00
 0.2017901378348E+00
 0.2319023470297E+00
 0.2709436270737E+00
 0.3199402407106E+00
 0.3794178002171E+00
 0.4492864183056E+00
 0.5287611200237E+00
 0.6163646904192E+00
 0.7100326411192E+00
 0.8072628827908E+00
 0.9053498185177E+00
 0.1001698296267E+01
 0.1094102230399E+01
 0.1180889938896E+01
 0.1260422792452E+01
 0.1484090272553E-01
 0.3212591001549E-01
 0.4907582199604E-01
 0.6321856907849E-01
 0.7308956782347E-01
 0.7820171367327E-01
 0.7888767767549E-01
 0.7603346571376E-01
 0.7081031676503E-01
 0.6446977316483E-01
 0.5820852303430E-01
 0.5306185752834E-01
 0.4976840654796E-01
 0.4861502238602E-01
 0.4939945581002E-01
 0.5161255411597E-01
 0.5470746765653E-01
 0.5826941816529E-01
 0.6206264490669E-01
 0.6602731999814E-01
 0.7028683624685E-01
 0.7519114494132E-01
 0.8139173631859E-01
 0.8990292620607E-01
 0.1020499419147E+00
 0.1193156998460E+00
 0.1431746492003E+00
 0.1749410902533E+00
 0.2156638858823E+00
 0.2660488333964E+00
 0.3263713468416E+00
 0.3963692497318E+00
 0.4751369132198E+00
 0.5610994842970E+00
 0.6521033739932E+00
 0.7455707267657E+00
 0.8387674809987E+00
 0.9291639191246E+00
 0.1014730989726E+01
 0.1094170033785E+01
 0.1166558199250E+01
 0.9470813092693E-01
 0.1136737577789E+00
 0.1325460144405E+00
 0.1484507408060E+00
 0.1595415674182E+00
 0.1651389827148E+00
 0.1655183457856E+00
 0.1615555158261E+00
 0.1543860979446E+00
 0.1451560088788E+00
 0.1348758143338E+00
 0.1243568457648E+00
 0.1141983264689E+00
 0.1047995285188E+00
 0.9637989266187E-01
 0.8899863813413E-01
 0.8257244553885E-01
 0.7689513860208E-01
 0.7166586585281E-01
 0.6653652194008E-01
 0.6119776400237E-01
 0.5555308665267E-01
 0.5010528961541E-01
 0.4673924596055E-01
 0.4934396562291E-01
 0.6176339819367E-01
 0.8481214019557E-01
 0.1177397226065E+00
 0.1601269566799E+00
 0.2119357679210E+00
 0.2731046630758E+00
 0.3432210286522E+00
 0.4212968396632E+00
 0.5056838610506E+00
 0.5941410875997E+00
 0.6839937837322E+00
 0.7724422455578E+00
 0.8569991576937E+00
 0.9357883774645E+00
 0.1007775227443E+01
 0.1072902631109E+01
 0.1756359589762E+00
 0.1981228129512E+00
 0.2201114317624E+00
 0.2385073248102E+00
 0.2513240692973E+00
 0.2578754675520E+00
 0.2585312944070E+00
 0.2542984854920E+00
 0.2464297291731E+00
 0.2361504756220E+00
 0.2245106295554E+00
 0.2123283903123E+00
 0.2001879394614E+00
 0.1884616000205E+00
 0.1773384965693E+00
 0.1668507056319E+00
 0.1568937392330E+00
 0.1472419484090E+00
 0.1375601451301E+00
 0.1274147737374E+00
 0.1162870895233E+00
 0.1035914813872E+00
 0.8870916350691E-01
 0.7108509695448E-01
 0.5061891651358E-01
 0.2998327584672E-01
 0.2932366747297E-01
 0.6028667622283E-01
 0.1044223153025E+00
 0.1577725731148E+00
 0.2197829260928E+00
 0.2899763747439E+00
 0.3673499905646E+00
 0.4502146197414E+00
 0.5362425458723E+00
 0.6226363044264E+00
 0.7064829229393E+00
 0.7852978710147E+00
 0.8574087427299E+00
 0.9218593596190E+00
 0.9793774573070E+00
 0.2570318652741E+00
 0.2834895010541E+00
 0.3090257694045E+00
 0.3302031889057E+00
 0.3448859092882E+00
 0.3524295301419E+00
 0.3533597768578E+00
 0.3488657688522E+00
 0.3403519336723E+00
 0.3291452249998E+00
 0.3163508277555E+00
 0.3028092755228E+00
 0.2891077290081E+00
 0.2756125942687E+00
 0.2625052237503E+00
 0.2498125181421E+00
 0.2374301008188E+00
 0.2251391811777E+00
 0.2126182961177E+00
 0.1994530622792E+00
 0.1851453576752E+00
 0.1691216268248E+00
 0.1507398649152E+00
 0.1293034524792E+00
 0.1041124247392E+00
 0.7447180185143E-01
 0.3966276521905E-01
 0.3593875590557E-02
 0.4913523182326E-01
 0.1041164238903E+00
 0.1667905191403E+00
 0.2368870110814E+00
 0.3134670767453E+00
 0.3948205314305E+00
 0.4785230079347E+00
 0.5616129237737E+00
 0.6410140827030E+00
 0.7141548960997E+00
 0.7796646819009E+00
 0.8368006856622E+00
 0.8858921204745E+00
 0.3389200966459E+00
 0.3696859650725E+00
 0.3990510420482E+00
 0.4231554054554E+00
 0.4397101248233E+00
 0.4481588325472E+00
 0.4492404427895E+00
 0.4443699111616E+00
 0.4351272194712E+00
 0.4229493627823E+00
 0.4089972481630E+00
 0.3941316405850E+00
 0.3789410396002E+00
 0.3637858028145E+00
 0.3488407991376E+00
 0.3341298818104E+00
 0.3195511635900E+00
 0.3048951803891E+00
 0.2898575524729E+00
 0.2740497743055E+00
 0.2570097942490E+00
 0.2382119261010E+00
 0.2170753992532E+00
 0.1929799215345E+00
 0.1653225841114E+00
 0.1335328067516E+00
 0.9705986313644E-01
 0.5568727591250E-01
 0.1707581464004E-01
 0.5382647374137E-01
 0.1152274755515E+00
 0.1844902683298E+00
 0.2599463848991E+00
 0.3396913233177E+00
 0.4211270696097E+00
 0.5010631016302E+00
 0.5761560412393E+00
 0.6437420383059E+00
 0.7024249185072E+00
 0.7530912971731E+00
 0.7929467825264E+00
 0.4213545558863E+00
 0.4567784626990E+00
 0.4902319000763E+00
 0.5173623060357E+00
 0.5357369359691E+00
 0.5449472172558E+00
 0.5460108208171E+00
 0.5406132872878E+00
 0.5305301058489E+00
 0.5173111375937E+00
 0.5021678342165E+00
 0.4859741818968E+00
 0.4693141007377E+00
 0.4525378968897E+00
 0.4358116728751E+00
 0.4191551002310E+00
 0.4024681514764E+00
 0.3855499831076E+00
 0.3681120969124E+00
 0.3497900034807E+00
 0.3301553964141E+00
 0.3087283032278E+00
 0.2849881821284E+00
 0.2583919997270E+00
 0.2284352090337E+00
 0.1946659782467E+00
 0.1566595266321E+00
 0.1141917679610E+00
 0.6840020659319E-01
 0.3472577097618E-01
 0.6938958702451E-01
 0.1340323454228E+00
 0.2072464350627E+00
 0.2849952620459E+00
 0.3641047632175E+00
 0.4409843207985E+00
 0.5119096379725E+00
 0.5739004957879E+00
 0.6259236610875E+00
 0.6685729661417E+00
 0.7067703732042E+00
 0.5043995535589E+00
 0.5448662748412E+00
 0.5826695548216E+00
 0.6128922550777E+00
 0.6329826591915E+00
 0.6427596621046E+00
 0.6435974416778E+00
 0.6374989951867E+00
 0.6264513449049E+00
 0.6121145707202E+00
 0.5957408945839E+00
 0.5782073460196E+00
 0.5600853098475E+00
 0.5417096938874E+00
 0.5232346039646E+00
 0.5046737121942E+00
 0.4859277656190E+00
 0.4668035795856E+00
 0.4470271647884E+00
 0.4262558347336E+00
 0.4040917292253E+00
 0.3800962059181E+00
 0.3538035775512E+00
 0.3247412030438E+00
 0.2924917772307E+00
 0.2566995528501E+00
 0.2170172520350E+00
 0.1731853109374E+00
 0.1254949918552E+00
 0.7714395151719E-01
 0.5124273000102E-01
 0.8995956492073E-01
 0.1567565042772E+00
 0.2313253620353E+00
 0.3077763271374E+00
 0.3816122134071E+00
 0.4484593794927E+00
 0.5049062233364E+00
 0.5497731748452E+00
 0.5851853478522E+00
 0.6152716122982E+00
 0.5881285151570E+00
 0.6340657695467E+00
 0.6764849493814E+00
 0.7098265402493E+00
 0.7314658299263E+00
 0.7415552045753E+00
 0.7419174332638E+00
 0.7349208599856E+00
 0.7227743352108E+00
 0.7072390040138E+00
 0.6895933984763E+00
 0.6707047559514E+00
 0.6511226985438E+00
 0.6311608650338E+00
 0.6109579602411E+00
 0.5905198297481E+00
 0.5697470090790E+00
 0.5484532140993E+00
 0.5263778879154E+00
 0.5031982726496E+00
 0.4785439733146E+00
 0.4520136180037E+00
 0.4231916236250E+00
 0.3916706770504E+00
 0.3571149396545E+00
 0.3192569887263E+00
 0.2778188413118E+00
 0.2325338760343E+00
 0.1833872007444E+00
 0.1314689363291E+00
 0.8297860197416E-01
 0.6793263541104E-01
 0.1123963581302E+00
 0.1800847806696E+00
 0.2528570951705E+00
 0.3234442230873E+00
 0.3862757869756E+00
 0.4371188999505E+00
 0.4746243202443E+00
 0.5016761032935E+00
 0.5227954596931E+00
 0.6726304793820E+00
 0.7245302628046E+00
 0.7718463553680E+00
 0.8082935448196E+00
 0.8312500528049E+00
 0.8413412320830E+00
 0.8409457761764E+00
 0.8328434724438E+00
 0.8194667117115E+00
 0.8026606079652E+00
 0.7837106248173E+00
 0.7634590500113E+00
 0.7424237145031E+00
 0.7208910174509E+00
 0.6989810145576E+00
 0.6766901240086E+00
 0.6539179342162E+00
 0.6304845885561E+00
 0.6061422133758E+00
 0.5805864418700E+00
 0.5534716529858E+00
 0.5244299454284E+00
 0.4930915608582E+00
 0.4591107200153E+00
 0.4222303951428E+00
 0.3822701685103E+00
 0.3390236808550E+00
 0.2922412828792E+00
 0.2417702686405E+00
 0.1879856576931E+00
 0.1331737162724E+00
 0.8759935485436E-01
 0.8518461141786E-01
 0.1343580681717E+00
 0.2004641265901E+00
 0.2670342848857E+00
 0.3257353587071E+00
 0.3708957514050E+00
 0.4005799412515E+00
 0.4181269477452E+00
 0.4300154675659E+00
 0.7580119376416E+00
 0.8164439568624E+00
 0.8689513440866E+00
 0.9084354576149E+00
 0.9323971966222E+00
 0.9421168942554E+00
 0.9406513164360E+00
 0.9312313506492E+00
 0.9165022794058E+00
 0.8983666095484E+00
 0.8780923869523E+00
 0.8564799526559E+00
 0.8340050325819E+00
 0.8109211130020E+00
 0.7873267789230E+00
 0.7632078161748E+00
 0.7384624771048E+00
 0.7129171905581E+00
 0.6863363543066E+00
 0.6584327603997E+00
 0.6288830442932E+00
 0.5973489556370E+00
 0.5635022123775E+00
 0.5270550883305E+00
 0.4878279954224E+00
 0.4457288043731E+00
 0.4006281182722E+00
 0.3523115701389E+00
 0.3005647721030E+00
 0.2454371437515E+00
 0.1878989599449E+00
 0.1319264671979E+00
 0.9255618622695E-01
 0.1022328028987E+00
 0.1531425073780E+00
 0.2134208524950E+00
 0.2674548068485E+00
 0.3067254772430E+00
 0.3279577991898E+00
 0.3349183976878E+00
 0.3368697849162E+00
 0.8444021994481E+00
 0.9100295578375E+00
 0.9680293913251E+00
 0.1010402692854E+01
 0.1034956891581E+01
 0.1043862517347E+01
 0.1040988355357E+01
 0.1030042440489E+01
 0.1013855312785E+01
 0.9943494847818E+00
 0.9727466133678E+00
 0.9497869852139E+00
 0.9258942248792E+00
 0.9012839270443E+00
 0.8760310457781E+00
 0.8501100515069E+00
 0.8234178778876E+00
 0.7957874558014E+00
 0.7669954019480E+00
 0.7367707590615E+00
 0.7048100436525E+00
 0.6708006384721E+00
 0.6344509047097E+00
 0.5955273024023E+00
 0.5539265247072E+00
 0.5096469570124E+00
 0.4626423486885E+00
 0.4127483092425E+00
 0.3597319202031E+00
 0.3034747232750E+00
 0.2443598952261E+00
 0.1842012547261E+00
 0.1291675757587E+00
 0.9854953149537E-01
 0.1171439189985E+00
 0.1648424000268E+00
 0.2125443910532E+00
 0.2454052099712E+00
 0.2574130916863E+00
 0.2524267533699E+00
 0.2432025558046E+00
 0.9319611826590E+00
 0.1005559124148E+01
 0.1069345814996E+01
 0.1114347201073E+01
 0.1138955042616E+01
 0.1146529914634E+01
 0.1141890865703E+01
 0.1129225096097E+01
 0.1111498597750E+01
 0.1090604999879E+01
 0.1067686947360E+01
 0.1043406492356E+01
 0.1018126182317E+01
 0.9920198423594E+00
 0.9651375084650E+00
 0.9374422698415E+00
 0.9088301968371E+00
 0.8791413078945E+00
 0.8481647739622E+00
 0.8156453700599E+00
 0.7812973205026E+00
 0.7448293627413E+00
 0.7059808844007E+00
 0.6645677319209E+00
 0.6205611921572E+00
 0.5740524185371E+00
 0.5250844787274E+00
 0.4735554137250E+00
 0.4192428612993E+00
 0.3619421979163E+00
 0.3017306919508E+00
 0.2394795641670E+00
 0.1781037269326E+00
 0.1262010566356E+00
 0.1048914980193E+00
 0.1265600801552E+00
 0.1633043823370E+00
 0.1884335924423E+00
 0.1901812951985E+00
 0.1713832282054E+00
 0.1489250520516E+00
 0.1020890768017E+01
 0.1103369138717E+01
 0.1173205932826E+01
 0.1220412235727E+01
 0.1244379301899E+01
 0.1250032390245E+01
 0.1243268385348E+01
 0.1228717329280E+01
 0.1209403637915E+01
 0.1187132223338E+01
 0.1162932235299E+01
 0.1137370593181E+01
 0.1110741591418E+01
 0.1083174908762E+01
 0.1054695432370E+01
 0.1025255485171E+01
 0.9947511689747E+00
 0.9630305291374E+00
 0.9298960347240E+00
 0.8951081647097E+00
 0.8583970324412E+00
 0.8194882515988E+00
 0.7781456360049E+00
 0.7342282053861E+00
 0.6877789815055E+00
 0.6389834609754E+00
 0.5879795995077E+00
 0.5347386781248E+00
 0.4790712981118E+00
 0.4207386512664E+00
 0.3596509826133E+00
 0.2961938024222E+00
 0.2318789793657E+00
 0.1708710338585E+00
 0.1238229232376E+00
 0.1093050791699E+00
 0.1249917547549E+00
 0.1390664652277E+00
 0.1291944722600E+00
 0.9451132553790E-01
 0.5527163741250E-01
 0.1111451662593E+01
 0.1203881373715E+01
 0.1279957981950E+01
 0.1328715631272E+01
 0.1351159869839E+01
 0.1354234301390E+01
 0.1345003749823E+01
 0.1328448108116E+01
 0.1307542435903E+01
 0.1283934720543E+01
 0.1258507002653E+01
 0.1231717060338E+01
 0.1203786362535E+01
 0.1174799933533E+01
 0.1144758479483E+01
 0.1113604879171E+01
 0.1081236566568E+01
 0.1047510856236E+01
 0.1012244662169E+01
 0.9752147466840E+00
 0.9361658954341E+00
 0.8948361291487E+00
 0.8510060192922E+00
 0.8045696814359E+00
 0.7556371822159E+00
 0.7044885340788E+00
 0.6513608944284E+00
 0.5963079603212E+00
 0.5391921488333E+00
 0.4797798998525E+00
 0.4179006477999E+00
 0.3536713242337E+00
 0.2878831183760E+00
 0.2227589014891E+00
 0.1637067144269E+00
 0.1220471592423E+00
 0.1079985806342E+00
 0.1050062099928E+00
 0.8380245443658E-01
 0.4562027619390E-01
 0.5067013387847E-01
 0.1203989065952E+01
 0.1307631841378E+01
 0.1389992061648E+01
 0.1439322357681E+01
 0.1459144246914E+01
 0.1458941017585E+01
 0.1446953543707E+01
 0.1428340889160E+01
 0.1405890606155E+01
 0.1381022545247E+01
 0.1354442485003E+01
 0.1326489662791E+01
 0.1297311509498E+01
 0.1266950055489E+01
 0.1235384077696E+01
 0.1202549023770E+01
 0.1168345294827E+01
 0.1132640923477E+01
 0.1095268763353E+01
 0.1056023154967E+01
 0.1014663285270E+01
 0.9709355272908E+00
 0.9246285573716E+00
 0.8756612266049E+00
 0.8242033779535E+00
 0.7706274294525E+00
 0.7152719232236E+00
 0.6582800768517E+00
 0.5995826627870E+00
 0.5389855174412E+00
 0.4763032607048E+00
 0.4115166943254E+00
 0.3450089460161E+00
 0.2779808606082E+00
 0.2134066300879E+00
 0.1578136162832E+00
 0.1203981523733E+00
 0.9903152626739E-01
 0.7809234478813E-01
 0.9104556047178E-01
 0.1481817606917E+00
 0.1298972864932E+01
 0.1415311004268E+01
 0.1503729586629E+01
 0.1552200004361E+01
 0.1568065233092E+01
 0.1563891460997E+01
 0.1548952727894E+01
 0.1528319665223E+01
 0.1504431660672E+01
 0.1478414802885E+01
 0.1450777987064E+01
 0.1421738747441E+01
 0.1391373253194E+01
 0.1359684563135E+01
 0.1326633073907E+01
 0.1292149442832E+01
 0.1256138897379E+01
 0.1218481695428E+01
 0.1179028341097E+01
 0.1137592816359E+01
 0.1093949809758E+01
 0.1047851072901E+01
 0.9990841078666E+00
 0.9475795207056E+00
 0.8935561997944E+00
 0.8374734084044E+00
 0.7797698906728E+00
 0.7206825743365E+00
 0.6602251278605E+00
 0.5982749072190E+00
 0.5346908556729E+00
 0.4694204098166E+00
 0.4026270701905E+00
 0.3348977863939E+00
 0.2678208337155E+00
 0.2053763758955E+00
 0.1549545384223E+00
 0.1222555009363E+00
 0.1121145299223E+00
 0.1632578945015E+00
 0.2512461991937E+00
 0.1397062666866E+01
 0.1527819249939E+01
 0.1621592026748E+01
 0.1667147836827E+01
 0.1677503396579E+01
 0.1668757390500E+01
 0.1650825190875E+01
 0.1628317571690E+01
 0.1603162212425E+01
 0.1576142562756E+01
 0.1547562372593E+01
 0.1517521883792E+01
 0.1486033184552E+01
 0.1453066792411E+01
 0.1418569498742E+01
 0.1382470327774E+01
 0.1344681272693E+01
 0.1305096183389E+01
 0.1263584905685E+01
 0.1219983822173E+01
 0.1174086051250E+01
 0.1125647834588E+01
 0.1074446403599E+01
 0.1020408382577E+01
 0.9637864543224E+00
 0.9051160856187E+00
 0.8449298838560E+00
 0.7835585065669E+00
 0.7211109381574E+00
 0.6575676729372E+00
 0.5928899772830E+00
 0.5270866805406E+00
 0.4602516391212E+00
 0.3926076771510E+00
 0.3248109815980E+00
 0.2590544727310E+00
 0.2010974262433E+00
 0.1609752968929E+00
 0.1576376746921E+00
 0.2358685202920E+00
 0.3590709196294E+00
 0.1499217030180E+01
 0.1646341554867E+01
 0.1743926041488E+01
 0.1783686684552E+01
 0.1786850133360E+01
 0.1773156320672E+01
 0.1752401636351E+01
 0.1728287606759E+01
 0.1702097773807E+01
 0.1674251915287E+01
 0.1644855531451E+01
 0.1613904463520E+01
 0.1581358401557E+01
 0.1547164027908E+01
 0.1511260368166E+01
 0.1473578328359E+01
 0.1434038518095E+01
 0.1392549369346E+01
 0.1349001384717E+01
 0.1303256503868E+01
 0.1255131394943E+01
 0.1204389389208E+01
 0.1150790080142E+01
 0.1094237934932E+01
 0.1034998410332E+01
 0.9736650730853E+00
 0.9108502360584E+00
 0.8469724187663E+00
 0.7822460352038E+00
 0.7167867590730E+00
 0.6507172718217E+00
 0.5842027124353E+00
 0.5174109898836E+00
 0.4504137751430E+00
 0.3832471842065E+00
 0.3166114405933E+00
 0.2540506711054E+00
 0.2066552086217E+00
 0.2032652909892E+00
 0.3044523205871E+00
 0.4729427043948E+00
 0.1606885071083E+01
 0.1772441088046E+01
 0.1870838014069E+01
 0.1900895737752E+01
 0.1895288380467E+01
 0.1876687476422E+01
 0.1853544388015E+01
 0.1828214395937E+01
 0.1801278803493E+01
 0.1772806914435E+01
 0.1742729656264E+01
 0.1710960152201E+01
 0.1677421541807E+01
 0.1642047341816E+01
 0.1604775459556E+01
 0.1565542353826E+01
 0.1524278831393E+01
 0.1480908274507E+01
 0.1435342318730E+01
 0.1387471370302E+01
 0.1337142975319E+01
 0.1284135420597E+01
 0.1228187750314E+01
 0.1169162942201E+01
 0.1107311028513E+01
 0.1043254481960E+01
 0.9776592675883E+00
 0.9110177514394E+00
 0.8436577556446E+00
 0.7758637535547E+00
 0.7079806795104E+00
 0.6404263827067E+00
 0.5735907021957E+00
 0.5076118411929E+00
 0.4422269884696E+00
 0.3770013285979E+00
 0.3126767901620E+00
 0.2576865620476E+00
 0.2466639591953E+00
 0.3659071735688E+00
 0.5948088357315E+00
 0.1722360340332E+01
 0.1908152270662E+01
 0.2001840993103E+01
 0.2017193305364E+01
 0.2001829772952E+01
 0.1978998644378E+01
 0.1954174698861E+01
 0.1928125908447E+01
 0.1900776651483E+01
 0.1871892031060E+01
 0.1841270165691E+01
 0.1808771081509E+01
 0.1774300626274E+01
 0.1737791300431E+01
 0.1699186994222E+01
 0.1658433313756E+01
 0.1615472390543E+01
 0.1570242087466E+01
 0.1522674315712E+01
 0.1472689534589E+01
 0.1420174918852E+01
 0.1364938720049E+01
 0.1306705528917E+01
 0.1245279629936E+01
 0.1180858854370E+01
 0.1114048487715E+01
 0.1045523775479E+01
 0.9758258996869E+00
 0.9054030699037E+00
 0.8347459693487E+00
 0.7644846413197E+00
 0.6953848570884E+00
 0.6282085663510E+00
 0.5633951340623E+00
 0.5007409999446E+00
 0.4392749046046E+00
 0.3771238745707E+00
 0.3162406749104E+00
 0.2896994746273E+00
 0.4169032880632E+00
 0.7273653628391E+00
 0.1849476987600E+01
 0.2055980097880E+01
 0.2135115277402E+01
 0.2130115340198E+01
 0.2105481094849E+01
 0.2079875523977E+01
 0.2054294261663E+01
 0.2028105647368E+01
 0.2000698566855E+01
 0.1971613785387E+01
 0.1940576192416E+01
 0.1907427706400E+01
 0.1872078693817E+01
 0.1834473526665E+01
 0.1794569221639E+01
 0.1752323793047E+01
 0.1707691198154E+01
 0.1660622313774E+01
 0.1611066757890E+01
 0.1558973884345E+01
 0.1504278394711E+01
 0.1446841707058E+01
 0.1386396238344E+01
 0.1322679961622E+01
 0.1255792283443E+01
 0.1186248456731E+01
 0.1114659925019E+01
 0.1041577313649E+01
 0.9675781940763E+00
 0.8934049881550E+00
 0.8200384194814E+00
 0.7486816852680E+00
 0.6806094987067E+00
 0.6168097715423E+00
 0.5575331423169E+00
 0.5019998906041E+00
 0.4472467170765E+00
 0.3867378532185E+00
 0.3390676493246E+00
 0.4547378305945E+00
 0.8744731332873E+00
 0.1995094730950E+01
 0.2218429815650E+01
 0.2265999738472E+01
 0.2236353575928E+01
 0.2205625445159E+01
 0.2179297476169E+01
 0.2154001713838E+01
 0.2128306193832E+01
 0.2101189660936E+01
 0.2072101774357E+01
 0.2040760368234E+01
 0.2007028278498E+01
 0.1970843176288E+01
 0.1932174082410E+01
 0.1890997872769E+01
 0.1847287622399E+01
 0.1801008845795E+01
 0.1752122861325E+01
 0.1700592603514E+01
 0.1646391159370E+01
 0.1589503369036E+01
 0.1529873013430E+01
 0.1467289071585E+01
 0.1401441506973E+01
 0.1332276761914E+01
 0.1260102512746E+01
 0.1185347442024E+01
 0.1108515060595E+01
 0.1030329495810E+01
 0.9518459442241E+00
 0.8744670325432E+00
 0.7999100663880E+00
 0.7300802315452E+00
 0.6667358785740E+00
 0.6110524316185E+00
 0.5630634042890E+00
 0.5210842074451E+00
 0.4738707395527E+00
 0.4087569302499E+00
 0.4815575810911E+00
 0.1042429483453E+01
 0.2172634548280E+01
 0.2395505946741E+01
 0.2384205734366E+01
 0.2332948849965E+01
 0.2302480849090E+01
 0.2277368243478E+01
 0.2253544133937E+01
 0.2228948913237E+01
 0.2202434382915E+01
 0.2173508412148E+01
 0.2141947838320E+01
 0.2107677955130E+01
 0.2070685008501E+01
 0.2030974699099E+01
 0.1988549508492E+01
 0.1943399368848E+01
 0.1895500209206E+01
 0.1844820071455E+01
 0.1791329062456E+01
 0.1735014794272E+01
 0.1675903604852E+01
 0.1614046013561E+01
 0.1549373869676E+01
 0.1481609423601E+01
 0.1410490583629E+01
 0.1335919346157E+01
 0.1257948445077E+01
 0.1176961343692E+01
 0.1093865816725E+01
 0.1010116492983E+01
 0.9276234607440E+00
 0.8486729608139E+00
 0.7758755939873E+00
 0.7119218794979E+00
 0.6593663023455E+00
 0.6199062897203E+00
 0.5939145057998E+00
 0.5774504118173E+00
 0.5221361789954E+00
 0.5171912376059E+00
 0.1244966201157E+01
 0.2411950629480E+01
 0.2572770445446E+01
 0.2471309540255E+01
 0.2421569110907E+01
 0.2396366317927E+01
 0.2374469520004E+01
 0.2353330545049E+01
 0.2330314475785E+01
 0.2304659239654E+01
 0.2276005631995E+01
 0.2244275013305E+01
 0.2209487251559E+01
 0.2171697468634E+01
 0.2130957762669E+01
 0.2087300693636E+01
 0.2040733669189E+01
 0.1991240949349E+01
 0.1938792600442E+01
 0.1883357934263E+01
 0.1824927204321E+01
 0.1763546384485E+01
 0.1699364718306E+01
 0.1632576846095E+01
 0.1563162851211E+01
 0.1490621729142E+01
 0.1414089480974E+01
 0.1332932368185E+01
 0.1247337321633E+01
 0.1158472009485E+01
 0.1068315370039E+01
 0.9793961711406E+00
 0.8946157740135E+00
 0.8172476265156E+00
 0.7510633986168E+00
 0.7001771397648E+00
 0.6693160837584E+00
 0.6605341008447E+00
 0.6828316949613E+00
 0.7045784367212E+00
 0.6275613527943E+00
 0.1527345950809E+01
 0.2794415061640E+01
 0.2656046981866E+01
 0.2527309811877E+01
 0.2506674490458E+01
 0.2487155456381E+01
 0.2471664106270E+01
 0.2453783323482E+01
 0.2432780649718E+01
 0.2408116373161E+01
 0.2379784701628E+01
 0.2347886240113E+01
 0.2312570323156E+01
 0.2273974612119E+01
 0.2232205093939E+01
 0.2187326936717E+01
 0.2139364479823E+01
 0.2088306692340E+01
 0.2034121114030E+01
 0.1976765768591E+01
 0.1916220181615E+01
 0.1852522977301E+01
 0.1785854568380E+01
 0.1716722986263E+01
 0.1645945632824E+01
 0.1572871084327E+01
 0.1495118142233E+01
 0.1410908930734E+01
 0.1320186537668E+01
 0.1224523223217E+01
 0.1126600956133E+01
 0.1029710153537E+01
 0.9374466836994E+00
 0.8535598089082E+00
 0.7827140470122E+00
 0.7313831934677E+00
 0.7063437003174E+00
 0.7178073457384E+00
 0.7670429005561E+00
 0.9253906803220E+00
 0.9542011941363E+00
 0.2128876049008E+01
 0.5416959315111E+00
 0.7884080670945E+00
 0.1024210632879E+01
 0.1239979734268E+01
 0.1432580686874E+01
 0.1601786857113E+01
 0.1748209973316E+01
 0.1873238710614E+01
 0.1979118392067E+01
 0.2068404836213E+01
 0.2143531814562E+01
 0.2206713633869E+01
 0.2259966713970E+01
 0.2305081718274E+01
 0.2343572540664E+01
 0.2376652117301E+01
 0.2405064053954E+01
 0.2429144421406E+01
 0.2449322686203E+01
 0.2465748253628E+01
 0.5168058264100E+00
 0.7562794691466E+00
 0.9859596322432E+00
 0.1197773981453E+01
 0.1388482063064E+01
 0.1557471813526E+01
 0.1705117179904E+01
 0.1832530037872E+01
 0.1941589651510E+01
 0.2034516477108E+01
 0.2113505310339E+01
 0.2180609563705E+01
 0.2237736332388E+01
 0.2286613508131E+01
 0.2328739010542E+01
 0.2365313646504E+01
 0.2397085165494E+01
 0.2424512029205E+01
 0.2447876947902E+01
 0.2466761885265E+01
 0.4936376062993E+00
 0.7265119682577E+00
 0.9505276266405E+00
 0.1158347229396E+01
 0.1346823160466E+01
 0.1515094355494E+01
 0.1663322684376E+01
 0.1792408831511E+01
 0.1903941740214E+01
 0.1999854989356E+01
 0.2082121569680E+01
 0.2152638166253E+01
 0.2213200576023E+01
 0.2265463470199E+01
 0.2310877033817E+01
 0.2350605999460E+01
 0.2385426586447E+01
 0.2415809797517E+01
 0.2441976989788E+01
 0.2463778657983E+01
 0.4719609199312E+00
 0.6988539324849E+00
 0.9175028472669E+00
 0.1121308933058E+01
 0.1307259481103E+01
 0.1474358550986E+01
 0.1622611185771E+01
 0.1752744148866E+01
 0.1866110767334E+01
 0.1964401482564E+01
 0.2049389244514E+01
 0.2122819936094E+01
 0.2186375836608E+01
 0.2241627208663E+01
 0.2289961826431E+01
 0.2332505841984E+01
 0.2370039165248E+01
 0.2403053818705E+01
 0.2431857624118E+01
 0.2456622728463E+01
 0.4516309271441E+00
 0.6730163073278E+00
 0.8865497617232E+00
 0.1086310004325E+01
 0.1269481037566E+01
 0.1435007320131E+01
 0.1582787114503E+01
 0.1713407286214E+01
 0.1828026529414E+01
 0.1928128835386E+01
 0.2015308339647E+01
 0.2091167866008E+01
 0.2157275470552E+01
 0.2215111264163E+01
 0.2265995303569E+01
 0.2311011214157E+01
 0.2350941154878E+01
 0.2386325154394E+01
 0.2417585921004E+01
 0.2445168407558E+01
 0.4325210332458E+00
 0.6487603076994E+00
 0.8573677094283E+00
 0.1053046715828E+01
 0.1233212387114E+01
 0.1396810830181E+01
 0.1543673244172E+01
 0.1674276371388E+01
 0.1789617913003E+01
 0.1891005674016E+01
 0.1979874378684E+01
 0.2057692581218E+01
 0.2125916206058E+01
 0.2185934093862E+01
 0.2238997357536E+01
 0.2286149448091E+01
 0.2328179867163E+01
 0.2365683786787E+01
 0.2399191593380E+01
 0.2429340556433E+01
 0.4145220814106E+00
 0.6258786357941E+00
 0.8296966593478E+00
 0.1021251608916E+01
 0.1198210029454E+01
 0.1359563597894E+01
 0.1505109188920E+01
 0.1635238661273E+01
 0.1750816717423E+01
 0.1853000377563E+01
 0.1943082358203E+01
 0.2022406451545E+01
 0.2092320908356E+01
 0.2154125335059E+01
 0.2209004278145E+01
 0.2257965615408E+01
 0.2301808503346E+01
 0.2341180002614E+01
 0.2376696047018E+01
 0.2409109499084E+01
 0.3975390429523E+00
 0.6041925818919E+00
 0.8033109869816E+00
 0.9906908723273E+00
 0.1164258699716E+01
 0.1323082639194E+01
 0.1466950869308E+01
 0.1596191737346E+01
 0.1711560273092E+01
 0.1814084198228E+01
 0.1904929875373E+01
 0.1985326186484E+01
 0.2056519777672E+01
 0.2119725260721E+01
 0.2176064746890E+01
 0.2226514625124E+01
 0.2271883214953E+01
 0.2312860844048E+01
 0.2350124095428E+01
 0.2384478843482E+01
 0.3814890677035E+00
 0.5835479025609E+00
 0.7780154477855E+00
 0.9611604891547E+00
 0.1131168927944E+01
 0.1287205785454E+01
 0.1429070067894E+01
 0.1557044266146E+01
 0.1671793191074E+01
 0.1774233513667E+01
 0.1865419323349E+01
 0.1946474444266E+01
 0.2018550915145E+01
 0.2082783727692E+01
 0.2140237053367E+01
 0.2191858670347E+01
 0.2238463587166E+01
 0.2280775301607E+01
 0.2319508813880E+01
 0.2355478464772E+01
 0.3662997915291E+00
 0.5638117332188E+00
 0.7536415049688E+00
 0.9324831828418E+00
 0.1098774873144E+01
 0.1251790494264E+01
 0.1391354106152E+01
 0.1517716604623E+01
 0.1631468700725E+01
 0.1733431529410E+01
 0.1824559517351E+01
 0.1905880977664E+01
 0.1978460647984E+01
 0.2043359571996E+01
 0.2101588119466E+01
 0.2154067078407E+01
 0.2201614654384E+01
 0.2244978079913E+01
 0.2284894415146E+01
 0.2322159928120E+01
 0.3519077847244E+00
 0.5448698068891E+00
 0.7300441271654E+00
 0.9045056013971E+00
 0.1066932328733E+01
 0.1216712641982E+01
 0.1353705383976E+01
 0.1478141043342E+01
 0.1590549456116E+01
 0.1691669363226E+01
 0.1782366728737E+01
 0.1863583332468E+01
 0.1936303743949E+01
 0.2001520485574E+01
 0.2060193573871E+01
 0.2113217360902E+01
 0.2161409352178E+01
 0.2205532698622E+01
 0.2246336849599E+01
 0.2284591529654E+01
 0.3382572199482E+00
 0.5266240849864E+00
 0.7070990512518E+00
 0.8770959021531E+00
 0.1035516969713E+01
 0.1181865449632E+01
 0.1316040919972E+01
 0.1438261911625E+01
 0.1549008076235E+01
 0.1648946806063E+01
 0.1738865429941E+01
 0.1819627404432E+01
 0.1892143759709E+01
 0.1957343363197E+01
 0.2016138529474E+01
 0.2069396873764E+01
 0.2117931207270E+01
 0.2162514318084E+01
 0.2203903519348E+01
 0.2242847388814E+01
 0.3252986903360E+00
 0.5089906744154E+00
 0.6847003742277E+00
 0.8501415817119E+00
 0.1004422715044E+01
 0.1147158402688E+01
 0.1278291779489E+01
 0.1398035458194E+01
 0.1506827371458E+01
 0.1605272733452E+01
 0.1694088731034E+01
 0.1774067811364E+01
 0.1846053388216E+01
 0.1910914823606E+01
 0.1969518587263E+01
 0.2022704581429E+01
 0.2071276913137E+01
 0.2116012734939E+01
 0.2157675074959E+01
 0.2197002890711E+01
 0.3129881663411E+00
 0.4918979740483E+00
 0.6627584005084E+00
 0.8235474925999E+00
 0.9735601663342E+00
 0.1112516149716E+01
 0.1240402397222E+01
 0.1357429548744E+01
 0.1464000329949E+01
 0.1560665263686E+01
 0.1648078605598E+01
 0.1726968146902E+01
 0.1798114799723E+01
 0.1862331797886E+01
 0.1920440883477E+01
 0.1973252729182E+01
 0.2021558714545E+01
 0.2066135604956E+01
 0.2107750707618E+01
 0.2147144456922E+01
 0.3012861250286E+00
 0.4752850760755E+00
 0.6411977653587E+00
 0.7972340846528E+00
 0.9428551845829E+00
 0.1077877457866E+01
 0.1202329886403E+01
 0.1316423286332E+01
 0.1420529980401E+01
 0.1515151777360E+01
 0.1600885999334E+01
 0.1678401163799E+01
 0.1748419956500E+01
 0.1811702093903E+01
 0.1869025040648E+01
 0.1921168284327E+01
 0.1968906419101E+01
 0.2013011305131E+01
 0.2054252901076E+01
 0.2093380487281E+01
 0.2901567765212E+00
 0.4591003165982E+00
 0.6199557083636E+00
 0.7711357403100E+00
 0.9122474799150E+00
 0.1043194107116E+01
 0.1164043224640E+01
 0.1275006456085E+01
 0.1376429042783E+01
 0.1468768712296E+01
 0.1552570724621E+01
 0.1628448764672E+01
 0.1697070745246E+01
 0.1759144751354E+01
 0.1815403829974E+01
 0.1866593962930E+01
 0.1913468836781E+01
 0.1956790883523E+01
 0.1997330196349E+01
 0.2035847677640E+01
 0.2795674169038E+00
 0.4432999991588E+00
 0.5989805263155E+00
 0.7451992500766E+00
 0.8816892808125E+00
 0.1008429805878E+01
 0.1125522410913E+01
 0.1233178897462E+01
 0.1331719473525E+01
 0.1421561234084E+01
 0.1503201223557E+01
 0.1577201855235E+01
 0.1644178951113E+01
 0.1704790187320E+01
 0.1759723535196E+01
 0.1809688836223E+01
 0.1855414640349E+01
 0.1897649211844E+01
 0.1937159019700E+01
 0.1974715061171E+01
 0.2694878690825E+00
 0.4278472455695E+00
 0.5782301527439E+00
 0.7193823802858E+00
 0.8511440448776E+00
 0.9735590995764E+00
 0.1086757573731E+01
 0.1190949791598E+01
 0.1286431897178E+01
 0.1373582773127E+01
 0.1452854182621E+01
 0.1524760030775E+01
 0.1589866032401E+01
 0.1648780087024E+01
 0.1702143981252E+01
 0.1750628500430E+01
 0.1794932680334E+01
 0.1835785553063E+01
 0.1873944939174E+01
 0.1910186762849E+01
 0.2598899970826E+00
 0.4127109448550E+00
 0.5576708335216E+00
 0.6936525058368E+00
 0.8205851906692E+00
 0.9385662573214E+00
 0.1047748019154E+01
 0.1148336854279E+01
 0.1240604913927E+01
 0.1324894411935E+01
 0.1401613972662E+01
 0.1471231057311E+01
 0.1534262646785E+01
 0.1591266986838E+01
 0.1642838182353E+01
 0.1689604788465E+01
 0.1732231773350E+01
 0.1771423557435E+01
 0.1807923255454E+01
 0.1842503689589E+01
 0.2507472956314E+00
 0.3978648070699E+00
 0.5372759094249E+00
 0.6679853308867E+00
 0.7899948863782E+00
 0.9034441827898E+00
 0.1008501271901E+01
 0.1105365491682E+01
 0.1194284340275E+01
 0.1275564175925E+01
 0.1349571959657E+01
 0.1416730183257E+01
 0.1477507956523E+01
 0.1532413573410E+01
 0.1581991637954E+01
 0.1626825070284E+01
 0.1667540029606E+01
 0.1704810682685E+01
 0.1739358782568E+01
 0.1771944097597E+01
 0.2420345245217E+00
 0.3832864814769E+00
 0.5170246614044E+00
 0.6423636535941E+00
 0.7593628552054E+00
 0.8681933130700E+00
 0.9690320765190E+00
 0.1062067888453E+01
 0.1147522353836E+01
 0.1225666198304E+01
 0.1296825655139E+01
 0.1361379248699E+01
 0.1419748679598E+01
 0.1472391668729E+01
 0.1519801253957E+01
 0.1562511127774E+01
 0.1601103730091E+01
 0.1636217092553E+01
 0.1668544666653E+01
 0.1698822730209E+01
 0.2337273859277E+00
 0.3689567365842E+00
 0.4969012199195E+00
 0.6167761842001E+00
 0.7286852152982E+00
 0.8328205303580E+00
 0.9293613883325E+00
 0.1018482060574E+01
 0.1100376575258E+01
 0.1175279790488E+01
 0.1243477734469E+01
 0.1305305616451E+01
 0.1361137907076E+01
 0.1411380918120E+01
 0.1456473900304E+01
 0.1496897608283E+01
 0.1533185741003E+01
 0.1565934192531E+01
 0.1595800952792E+01
 0.1623489514424E+01
 0.2258022324252E+00
 0.3548586885475E+00
 0.4768935261151E+00
 0.5912164094418E+00
 0.6979633537150E+00
 0.7973380915870E+00
 0.8895153634958E+00
 0.9746508853408E+00
 0.1052909101329E+01
 0.1124488432585E+01
 0.1189634937016E+01
 0.1248640937964E+01
 0.1301833698497E+01
 0.1349567190108E+01
 0.1392224608037E+01
 0.1430230038752E+01
 0.1464063430814E+01
 0.1494272648206E+01
 0.1521473529020E+01
 0.1546328753929E+01
 0.2182357926063E+00
 0.3409770619157E+00
 0.4569923302274E+00
 0.5656814932186E+00
 0.6672028301040E+00
 0.7617625768560E+00
 0.8495243531740E+00
 0.9306211168667E+00
 0.1005185500386E+01
 0.1073378697043E+01
 0.1135406862710E+01
 0.1191519769538E+01
 0.1241997470901E+01
 0.1287140702056E+01
 0.1327274411040E+01
 0.1362762389788E+01
 0.1394025995711E+01
 0.1421559612761E+01
 0.1445931392189E+01
 0.1467757409588E+01
 0.2110049044072E+00
 0.3272974707452E+00
 0.4371902176460E+00
 0.5401712094583E+00
 0.6364123123445E+00
 0.7261138642882E+00
 0.8094219137536E+00
 0.8864424026103E+00
 0.9572737886648E+00
 0.1022039126736E+01
 0.1080904688308E+01
 0.1134078063634E+01
 0.1181792207128E+01
 0.1224293895371E+01
 0.1261847849234E+01
 0.1294754180748E+01
 0.1323371153073E+01
 0.1348134924612E+01
 0.1369561974994E+01
 0.1388219461945E+01
 0.2040862532490E+00
 0.3138057181761E+00
 0.4174806669827E+00
 0.5146869208790E+00
 0.6056025667935E+00
 0.6904141609641E+00
 0.7692438679739E+00
 0.8421663401669E+00
 0.9092434307164E+00
 0.9705591139532E+00
 0.1026239852239E+01
 0.1076451585527E+01
 0.1121380534118E+01
 0.1161219110732E+01
 0.1196170177375E+01
 0.1226467153627E+01
 0.1252401192980E+01
 0.1274346392346E+01
 0.1292765409867E+01
 0.1308178415745E+01
 0.1974560859103E+00
 0.3004870778719E+00
 0.3978571012233E+00
 0.4892305661025E+00
 0.5747854682487E+00
 0.6546870571976E+00
 0.7290273863489E+00
 0.7978455470463E+00
 0.8611643418361E+00
 0.9190277647752E+00
 0.9715226991571E+00
 0.1018774252449E+01
 0.1060922674623E+01
 0.1098106075281E+01
 0.1130464303204E+01
 0.1158161542444E+01
 0.1181418403049E+01
 0.1200544178462E+01
 0.1215947628298E+01
 0.1228108083134E+01
 0.1910899092511E+00
 0.2873255666438E+00
 0.3783119551916E+00
 0.4638036945880E+00
 0.5439730826358E+00
 0.6189566660627E+00
 0.6888101566281E+00
 0.7535328166038E+00
 0.8131059722194E+00
 0.8675328358233E+00
 0.9168611771028E+00
 0.9611764906086E+00
 0.1000574367778E+01
 0.1035139300990E+01
 0.1064947571189E+01
 0.1090092086421E+01
 0.1110720019155E+01
 0.1127074281032E+01
 0.1139511858920E+01
 0.1148480656170E+01
 0.1849621444941E+00
 0.2743031761662E+00
 0.3588357313326E+00
 0.4384065302750E+00
 0.5131768091394E+00
 0.5832468357512E+00
 0.6486296272769E+00
 0.7092803463444E+00
 0.7651364638635E+00
 0.8161597432785E+00
 0.8623595962830E+00
 0.9037836235644E+00
 0.9404847704839E+00
 0.9724954071245E+00
 0.9998284287383E+00
 0.1022503898310E+01
 0.1040592916989E+01
 0.1054271285652E+01
 0.1063848399709E+01
 0.1069751940102E+01
 0.1790457131123E+00
 0.2613990262414E+00
 0.3394160172065E+00
 0.4130370507356E+00
 0.4824065772269E+00
 0.5475804308955E+00
 0.6085223184924E+00
 0.6651390331317E+00
 0.7173218841802E+00
 0.7649906663808E+00
 0.8081174930590E+00
 0.8467143500570E+00
 0.8807943981907E+00
 0.9103404188703E+00
 0.9353030439552E+00
 0.9556283484843E+00
 0.9713084604650E+00
 0.9824512271604E+00
 0.9893238052655E+00
 0.9923469653030E+00
 0.1733115491441E+00
 0.2485884408093E+00
 0.3200365001890E+00
 0.3876901556457E+00
 0.4516701952034E+00
 0.5119787847488E+00
 0.5685232989784E+00
 0.6211579318294E+00
 0.6697256415734E+00
 0.7141038727229E+00
 0.7542287564692E+00
 0.7900794897658E+00
 0.8216332763642E+00
 0.8488271755539E+00
 0.8715519766624E+00
 0.8896791212535E+00
 0.9031179256272E+00
 0.9119059174911E+00
 0.9162727973793E+00
 0.9166528023761E+00
 0.1677279584769E+00
 0.2358418422568E+00
 0.3006758948459E+00
 0.3623568608304E+00
 0.4209727864420E+00
 0.4764612375906E+00
 0.5286657157057E+00
 0.5773837455204E+00
 0.6224079504109E+00
 0.6635731582914E+00
 0.7007809599004E+00
 0.7339809923388E+00
 0.7631193083859E+00
 0.7880927947582E+00
 0.8087367527938E+00
 0.8248482718757E+00
 0.8362485015366E+00
 0.8428991645307E+00
 0.8449952248260E+00
 0.8430169579556E+00
 0.1622597965553E+00
 0.2231234351723E+00
 0.2813068406092E+00
 0.3370236469641E+00
 0.3903164673271E+00
 0.4410448932581E+00
 0.4889804765090E+00
 0.5338604204418E+00
 0.5754254097629E+00
 0.6134674849204E+00
 0.6478550440174E+00
 0.6785114471933E+00
 0.7053571479716E+00
 0.7282563778612E+00
 0.7469962897916E+00
 0.7613020142907E+00
 0.7708995688168E+00
 0.7756642634703E+00
 0.7757541161083E+00
 0.7717383175042E+00
 0.1568673170837E+00
 0.2103895452521E+00
 0.2618947520994E+00
 0.3116720557492E+00
 0.3597003524079E+00
 0.4057446366735E+00
 0.4494960727241E+00
 0.4906288125744E+00
 0.5288306532096E+00
 0.5638507895248E+00
 0.5955254082496E+00
 0.6237543479755E+00
 0.6484380287985E+00
 0.6694174087409E+00
 0.6864431797653E+00
 0.6991757279513E+00
 0.7072385655122E+00
 0.7104023985489E+00
 0.7087735189516E+00
 0.7030569041580E+00
 0.1515044826072E+00
 0.1975863583986E+00
 0.2423967022087E+00
 0.2862786821276E+00
 0.3291210269932E+00
 0.3705733680887E+00
 0.4102384397230E+00
 0.4477262666861E+00
 0.4826718794361E+00
 0.5147817262538E+00
 0.5438601721197E+00
 0.5697850755405E+00
 0.5924410140934E+00
 0.6116555033171E+00
 0.6271599946249E+00
 0.6385667501690E+00
 0.6453944571631E+00
 0.6472812549206E+00
 0.6442408016551E+00
 0.6371526176280E+00
 0.1461162188166E+00
 0.1846469719192E+00
 0.2227605050452E+00
 0.2608163322645E+00
 0.2985737248429E+00
 0.3355426675355E+00
 0.3712308982775E+00
 0.4051862511630E+00
 0.4369923581639E+00
 0.4663133481242E+00
 0.4929215451466E+00
 0.5166725632788E+00
 0.5374363483265E+00
 0.5550337630247E+00
 0.5691971558329E+00
 0.5795243476792E+00
 0.5854439185833E+00
 0.5864320713910E+00
 0.5823181117560E+00
 0.5741588529351E+00
 0.1406338047817E+00
 0.1714859073399E+00
 0.2029259924547E+00
 0.2352563798808E+00
 0.2680548199807E+00
 0.3006630691186E+00
 0.3324940165274E+00
 0.3630378263968E+00
 0.3918295887012E+00
 0.4184922990145E+00
 0.4427656245102E+00
 0.4644808189419E+00
 0.4834899476775E+00
 0.4996075130325E+00
 0.5125795419871E+00
 0.5220353739773E+00
 0.5273835610218E+00
 0.5279300186136E+00
 0.5231680182916E+00
 0.5142084214928E+00
 0.1349625251815E+00
 0.1579976097585E+00
 0.1828261904705E+00
 0.2095795632696E+00
 0.2375620506267E+00
 0.2659442563498E+00
 0.2940458998571E+00
 0.3213051589018E+00
 0.3472142300502E+00
 0.3713576446494E+00
 0.3934415591345E+00
 0.4132693655082E+00
 0.4306680800921E+00
 0.4454355821677E+00
 0.4573313173421E+00
 0.4660355676392E+00
 0.4710547835242E+00
 0.4717375327677E+00
 0.4669663159436E+00
 0.4575501035681E+00
 0.1289653788847E+00
 0.1440113304573E+00
 0.1624450501274E+00
 0.1837745918705E+00
 0.2070909200788E+00
 0.2313969136234E+00
 0.2559036966615E+00
 0.2800065582131E+00
 0.3031685378981E+00
 0.3249397454073E+00
 0.3449899552948E+00
 0.3630918267379E+00
 0.3790386613062E+00
 0.3925928386050E+00
 0.4035008058069E+00
 0.4114932872457E+00
 0.4161513259732E+00
 0.4173260994049E+00
 0.4139401086850E+00
 0.4048393125380E+00
 0.1221723962841E+00
 0.1296571952484E+00
 0.1418421827085E+00
 0.1578041811964E+00
 0.1766323132624E+00
 0.1970447625270E+00
 0.2180839605392E+00
 0.2391498365557E+00
 0.2597057115183E+00
 0.2792585733142E+00
 0.2974405980044E+00
 0.3139919685383E+00
 0.3286664467608E+00
 0.3411715215215E+00
 0.3511937590304E+00
 0.3584446165510E+00
 0.3625769464564E+00
 0.3635931673778E+00
 0.3624585135782E+00
 0.3593317243017E+00
 0.3736001235656E+01
 0.3663095660736E+01
 0.2754803853528E+01
 0.2249945326299E+01
 0.1788460543819E+01
 0.1369128501323E+01
 0.1074701704709E+01
 0.9198259548842E+00
 0.8234248534558E+00
 0.7386506408747E+00
 0.6527740821708E+00
 0.5633005172750E+00
 0.4684419610649E+00
 0.3682014185050E+00
 0.2659580178906E+00
 0.1659160468150E+00
 0.6720656161002E-01
 0.4223121808659E-02
 0.7600147285999E-02
 0.4664845985352E-01
 0.3195231624703E+01
 0.3841538741820E+01
 0.3018921860848E+01
 0.2411471456057E+01
 0.1963967266401E+01
 0.1588357368931E+01
 0.1306361495058E+01
 0.1121593157808E+01
 0.9959681050613E+00
 0.8956520546198E+00
 0.8038999763346E+00
 0.7134739080008E+00
 0.6202361145229E+00
 0.5228332674677E+00
 0.4226208852867E+00
 0.3208951632230E+00
 0.2146778961375E+00
 0.1366752409683E+00
 0.1134725136401E+00
 0.1599396064944E+00
 0.2746897629191E+01
 0.3592717074916E+01
 0.3158997578104E+01
 0.2583488734152E+01
 0.2133317324786E+01
 0.1781284947516E+01
 0.1512199285159E+01
 0.1318993595567E+01
 0.1176305946491E+01
 0.1062067271589E+01
 0.9626684142453E+00
 0.8697436534447E+00
 0.7775653630206E+00
 0.6830838015236E+00
 0.5859936441468E+00
 0.4863610111780E+00
 0.3818713921588E+00
 0.2985925330986E+00
 0.2691426024481E+00
 0.3171358351409E+00
 0.2392899282678E+01
 0.3287527774274E+01
 0.3137497651035E+01
 0.2710487397127E+01
 0.2291969850369E+01
 0.1956020928781E+01
 0.1698219344317E+01
 0.1504999654515E+01
 0.1355353772810E+01
 0.1232569783351E+01
 0.1126752040925E+01
 0.1030923356993E+01
 0.9392513896751E+00
 0.8476636411255E+00
 0.7546611709856E+00
 0.6597912902775E+00
 0.5610961483923E+00
 0.4788557422248E+00
 0.4480660241043E+00
 0.4978025898486E+00
 0.2105539853697E+01
 0.2987843329090E+01
 0.3033691668118E+01
 0.2764603377772E+01
 0.2421034315744E+01
 0.2112644051740E+01
 0.1867215037487E+01
 0.1678143483079E+01
 0.1527662146242E+01
 0.1401657985630E+01
 0.1292396028342E+01
 0.1194674616977E+01
 0.1103593989366E+01
 0.1014946530966E+01
 0.9266258064637E+00
 0.8378486376282E+00
 0.7469442693198E+00
 0.6690646238983E+00
 0.6391382181605E+00
 0.6890966223377E+00
 0.1868002984015E+01
 0.2710916891734E+01
 0.2888855054243E+01
 0.2758545693673E+01
 0.2506681728697E+01
 0.2244094156176E+01
 0.2018269907274E+01
 0.1837325257205E+01
 0.1690157683048E+01
 0.1565083324534E+01
 0.1455636058121E+01
 0.1357925973728E+01
 0.1268241508001E+01
 0.1182854882522E+01
 0.1099551125623E+01
 0.1017414532911E+01
 0.9349422705858E+00
 0.8629262409739E+00
 0.8347064022254E+00
 0.8830061144230E+00
 0.1668898512570E+01
 0.2460455022989E+01
 0.2725708830113E+01
 0.2708421797727E+01
 0.2548518796209E+01
 0.2343493460221E+01
 0.2147369258111E+01
 0.1980279825796E+01
 0.1840327097420E+01
 0.1719598064436E+01
 0.1612938730637E+01
 0.1517429312284E+01
 0.1430425124559E+01
 0.1348925334352E+01
 0.1270935930892E+01
 0.1195570755794E+01
 0.1121455316066E+01
 0.1055795543817E+01
 0.1029436562196E+01
 0.1074340178659E+01
 0.1500224901851E+01
 0.2235953846104E+01
 0.2556859976713E+01
 0.2627911261920E+01
 0.2551786687756E+01
 0.2408576246110E+01
 0.2250300488698E+01
 0.2103720110519E+01
 0.1975417631492E+01
 0.1862334301020E+01
 0.1761203435155E+01
 0.1670079303118E+01
 0.1587252078371E+01
 0.1510492757092E+01
 0.1438187171402E+01
 0.1369588611750E+01
 0.1303464033034E+01
 0.1244160693402E+01
 0.1219508065475E+01
 0.1259621703792E+01
 0.1356106241579E+01
 0.2035506052525E+01
 0.2389465397167E+01
 0.2527430031743E+01
 0.2523432613512E+01
 0.2440636176279E+01
 0.2324798288786E+01
 0.2204525771936E+01
 0.2092512222634E+01
 0.1990503089910E+01
 0.1897583947839E+01
 0.1812981521950E+01
 0.1735894390022E+01
 0.1664861161525E+01
 0.1598711646392E+01
 0.1536900089953E+01
 0.1478370228678E+01
 0.1425248610931E+01
 0.1402074245691E+01
 0.1436426370927E+01
 0.1232079271305E+01
 0.1856812996357E+01
 0.2227598653237E+01
 0.2414646133420E+01
 0.2470310442124E+01
 0.2443003058155E+01
 0.2370728253389E+01
 0.2280705142022E+01
 0.2189065457285E+01
 0.2101481278773E+01
 0.2019425390211E+01
 0.1943443514424E+01
 0.1873671375870E+01
 0.1809419216479E+01
 0.1749993384358E+01
 0.1695086693471E+01
 0.1643859574824E+01
 0.1596755568751E+01
 0.1574905554561E+01
 0.1602966478948E+01
 0.1124661265217E+01
 0.1697563113521E+01
 0.2073520294022E+01
 0.2295129838328E+01
 0.2398506223479E+01
 0.2419892569587E+01
 0.2389592352082E+01
 0.2331649212082E+01
 0.2263359256486E+01
 0.2193090710454E+01
 0.2124363362487E+01
 0.2059011285745E+01
 0.1998100351132E+01
 0.1941711281083E+01
 0.1889650529328E+01
 0.1841881131101E+01
 0.1797820081591E+01
 0.1756675598758E+01
 0.1736158191412E+01
 0.1757830428304E+01
 0.1031076765621E+01
 0.1555573579585E+01
 0.1928386721435E+01
 0.2172896766295E+01
 0.2313159492020E+01
 0.2375702560741E+01
 0.2383927661138E+01
 0.2357980103417E+01
 0.2314672479392E+01
 0.2263838006600E+01
 0.2210495624802E+01
 0.2157569514983E+01
 0.2106966072075E+01
 0.2059499012929E+01
 0.2015483198993E+01
 0.1975180546363E+01
 0.1938302667404E+01
 0.1903200511678E+01
 0.1884231307222E+01
 0.1899827112245E+01
 0.9490772843473E+00
 0.1428837050120E+01
 0.1792662904711E+01
 0.2050815530300E+01
 0.2218489626239E+01
 0.2314627248281E+01
 0.2356809762766E+01
 0.2361246940800E+01
 0.2343231159203E+01
 0.2313017754276E+01
 0.2276523246609E+01
 0.2237461758260E+01
 0.2198412688324E+01
 0.2160833639948E+01
 0.2125527846085E+01
 0.2093074990729E+01
 0.2063514517404E+01
 0.2034670933516E+01
 0.2017686361522E+01
 0.2027901486411E+01
 0.8768176409107E+00
 0.1315529517375E+01
 0.1666372075279E+01
 0.1930904532434E+01
 0.2117895754670E+01
 0.2240468741240E+01
 0.2311497958250E+01
 0.2343611075582E+01
 0.2350044116006E+01
 0.2340691236802E+01
 0.2321813379026E+01
 0.2297581986823E+01
 0.2271034432370E+01
 0.2244136300833E+01
 0.2218123853010E+01
 0.2193894834879E+01
 0.2171840808012E+01
 0.2149564661138E+01
 0.2135209137709E+01
 0.2141096897220E+01
 0.8127677528487E+00
 0.1214002132002E+01
 0.1549252517845E+01
 0.1814547427296E+01
 0.2014074124745E+01
 0.2156562407499E+01
 0.2251202344698E+01
 0.2307578331999E+01
 0.2336702373976E+01
 0.2347586084801E+01
 0.2346384247519E+01
 0.2337412828829E+01
 0.2323939381553E+01
 0.2308270933789E+01
 0.2291986707490E+01
 0.2276276403648E+01
 0.2261893000448E+01
 0.2246514325764E+01
 0.2235599591482E+01
 0.2238545512144E+01
 0.7556466687542E+00
 0.1122766637669E+01
 0.1440859900779E+01
 0.1702652088053E+01
 0.1909130720586E+01
 0.2065764663590E+01
 0.2178940888191E+01
 0.2255792454092E+01
 0.2305186361327E+01
 0.2334959851621E+01
 0.2350833892238E+01
 0.2357008780241E+01
 0.2356771174162E+01
 0.2352592294903E+01
 0.2346275046564E+01
 0.2339240448916E+01
 0.2332584262593E+01
 0.2324353097473E+01
 0.2317779029135E+01
 0.2319470760018E+01
 0.7043700222653E+00
 0.1040476069593E+01
 0.1340639890846E+01
 0.1595771242058E+01
 0.1804682491849E+01
 0.1970472169747E+01
 0.2097457998065E+01
 0.2190885408363E+01
 0.2257700750048E+01
 0.2304457788342E+01
 0.2336237849517E+01
 0.2356935286382E+01
 0.2369684363113E+01
 0.2376954004786E+01
 0.2380633568394E+01
 0.2382272770546E+01
 0.2383235436685E+01
 0.2382200841762E+01
 0.2380813782734E+01
 0.2383185651113E+01
 0.6579959077738E+00
 0.9659106014069E+00
 0.1247982570410E+01
 0.1494208090825E+01
 0.1701941769580E+01
 0.1872652773282E+01
 0.2009183158298E+01
 0.2115374235845E+01
 0.2196543321461E+01
 0.2257983452563E+01
 0.2304038200794E+01
 0.2338180670592E+01
 0.2363277423551E+01
 0.2381664043444E+01
 0.2395183706119E+01
 0.2405378437874E+01
 0.2413712453140E+01
 0.2419626149375E+01
 0.2423987871925E+01
 0.2429070475092E+01
 0.6156741236955E+00
 0.8978993931551E+00
 0.1162355433514E+01
 0.1398099606539E+01
 0.1601772230666E+01
 0.1773877317678E+01
 0.1916213165077E+01
 0.2031595106057E+01
 0.2124007444743E+01
 0.2197592466040E+01
 0.2255943280676E+01
 0.2302063548141E+01
 0.2338499730635E+01
 0.2367383014339E+01
 0.2390424385407E+01
 0.2409031794375E+01
 0.2424533868306E+01
 0.2436953284812E+01
 0.2447046437586E+01
 0.2456550641506E+01
 0.5761450935014E+00
 0.8358489137142E+00
 0.1083464433744E+01
 0.1307430563972E+01
 0.1504719232532E+01
 0.1675326766210E+01
 0.1820317369318E+01
 0.1941670343561E+01
 0.2042311368905E+01
 0.2125411302847E+01
 0.2193854906297E+01
 0.2250165777084E+01
 0.2296571662102E+01
 0.2334997895032E+01
 0.2367022937993E+01
 0.2393908408668E+01
 0.2416671871036E+01
 0.2435525868365E+01
 0.2451060623911E+01
 0.2465197206890E+01
 0.1120584203536E+00
 0.1131218422711E+00
 0.1184968674213E+00
 0.1288255596376E+00
 0.1427229086721E+00
 0.1586103764830E+00
 0.1752555373242E+00
 0.1923022202956E+00
 0.2093023219038E+00
 0.2256901453635E+00
 0.2410382921581E+00
 0.2550522010643E+00
 0.2674945017258E+00
 0.2780875883152E+00
 0.2865754634451E+00
 0.2928452169507E+00
 0.2971650149977E+00
 0.2999539576183E+00
 0.3037230540823E+00
 0.3118801166494E+00
 0.1033618735833E+00
 0.9509704159642E-01
 0.9338232949464E-01
 0.9759775670793E-01
 0.1059948132050E+00
 0.1165735965948E+00
 0.1280345541763E+00
 0.1402830465005E+00
 0.1529821631621E+00
 0.1655152140405E+00
 0.1773965987021E+00
 0.1883178271671E+00
 0.1980882376929E+00
 0.2065312401300E+00
 0.2136018465906E+00
 0.2195581779682E+00
 0.2250170133164E+00
 0.2304938984165E+00
 0.2380164287829E+00
 0.2405142144443E+00
 0.9413359319419E-01
 0.7518483185789E-01
 0.6599395429362E-01
 0.6426670650544E-01
 0.6743347117695E-01
 0.7305532522308E-01
 0.7979634967842E-01
 0.8778710002792E-01
 0.9676303574499E-01
 0.1060652000687E+00
 0.1151807742653E+00
 0.1238259318781E+00
 0.1318726081666E+00
 0.1392371341597E+00
 0.1460103528455E+00
 0.1525022717263E+00
 0.1589200662195E+00
 0.1652887221472E+00
 0.1713702102156E+00
 0.1743366093303E+00
 0.8385893180736E-01
 0.5340617721658E-01
 0.3653379466508E-01
 0.2926663792192E-01
 0.2772159797890E-01
 0.2886982683815E-01
 0.3139887652776E-01
 0.3567269321433E-01
 0.4151051618446E-01
 0.4823292282360E-01
 0.5531509723785E-01
 0.6249439453020E-01
 0.6966858541318E-01
 0.7676104598180E-01
 0.8382392957510E-01
 0.9095036872678E-01
 0.9780626572952E-01
 0.1040025912459E+00
 0.1105104230334E+00
 0.1185847966205E+00
 0.7231092180014E-01
 0.2953205306611E-01
 0.7919868493150E-02
 0.1245486496934E-01
 0.1767520775926E-01
 0.2004730393863E-01
 0.2077519788166E-01
 0.1934371278846E-01
 0.1601088374571E-01
 0.1180817921903E-01
 0.8367486100854E-02
 0.8816660573570E-02
 0.1359516818929E-01
 0.2019443974332E-01
 0.2755938653134E-01
 0.3528843209502E-01
 0.4260746944615E-01
 0.4961917404052E-01
 0.5892930065465E-01
 0.7298729272924E-01
 0.5927419126488E-01
 0.4787762880175E-02
 0.3135908039736E-01
 0.4967887339562E-01
 0.5939491970140E-01
 0.6513257966685E-01
 0.6864410553801E-01
 0.6921552819659E-01
 0.6700090425451E-01
 0.6280241763621E-01
 0.5719143048009E-01
 0.5044980917695E-01
 0.4276921199925E-01
 0.3441385936881E-01
 0.2561452138884E-01
 0.1674678608742E-01
 0.9087679925637E-02
 0.6769263454865E-02
 0.1767311040144E-01
 0.3733483454017E-01
 0.4454795101351E-01
 0.2642474110844E-01
 0.6775803105831E-01
 0.9066541245281E-01
 0.1033485783247E+00
 0.1114279748646E+00
 0.1168449621228E+00
 0.1187161664547E+00
 0.1171847309014E+00
 0.1131057395621E+00
 0.1070879231985E+00
 0.9946105710878E-01
 0.9049739490044E-01
 0.8053945365205E-01
 0.6983020071467E-01
 0.5858860370835E-01
 0.4737183635554E-01
 0.3444239113401E-01
 0.1595757909901E-01
 0.1142569778544E-01
 0.2801069394475E-01
 0.5820558915449E-01
 0.1069029066554E+00
 0.1334409282909E+00
 0.1481185284482E+00
 0.1575926535990E+00
 0.1640062559922E+00
 0.1663192141322E+00
 0.1646678971452E+00
 0.1599554545151E+00
 0.1528368837245E+00
 0.1437107896208E+00
 0.1329413624868E+00
 0.1209358065602E+00
 0.1079293731619E+00
 0.9404128427375E-01
 0.7961621200942E-01
 0.6234496931750E-01
 0.3828033079570E-01
 0.7241808288680E-02
 0.1061103779093E-01
 0.9323052169232E-01
 0.1485886936309E+00
 0.1776885356149E+00
 0.1932700217487E+00
 0.2031110332587E+00
 0.2095628480824E+00
 0.2114369667451E+00
 0.2088601089872E+00
 0.2027724855195E+00
 0.1938807640688E+00
 0.1826646239394E+00
 0.1695738253535E+00
 0.1550444661010E+00
 0.1392566886941E+00
 0.1221957654262E+00
 0.1040007386214E+00
 0.8204642965746E-01
 0.5273188277460E-01
 0.1645615537869E-01
 0.1550340369465E-01
 0.1316694606962E+00
 0.1927642674449E+00
 0.2231553978996E+00
 0.2384184433035E+00
 0.2475187413463E+00
 0.2530058605775E+00
 0.2535473754200E+00
 0.2492510957330E+00
 0.2410799040260E+00
 0.2297992141690E+00
 0.2159799827982E+00
 0.2001441344959E+00
 0.1827193640034E+00
 0.1637976707016E+00
 0.1432251009154E+00
 0.1209707188378E+00
 0.9431687638193E-01
 0.6017604644322E-01
 0.1963479985782E-01
 0.3916168488694E-01
 0.1737576457571E+00
 0.2393742183784E+00
 0.2695739044247E+00
 0.2831726974197E+00
 0.2903531944829E+00
 0.2938317419032E+00
 0.2921373321252E+00
 0.2853480935548E+00
 0.2744367326485E+00
 0.2602389641310E+00
 0.2434234752220E+00
 0.2245604262052E+00
 0.2040278000070E+00
 0.1818066796898E+00
 0.1576178212561E+00
 0.1313102298521E+00
 0.1002714519627E+00
 0.6200261451001E-01
 0.1807611303464E-01
 0.6692061328719E-01
 0.2197346323207E+00
 0.2883333419833E+00
 0.3166501463527E+00
 0.3271308257853E+00
 0.3311467073094E+00
 0.3315269835468E+00
 0.3266819336730E+00
 0.3166579308524E+00
 0.3024309290203E+00
 0.2849200486688E+00
 0.2648840381447E+00
 0.2428965374231E+00
 0.2192352974882E+00
 0.1937552112624E+00
 0.1660806833381E+00
 0.1360023052186E+00
 0.1011889806506E+00
 0.5975350855028E-01
 0.1352275042649E-01
 0.9855468707874E-01
 0.2698277337135E+00
 0.3395158635056E+00
 0.3640669763775E+00
 0.3698890703912E+00
 0.3694256825182E+00
 0.3655510170231E+00
 0.3566218080348E+00
 0.3426750137533E+00
 0.3246879473307E+00
 0.3036619188011E+00
 0.2804023735660E+00
 0.2554076654925E+00
 0.2287946952799E+00
 0.2002883202139E+00
 0.1694632198818E+00
 0.1361273705936E+00
 0.9839039719966E-01
 0.5496929911376E-01
 0.7772965904068E-02
 0.1344161834449E+00
 0.3242345423264E+00
 0.3927467931908E+00
 0.4114981457808E+00
 0.4110618388276E+00
 0.4047067047453E+00
 0.3953035354300E+00
 0.3813292710927E+00
 0.3628749350886E+00
 0.3408988526117E+00
 0.3164297488523E+00
 0.2902090452131E+00
 0.2625408752859E+00
 0.2333225009049E+00
 0.2021694744190E+00
 0.1686770136873E+00
 0.1327604921318E+00
 0.9311536815859E-01
 0.4903651953299E-01
 0.2892455194821E-02
 0.1749560048967E+00
 0.3830939113823E+00
 0.4477914118551E+00
 0.4586409993331E+00
 0.4503173826916E+00
 0.4364777537379E+00
 0.4200579864534E+00
 0.4000612105816E+00
 0.3767288254857E+00
 0.3508852335783E+00
 0.3234050768449E+00
 0.2947623705779E+00
 0.2649276116961E+00
 0.2335535781706E+00
 0.2002109217274E+00
 0.1646106301762E+00
 0.1268708517719E+00
 0.8640498037398E-01
 0.4304451523099E-01
 0.3387269573542E-02
 0.2206623477119E+00
 0.4464280471103E+00
 0.5043381428448E+00
 0.5052895244570E+00
 0.4874403055484E+00
 0.4641328675719E+00
 0.4388331499076E+00
 0.4119126293293E+00
 0.3837799722543E+00
 0.3547220428576E+00
 0.3250720229383E+00
 0.2947631606244E+00
 0.2633402028125E+00
 0.2302697062396E+00
 0.1951956316732E+00
 0.1580510914510E+00
 0.1192370209062E+00
 0.7900899547271E-01
 0.3767794561446E-01
 0.5254895276374E-02
 0.2720229866206E+00
 0.5140085324679E+00
 0.5619585007626E+00
 0.5515197748025E+00
 0.5224234233342E+00
 0.4867801096916E+00
 0.4501613671700E+00
 0.4158583025470E+00
 0.3838454715403E+00
 0.3529195808809E+00
 0.3222784265428E+00
 0.2911059843232E+00
 0.2585994041037E+00
 0.2242109496464E+00
 0.1878078305004E+00
 0.1496280125311E+00
 0.1103934106524E+00
 0.7133327690058E-01
 0.3316687777119E-01
 0.5368636559309E-02
 0.3294382295450E+00
 0.5849355659257E+00
 0.6200692906270E+00
 0.5981577313856E+00
 0.5555836132008E+00
 0.5026217850947E+00
 0.4519177616741E+00
 0.4110311243398E+00
 0.3773926747243E+00
 0.3466042265866E+00
 0.3161784628217E+00
 0.2847327270559E+00
 0.2514490980409E+00
 0.2159990115685E+00
 0.1785929467655E+00
 0.1397972227667E+00
 0.1006170327574E+00
 0.6343232401613E-01
 0.2929201349537E-01
 0.4003001664594E-02
 0.3930962668607E+00
 0.6562937711283E+00
 0.6776743169967E+00
 0.6488664074380E+00
 0.5863675681851E+00
 0.5081960005632E+00
 0.4414399088248E+00
 0.3974458112617E+00
 0.3660696166751E+00
 0.3374666338236E+00
 0.3079576752999E+00
 0.2764270680150E+00
 0.2424625316174E+00
 0.2060973245270E+00
 0.1679629193434E+00
 0.1288727017294E+00
 0.8997185285881E-01
 0.5501987280142E-01
 0.2540354127643E-01
 0.2123890507146E-02
 0.4593916285686E+00
 0.7098224494324E+00
 0.7438434542127E+00
 0.7080023099100E+00
 0.6119537676157E+00
 0.4974921636106E+00
 0.4163820393989E+00
 0.3776361027653E+00
 0.3527731765179E+00
 0.3271802804413E+00
 0.2984101589705E+00
 0.2667086598608E+00
 0.2320768460715E+00
 0.1947739064533E+00
 0.1561487170789E+00
 0.1172808561130E+00
 0.7842451270227E-01
 0.4528228641047E-01
 0.2030529711336E-01
 0.9307281129434E-03
 0.2475688937813E+01
 0.2471054617159E+01
 0.2448565655517E+01
 0.2409232124793E+01
 0.2353333960811E+01
 0.2281140805460E+01
 0.2193095406568E+01
 0.2089804669778E+01
 0.1972010754517E+01
 0.1840561796846E+01
 0.1696392678634E+01
 0.1540524675705E+01
 0.1374097011037E+01
 0.1198449595352E+01
 0.1015285863036E+01
 0.8269626237250E+00
 0.6370033733153E+00
 0.4510985826381E+00
 0.2794629382486E+00
 0.1463303334573E+00
 0.2480141995567E+01
 0.2484009442643E+01
 0.2471900899823E+01
 0.2443336595497E+01
 0.2398531460108E+01
 0.2337762234902E+01
 0.2261394579854E+01
 0.2169927495958E+01
 0.2063995641410E+01
 0.1944354556099E+01
 0.1811863557377E+01
 0.1667479088410E+01
 0.1512272574865E+01
 0.1347491571167E+01
 0.1174689896028E+01
 0.9959615009612E+00
 0.8143309385795E+00
 0.6344240998061E+00
 0.4639188057916E+00
 0.3191456635914E+00
 0.2481116700611E+01
 0.2492088075452E+01
 0.2489121426912E+01
 0.2470941458864E+01
 0.2437216769790E+01
 0.2388006315170E+01
 0.2323530419022E+01
 0.2244144279172E+01
 0.2150339391574E+01
 0.2042737065812E+01
 0.1922075561380E+01
 0.1789200094757E+01
 0.1645068847602E+01
 0.1490792634150E+01
 0.1327731134745E+01
 0.1157670822394E+01
 0.9830944644731E+00
 0.8074968004876E+00
 0.6355559200570E+00
 0.4711011395746E+00
 0.2478138540892E+01
 0.2495366600891E+01
 0.2500476202515E+01
 0.2491866724767E+01
 0.2468772619765E+01
 0.2430906057453E+01
 0.2378240714679E+01
 0.2310921182805E+01
 0.2229237163275E+01
 0.2133610438806E+01
 0.2024578517088E+01
 0.1902774924424E+01
 0.1768913606313E+01
 0.1623790581994E+01
 0.1468321643729E+01
 0.1303636298499E+01
 0.1131229232845E+01
 0.9530512733921E+00
 0.7710163209865E+00
 0.5832127703616E+00
 0.2470824540616E+01
 0.2493588862279E+01
 0.2505822013866E+01
 0.2505863571998E+01
 0.2492679779173E+01
 0.2465674945485E+01
 0.2424539259006E+01
 0.2369161007287E+01
 0.2299584098900E+01
 0.2215985100966E+01
 0.2118650703103E+01
 0.2007948021776E+01
 0.1884287817553E+01
 0.1748086738882E+01
 0.1599741284761E+01
 0.1439633595820E+01
 0.1268187351901E+01
 0.1085946780630E+01
 0.8932993549214E+00
 0.6897104108945E+00
 0.2458928965977E+01
 0.2486567376702E+01
 0.2505027999605E+01
 0.2512752248328E+01
 0.2508587264053E+01
 0.2491718277702E+01
 0.2461584968982E+01
 0.2417819108193E+01
 0.2360206107513E+01
 0.2288659532382E+01
 0.2203196165291E+01
 0.2103902039831E+01
 0.1990884047889E+01
 0.1864205904817E+01
 0.1723813079028E+01
 0.1569462164912E+01
 0.1400692769254E+01
 0.1216922075309E+01
 0.1017831318268E+01
 0.8040984231792E+00
 0.2442288878204E+01
 0.2474180141238E+01
 0.2498051670141E+01
 0.2512531983469E+01
 0.2516461109284E+01
 0.2508901048409E+01
 0.2489105972205E+01
 0.2456489443380E+01
 0.2410598914553E+01
 0.2351095532766E+01
 0.2277732270266E+01
 0.2190322344177E+01
 0.2088690311060E+01
 0.1972599351898E+01
 0.1841650797563E+01
 0.1695159549053E+01
 0.1532034060853E+01
 0.1350763675512E+01
 0.1149889199683E+01
 0.9293561131335E+00
 0.2420794702058E+01
 0.2456309878405E+01
 0.2484816568474E+01
 0.2505162812495E+01
 0.2516257499341E+01
 0.2517123301378E+01
 0.2506903628913E+01
 0.2484854422326E+01
 0.2450333189995E+01
 0.2402787488498E+01
 0.2341739774926E+01
 0.2266762870413E+01
 0.2177438752899E+01
 0.2073292104902E+01
 0.1953688757220E+01
 0.1817689315124E+01
 0.1663854386029E+01
 0.1490036757958E+01
 0.1293294666495E+01
 0.1071030965683E+01
 0.2394392065810E+01
 0.2432871178618E+01
 0.2465245858895E+01
 0.2490585217729E+01
 0.2507911144897E+01
 0.2516270987982E+01
 0.2514766166030E+01
 0.2502561286664E+01
 0.2478885588970E+01
 0.2443030618712E+01
 0.2394343359948E+01
 0.2332211187966E+01
 0.2256032886402E+01
 0.2165167729306E+01
 0.2058851403267E+01
 0.1936061996736E+01
 0.1795310117303E+01
 0.1634304620675E+01
 0.1449425331461E+01
 0.1234868868570E+01
 0.2363071692238E+01
 0.2403809016521E+01
 0.2439271202688E+01
 0.2468730419095E+01
 0.2491340524599E+01
 0.2506215735127E+01
 0.2512469506020E+01
 0.2509233999463E+01
 0.2495670667671E+01
 0.2470976255850E+01
 0.2434384767028E+01
 0.2385163444343E+01
 0.2322598890025E+01
 0.2245967385672E+01
 0.2154480380696E+01
 0.2047190389187E+01
 0.1922829591716E+01
 0.1779523916565E+01
 0.1614231667459E+01
 0.1421333249245E+01
 0.2326864301028E+01
 0.2369102516992E+01
 0.2406843668436E+01
 0.2439532161179E+01
 0.2466454431342E+01
 0.2486814175335E+01
 0.2499773045177E+01
 0.2504474666906E+01
 0.2500060791422E+01
 0.2485683783679E+01
 0.2460516817401E+01
 0.2423761267658E+01
 0.2374649423121E+01
 0.2312439426934E+01
 0.2236397876072E+01
 0.2145762949382E+01
 0.2039676109250E+01
 0.1917059198362E+01
 0.1776387849657E+01
 0.1615295199135E+01
 0.2285817824904E+01
 0.2328743109577E+01
 0.2367916118539E+01
 0.2402914845910E+01
 0.2433148722484E+01
 0.2457920061730E+01
 0.2476460537379E+01
 0.2487955058911E+01
 0.2491559852703E+01
 0.2486418530130E+01
 0.2471678000891E+01
 0.2446504808994E+01
 0.2410101650176E+01
 0.2361723415334E+01
 0.2300692110100E+01
 0.2226410623223E+01
 0.2138377184128E+01
 0.2036209057776E+01
 0.1919710145598E+01
 0.1789145321511E+01
 0.2240002522273E+01
 0.2282759182144E+01
 0.2322472097076E+01
 0.2358820722069E+01
 0.2391325101171E+01
 0.2419388341497E+01
 0.2442325137350E+01
 0.2459382067087E+01
 0.2469754285878E+01
 0.2472601784860E+01
 0.2467067259252E+01
 0.2452296818986E+01
 0.2427464284733E+01
 0.2391799727478E+01
 0.2344623457563E+01
 0.2285388242640E+01
 0.2213736001042E+01
 0.2129582550749E+01
 0.2033261648744E+01
 0.1925765264911E+01
 0.2189512100345E+01
 0.2231226260051E+01
 0.2270549883659E+01
 0.2307245653786E+01
 0.2340933493866E+01
 0.2371116501470E+01
 0.2397200359366E+01
 0.2418508005990E+01
 0.2434292372280E+01
 0.2443749711112E+01
 0.2446035531038E+01
 0.2440284674625E+01
 0.2425636719842E+01
 0.2401267717962E+01
 0.2366429493403E+01
 0.2320498621093E+01
 0.2263038905085E+01
 0.2193882960390E+01
 0.2113234258188E+01
 0.2021772872455E+01
 0.2134463224258E+01
 0.2174259442997E+01
 0.2212242638165E+01
 0.2248250319477E+01
 0.2281994544478E+01
 0.2313076588914E+01
 0.2340998214102E+01
 0.2365170013212E+01
 0.2384918602516E+01
 0.2399494637159E+01
 0.2408083512143E+01
 0.2409820386384E+01
 0.2403810878633E+01
 0.2389158419596E+01
 0.2364998840773E+01
 0.2330542436401E+01
 0.2285123613938E+01
 0.2228257609289E+01
 0.2159699917565E+01
 0.2079496393998E+01
 0.2075001328168E+01
 0.2112013741118E+01
 0.2147699299431E+01
 0.2181965642249E+01
 0.2214611040830E+01
 0.2245332623259E+01
 0.2273731445759E+01
 0.2299314932447E+01
 0.2321497985056E+01
 0.2339604323412E+01
 0.2352869688901E+01
 0.2360448526014E+01
 0.2361425620012E+01
 0.2354833798379E+01
 0.2339678051623E+01
 0.2314965223751E+01
 0.2279736877574E+01
 0.2233102461074E+01
 0.2174272972598E+01
 0.2102596602153E+01
 0.2011307563461E+01
 0.2044689736449E+01
 0.2077129752078E+01
 0.2108600113555E+01
 0.2138979211821E+01
 0.2168056599992E+01
 0.2195534015720E+01
 0.2221023101387E+01
 0.2244040911445E+01
 0.2264004392361E+01
 0.2280225133164E+01
 0.2291905831249E+01
 0.2298140044381E+01
 0.2297916758386E+01
 0.2290130826097E+01
 0.2273599075443E+01
 0.2247079681649E+01
 0.2209289321151E+01
 0.2158914017973E+01
 0.2094627235035E+01
 0.1943604793069E+01
 0.1972540756294E+01
 0.2000812642610E+01
 0.2028449621179E+01
 0.2055402133810E+01
 0.2081546556737E+01
 0.2106684195568E+01
 0.2130535961705E+01
 0.2152733666214E+01
 0.2172808694451E+01
 0.2190178859123E+01
 0.2204134443703E+01
 0.2213824828504E+01
 0.2218247588490E+01
 0.2216242369745E+01
 0.2206491710312E+01
 0.2187529428087E+01
 0.2157753210524E+01
 0.2115426105297E+01
 0.2058648688642E+01
 0.1872162051838E+01
 0.1895879843646E+01
 0.1919104270546E+01
 0.1941908925324E+01
 0.1964305027849E+01
 0.1986246954642E+01
 0.2007630927552E+01
 0.2028288610587E+01
 0.2047976340863E+01
 0.2066360265120E+01
 0.2082997515723E+01
 0.2097313659544E+01
 0.2108577057636E+01
 0.2115871609096E+01
 0.2118070751396E+01
 0.2113817448361E+01
 0.2101516338722E+01
 0.2079343487706E+01
 0.2045273852451E+01
 0.1997070492416E+01
 0.1797297443860E+01
 0.1815085965870E+01
 0.1832447659831E+01
 0.1849483896904E+01
 0.1866251847946E+01
 0.1882771162976E+01
 0.1899023742375E+01
 0.1914948336953E+01
 0.1930430374200E+01
 0.1945286840554E+01
 0.1959245659122E+01
 0.1971918782447E+01
 0.1982768244591E+01
 0.1991064920938E+01
 0.1995841185932E+01
 0.1995841828857E+01
 0.1989483168920E+01
 0.1974836944190E+01
 0.1949664403055E+01
 0.1911557554730E+01
 0.1719380549382E+01
 0.1730610236899E+01
 0.1741381263342E+01
 0.1751803388176E+01
 0.1761961859945E+01
 0.1771924827483E+01
 0.1781745450333E+01
 0.1791459398838E+01
 0.1801078021248E+01
 0.1810576788705E+01
 0.1819878016288E+01
 0.1828826217787E+01
 0.1837153778138E+01
 0.1844434010954E+01
 0.1850018489502E+01
 0.1852956833437E+01
 0.1851902786471E+01
 0.1845024773133E+01
 0.1829955301604E+01
 0.1803863761746E+01
 0.1638835080272E+01
 0.1642980245079E+01
 0.1646544381791E+01
 0.1649627009108E+01
 0.1652321372943E+01
 0.1654724070689E+01
 0.1656940322690E+01
 0.1659085745470E+01
 0.1661285093329E+01
 0.1663667822767E+01
 0.1666359603837E+01
 0.1669467996094E+01
 0.1673059240620E+01
 0.1677121234831E+01
 0.1681504929034E+01
 0.1685832521057E+01
 0.1689356783158E+01
 0.1690760593130E+01
 0.1687919985969E+01
 0.1677621361633E+01
 0.1556128041397E+01
 0.1552784274420E+01
 0.1548661238391E+01
 0.1543829687410E+01
 0.1538370359076E+01
 0.1532386913907E+01
 0.1526014666241E+01
 0.1519427028112E+01
 0.1512840920591E+01
 0.1506521782987E+01
 0.1500788181253E+01
 0.1496015255753E+01
 0.1492635084419E+01
 0.1491129952179E+01
 0.1492010494903E+01
 0.1495762625214E+01
 0.1502731276027E+01
 0.1512876277329E+01
 0.1525315048790E+01
 0.1537713402054E+01
 0.1471772198224E+01
 0.1460675336129E+01
 0.1448547329681E+01
 0.1435411943088E+01
 0.1421318810490E+01
 0.1406359512615E+01
 0.1390678975847E+01
 0.1374485696972E+01
 0.1358063298573E+01
 0.1341785234698E+01
 0.1326134115315E+01
 0.1311726991163E+01
 0.1299347870279E+01
 0.1289988409249E+01
 0.1284896408305E+01
 0.1285627426110E+01
 0.1294081483192E+01
 0.1312467635906E+01
 0.1342980232211E+01
 0.1386795365435E+01
 0.1386322299925E+01
 0.1367368970297E+01
 0.1347107610025E+01
 0.1325499550254E+01
 0.1302550662683E+01
 0.1278329344376E+01
 0.1252978480685E+01
 0.1226727226128E+01
 0.1199906548021E+01
 0.1172971540399E+01
 0.1146533452823E+01
 0.1121405103575E+01
 0.1098664937380E+01
 0.1079747789306E+01
 0.1066575140412E+01
 0.1061745784399E+01
 0.1068821223069E+01
 0.1092759781797E+01
 0.1140566196059E+01
 0.1221448720503E+01
 0.1300366486650E+01
 0.1273634000050E+01
 0.1245325757684E+01
 0.1215331543564E+01
 0.1183612988772E+01
 0.1150220684132E+01
 0.1115303441202E+01
 0.1079118614214E+01
 0.1042048638194E+01
 0.1004627362782E+01
 0.9675797329818E+00
 0.9318796062952E+00
 0.8988331849312E+00
 0.8702005005554E+00
 0.8483766990156E+00
 0.8366731177256E+00
 0.8397786861065E+00
 0.8645760682303E+00
 0.9217815198309E+00
 0.1030076437708E+01
 0.1214515788438E+01
 0.1180280185877E+01
 0.1144248157513E+01
 0.1106240407123E+01
 0.1066194693938E+01
 0.1024176869935E+01
 0.9803836275433E+00
 0.9351489511671E+00
 0.8889597417533E+00
 0.8424835232823E+00
 0.7966107292010E+00
 0.7525149587412E+00
 0.7117366188973E+00
 0.6762989296162E+00
 0.6488714372749E+00
 0.6330080726740E+00
 0.6335095641141E+00
 0.6570255620206E+00
 0.7131346699374E+00
 0.8174166785911E+00
 0.1129391400931E+01
 0.1088141086189E+01
 0.1044957363198E+01
 0.9996132126913E+00
 0.9520727540485E+00
 0.9024878348818E+00
 0.8511906763399E+00
 0.7986958811181E+00
 0.7457158213969E+00
 0.6931899141935E+00
 0.6423271363503E+00
 0.5946607132999E+00
 0.5521132207950E+00
 0.5170682008678E+00
 0.4924387320046E+00
 0.4817085901752E+00
 0.4888866373549E+00
 0.5181982571762E+00
 0.5730496162119E+00
 0.6509181439800E+00
 0.1045607381484E+01
 0.9980424937927E+00
 0.9485138076496E+00
 0.8967915179242E+00
 0.8429442980302E+00
 0.7873084944097E+00
 0.7304643695982E+00
 0.6732298114442E+00
 0.6166710483900E+00
 0.5621254730786E+00
 0.5112295290222E+00
 0.4659421881932E+00
 0.4285497493379E+00
 0.4016278111996E+00
 0.3879164103298E+00
 0.3900257532535E+00
 0.4098069747602E+00
 0.4470448653374E+00
 0.4965382884576E+00
 0.5421979200449E+00
 0.9637502280274E+00
 0.9107561614962E+00
 0.8558734670915E+00
 0.7989386860951E+00
 0.7402187464978E+00
 0.6803360458489E+00
 0.6202153090483E+00
 0.5610571484006E+00
 0.5043291329357E+00
 0.4517602296353E+00
 0.4053222261398E+00
 0.3671780750526E+00
 0.3395696417562E+00
 0.3246039063409E+00
 0.3238759502359E+00
 0.3378369870589E+00
 0.3647740460852E+00
 0.3992194590938E+00
 0.4298781171631E+00
 0.4396715388295E+00
 0.8843522863310E+00
 0.8269344000094E+00
 0.7677887552477E+00
 0.7069052873602E+00
 0.6448464391767E+00
 0.5826038709377E+00
 0.5214965890138E+00
 0.4631085718384E+00
 0.4092422954380E+00
 0.3618626634124E+00
 0.3230065871857E+00
 0.2946321445113E+00
 0.2783769502460E+00
 0.2751908935144E+00
 0.2848099257212E+00
 0.3050528998624E+00
 0.3309788307742E+00
 0.3541699683593E+00
 0.3632129834101E+00
 0.3469119655062E+00
 0.8078631483860E+00
 0.7470604539610E+00
 0.6847535463556E+00
 0.6211790341436E+00
 0.5572883374367E+00
 0.4944914506985E+00
 0.4344874291309E+00
 0.3791556932659E+00
 0.3304633523254E+00
 0.2903517849659E+00
 0.2605746091227E+00
 0.2424645775929E+00
 0.2366132385155E+00
 0.2424622079849E+00
 0.2578351625997E+00
 0.2784950984384E+00
 0.2979406530918E+00
 0.3079440973081E+00
 0.3004904878201E+00
 0.2709509220462E+00
 0.7346568389650E+00
 0.6714873693210E+00
 0.6070649867253E+00
 0.5419758022247E+00
 0.4776422994279E+00
 0.4158942074939E+00
 0.3587245496635E+00
 0.3081418047839E+00
 0.2660421973401E+00
 0.2340565755192E+00
 0.2133470050206E+00
 0.2043447553480E+00
 0.2064412222602E+00
 0.2176741832605E+00
 0.2344910489449E+00
 0.2517334161288E+00
 0.2630968143733E+00
 0.2623683676103E+00
 0.2454075905580E+00
 0.2120682460554E+00
 0.6650381020056E+00
 0.6004549276395E+00
 0.5348349885632E+00
 0.4692522535536E+00
 0.4056681717049E+00
 0.3462782509733E+00
 0.2932183551990E+00
 0.2484119995209E+00
 0.2134433587035E+00
 0.1894011423968E+00
 0.1766800582213E+00
 0.1747519394853E+00
 0.1819490866884E+00
 0.1953302037759E+00
 0.2107248175992E+00
 0.2230910236233E+00
 0.2273354747961E+00
 0.2195960582009E+00
 0.1985977959347E+00
 0.1662739332809E+00
 0.5992364267926E+00
 0.5340732140341E+00
 0.4679765417616E+00
 0.4027174725824E+00
 0.3408431326814E+00
 0.2847975824314E+00
 0.2366528338807E+00
 0.1980242171907E+00
 0.1699916669083E+00
 0.1529809900262E+00
 0.1466061537359E+00
 0.1495157020194E+00
 0.1593070982395E+00
 0.1725799327402E+00
 0.1852031121343E+00
 0.1928731843496E+00
 0.1919751170804E+00
 0.1805607148844E+00
 0.1589993117613E+00
 0.1298159606280E+00
 0.5374036030473E+00
 0.4722896535107E+00
 0.4061777673402E+00
 0.3418504486183E+00
 0.2824461413118E+00
 0.2304450868581E+00
 0.1876076976326E+00
 0.1550424296441E+00
 0.1332282624177E+00
 0.1219362024376E+00
 0.1201222127048E+00
 0.1258608256409E+00
 0.1363849290328E+00
 0.1482800951760E+00
 0.1578713238240E+00
 0.1618146487282E+00
 0.1578120566746E+00
 0.1452132844039E+00
 0.1251630346880E+00
 0.1000594313347E+00
 0.4796190549509E+00
 0.4148514284711E+00
 0.3488903141523E+00
 0.2859882203200E+00
 0.2297237246419E+00
 0.1822714376914E+00
 0.1447755535900E+00
 0.1177446929949E+00
 0.1010864921532E+00
 0.9403719924676E-01
 0.9509838889523E-01
 0.1020498462038E+00
 0.1120842521883E+00
 0.1220782614887E+00
 0.1290028517147E+00
 0.1304412586323E+00
 0.1250982991620E+00
 0.1131001266800E+00
 0.9588317935829E-01
 0.7557485677692E-01
 0.4259221542215E+00
 0.3612363231391E+00
 0.2953147260022E+00
 0.2344140030338E+00
 0.1820975756525E+00
 0.1394663647468E+00
 0.1069753832747E+00
 0.8463146938379E-01
 0.7191754021930E-01
 0.6771771253316E-01
 0.7029559506201E-01
 0.7737151934121E-01
 0.8631540074097E-01
 0.9443779436213E-01
 0.9936120480082E-01
 0.9942268525324E-01
 0.9399907823938E-01
 0.8361254821108E-01
 0.6974616196746E-01
 0.5443028474620E-01
 0.3763077377914E+00
 0.3100041572680E+00
 0.2440048013028E+00
 0.1869149742260E+00
 0.1393103895884E+00
 0.1013823268573E+00
 0.7324528525099E-01
 0.5462219292022E-01
 0.4473818679735E-01
 0.4228753952514E-01
 0.4545778196853E-01
 0.5205420760332E-01
 0.5972606268712E-01
 0.6624178190474E-01
 0.6979281647005E-01
 0.6928134611978E-01
 0.6450677403385E-01
 0.5617509665532E-01
 0.4570912460941E-01
 0.3515326932488E-01
 0.3284289734076E+00
 0.2561481452643E+00
 0.1959591855314E+00
 0.1444654364156E+00
 0.1014471580353E+00
 0.6755209474704E-01
 0.4288066562930E-01
 0.2699541084248E-01
 0.1894913228755E-01
 0.1737321469627E-01
 0.2049737829077E-01
 0.2628104227914E-01
 0.3269373498714E-01
 0.3794463390386E-01
 0.4070081788532E-01
 0.4027357589624E-01
 0.3670969943056E-01
 0.3075684054339E-01
 0.2374865708824E-01
 0.1736869621136E-01
</DataArray>
<CellData Tensors="'E_Centroid','S_Centroid'">
<DataArray type="Float64" Name="E_Centroid" NumberOfComponents="4" ComponentName0="E11" ComponentName1="E22" ComponentName2="E33" ComponentName3="E12" format="ascii">
 0.2003115747634E-02 -0.1528940216628E-01  0.0000000000000E+00 -0.4754219843629E-02
 0.3464894917428E-02 -0.1282956214417E-01  0.0000000000000E+00 -0.1338149718795E-03
 0.2946498527334E-02 -0.1198669767513E-01  0.0000000000000E+00 -0.2233102235560E-03
 0.2920001514507E-02 -0.1164776052145E-01  0.0000000000000E+00 -0.9412900806734E-04
 0.2859441340336E-02 -0.1144916489756E-01  0.0000000000000E+00 -0.5799906690086E-04
 0.2832518994650E-02 -0.1133030935207E-01  0.0000000000000E+00 -0.3655801565774E-04
 0.2812233004232E-02 -0.1125094980346E-01  0.0000000000000E+00 -0.2539077844338E-04
 0.2798326362755E-02 -0.1119448286803E-01  0.0000000000000E+00 -0.1897153663621E-04
 0.2787584186792E-02 -0.1115147840817E-01  0.0000000000000E+00 -0.1520478233757E-04
 0.2778969571308E-02 -0.1111689362968E-01  0.0000000000000E+00 -0.1284700081261E-04
 0.2771741285277E-02 -0.1108793740394E-01  0.0000000000000E+00 -0.1120243438460E-04
 0.2765561546991E-02 -0.1106319565250E-01  0.0000000000000E+00 -0.9832622766853E-05
 0.2760292493692E-02 -0.1104212121864E-01  0.0000000000000E+00 -0.8445649024053E-05
 0.2755948233051E-02 -0.1102476421918E-01  0.0000000000000E+00 -0.6828193002656E-05
 0.2752653180445E-02 -0.1101162229868E-01  0.0000000000000E+00 -0.4807330370171E-05
 0.2750624873166E-02 -0.1100356704934E-01  0.0000000000000E+00 -0.2224578928844E-05
 0.2750168775888E-02 -0.1100182221965E-01  0.0000000000000E+00  0.1082577107459E-05
 0.2751683750171E-02 -0.1100799214312E-01  0.0000000000000E+00  0.5305660464638E-05
 0.2755680735323E-02 -0.1102412721984E-01  0.0000000000000E+00  0.1068747829064E-04
 0.2762819320456E-02 -0.1105288604906E-01  0.0000000000000E+00  0.1757210652237E-04
 0.2773977209490E-02 -0.1109781625190E-01  0.0000000000000E+00  0.2650555406020E-04
 0.2790416015363E-02 -0.1116400610921E-01  0.0000000000000E+00  0.3846614055197E-04
 0.2813844167561E-02 -0.1125987582334E-01  0.0000000000000E+00  0.5687369035490E-04
 0.2845982901948E-02 -0.1139807963331E-01  0.0000000000000E+00  0.9552733395807E-04
 0.2887131352784E-02 -0.1158149636989E-01  0.0000000000000E+00  0.1790628263308E-03
 0.2935213976305E-02 -0.1179730844193E-01  0.0000000000000E+00  0.3259106528816E-03
 0.2987181014532E-02 -0.1203156528171E-01  0.0000000000000E+00  0.5385151264019E-03
 0.3040975732692E-02 -0.1227778058658E-01  0.0000000000000E+00  0.8092779655653E-03
 0.3096231384292E-02 -0.1253819543577E-01  0.0000000000000E+00  0.1128999456192E-02
 0.3153999236086E-02 -0.1282163215053E-01  0.0000000000000E+00  0.1492766655817E-02
 0.3215979721829E-02 -0.1314033727867E-01  0.0000000000000E+00  0.1902617948890E-02
 0.3283670923558E-02 -0.1350683552938E-01  0.0000000000000E+00  0.2367479136132E-02
 0.3359024869662E-02 -0.1392939645636E-01  0.0000000000000E+00  0.2894013928357E-02
 0.3446376071467E-02 -0.1442430178804E-01  0.0000000000000E+00  0.3477949624427E-02
 0.3557774314756E-02 -0.1503978926261E-01  0.0000000000000E+00  0.4126679079131E-02
 0.3694792778147E-02 -0.1584648157608E-01  0.0000000000000E+00  0.4884803226257E-02
 0.3922570144592E-02 -0.1695561713070E-01  0.0000000000000E+00  0.5846741351519E-02
 0.4014205423241E-02 -0.1847238133505E-01  0.0000000000000E+00  0.7230303863811E-02
 0.5248712152911E-02 -0.2106213768993E-01  0.0000000000000E+00  0.9147031686283E-02
 0.5962013995010E-03 -0.2383331460966E-01  0.0000000000000E+00  0.1641810196447E-01
 0.2386219548929E-01 -0.3047526868495E-01  0.0000000000000E+00  0.1521016564297E-01
 0.1401276431083E-02 -0.1331607958190E-01  0.0000000000000E+00 -0.5063004546517E-02
 0.2960528151552E-02 -0.1294697858895E-01  0.0000000000000E+00 -0.2085953776067E-02
 0.3000632728696E-02 -0.1202716947823E-01  0.0000000000000E+00 -0.6263661882252E-03
 0.2872578769009E-02 -0.1161310677542E-01  0.0000000000000E+00 -0.3851986822781E-03
 0.2836340319933E-02 -0.1137730458809E-01  0.0000000000000E+00 -0.2175709873452E-03
 0.2800964044903E-02 -0.1122792270923E-01  0.0000000000000E+00 -0.1417836046411E-03
 0.2778804528375E-02 -0.1112769290176E-01  0.0000000000000E+00 -0.9781952528537E-04
 0.2761951282135E-02 -0.1105586131610E-01  0.0000000000000E+00 -0.7242865431950E-04
 0.2749092618163E-02 -0.1100158978421E-01  0.0000000000000E+00 -0.5681643124952E-04
 0.2738717775821E-02 -0.1095864290957E-01  0.0000000000000E+00 -0.4671110277998E-04
 0.2730109599515E-02 -0.1092347405982E-01  0.0000000000000E+00 -0.3955823240362E-04
 0.2722834273843E-02 -0.1089412477276E-01  0.0000000000000E+00 -0.3379675314966E-04
 0.2716695548248E-02 -0.1086965387890E-01  0.0000000000000E+00 -0.2838896538543E-04
 0.2711650449979E-02 -0.1084981317410E-01  0.0000000000000E+00 -0.2259152288303E-04
 0.2707774171519E-02 -0.1083486606843E-01  0.0000000000000E+00 -0.1581688516514E-04
 0.2705238403426E-02 -0.1082549163773E-01  0.0000000000000E+00 -0.7545014294591E-05
 0.2704302813206E-02 -0.1082274752221E-01  0.0000000000000E+00  0.2745758559131E-05
 0.2705316536160E-02 -0.1082807999180E-01  0.0000000000000E+00  0.1564380841573E-04
 0.2708730099329E-02 -0.1084338340709E-01  0.0000000000000E+00  0.3188883982719E-04
 0.2715115751166E-02 -0.1087112819667E-01  0.0000000000000E+00  0.5251382971061E-04
 0.2725208057171E-02 -0.1091460328534E-01  0.0000000000000E+00  0.7911570849228E-04
 0.2739882873488E-02 -0.1097839043746E-01  0.0000000000000E+00  0.1147258020713E-03
 0.2759285405609E-02 -0.1106860356016E-01  0.0000000000000E+00  0.1662189541872E-03
 0.2782423869458E-02 -0.1119074189370E-01  0.0000000000000E+00  0.2448508600295E-03
 0.2808807417455E-02 -0.1134491313522E-01  0.0000000000000E+00  0.3633658989132E-03
 0.2838856450646E-02 -0.1152465384604E-01  0.0000000000000E+00  0.5322337497412E-03
 0.2872442660682E-02 -0.1172188457132E-01  0.0000000000000E+00  0.7561520651990E-03
 0.2908668497229E-02 -0.1193201591853E-01  0.0000000000000E+00  0.1034148677876E-02
 0.2946559555798E-02 -0.1215556678125E-01  0.0000000000000E+00  0.1363448598331E-02
 0.2985394402334E-02 -0.1239722179228E-01  0.0000000000000E+00  0.1743126406382E-02
 0.3024515386929E-02 -0.1266377251404E-01  0.0000000000000E+00  0.2176058124534E-02
 0.3063904299836E-02 -0.1296203985786E-01  0.0000000000000E+00  0.2667491799576E-02
 0.3105481590046E-02 -0.1329933297026E-01  0.0000000000000E+00  0.3223189086913E-02
 0.3152188223231E-02 -0.1368871373533E-01  0.0000000000000E+00  0.3853679836775E-02
 0.3201001320957E-02 -0.1415273399547E-01  0.0000000000000E+00  0.4584041168027E-02
 0.3256904681754E-02 -0.1472276952291E-01  0.0000000000000E+00  0.5457933474856E-02
 0.3260057458312E-02 -0.1541702174455E-01  0.0000000000000E+00  0.6601729686516E-02
 0.3351670148640E-02 -0.1626774351937E-01  0.0000000000000E+00  0.7984520131353E-02
 0.2690811663790E-02 -0.1710381481448E-01  0.0000000000000E+00  0.1109176196362E-01
 0.1037726045390E-02 -0.1558916437917E-01  0.0000000000000E+00  0.1055568034093E-01
 0.1846740526175E-01 -0.1786611793053E-01  0.0000000000000E+00  0.3249788817168E-02
 0.1026750439160E-02 -0.1221484725241E-01  0.0000000000000E+00 -0.4750555833403E-02
 0.2462241334669E-02 -0.1244139465349E-01  0.0000000000000E+00 -0.2935475670305E-02
 0.2853415488062E-02 -0.1195542744101E-01  0.0000000000000E+00 -0.1277165183955E-02
 0.2819400759972E-02 -0.1152438388904E-01  0.0000000000000E+00 -0.6693864335402E-03
 0.2786464868099E-02 -0.1127592363523E-01  0.0000000000000E+00 -0.4119255604080E-03
 0.2760600585040E-02 -0.1110969830687E-01  0.0000000000000E+00 -0.2661472010260E-03
 0.2738691786359E-02 -0.1099480620126E-01  0.0000000000000E+00 -0.1858349845930E-03
 0.2721787455367E-02 -0.1091125006705E-01  0.0000000000000E+00 -0.1373112834113E-03
 0.2708046648785E-02 -0.1084774915636E-01  0.0000000000000E+00 -0.1070629568861E-03
 0.2696718181709E-02 -0.1079763089137E-01  0.0000000000000E+00 -0.8705996993474E-04
 0.2687153314873E-02 -0.1075691419254E-01  0.0000000000000E+00 -0.7278265362715E-04
 0.2678990946598E-02 -0.1072328656524E-01  0.0000000000000E+00 -0.6139401798877E-04
 0.2672035865257E-02 -0.1069551626355E-01  0.0000000000000E+00 -0.5102256532807E-04
 0.2666229788583E-02 -0.1067311555451E-01  0.0000000000000E+00 -0.4033142162671E-04
 0.2661618654679E-02 -0.1065614409116E-01  0.0000000000000E+00 -0.2827668707436E-04
 0.2658335805573E-02 -0.1064509970558E-01  0.0000000000000E+00 -0.1394921890921E-04
 0.2656592037954E-02 -0.1064086781186E-01  0.0000000000000E+00  0.3544311461934E-05
 0.2656672382471E-02 -0.1064471667960E-01  0.0000000000000E+00  0.2519164162290E-04
 0.2658935976213E-02 -0.1065833580348E-01  0.0000000000000E+00  0.5221323518695E-04
 0.2663811467792E-02 -0.1068392282905E-01  0.0000000000000E+00  0.8627672178718E-04
 0.2671769184297E-02 -0.1072433533964E-01  0.0000000000000E+00  0.1299213139097E-03
 0.2682998064784E-02 -0.1078317786661E-01  0.0000000000000E+00  0.1876009156701E-03
 0.2696483048700E-02 -0.1086407936587E-01  0.0000000000000E+00  0.2665779570937E-03
 0.2710258910030E-02 -0.1096900291134E-01  0.0000000000000E+00  0.3749773711946E-03
 0.2723736283057E-02 -0.1109707445281E-01  0.0000000000000E+00  0.5196485763993E-03
 0.2738294716330E-02 -0.1124474704109E-01  0.0000000000000E+00  0.7067640060459E-03
 0.2755179308036E-02 -0.1140740251208E-01  0.0000000000000E+00  0.9413406470577E-03
 0.2774215930697E-02 -0.1158170248055E-01  0.0000000000000E+00  0.1225987688540E-02
 0.2794094570459E-02 -0.1176686248847E-01  0.0000000000000E+00  0.1561803353898E-02
 0.2812909969331E-02 -0.1196434137650E-01  0.0000000000000E+00  0.1950193804432E-02
 0.2828598373695E-02 -0.1217661409456E-01  0.0000000000000E+00  0.2393776265458E-02
 0.2839981943880E-02 -0.1240634670062E-01  0.0000000000000E+00  0.2895947294899E-02
 0.2847534522155E-02 -0.1265711033687E-01  0.0000000000000E+00  0.3462838616226E-02
 0.2849281163499E-02 -0.1293328286966E-01  0.0000000000000E+00  0.4108963221478E-02
 0.2838338420178E-02 -0.1323710864813E-01  0.0000000000000E+00  0.4856314082561E-02
 0.2791059612658E-02 -0.1356074517247E-01  0.0000000000000E+00  0.5747095668976E-02
 0.2686846789841E-02 -0.1386152087269E-01  0.0000000000000E+00  0.6787493082761E-02
 0.2438990638387E-02 -0.1404937405520E-01  0.0000000000000E+00  0.8143571881319E-02
 0.1473307165897E-02 -0.1332702987391E-01  0.0000000000000E+00  0.9292574446699E-02
 0.2521322350529E-02 -0.1155017391622E-01  0.0000000000000E+00  0.4667350711041E-02
 0.1659174866805E-01 -0.1368133983592E-01  0.0000000000000E+00 -0.2800265929677E-03
 0.7918320526452E-03 -0.1147373706695E-01  0.0000000000000E+00 -0.4354009179502E-02
 0.2058807041998E-02 -0.1188385285276E-01  0.0000000000000E+00 -0.3246180399702E-02
 0.2624761729338E-02 -0.1171673679393E-01  0.0000000000000E+00 -0.1786198495633E-02
 0.2721752809670E-02 -0.1138650439403E-01  0.0000000000000E+00 -0.9845700097175E-03
 0.2720462589621E-02 -0.1114290671572E-01  0.0000000000000E+00 -0.6107283692969E-03
 0.2707619798905E-02 -0.1097373898566E-01  0.0000000000000E+00 -0.4050012430878E-03
 0.2691827210987E-02 -0.1085098673809E-01  0.0000000000000E+00 -0.2845540768785E-03
 0.2677041473295E-02 -0.1075961475847E-01  0.0000000000000E+00 -0.2112878764841E-03
 0.2664005520698E-02 -0.1068918849499E-01  0.0000000000000E+00 -0.1644566073105E-03
 0.2652586969439E-02 -0.1063326953167E-01  0.0000000000000E+00 -0.1330333210431E-03
 0.2642585229803E-02 -0.1058780765167E-01  0.0000000000000E+00 -0.1103845131197E-03
 0.2633806950282E-02 -0.1055033466544E-01  0.0000000000000E+00 -0.9238768946804E-04
 0.2626141864623E-02 -0.1051944319326E-01  0.0000000000000E+00 -0.7629191669242E-04
 0.2619557527729E-02 -0.1049447162975E-01  0.0000000000000E+00 -0.6013675467736E-04
 0.2614094778581E-02 -0.1047531170210E-01  0.0000000000000E+00 -0.4239975549328E-04
 0.2609858692857E-02 -0.1046229512160E-01  0.0000000000000E+00 -0.2177127021727E-04
 0.2607010763674E-02 -0.1045613385226E-01  0.0000000000000E+00  0.3013553408010E-05
 0.2605760624630E-02 -0.1045790046304E-01  0.0000000000000E+00  0.3332664866701E-04
 0.2606351260557E-02 -0.1046903999646E-01  0.0000000000000E+00  0.7082710285522E-04
 0.2609023665565E-02 -0.1049140621274E-01  0.0000000000000E+00  0.1177246741260E-03
 0.2613890090359E-02 -0.1052728168287E-01  0.0000000000000E+00  0.1772632059004E-03
 0.2620479751455E-02 -0.1057912658120E-01  0.0000000000000E+00  0.2544242212971E-03
 0.2627104002211E-02 -0.1064868243046E-01  0.0000000000000E+00  0.3556486103361E-03
 0.2631561369256E-02 -0.1073606908111E-01  0.0000000000000E+00  0.4865187007861E-03
 0.2633350905241E-02 -0.1084003064807E-01  0.0000000000000E+00  0.6507262829706E-03
 0.2634139554125E-02 -0.1095843752945E-01  0.0000000000000E+00  0.8520693867724E-03
 0.2635680642497E-02 -0.1108851277758E-01  0.0000000000000E+00  0.1095224547144E-02
 0.2638149723797E-02 -0.1122758775962E-01  0.0000000000000E+00  0.1384386050958E-02
 0.2640045766302E-02 -0.1137382120041E-01  0.0000000000000E+00  0.1722628438291E-02
 0.2638773446569E-02 -0.1152615621597E-01  0.0000000000000E+00  0.2112279911248E-02
 0.2631418686490E-02 -0.1168372429729E-01  0.0000000000000E+00  0.2555200915820E-02
 0.2615810282249E-02 -0.1184550272190E-01  0.0000000000000E+00  0.3053220609926E-02
 0.2590196038710E-02 -0.1201005760086E-01  0.0000000000000E+00  0.3611066442656E-02
 0.2549728503549E-02 -0.1217258728297E-01  0.0000000000000E+00  0.4238514652265E-02
 0.2480871446871E-02 -0.1231845875043E-01  0.0000000000000E+00  0.4948242763289E-02
 0.2359756202977E-02 -0.1241013160011E-01  0.0000000000000E+00  0.5738039934614E-02
 0.2155582793607E-02 -0.1237224709350E-01  0.0000000000000E+00  0.6575915480443E-02
 0.1749204406463E-02 -0.1197125353477E-01  0.0000000000000E+00  0.7313015616540E-02
 0.1290651964373E-02 -0.1071275500558E-01  0.0000000000000E+00  0.6435683707241E-02
 0.4040318067453E-02 -0.9691948273759E-02  0.0000000000000E+00  0.9244232816785E-03
 0.1528234923303E-01 -0.1182719871160E-01  0.0000000000000E+00 -0.1142338077440E-02
 0.6370222399921E-03 -0.1091667994853E-01  0.0000000000000E+00 -0.3974552190329E-02
 0.1744625067716E-02 -0.1137219193182E-01  0.0000000000000E+00 -0.3299834231673E-02
 0.2380889285331E-02 -0.1139869525968E-01  0.0000000000000E+00 -0.2116565077244E-02
 0.2588521890724E-02 -0.1119154223483E-01  0.0000000000000E+00 -0.1272649607493E-02
 0.2636572880676E-02 -0.1098143200314E-01  0.0000000000000E+00 -0.8095467704593E-03
 0.2643427218591E-02 -0.1081916787202E-01  0.0000000000000E+00 -0.5480008125300E-03
 0.2637538895394E-02 -0.1069557883473E-01  0.0000000000000E+00 -0.3902165986666E-03
 0.2627486017466E-02 -0.1060028463022E-01  0.0000000000000E+00 -0.2916039939186E-03
 0.2616622805352E-02 -0.1052534692446E-01  0.0000000000000E+00 -0.2274426787254E-03
 0.2606060974650E-02 -0.1046510299075E-01  0.0000000000000E+00 -0.1836567374615E-03
 0.2596181877819E-02 -0.1041579117207E-01  0.0000000000000E+00 -0.1517953382056E-03
 0.2587106588104E-02 -0.1037498422648E-01  0.0000000000000E+00 -0.1264760897220E-03
 0.2578877899499E-02 -0.1034121612739E-01  0.0000000000000E+00 -0.1040896971980E-03
 0.2571534851546E-02 -0.1031372028371E-01  0.0000000000000E+00 -0.8205109943113E-04
 0.2565137966395E-02 -0.1029225948314E-01  0.0000000000000E+00 -0.5835874835319E-04
 0.2559776413664E-02 -0.1027701787082E-01  0.0000000000000E+00 -0.3130636271761E-04
 0.2555564591695E-02 -0.1026853662709E-01  0.0000000000000E+00  0.7287480215112E-06
 0.2552629724214E-02 -0.1026768027221E-01  0.0000000000000E+00  0.3947193502657E-04
 0.2551082535603E-02 -0.1027562035498E-01  0.0000000000000E+00  0.8695835447758E-04
 0.2550946689506E-02 -0.1029381490588E-01  0.0000000000000E+00  0.1458145760333E-03
 0.2551961671830E-02 -0.1032389942841E-01  0.0000000000000E+00  0.2196660043128E-03
 0.2553147058472E-02 -0.1036727552999E-01  0.0000000000000E+00  0.3133953885342E-03
 0.2552493443542E-02 -0.1042436522531E-01  0.0000000000000E+00  0.4322743461188E-03
 0.2547865369813E-02 -0.1049428061664E-01  0.0000000000000E+00  0.5799985345733E-03
 0.2538870034423E-02 -0.1057558248402E-01  0.0000000000000E+00  0.7584686813285E-03
 0.2527150220942E-02 -0.1066679169270E-01  0.0000000000000E+00  0.9700813356168E-03
 0.2514517232978E-02 -0.1076600307970E-01  0.0000000000000E+00  0.1218900712357E-02
 0.2501249679928E-02 -0.1087077584414E-01  0.0000000000000E+00  0.1509468915094E-02
 0.2485755186177E-02 -0.1097837446175E-01  0.0000000000000E+00  0.1845449274523E-02
 0.2465105661100E-02 -0.1108580009706E-01  0.0000000000000E+00  0.2229048028335E-02
 0.2435926033699E-02 -0.1118953949466E-01  0.0000000000000E+00  0.2660874737113E-02
 0.2395188365298E-02 -0.1128522458138E-01  0.0000000000000E+00  0.3140632027363E-02
 0.2339582326291E-02 -0.1136647645352E-01  0.0000000000000E+00  0.3668940273058E-02
 0.2262162450861E-02 -0.1142068662608E-01  0.0000000000000E+00  0.4246893302356E-02
 0.2148613282303E-02 -0.1142061439771E-01  0.0000000000000E+00  0.4866161880155E-02
 0.1979453849870E-02 -0.1131420815468E-01  0.0000000000000E+00  0.5485227765555E-02
 0.1728435412179E-02 -0.1100036041468E-01  0.0000000000000E+00  0.5987071283036E-02
 0.1402770430648E-02 -0.1026745352109E-01  0.0000000000000E+00  0.5911441002290E-02
 0.1651309228126E-02 -0.9077356647792E-02  0.0000000000000E+00  0.3784925608989E-02
 0.5219331031337E-02 -0.8793829549911E-02  0.0000000000000E+00 -0.1129584289378E-02
 0.1423298374789E-01 -0.1075373463441E-01  0.0000000000000E+00 -0.1265136210818E-02
 0.5296551755735E-03 -0.1046626287453E-01  0.0000000000000E+00 -0.3630725590493E-02
 0.1500103356350E-02 -0.1091663742848E-01  0.0000000000000E+00 -0.3229891943431E-02
 0.2150166899566E-02 -0.1105400086013E-01  0.0000000000000E+00 -0.2304795759894E-02
 0.2436455164276E-02 -0.1095401278152E-01  0.0000000000000E+00 -0.1504741485042E-02
 0.2536827423707E-02 -0.1079272706534E-01  0.0000000000000E+00 -0.9956303964017E-03
 0.2568993665482E-02 -0.1064710044191E-01  0.0000000000000E+00 -0.6889902782389E-03
 0.2576120288947E-02 -0.1052838777671E-01  0.0000000000000E+00 -0.4982801914500E-03
 0.2573014245520E-02 -0.1043296502124E-01  0.0000000000000E+00 -0.3757521754673E-03
 0.2565759606863E-02 -0.1035587088828E-01  0.0000000000000E+00 -0.2943659414096E-03
 0.2556969804509E-02 -0.1029281025296E-01  0.0000000000000E+00 -0.2379151767325E-03
 0.2547792584310E-02 -0.1024059123638E-01  0.0000000000000E+00 -0.1963906838091E-03
 0.2538762678473E-02 -0.1019701402579E-01  0.0000000000000E+00 -0.1633100647457E-03
 0.2530145755700E-02 -0.1016066469939E-01  0.0000000000000E+00 -0.1342647424505E-03
 0.2522093369099E-02 -0.1013073991882E-01  0.0000000000000E+00 -0.1060776047717E-03
 0.2514711076217E-02 -0.1010691366626E-01  0.0000000000000E+00 -0.7628708592999E-04
 0.2508085641402E-02 -0.1008924352680E-01  0.0000000000000E+00 -0.4280911017401E-04
 0.2502289264514E-02 -0.1007810637503E-01  0.0000000000000E+00 -0.3689411637087E-05
 0.2497364823130E-02 -0.1007415279294E-01  0.0000000000000E+00  0.4310707073135E-04
 0.2493283555318E-02 -0.1007826362876E-01  0.0000000000000E+00  0.9991494117273E-04
 0.2489846030009E-02 -0.1009147518384E-01  0.0000000000000E+00  0.1696284852291E-03
 0.2486460856073E-02 -0.1011478257255E-01  0.0000000000000E+00  0.2559613308205E-03
 0.2481803404459E-02 -0.1014870511959E-01  0.0000000000000E+00  0.3633491780849E-03
 0.2473765255629E-02 -0.1019276376289E-01  0.0000000000000E+00  0.4958969708079E-03
 0.2460386499798E-02 -0.1024548954396E-01  0.0000000000000E+00  0.6559264030536E-03
 0.2441354581458E-02 -0.1030531241662E-01  0.0000000000000E+00  0.8442506171282E-03
 0.2418149335754E-02 -0.1037098357802E-01  0.0000000000000E+00  0.1062336600505E-02
 0.2392428196248E-02 -0.1044091020633E-01  0.0000000000000E+00  0.1313486064591E-02
 0.2364445723088E-02 -0.1051259611641E-01  0.0000000000000E+00  0.1601819394826E-02
 0.2332603012298E-02 -0.1058254693684E-01  0.0000000000000E+00  0.1930625612603E-02
 0.2293908429690E-02 -0.1064627968223E-01  0.0000000000000E+00  0.2301213143365E-02
 0.2244826214819E-02 -0.1069819619041E-01  0.0000000000000E+00  0.2712414275378E-02
 0.2181888119893E-02 -0.1073109394035E-01  0.0000000000000E+00  0.3160859686658E-02
 0.2101058487129E-02 -0.1073454181664E-01  0.0000000000000E+00  0.3641279994250E-02
 0.1995366063565E-02 -0.1069025829634E-01  0.0000000000000E+00  0.4142690124386E-02
 0.1853954652663E-02 -0.1056462238368E-01  0.0000000000000E+00  0.4633676357852E-02
 0.1667039324802E-02 -0.1030062964497E-01  0.0000000000000E+00  0.5032911239607E-02
 0.1443945527805E-02 -0.9803493624104E-02  0.0000000000000E+00  0.5131377102232E-02
 0.1345698605262E-02 -0.8974783804711E-02  0.0000000000000E+00  0.4354639854669E-02
 0.2214531922697E-02 -0.8081048961421E-02  0.0000000000000E+00  0.1707017697716E-02
 0.6044329735665E-02 -0.8296247777871E-02  0.0000000000000E+00 -0.2174795326386E-02
 0.1335319403776E-01 -0.1001298037137E-01  0.0000000000000E+00 -0.1205260107904E-02
 0.4517111621154E-03 -0.1008298377738E-01  0.0000000000000E+00 -0.3322536137889E-02
 0.1307578802009E-02 -0.1050989374724E-01  0.0000000000000E+00 -0.3101274230174E-02
 0.1942472015804E-02 -0.1070784792184E-01  0.0000000000000E+00 -0.2392323801021E-02
 0.2278795768302E-02 -0.1069059921140E-01  0.0000000000000E+00 -0.1675901276136E-02
 0.2425897720030E-02 -0.1058108665277E-01  0.0000000000000E+00 -0.1158626007121E-02
 0.2485747936516E-02 -0.1045900150621E-01  0.0000000000000E+00 -0.8224521324188E-03
 0.2508220833743E-02 -0.1034990806851E-01  0.0000000000000E+00 -0.6049659045968E-03
 0.2513801506574E-02 -0.1025764889958E-01  0.0000000000000E+00 -0.4612532594943E-03
 0.2511415468227E-02 -0.1018061601110E-01  0.0000000000000E+00 -0.3636407723274E-03
 0.2505249037719E-02 -0.1011620000005E-01  0.0000000000000E+00 -0.2947747557883E-03
 0.2497333682673E-02 -0.1006202382699E-01  0.0000000000000E+00 -0.2435223844635E-03
 0.2488697542750E-02 -0.1001626653826E-01  0.0000000000000E+00 -0.2025076616664E-03
 0.2479884284936E-02 -0.9977666930978E-02  0.0000000000000E+00 -0.1666317912688E-03
 0.2471195033235E-02 -0.9945448428629E-02  0.0000000000000E+00 -0.1321839068972E-03
 0.2462803875007E-02 -0.9919235644335E-02  0.0000000000000E+00 -0.9628062136383E-04
 0.2454809312526E-02 -0.9898982073766E-02  0.0000000000000E+00 -0.5649228257229E-04
 0.2447248703953E-02 -0.9884910370398E-02  0.0000000000000E+00 -0.1057028632837E-04
 0.2440083683760E-02 -0.9877458062848E-02  0.0000000000000E+00  0.4377700202107E-04
 0.2433148752845E-02 -0.9877210647038E-02  0.0000000000000E+00  0.1090981863019E-03
 0.2426037874848E-02 -0.9884785041047E-02  0.0000000000000E+00  0.1884075243008E-03
 0.2417897032239E-02 -0.9900592938054E-02  0.0000000000000E+00  0.2852878144757E-03
 0.2407198498112E-02 -0.9924455527880E-02  0.0000000000000E+00  0.4035693393150E-03
 0.2391863989774E-02 -0.9955279537700E-02  0.0000000000000E+00  0.5463135119815E-03
 0.2370135518175E-02 -0.9991238989043E-02  0.0000000000000E+00  0.7148270597864E-03
 0.2341749097435E-02 -0.1003063714981E-01  0.0000000000000E+00  0.9091944323380E-03
 0.2307974007498E-02 -0.1007222405252E-01  0.0000000000000E+00  0.1130163211200E-02
 0.2270238843679E-02 -0.1011441153886E-01  0.0000000000000E+00  0.1380166697245E-02
 0.2228735336044E-02 -0.1015449842713E-01  0.0000000000000E+00  0.1662425080498E-02
 0.2181945399179E-02 -0.1018836617353E-01  0.0000000000000E+00  0.1979209732506E-02
 0.2127028441074E-02 -0.1021043048549E-01  0.0000000000000E+00  0.2330366332983E-02
 0.2060597561657E-02 -0.1021352717133E-01  0.0000000000000E+00  0.2712435650142E-02
 0.1979270462754E-02 -0.1018832655012E-01  0.0000000000000E+00  0.3118218515433E-02
 0.1879365363070E-02 -0.1012161806721E-01  0.0000000000000E+00  0.3535387317418E-02
 0.1756024448789E-02 -0.9992236626982E-02  0.0000000000000E+00  0.3939915647308E-02
 0.1605036522736E-02 -0.9765561136573E-02  0.0000000000000E+00  0.4278703833994E-02
 0.1433491649901E-02 -0.9389965624727E-02  0.0000000000000E+00  0.4434438189975E-02
 0.1301208806238E-02 -0.8804592122268E-02  0.0000000000000E+00  0.4144826498865E-02
 0.1480265277371E-02 -0.8030522570438E-02  0.0000000000000E+00  0.2889025299017E-02
 0.2801484276174E-02 -0.7464006314158E-02  0.0000000000000E+00  0.1949400137108E-03
 0.6586892752427E-02 -0.7966734812080E-02  0.0000000000000E+00 -0.2664948450172E-02
 0.1260342285960E-01 -0.9442063659552E-02  0.0000000000000E+00 -0.1124770811698E-02
 0.3928667530276E-03 -0.9744604891153E-02  0.0000000000000E+00 -0.3045933690351E-02
 0.1153612710894E-02 -0.1014246656470E-01  0.0000000000000E+00 -0.2946590411822E-02
 0.1759503533882E-02 -0.1037108976798E-01  0.0000000000000E+00 -0.2411700373082E-02
 0.2123962420268E-02 -0.1041400480242E-01  0.0000000000000E+00 -0.1792140090626E-02
 0.2308798312608E-02 -0.1035223269027E-01  0.0000000000000E+00 -0.1293522303320E-02
 0.2395686476961E-02 -0.1025696369456E-01  0.0000000000000E+00 -0.9439199453196E-03
 0.2434729254006E-02 -0.1016101740944E-01  0.0000000000000E+00 -0.7071663186684E-03
 0.2450235447229E-02 -0.1007462523563E-01  0.0000000000000E+00 -0.5458975556028E-03
 0.2453726308586E-02 -0.9999615302752E-02  0.0000000000000E+00 -0.4337732380650E-03
 0.2450925993287E-02 -0.9935205292134E-02  0.0000000000000E+00 -0.3532363090891E-03
 0.2444786895085E-02 -0.9879990142386E-02  0.0000000000000E+00 -0.2925396217435E-03
 0.2436880574440E-02 -0.9832646326705E-02  0.0000000000000E+00 -0.2436703660641E-03
 0.2428068522953E-02 -0.9792148172164E-02  0.0000000000000E+00 -0.2009804623564E-03
 0.2418831191515E-02 -0.9757802266575E-02  0.0000000000000E+00 -0.1603072974419E-03
 0.2409431946059E-02 -0.9729220730551E-02  0.0000000000000E+00 -0.1183996511100E-03
 0.2399994979894E-02 -0.9706275998076E-02  0.0000000000000E+00 -0.7252620092996E-04
 0.2390532261529E-02 -0.9689049770099E-02  0.0000000000000E+00 -0.2018993042233E-04
 0.2380932048035E-02 -0.9677773934858E-02  0.0000000000000E+00  0.4109809218814E-04
 0.2370904282603E-02 -0.9672746454890E-02  0.0000000000000E+00  0.1140135852765E-03
 0.2359867922167E-02 -0.9674190193736E-02  0.0000000000000E+00  0.2015625093554E-03
 0.2346780340846E-02 -0.9682013308370E-02  0.0000000000000E+00  0.3070527126171E-03
 0.2330018980825E-02 -0.9695500143527E-02  0.0000000000000E+00  0.4336617809221E-03
 0.2307606595574E-02 -0.9713135949770E-02  0.0000000000000E+00  0.5835542174414E-03
 0.2277981239002E-02 -0.9732860006377E-02  0.0000000000000E+00  0.7572594006864E-03
 0.2240906778246E-02 -0.9752843853956E-02  0.0000000000000E+00  0.9543075342506E-03
 0.2197445525508E-02 -0.9771716950305E-02  0.0000000000000E+00  0.1174803785719E-02
 0.2148800377862E-02 -0.9787744264487E-02  0.0000000000000E+00  0.1420233409850E-02
 0.2095120666057E-02 -0.9797968887703E-02  0.0000000000000E+00  0.1692625918174E-02
 0.2035063431166E-02 -0.9797793155722E-02  0.0000000000000E+00  0.1992827280133E-02
 0.1966132239368E-02 -0.9780874408955E-02  0.0000000000000E+00  0.2318828292165E-02
 0.1885408097209E-02 -0.9739003761281E-02  0.0000000000000E+00  0.2664499161851E-02
 0.1790177075951E-02 -0.9661538463159E-02  0.0000000000000E+00  0.3018364361307E-02
 0.1678217799816E-02 -0.9533960472161E-02  0.0000000000000E+00  0.3360743758532E-02
 0.1548554046792E-02 -0.9334939524113E-02  0.0000000000000E+00  0.3655482236053E-02
 0.1406233926468E-02 -0.9033490095579E-02  0.0000000000000E+00  0.3831447022512E-02
 0.1279775694753E-02 -0.8592293664372E-02  0.0000000000000E+00  0.3747752627474E-02
 0.1276025122379E-02 -0.7994956288805E-02  0.0000000000000E+00  0.3138362474854E-02
 0.1720772282778E-02 -0.7348999102391E-02  0.0000000000000E+00  0.1620662731959E-02
 0.3332560745790E-02 -0.7063475973351E-02  0.0000000000000E+00 -0.8641797700917E-03
 0.6923679297426E-02 -0.7709767049007E-02  0.0000000000000E+00 -0.2862295708367E-02
 0.1195617178033E-01 -0.8972492470440E-02  0.0000000000000E+00 -0.1063000334581E-02
 0.3469492946865E-03 -0.9437687882783E-02  0.0000000000000E+00 -0.2796473773188E-02
 0.1028441794140E-02 -0.9806082460435E-02  0.0000000000000E+00 -0.2782614233532E-02
 0.1599648102938E-02 -0.1004766150544E-01  0.0000000000000E+00 -0.2386091645896E-02
 0.1976639755812E-02 -0.1013263844224E-01  0.0000000000000E+00 -0.1862938855725E-02
 0.2189752869881E-02 -0.1011165973528E-01  0.0000000000000E+00 -0.1399600596773E-02
 0.2301023971941E-02 -0.1004351636343E-01  0.0000000000000E+00 -0.1050537156272E-02
 0.2356719106528E-02 -0.9962868847752E-02  0.0000000000000E+00 -0.8024444275890E-03
 0.2382849915907E-02 -0.9884405852791E-02  0.0000000000000E+00 -0.6278272514964E-03
 0.2392942697342E-02 -0.9813059758825E-02  0.0000000000000E+00 -0.5034201349930E-03
 0.2394108848813E-02 -0.9749869293975E-02  0.0000000000000E+00 -0.4123653406035E-03
 0.2390193126684E-02 -0.9694470938619E-02  0.0000000000000E+00 -0.3428121487174E-03
 0.2383325295843E-02 -0.9646116607223E-02  0.0000000000000E+00 -0.2863965397631E-03
 0.2374707673681E-02 -0.9604079076075E-02  0.0000000000000E+00 -0.2370840695629E-03
 0.2365021075867E-02 -0.9567794785872E-02  0.0000000000000E+00 -0.1903597169959E-03
 0.2354635075823E-02 -0.9536896363535E-02  0.0000000000000E+00 -0.1426712376312E-03
 0.2343712692189E-02 -0.9511197862413E-02  0.0000000000000E+00 -0.9103879154460E-04
 0.2332251512657E-02 -0.9490655883706E-02  0.0000000000000E+00 -0.3276917539488E-04
 0.2320078415670E-02 -0.9475309990892E-02  0.0000000000000E+00  0.3476185926540E-04
 0.2306798292213E-02 -0.9465189164760E-02  0.0000000000000E+00  0.1142755029077E-03
 0.2291694357039E-02 -0.9460162460263E-02  0.0000000000000E+00  0.2086679271071E-03
 0.2273604297535E-02 -0.9459719601872E-02  0.0000000000000E+00  0.3208875300645E-03
 0.2250889448526E-02 -0.9462739707776E-02  0.0000000000000E+00  0.4534700775634E-03
 0.2221710408443E-02 -0.9467416853643E-02  0.0000000000000E+00  0.6078162655137E-03
 0.2184686625379E-02 -0.9471527319317E-02  0.0000000000000E+00  0.7838296391893E-03
 0.2139603265993E-02 -0.9473111744229E-02  0.0000000000000E+00  0.9805624180054E-03
 0.2087348635115E-02 -0.9470629878452E-02  0.0000000000000E+00  0.1197491773044E-02
 0.2028946601693E-02 -0.9462145944330E-02  0.0000000000000E+00  0.1435100120144E-02
 0.1964560823006E-02 -0.9444464994759E-02  0.0000000000000E+00  0.1694064261337E-02
 0.1893125266189E-02 -0.9412667877584E-02  0.0000000000000E+00  0.1973571175415E-02
 0.1812670242925E-02 -0.9359977337406E-02  0.0000000000000E+00  0.2269527344157E-02
 0.1721060448509E-02 -0.9277660002420E-02  0.0000000000000E+00  0.2572944326111E-02
 0.1616819992136E-02 -0.9154607948090E-02  0.0000000000000E+00  0.2868012068652E-02
 0.1500140453811E-02 -0.8976439617166E-02  0.0000000000000E+00  0.3128232365743E-02
 0.1375234508143E-02 -0.8723998475557E-02  0.0000000000000E+00  0.3307489430912E-02
 0.1257997392855E-02 -0.8373588528272E-02  0.0000000000000E+00  0.3322436623286E-02
 0.1198479126626E-02 -0.7907080948708E-02  0.0000000000000E+00  0.3025260141595E-02
 0.1337034793453E-02 -0.7349115603172E-02  0.0000000000000E+00  0.2184161940949E-02
 0.2006378509480E-02 -0.6854234252049E-02  0.0000000000000E+00  0.5740600265631E-03
 0.3780342836992E-02 -0.6784632084947E-02  0.0000000000000E+00 -0.1590003856319E-02
 0.7115792320204E-02 -0.7486393621909E-02  0.0000000000000E+00 -0.2910040853212E-02
 0.1139025201820E-01 -0.8571014263738E-02  0.0000000000000E+00 -0.1023575722754E-02
 0.3101120495613E-03 -0.9153656024482E-02  0.0000000000000E+00 -0.2570221516755E-02
 0.9250435724459E-03 -0.9494187839730E-02  0.0000000000000E+00 -0.2618070747140E-02
 0.1460180324904E-02 -0.9738285086925E-02  0.0000000000000E+00 -0.2331403619546E-02
 0.1839053026600E-02 -0.9851655639509E-02  0.0000000000000E+00 -0.1897856801883E-02
 0.2071893849180E-02 -0.9863911460988E-02  0.0000000000000E+00 -0.1478727822205E-02
 0.2203861412936E-02 -0.9821262126359E-02  0.0000000000000E+00 -0.1141038357328E-02
 0.2275352401694E-02 -0.9756792032629E-02  0.0000000000000E+00 -0.8890889524186E-03
 0.2312274725940E-02 -0.9687659351114E-02  0.0000000000000E+00 -0.7055615830512E-03
 0.2329401180675E-02 -0.9621267967912E-02  0.0000000000000E+00 -0.5714293030509E-03
 0.2334973558353E-02 -0.9560330367571E-02  0.0000000000000E+00 -0.4713177133679E-03
 0.2333644986611E-02 -0.9505518145580E-02  0.0000000000000E+00 -0.3937482284796E-03
 0.2328085132843E-02 -0.9456694654948E-02  0.0000000000000E+00 -0.3302936436375E-03
 0.2319842411231E-02 -0.9413472589581E-02  0.0000000000000E+00 -0.2747074621342E-03
 0.2309809707871E-02 -0.9375453906189E-02  0.0000000000000E+00 -0.2222326017957E-03
 0.2298475207948E-02 -0.9342319764952E-02  0.0000000000000E+00 -0.1690917494299E-03
 0.2286052493816E-02 -0.9313847395902E-02  0.0000000000000E+00 -0.1121163593797E-03
 0.2272536735229E-02 -0.9289886016404E-02  0.0000000000000E+00 -0.4847309190928E-04
 0.2257708547374E-02 -0.9270301045738E-02  0.0000000000000E+00  0.2453612888745E-04
 0.2241091900505E-02 -0.9254878974665E-02  0.0000000000000E+00  0.1096058410819E-03
 0.2221875519090E-02 -0.9243182927715E-02  0.0000000000000E+00  0.2094476165933E-03
 0.2198836808768E-02 -0.9234365151228E-02  0.0000000000000E+00  0.3266080647752E-03
 0.2170376694701E-02 -0.9227003957767E-02  0.0000000000000E+00  0.4630185887507E-03
 0.2134811812904E-02 -0.9219092721538E-02  0.0000000000000E+00  0.6194250864447E-03
 0.2090929830702E-02 -0.9208292322946E-02  0.0000000000000E+00  0.7951995019319E-03
 0.2038543514315E-02 -0.9192523772878E-02  0.0000000000000E+00  0.9889426803837E-03
 0.1978416502017E-02 -0.9170073147154E-02  0.0000000000000E+00  0.1199494749695E-02
 0.1911462842060E-02 -0.9138810933061E-02  0.0000000000000E+00  0.1426307268305E-02
 0.1837937137890E-02 -0.9095366541977E-02  0.0000000000000E+00  0.1668635106294E-02
 0.1757155869745E-02 -0.9034666748204E-02  0.0000000000000E+00  0.1923907208008E-02
 0.1667847419269E-02 -0.8949808900142E-02  0.0000000000000E+00  0.2185869222774E-02
 0.1568952217919E-02 -0.8832036628368E-02  0.0000000000000E+00  0.2442697143722E-02
 0.1460723455885E-02 -0.8670582054550E-02  0.0000000000000E+00  0.2674573001454E-02
 0.1346474331170E-02 -0.8452458695845E-02  0.0000000000000E+00  0.2849348536103E-02
 0.1236371253874E-02 -0.8162490644667E-02  0.0000000000000E+00  0.2913965564982E-02
 0.1157352913714E-02 -0.7786511035864E-02  0.0000000000000E+00  0.2779901898636E-02
 0.1177497267441E-02 -0.7326136844723E-02  0.0000000000000E+00  0.2307853071167E-02
 0.1454781396845E-02 -0.6836702287695E-02  0.0000000000000E+00  0.1320879191293E-02
 0.2298626054656E-02 -0.6488128020558E-02  0.0000000000000E+00 -0.2653198822141E-03
 0.4142131469482E-02 -0.6573971434087E-02  0.0000000000000E+00 -0.2080065862152E-02
 0.7207465481259E-02 -0.7280838995959E-02  0.0000000000000E+00 -0.2884275343332E-02
 0.1088912447535E-01 -0.8219196227149E-02  0.0000000000000E+00 -0.1001502775689E-02
 0.2798641255279E-03 -0.8886789381386E-02  0.0000000000000E+00 -0.2363895104385E-02
 0.8383469301879E-03 -0.9201741286948E-02  0.0000000000000E+00 -0.2457468913768E-02
 0.1338216896240E-02 -0.9442271044107E-02  0.0000000000000E+00 -0.2258411626575E-02
 0.1711935324511E-02 -0.9574016511670E-02  0.0000000000000E+00 -0.1905257133052E-02
 0.1957343028202E-02 -0.9612445489272E-02  0.0000000000000E+00 -0.1534018410158E-02
 0.2105997265760E-02 -0.9592602602729E-02  0.0000000000000E+00 -0.1215409126762E-02
 0.2191776321733E-02 -0.9544177788727E-02  0.0000000000000E+00 -0.9660982194680E-03
 0.2239188467213E-02 -0.9485153541164E-02  0.0000000000000E+00 -0.7780031405300E-03
 0.2263496544878E-02 -0.9424653237059E-02  0.0000000000000E+00 -0.6368582653100E-03
 0.2273748870612E-02 -0.9366805135250E-02  0.0000000000000E+00 -0.5293582978094E-03
 0.2275278440578E-02 -0.9313245273784E-02  0.0000000000000E+00 -0.4448083870844E-03
 0.2271248363244E-02 -0.9264446108164E-02  0.0000000000000E+00 -0.3749882883321E-03
 0.2263541581127E-02 -0.9220380226208E-02  0.0000000000000E+00 -0.3136139177176E-03
 0.2253265362365E-02 -0.9180839223558E-02  0.0000000000000E+00 -0.2558013859673E-03
 0.2241034052327E-02 -0.9145575175238E-02  0.0000000000000E+00 -0.1976295742217E-03
 0.2227121671241E-02 -0.9114348254216E-02  0.0000000000000E+00 -0.1358050255208E-03
 0.2211533239899E-02 -0.9086919092946E-02  0.0000000000000E+00 -0.6741176772776E-04
 0.2194020123596E-02 -0.9063000673677E-02  0.0000000000000E+00  0.1026365532211E-04
 0.2174051582709E-02 -0.9042168438872E-02  0.0000000000000E+00  0.9982836047270E-04
 0.2150761452499E-02 -0.9023729750636E-02  0.0000000000000E+00  0.2037575101405E-03
 0.2122915882091E-02 -0.9006572167696E-02  0.0000000000000E+00  0.3241811843246E-03
 0.2088994420711E-02 -0.8989055597987E-02  0.0000000000000E+00  0.4624731534932E-03
 0.2047478652896E-02 -0.8969038384842E-02  0.0000000000000E+00  0.6188098204732E-03
 0.1997316539474E-02 -0.8944102942526E-02  0.0000000000000E+00  0.7920898632744E-03
 0.1938364737007E-02 -0.8912072375852E-02  0.0000000000000E+00  0.9804676317722E-03
 0.1871319619606E-02 -0.8871084053511E-02  0.0000000000000E+00  0.1182135197862E-02
 0.1797064100449E-02 -0.8818858746154E-02  0.0000000000000E+00  0.1395513278746E-02
 0.1716028465169E-02 -0.8751939553551E-02  0.0000000000000E+00  0.1618436473458E-02
 0.1628015108857E-02 -0.8665270134874E-02  0.0000000000000E+00  0.1846584164232E-02
 0.1532604005404E-02 -0.8552112653662E-02  0.0000000000000E+00  0.2071603625153E-02
 0.1430057405104E-02 -0.8404147185830E-02  0.0000000000000E+00  0.2279060183450E-02
 0.1322726107024E-02 -0.8211646055496E-02  0.0000000000000E+00  0.2445772521684E-02
 0.1217469328978E-02 -0.7964003087518E-02  0.0000000000000E+00  0.2535531363388E-02
 0.1130579521166E-02 -0.7651196022510E-02  0.0000000000000E+00  0.2491784545281E-02
 0.1098938064834E-02 -0.7269296682300E-02  0.0000000000000E+00  0.2227735470045E-02
 0.1203273163767E-02 -0.6837138850960E-02  0.0000000000000E+00  0.1623759118304E-02
 0.1605300515478E-02 -0.6428963983364E-02  0.0000000000000E+00  0.5637381501520E-03
 0.2575402051083E-02 -0.6209242393551E-02  0.0000000000000E+00 -0.9267217312306E-03
 0.4425560232678E-02 -0.6401751164844E-02  0.0000000000000E+00 -0.2406424033795E-02
 0.7229509936778E-02 -0.7086735822032E-02  0.0000000000000E+00 -0.2824726790378E-02
 0.1043996665982E-01 -0.7905578969738E-02  0.0000000000000E+00 -0.9911253899371E-03
 0.2545354715677E-03 -0.8633131860208E-02  0.0000000000000E+00 -0.2174804484270E-02
 0.7646530745284E-03 -0.8924889071466E-02  0.0000000000000E+00 -0.2303057634522E-02
 0.1231098104350E-02 -0.9158384871781E-02  0.0000000000000E+00 -0.2174384446945E-02
 0.1595170859737E-02 -0.9301279264108E-02  0.0000000000000E+00 -0.1891996459330E-02
 0.1847415444251E-02 -0.9359753011570E-02  0.0000000000000E+00 -0.1568985602206E-02
 0.2008861590932E-02 -0.9359598880324E-02  0.0000000000000E+00 -0.1274479979303E-02
 0.2107044510952E-02 -0.9326376278812E-02  0.0000000000000E+00 -0.1033086380876E-02
 0.2164274671944E-02 -0.9277702179753E-02  0.0000000000000E+00 -0.8444223156434E-03
 0.2195656300412E-02 -0.9223692439626E-02  0.0000000000000E+00 -0.6989779031391E-03
 0.2210701150185E-02 -0.9169570620930E-02  0.0000000000000E+00 -0.5858711577482E-03
 0.2215263895582E-02 -0.9117817035358E-02  0.0000000000000E+00 -0.4955151186145E-03
 0.2212932567370E-02 -0.9069478533093E-02  0.0000000000000E+00 -0.4201339960302E-03
 0.2205898455008E-02 -0.9024887734974E-02  0.0000000000000E+00 -0.3535709349747E-03
 0.2195476685842E-02 -0.8984038649748E-02  0.0000000000000E+00 -0.2909295979035E-03
 0.2182410434533E-02 -0.8946770720439E-02  0.0000000000000E+00 -0.2282279402552E-03
 0.2167041838225E-02 -0.8912844519030E-02  0.0000000000000E+00 -0.1621127629507E-03
 0.2149397702801E-02 -0.8881951182638E-02  0.0000000000000E+00 -0.8964229451711E-04
 0.2129217844799E-02 -0.8853675062193E-02  0.0000000000000E+00 -0.8141356343194E-05
 0.2105943071891E-02 -0.8827414309231E-02  0.0000000000000E+00  0.8486042239425E-04
 0.2078688286944E-02 -0.8802269547357E-02  0.0000000000000E+00  0.1915682442283E-03
 0.2046247840999E-02 -0.8776927231478E-02  0.0000000000000E+00  0.3136978998793E-03
 0.2007207406180E-02 -0.8749594454122E-02  0.0000000000000E+00  0.4521129043278E-03
 0.1960218451627E-02 -0.8718044971291E-02  0.0000000000000E+00  0.6064860794786E-03
 0.1904387205902E-02 -0.8679815593814E-02  0.0000000000000E+00  0.7752803897366E-03
 0.1839637332452E-02 -0.8632661800920E-02  0.0000000000000E+00  0.9562029181894E-03
 0.1766657799734E-02 -0.8574615061408E-02  0.0000000000000E+00  0.1146796026032E-02
 0.1686380191082E-02 -0.8503311472454E-02  0.0000000000000E+00  0.1344477457510E-02
 0.1599494719262E-02 -0.8415310667252E-02  0.0000000000000E+00  0.1545719450959E-02
 0.1506384325811E-02 -0.8305739958364E-02  0.0000000000000E+00  0.1744547157216E-02
 0.1407607778155E-02 -0.8168289022584E-02  0.0000000000000E+00  0.1930691704204E-02
 0.1304931684125E-02 -0.7995469755699E-02  0.0000000000000E+00  0.2087501673643E-02
 0.1203028515555E-02 -0.7779149642647E-02  0.0000000000000E+00  0.2189300391159E-02
 0.1112435464886E-02 -0.7511773005683E-02  0.0000000000000E+00  0.2197619112627E-02
 0.1055191377697E-02 -0.7188990580727E-02  0.0000000000000E+00  0.2055837193604E-02
 0.1076125676283E-02 -0.6816541849283E-02  0.0000000000000E+00  0.1684586941012E-02
 0.1262890210305E-02 -0.6426404925274E-02  0.0000000000000E+00  0.9901467114476E-03
 0.1770704759628E-02 -0.6101428990973E-02  0.0000000000000E+00 -0.8638491617469E-04
 0.2825381329021E-02 -0.5989076998688E-02  0.0000000000000E+00 -0.1441927365598E-02
 0.4641578747684E-02 -0.6251547929306E-02  0.0000000000000E+00 -0.2619948741456E-02
 0.7203096279573E-02 -0.6901467992524E-02  0.0000000000000E+00 -0.2751794492181E-02
 0.1003286590830E-01 -0.7622378061207E-02  0.0000000000000E+00 -0.9880128671549E-03
 0.2329708366320E-03 -0.8389861998458E-02  0.0000000000000E+00 -0.2000748671488E-02
 0.7012298569094E-03 -0.8660675633463E-02  0.0000000000000E+00 -0.2155855550411E-02
 0.1136511196339E-02 -0.8885255613663E-02  0.0000000000000E+00 -0.2084222417088E-02
 0.1488196661743E-02 -0.9034137918104E-02  0.0000000000000E+00 -0.1863507506103E-02
 0.1742831767966E-02 -0.9107552925669E-02  0.0000000000000E+00 -0.1587067567413E-02
 0.1913525123225E-02 -0.9123932685803E-02  0.0000000000000E+00 -0.1319576173905E-02
 0.2022071295938E-02 -0.9104626529405E-02  0.0000000000000E+00 -0.1090150396152E-02
 0.2088185928588E-02 -0.9066118782084E-02  0.0000000000000E+00 -0.9044196766480E-03
 0.2126318033799E-02 -0.9018897789621E-02  0.0000000000000E+00 -0.7572645264508E-03
 0.2146120072347E-02 -0.8968946888620E-02  0.0000000000000E+00 -0.6403622300254E-03
 0.2153797242832E-02 -0.8919438705667E-02  0.0000000000000E+00 -0.5454584973134E-03
 0.2153278852705E-02 -0.8871934620359E-02  0.0000000000000E+00 -0.4654167155436E-03
 0.2147026730735E-02 -0.8827110405682E-02  0.0000000000000E+00 -0.3943548486954E-03
 0.2136549597738E-02 -0.8785164759934E-02  0.0000000000000E+00 -0.3274724842710E-03
 0.2122717498948E-02 -0.8746035076339E-02  0.0000000000000E+00 -0.2608077743458E-03
 0.2105945981477E-02 -0.8709497115371E-02  0.0000000000000E+00 -0.1910119312604E-03
 0.2086294663106E-02 -0.8675191157248E-02  0.0000000000000E+00 -0.1151717669162E-03
 0.2063509149347E-02 -0.8642597494728E-02  0.0000000000000E+00 -0.3069823623045E-04
 0.2037026659287E-02 -0.8610971006556E-02  0.0000000000000E+00  0.6470349871981E-04
 0.2005974609513E-02 -0.8579251496688E-02  0.0000000000000E+00  0.1729488991956E-03
 0.1969206865072E-02 -0.8545979097170E-02  0.0000000000000E+00  0.2953515614832E-03
 0.1925434940772E-02 -0.8509261188451E-02  0.0000000000000E+00  0.4323091038869E-03
 0.1873483927547E-02 -0.8466828041171E-02  0.0000000000000E+00  0.5830424294516E-03
 0.1812621412664E-02 -0.8416202552722E-02  0.0000000000000E+00  0.7456058631024E-03
 0.1742865062270E-02 -0.8355108882865E-02  0.0000000000000E+00  0.9172618062933E-03
 0.1664954850935E-02 -0.8281525364833E-02  0.0000000000000E+00  0.1094915931347E-02
 0.1579946467071E-02 -0.8193078477151E-02  0.0000000000000E+00  0.1275037142327E-02
 0.1488867485232E-02 -0.8086450526879E-02  0.0000000000000E+00  0.1452838382206E-02
 0.1392761173521E-02 -0.7957107305838E-02  0.0000000000000E+00  0.1620854910583E-02
 0.1293258374569E-02 -0.7799392087105E-02  0.0000000000000E+00  0.1767179561678E-02
 0.1193738858288E-02 -0.7606963877656E-02  0.0000000000000E+00  0.1873460926722E-02
 0.1101272137807E-02 -0.7373675819152E-02  0.0000000000000E+00  0.1912517683259E-02
 0.1029935758840E-02 -0.7095374175324E-02  0.0000000000000E+00  0.1845439037524E-02
 0.1006707116017E-02 -0.6773322942548E-02  0.0000000000000E+00  0.1618553964333E-02
 0.1081950436729E-02 -0.6421507150692E-02  0.0000000000000E+00  0.1163917870003E-02
 0.1345133912388E-02 -0.6080646874235E-02  0.0000000000000E+00  0.4156959624382E-03
 0.1938459003444E-02 -0.5834451780790E-02  0.0000000000000E+00 -0.6363863140004E-03
 0.3043901609197E-02 -0.5808401309388E-02  0.0000000000000E+00 -0.1839957543974E-02
 0.4801285389404E-02 -0.6114319622201E-02  0.0000000000000E+00 -0.2755769555151E-02
 0.7142757026786E-02 -0.6723872392820E-02  0.0000000000000E+00 -0.2675712476903E-02
 0.9660132942566E-02 -0.7363959375667E-02  0.0000000000000E+00 -0.9890805756570E-03
 0.2143484991344E-03 -0.8154914036121E-02  0.0000000000000E+00 -0.1839918609752E-02
 0.6460314810409E-03 -0.8406816929209E-02  0.0000000000000E+00 -0.2016207484895E-02
 0.1052501981170E-02 -0.8621560035147E-02  0.0000000000000E+00 -0.1991229523744E-02
 0.1390243368386E-02 -0.8772770289424E-02  0.0000000000000E+00 -0.1824013248760E-02
 0.1643897794156E-02 -0.8856982056719E-02  0.0000000000000E+00 -0.1591395603585E-02
 0.1820744518907E-02 -0.8886925596125E-02  0.0000000000000E+00 -0.1352257462033E-02
 0.1937614053606E-02 -0.8880018229086E-02  0.0000000000000E+00 -0.1137732854801E-02
 0.2011518608452E-02 -0.8851180919353E-02  0.0000000000000E+00 -0.9578734399881E-03
 0.2055910532977E-02 -0.8810792444441E-02  0.0000000000000E+00 -0.8113826232193E-03
 0.2080305799514E-02 -0.8765281055196E-02  0.0000000000000E+00 -0.6924558942861E-03
 0.2091091319766E-02 -0.8718345755049E-02  0.0000000000000E+00 -0.5942980284718E-03
 0.2092446102633E-02 -0.8671985304928E-02  0.0000000000000E+00 -0.5105581863385E-03
 0.2087056440869E-02 -0.8627188206950E-02  0.0000000000000E+00 -0.4357542732044E-03
 0.2076604089477E-02 -0.8584350985157E-02  0.0000000000000E+00 -0.3652801178657E-03
 0.2062079859552E-02 -0.8543514045464E-02  0.0000000000000E+00 -0.2952705264215E-03
 0.2043975561790E-02 -0.8504480265696E-02  0.0000000000000E+00 -0.2224421894944E-03
 0.2022393288757E-02 -0.8466856622241E-02  0.0000000000000E+00 -0.1439610390586E-03
 0.1997100591795E-02 -0.8430043572100E-02  0.0000000000000E+00 -0.5736576883442E-04
 0.1967553663381E-02 -0.8393185538774E-02  0.0000000000000E+00  0.3943335085307E-04
 0.1932919192464E-02 -0.8355103362322E-02  0.0000000000000E+00  0.1480523165271E-03
 0.1892135207852E-02 -0.8314237808783E-02  0.0000000000000E+00  0.2694200020079E-03
 0.1844053583338E-02 -0.8268640438334E-02  0.0000000000000E+00  0.4035084579890E-03
 0.1787676811557E-02 -0.8216033264697E-02  0.0000000000000E+00  0.5491287504825E-03
 0.1722440694007E-02 -0.8153956717198E-02  0.0000000000000E+00  0.7039499207901E-03
 0.1648485242298E-02 -0.8080143387678E-02  0.0000000000000E+00  0.8648002917409E-03
 0.1566655646074E-02 -0.7992575451289E-02  0.0000000000000E+00  0.1027978252958E-02
 0.1478199121646E-02 -0.7888947077723E-02  0.0000000000000E+00  0.1189081497740E-02
 0.1384546691865E-02 -0.7766164938893E-02  0.0000000000000E+00  0.1342202335607E-02
 0.1287462066461E-02 -0.7620169434545E-02  0.0000000000000E+00  0.1478602667697E-02
 0.1189702535673E-02 -0.7446139605324E-02  0.0000000000000E+00  0.1585083283690E-02
 0.1096293451490E-02 -0.7239108420351E-02  0.0000000000000E+00  0.1642181757157E-02
 0.1016638214925E-02 -0.6995139109242E-02  0.0000000000000E+00  0.1622230469052E-02
 0.9679967852367E-03 -0.6713542163163E-02  0.0000000000000E+00  0.1487544281645E-02
 0.9812117423540E-03 -0.6400694832908E-02  0.0000000000000E+00  0.1189770023106E-02
 0.1109747620876E-02 -0.6076986971359E-02  0.0000000000000E+00  0.6746328509694E-03
 0.1440851522003E-02 -0.5787887745057E-02  0.0000000000000E+00 -0.9686486995170E-04
 0.2100260826511E-02 -0.5612793263130E-02  0.0000000000000E+00 -0.1096694582027E-02
 0.3230184424873E-02 -0.5654355986588E-02  0.0000000000000E+00 -0.2145285368009E-02
 0.4914667379365E-02 -0.5985095706834E-02  0.0000000000000E+00 -0.2837896982140E-02
 0.7058533562179E-02 -0.6553329768592E-02  0.0000000000000E+00 -0.2601411801047E-02
 0.9315749681331E-02 -0.7126063690530E-02  0.0000000000000E+00 -0.9923122993051E-03
 0.1980693292049E-03 -0.7926740820433E-02  0.0000000000000E+00 -0.1690816644360E-02
 0.5975048931234E-03 -0.8161530966246E-02  0.0000000000000E+00 -0.1884091508355E-02
 0.9774422805637E-03 -0.8366097189273E-02  0.0000000000000E+00 -0.1897631099195E-02
 0.1300474353003E-02 -0.8517057480055E-02  0.0000000000000E+00 -0.1776760255048E-02
 0.1550642476595E-02 -0.8608754369773E-02  0.0000000000000E+00 -0.1584704842308E-02
 0.1731019547995E-02 -0.8649584979566E-02  0.0000000000000E+00 -0.1374142370500E-02
 0.1854275042520E-02 -0.8653478750380E-02  0.0000000000000E+00 -0.1176500893412E-02
 0.1934798112011E-02 -0.8633606040458E-02  0.0000000000000E+00 -0.1004881196283E-02
 0.1984839314524E-02 -0.8599890698149E-02  0.0000000000000E+00 -0.8611610802700E-03
 0.2013558031788E-02 -0.8558933195101E-02  0.0000000000000E+00 -0.7418868098399E-03
 0.2027368115530E-02 -0.8514794146745E-02  0.0000000000000E+00 -0.6417613190809E-03
 0.2030605461751E-02 -0.8469823040477E-02  0.0000000000000E+00 -0.5553173524240E-03
 0.2026129904688E-02 -0.8425280897603E-02  0.0000000000000E+00 -0.4775724420306E-03
 0.2015771015989E-02 -0.8381747739682E-02  0.0000000000000E+00 -0.4041999858934E-03
 0.2000630771719E-02 -0.8339367111401E-02  0.0000000000000E+00 -0.3315009083105E-03
 0.1981277735317E-02 -0.8297978037027E-02  0.0000000000000E+00 -0.2563136690893E-03
 0.1957864456511E-02 -0.8257170166907E-02  0.0000000000000E+00 -0.1759289882711E-03
 0.1930194839377E-02 -0.8216287135547E-02  0.0000000000000E+00 -0.8804858600947E-04
 0.1897763816397E-02 -0.8174393575822E-02  0.0000000000000E+00  0.9190407460780E-05
 0.1859799620454E-02 -0.8130228822961E-02  0.0000000000000E+00  0.1171020298608E-03
 0.1815343739457E-02 -0.8082174508814E-02  0.0000000000000E+00  0.2362506448670E-03
 0.1763399387222E-02 -0.8028263389263E-02  0.0000000000000E+00  0.3662193144684E-03
 0.1703150631207E-02 -0.7966240500465E-02  0.0000000000000E+00  0.5054455362716E-03
 0.1634210627383E-02 -0.7893694922388E-02  0.0000000000000E+00  0.6512369063288E-03
 0.1556869355417E-02 -0.7808408521115E-02  0.0000000000000E+00  0.8000082321983E-03
 0.1472125298809E-02 -0.7708424272133E-02  0.0000000000000E+00  0.9474959220804E-03
 0.1381474251794E-02 -0.7591578097788E-02  0.0000000000000E+00  0.1088523908621E-02
 0.1286802381916E-02 -0.7455092569206E-02  0.0000000000000E+00  0.1216229162787E-02
 0.1190631179239E-02 -0.7295495013989E-02  0.0000000000000E+00  0.1320852648366E-02
 0.1096858068703E-02 -0.7108934225591E-02  0.0000000000000E+00  0.1388289885220E-02
 0.1012113975773E-02 -0.6891954657311E-02  0.0000000000000E+00  0.1398579951473E-02
 0.9479557152929E-03 -0.6642900706033E-02  0.0000000000000E+00  0.1324533900698E-02
 0.9243120441152E-03 -0.6364373783393E-02  0.0000000000000E+00  0.1131093184894E-02
 0.9747103046316E-03 -0.6067083718777E-02  0.0000000000000E+00  0.7768499824682E-03
 0.1153525357734E-02 -0.5775906399930E-02  0.0000000000000E+00  0.2219474624879E-03
 0.1542908621951E-02 -0.5537818831520E-02  0.0000000000000E+00 -0.5486671993867E-03
 0.2250945721360E-02 -0.5424870123044E-02  0.0000000000000E+00 -0.1478761175563E-02
 0.3385564426253E-02 -0.5518358761412E-02  0.0000000000000E+00 -0.2377683905446E-02
 0.4990236672932E-02 -0.5861145987045E-02  0.0000000000000E+00 -0.2882659137769E-02
 0.6957450489682E-02 -0.6389427599818E-02  0.0000000000000E+00 -0.2531079616521E-02
 0.8994942251730E-02 -0.6905376105590E-02  0.0000000000000E+00 -0.9964869137978E-03
 0.1836867999269E-03 -0.7704160473438E-02  0.0000000000000E+00 -0.1552192764557E-02
 0.5544552028686E-03 -0.7923413139081E-02  0.0000000000000E+00 -0.1759291112516E-02
 0.9099838473994E-03 -0.8117810333022E-02  0.0000000000000E+00 -0.1804920242241E-02
 0.1218062593647E-02 -0.8266719886631E-02  0.0000000000000E+00 -0.1724228294146E-02
 0.1462918505233E-02 -0.8363284654461E-02  0.0000000000000E+00 -0.1569322698008E-02
 0.1644649303924E-02 -0.8412657857911E-02  0.0000000000000E+00 -0.1386798943624E-02
 0.1772514647582E-02 -0.8425776905975E-02  0.0000000000000E+00 -0.1207249082240E-02
 0.1858472871467E-02 -0.8414037754559E-02  0.0000000000000E+00 -0.1045703279712E-02
 0.1913476631415E-02 -0.8386683107635E-02  0.0000000000000E+00 -0.9065659579598E-03
 0.1946167166954E-02 -0.8350264493896E-02  0.0000000000000E+00 -0.7884883810446E-03
 0.1962851946641E-02 -0.8309051623665E-02  0.0000000000000E+00 -0.6876402187826E-03
 0.1967935240289E-02 -0.8265655473682E-02  0.0000000000000E+00 -0.5994900922898E-03
 0.1964397856658E-02 -0.8221563293326E-02  0.0000000000000E+00 -0.5196285368709E-03
 0.1954188981256E-02 -0.8177518629183E-02  0.0000000000000E+00 -0.4440790640480E-03
 0.1938509408401E-02 -0.8133764097562E-02  0.0000000000000E+00 -0.3693694898061E-03
 0.1918002764447E-02 -0.8090181098176E-02  0.0000000000000E+00 -0.2925102782097E-03
 0.1892878184757E-02 -0.8046356026085E-02  0.0000000000000E+00 -0.2109570485597E-03
 0.1862988240658E-02 -0.8001596896753E-02  0.0000000000000E+00 -0.1226036836637E-03
 0.1827883381829E-02 -0.7954916507020E-02  0.0000000000000E+00 -0.2582936399056E-04
 0.1786871545730E-02 -0.7905005773512E-02  0.0000000000000E+00  0.8038068596580E-04
 0.1739112675700E-02 -0.7850221709888E-02  0.0000000000000E+00  0.1962478350606E-03
 0.1683769787861E-02 -0.7788609999050E-02  0.0000000000000E+00  0.3209997830997E-03
 0.1620212957456E-02 -0.7717966996014E-02  0.0000000000000E+00  0.4527337145428E-03
 0.1548242731686E-02 -0.7635960671330E-02  0.0000000000000E+00  0.5884224792922E-03
 0.1468324348002E-02 -0.7540462084784E-02  0.0000000000000E+00  0.7240981238209E-03
 0.1381650244260E-02 -0.7429628848462E-02  0.0000000000000E+00  0.8549944525755E-03
 0.1290010069745E-02 -0.7301505603516E-02  0.0000000000000E+00  0.9752746090250E-03
 0.1195780713845E-02 -0.7153708249418E-02  0.0000000000000E+00  0.1077303486386E-02
 0.1102254723973E-02 -0.6983436387591E-02  0.0000000000000E+00  0.1150573846407E-02
 0.1014443993136E-02 -0.6787893423174E-02  0.0000000000000E+00  0.1180476940626E-02
 0.9404817133407E-03 -0.6565188989142E-02  0.0000000000000E+00  0.1147147003893E-02
 0.8938083929078E-03 -0.6315889409387E-02  0.0000000000000E+00  0.1024724251218E-02
 0.8964197992022E-03 -0.6045543219822E-02  0.0000000000000E+00  0.7818481369224E-03
 0.9833684471336E-03 -0.5768277846825E-02  0.0000000000000E+00  0.3849711545590E-03
 0.1208133932860E-02 -0.5511681851534E-02  0.0000000000000E+00 -0.1917273601325E-03
 0.1645952313319E-02 -0.5321829309596E-02  0.0000000000000E+00 -0.9431390230666E-03
 0.2387571964974E-02 -0.5261978262653E-02  0.0000000000000E+00 -0.1793702106166E-02
 0.3512402712479E-02 -0.5394655169033E-02  0.0000000000000E+00 -0.2552741248444E-02
 0.5035052601171E-02 -0.5740962125677E-02  0.0000000000000E+00 -0.2901102104834E-02
 0.6844520368970E-02 -0.6231856278759E-02  0.0000000000000E+00 -0.2465482257493E-02
 0.8693854935441E-02 -0.6699271917894E-02  0.0000000000000E+00 -0.1001010413333E-02
 0.1708615796835E-03 -0.7486254321112E-02  0.0000000000000E+00 -0.1422994924094E-02
 0.5159512326473E-03 -0.7691344796693E-02  0.0000000000000E+00 -0.1641492740675E-02
 0.8490119764032E-03 -0.7875784543642E-02  0.0000000000000E+00 -0.1714090290553E-02
 0.1142230284056E-02 -0.8021400078141E-02  0.0000000000000E+00 -0.1668303931916E-02
 0.1380472968307E-02 -0.8120780633582E-02  0.0000000000000E+00 -0.1547195975989E-02
 0.1561781595202E-02 -0.8176682807712E-02  0.0000000000000E+00 -0.1391683034299E-02
 0.1692670022714E-02 -0.8197536240247E-02  0.0000000000000E+00 -0.1230826749837E-02
 0.1782914756962E-02 -0.8193040377276E-02  0.0000000000000E+00 -0.1080712349838E-02
 0.1842155521652E-02 -0.8171626289664E-02  0.0000000000000E+00 -0.9476726039525E-03
 0.1878407597841E-02 -0.8139627742581E-02  0.0000000000000E+00 -0.8321791961062E-03
 0.1897763709548E-02 -0.8101390118585E-02  0.0000000000000E+00 -0.7317851080312E-03
 0.1904616343666E-02 -0.8059699627339E-02  0.0000000000000E+00 -0.6429075880552E-03
 0.1902015832316E-02 -0.8016220754943E-02  0.0000000000000E+00 -0.5617581430723E-03
 0.1892001374719E-02 -0.7971836772147E-02  0.0000000000000E+00 -0.4847654134771E-03
 0.1875858278441E-02 -0.7926881937745E-02  0.0000000000000E+00 -0.4087351190514E-03
 0.1854301634797E-02 -0.7881283669995E-02  0.0000000000000E+00 -0.3308930339705E-03
 0.1827601396008E-02 -0.7834637093181E-02  0.0000000000000E+00 -0.2488938295414E-03
 0.1795668867990E-02 -0.7786233624631E-02  0.0000000000000E+00 -0.1608468309552E-03
 0.1758123811907E-02 -0.7735059199499E-02  0.0000000000000E+00 -0.6538296226094E-04
 0.1714368352308E-02 -0.7679785237323E-02  0.0000000000000E+00  0.3821976686769E-04
 0.1663692391549E-02 -0.7618773776219E-02  0.0000000000000E+00  0.1498618454059E-03
 0.1605425264908E-02 -0.7550110913067E-02  0.0000000000000E+00  0.2684471846954E-03
 0.1539127384346E-02 -0.7471670029570E-02  0.0000000000000E+00  0.3917648247078E-03
 0.1464796426799E-02 -0.7381226630609E-02  0.0000000000000E+00  0.5164835268791E-03
 0.1383094651038E-02 -0.7276778332973E-02  0.0000000000000E+00  0.6382926847002E-03
 0.1295440922616E-02 -0.7156645881395E-02  0.0000000000000E+00  0.7519943639148E-03
 0.1203951617277E-02 -0.7019139945436E-02  0.0000000000000E+00  0.8512147737832E-03
 0.1111513229507E-02 -0.6862330672538E-02  0.0000000000000E+00  0.9277396483132E-03
 0.1022179004448E-02 -0.6684147105965E-02  0.0000000000000E+00  0.9705922726153E-03
 0.9420142082545E-03 -0.6482885124520E-02  0.0000000000000E+00  0.9650518202797E-03
 0.8805002919961E-03 -0.6258199741590E-02  0.0000000000000E+00  0.8918889823989E-03
 0.8526330108758E-03 -0.6012718522489E-02  0.0000000000000E+00  0.7272703264691E-03
 0.8818457624754E-03 -0.5754487906679E-02  0.0000000000000E+00  0.4442611959842E-03
 0.1003665439045E-02 -0.5500119001981E-02  0.0000000000000E+00  0.1747803583402E-04
 0.1269299050224E-02 -0.5278404211365E-02  0.0000000000000E+00 -0.5660002148022E-03
 0.1746108468283E-02 -0.5132868899769E-02  0.0000000000000E+00 -0.1284912631911E-02
 0.2508716621330E-02 -0.5117616075974E-02  0.0000000000000E+00 -0.2051652540431E-02
 0.3613438759039E-02 -0.5279337247312E-02  0.0000000000000E+00 -0.2682587926348E-02
 0.5054879953388E-02 -0.5623669385522E-02  0.0000000000000E+00 -0.2900607495521E-02
 0.6723440231152E-02 -0.6080401084769E-02  0.0000000000000E+00 -0.2404599504526E-02
 0.8409302738678E-02 -0.6505657663975E-02  0.0000000000000E+00 -0.1005870437841E-02
 0.1593313002728E-03 -0.7272297194189E-02  0.0000000000000E+00 -0.1302330475360E-02
 0.4812584723097E-03 -0.7464425951775E-02  0.0000000000000E+00 -0.1530341231362E-02
 0.7936039323851E-03 -0.7639234114684E-02  0.0000000000000E+00 -0.1625791675750E-02
 0.1072266648783E-02 -0.7780712290626E-02  0.0000000000000E+00 -0.1610418502079E-02
 0.1302995594576E-02 -0.7881309765844E-02  0.0000000000000E+00 -0.1519934299566E-02
 0.1482453675482E-02 -0.7942035553693E-02  0.0000000000000E+00 -0.1390108517222E-02
 0.1614975204692E-02 -0.7969252735308E-02  0.0000000000000E+00 -0.1248086696095E-02
 0.1708423665747E-02 -0.7971099383561E-02  0.0000000000000E+00 -0.1110351269139E-02
 0.1771167187044E-02 -0.7955136786443E-02  0.0000000000000E+00 -0.9846391994835E-03
 0.1810533026053E-02 -0.7927360134323E-02  0.0000000000000E+00 -0.8729486488203E-03
 0.1832316251464E-02 -0.7892079385979E-02  0.0000000000000E+00 -0.7740979786580E-03
 0.1840828306061E-02 -0.7852176713951E-02  0.0000000000000E+00 -0.6854336645666E-03
 0.1839140888911E-02 -0.7809445008416E-02  0.0000000000000E+00 -0.6038129832551E-03
 0.1829353623545E-02 -0.7764881327328E-02  0.0000000000000E+00 -0.5261093482935E-03
 0.1812820837603E-02 -0.7718901635313E-02  0.0000000000000E+00 -0.4494471434619E-03
 0.1790323908816E-02 -0.7671480725339E-02  0.0000000000000E+00 -0.3713033358674E-03
 0.1762196003970E-02 -0.7622232303506E-02  0.0000000000000E+00 -0.2895596798670E-03
 0.1728414973095E-02 -0.7570447841079E-02  0.0000000000000E+00 -0.2025587247769E-03
 0.1688680832080E-02 -0.7515108332846E-02  0.0000000000000E+00 -0.1091881947617E-03
 0.1642501122550E-02 -0.7454890745888E-02  0.0000000000000E+00 -0.9009574688440E-05
 0.1589304311131E-02 -0.7388187578705E-02  0.0000000000000E+00  0.9757917177905E-04
 0.1528590912005E-02 -0.7313149238656E-02  0.0000000000000E+00  0.2091884836065E-03
 0.1460115458685E-02 -0.7227749328148E-02  0.0000000000000E+00  0.3233315397858E-03
 0.1384081235758E-02 -0.7129897221278E-02  0.0000000000000E+00  0.4364078454208E-03
 0.1301364943038E-02 -0.7017750644781E-02  0.0000000000000E+00  0.5438121266326E-03
 0.1213635826143E-02 -0.6889835132898E-02  0.0000000000000E+00  0.6399940850378E-03
 0.1123357452303E-02 -0.6744773511739E-02  0.0000000000000E+00  0.7181730320606E-03
 0.1033928520870E-02 -0.6581133522339E-02  0.0000000000000E+00  0.7697503985758E-03
 0.9501308375477E-03 -0.6397603203756E-02  0.0000000000000E+00  0.7835521743217E-03
 0.8789923268966E-03 -0.6193566375391E-02  0.0000000000000E+00  0.7451101752394E-03
 0.8311522508256E-03 -0.5970143525435E-02  0.0000000000000E+00  0.6362970955562E-03
 0.8228036776667E-03 -0.5731791735678E-02  0.0000000000000E+00  0.4358322678655E-03
 0.8782084956700E-03 -0.5488557837739E-02  0.0000000000000E+00  0.1216132336244E-03
 0.1032476617486E-02 -0.5258662952365E-02  0.0000000000000E+00 -0.3237523486989E-03
 0.1333573759664E-02 -0.5070903064562E-02  0.0000000000000E+00 -0.9018588048755E-03
 0.1840680761382E-02 -0.4965238961535E-02  0.0000000000000E+00 -0.1579098824609E-02
 0.2613964626530E-02 -0.4986947241915E-02  0.0000000000000E+00 -0.2261531110525E-02
 0.3691418616393E-02 -0.5169693560931E-02  0.0000000000000E+00 -0.2776649881429E-02
 0.5054346618925E-02 -0.5508645205918E-02  0.0000000000000E+00 -0.2885986763319E-02
 0.6597114186310E-02 -0.5934953957046E-02  0.0000000000000E+00 -0.2347776792677E-02
 0.8138522778518E-02 -0.6322892246998E-02  0.0000000000000E+00 -0.1011802718138E-02
 0.1488899536028E-03 -0.7061708760034E-02  0.0000000000000E+00 -0.1189436168055E-02
 0.4497909065462E-03 -0.7241925403013E-02  0.0000000000000E+00 -0.1425471172372E-02
 0.7429936514854E-03 -0.7407486619659E-02  0.0000000000000E+00 -0.1540438440834E-02
 0.1007533372096E-02 -0.7544271148320E-02  0.0000000000000E+00 -0.1551655322995E-02
 0.1230150825535E-02 -0.7644846822438E-02  0.0000000000000E+00 -0.1488857735122E-02
 0.1406624478370E-02 -0.7708966963591E-02  0.0000000000000E+00 -0.1383237796706E-02
 0.1539580404456E-02 -0.7741313659696E-02  0.0000000000000E+00 -0.1259851075385E-02
 0.1635234495088E-02 -0.7748625697784E-02  0.0000000000000E+00 -0.1135099627171E-02
 0.1700760907495E-02 -0.7737588228969E-02  0.0000000000000E+00 -0.1017683048707E-02
 0.1742773557666E-02 -0.7713778196243E-02  0.0000000000000E+00 -0.9108427144284E-03
 0.1766710834689E-02 -0.7681381890402E-02  0.0000000000000E+00 -0.8145248748913E-03
 0.1776745970036E-02 -0.7643307674143E-02  0.0000000000000E+00 -0.7269614028593E-03
 0.1775928718612E-02 -0.7601430401566E-02  0.0000000000000E+00 -0.6456600709575E-03
 0.1766390715731E-02 -0.7556834326743E-02  0.0000000000000E+00 -0.5679642139440E-03
 0.1749539336662E-02 -0.7510005499488E-02  0.0000000000000E+00 -0.4913474012943E-03
 0.1726215841962E-02 -0.7460965509155E-02  0.0000000000000E+00 -0.4135660953270E-03
 0.1696817320807E-02 -0.7409354425908E-02  0.0000000000000E+00 -0.3327510739757E-03
 0.1661393811723E-02 -0.7354478015221E-02  0.0000000000000E+00 -0.2474907804825E-03
 0.1619733881024E-02 -0.7295331256354E-02  0.0000000000000E+00 -0.1569308413051E-03
 0.1571458853876E-02 -0.7230618140812E-02  0.0000000000000E+00 -0.6090470150549E-04
 0.1516141897518E-02 -0.7158783368887E-02  0.0000000000000E+00  0.3991388441402E-04
 0.1453458025708E-02 -0.7078062361120E-02  0.0000000000000E+00  0.1438715465708E-03
 0.1383358708710E-02 -0.6986549538638E-02  0.0000000000000E+00  0.2482386322599E-03
 0.1306259331481E-02 -0.6882311554162E-02  0.0000000000000E+00  0.3491840243032E-03
 0.1223263622901E-02 -0.6763695091201E-02  0.0000000000000E+00  0.4418618227126E-03
 0.1136306673469E-02 -0.6629464388544E-02  0.0000000000000E+00  0.5204541557833E-03
 0.1048207819292E-02 -0.6478588697892E-02  0.0000000000000E+00  0.5779051377807E-03
 0.9628654857851E-03 -0.6310159184706E-02  0.0000000000000E+00  0.6054218207537E-03
 0.8857390609396E-03 -0.6123626831718E-02  0.0000000000000E+00  0.5918882137231E-03
 0.8247056899185E-03 -0.5919422793770E-02  0.0000000000000E+00  0.5234122635728E-03
 0.7913499150713E-03 -0.5700007715771E-02  0.0000000000000E+00  0.3833450549680E-03
 0.8026998398404E-03 -0.5471393999807E-02  0.0000000000000E+00  0.1533143566574E-03
 0.8832908869193E-03 -0.5245128087463E-02  0.0000000000000E+00 -0.1838203836423E-03
 0.1067102817801E-02 -0.5040274659723E-02  0.0000000000000E+00 -0.6379734574276E-03
 0.1398251694933E-02 -0.4884735242710E-02  0.0000000000000E+00 -0.1201168199069E-02
 0.1927876076958E-02 -0.4814377945356E-02  0.0000000000000E+00 -0.1830852726574E-02
 0.2703561766217E-02 -0.4866359273269E-02  0.0000000000000E+00 -0.2430961593595E-02
 0.3748905541321E-02 -0.5063890160007E-02  0.0000000000000E+00 -0.2842423386787E-02
 0.5037029721623E-02 -0.5395091371319E-02  0.0000000000000E+00 -0.2860249695224E-02
 0.6468029087639E-02 -0.5795636709289E-02  0.0000000000000E+00 -0.2293523549983E-02
 0.7879116145275E-02 -0.6149550894269E-02  0.0000000000000E+00 -0.1020532724850E-02
 0.1393735394460E-03 -0.6854018919802E-02  0.0000000000000E+00 -0.1083654806133E-02
 0.4210759451284E-03 -0.7023243312962E-02  0.0000000000000E+00 -0.1326524324874E-02
 0.6965425874706E-03 -0.7179966936610E-02  0.0000000000000E+00 -0.1458280997638E-02
 0.9474632800081E-03 -0.7311707527485E-02  0.0000000000000E+00 -0.1492832036033E-02
 0.1161598504129E-02 -0.7411307277603E-02  0.0000000000000E+00 -0.1455042475508E-02
 0.1334199378569E-02 -0.7477633635112E-02  0.0000000000000E+00 -0.1372084504916E-02
 0.1466569290724E-02 -0.7514015619301E-02  0.0000000000000E+00 -0.1266890302585E-02
 0.1563525162337E-02 -0.7525962147687E-02  0.0000000000000E+00 -0.1155448278368E-02
 0.1631145722670E-02 -0.7519310948963E-02  0.0000000000000E+00 -0.1047060274327E-02
 0.1675334264630E-02 -0.7499174532754E-02  0.0000000000000E+00 -0.9459506052935E-03
 0.1701134594649E-02 -0.7469548850863E-02  0.0000000000000E+00 -0.8530481944692E-03
 0.1712536796279E-02 -0.7433309417281E-02  0.0000000000000E+00 -0.7674093280541E-03
 0.1712531165300E-02 -0.7392370594823E-02  0.0000000000000E+00 -0.6871804467449E-03
 0.1703255007795E-02 -0.7347877808184E-02  0.0000000000000E+00 -0.6101868468958E-03
 0.1686152911258E-02 -0.7300374638511E-02  0.0000000000000E+00 -0.5342719902864E-03
 0.1662118747917E-02 -0.7249927334888E-02  0.0000000000000E+00 -0.4574926823395E-03
 0.1631612743802E-02 -0.7196208183692E-02  0.0000000000000E+00 -0.3782447615360E-03
 0.1594760766114E-02 -0.7138549133957E-02  0.0000000000000E+00 -0.2953705192767E-03
 0.1551445818584E-02 -0.7075975214530E-02  0.0000000000000E+00 -0.2082711754006E-03
 0.1501408855792E-02 -0.7007235651217E-02  0.0000000000000E+00 -0.1170388360609E-03
 0.1444371722479E-02 -0.6930845782971E-02  0.0000000000000E+00 -0.2260014582783E-04
 0.1380185741238E-02 -0.6845143788082E-02  0.0000000000000E+00  0.7315712291786E-04
 0.1309000803937E-02 -0.6748362771656E-02  0.0000000000000E+00  0.1672944635485E-03
 0.1231448404153E-02 -0.6638746673582E-02  0.0000000000000E+00  0.2557918281665E-03
 0.1148866851579E-02 -0.6514854704481E-02  0.0000000000000E+00  0.3336208275987E-03
 0.1063464398290E-02 -0.6375715575615E-02  0.0000000000000E+00  0.3947832166181E-03
 0.9784137701019E-03 -0.6220667383081E-02  0.0000000000000E+00  0.4320771520969E-03
 0.8980873594606E-03 -0.6049333987581E-02  0.0000000000000E+00  0.4366945038007E-03
 0.8285559401437E-03 -0.5861910723763E-02  0.0000000000000E+00  0.3978078642173E-03
 0.7784169826673E-03 -0.5659806671876E-02  0.0000000000000E+00  0.3023747295230E-03
 0.7599788353358E-03 -0.5446666414890E-02  0.0000000000000E+00  0.1355071678467E-03
 0.7907579439811E-03 -0.5229765527632E-02  0.0000000000000E+00 -0.1180606492148E-03
 0.8950823918631E-03 -0.5021678092497E-02  0.0000000000000E+00 -0.4705994580133E-03
 0.1105266587522E-02 -0.4841674462578E-02  0.0000000000000E+00 -0.9252747356047E-03
 0.1461257128539E-02 -0.4716133056952E-02  0.0000000000000E+00 -0.1466308448343E-02
 0.2006600618698E-02 -0.4676655180225E-02  0.0000000000000E+00 -0.2045082360528E-02
 0.2778096009923E-02 -0.4753160583506E-02  0.0000000000000E+00 -0.2566473936173E-02
 0.3788433669675E-02 -0.4960629594976E-02  0.0000000000000E+00 -0.2885505044368E-02
 0.5005089045862E-02 -0.5282493175781E-02  0.0000000000000E+00 -0.2826872507211E-02
 0.6339243741690E-02 -0.5660767794569E-02  0.0000000000000E+00 -0.2236365292549E-02
 0.7626446197075E-02 -0.5987261511922E-02  0.0000000000000E+00 -0.1038739304334E-02
 0.1306449916863E-03 -0.6648847585166E-02  0.0000000000000E+00 -0.9844312285892E-03
 0.3947279574245E-03 -0.6807908416701E-02  0.0000000000000E+00 -0.1233175178379E-02
 0.6537197944179E-03 -0.6956225284423E-02  0.0000000000000E+00 -0.1379479835593E-02
 0.8915658398637E-03 -0.7082738006974E-02  0.0000000000000E+00 -0.1434588311314E-02
 0.1097024591967E-02 -0.7180650434239E-02  0.0000000000000E+00 -0.1419384620277E-02
 0.1265074222040E-02 -0.7248219840134E-02  0.0000000000000E+00 -0.1357540271306E-02
 0.1396006255927E-02 -0.7287695724191E-02  0.0000000000000E+00 -0.1269921347101E-02
 0.1493463407784E-02 -0.7303521934669E-02  0.0000000000000E+00 -0.1171882680913E-02
 0.1562537317066E-02 -0.7300739877204E-02  0.0000000000000E+00 -0.1073043133851E-02
 0.1608443894284E-02 -0.7283977842424E-02  0.0000000000000E+00 -0.9783796179072E-03
 0.1635812518334E-02 -0.7256994303545E-02  0.0000000000000E+00 -0.8896596631136E-03
 0.1648417022464E-02 -0.7222584110538E-02  0.0000000000000E+00 -0.8066921171727E-03
 0.1649157140206E-02 -0.7182663861352E-02  0.0000000000000E+00 -0.7282370734131E-03
 0.1640152341926E-02 -0.7138415790045E-02  0.0000000000000E+00 -0.6526021408957E-03
 0.1622869332176E-02 -0.7090428307830E-02  0.0000000000000E+00 -0.5780119593250E-03
 0.1598246852843E-02 -0.7038809121586E-02  0.0000000000000E+00 -0.5028370383573E-03
 0.1566806229138E-02 -0.6983266952418E-02  0.0000000000000E+00 -0.4257482819080E-03
 0.1528750961667E-02 -0.6923169686701E-02  0.0000000000000E+00 -0.3458449646871E-03
 0.1484062126788E-02 -0.6857585844096E-02  0.0000000000000E+00 -0.2627780543929E-03
 0.1432603761347E-02 -0.6785325113670E-02  0.0000000000000E+00 -0.1768828930904E-03
 0.1374248174901E-02 -0.6704988843271E-02  0.0000000000000E+00 -0.8931517948771E-04
 0.1309022931611E-02 -0.6615032751472E-02  0.0000000000000E+00 -0.2167032099515E-05
 0.1237275770996E-02 -0.6513843372970E-02  0.0000000000000E+00  0.8144971622701E-04
 0.1159854958830E-02 -0.6399857838465E-02  0.0000000000000E+00  0.1573705730889E-03
 0.1078335257312E-02 -0.6271865381016E-02  0.0000000000000E+00  0.2204455743324E-03
 0.9951970142830E-03 -0.6129176073959E-02  0.0000000000000E+00  0.2645834643024E-03
 0.9139532101863E-03 -0.5971506938527E-02  0.0000000000000E+00  0.2825600141215E-03
 0.8394120439068E-03 -0.5799007411714E-02  0.0000000000000E+00  0.2657157367323E-03
 0.7781766259132E-03 -0.5612577838246E-02  0.0000000000000E+00  0.2037112632020E-03
 0.7394256676617E-03 -0.5414512085907E-02  0.0000000000000E+00  0.8457012804736E-04
 0.7359705917770E-03 -0.5209462022801E-02  0.0000000000000E+00 -0.1046483610385E-03
 0.7854985169366E-03 -0.5005673109615E-02  0.0000000000000E+00 -0.3760509162237E-03
 0.9117346669175E-03 -0.4816322603210E-02  0.0000000000000E+00 -0.7373082779156E-03
 0.1144959426431E-02 -0.4660381408641E-02  0.0000000000000E+00 -0.1185698772530E-02
 0.1520872321264E-02 -0.4562307312647E-02  0.0000000000000E+00 -0.1699328044606E-02
 0.2076052102722E-02 -0.4549511271828E-02  0.0000000000000E+00 -0.2225884341587E-02
 0.2838295525780E-02 -0.4645640466336E-02  0.0000000000000E+00 -0.2673276267681E-02
 0.3811856990962E-02 -0.4859229370057E-02  0.0000000000000E+00 -0.2910442179393E-02
 0.4962035590294E-02 -0.5171114537895E-02  0.0000000000000E+00 -0.2787930446305E-02
 0.6205389899881E-02 -0.5527593518988E-02  0.0000000000000E+00 -0.2177531060106E-02
 0.7411362921710E-02 -0.5841045093535E-02  0.0000000000000E+00 -0.1054730258543E-02
 0.1226057110067E-03 -0.6445875038280E-02  0.0000000000000E+00 -0.8912412260592E-03
 0.3704352804368E-03 -0.6595505907210E-02  0.0000000000000E+00 -0.1145085640022E-02
 0.6140805272805E-03 -0.6735837756856E-02  0.0000000000000E+00 -0.1304074923744E-02
 0.8394038773647E-03 -0.6857044062695E-02  0.0000000000000E+00 -0.1377364760590E-02
 0.1036115033552E-02 -0.6952734007657E-02  0.0000000000000E+00 -0.1382572438203E-02
 0.1199098790022E-02 -0.7020759354938E-02  0.0000000000000E+00 -0.1340337021779E-02
 0.1327883629187E-02 -0.7062515420663E-02  0.0000000000000E+00 -0.1269568817559E-02
 0.1425136551012E-02 -0.7081534226581E-02  0.0000000000000E+00 -0.1184853580873E-02
 0.1495072275031E-02 -0.7082124420006E-02  0.0000000000000E+00 -0.1095906688615E-02
 0.1542256287496E-02 -0.7068429743489E-02  0.0000000000000E+00 -0.1008259151562E-02
 0.1570898000145E-02 -0.7043940451206E-02  0.0000000000000E+00 -0.9243801881078E-03
 0.1584532318703E-02 -0.7011333430081E-02  0.0000000000000E+00 -0.8447539502014E-03
 0.1585943503941E-02 -0.6972495722304E-02  0.0000000000000E+00 -0.7687196687733E-03
 0.1577212717350E-02 -0.6928624179534E-02  0.0000000000000E+00 -0.6950581253735E-03
 0.1559814687141E-02 -0.6880339587548E-02  0.0000000000000E+00 -0.6223783153972E-03
 0.1534725029390E-02 -0.6827787061362E-02  0.0000000000000E+00 -0.5493712538143E-03
 0.1502523068932E-02 -0.6770714430388E-02  0.0000000000000E+00 -0.4749877398448E-03
 0.1463490131323E-02 -0.6708533187497E-02  0.0000000000000E+00 -0.3985832928960E-03
 0.1417707063237E-02 -0.6640366262483E-02  0.0000000000000E+00 -0.3200502561489E-03
 0.1365162454452E-02 -0.6565096247562E-02  0.0000000000000E+00 -0.2399506397399E-03
 0.1305879103608E-02 -0.6481423038265E-02  0.0000000000000E+00 -0.1596452861328E-03
 0.1240059228036E-02 -0.6387931895459E-02  0.0000000000000E+00 -0.8140083602046E-04
 0.1168246087552E-02 -0.6283174507622E-02  0.0000000000000E+00 -0.8466660656986E-05
 0.1091502531599E-02 -0.6165793136591E-02  0.0000000000000E+00  0.5489351830423E-04
 0.1011636949274E-02 -0.6034818877381E-02  0.0000000000000E+00  0.1034689566047E-03
 0.9313940246690E-03 -0.5889852186035E-02  0.0000000000000E+00  0.1311593451786E-03
 0.8546057675041E-03 -0.5730988755466E-02  0.0000000000000E+00  0.1308318467213E-03
 0.7864696758085E-03 -0.5558883726852E-02  0.0000000000000E+00  0.9411971334200E-04
 0.7340354366714E-03 -0.5375088644750E-02  0.0000000000000E+00  0.1133653169672E-04
 0.7069227255598E-03 -0.5182675510505E-02  0.0000000000000E+00 -0.1282678584178E-03
 0.7182377077581E-03 -0.4987121383527E-02  0.0000000000000E+00 -0.3355853643843E-03
 0.7855608593635E-03 -0.4797365436776E-02  0.0000000000000E+00 -0.6196223188759E-03
 0.9317049717493E-03 -0.4626825080252E-02  0.0000000000000E+00 -0.9838295801828E-03
 0.1184689836375E-02 -0.4493792187369E-02  0.0000000000000E+00 -0.1420492104392E-02
 0.1576049824554E-02 -0.4420585348480E-02  0.0000000000000E+00 -0.1903107065851E-02
 0.2136121000551E-02 -0.4430657540753E-02  0.0000000000000E+00 -0.2377544706817E-02
 0.2885206162576E-02 -0.4542302562828E-02  0.0000000000000E+00 -0.2756059053886E-02
 0.3821446864047E-02 -0.4759121849784E-02  0.0000000000000E+00 -0.2921033932218E-02
 0.4908799625360E-02 -0.5060491263122E-02  0.0000000000000E+00 -0.2744106641865E-02
 0.6071908159754E-02 -0.5396817047929E-02  0.0000000000000E+00 -0.2123618576037E-02
 0.7205708153543E-02 -0.5699644879213E-02  0.0000000000000E+00 -0.1037935343102E-02
 0.1151626437433E-03 -0.6244829005895E-02  0.0000000000000E+00 -0.8036576407897E-03
 0.3479312382826E-03 -0.6385662644506E-02  0.0000000000000E+00 -0.1061951345434E-02
 0.5772337737334E-03 -0.6518396360819E-02  0.0000000000000E+00 -0.1232063971099E-02
 0.7905734765555E-03 -0.6634273679340E-02  0.0000000000000E+00 -0.1321493588907E-02
 0.9785497177150E-03 -0.6727325394169E-02  0.0000000000000E+00 -0.1345169032350E-02
 0.1136080085878E-02 -0.6795149596674E-02  0.0000000000000E+00 -0.1321110258740E-02
 0.1262127912618E-02 -0.6838471553802E-02  0.0000000000000E+00 -0.1266410251717E-02
 0.1358556888979E-02 -0.6860049834287E-02  0.0000000000000E+00 -0.1194811810005E-02
 0.1428811601865E-02 -0.6863529298661E-02  0.0000000000000E+00 -0.1115960319621E-02
 0.1476852456829E-02 -0.6852582414280E-02  0.0000000000000E+00 -0.1035773423399E-02
 0.1506474264975E-02 -0.6830413652411E-02  0.0000000000000E+00 -0.9572958372618E-03
 0.1520959204785E-02 -0.6799553974139E-02  0.0000000000000E+00 -0.8816084752671E-03
 0.1522956908336E-02 -0.6761834429768E-02  0.0000000000000E+00 -0.8085888654504E-03
 0.1514492839299E-02 -0.6718446699151E-02  0.0000000000000E+00 -0.7374744428741E-03
 0.1497036859582E-02 -0.6670031993873E-02  0.0000000000000E+00 -0.6672550191117E-03
 0.1471593435126E-02 -0.6616768124152E-02  0.0000000000000E+00 -0.5969433816523E-03
 0.1438795960307E-02 -0.6558443274196E-02  0.0000000000000E+00 -0.5257707866987E-03
 0.1399002437256E-02 -0.6494518237692E-02  0.0000000000000E+00 -0.4533452746972E-03
 0.1352393584956E-02 -0.6424178911939E-02  0.0000000000000E+00 -0.3797905358682E-03
 0.1299082428349E-02 -0.6346390671867E-02  0.0000000000000E+00 -0.3058782965681E-03
 0.1239240904538E-02 -0.6259961929681E-02  0.0000000000000E+00 -0.2331511936199E-03
 0.1173243099691E-02 -0.6163616948517E-02  0.0000000000000E+00 -0.1640214493218E-03
 0.1101824036561E-02 -0.6056081507293E-02  0.0000000000000E+00 -0.1018408853006E-03
 0.1026256621677E-02 -0.5936211352266E-02  0.0000000000000E+00 -0.5092803055695E-04
 0.9485763090271E-03 -0.5803286353472E-02  0.0000000000000E+00 -0.1649578864846E-04
 0.8717793119733E-03 -0.5657199823760E-02  0.0000000000000E+00 -0.4575229239467E-05
 0.7999898232803E-03 -0.5498417797734E-02  0.0000000000000E+00 -0.2210582982815E-04
 0.7387433160542E-03 -0.5328072216155E-02  0.0000000000000E+00 -0.7703838629769E-04
 0.6954485216335E-03 -0.5148303455946E-02  0.0000000000000E+00 -0.1782749050513E-03
 0.6800310773895E-03 -0.4962850279124E-02  0.0000000000000E+00 -0.3352288987654E-03
 0.7057030151246E-03 -0.4777838965157E-02  0.0000000000000E+00 -0.5567097666308E-03
 0.7897048654982E-03 -0.4602655028182E-02  0.0000000000000E+00 -0.8487591782421E-03
 0.9537061899064E-03 -0.4450658917598E-02  0.0000000000000E+00 -0.1211042354977E-02
 0.1223347932813E-02 -0.4339193423520E-02  0.0000000000000E+00 -0.1631708984752E-02
 0.1626188041484E-02 -0.4288351028559E-02  0.0000000000000E+00 -0.2080943505395E-02
 0.2187026470806E-02 -0.4317935607775E-02  0.0000000000000E+00 -0.2504222046970E-02
 0.2920044626620E-02 -0.4441727243692E-02  0.0000000000000E+00 -0.2818983669838E-02
 0.3818791497695E-02 -0.4659579391813E-02  0.0000000000000E+00 -0.2920004696396E-02
 0.4847377433701E-02 -0.4950141865574E-02  0.0000000000000E+00 -0.2697695381900E-02
 0.5937776343741E-02 -0.5268631907632E-02  0.0000000000000E+00 -0.2069363441596E-02
 0.7004146055726E-02 -0.5557097656917E-02  0.0000000000000E+00 -0.1020564478967E-02
 0.1082417621317E-03 -0.6045483439771E-02  0.0000000000000E+00 -0.7212951835541E-03
 0.3269964676116E-03 -0.6178083923715E-02  0.0000000000000E+00 -0.9834957745267E-03
 0.5428561003592E-03 -0.6303585997247E-02  0.0000000000000E+00 -0.1163414732035E-02
 0.7447345894157E-03 -0.6414165073607E-02  0.0000000000000E+00 -0.1267223992548E-02
 0.9240542401720E-03 -0.6504271475028E-02  0.0000000000000E+00 -0.1307629875531E-02
 0.1075851538280E-02 -0.6571361313930E-02  0.0000000000000E+00 -0.1300395154948E-02
 0.1198680975671E-02 -0.6615639148202E-02  0.0000000000000E+00 -0.1260947050180E-02
 0.1293750717168E-02 -0.6639212704929E-02  0.0000000000000E+00 -0.1202157072246E-02
 0.1363835690208E-02 -0.6645133155504E-02  0.0000000000000E+00 -0.1133479251550E-02
 0.1412341267201E-02 -0.6636624503761E-02  0.0000000000000E+00 -0.1061079776624E-02
 0.1442661360589E-02 -0.6616598645351E-02  0.0000000000000E+00 -0.9884654951938E-03
 0.1457819264085E-02 -0.6587421105097E-02  0.0000000000000E+00 -0.9172371637675E-03
 0.1460316246957E-02 -0.6550845865053E-02  0.0000000000000E+00 -0.8477657683361E-03
 0.1452107875485E-02 -0.6508042412210E-02  0.0000000000000E+00 -0.7797229618145E-03
 0.1434647709874E-02 -0.6459661381753E-02  0.0000000000000E+00 -0.7124698883715E-03
 0.1408961276555E-02 -0.6405908309923E-02  0.0000000000000E+00 -0.6453371780538E-03
 0.1375731515645E-02 -0.6346611918813E-02  0.0000000000000E+00 -0.5778329190789E-03
 0.1335390821846E-02 -0.6281286365373E-02  0.0000000000000E+00 -0.5098108725836E-03
 0.1288218452826E-02 -0.6209187046520E-02  0.0000000000000E+00 -0.4416141200584E-03
 0.1234450235407E-02 -0.6129369744987E-02  0.0000000000000E+00 -0.3742062991604E-03
 0.1174404437791E-02 -0.6040758998674E-02  0.0000000000000E+00 -0.3092884297938E-03
 0.1108622764619E-02 -0.5942225042065E-02  0.0000000000000E+00 -0.2493896659896E-03
 0.1038026420021E-02 -0.5832673789363E-02  0.0000000000000E+00 -0.1979295921044E-03
 0.9640911594480E-03 -0.5711179078950E-02  0.0000000000000E+00 -0.1592380624948E-03
 0.8890690932110E-03 -0.5577271475740E-02  0.0000000000000E+00 -0.1384742299763E-03
 0.8161903145629E-03 -0.5431133235083E-02  0.0000000000000E+00 -0.1415280337053E-03
 0.7498392751829E-03 -0.5273584805497E-02  0.0000000000000E+00 -0.1750561569938E-03
 0.6958342101357E-03 -0.5106197945199E-02  0.0000000000000E+00 -0.2464915925383E-03
 0.6618550241123E-03 -0.4931632631863E-02  0.0000000000000E+00 -0.3638535751258E-03
 0.6580055244545E-03 -0.4754180899970E-02  0.0000000000000E+00 -0.5351557908523E-03
 0.6974358122979E-03 -0.4580451399263E-02  0.0000000000000E+00 -0.7671513997220E-03
 0.7968562660441E-03 -0.4420058602707E-02  0.0000000000000E+00 -0.1063114500929E-02
 0.9766324228005E-03 -0.4286069233070E-02  0.0000000000000E+00 -0.1419390638480E-02
 0.1259998692704E-02 -0.4194698147494E-02  0.0000000000000E+00 -0.1820800980903E-02
 0.1670794041441E-02 -0.4163822531506E-02  0.0000000000000E+00 -0.2235311877874E-02
 0.2228987059635E-02 -0.4209950689667E-02  0.0000000000000E+00 -0.2609086085488E-02
 0.2943770737619E-02 -0.4343105813934E-02  0.0000000000000E+00 -0.2865130147703E-02
 0.3805444594125E-02 -0.4560317248963E-02  0.0000000000000E+00 -0.2909705375140E-02
 0.4778953489247E-02 -0.4840234053699E-02  0.0000000000000E+00 -0.2649066495412E-02
 0.5803552964712E-02 -0.5142438381078E-02  0.0000000000000E+00 -0.2016171915353E-02
 0.6806807209559E-02 -0.5417584465999E-02  0.0000000000000E+00 -0.9997145344978E-03
 0.1017809511261E-03 -0.5847646014311E-02  0.0000000000000E+00 -0.6438117565574E-03
 0.3074459644101E-03 -0.5972517566879E-02  0.0000000000000E+00 -0.9094636136149E-03
 0.5106707718897E-03 -0.6091132848642E-02  0.0000000000000E+00 -0.1098070353638E-02
 0.7015879617213E-03 -0.6196481561506E-02  0.0000000000000E+00 -0.1214734940738E-02
 0.8723757372614E-03 -0.6283420924320E-02  0.0000000000000E+00 -0.1270318726291E-02
 0.1018246768874E-02 -0.6349346591854E-02  0.0000000000000E+00 -0.1278641139471E-02
 0.1137469483200E-02 -0.6394062938846E-02  0.0000000000000E+00 -0.1253617886539E-02
 0.1230721970024E-02 -0.6419133904786E-02  0.0000000000000E+00 -0.1207252982298E-02
 0.1300201880415E-02 -0.6427085118974E-02  0.0000000000000E+00 -0.1148724192120E-02
 0.1348811338121E-02 -0.6420720967475E-02  0.0000000000000E+00 -0.1084334661222E-02
 0.1379562954787E-02 -0.6402662282526E-02  0.0000000000000E+00 -0.1017953635988E-02
 0.1395221186936E-02 -0.6375096853099E-02  0.0000000000000E+00 -0.9516285650992E-03
 0.1398130004238E-02 -0.6339685483412E-02  0.0000000000000E+00 -0.8861771645056E-03
 0.1390163917471E-02 -0.6297561251447E-02  0.0000000000000E+00 -0.8216785504797E-03
 0.1372750277658E-02 -0.6249374352163E-02  0.0000000000000E+00 -0.7578508615104E-03
 0.1346928274001E-02 -0.6195353040489E-02  0.0000000000000E+00 -0.6943341782485E-03
 0.1313425460588E-02 -0.6135365903687E-02  0.0000000000000E+00 -0.6309061346277E-03
 0.1272745405363E-02 -0.6068983095220E-02  0.0000000000000E+00 -0.5676567314699E-03
 0.1225263340010E-02 -0.5995534225617E-02  0.0000000000000E+00 -0.5051348464924E-03
 0.1171334927395E-02 -0.5914171057782E-02  0.0000000000000E+00 -0.4444775558444E-03
 0.1111420629613E-02 -0.5823939671380E-02  0.0000000000000E+00 -0.3875209246520E-03
 0.1046224119732E-02 -0.5723860865044E-02  0.0000000000000E+00 -0.3368829043896E-03
 0.9768454538485E-03 -0.5613023943153E-02  0.0000000000000E+00 -0.2960170473564E-03
 0.9049535809279E-03 -0.5490721899273E-02  0.0000000000000E+00 -0.2692228460714E-03
 0.8330035644466E-03 -0.5356733371135E-02  0.0000000000000E+00 -0.2615536323308E-03
 0.7644378686627E-03 -0.5211520106282E-02  0.0000000000000E+00 -0.2786938865862E-03
 0.7038656950420E-03 -0.5056234877780E-02  0.0000000000000E+00 -0.3269414477123E-03
 0.6573310186912E-03 -0.4892846454763E-02  0.0000000000000E+00 -0.4131310025684E-03
 0.6326994016239E-03 -0.4724461624447E-02  0.0000000000000E+00 -0.5443317945636E-03
 0.6401352242443E-03 -0.4555814422142E-02  0.0000000000000E+00 -0.7271358691754E-03
 0.6925820362285E-03 -0.4393842638825E-02  0.0000000000000E+00 -0.9663141003924E-03
 0.8060712021186E-03 -0.4248204447388E-02  0.0000000000000E+00 -0.1262610584102E-02
 0.9995641434304E-03 -0.4131491659830E-02  0.0000000000000E+00 -0.1609522149918E-02
 0.1293928414340E-02 -0.4058686641310E-02  0.0000000000000E+00 -0.1989274173843E-02
 0.1709585254082E-02 -0.4045530132008E-02  0.0000000000000E+00 -0.2368522500751E-02
 0.2262328256046E-02 -0.4105603386588E-02  0.0000000000000E+00 -0.2694891618515E-02
 0.2957344102451E-02 -0.4245832142902E-02  0.0000000000000E+00 -0.2897095440651E-02
 0.3782686697860E-02 -0.4461191798282E-02  0.0000000000000E+00 -0.2891807677432E-02
 0.4704703312856E-02 -0.4730784888331E-02  0.0000000000000E+00 -0.2598838165382E-02
 0.5669267132961E-02 -0.5018367903941E-02  0.0000000000000E+00 -0.1963309571233E-02
 0.6613653157735E-02 -0.5281242474301E-02  0.0000000000000E+00 -0.9755023022676E-03
 0.9572765005499E-04 -0.5651151551882E-02  0.0000000000000E+00 -0.5709024339140E-03
 0.2891225402067E-03 -0.5768746333472E-02  0.0000000000000E+00 -0.8396196565846E-03
 0.4804396557019E-03 -0.5880797616344E-02  0.0000000000000E+00 -0.1035957666805E-02
 0.6608696468980E-03 -0.5981009290692E-02  0.0000000000000E+00 -0.1164151350830E-02
 0.8232821672313E-03 -0.6064626879470E-02  0.0000000000000E+00 -0.1233524377945E-02
 0.9631027184831E-03 -0.6129044674083E-02  0.0000000000000E+00 -0.1256223589894E-02
 0.1078409652533E-02 -0.6173763747360E-02  0.0000000000000E+00 -0.1244803471359E-02
 0.1169456660254E-02 -0.6199896715199E-02  0.0000000000000E+00 -0.1210426334191E-02
 0.1237947623892E-02 -0.6209507957746E-02  0.0000000000000E+00 -0.1161937672126E-02
 0.1286332804774E-02 -0.6205014452421E-02  0.0000000000000E+00 -0.1105689239583E-02
 0.1317266990275E-02 -0.6188753654160E-02  0.0000000000000E+00 -0.1045826505068E-02
 0.1333260712141E-02 -0.6162729290521E-02  0.0000000000000E+00 -0.9847756217735E-03
 0.1336495819052E-02 -0.6128497329321E-02  0.0000000000000E+00 -0.9237540821885E-03
 0.1328757409016E-02 -0.6087142936133E-02  0.0000000000000E+00 -0.8632187938525E-03
 0.1311438242040E-02 -0.6039307241620E-02  0.0000000000000E+00 -0.8032267292830E-03
 0.1285584272970E-02 -0.5985236342260E-02  0.0000000000000E+00 -0.7437152992149E-03
 0.1251962488644E-02 -0.5924837347709E-02  0.0000000000000E+00 -0.6847212664760E-03
 0.1211143657715E-02 -0.5857737804884E-02  0.0000000000000E+00 -0.6265591020839E-03
 0.1163595377899E-02 -0.5783344631625E-02  0.0000000000000E+00 -0.5699685265803E-03
 0.1109789019060E-02 -0.5700909281560E-02  0.0000000000000E+00 -0.5162411055982E-03
 0.1050321898891E-02 -0.5609602764076E-02  0.0000000000000E+00 -0.4673248483120E-03
 0.9860527062431E-03 -0.5508598795760E-02  0.0000000000000E+00 -0.4258991372390E-03
 0.9182514073540E-03 -0.5397170693374E-02  0.0000000000000E+00 -0.3954190596691E-03
 0.8487683414336E-03 -0.5274828405590E-02  0.0000000000000E+00 -0.3801145789047E-03
 0.7802451175172E-03 -0.5141592010874E-02  0.0000000000000E+00 -0.3848858424894E-03
 0.7163121696720E-03 -0.4998188671617E-02  0.0000000000000E+00 -0.4151558653100E-03
 0.6617657451266E-03 -0.4846076659585E-02  0.0000000000000E+00 -0.4768012520491E-03
 0.6228185479499E-03 -0.4687575209790E-02  0.0000000000000E+00 -0.5759984430983E-03
 0.6074407711265E-03 -0.4526164384907E-02  0.0000000000000E+00 -0.7188277725987E-03
 0.6257519422603E-03 -0.4366914459134E-02  0.0000000000000E+00 -0.9104727625801E-03
 0.6903681343187E-03 -0.4216955488464E-02  0.0000000000000E+00 -0.1153831862388E-02
 0.8165309718676E-03 -0.4085836073693E-02  0.0000000000000E+00 -0.1447379747023E-02
 0.1021747945776E-02 -0.3985541054913E-02  0.0000000000000E+00 -0.1782220643946E-02
 0.1324609010279E-02 -0.3929774181665E-02  0.0000000000000E+00 -0.2138633362611E-02
 0.1742436577712E-02 -0.3932263678256E-02  0.0000000000000E+00 -0.2482695620724E-02
 0.2287453050381E-02 -0.4004024395044E-02  0.0000000000000E+00 -0.2764035510430E-02
 0.2961661038425E-02 -0.4149460449803E-02  0.0000000000000E+00 -0.2917004575450E-02
 0.3751653641892E-02 -0.4362099062069E-02  0.0000000000000E+00 -0.2867644545828E-02
 0.4625522780559E-02 -0.4621843145765E-02  0.0000000000000E+00 -0.2547229884955E-02
 0.5534900777584E-02 -0.4896235191677E-02  0.0000000000000E+00 -0.1910264123509E-02
 0.6424496736127E-02 -0.5147779099142E-02  0.0000000000000E+00 -0.9482977086596E-03
 0.9003700459739E-04 -0.5455856952686E-02  0.0000000000000E+00 -0.5022943736775E-03
 0.2718916389554E-03 -0.5566581696619E-02  0.0000000000000E+00 -0.7737474965369E-03
 0.4519566430779E-03 -0.5672370029739E-02  0.0000000000000E+00 -0.9769932247670E-03
 0.6223461635986E-03 -0.5767554876241E-02  0.0000000000000E+00 -0.1115556462560E-02
 0.7765610590206E-03 -0.5847748507105E-02  0.0000000000000E+00 -0.1197474409940E-02
 0.9102616305629E-03 -0.5910386296933E-02  0.0000000000000E+00 -0.1233454264190E-02
 0.1021410885089E-02 -0.5954743670519E-02  0.0000000000000E+00 -0.1234831729560E-02
 0.1109926592530E-02 -0.5981561128101E-02  0.0000000000000E+00 -0.1211967653111E-02
 0.1177093365343E-02 -0.5992501173011E-02  0.0000000000000E+00 -0.1173341795173E-02
 0.1224959119382E-02 -0.5989626966603E-02  0.0000000000000E+00 -0.1125286117426E-02
 0.1255846551745E-02 -0.5975004661699E-02  0.0000000000000E+00 -0.1072149036500E-02
 0.1272020846089E-02 -0.5950452408106E-02  0.0000000000000E+00 -0.1016673382118E-02
 0.1275500334980E-02 -0.5917413552928E-02  0.0000000000000E+00 -0.9604305026217E-03
 0.1267974848229E-02 -0.5876916375367E-02  0.0000000000000E+00 -0.9042236964916E-03
 0.1250795637688E-02 -0.5829585584797E-02  0.0000000000000E+00 -0.8484277340514E-03
 0.1225009093611E-02 -0.5775680494349E-02  0.0000000000000E+00 -0.7932622132178E-03
 0.1191416335633E-02 -0.5715144884241E-02  0.0000000000000E+00 -0.7390099997427E-03
 0.1150650769584E-02 -0.5647664034474E-02  0.0000000000000E+00 -0.6861963605644E-03
 0.1103267879162E-02 -0.5572723830522E-02  0.0000000000000E+00 -0.6357358221676E-03
 0.1049849607706E-02 -0.5489677447926E-02  0.0000000000000E+00 -0.5890552112371E-03
 0.9911237220173E-03 -0.5397822352343E-02  0.0000000000000E+00 -0.5481917957215E-03
 0.9280957952369E-03 -0.5296485452837E-02  0.0000000000000E+00 -0.5158600473257E-03
 0.8621953296166E-03 -0.5185122271205E-02  0.0000000000000E+00 -0.4954859367866E-03
 0.7954404442266E-03 -0.5063454587072E-02  0.0000000000000E+00 -0.4911938322146E-03
 0.7306407811063E-03 -0.4931733856468E-02  0.0000000000000E+00 -0.5076886532412E-03
 0.6715883680359E-03 -0.4790934870290E-02  0.0000000000000E+00 -0.5500846536404E-03
 0.6232278465857E-03 -0.4642791189166E-02  0.0000000000000E+00 -0.6237882635525E-03
 0.5918851708176E-03 -0.4489924081831E-02  0.0000000000000E+00 -0.7342769221481E-03
 0.5855602141643E-03 -0.4336114900440E-02  0.0000000000000E+00 -0.8866280400563E-03
 0.6142354742557E-03 -0.4186672235540E-02  0.0000000000000E+00 -0.1084658103880E-02
 0.6901017058724E-03 -0.4048799181084E-02  0.0000000000000E+00 -0.1329528284749E-02
 0.8275339354016E-03 -0.3931811790058E-02  0.0000000000000E+00 -0.1617713292766E-02
 0.1042576478397E-02 -0.3846997812440E-02  0.0000000000000E+00 -0.1938352928212E-02
 0.1351664614599E-02 -0.3806780867247E-02  0.0000000000000E+00 -0.2270341579667E-02
 0.1769342721834E-02 -0.3823027137275E-02  0.0000000000000E+00 -0.2579758001284E-02
 0.2304804984095E-02 -0.3904526971709E-02  0.0000000000000E+00 -0.2818586436974E-02
 0.2957554166982E-02 -0.4053654558256E-02  0.0000000000000E+00 -0.2926612631494E-02
 0.3713324184657E-02 -0.4262970137137E-02  0.0000000000000E+00 -0.2838230844195E-02
 0.4542099215390E-02 -0.4513384886797E-02  0.0000000000000E+00 -0.2494333411960E-02
 0.5400454667084E-02 -0.4775766149773E-02  0.0000000000000E+00 -0.1856776962737E-02
 0.6239113212084E-02 -0.5016831749581E-02  0.0000000000000E+00 -0.9184356345089E-03
 0.8467043177704E-04 -0.5261637183744E-02  0.0000000000000E+00 -0.4377425420360E-03
 0.2556372250737E-03 -0.5365858800982E-02  0.0000000000000E+00 -0.7116481110992E-03
 0.4250422788939E-03 -0.5465664251243E-02  0.0000000000000E+00 -0.9210876105471E-03
 0.5858102598761E-03 -0.5555943079669E-02  0.0000000000000E+00 -0.1069001339636E-02
 0.7320179839155E-03 -0.5632651740706E-02  0.0000000000000E+00 -0.1162346366236E-02
 0.8595721931146E-03 -0.5693296810333E-02  0.0000000000000E+00 -0.1210590422002E-02
 0.9663784774187E-03 -0.5736990173702E-02  0.0000000000000E+00 -0.1223982978189E-02
 0.1052092401171E-02 -0.5764167642229E-02  0.0000000000000E+00 -0.1212132559498E-02
 0.1117645081702E-02 -0.5776143802863E-02  0.0000000000000E+00 -0.1183137034490E-02
 0.1164728777334E-02 -0.5774661552221E-02  0.0000000000000E+00 -0.1143256987529E-02
 0.1195360818119E-02 -0.5761530748154E-02  0.0000000000000E+00 -0.1096982409257E-02
 0.1211572238314E-02 -0.5738386201518E-02  0.0000000000000E+00 -0.1047317081721E-02
 0.1215219224232E-02 -0.5706554136845E-02  0.0000000000000E+00 -0.9961422276543E-03
 0.1207892654628E-02 -0.5666999260171E-02  0.0000000000000E+00 -0.9445753870118E-03
 0.1190896717079E-02 -0.5620323739368E-02  0.0000000000000E+00 -0.8932860578603E-03
 0.1165272504098E-02 -0.5566795812604E-02  0.0000000000000E+00 -0.8427585208412E-03
 0.1131849953517E-02 -0.5506393705457E-02  0.0000000000000E+00 -0.7935066098349E-03
 0.1091320096034E-02 -0.5438859876407E-02  0.0000000000000E+00 -0.7462511794655E-03
 0.1044321104956E-02 -0.5363759580893E-02  0.0000000000000E+00 -0.7020647098724E-03
 0.9915395092907E-03 -0.5280548243841E-02  0.0000000000000E+00 -0.6624899795142E-03
 0.9338261877899E-03 -0.5188649622564E-02  0.0000000000000E+00 -0.6296314301257E-03
 0.8723244327596E-03 -0.5087542193519E-02  0.0000000000000E+00 -0.6062135488843E-03
 0.8086116875061E-03 -0.4976859684813E-02  0.0000000000000E+00 -0.5956046741502E-03
 0.7448587956733E-03 -0.4856528035063E-02  0.0000000000000E+00 -0.6017910492758E-03
 0.6840234003824E-03 -0.4727017180655E-02  0.0000000000000E+00 -0.6292460170280E-03
 0.6300316148677E-03 -0.4589528935438E-02  0.0000000000000E+00 -0.6827365534312E-03
 0.5879379567245E-03 -0.4446039791627E-02  0.0000000000000E+00 -0.7671628189677E-03
 0.5641288967108E-03 -0.4299424312655E-02  0.0000000000000E+00 -0.8872798945294E-03
 0.5665661881611E-03 -0.4153696473990E-02  0.0000000000000E+00 -0.1047169490313E-02
 0.6050167171067E-03 -0.4014314585762E-02  0.0000000000000E+00 -0.1249344622342E-02
 0.6911697183528E-03 -0.3888453397176E-02  0.0000000000000E+00 -0.1493380394364E-02
 0.8384859820181E-03 -0.3785101056244E-02  0.0000000000000E+00 -0.1774019063820E-02
 0.1061568956601E-02 -0.3714792922601E-02  0.0000000000000E+00 -0.2078827981400E-02
 0.1374843343530E-02 -0.3688703628831E-02  0.0000000000000E+00 -0.2385794577521E-02
 0.1790386594632E-02 -0.3717001111743E-02  0.0000000000000E+00 -0.2661445322962E-02
 0.2314845371749E-02 -0.3806566305420E-02  0.0000000000000E+00 -0.2860326399689E-02
 0.2945786934438E-02 -0.3958159017363E-02  0.0000000000000E+00 -0.2927366959019E-02
 0.3668533271635E-02 -0.4163744330156E-02  0.0000000000000E+00 -0.2804349326620E-02
 0.4454980507066E-02 -0.4405335037069E-02  0.0000000000000E+00 -0.2440221976083E-02
 0.5265956397391E-02 -0.4656687514355E-02  0.0000000000000E+00 -0.1802741637998E-02
 0.6057253805006E-02 -0.4888052706375E-02  0.0000000000000E+00 -0.8861668686505E-03
 0.7959447377256E-04 -0.5068382061551E-02  0.0000000000000E+00 -0.3770262033266E-03
 0.2402584857021E-03 -0.5166432351577E-02  0.0000000000000E+00 -0.6531384931465E-03
 0.3995393396414E-03 -0.5260514988701E-02  0.0000000000000E+00 -0.8681485381247E-03
 0.5510772087299E-03 -0.5346014573535E-02  0.0000000000000E+00 -0.1024512244500E-02
 0.6894748916446E-03 -0.5419209418454E-02  0.0000000000000E+00 -0.1128276883743E-02
 0.8108900586377E-03 -0.5477698323093E-02  0.0000000000000E+00 -0.1187842767189E-02
 0.9132155799566E-03 -0.5520479221428E-02  0.0000000000000E+00 -0.1212494951414E-02
 0.9959059779398E-03 -0.5547740353057E-02  0.0000000000000E+00 -0.1211143696211E-02
 0.1059596457143E-02 -0.5560496830392E-02  0.0000000000000E+00 -0.1191501878456E-02
 0.1105666901458E-02 -0.5560203804368E-02  0.0000000000000E+00 -0.1159721089335E-02
 0.1135856020290E-02 -0.5548431614028E-02  0.0000000000000E+00 -0.1120382236225E-02
 0.1151973637756E-02 -0.5526636799875E-02  0.0000000000000E+00 -0.1076700646363E-02
 0.1155717317831E-02 -0.5496026669763E-02  0.0000000000000E+00 -0.1030825987012E-02
 0.1148577140333E-02 -0.5457497682001E-02  0.0000000000000E+00 -0.9841579225380E-03
 0.1131805901411E-02 -0.5411624506908E-02  0.0000000000000E+00 -0.9376363052903E-03
 0.1106434260774E-02 -0.5358680395639E-02  0.0000000000000E+00 -0.8919908361676E-03
 0.1073315725283E-02 -0.5298675532063E-02  0.0000000000000E+00 -0.8479495440459E-03
 0.1033193612558E-02 -0.5231408250814E-02  0.0000000000000E+00 -0.8064124827363E-03
 0.9867830142015E-03 -0.5156522485441E-02  0.0000000000000E+00 -0.7685926774215E-03
 0.9348683457387E-03 -0.5073575103732E-02  0.0000000000000E+00 -0.7361296642099E-03
 0.8784154713636E-03 -0.4982114472685E-02  0.0000000000000E+00 -0.7111737540300E-03
 0.8186953646051E-03 -0.4881767306996E-02  0.0000000000000E+00 -0.6964358618199E-03
 0.7574208247275E-03 -0.4772339613396E-02  0.0000000000000E+00 -0.6952005938625E-03
 0.6968992866954E-03 -0.4653951665241E-02  0.0000000000000E+00 -0.7112873684102E-03
 0.6402153968599E-03 -0.4527276739413E-02  0.0000000000000E+00 -0.7489074591682E-03
 0.5914014645139E-03 -0.4393721081499E-02  0.0000000000000E+00 -0.8124506236956E-03
 0.5555844007381E-03 -0.4255470703885E-02  0.0000000000000E+00 -0.9062866002865E-03
 0.5391621200518E-03 -0.4115605716023E-02  0.0000000000000E+00 -0.1034440109787E-02
 0.5499982301854E-03 -0.3978308659626E-02  0.0000000000000E+00 -0.1200021920814E-02
 0.5975787892224E-03 -0.3849109079205E-02  0.0000000000000E+00 -0.1404321437551E-02
 0.6930349859118E-03 -0.3735069232397E-02  0.0000000000000E+00 -0.1645487289818E-02
 0.8488902470838E-03 -0.3644778434255E-02  0.0000000000000E+00 -0.1916786895381E-02
 0.1078353104919E-02 -0.3587992449465E-02  0.0000000000000E+00 -0.2204566683403E-02
 0.1393993119623E-02 -0.3574690949825E-02  0.0000000000000E+00 -0.2486305351175E-02
 0.1805714669084E-02 -0.3613510939989E-02  0.0000000000000E+00 -0.2729311898471E-02
 0.2318037141189E-02 -0.3709708423925E-02  0.0000000000000E+00 -0.2890788486086E-02
 0.2927052595481E-02 -0.3862775532097E-02  0.0000000000000E+00 -0.2920464509260E-02
 0.3617994973505E-02 -0.4064360584854E-02  0.0000000000000E+00 -0.2766622148303E-02
 0.4364620589316E-02 -0.4297596530871E-02  0.0000000000000E+00 -0.2384978528716E-02
 0.5131448078912E-02 -0.4538754541717E-02  0.0000000000000E+00 -0.1748125048566E-02
 0.5878661809119E-02 -0.4761125386755E-02  0.0000000000000E+00 -0.8516806862747E-03
 0.7477988479572E-04 -0.4875993652512E-02  0.0000000000000E+00 -0.3199459876766E-03
 0.2256671733152E-03 -0.4968173280996E-02  0.0000000000000E+00 -0.5980503655329E-03
 0.3753091919210E-03 -0.5056774267918E-02  0.0000000000000E+00 -0.8180830739430E-03
 0.5179816049908E-03 -0.5137623944261E-02  0.0000000000000E+00 -0.9820963796059E-03
 0.6487684536375E-03 -0.5207301161560E-02  0.0000000000000E+00 -0.1095369141339E-02
 0.7640779738044E-03 -0.5263511287513E-02  0.0000000000000E+00 -0.1165382296793E-02
 0.8618246244865E-03 -0.5305177836495E-02  0.0000000000000E+00 -0.1200567514037E-02
 0.9413124508425E-03 -0.5332289668332E-02  0.0000000000000E+00 -0.1209192946841E-02
 0.1002930796605E-02 -0.5345605483539E-02  0.0000000000000E+00 -0.1198593053370E-02
 0.1047786754305E-02 -0.5346323514664E-02  0.0000000000000E+00 -0.1174784265895E-02
 0.1077366467373E-02 -0.5335792218670E-02  0.0000000000000E+00 -0.1142397222499E-02
 0.1093272501380E-02 -0.5315296971883E-02  0.0000000000000E+00 -0.1104815488184E-02
 0.1097048928350E-02 -0.5285926542920E-02  0.0000000000000E+00 -0.1064418670395E-02
 0.1090084686797E-02 -0.5248506193212E-02  0.0000000000000E+00 -0.1022857076224E-02
 0.1073577935080E-02 -0.5203579202458E-02  0.0000000000000E+00 -0.9813158534030E-03
 0.1048544341934E-02 -0.5151420320719E-02  0.0000000000000E+00 -0.9407496414713E-03
 0.1015855858677E-02 -0.5092069030832E-02  0.0000000000000E+00 -0.9020826865343E-03
 0.9763025318077E-03 -0.5025377623907E-02  0.0000000000000E+00 -0.8663770048352E-03
 0.9306701529752E-03 -0.4951067077917E-02  0.0000000000000E+00 -0.8349684481720E-03
 0.8798337495744E-03 -0.4868793726896E-02  0.0000000000000E+00 -0.8095744194218E-03
 0.8248653982863E-03 -0.4778227524068E-02  0.0000000000000E+00 -0.7923707419797E-03
 0.7671530129362E-03 -0.4679138595091E-02  0.0000000000000E+00 -0.7860328400724E-03
 0.7085314120100E-03 -0.4571497644351E-02  0.0000000000000E+00 -0.7937381076948E-03
 0.6514277677789E-03 -0.4455607701843E-02  0.0000000000000E+00 -0.8191144275201E-03
 0.5990322729668E-03 -0.4332328568064E-02  0.0000000000000E+00 -0.8660863469140E-03
 0.5554558109060E-03 -0.4203247099935E-02  0.0000000000000E+00 -0.9386446215303E-03
 0.5258619629562E-03 -0.4070725298844E-02  0.0000000000000E+00 -0.1040615247525E-02
 0.5166153131307E-03 -0.3938003080678E-02  0.0000000000000E+00 -0.1175297781256E-02
 0.5354293194919E-03 -0.3809372965995E-02  0.0000000000000E+00 -0.1344870783910E-02
 0.5914567064703E-03 -0.3690367586299E-02  0.0000000000000E+00 -0.1549491088036E-02
 0.6952315151728E-03 -0.3587868645816E-02  0.0000000000000E+00 -0.1786042651066E-02
 0.8583366976143E-03 -0.3510016748831E-02  0.0000000000000E+00 -0.2046560283382E-02
 0.1092648722906E-02 -0.3465782918231E-02  0.0000000000000E+00 -0.2316479226919E-02
 0.1409041304264E-02 -0.3464020903631E-02  0.0000000000000E+00 -0.2573095739912E-02
 0.1815517828747E-02 -0.3512000759698E-02  0.0000000000000E+00 -0.2784743503988E-02
 0.2314833815777E-02 -0.3613606205392E-02  0.0000000000000E+00 -0.2911291456833E-02
 0.2901977719007E-02 -0.3767347083548E-02  0.0000000000000E+00 -0.2906901596044E-02
 0.3562325231878E-02 -0.3964758380693E-02  0.0000000000000E+00 -0.2725558262143E-02
 0.4271406160998E-02 -0.4190069258786E-02  0.0000000000000E+00 -0.2328695027083E-02
 0.4996976156454E-02 -0.4421755231475E-02  0.0000000000000E+00 -0.1692926468979E-02
 0.5703083551166E-02 -0.4635766673944E-02  0.0000000000000E+00 -0.8151292772840E-03
 0.7020089526853E-04 -0.4684384145549E-02  0.0000000000000E+00 -0.2663214381620E-03
 0.2117854435412E-03 -0.4770965984853E-02  0.0000000000000E+00 -0.5462289960887E-03
 0.3522287671106E-03 -0.4854308669080E-02  0.0000000000000E+00 -0.7707992121812E-03
 0.4863745803213E-03 -0.4930637815935E-02  0.0000000000000E+00 -0.9417463574172E-03
 0.6097484394336E-03 -0.4996812951508E-02  0.0000000000000E+00 -0.1063698927341E-02
 0.7190056014643E-03 -0.5050655485115E-02  0.0000000000000E+00 -0.1143346163096E-02
 0.8121082854804E-03 -0.5091045978068E-02  0.0000000000000E+00 -0.1188366992057E-02
 0.8882517182852E-03 -0.5117814434636E-02  0.0000000000000E+00 -0.1206443788056E-02
 0.9476226165246E-03 -0.5131501113632E-02  0.0000000000000E+00 -0.1204546172132E-02
 0.9910910683855E-03 -0.5133076053258E-02  0.0000000000000E+00 -0.1188538523476E-02
 0.1019915502936E-02 -0.5123683630937E-02  0.0000000000000E+00 -0.1163068266116E-02
 0.1035505602311E-02 -0.5104446538489E-02  0.0000000000000E+00 -0.1131649625944E-02
 0.1039258204715E-02 -0.5076337068934E-02  0.0000000000000E+00 -0.1096856758013E-02
 0.1032461960554E-02 -0.5040107779652E-02  0.0000000000000E+00 -0.1060560212753E-02
 0.1016258070458E-02 -0.4996267611407E-02  0.0000000000000E+00 -0.1024165199246E-02
 0.9916431939184E-03 -0.4945089694074E-02  0.0000000000000E+00 -0.9888300664595E-03
 0.9595027685659E-03 -0.4886640048484E-02  0.0000000000000E+00 -0.9556564883331E-03
 0.9206678815405E-03 -0.4820822500438E-02  0.0000000000000E+00 -0.9258506657763E-03
 0.8759884751431E-03 -0.4747432638224E-02  0.0000000000000E+00 -0.9008534800488E-03
 0.8264224674666E-03 -0.4666223273382E-02  0.0000000000000E+00 -0.8824417892162E-03
 0.7731388706813E-03 -0.4576981756562E-02  0.0000000000000E+00 -0.8727976694050E-03
 0.7176312683009E-03 -0.4479615510299E-02  0.0000000000000E+00 -0.8745409488167E-03
 0.6618426470164E-03 -0.4374250982140E-02  0.0000000000000E+00 -0.8907210764315E-03
 0.6083026786914E-03 -0.4261361015559E-02  0.0000000000000E+00 -0.9247537210816E-03
 0.5602856381365E-03 -0.4141973966793E-02  0.0000000000000E+00 -0.9802577065707E-03
 0.5219541706545E-03 -0.4017832922020E-02  0.0000000000000E+00 -0.1060810578548E-02
 0.4984751167895E-03 -0.3891442993354E-02  0.0000000000000E+00 -0.1169690866037E-02
 0.4961396484587E-03 -0.3766160932729E-02  0.0000000000000E+00 -0.1309489188718E-02
 0.5224670338569E-03 -0.3646336618695E-02  0.0000000000000E+00 -0.1481501309661E-02
 0.5862359224620E-03 -0.3537447762931E-02  0.0000000000000E+00 -0.1684849333125E-02
 0.6973591749115E-03 -0.3446142055635E-02  0.0000000000000E+00 -0.1915311774457E-02
 0.8664920483845E-03 -0.3380079230723E-02  0.0000000000000E+00 -0.2163914223133E-02
 0.1104253109913E-02 -0.3347457223930E-02  0.0000000000000E+00 -0.2415449394227E-02
 0.1419977870124E-02 -0.3356081746433E-02  0.0000000000000E+00 -0.2647293645934E-02
 0.1820016737399E-02 -0.3412011989483E-02  0.0000000000000E+00 -0.2828972048905E-02
 0.2305672676793E-02 -0.3517980661115E-02  0.0000000000000E+00 -0.2922971096914E-02
 0.2871128063616E-02 -0.3671747586736E-02  0.0000000000000E+00 -0.2887514009945E-02
 0.3502060471904E-02 -0.3864880500831E-02  0.0000000000000E+00 -0.2681582676683E-02
 0.4175672295112E-02 -0.4082659228752E-02  0.0000000000000E+00 -0.2271465657724E-02
 0.4862584911258E-02 -0.4305507200530E-02  0.0000000000000E+00 -0.1637158607578E-02
 0.5530275677861E-02 -0.4511724898066E-02  0.0000000000000E+00 -0.7766451706681E-03
 0.6583460566224E-04 -0.4493474103053E-02  0.0000000000000E+00 -0.2159889924365E-03
 0.1985440795119E-03 -0.4574706043712E-02  0.0000000000000E+00 -0.4975321534516E-03
 0.3301880355082E-03 -0.4652997005272E-02  0.0000000000000E+00 -0.7262070219604E-03
 0.4561213901303E-03 -0.4724933188452E-02  0.0000000000000E+00 -0.9034437320719E-03
 0.5722761816983E-03 -0.4787636618223E-02  0.0000000000000E+00 -0.1033319627083E-02
 0.6755491613563E-03 -0.4839050696451E-02  0.0000000000000E+00 -0.1121842709467E-02
 0.7639701189380E-03 -0.4878038035004E-02  0.0000000000000E+00 -0.1176030127470E-02
 0.8366596617646E-03 -0.4904303752084E-02  0.0000000000000E+00 -0.1203033685445E-02
 0.8936390053278E-03 -0.4918202908166E-02  0.0000000000000E+00 -0.1209476687488E-02
 0.9355732646525E-03 -0.4920503737744E-02  0.0000000000000E+00 -0.1201061984998E-02
 0.9635164529822E-03 -0.4912163987878E-02  0.0000000000000E+00 -0.1182427919363E-02
 0.9786997017417E-03 -0.4894152973039E-02  0.0000000000000E+00 -0.1157187070393E-02
 0.9823795918868E-03 -0.4867329832066E-02  0.0000000000000E+00 -0.1128075902662E-02
 0.9757462514033E-03 -0.4832374084029E-02  0.0000000000000E+00 -0.1097156206806E-02
 0.9598823769376E-03 -0.4789758201379E-02  0.0000000000000E+00 -0.1066028254542E-02
 0.9357620933001E-03 -0.4739750951403E-02  0.0000000000000E+00 -0.1036032531765E-02
 0.9042795606819E-03 -0.4682442085025E-02  0.0000000000000E+00 -0.1008428889033E-02
 0.8663011646113E-03 -0.4617784140357E-02  0.0000000000000E+00 -0.9845496728051E-03
 0.8227342219983E-03 -0.4545644212296E-02  0.0000000000000E+00 -0.9659231305079E-03
 0.7746114955655E-03 -0.4465867740475E-02  0.0000000000000E+00 -0.9543678031816E-03
 0.7231892912118E-03 -0.4378354292791E-02  0.0000000000000E+00 -0.9520539833862E-03
 0.6700552331423E-03 -0.4283141399090E-02  0.0000000000000E+00 -0.9615277136870E-03
 0.6172463392982E-03 -0.4180501197420E-02  0.0000000000000E+00 -0.9856925701699E-03
 0.5673774683359E-03 -0.4071062405064E-02  0.0000000000000E+00 -0.1027735302221E-02
 0.5237858959956E-03 -0.3956003291129E-02  0.0000000000000E+00 -0.1090955376600E-02
 0.4906604649416E-03 -0.3837198799470E-02  0.0000000000000E+00 -0.1178509800580E-02
 0.4731405714501E-03 -0.3717265542724E-02  0.0000000000000E+00 -0.1293134210441E-02
 0.4774087722883E-03 -0.3599637436088E-02  0.0000000000000E+00 -0.1436735462589E-02
 0.5107537791997E-03 -0.3488675261221E-02  0.0000000000000E+00 -0.1609783643888E-02
 0.5815500646534E-03 -0.3389753442174E-02  0.0000000000000E+00 -0.1810467142470E-02
 0.6990780193576E-03 -0.3309245143765E-02  0.0000000000000E+00 -0.2033612150959E-02
 0.8730902119056E-03 -0.3254311654907E-02  0.0000000000000E+00 -0.2269437710196E-02
 0.1113028250120E-02 -0.3232401826590E-02  0.0000000000000E+00 -0.2502323709491E-02
 0.1426841542751E-02 -0.3250355354163E-02  0.0000000000000E+00 -0.2709933733142E-02
 0.1819450758510E-02 -0.3313165926642E-02  0.0000000000000E+00 -0.2863090567050E-02
 0.2290970939380E-02 -0.3422606843762E-02  0.0000000000000E+00 -0.2926807597991E-02
 0.2835015137457E-02 -0.3575875375448E-02  0.0000000000000E+00 -0.2863008113848E-02
 0.3437672088982E-02 -0.3764675430771E-02  0.0000000000000E+00 -0.2635054970723E-02
 0.4077712425795E-02 -0.3975282337757E-02  0.0000000000000E+00 -0.2213381314072E-02
 0.4728313717209E-02 -0.4189853444003E-02  0.0000000000000E+00 -0.1580840095523E-02
 0.5360009923942E-02 -0.4388777334470E-02  0.0000000000000E+00 -0.7363517262278E-03
 0.6166049431799E-04 -0.4303191009563E-02  0.0000000000000E+00 -0.1688002670579E-03
 0.1858810271586E-03 -0.4379298322622E-02  0.0000000000000E+00 -0.4518291682998E-03
 0.3090878906301E-03 -0.4452728347126E-02  0.0000000000000E+00 -0.6842194493619E-03
 0.4270993235988E-03 -0.4520395947024E-02  0.0000000000000E+00 -0.8671617648890E-03
 0.5362231470238E-03 -0.4579669255654E-02  0.0000000000000E+00 -0.1004266290310E-02
 0.6335909533320E-03 -0.4628617099328E-02  0.0000000000000E+00 -0.1100955744119E-02
 0.7173149496762E-03 -0.4666103964088E-02  0.0000000000000E+00 -0.1163667609491E-02
 0.7864690841782E-03 -0.4691738464582E-02  0.0000000000000E+00 -0.1199076410457E-02
 0.8409407657180E-03 -0.4705719377569E-02  0.0000000000000E+00 -0.1213481004831E-02
 0.8812185404317E-03 -0.4708637090336E-02  0.0000000000000E+00 -0.1212419107832E-02
 0.9081735264349E-03 -0.4701279437609E-02  0.0000000000000E+00 -0.1200500113309E-02
 0.9228722344817E-03 -0.4684472050444E-02  0.0000000000000E+00 -0.1181407410241E-02
 0.9264383404741E-03 -0.4658965122716E-02  0.0000000000000E+00 -0.1158010625372E-02
 0.9199658761909E-03 -0.4625365726359E-02  0.0000000000000E+00 -0.1132535385911E-02
 0.9044781164066E-03 -0.4584108429053E-02  0.0000000000000E+00 -0.1106752583307E-02
 0.8809235663257E-03 -0.4535455241541E-02  0.0000000000000E+00 -0.1082163264207E-02
 0.8502005567237E-03 -0.4479516831988E-02  0.0000000000000E+00 -0.1060166048777E-02
 0.8132050397194E-03 -0.4416291317148E-02  0.0000000000000E+00 -0.1042201378952E-02
 0.7708947981988E-03 -0.4345713645969E-02  0.0000000000000E+00 -0.1029867530721E-02
 0.7243691823960E-03 -0.4267717320355E-02  0.0000000000000E+00 -0.1025007736575E-02
 0.6749619192463E-03 -0.4182308123299E-02  0.0000000000000E+00 -0.1029763794032E-02
 0.6243428510352E-03 -0.4089645633579E-02  0.0000000000000E+00 -0.1046591747803E-02
 0.5746288174371E-03 -0.3990136793042E-02  0.0000000000000E+00 -0.1078234171930E-02
 0.5285027507900E-03 -0.3884551597191E-02  0.0000000000000E+00 -0.1127636019307E-02
 0.4893445572879E-03 -0.3774199329941E-02  0.0000000000000E+00 -0.1197768742181E-02
 0.4613452974144E-03 -0.3661062907743E-02  0.0000000000000E+00 -0.1291367595312E-02
 0.4495891832620E-03 -0.3547840570048E-02  0.0000000000000E+00 -0.1410636898868E-02
 0.4601198471962E-03 -0.3438007348543E-02  0.0000000000000E+00 -0.1556831917000E-02
 0.4999662933623E-03 -0.3335894604966E-02  0.0000000000000E+00 -0.1729659308500E-02
 0.5770781409924E-03 -0.3246734042338E-02  0.0000000000000E+00 -0.1926475001392E-02
 0.7001025617248E-03 -0.3176595040222E-02  0.0000000000000E+00 -0.2141297394065E-02
 0.8779234946729E-03 -0.3132134607432E-02  0.0000000000000E+00 -0.2363720288829E-02
 0.1118889741658E-02 -0.3120085175085E-02  0.0000000000000E+00 -0.2577904472125E-02
 0.1429708556631E-02 -0.3146403093789E-02  0.0000000000000E+00 -0.2761960520950E-02
 0.1814069760822E-02 -0.3215149662070E-02  0.0000000000000E+00 -0.2888067789761E-02
 0.2271124023422E-02 -0.3327303189305E-02  0.0000000000000E+00 -0.2923648877742E-02
 0.2794102554598E-02 -0.3479648806536E-02  0.0000000000000E+00 -0.2833984649774E-02
 0.3369577591446E-02 -0.3664098704378E-02  0.0000000000000E+00 -0.2586281674049E-02
 0.3977785392807E-02 -0.3867865341332E-02  0.0000000000000E+00 -0.2154526433705E-02
 0.4594196540177E-02 -0.4074658550398E-02  0.0000000000000E+00 -0.1523992924094E-02
 0.5192075912298E-02 -0.4266727773374E-02  0.0000000000000E+00 -0.6943686528683E-03
 0.5766000327289E-04 -0.4113468056804E-02  0.0000000000000E+00 -0.1246206541339E-03
 0.1737401708725E-03 -0.4184655363258E-02  0.0000000000000E+00 -0.4090001259695E-03
 0.2888383563844E-03 -0.4253400314536E-02  0.0000000000000E+00 -0.6447529032516E-03
 0.3991958786421E-03 -0.4316919501114E-02  0.0000000000000E+00 -0.8328676271705E-03
 0.5014696052855E-03 -0.4372812567818E-02  0.0000000000000E+00 -0.9765589836551E-03
 0.5930187966339E-03 -0.4419275422927E-02  0.0000000000000E+00 -0.1080748191815E-02
 0.6720490530789E-03 -0.4455190093436E-02  0.0000000000000E+00 -0.1151367236231E-02
 0.7376104071324E-03 -0.4480092315665E-02  0.0000000000000E+00 -0.1194664268244E-02
 0.7894833479735E-03 -0.4494049568522E-02  0.0000000000000E+00 -0.1216637718135E-02
 0.8280048126323E-03 -0.4497495903245E-02  0.0000000000000E+00 -0.1222661134808E-02
 0.8538826372982E-03 -0.4491064963252E-02  0.0000000000000E+00 -0.1217300136243E-02
 0.8680319679345E-03 -0.4475448427753E-02  0.0000000000000E+00 -0.1204285614910E-02
 0.8714510219154E-03 -0.4451292329498E-02  0.0000000000000E+00 -0.1186594163097E-02
 0.8651406023964E-03 -0.4419132588230E-02  0.0000000000000E+00 -0.1166589553553E-02
 0.8500641389718E-03 -0.4379365002672E-02  0.0000000000000E+00 -0.1146189651649E-02
 0.8271418192209E-03 -0.4332242747744E-02  0.0000000000000E+00 -0.1127034764133E-02
 0.7972718140545E-03 -0.4277894623193E-02  0.0000000000000E+00 -0.1110642981009E-02
 0.7613739754727E-03 -0.4216360958160E-02  0.0000000000000E+00 -0.1098544999086E-02
 0.7204495955967E-03 -0.4147640465397E-02  0.0000000000000E+00 -0.1092392280618E-02
 0.6756562496621E-03 -0.4071749563294E-02  0.0000000000000E+00 -0.1094036659551E-02
 0.6283951083882E-03 -0.3988793588521E-02  0.0000000000000E+00 -0.1105576127172E-02
 0.5804063706155E-03 -0.3899045439721E-02  0.0000000000000E+00 -0.1129362518602E-02
 0.5338726098323E-03 -0.3803035389469E-02  0.0000000000000E+00 -0.1167965014222E-02
 0.4915281565027E-03 -0.3701659767543E-02  0.0000000000000E+00 -0.1224077510549E-02
 0.4567761528442E-03 -0.3596340080462E-02  0.0000000000000E+00 -0.1300339312072E-02
 0.4337877284106E-03 -0.3489144201971E-02  0.0000000000000E+00 -0.1399068022665E-02
 0.4275672705982E-03 -0.3382824197670E-02  0.0000000000000E+00 -0.1521953969577E-02
 0.4439939528946E-03 -0.3280863956835E-02  0.0000000000000E+00 -0.1669638222504E-02
 0.4898145660519E-03 -0.3187531021033E-02  0.0000000000000E+00 -0.1841129185358E-02
 0.5725413936190E-03 -0.3107883048237E-02  0.0000000000000E+00 -0.2033049548031E-02
 0.7001961563553E-03 -0.3047665967625E-02  0.0000000000000E+00 -0.2238744249574E-02
 0.8808345895276E-03 -0.3013035898313E-02  0.0000000000000E+00 -0.2447342051234E-02
 0.1121797304783E-02 -0.3010047194314E-02  0.0000000000000E+00 -0.2642945830154E-02
 0.1428683583381E-02 -0.3043853678745E-02  0.0000000000000E+00 -0.2804233048231E-02
 0.1804128118107E-02 -0.3117704552357E-02  0.0000000000000E+00 -0.2904761839429E-02
 0.2246505102349E-02 -0.3231923235856E-02  0.0000000000000E+00 -0.2914230175020E-02
 0.2748811711320E-02 -0.3383002906310E-02  0.0000000000000E+00 -0.2800957086790E-02
 0.3298149143431E-02 -0.3563113213383E-02  0.0000000000000E+00 -0.2535525182496E-02
 0.3876120709624E-02 -0.3760345400827E-02  0.0000000000000E+00 -0.2094977707896E-02
 0.4460262401317E-02 -0.3959805501478E-02  0.0000000000000E+00 -0.1466641743865E-02
 0.5026282215880E-02 -0.4145404069330E-02  0.0000000000000E+00 -0.6508144007430E-03
 0.5381619314346E-04 -0.3924243124237E-02  0.0000000000000E+00 -0.8332814585384E-04
 0.1620703060634E-03 -0.3990696040352E-02  0.0000000000000E+00 -0.3689351694090E-03
 0.2693570669915E-03 -0.4054917636686E-02  0.0000000000000E+00 -0.6077276753625E-03
 0.3723071766620E-03 -0.4114403609879E-02  0.0000000000000E+00 -0.8005241536552E-03
 0.4679034185376E-03 -0.4166972266895E-02  0.0000000000000E+00 -0.9502055483115E-03
 0.5537254477570E-03 -0.4210947030849E-02  0.0000000000000E+00 -0.1061265195863E-02
 0.6280802154971E-03 -0.4245239791909E-02  0.0000000000000E+00 -0.1139196708382E-02
 0.6900122129782E-03 -0.4269332978782E-02  0.0000000000000E+00 -0.1189870177351E-02
 0.7392176503963E-03 -0.4283184212160E-02  0.0000000000000E+00 -0.1219008875418E-02
 0.7759035811633E-03 -0.4287090321256E-02  0.0000000000000E+00 -0.1231826674747E-02
 0.8006322061467E-03 -0.4281545303526E-02  0.0000000000000E+00 -0.1232834766595E-02
 0.8141796901696E-03 -0.4267116384623E-02  0.0000000000000E+00 -0.1225791963294E-02
 0.8174261070990E-03 -0.4244350534752E-02  0.0000000000000E+00 -0.1213758384432E-02
 0.8112821541477E-03 -0.4213714326552E-02  0.0000000000000E+00 -0.1199212010879E-02
 0.7966513674038E-03 -0.4175564386534E-02  0.0000000000000E+00 -0.1184195006037E-02
 0.7744232538958E-03 -0.4130143253648E-02  0.0000000000000E+00 -0.1170466135366E-02
 0.7454917203692E-03 -0.4077595125637E-02  0.0000000000000E+00 -0.1159643987887E-02
 0.7107949634853E-03 -0.4017999014703E-02  0.0000000000000E+00 -0.1153332074477E-02
 0.6713708552589E-03 -0.3951412971412E-02  0.0000000000000E+00 -0.1153218843133E-02
 0.6284268249170E-03 -0.3877930732744E-02  0.0000000000000E+00 -0.1161149640180E-02
 0.5834215221708E-03 -0.3797750022200E-02  0.0000000000000E+00 -0.1179164789613E-02
 0.5381537435776E-03 -0.3711247844608E-02  0.0000000000000E+00 -0.1209499693839E-02
 0.4948580018799E-03 -0.3619065970809E-02  0.0000000000000E+00 -0.1254540378555E-02
 0.4563039871191E-03 -0.3522212043555E-02  0.0000000000000E+00 -0.1316723779436E-02
 0.4258998649129E-03 -0.3422201407398E-02  0.0000000000000E+00 -0.1398356953286E-02
 0.4077766793372E-03 -0.3321165044179E-02  0.0000000000000E+00 -0.1501348470467E-02
 0.4068374877530E-03 -0.3221883338998E-02  0.0000000000000E+00 -0.1626896553869E-02
 0.4287760252307E-03 -0.3127820594936E-02  0.0000000000000E+00 -0.1775069132660E-02
 0.4800403738637E-03 -0.3043151722506E-02  0.0000000000000E+00 -0.1944242629307E-02
 0.5676999944163E-03 -0.2972736239184E-02  0.0000000000000E+00 -0.2130401979222E-02
 0.6991656327837E-03 -0.2921984996073E-02  0.0000000000000E+00 -0.2326341909174E-02
 0.8817093876172E-03 -0.2896563668440E-02  0.0000000000000E+00 -0.2520866107284E-02
 0.1121746707949E-02 -0.2901890188590E-02  0.0000000000000E+00 -0.2698151834540E-02
 0.1423892469152E-02 -0.2942393101738E-02  0.0000000000000E+00 -0.2837530215845E-02
 0.1789880405984E-02 -0.3020617081373E-02  0.0000000000000E+00 -0.2913932639880E-02
 0.2217465501499E-02 -0.3136349387302E-02  0.0000000000000E+00 -0.2899190380764E-02
 0.2699526863021E-02 -0.3285886935670E-02  0.0000000000000E+00 -0.2764366023776E-02
 0.3223720482522E-02 -0.3461689181868E-02  0.0000000000000E+00 -0.2483010731326E-02
 0.3772923101343E-02 -0.3652669414631E-02  0.0000000000000E+00 -0.2034804089934E-02
 0.4326536670235E-02 -0.3845193425214E-02  0.0000000000000E+00 -0.1408813794696E-02
 0.4862456869207E-02 -0.4024656168300E-02  0.0000000000000E+00 -0.6058068903923E-03
 0.5011345160219E-04 -0.3735457912617E-02  0.0000000000000E+00 -0.4481236051112E-04
 0.1508242671890E-03 -0.3797344404208E-02  0.0000000000000E+00 -0.3315339025056E-03
 0.2505679626994E-03 -0.3857190886297E-02  0.0000000000000E+00 -0.5730682389902E-03
 0.3463365695652E-03 -0.3912753301371E-02  0.0000000000000E+00 -0.7700912374795E-03
 0.4354189258254E-03 -0.3962057439545E-02  0.0000000000000E+00 -0.9252038641589E-03
 0.5156079948392E-03 -0.4003553849735E-02  0.0000000000000E+00 -0.1042536742591E-02
 0.5853176780225E-03 -0.4036193904499E-02  0.0000000000000E+00 -0.1127206080113E-02
 0.6436016271152E-03 -0.4059422830142E-02  0.0000000000000E+00 -0.1184749586469E-02
 0.6900906635265E-03 -0.4073106635986E-02  0.0000000000000E+00 -0.1220641239676E-02
 0.7248806680355E-03 -0.4077421731460E-02  0.0000000000000E+00 -0.1239942380404E-02
 0.7484038780188E-03 -0.4072735725808E-02  0.0000000000000E+00 -0.1247102544537E-02
 0.7613088502335E-03 -0.4059500450972E-02  0.0000000000000E+00 -0.1245892105410E-02
 0.7643645217215E-03 -0.4038169016765E-02  0.0000000000000E+00 -0.1239433803909E-02
 0.7583947069511E-03 -0.4009140798807E-02  0.0000000000000E+00 -0.1230297629860E-02
 0.7442432712984E-03 -0.3972733209701E-02  0.0000000000000E+00 -0.1220628453521E-02
 0.7227669657315E-03 -0.3929176596909E-02  0.0000000000000E+00 -0.1212283371117E-02
 0.6948515562938E-03 -0.3878627894519E-02  0.0000000000000E+00 -0.1206963011823E-02
 0.6614481802603E-03 -0.3821201167109E-02  0.0000000000000E+00 -0.1206326820718E-02
 0.6236244548375E-03 -0.3757009134555E-02  0.0000000000000E+00 -0.1212084796165E-02
 0.5826293716263E-03 -0.3686216921181E-02  0.0000000000000E+00 -0.1226061786790E-02
 0.5399692134439E-03 -0.3609107108548E-02  0.0000000000000E+00 -0.1250228063985E-02
 0.4974898450457E-03 -0.3526151281021E-02  0.0000000000000E+00 -0.1286692320508E-02
 0.4574643650427E-03 -0.3438090719662E-02  0.0000000000000E+00 -0.1337650153530E-02
 0.4226825829707E-03 -0.3346029514795E-02  0.0000000000000E+00 -0.1405278691895E-02
 0.3965408076089E-03 -0.3251559116803E-02  0.0000000000000E+00 -0.1491556168688E-02
 0.3831119290665E-03 -0.3156853150152E-02  0.0000000000000E+00 -0.1597994475836E-02
 0.3871792596228E-03 -0.3064697229877E-02  0.0000000000000E+00 -0.1725325099849E-02
 0.4142343801904E-03 -0.2978511367006E-02  0.0000000000000E+00 -0.1873086175725E-02
 0.4704155173378E-03 -0.2902354204693E-02  0.0000000000000E+00 -0.2039088043489E-02
 0.5623496878446E-03 -0.2840869365222E-02  0.0000000000000E+00 -0.2218768416049E-02
 0.6968562624468E-03 -0.2799127608688E-02  0.0000000000000E+00 -0.2404483625432E-02
 0.8804706056311E-03 -0.2782319831469E-02  0.0000000000000E+00 -0.2584833326775E-02
 0.1118762964701E-02 -0.2795270677555E-02  0.0000000000000E+00 -0.2744176162576E-02
 0.1415476467887E-02 -0.2841755993315E-02  0.0000000000000E+00 -0.2862556552704E-02
 0.1771578360404E-02 -0.2923711301162E-02  0.0000000000000E+00 -0.2916253077338E-02
 0.2184335542666E-02 -0.3040487865109E-02  0.0000000000000E+00 -0.2879085649342E-02
 0.2646599488756E-02 -0.3188262253447E-02  0.0000000000000E+00 -0.2724590618206E-02
 0.3146592439048E-02 -0.3359803663791E-02  0.0000000000000E+00 -0.2428931961142E-02
 0.3668376197218E-02 -0.3544793049791E-02  0.0000000000000E+00 -0.1974067287795E-02
 0.4193042239569E-02 -0.3730735640070E-02  0.0000000000000E+00 -0.1350538724475E-02
 0.4700446906116E-02 -0.3904354051082E-02  0.0000000000000E+00 -0.5594631662894E-03
 0.4653724146071E-04 -0.3547057206090E-02  0.0000000000000E+00 -0.8973760464124E-05
 0.1399581799632E-03 -0.3604528695187E-02  0.0000000000000E+00 -0.2967048999119E-03
 0.2324001630385E-03 -0.3660135392477E-02  0.0000000000000E+00 -0.5407034793895E-03
 0.3211934139442E-03 -0.3711877924646E-02  0.0000000000000E+00 -0.7415269613881E-03
 0.4039159267484E-03 -0.3757979962825E-02  0.0000000000000E+00 -0.9015437274397E-03
 0.4785672602475E-03 -0.3797018262309E-02  0.0000000000000E+00 -0.1024579894104E-02
 0.5436720144618E-03 -0.3827991097255E-02  0.0000000000000E+00 -0.1115429912372E-02
 0.5983045981609E-03 -0.3850319619441E-02  0.0000000000000E+00 -0.1179342232885E-02
 0.6420460136749E-03 -0.3863793598938E-02  0.0000000000000E+00 -0.1221567521767E-02
 0.6748968822806E-03 -0.3868483621929E-02  0.0000000000000E+00 -0.1247023687099E-02
 0.6971732022070E-03 -0.3864642818037E-02  0.0000000000000E+00 -0.1260094143341E-02
 0.7094061941857E-03 -0.3852616096311E-02  0.0000000000000E+00 -0.1264547221100E-02
 0.7122602225811E-03 -0.3832767844460E-02  0.0000000000000E+00 -0.1263549662791E-02
 0.7064754180391E-03 -0.3805432598881E-02  0.0000000000000E+00 -0.1259742947755E-02
 0.6928363816678E-03 -0.3770888792350E-02  0.0000000000000E+00 -0.1255354213074E-02
 0.6721652783765E-03 -0.3729353238642E-02  0.0000000000000E+00 -0.1252319561670E-02
 0.6453360850080E-03 -0.3680993035130E-02  0.0000000000000E+00 -0.1252403863438E-02
 0.6133076607490E-03 -0.3625953621758E-02  0.0000000000000E+00 -0.1257306311992E-02
 0.5771706874356E-03 -0.3564397561568E-02  0.0000000000000E+00 -0.1268743886663E-02
 0.5382075854471E-03 -0.3496555210812E-02  0.0000000000000E+00 -0.1288508064757E-02
 0.4979626385806E-03 -0.3422786250235E-02  0.0000000000000E+00 -0.1318488159055E-02
 0.4583175899121E-03 -0.3343647159487E-02  0.0000000000000E+00 -0.1360657753928E-02
 0.4215713348425E-03 -0.3259966765182E-02  0.0000000000000E+00 -0.1417017060631E-02
 0.3905194855813E-03 -0.3172931091181E-02  0.0000000000000E+00 -0.1489483295393E-02
 0.3685310468251E-03 -0.3084190804862E-02  0.0000000000000E+00 -0.1579712305148E-02
 0.3596048034342E-03 -0.2995943239456E-02  0.0000000000000E+00 -0.1688834658485E-02
 0.3683888903390E-03 -0.2910958609602E-02  0.0000000000000E+00 -0.1817142975480E-02
 0.4001599453014E-03 -0.2832591511316E-02  0.0000000000000E+00 -0.1963690076743E-02
 0.4607398808473E-03 -0.2764765397439E-02  0.0000000000000E+00 -0.2125784587225E-02
 0.5563184776207E-03 -0.2711895721594E-02  0.0000000000000E+00 -0.2298401775554E-02
 0.6931470954169E-03 -0.2678713485290E-02  0.0000000000000E+00 -0.2473560045048E-02
 0.8770721670413E-03 -0.2669954164998E-02  0.0000000000000E+00 -0.2639758685230E-02
 0.1112894616412E-02 -0.2689892338592E-02  0.0000000000000E+00 -0.2781622868998E-02
 0.1403587677922E-02 -0.2741718421318E-02  0.0000000000000E+00 -0.2879947969932E-02
 0.1749468783384E-02 -0.2826842747867E-02  0.0000000000000E+00 -0.2912318886352E-02
 0.2147425671293E-02 -0.2944264757072E-02  0.0000000000000E+00 -0.2854400796014E-02
 0.2590352129504E-02 -0.3090100614514E-02  0.0000000000000E+00 -0.2681957879977E-02
 0.3067037570795E-02 -0.3257440013657E-02  0.0000000000000E+00 -0.2373455597338E-02
 0.3562645794781E-02 -0.3436679918550E-02  0.0000000000000E+00 -0.1912822555785E-02
 0.4059800749381E-02 -0.3616358162289E-02  0.0000000000000E+00 -0.1291848313922E-02
 0.4540117664772E-02 -0.3784385921484E-02  0.0000000000000E+00 -0.5118986844835E-03
 0.4307388568579E-04 -0.3358988237893E-02  0.0000000000000E+00  0.2427699500026E-04
 0.1294308153632E-03 -0.3412180491410E-02  0.0000000000000E+00 -0.2643652969431E-03
 0.2147869865324E-03 -0.3463670289672E-02  0.0000000000000E+00 -0.5105668577504E-03
 0.2967919862438E-03 -0.3511690299702E-02  0.0000000000000E+00 -0.7147884978043E-03
 0.3732987534581E-03 -0.3554653948405E-02  0.0000000000000E+00 -0.8792083855068E-03
 0.4425072180292E-03 -0.3591262954442E-02  0.0000000000000E+00 -0.1007400659598E-02
 0.5030549599811E-03 -0.3620568102974E-02  0.0000000000000E+00 -0.1103889130965E-02
 0.5540460924292E-03 -0.3641977021362E-02  0.0000000000000E+00 -0.1173673716658E-02
 0.5950244146787E-03 -0.3655216017590E-02  0.0000000000000E+00 -0.1221807540625E-02
 0.6259086087733E-03 -0.3660262360578E-02  0.0000000000000E+00 -0.1253075561338E-02
 0.6469102614854E-03 -0.3657265235465E-02  0.0000000000000E+00 -0.1271792793886E-02
 0.6584523760281E-03 -0.3646470404589E-02  0.0000000000000E+00 -0.1281714239109E-02
 0.6611007681996E-03 -0.3628158479191E-02  0.0000000000000E+00 -0.1286034051705E-02
 0.6555149621538E-03 -0.3602601611290E-02  0.0000000000000E+00 -0.1287446270079E-02
 0.6424208137639E-03 -0.3570039692224E-02  0.0000000000000E+00 -0.1288241036103E-02
 0.6226042823549E-03 -0.3530674846624E-02  0.0000000000000E+00 -0.1290415031886E-02
 0.5969241353408E-03 -0.3484681865572E-02  0.0000000000000E+00 -0.1295780343405E-02
 0.5663419501668E-03 -0.3432233890430E-02  0.0000000000000E+00 -0.1306060528676E-02
 0.5319649991809E-03 -0.3373538420471E-02  0.0000000000000E+00 -0.1322965924055E-02
 0.4951012252744E-03 -0.3308884763658E-02  0.0000000000000E+00 -0.1348242936620E-02
 0.4573235775921E-03 -0.3238701830199E-02  0.0000000000000E+00 -0.1383690477942E-02
 0.4205389207101E-03 -0.3163621291164E-02  0.0000000000000E+00 -0.1431140415067E-02
 0.3870598207213E-03 -0.3084547730990E-02  0.0000000000000E+00 -0.1492394742846E-02
 0.3596743894251E-03 -0.3002735103249E-02  0.0000000000000E+00 -0.1569113071635E-02
 0.3417103696323E-03 -0.2919877388609E-02  0.0000000000000E+00 -0.1662637816051E-02
 0.3370785879200E-03 -0.2838178314403E-02  0.0000000000000E+00 -0.1773735891670E-02
 0.3502793983873E-03 -0.2760374501013E-02  0.0000000000000E+00 -0.1902290560602E-02
 0.3863652713443E-03 -0.2689737379552E-02  0.0000000000000E+00 -0.2046913977472E-02
 0.4508393987939E-03 -0.2630040522726E-02  0.0000000000000E+00 -0.2204475009855E-02
 0.5494634309581E-03 -0.2585463616017E-02  0.0000000000000E+00 -0.2369565039762E-02
 0.6879467009068E-03 -0.2560402470039E-02  0.0000000000000E+00 -0.2533954040765E-02
 0.8714942981662E-03 -0.2559158950169E-02  0.0000000000000E+00 -0.2686128913788E-02
 0.1104208968254E-02 -0.2585499855786E-02  0.0000000000000E+00 -0.2811047868148E-02
 0.1388385468305E-02 -0.2642091825264E-02  0.0000000000000E+00 -0.2890277336105E-02
 0.1723792166026E-02 -0.2729893462355E-02  0.0000000000000E+00 -0.2902657352202E-02
 0.2107027734874E-02 -0.2847622833563E-02  0.0000000000000E+00 -0.2825558861856E-02
 0.2531081760942E-02 -0.2991382740189E-02  0.0000000000000E+00 -0.2636750292096E-02
 0.2985304080611E-02 -0.3154587328530E-02  0.0000000000000E+00 -0.2316725370813E-02
 0.3455882679851E-02 -0.3328300831107E-02  0.0000000000000E+00 -0.1851119481839E-02
 0.3926833636406E-02 -0.3501998437244E-02  0.0000000000000E+00 -0.1232776025893E-02
 0.4381351845005E-02 -0.3664656496097E-02  0.0000000000000E+00 -0.4632263781434E-03
 0.3971037656383E-04 -0.3171200140013E-02  0.0000000000000E+00  0.5501954508237E-04
 0.1192030221302E-03 -0.3220233960261E-02  0.0000000000000E+00 -0.2344404695912E-03
 0.1976650848116E-03 -0.3267717670752E-02  0.0000000000000E+00 -0.4825965476240E-03
 0.2730505107787E-03 -0.3312105939676E-02  0.0000000000000E+00 -0.6898328418324E-03
 0.3434754158909E-03 -0.3351995201471E-02  0.0000000000000E+00 -0.8581758041945E-03
 0.4073344260520E-03 -0.3386210713239E-02  0.0000000000000E+00 -0.9909955731144E-03
 0.4633792004423E-03 -0.3413859868471E-02  0.0000000000000E+00 -0.1092592636738E-02
 0.5107502153394E-03 -0.3434345064398E-02  0.0000000000000E+00 -0.1167756915037E-02
 0.5489640366752E-03 -0.3447339570046E-02  0.0000000000000E+00 -0.1221369318627E-02
 0.5778683225631E-03 -0.3452737868515E-02  0.0000000000000E+00 -0.1258093259902E-02
 0.5975802447537E-03 -0.3450594365013E-02  0.0000000000000E+00 -0.1282174763670E-02
 0.6084225312134E-03 -0.3441062687835E-02  0.0000000000000E+00 -0.1297346123984E-02
 0.6108678671014E-03 -0.3424344329935E-02  0.0000000000000E+00 -0.1306814090927E-02
 0.6054980535116E-03 -0.3400651524988E-02  0.0000000000000E+00 -0.1313307806560E-02
 0.5929807776260E-03 -0.3370186208665E-02  0.0000000000000E+00 -0.1319162328668E-02
 0.5740643565908E-03 -0.3333134826872E-02  0.0000000000000E+00 -0.1326417448248E-02
 0.5495891575932E-03 -0.3289677512529E-02  0.0000000000000E+00 -0.1336916304569E-02
 0.5205147138218E-03 -0.3240011482063E-02  0.0000000000000E+00 -0.1352392321133E-02
 0.4879586660875E-03 -0.3184384252547E-02  0.0000000000000E+00 -0.1374536572567E-02
 0.4532468609596E-03 -0.3123137768053E-02  0.0000000000000E+00 -0.1405039892340E-02
 0.4179719442433E-03 -0.3056762293995E-02  0.0000000000000E+00 -0.1445602779289E-02
 0.3840556547623E-03 -0.2985955089567E-02  0.0000000000000E+00 -0.1497910460152E-02
 0.3538128413349E-03 -0.2911685014724E-02  0.0000000000000E+00 -0.1563565809069E-02
 0.3300118850593E-03 -0.2835260583487E-02  0.0000000000000E+00 -0.1643975222572E-02
 0.3159268167725E-03 -0.2758404268901E-02  0.0000000000000E+00 -0.1740178679093E-02
 0.3153686908011E-03 -0.2683310533656E-02  0.0000000000000E+00 -0.1852598802564E-02
 0.3326801191965E-03 -0.2612666573324E-02  0.0000000000000E+00 -0.1980739894297E-02
 0.3726833748127E-03 -0.2549646031954E-02  0.0000000000000E+00 -0.2122817473450E-02
 0.4405639771943E-03 -0.2497861667112E-02  0.0000000000000E+00 -0.2275319559505E-02
 0.5416676294699E-03 -0.2461253730808E-02  0.0000000000000E+00 -0.2432525784077E-02
 0.6811892960388E-03 -0.2443890692249E-02  0.0000000000000E+00 -0.2586036820577E-02
 0.8637392554926E-03 -0.2449664067438E-02  0.0000000000000E+00 -0.2724401185668E-02
 0.1092788117382E-02 -0.2481873501366E-02  0.0000000000000E+00 -0.2832960910608E-02
 0.1370033676878E-02 -0.2542717833830E-02  0.0000000000000E+00 -0.2894059771764E-02
 0.1694781814649E-02 -0.2632767829993E-02  0.0000000000000E+00 -0.2887734950523E-02
 0.2063416289645E-02 -0.2750518895366E-02  0.0000000000000E+00 -0.2792929179543E-02
 0.2469062718865E-02 -0.2892097048532E-02  0.0000000000000E+00 -0.2589212122531E-02
 0.2901619094551E-02 -0.3051239839031E-02  0.0000000000000E+00 -0.2258865311382E-02
 0.3348224962116E-02 -0.3219633044852E-02  0.0000000000000E+00 -0.1789002675867E-02
 0.3794162870608E-02 -0.3387604130580E-02  0.0000000000000E+00 -0.1173356428111E-02
 0.4224048270921E-02 -0.3545085275614E-02  0.0000000000000E+00 -0.4135556913028E-03
 0.3643420726849E-04 -0.2983643464055E-02  0.0000000000000E+00  0.8332421080622E-04
 0.1092372235983E-03 -0.3028625207031E-02  0.0000000000000E+00 -0.2068637882792E-03
 0.1809736728163E-03 -0.3072201847028E-02  0.0000000000000E+00 -0.4567355446406E-03
 0.2498902866911E-03 -0.3113042365713E-02  0.0000000000000E+00 -0.6666173988999E-03
 0.3143568194015E-03 -0.3149920737392E-02  0.0000000000000E+00 -0.8384196991033E-03
 0.3729574876506E-03 -0.3181784241574E-02  0.0000000000000E+00 -0.9753530036690E-03
 0.4245581498809E-03 -0.3207799686222E-02  0.0000000000000E+00 -0.1081538677154E-02
 0.4683402939623E-03 -0.3227370530575E-02  0.0000000000000E+00 -0.1161593226375E-02
 0.5038008273687E-03 -0.3240125276555E-02  0.0000000000000E+00 -0.1220250084622E-02
 0.5307250621281E-03 -0.3245884289700E-02  0.0000000000000E+00 -0.1262063061564E-02
 0.5491439934581E-03 -0.3244615011492E-02  0.0000000000000E+00 -0.1291209848331E-02
 0.5592868406640E-03 -0.3236385146583E-02  0.0000000000000E+00 -0.1311392188764E-02
 0.5615379305638E-03 -0.3221321375165E-02  0.0000000000000E+00 -0.1325816128064E-02
 0.5564039809899E-03 -0.3199578426897E-02  0.0000000000000E+00 -0.1337229801704E-02
 0.5444951046561E-03 -0.3171320972221E-02  0.0000000000000E+00 -0.1347996238088E-02
 0.5265207030709E-03 -0.3136718939997E-02  0.0000000000000E+00 -0.1360181858094E-02
 0.5032997845554E-03 -0.3095955585167E-02  0.0000000000000E+00 -0.1375645615796E-02
 0.4757853397845E-03 -0.3049248660777E-02  0.0000000000000E+00 -0.1396117249033E-02
 0.4450994474279E-03 -0.2996880833772E-02  0.0000000000000E+00 -0.1423256999048E-02
 0.4125785774157E-03 -0.2939240412831E-02  0.0000000000000E+00 -0.1458690823368E-02
 0.3798265287224E-03 -0.2876871232917E-02  0.0000000000000E+00 -0.1504014181960E-02
 0.3487702367186E-03 -0.2810526740977E-02  0.0000000000000E+00 -0.1560762309913E-02
 0.3217162360904E-03 -0.2741228999801E-02  0.0000000000000E+00 -0.1630339777538E-02
 0.3014020505767E-03 -0.2670328441534E-02  0.0000000000000E+00 -0.1713905926446E-02
 0.2910370425980E-03 -0.2599562352271E-02  0.0000000000000E+00 -0.1812210894742E-02
 0.2943226288867E-03 -0.2531101921775E-02  0.0000000000000E+00 -0.1925353507870E-02
 0.3154361533049E-03 -0.2467571342655E-02  0.0000000000000E+00 -0.2052489752191E-02
 0.3589664898582E-03 -0.2412034712170E-02  0.0000000000000E+00 -0.2191481297682E-02
 0.4297854397498E-03 -0.2367936331406E-02  0.0000000000000E+00 -0.2338490738850E-02
 0.5328373109480E-03 -0.2338976623621E-02  0.0000000000000E+00 -0.2487551676514E-02
 0.6728312648153E-03 -0.2328907043198E-02  0.0000000000000E+00 -0.2630164980889E-02
 0.8538276313628E-03 -0.2341232688639E-02  0.0000000000000E+00 -0.2755002504729E-02
 0.1078725668756E-02 -0.2378824516087E-02  0.0000000000000E+00 -0.2847827790763E-02
 0.1348698453941E-02 -0.2443463970682E-02  0.0000000000000E+00 -0.2891757555244E-02
 0.1662663393122E-02 -0.2535389228161E-02  0.0000000000000E+00 -0.2867964028248E-02
 0.2016849960523E-02 -0.2652921692443E-02  0.0000000000000E+00 -0.2756834224963E-02
 0.2404549346869E-02 -0.2792238681248E-02  0.0000000000000E+00 -0.2539554744082E-02
 0.2816191555474E-02 -0.2947396451394E-02  0.0000000000000E+00 -0.2199982591698E-02
 0.3239800167406E-02 -0.3110659690649E-02  0.0000000000000E+00 -0.1726512418973E-02
 0.3661811623131E-02 -0.3273132134701E-02  0.0000000000000E+00 -0.1113624633784E-02
 0.4068120765045E-02 -0.3425605020802E-02  0.0000000000000E+00 -0.3629917557102E-03
 0.3323321928035E-04 -0.2796269758095E-02  0.0000000000000E+00  0.1092522663699E-03
 0.9949696330409E-04 -0.2837291690950E-02  0.0000000000000E+00 -0.1815764437224E-03
 0.1646538321011E-03 -0.2877048676881E-02  0.0000000000000E+00 -0.4329317629319E-03
 0.2272348910517E-03 -0.2914418472882E-02  0.0000000000000E+00 -0.6451004551098E-03
 0.2858560381028E-03 -0.2948348315349E-02  0.0000000000000E+00 -0.8199103673747E-03
 0.3392865343416E-03 -0.2977905949076E-02  0.0000000000000E+00 -0.9604542324303E-03
 0.3865057135661E-03 -0.3002319267564E-02  0.0000000000000E+00 -0.1070716004059E-02
 0.4267389192812E-03 -0.3020997275319E-02  0.0000000000000E+00 -0.1155173655915E-02
 0.4594687808691E-03 -0.3033529993912E-02  0.0000000000000E+00 -0.1218437187287E-02
 0.4844248501801E-03 -0.3039670579539E-02  0.0000000000000E+00 -0.1264962969786E-02
 0.5015585030263E-03 -0.3039306013829E-02  0.0000000000000E+00 -0.1298861875257E-02
 0.5110110596997E-03 -0.3032423471835E-02  0.0000000000000E+00 -0.1323798438489E-02
 0.5130825987154E-03 -0.3019078734603E-02  0.0000000000000E+00 -0.1342965966121E-02
 0.5082071213742E-03 -0.2999371348461E-02  0.0000000000000E+00 -0.1359116682083E-02
 0.4969377523312E-03 -0.2973429484674E-02  0.0000000000000E+00 -0.1374625735559E-02
 0.4799438550755E-03 -0.2941405859842E-02  0.0000000000000E+00 -0.1391570702202E-02
 0.4580203572903E-03 -0.2903484778096E-02  0.0000000000000E+00 -0.1411812078408E-02
 0.4321094938169E-03 -0.2859901115174E-02  0.0000000000000E+00 -0.1437063357064E-02
 0.4033321756256E-03 -0.2810967925581E-02  0.0000000000000E+00 -0.1468943447699E-02
 0.3730285966422E-03 -0.2757113724955E-02  0.0000000000000E+00 -0.1509005323085E-02
 0.3428056371986E-03 -0.2698928300931E-02  0.0000000000000E+00 -0.1558734107666E-02
 0.3145863653537E-03 -0.2637212175839E-02  0.0000000000000E+00 -0.1619513144768E-02
 0.2906592285088E-03 -0.2573030033589E-02  0.0000000000000E+00 -0.1692551035450E-02
 0.2737208760482E-03 -0.2507762372517E-02  0.0000000000000E+00 -0.1778767688893E-02
 0.2669064983117E-03 -0.2443148779277E-02  0.0000000000000E+00 -0.1878637192209E-02
 0.2737998438392E-03 -0.2381324773400E-02  0.0000000000000E+00 -0.1991955703850E-02
 0.2984076789463E-03 -0.2324840080913E-02  0.0000000000000E+00 -0.2117561252017E-02
 0.3450847544810E-03 -0.2276640082002E-02  0.0000000000000E+00 -0.2253002712953E-02
 0.4183955195169E-03 -0.2239995840081E-02  0.0000000000000E+00 -0.2394168919444E-02
 0.5228992054698E-03 -0.2218370239109E-02  0.0000000000000E+00 -0.2534906902170E-02
 0.6628480371894E-03 -0.2215209854794E-02  0.0000000000000E+00 -0.2666678409296E-02
 0.8417951622842E-03 -0.2233657369708E-02  0.0000000000000E+00 -0.2778329682481E-02
 0.1062124017065E-02 -0.2276191045606E-02  0.0000000000000E+00 -0.2856072701265E-02
 0.1324546603289E-02 -0.2344219970558E-02  0.0000000000000E+00 -0.2883784638723E-02
 0.1627654744006E-02 -0.2437697201775E-02  0.0000000000000E+00 -0.2843708633893E-02
 0.1967572765207E-02 -0.2554810174818E-02  0.0000000000000E+00 -0.2717555433270E-02
 0.2337778325799E-02 -0.2691808647462E-02  0.0000000000000E+00 -0.2487961104563E-02
 0.2729214679759E-02 -0.2843060283779E-02  0.0000000000000E+00 -0.2140169934200E-02
 0.3130726946286E-02 -0.3001369182595E-02  0.0000000000000E+00 -0.1663685199025E-02
 0.3529804660249E-02 -0.3158547565113E-02  0.0000000000000E+00 -0.1053615742021E-02
 0.3913496877725E-02 -0.3306160218367E-02  0.0000000000000E+00 -0.3116346578030E-03
 0.3009546177769E-04 -0.2609031189889E-02  0.0000000000000E+00  0.1328561090214E-03
 0.8994648765618E-04 -0.2646171700315E-02  0.0000000000000E+00 -0.1585273408042E-03
 0.1486478713450E-03 -0.2682184958397E-02  0.0000000000000E+00 -0.4111381247104E-03
 0.2050094441454E-03 -0.2716153951654E-02  0.0000000000000E+00 -0.6252415492214E-03
 0.2578876379004E-03 -0.2747196006349E-02  0.0000000000000E+00 -0.8026153461112E-03
 0.3062327340380E-03 -0.2774497750442E-02  0.0000000000000E+00 -0.9462743222364E-03
 0.3491360501938E-03 -0.2797348798963E-02  0.0000000000000E+00 -0.1060104834973E-02
 0.3858679671412E-03 -0.2815166515338E-02  0.0000000000000E+00 -0.1148479749680E-02
 0.4159001745136E-03 -0.2827506873857E-02  0.0000000000000E+00 -0.1215908914696E-02
 0.4389110810273E-03 -0.2834061062607E-02  0.0000000000000E+00 -0.1266763375163E-02
 0.4547773956579E-03 -0.2834640840657E-02  0.0000000000000E+00 -0.1305089204625E-02
 0.4635570256006E-03 -0.2829157437700E-02  0.0000000000000E+00 -0.1334507929422E-02
 0.4654692518849E-03 -0.2817599240832E-02  0.0000000000000E+00 -0.1358189108194E-02
 0.4608774417537E-03 -0.2800012817267E-02  0.0000000000000E+00 -0.1378875208644E-02
 0.4502782982546E-03 -0.2776490664564E-02  0.0000000000000E+00 -0.1398938685093E-02
 0.4343001709819E-03 -0.2747167733157E-02  0.0000000000000E+00 -0.1420453792709E-02
 0.4137114289626E-03 -0.2712227466321E-02  0.0000000000000E+00 -0.1445269288294E-02
 0.3894396414267E-03 -0.2671918606333E-02  0.0000000000000E+00 -0.1475070880737E-02
 0.3625992993671E-03 -0.2626579987058E-02  0.0000000000000E+00 -0.1511426735602E-02
 0.3345278365370E-03 -0.2576674347681E-02  0.0000000000000E+00 -0.1555809907373E-02
 0.3068276498172E-03 -0.2522830048037E-02  0.0000000000000E+00 -0.1609591154640E-02
 0.2814095196149E-03 -0.2465885930117E-02  0.0000000000000E+00 -0.1674001357585E-02
 0.2605348707984E-03 -0.2406939268424E-02  0.0000000000000E+00 -0.1750056803262E-02
 0.2468505556456E-03 -0.2347389603643E-02  0.0000000000000E+00 -0.1838446771270E-02
 0.2434094789256E-03 -0.2288967474108E-02  0.0000000000000E+00 -0.1939383913887E-02
 0.2536713944977E-03 -0.2233761876415E-02  0.0000000000000E+00 -0.2052383063447E-02
 0.2814691767373E-03 -0.2184238564952E-02  0.0000000000000E+00 -0.2175993913266E-02
 0.3309248753748E-03 -0.2143217350576E-02  0.0000000000000E+00 -0.2307491503308E-02
 0.4063039286440E-03 -0.2113793738684E-02  0.0000000000000E+00 -0.2442538664850E-02
 0.5117980754493E-03 -0.2099197540979E-02  0.0000000000000E+00 -0.2574849326394E-02
 0.6512313047760E-03 -0.2102583856895E-02  0.0000000000000E+00 -0.2695898831047E-02
 0.8276899791029E-03 -0.2126756577584E-02  0.0000000000000E+00 -0.2794749712212E-02
 0.1043092105036E-02 -0.2173834622505E-02  0.0000000000000E+00 -0.2858080604151E-02
 0.1297744327322E-02 -0.2244894666940E-02  0.0000000000000E+00 -0.2870510749144E-02
 0.1589965930563E-02 -0.2339645131540E-02  0.0000000000000E+00 -0.2815289592445E-02
 0.1915815415122E-02 -0.2456172078726E-02  0.0000000000000E+00 -0.2675338158921E-02
 0.2268970772919E-02 -0.2590813139147E-02  0.0000000000000E+00 -0.2434589530215E-02
 0.2640868102559E-02 -0.2738238278766E-02  0.0000000000000E+00 -0.2079507702068E-02
 0.3021116521946E-02 -0.2891754685357E-02  0.0000000000000E+00 -0.1600554213548E-02
 0.3398168589824E-02 -0.3043822819444E-02  0.0000000000000E+00 -0.9933643674147E-03
 0.3760116641921E-02 -0.3186705623024E-02  0.0000000000000E+00 -0.2595788831443E-03
 0.2700905944346E-04 -0.2421880207129E-02  0.0000000000000E+00  0.1541793347086E-03
 0.8055035494608E-04 -0.2455203873846E-02  0.0000000000000E+00 -0.1376730564913E-03
 0.1328987288766E-03 -0.2487537872612E-02  0.0000000000000E+00 -0.3913126463801E-03
 0.1831399224672E-03 -0.2518168755180E-02  0.0000000000000E+00 -0.6070017582959E-03
 0.2303670403785E-03 -0.2546381792820E-02  0.0000000000000E+00 -0.7864999153742E-03
 0.2737078237860E-03 -0.2571480875789E-02  0.0000000000000E+00 -0.9327827978476E-03
 0.3123633391134E-03 -0.2592816991538E-02  0.0000000000000E+00 -0.1049677631759E-02
 0.3456486075988E-03 -0.2609817096533E-02  0.0000000000000E+00 -0.1141484383156E-02
 0.3730257837421E-03 -0.2622005796007E-02  0.0000000000000E+00 -0.1212635219887E-02
 0.3941248823573E-03 -0.2629015966292E-02  0.0000000000000E+00 -0.1267427672593E-02
 0.4087513689109E-03 -0.2630588167655E-02  0.0000000000000E+00 -0.1309845220938E-02
 0.4168831447912E-03 -0.2626561483038E-02  0.0000000000000E+00 -0.1343461137654E-02
 0.4186615054202E-03 -0.2616860006067E-02  0.0000000000000E+00 -0.1371411014805E-02
 0.4143809874880E-03 -0.2601479407166E-02  0.0000000000000E+00 -0.1396414633370E-02
 0.4044824190998E-03 -0.2580477390801E-02  0.0000000000000E+00 -0.1420827901828E-02
 0.3895523090961E-03 -0.2553970732877E-02  0.0000000000000E+00 -0.1446708263141E-02
 0.3703302426445E-03 -0.2522140285238E-02  0.0000000000000E+00 -0.1475880454141E-02
 0.3477255339153E-03 -0.2485245588428E-02  0.0000000000000E+00 -0.1509991896248E-02
 0.3228413781946E-03 -0.2443646843866E-02  0.0000000000000E+00 -0.1550551686408E-02
 0.2970064066745E-03 -0.2397835256457E-02  0.0000000000000E+00 -0.1598947175846E-02
 0.2718114999511E-03 -0.2348470669938E-02  0.0000000000000E+00 -0.1656431925663E-02
 0.2491473903143E-03 -0.2296421900220E-02  0.0000000000000E+00 -0.1724084989209E-02
 0.2312403806741E-03 -0.2242809374132E-02  0.0000000000000E+00 -0.1802735128888E-02
 0.2206796640926E-03 -0.2189041494122E-02  0.0000000000000E+00 -0.1892850718421E-02
 0.2204290566121E-03 -0.2136829537943E-02  0.0000000000000E+00 -0.1994398092624E-02
 0.2338195531646E-03 -0.2088206584036E-02  0.0000000000000E+00 -0.2106631940600E-02
 0.2645085971251E-03 -0.2045546701756E-02  0.0000000000000E+00 -0.2227842149246E-02
 0.3163887997277E-03 -0.2011539335104E-02  0.0000000000000E+00 -0.2355066514263E-02
 0.3934365245106E-03 -0.1989104210431E-02  0.0000000000000E+00 -0.2483785679894E-02
 0.4994944589010E-03 -0.1981244279701E-02  0.0000000000000E+00 -0.2607628285453E-02
 0.6379865454914E-03 -0.1990837402110E-02  0.0000000000000E+00 -0.2718128874120E-02
 0.8115702418924E-03 -0.2020371606781E-02  0.0000000000000E+00 -0.2804600427817E-02
 0.1021743579291E-02 -0.2071637117935E-02  0.0000000000000E+00 -0.2854199552266E-02
 0.1268456296015E-02 -0.2145413358060E-02  0.0000000000000E+00 -0.2852265081521E-02
 0.1549799446462E-02 -0.2241198309521E-02  0.0000000000000E+00 -0.2782988910020E-02
 0.1861796589078E-02 -0.2357002794765E-02  0.0000000000000E+00 -0.2630395910370E-02
 0.2198334152369E-02 -0.2489263002493E-02  0.0000000000000E+00 -0.2379576982465E-02
 0.2551319766384E-02 -0.2632940892787E-02  0.0000000000000E+00 -0.2018065747141E-02
 0.2911073912292E-02 -0.2781813631302E-02  0.0000000000000E+00 -0.1537149880645E-02
 0.3266931980151E-02 -0.2928936683579E-02  0.0000000000000E+00 -0.9329043009623E-03
 0.3607931366325E-02 -0.3067204870445E-02  0.0000000000000E+00 -0.2069129474914E-03
 0.2396208531646E-04 -0.2234769226108E-02  0.0000000000000E+00  0.1732567234754E-03
 0.7127306079331E-04 -0.2264326754927E-02  0.0000000000000E+00 -0.1189778591244E-03
 0.1173494030219E-03 -0.2293034462108E-02  0.0000000000000E+00 -0.3734185229849E-03
 0.1615525055788E-03 -0.2320382598960E-02  0.0000000000000E+00 -0.5903439046996E-03
 0.2032099183339E-03 -0.2345823191122E-02  0.0000000000000E+00 -0.7715274580526E-03
 0.2416236645000E-03 -0.2368775689817E-02  0.0000000000000E+00 -0.9199441505351E-03
 0.2761015559632E-03 -0.2388651124204E-02  0.0000000000000E+00 -0.1039399708050E-02
 0.3060013092992E-03 -0.2404885742924E-02  0.0000000000000E+00 -0.1134152411741E-02
 0.3307750818483E-03 -0.2416973773818E-02  0.0000000000000E+00 -0.1208578354621E-02
 0.3500054561121E-03 -0.2424491924453E-02  0.0000000000000E+00 -0.1266912831828E-02
 0.3634286214487E-03 -0.2427112425583E-02  0.0000000000000E+00 -0.1313078812031E-02
 0.3709448576095E-03 -0.2424605266249E-02  0.0000000000000E+00 -0.1350596334340E-02
 0.3726196831415E-03 -0.2416832964369E-02  0.0000000000000E+00 -0.1382557373007E-02
 0.3686803489963E-03 -0.2403742264379E-02  0.0000000000000E+00 -0.1411646862333E-02
 0.3595123466849E-03 -0.2385357020040E-02  0.0000000000000E+00 -0.1440191205269E-02
 0.3456596754979E-03 -0.2361775579660E-02  0.0000000000000E+00 -0.1470218499891E-02
 0.3278311754503E-03 -0.2333174669980E-02  0.0000000000000E+00 -0.1503518184937E-02
 0.3069146516426E-03 -0.2299821776511E-02  0.0000000000000E+00 -0.1541689931309E-02
 0.2839975231484E-03 -0.2262094289111E-02  0.0000000000000E+00 -0.1586176522679E-02
 0.2603940375311E-03 -0.2220506389068E-02  0.0000000000000E+00 -0.1638274937530E-02
 0.2376770737984E-03 -0.2175742652615E-02  0.0000000000000E+00 -0.1699119836886E-02
 0.2177102200169E-03 -0.2128693973218E-02  0.0000000000000E+00 -0.1769640174651E-02
 0.2026773773486E-03 -0.2080495108113E-02  0.0000000000000E+00 -0.1850482939129E-02
 0.1951032294416E-03 -0.2032553979981E-02  0.0000000000000E+00 -0.1941906009388E-02
 0.1978569176303E-03 -0.1986553483889E-02  0.0000000000000E+00 -0.2043644737035E-02
 0.2141373272056E-03 -0.1944462739739E-02  0.0000000000000E+00 -0.2154714382999E-02
 0.2474264933825E-03 -0.1908558037686E-02  0.0000000000000E+00 -0.2273172172788E-02
 0.3013924133963E-03 -0.1881395461331E-02  0.0000000000000E+00 -0.2395852698033E-02
 0.3797335815849E-03 -0.1865720513551E-02  0.0000000000000E+00 -0.2518094315840E-02
 0.4859626075391E-03 -0.1864316882463E-02  0.0000000000000E+00 -0.2633482912932E-02
 0.6231308250024E-03 -0.1879799921645E-02  0.0000000000000E+00 -0.2733651553106E-02
 0.7935021027754E-03 -0.1914363821697E-02  0.0000000000000E+00 -0.2808191361234E-02
 0.9981952700327E-03 -0.1969498074495E-02  0.0000000000000E+00 -0.2844742913606E-02
 0.1236844966411E-02 -0.2045715551355E-02  0.0000000000000E+00 -0.2829339593397E-02
 0.1507350542517E-02 -0.2142332331009E-02  0.0000000000000E+00 -0.2747053571022E-02
 0.1805724167214E-02 -0.2257304454140E-02  0.0000000000000E+00 -0.2582913949696E-02
 0.2126064017722E-02 -0.2387173331214E-02  0.0000000000000E+00 -0.2323041848999E-02
 0.2460727580143E-02 -0.2527181841405E-02  0.0000000000000E+00 -0.1955905066584E-02
 0.2800698932867E-02 -0.2671547258711E-02  0.0000000000000E+00 -0.1473500390256E-02
 0.3136125335508E-02 -0.2813873447789E-02  0.0000000000000E+00 -0.8722683238299E-03
 0.3456902433674E-02 -0.2947629120889E-02  0.0000000000000E+00 -0.1537192035659E-03
 0.2094243532666E-04 -0.2047650341291E-02  0.0000000000000E+00  0.1901141353081E-03
 0.6207867064324E-04 -0.2073478368100E-02  0.0000000000000E+00 -0.1024137882084E-03
 0.1019423971306E-03 -0.2098601133692E-02  0.0000000000000E+00 -0.3574242122085E-03
 0.1401729442681E-03 -0.2122714484440E-02  0.0000000000000E+00 -0.5752326892548E-03
 0.1763316150145E-03 -0.2145436894134E-02  0.0000000000000E+00 -0.7576596848790E-03
 0.2098918162713E-03 -0.2166301523105E-02  0.0000000000000E+00 -0.9077181772670E-03
 0.2402642611378E-03 -0.2184777088396E-02  0.0000000000000E+00 -0.1029229675428E-02
 0.2668458467569E-03 -0.2200307296307E-02  0.0000000000000E+00 -0.1126441190695E-02
 0.2890764331436E-03 -0.2212355342397E-02  0.0000000000000E+00 -0.1203693415884E-02
 0.3064904055029E-03 -0.2220442457079E-02  0.0000000000000E+00 -0.1265169922903E-02
 0.3187552603965E-03 -0.2224174321499E-02  0.0000000000000E+00 -0.1314734835001E-02
 0.3256950823850E-03 -0.2223254192475E-02  0.0000000000000E+00 -0.1355849966322E-02
 0.3273012689319E-03 -0.2217485386073E-02  0.0000000000000E+00 -0.1391554376525E-02
 0.3237351054277E-03 -0.2206767604855E-02  0.0000000000000E+00 -0.1424486625940E-02
 0.3153272985816E-03 -0.2191091872507E-02  0.0000000000000E+00 -0.1456931470388E-02
 0.3025788423306E-03 -0.2170538026518E-02  0.0000000000000E+00 -0.1490876060562E-02
 0.2861661469854E-03 -0.2145277349621E-02  0.0000000000000E+00 -0.1528064254739E-02
 0.2669526034792E-03 -0.2115582658026E-02  0.0000000000000E+00 -0.1570039547432E-02
 0.2460057838129E-03 -0.2081844614251E-02  0.0000000000000E+00 -0.1618172229579E-02
 0.2246204453236E-03 -0.2044595190143E-02  0.0000000000000E+00 -0.1673665315365E-02
 0.2043455348424E-03 -0.2004537314574E-02  0.0000000000000E+00 -0.1737533922626E-02
 0.1870110586208E-03 -0.1962576538559E-02  0.0000000000000E+00 -0.1810559614522E-02
 0.1747520277776E-03 -0.1919853753488E-02  0.0000000000000E+00 -0.1893214160187E-02
 0.1700227172210E-03 -0.1877767879302E-02  0.0000000000000E+00 -0.1985555837193E-02
 0.1755931215966E-03 -0.1837965334320E-02  0.0000000000000E+00 -0.2087104321329E-02
 0.1945279271697E-03 -0.1802344480431E-02  0.0000000000000E+00 -0.2196655435675E-02
 0.2301351410708E-03 -0.1773079179688E-02  0.0000000000000E+00 -0.2312059279671E-02
 0.2858642816805E-03 -0.1752590729947E-02  0.0000000000000E+00 -0.2429978606918E-02
 0.3651481747293E-03 -0.1743453458076E-02  0.0000000000000E+00 -0.2545645554661E-02
 0.4711886089213E-03 -0.1748240469502E-02  0.0000000000000E+00 -0.2652640911529E-02
 0.6066908436236E-03 -0.1769319595414E-02  0.0000000000000E+00 -0.2742730081163E-02
 0.7735579455063E-03 -0.1808612184277E-02  0.0000000000000E+00 -0.2805804725878E-02
 0.9725659316000E-03 -0.1867332360207E-02  0.0000000000000E+00 -0.2829991462721E-02
 0.1203070093546E-02 -0.1945753018157E-02  0.0000000000000E+00 -0.2801991911669E-02
 0.1462807634331E-02 -0.2043031743606E-02  0.0000000000000E+00 -0.2707698780200E-02
 0.1747796425332E-02 -0.2157085198412E-02  0.0000000000000E+00 -0.2533052329214E-02
 0.2052345619740E-02 -0.2284563174981E-02  0.0000000000000E+00 -0.2265086337861E-02
 0.2369240892765E-02 -0.2420977908106E-02  0.0000000000000E+00 -0.1893079326497E-02
 0.2690087011245E-02 -0.2560960174221E-02  0.0000000000000E+00 -0.1409632347462E-02
 0.3005780940267E-02 -0.2698622026557E-02  0.0000000000000E+00 -0.8114882097080E-03
 0.3307000102039E-02 -0.2827955720208E-02  0.0000000000000E+00 -0.1000738299642E-03
 0.1793770094583E-04 -0.1860475049897E-02  0.0000000000000E+00  0.2047683137881E-03
 0.5293045024304E-04 -0.1882595813885E-02  0.0000000000000E+00 -0.8796079569325E-04
 0.8661916732427E-04 -0.1904163184765E-02  0.0000000000000E+00 -0.3433035193786E-03
 0.1189259395107E-03 -0.1925082253442E-02  0.0000000000000E+00 -0.5616347533481E-03
 0.1496465821365E-03 -0.1945138450639E-02  0.0000000000000E+00 -0.7448567301479E-03
 0.1784231367178E-03 -0.1963976542664E-02  0.0000000000000E+00 -0.8960601628598E-03
 0.2047644102803E-03 -0.1981119470266E-02  0.0000000000000E+00 -0.1019119738389E-02
 0.2281013241808E-03 -0.1996014988634E-02  0.0000000000000E+00 -0.1118300974531E-02
 0.2478572949973E-03 -0.2008092973501E-02  0.0000000000000E+00 -0.1197928813328E-02
 0.2635160634201E-03 -0.2016818472927E-02  0.0000000000000E+00 -0.1262144602039E-02
 0.2746757043089E-03 -0.2021731380994E-02  0.0000000000000E+00 -0.1314754572065E-02
 0.2810846513907E-03 -0.2022469961946E-02  0.0000000000000E+00 -0.1359157043111E-02
 0.2826613479645E-03 -0.2018780414687E-02  0.0000000000000E+00 -0.1398329016786E-02
 0.2795022562510E-03 -0.2010517235341E-02  0.0000000000000E+00 -0.1434851655861E-02
 0.2718838944378E-03 -0.1997639741512E-02  0.0000000000000E+00 -0.1470956676308E-02
 0.2602639483293E-03 -0.1980209365018E-02  0.0000000000000E+00 -0.1508579579414E-02
 0.2452850048559E-03 -0.1958390858217E-02  0.0000000000000E+00 -0.1549409345526E-02
 0.2277834963630E-03 -0.1932460013713E-02  0.0000000000000E+00 -0.1594925894876E-02
 0.2088034970256E-03 -0.1902817139442E-02  0.0000000000000E+00 -0.1646421891160E-02
 0.1896156492646E-03 -0.1870007143242E-02  0.0000000000000E+00 -0.1705003830179E-02
 0.1717395917824E-03 -0.1834745323987E-02  0.0000000000000E+00 -0.1771567635268E-02
 0.1569659553659E-03 -0.1797944962770E-02  0.0000000000000E+00 -0.1846751067947E-02
 0.1473751263329E-03 -0.1760745511343E-02  0.0000000000000E+00 -0.1930857898701E-02
 0.1453459516298E-03 -0.1724529148600E-02  0.0000000000000E+00 -0.2023758001885E-02
 0.1535458108319E-03 -0.1690898675674E-02  0.0000000000000E+00 -0.2124770453819E-02
 0.1749042099299E-03 -0.1661676016062E-02  0.0000000000000E+00 -0.2232490696752E-02
 0.2125576707923E-03 -0.1638929227333E-02  0.0000000000000E+00 -0.2344585456354E-02
 0.2697444542062E-03 -0.1624944744627E-02  0.0000000000000E+00 -0.2457574266760E-02
 0.3496446857206E-03 -0.1622130009203E-02  0.0000000000000E+00 -0.2566615393202E-02
 0.4551686905546E-03 -0.1632857069504E-02  0.0000000000000E+00 -0.2665317688168E-02
 0.5887012108222E-03 -0.1659261290001E-02  0.0000000000000E+00 -0.2745607938188E-02
 0.7518148708539E-03 -0.1703011100277E-02  0.0000000000000E+00 -0.2797696480258E-02
 0.9449752088128E-03 -0.1765068160829E-02  0.0000000000000E+00 -0.2810195333256E-02
 0.1167288408737E-02 -0.1845488170551E-02  0.0000000000000E+00 -0.2770447890499E-02
 0.1416352795840E-02 -0.1943288975454E-02  0.0000000000000E+00 -0.2665110723462E-02
 0.1688203237660E-02 -0.2056358679462E-02  0.0000000000000E+00 -0.2480948454972E-02
 0.1977355471234E-02 -0.2181455440586E-02  0.0000000000000E+00 -0.2205798567468E-02
 0.2277001900246E-02 -0.2314348915784E-02  0.0000000000000E+00 -0.1829636352107E-02
 0.2579329932907E-02 -0.2450060040369E-02  0.0000000000000E+00 -0.1345571618387E-02
 0.2875932684491E-02 -0.2583175172274E-02  0.0000000000000E+00 -0.7505950062344E-03
 0.3158202429890E-02 -0.2708166970385E-02  0.0000000000000E+00 -0.4604706331535E-04
 0.1493503815938E-04 -0.1673193982137E-02  0.0000000000000E+00  0.2172266071576E-03
 0.4379048483752E-04 -0.1691614859395E-02  0.0000000000000E+00 -0.7560694197662E-04
 0.7131955910372E-04 -0.1709644322072E-02  0.0000000000000E+00 -0.3310356717921E-03
 0.9773451791267E-04 -0.1727402136245E-02  0.0000000000000E+00 -0.5495186566540E-03
 0.1230678251518E-03 -0.1744841940905E-02  0.0000000000000E+00 -0.7330771057032E-03
 0.1471273947995E-03 -0.1761717617818E-02  0.0000000000000E+00 -0.8849208958178E-03
 0.1695141819553E-03 -0.1777601621355E-02  0.0000000000000E+00 -0.1009015832398E-02
 0.1896862111924E-03 -0.1791940690429E-02  0.0000000000000E+00 -0.1109675192604E-02
 0.2070444217265E-03 -0.1804127451178E-02  0.0000000000000E+00 -0.1191226655288E-02
 0.2210178110954E-03 -0.1813568717375E-02  0.0000000000000E+00 -0.1257777555439E-02
 0.2311330658102E-03 -0.1819738422364E-02  0.0000000000000E+00 -0.1313076173364E-02
 0.2370627181467E-03 -0.1822211039808E-02  0.0000000000000E+00 -0.1360451527644E-02
 0.2386530132158E-03 -0.1820677517122E-02  0.0000000000000E+00 -0.1402809383852E-02
 0.2359366135512E-03 -0.1814948980810E-02  0.0000000000000E+00 -0.1442662870658E-02
 0.2291365289108E-03 -0.1804954302293E-02  0.0000000000000E+00 -0.1482179958846E-02
 0.2186670514757E-03 -0.1790736822702E-02  0.0000000000000E+00 -0.1523234671386E-02
 0.2051358568890E-03 -0.1772453927329E-02  0.0000000000000E+00 -0.1567452785410E-02
 0.1893502450678E-03 -0.1750382308401E-02  0.0000000000000E+00 -0.1616244263655E-02
 0.1723275684850E-03 -0.1724928600564E-02  0.0000000000000E+00 -0.1670820028659E-02
 0.1553102142952E-03 -0.1696646145527E-02  0.0000000000000E+00 -0.1732188499064E-02
 0.1397836855845E-03 -0.1666257044604E-02  0.0000000000000E+00 -0.1801127679598E-02
 0.1274940663065E-03 -0.1634675881128E-02  0.0000000000000E+00 -0.1878135908910E-02
 0.1204620910256E-03 -0.1603033702487E-02  0.0000000000000E+00 -0.1963356725296E-02
 0.1209869614047E-03 -0.1572688948353E-02  0.0000000000000E+00 -0.2056482955542E-02
 0.1316308617171E-03 -0.1545194532069E-02  0.0000000000000E+00 -0.2156647755499E-02
 0.1551880919133E-03 -0.1522291250380E-02  0.0000000000000E+00 -0.2262264145336E-02
 0.1946272100198E-03 -0.1505939082525E-02  0.0000000000000E+00 -0.2370837316937E-02
 0.2529833266029E-03 -0.1498290667986E-02  0.0000000000000E+00 -0.2478769418365E-02
 0.3331974176244E-03 -0.1501591879038E-02  0.0000000000000E+00 -0.2581173598741E-02
 0.4379076773269E-03 -0.1518023886724E-02  0.0000000000000E+00 -0.2671715811663E-02
 0.5692029014129E-03 -0.1549504603906E-02  0.0000000000000E+00 -0.2742509149418E-02
 0.7283533635700E-03 -0.1597468408723E-02  0.0000000000000E+00 -0.2784097429654E-02
 0.9155427497096E-03 -0.1662645122521E-02  0.0000000000000E+00 -0.2785575799171E-02
 0.1129653377686E-02 -0.1744892566285E-02  0.0000000000000E+00 -0.2734903795463E-02
 0.1368162252041E-02 -0.1843103352083E-02  0.0000000000000E+00 -0.2619448817415E-02
 0.1627127209073E-02 -0.1955143613732E-02  0.0000000000000E+00 -0.2426719125384E-02
 0.1901262795612E-02 -0.2077876831337E-02  0.0000000000000E+00 -0.2145254278338E-02
 0.2184146897689E-02 -0.2207317720248E-02  0.0000000000000E+00 -0.1765619514379E-02
 0.2468516380519E-02 -0.2338857235234E-02  0.0000000000000E+00 -0.1281344332316E-02
 0.2746615658822E-02 -0.2467528595954E-02  0.0000000000000E+00 -0.6896195490490E-03
 0.3010494074581E-02 -0.2588248796238E-02  0.0000000000000E+00  0.8296440554709E-05
 0.1192102610647E-04 -0.1485756632558E-02  0.0000000000000E+00  0.2274865761348E-03
 0.3461927622220E-04 -0.1500469527792E-02  0.0000000000000E+00 -0.6534866174677E-04
 0.5598121984423E-04 -0.1514966184604E-02  0.0000000000000E+00 -0.3206053956583E-03
 0.7651939397664E-04 -0.1529588318248E-02  0.0000000000000E+00 -0.5388547810070E-03
 0.9650635378201E-04 -0.1544459689012E-02  0.0000000000000E+00 -0.7222775254093E-03
 0.1159129072600E-03 -0.1559440237659E-02  0.0000000000000E+00 -0.8742465350745E-03
 0.1344248375937E-03 -0.1574145787485E-02  0.0000000000000E+00 -0.9988576280371E-03
 0.1515184108598E-03 -0.1588015215474E-02  0.0000000000000E+00 -0.1100500627860E-02
 0.1665640935094E-03 -0.1600398296082E-02  0.0000000000000E+00 -0.1183523081171E-02
 0.1789304111823E-03 -0.1610640259863E-02  0.0000000000000E+00 -0.1252004926740E-02
 0.1880695382952E-03 -0.1618148062841E-02  0.0000000000000E+00 -0.1309635108746E-02
 0.1935771606554E-03 -0.1622433153430E-02  0.0000000000000E+00 -0.1359666748528E-02
 0.1952277623767E-03 -0.1623132959525E-02  0.0000000000000E+00 -0.1404924990997E-02
 0.1929911811030E-03 -0.1620017137197E-02  0.0000000000000E+00 -0.1447844580463E-02
 0.1870377285737E-03 -0.1612985546071E-02  0.0000000000000E+00 -0.1490519674391E-02
 0.1777384626113E-03 -0.1602063984637E-02  0.0000000000000E+00 -0.1534753839647E-02
 0.1656653803703E-03 -0.1587401899743E-02  0.0000000000000E+00 -0.1582102284684E-02
 0.1515948538480E-03 -0.1569275097925E-02  0.0000000000000E+00 -0.1633899630312E-02
 0.1365147200855E-03 -0.1548093545329E-02  0.0000000000000E+00 -0.1691271937226E-02
 0.1216354530722E-03 -0.1524414883102E-02  0.0000000000000E+00 -0.1755128940472E-02
 0.1084041301769E-03 -0.1498962873748E-02  0.0000000000000E+00 -0.1826132868671E-02
 0.9851771234407E-04 -0.1472647474453E-02  0.0000000000000E+00 -0.1904647726499E-02
 0.9393291175158E-04 -0.1446584951209E-02  0.0000000000000E+00 -0.1990665032887E-02
 0.9686578584478E-04 -0.1422103693838E-02  0.0000000000000E+00 -0.2083711961573E-02
 0.1097715128562E-03 -0.1400701236549E-02  0.0000000000000E+00 -0.2182749899868E-02
 0.1353099653247E-03 -0.1384033422654E-02  0.0000000000000E+00 -0.2286026181133E-02
 0.1762860631633E-03 -0.1373950815306E-02  0.0000000000000E+00 -0.2390904298674E-02
 0.2355405820088E-03 -0.1372474279193E-02  0.0000000000000E+00 -0.2493692049755E-02
 0.3157893314276E-03 -0.1381694271724E-02  0.0000000000000E+00 -0.2589482759511E-02
 0.4194176063375E-03 -0.1403611772077E-02  0.0000000000000E+00 -0.2672024727557E-02
 0.5482418876802E-03 -0.1439942156771E-02  0.0000000000000E+00 -0.2733638732631E-02
 0.7032561295683E-03 -0.1491903635642E-02  0.0000000000000E+00 -0.2765214359417E-02
 0.8843874565513E-03 -0.1560012754222E-02  0.0000000000000E+00 -0.2756326920969E-02
 0.1090315046512E-02 -0.1643945646928E-02  0.0000000000000E+00 -0.2695528190897E-02
 0.1318406911058E-02 -0.1742480313780E-02  0.0000000000000E+00 -0.2570847549594E-02
 0.1564744826442E-02 -0.1853463524471E-02  0.0000000000000E+00 -0.2370462149673E-02
 0.1824231011720E-02 -0.1973857997677E-02  0.0000000000000E+00 -0.2083518270435E-02
 0.2090807586153E-02 -0.2099910442255E-02  0.0000000000000E+00 -0.1701069151231E-02
 0.2357732494285E-02 -0.2227364715788E-02  0.0000000000000E+00 -0.1216978245593E-02
 0.2617865743201E-02 -0.2351680205345E-02  0.0000000000000E+00 -0.6285934146640E-03
 0.2863865182022E-02 -0.2468189501498E-02  0.0000000000000E+00  0.6289696979636E-04
 0.8881515176871E-05 -0.1298111084124E-02  0.0000000000000E+00  0.2355355164252E-03
 0.2537530799122E-04 -0.1309091670670E-02  0.0000000000000E+00 -0.5719108358859E-04
 0.4053897411571E-04 -0.1320047851476E-02  0.0000000000000E+00 -0.3120029671524E-03
 0.5519830767608E-04 -0.1331552506774E-02  0.0000000000000E+00 -0.5296151256702E-03
 0.6987063182872E-04 -0.1343901996689E-02  0.0000000000000E+00 -0.7124125649012E-03
 0.8468619782275E-04 -0.1357058467422E-02  0.0000000000000E+00 -0.8639782979496E-03
 0.9940661782359E-04 -0.1370673283109E-02  0.0000000000000E+00 -0.9885783794674E-03
 0.1135153649550E-03 -0.1384168665712E-02  0.0000000000000E+00 -0.1090707483521E-02
 0.1263423733268E-03 -0.1396844216894E-02  0.0000000000000E+00 -0.1174748528277E-02
 0.1371883548965E-03 -0.1407978992826E-02  0.0000000000000E+00 -0.1244758716405E-02
 0.1454267826883E-03 -0.1416911222538E-02  0.0000000000000E+00 -0.1304364615316E-02
 0.1505749734021E-03 -0.1423089777451E-02  0.0000000000000E+00 -0.1356735818968E-02
 0.1523358756536E-03 -0.1426100264689E-02  0.0000000000000E+00 -0.1404607107361E-02
 0.1506175092300E-03 -0.1425672902131E-02  0.0000000000000E+00 -0.1450324695761E-02
 0.1455384810760E-03 -0.1421680189537E-02  0.0000000000000E+00 -0.1495899462100E-02
 0.1374270481705E-03 -0.1414131187492E-02  0.0000000000000E+00 -0.1543056376587E-02
 0.1268190968404E-03 -0.1403167111573E-02  0.0000000000000E+00 -0.1593273663197E-02
 0.1144586592822E-03 -0.1389061398593E-02  0.0000000000000E+00 -0.1647806197846E-02
 0.1013016934369E-03 -0.1372224684512E-02  0.0000000000000E+00 -0.1707693022204E-02
 0.8852357914990E-04 -0.1353215153136E-02  0.0000000000000E+00 -0.1773745490249E-02
 0.7752920059745E-04 -0.1332753519099E-02  0.0000000000000E+00 -0.1846513007388E-02
 0.6996238389639E-04 -0.1311739678760E-02  0.0000000000000E+00 -0.1926230975466E-02
 0.6771204925163E-04 -0.1291269300359E-02  0.0000000000000E+00 -0.2012747474131E-02
 0.7290824245898E-04 -0.1272635042633E-02  0.0000000000000E+00 -0.2105435368163E-02
 0.8789797404901E-04 -0.1257274253459E-02  0.0000000000000E+00 -0.2203097806712E-02
 0.1152081230589E-03 -0.1246754725618E-02  0.0000000000000E+00 -0.2303831859353E-02
 0.1574849356484E-03 -0.1242817041610E-02  0.0000000000000E+00 -0.2404877089639E-02
 0.2173842158087E-03 -0.1247353087660E-02  0.0000000000000E+00 -0.2502467184053E-02
 0.2974109028802E-03 -0.1262304732076E-02  0.0000000000000E+00 -0.2591697589701E-02
 0.3997164884599E-03 -0.1289503840699E-02  0.0000000000000E+00 -0.2666420690158E-02
 0.5258679259190E-03 -0.1330478054592E-02  0.0000000000000E+00 -0.2719183281071E-02
 0.6766070709454E-03 -0.1386246432533E-02  0.0000000000000E+00 -0.2741231179203E-02
 0.8516268346523E-03 -0.1457129000073E-02  0.0000000000000E+00 -0.2722617049287E-02
 0.1049419932016E-02 -0.1542633612879E-02  0.0000000000000E+00 -0.2652463529106E-02
 0.1267252894959E-02 -0.1641430734845E-02  0.0000000000000E+00 -0.2519417895215E-02
 0.1501227602170E-02 -0.1751346581528E-02  0.0000000000000E+00 -0.2312257490946E-02
 0.1746419256907E-02 -0.1869433839413E-02  0.0000000000000E+00 -0.2020645465344E-02
 0.1997112462481E-02 -0.1992156926373E-02  0.0000000000000E+00 -0.1636023940608E-02
 0.2247062458320E-02 -0.2115598088487E-02  0.0000000000000E+00 -0.1152504487425E-02
 0.2489719093525E-02 -0.2235629409711E-02  0.0000000000000E+00 -0.5675503811366E-03
 0.2718310290937E-02 -0.2347978528969E-02  0.0000000000000E+00  0.1176988685549E-03
 0.5801456515228E-05 -0.1110203714754E-02  0.0000000000000E+00  0.2413498523380E-03
 0.1601456437480E-04 -0.1117410502252E-02  0.0000000000000E+00 -0.5114842214542E-04
 0.2492414270679E-04 -0.1124805308423E-02  0.0000000000000E+00 -0.3052242477814E-03
 0.3368532089435E-04 -0.1133203471073E-02  0.0000000000000E+00 -0.5217729954239E-03
 0.4306601631133E-04 -0.1143076873412E-02  0.0000000000000E+00 -0.7034341582150E-03
 0.5335167576872E-04 -0.1154484918972E-02  0.0000000000000E+00 -0.8540519788235E-03
 0.6436867531308E-04 -0.1167104683171E-02  0.0000000000000E+00 -0.9781046375117E-03
 0.7559419624872E-04 -0.1180330781652E-02  0.0000000000000E+00 -0.1080219366673E-02
 0.8630538864122E-04 -0.1193403545093E-02  0.0000000000000E+00 -0.1164827966084E-02
 0.9572621561751E-04 -0.1205530088831E-02  0.0000000000000E+00 -0.1235967185822E-02
 0.1031463024559E-03 -0.1215977563927E-02  0.0000000000000E+00 -0.1297196170862E-02
 0.1080026329223E-03 -0.1224132536750E-02  0.0000000000000E+00 -0.1351592089365E-02
 0.1099267568701E-03 -0.1229530574861E-02  0.0000000000000E+00 -0.1401789123525E-02
 0.1087660063860E-03 -0.1231864702253E-02  0.0000000000000E+00 -0.1450034964388E-02
 0.1045885167534E-03 -0.1230981974032E-02  0.0000000000000E+00 -0.1498248329275E-02
 0.9768048204803E-04 -0.1226875796755E-02  0.0000000000000E+00 -0.1548068284976E-02
 0.8854159268396E-04 -0.1219679150255E-02  0.0000000000000E+00 -0.1600890598328E-02
 0.7788251507262E-04 -0.1209661924132E-02  0.0000000000000E+00 -0.1657886960795E-02
 0.6662539108385E-04 -0.1197233101138E-02  0.0000000000000E+00 -0.1720008169478E-02
 0.5590779383910E-04 -0.1182948034003E-02  0.0000000000000E+00 -0.1787968364868E-02
 0.4708915222981E-04 -0.1167520114361E-02  0.0000000000000E+00 -0.1862207840431E-02
 0.4175667718651E-04 -0.1151834227431E-02  0.0000000000000E+00 -0.1942839712176E-02
 0.4172827125731E-04 -0.1136960157579E-02  0.0000000000000E+00 -0.2029577509063E-02
 0.4904564416480E-04 -0.1124149719339E-02  0.0000000000000E+00 -0.2121651020080E-02
 0.6594700509133E-04 -0.1114775853656E-02  0.0000000000000E+00 -0.2217718004644E-02
 0.9482818151496E-04 -0.1110315802515E-02  0.0000000000000E+00 -0.2315739324386E-02
 0.1381821898511E-03 -0.1112400216472E-02  0.0000000000000E+00 -0.2412846280169E-02
 0.1984896277942E-03 -0.1122795405645E-02  0.0000000000000E+00 -0.2505215904412E-02
 0.2780590771504E-03 -0.1143301997852E-02  0.0000000000000E+00 -0.2587964464350E-02
 0.3788271844504E-03 -0.1175594130786E-02  0.0000000000000E+00 -0.2655066887377E-02
 0.5021334526664E-03 -0.1221026417782E-02  0.0000000000000E+00 -0.2699311664366E-02
 0.6484903403888E-03 -0.1280435076764E-02  0.0000000000000E+00 -0.2712310071160E-02
 0.8173763680461E-03 -0.1353958849835E-02  0.0000000000000E+00 -0.2684590189314E-02
 0.1007110874978E-02 -0.1440948295195E-02  0.0000000000000E+00 -0.2605827449462E-02
 0.1214861979787E-02 -0.1539970196078E-02  0.0000000000000E+00 -0.2465248304683E-02
 0.1436743120262E-02 -0.1648825385885E-02  0.0000000000000E+00 -0.2252167875397E-02
 0.1667983884000E-02 -0.1764643832925E-02  0.0000000000000E+00 -0.1956681457137E-02
 0.1903188273550E-02 -0.1884091371160E-02  0.0000000000000E+00 -0.1570522092073E-02
 0.2136589075154E-02 -0.2003575875657E-02  0.0000000000000E+00 -0.1087959722716E-02
 0.2362211371622E-02 -0.2119376408361E-02  0.0000000000000E+00 -0.5065285700880E-03
 0.2573826973013E-02 -0.2227605055946E-02  0.0000000000000E+00  0.1726494162637E-03
 0.2664708758506E-05 -0.9219788810850E-03  0.0000000000000E+00  0.2448944049636E-03
 0.6489989213833E-05 -0.9253521037350E-03  0.0000000000000E+00 -0.4724443907033E-04
 0.9063791324044E-05 -0.9291508971225E-03  0.0000000000000E+00 -0.3002706831174E-03
 0.1189006605803E-04 -0.9344466026089E-03  0.0000000000000E+00 -0.5153025498544E-03
 0.1599419247854E-04 -0.9418898353840E-03  0.0000000000000E+00 -0.6952909005578E-03
 0.2181135345729E-04 -0.9516308314262E-03  0.0000000000000E+00 -0.8443972791765E-03
 0.2921907291093E-04 -0.9633601471482E-03  0.0000000000000E+00 -0.9673558229191E-03
 0.3767192137248E-04 -0.9764314269896E-03  0.0000000000000E+00 -0.1068953195869E-02
 0.4637967305403E-04 -0.9900147931396E-03  0.0000000000000E+00 -0.1153681110027E-02
 0.5447904477603E-04 -0.1003238566587E-02  0.0000000000000E+00 -0.1225555276997E-02
 0.6116984346867E-04 -0.1015296028583E-02  0.0000000000000E+00 -0.1288059999157E-02
 0.6580647500434E-04 -0.1025511700876E-02  0.0000000000000E+00 -0.1344169633461E-02
 0.6794927806689E-04 -0.1033373105802E-02  0.0000000000000E+00 -0.1396406944101E-02
 0.6738625016459E-04 -0.1038538615377E-02  0.0000000000000E+00 -0.1446911226076E-02
 0.6413658797738E-04 -0.1040832064811E-02  0.0000000000000E+00 -0.1497500745371E-02
 0.5844549430478E-04 -0.1040232589119E-02  0.0000000000000E+00 -0.1549722201513E-02
 0.5077673529895E-04 -0.1036865221344E-02  0.0000000000000E+00 -0.1604884372838E-02
 0.4180697021477E-04 -0.1030995432978E-02  0.0000000000000E+00 -0.1664073271823E-02
 0.3242300792666E-04 -0.1023028569449E-02  0.0000000000000E+00 -0.1728151122953E-02
 0.2372235974440E-04 -0.1013514163007E-02  0.0000000000000E+00 -0.1797736841069E-02
 0.1701622407585E-04 -0.1003154439939E-02  0.0000000000000E+00 -0.1873166028973E-02
 0.1383221456083E-04 -0.9928147971779E-03  0.0000000000000E+00 -0.1954436374475E-02
 0.1591447732163E-04 -0.9835343478235E-03  0.0000000000000E+00 -0.2041136014504E-02
 0.2521451635368E-04 -0.9765194551990E-03  0.0000000000000E+00 -0.2132362752801E-02
 0.4386151331903E-04 -0.9730749213404E-03  0.0000000000000E+00 -0.2226641098937E-02
 0.7412254865385E-04 -0.9745854016412E-03  0.0000000000000E+00 -0.2321808373025E-02
 0.1183431785106E-03 -0.9825721190848E-03  0.0000000000000E+00 -0.2414901167106E-02
 0.1788388255666E-03 -0.9986796523762E-03  0.0000000000000E+00 -0.2502054550029E-02
 0.2577363634189E-03 -0.1024575122422E-02  0.0000000000000E+00 -0.2578421132880E-02
 0.3567764365939E-03 -0.1061786562448E-02  0.0000000000000E+00 -0.2638113733451E-02
 0.4770926320681E-03 -0.1111510220842E-02  0.0000000000000E+00 -0.2674175859940E-02
 0.6189895205967E-03 -0.1174415272031E-02  0.0000000000000E+00 -0.2678592698536E-02
 0.7817489790406E-03 -0.1250473216893E-02  0.0000000000000E+00 -0.2642367326137E-02
 0.9635269344153E-03 -0.1338886249672E-02  0.0000000000000E+00 -0.2555713926149E-02
 0.1161392050103E-02 -0.1438118431119E-02  0.0000000000000E+00 -0.2408405423918E-02
 0.1371456127835E-02 -0.1545936911575E-02  0.0000000000000E+00 -0.2190238997667E-02
 0.1589080157801E-02 -0.1659532625696E-02  0.0000000000000E+00 -0.1891662571767E-02
 0.1809161911207E-02 -0.1775753499964E-02  0.0000000000000E+00 -0.1504602329874E-02
 0.2026394812383E-02 -0.1891320487222E-02  0.0000000000000E+00 -0.1023388954112E-02
 0.2235377086496E-02 -0.2002921914378E-02  0.0000000000000E+00 -0.4455737730226E-03
 0.2430414599360E-02 -0.2107056758436E-02  0.0000000000000E+00  0.2276971604693E-03
-0.5461835261265E-06 -0.7333785618224E-03  0.0000000000000E+00  0.2461215281260E-03
-0.3249133835745E-05 -0.7328388495465E-03  0.0000000000000E+00 -0.4551296966580E-04
-0.7120116461555E-05 -0.7329926801764E-03  0.0000000000000E+00 -0.2971492378908E-03
-0.1028307507776E-04 -0.7351834154826E-03  0.0000000000000E+00 -0.5101781707040E-03
-0.1144741010152E-04 -0.7402436822352E-03  0.0000000000000E+00 -0.6879271135737E-03
-0.1003540704088E-04 -0.7484061560762E-03  0.0000000000000E+00 -0.8349369184553E-03
-0.6135163972541E-05 -0.7593597486241E-03  0.0000000000000E+00 -0.9562436466045E-03
-0.3342837803337E-06 -0.7724010552603E-03  0.0000000000000E+00 -0.1056819032546E-02
 0.6492539912396E-05 -0.7866171566978E-03  0.0000000000000E+00 -0.1141222619892E-02
 0.1338277173965E-04 -0.8010497603243E-03  0.0000000000000E+00 -0.1213445051995E-02
 0.1943977158367E-04 -0.8148152420405E-03  0.0000000000000E+00 -0.1276885607545E-02
 0.2393302949688E-04 -0.8271765198039E-03  0.0000000000000E+00 -0.1334403765050E-02
 0.2635206847092E-04 -0.8375754233293E-03  0.0000000000000E+00 -0.1388399403046E-02
 0.2642723494643E-04 -0.8456386019728E-03  0.0000000000000E+00 -0.1440893681578E-02
 0.2413068092244E-04 -0.8511692496869E-03  0.0000000000000E+00 -0.1493596745470E-02
 0.1966804979418E-04 -0.8541339255110E-03  0.0000000000000E+00 -0.1547957329222E-02
 0.1346781715485E-04 -0.8546502971971E-03  0.0000000000000E+00 -0.1605193635908E-02
 0.6172372818164E-05 -0.8529788480135E-03  0.0000000000000E+00 -0.1666304430540E-02
-0.1367914235245E-05 -0.8495196361230E-03  0.0000000000000E+00 -0.1732063897326E-02
-0.8097404860047E-05 -0.8448137660414E-03  0.0000000000000E+00 -0.1802998486624E-02
-0.1275543800003E-04 -0.8395488863066E-03  0.0000000000000E+00 -0.1879344195805E-02
-0.1387651296383E-04 -0.8345668904562E-03  0.0000000000000E+00 -0.1960990647368E-02
-0.9792546806081E-05 -0.8308719014235E-03  0.0000000000000E+00 -0.2047409995775E-02
 0.1356257545188E-05 -0.8296206701661E-03  0.0000000000000E+00 -0.2137579003976E-02
 0.2159011633268E-04 -0.8320465200509E-03  0.0000000000000E+00 -0.2229900369686E-02
 0.5304988576887E-04 -0.8394398174007E-03  0.0000000000000E+00 -0.2322099158309E-02
 0.9793960471660E-04 -0.8532131613058E-03  0.0000000000000E+00 -0.2411128704955E-02
 0.1584196865631E-03 -0.8748935243837E-03  0.0000000000000E+00 -0.2493094059412E-02
 0.2364500114827E-03 -0.9060225052380E-03  0.0000000000000E+00 -0.2563196570937E-02
 0.3335939875125E-03 -0.9479938349005E-03  0.0000000000000E+00 -0.2615699276048E-02
 0.4508004689249E-03 -0.1001860079648E-02  0.0000000000000E+00 -0.2643911851360E-02
 0.5881868186959E-03 -0.1068138878027E-02  0.0000000000000E+00 -0.2640201400688E-02
 0.7448544309781E-03 -0.1146647702395E-02  0.0000000000000E+00 -0.2596047619251E-02
 0.9188031473447E-03 -0.1236447680643E-02  0.0000000000000E+00 -0.2502194148463E-02
 0.1106997344972E-02 -0.1335898534083E-02  0.0000000000000E+00 -0.2348934409002E-02
 0.1305529378260E-02 -0.1442722139235E-02  0.0000000000000E+00 -0.2126499115522E-02
 0.1509863814364E-02 -0.1554150389137E-02  0.0000000000000E+00 -0.1825615009964E-02
 0.1715162491123E-02 -0.1667189882163E-02  0.0000000000000E+00 -0.1438304027115E-02
 0.1916563138973E-02 -0.1778859739747E-02  0.0000000000000E+00 -0.9588486161459E-03
 0.2109248567227E-02 -0.1886267074081E-02  0.0000000000000E+00 -0.3847442725960E-03
 0.2288072443542E-02 -0.1986318215780E-02  0.0000000000000E+00  0.2827897101206E-03
-0.3850252253260E-05 -0.5443419519569E-03  0.0000000000000E+00  0.2449700469930E-03
-0.1325790250454E-04 -0.5397887644326E-03  0.0000000000000E+00 -0.4599854201784E-04
-0.2371168460518E-04 -0.5362337536027E-03  0.0000000000000E+00 -0.2958722712817E-03
-0.3293587155026E-04 -0.5353110521201E-03  0.0000000000000E+00 -0.5063736337795E-03
-0.3936620910926E-04 -0.5380383521072E-03  0.0000000000000E+00 -0.6812816644050E-03
-0.4229208950548E-04 -0.5447197762839E-03  0.0000000000000E+00 -0.8255855388504E-03
-0.4178790216686E-04 -0.5550239626217E-03  0.0000000000000E+00 -0.9446714153352E-03
-0.3850672439061E-04 -0.5681713258390E-03  0.0000000000000E+00 -0.1043719892337E-02
-0.3342747047818E-04 -0.5831511408768E-03  0.0000000000000E+00 -0.1127362344948E-02
-0.2762535077361E-04 -0.5989098857815E-03  0.0000000000000E+00 -0.1199556210988E-02
-0.2210052921043E-04 -0.6144839949095E-03  0.0000000000000E+00 -0.1263602407619E-02
-0.1767064159022E-04 -0.6290756255166E-03  0.0000000000000E+00 -0.1322231626932E-02
-0.1491620270758E-04 -0.6420837837290E-03  0.0000000000000E+00 -0.1377708735289E-02
-0.1416239032842E-04 -0.6531068040237E-03  0.0000000000000E+00 -0.1431927203373E-02
-0.1548178298216E-04 -0.6619302109472E-03  0.0000000000000E+00 -0.1486482064765E-02
-0.1870648278374E-04 -0.6685100034677E-03  0.0000000000000E+00 -0.1542719395543E-02
-0.2344230922548E-04 -0.6729573497452E-03  0.0000000000000E+00 -0.1601764189800E-02
-0.2908103568841E-04 -0.6755274630599E-03  0.0000000000000E+00 -0.1664527302634E-02
-0.3480944352835E-04 -0.6766137886531E-03  0.0000000000000E+00 -0.1731696229620E-02
-0.3961514552364E-04 -0.6767467729089E-03  0.0000000000000E+00 -0.1803708440740E-02
-0.4228987397240E-04 -0.6765965007260E-03  0.0000000000000E+00 -0.1880706031678E-02
-0.4143231892045E-04 -0.6769777999605E-03  0.0000000000000E+00 -0.1962478400723E-02
-0.3545238596700E-04 -0.6788559264437E-03  0.0000000000000E+00 -0.2048391379598E-02
-0.2258320008786E-04 -0.6833342475599E-03  0.0000000000000E+00 -0.2137311513393E-02
-0.9132767456732E-06 -0.6915715678495E-03  0.0000000000000E+00 -0.2227530464554E-02
 0.3157461389908E-04 -0.7047624666645E-03  0.0000000000000E+00 -0.2316670993744E-02
 0.7694895801763E-04 -0.7242118664482E-03  0.0000000000000E+00 -0.2401612564267E-02
 0.1372253284272E-03 -0.7513333765728E-03  0.0000000000000E+00 -0.2478439430099E-02
 0.2142113221659E-03 -0.7875511719692E-03  0.0000000000000E+00 -0.2542410960574E-02
 0.3093118419483E-03 -0.8341366004207E-03  0.0000000000000E+00 -0.2587949743010E-02
 0.4233120491245E-03 -0.8920133196007E-03  0.0000000000000E+00 -0.2608640667660E-02
 0.5561623454350E-03 -0.9615628952020E-03  0.0000000000000E+00 -0.2597240505270E-02
 0.7067987570874E-03 -0.1042461562279E-02  0.0000000000000E+00 -0.2545709648826E-02
 0.8730702638463E-03 -0.1133635508899E-02  0.0000000000000E+00 -0.2445317354731E-02
 0.1051828640148E-02 -0.1233336249000E-02  0.0000000000000E+00 -0.2286859113235E-02
 0.1239124372601E-02 -0.1339225657008E-02  0.0000000000000E+00 -0.2060958359659E-02
 0.1430492641216E-02 -0.1448553105010E-02  0.0000000000000E+00 -0.1758553173685E-02
 0.1621324025855E-02 -0.1558455728788E-02  0.0000000000000E+00 -0.1371666096142E-02
 0.1807180988432E-02 -0.1666229781239E-02  0.0000000000000E+00 -0.8944098189339E-03
 0.1983855236409E-02 -0.1769414537949E-02  0.0000000000000E+00 -0.3241182587429E-03
 0.2146797320823E-02 -0.1865369418650E-02  0.0000000000000E+00  0.3378700896949E-03
-0.7268414565929E-05 -0.3548049884242E-03  0.0000000000000E+00  0.2413640345662E-03
-0.2359664461871E-04 -0.3461147754255E-03  0.0000000000000E+00 -0.4875706003130E-04
-0.4080219770015E-04 -0.3387714685367E-03  0.0000000000000E+00 -0.2964572791888E-03
-0.5617723929372E-04 -0.3347217643628E-03  0.0000000000000E+00 -0.5038609886322E-03
-0.6787506760881E-04 -0.3351708349113E-03  0.0000000000000E+00 -0.6752864464616E-03
-0.7506514813120E-04 -0.3404798434119E-03  0.0000000000000E+00 -0.8162483385094E-03
-0.7783364836778E-04 -0.3502742821335E-03  0.0000000000000E+00 -0.9325331873021E-03
-0.7692672561027E-04 -0.3636758243376E-03  0.0000000000000E+00 -0.1029551519930E-02
-0.7345007298303E-04 -0.3795592481090E-03  0.0000000000000E+00 -0.1112005604630E-02
-0.6860626762080E-04 -0.3967666257485E-03  0.0000000000000E+00 -0.1183806673169E-02
-0.6350625600737E-04 -0.4142517124081E-03  0.0000000000000E+00 -0.1248140395116E-02
-0.5905662398140E-04 -0.4311574038781E-03  0.0000000000000E+00 -0.1307592821144E-02
-0.5590657247113E-04 -0.4468434368147E-03  0.0000000000000E+00 -0.1364281069545E-02
-0.5443411760572E-04 -0.4608838053477E-03  0.0000000000000E+00 -0.1419961651810E-02
-0.5475377925689E-04 -0.4730497605661E-03  0.0000000000000E+00 -0.1476108269484E-02
-0.5673319444296E-04 -0.4832890751517E-03  0.0000000000000E+00 -0.1533960604737E-02
-0.6001112787266E-04 -0.4917075503337E-03  0.0000000000000E+00 -0.1594548775011E-02
-0.6401305776793E-04 -0.4985551161770E-03  0.0000000000000E+00 -0.1658695946948E-02
-0.6796324720121E-04 -0.5042175883178E-03  0.0000000000000E+00 -0.1727005052008E-02
-0.7089352521009E-04 -0.5092128933552E-03  0.0000000000000E+00 -0.1799828730985E-02
-0.7164943784335E-04 -0.5141909901537E-03  0.0000000000000E+00 -0.1877221452904E-02
-0.6889552931738E-04 -0.5199365259189E-03  0.0000000000000E+00 -0.1958880690105E-02
-0.6112128185670E-04 -0.5273724341041E-03  0.0000000000000E+00 -0.2044075877454E-02
-0.4665374790697E-04 -0.5375452685076E-03  0.0000000000000E+00 -0.2131574095747E-02
-0.2368988215640E-04 -0.5515364879388E-03  0.0000000000000E+00 -0.2219566162316E-02
 0.9666449383772E-05 -0.5704434665881E-03  0.0000000000000E+00 -0.2305581223717E-02
 0.5535401258505E-04 -0.5954643856142E-03  0.0000000000000E+00 -0.2386432251917E-02
 0.1152535752063E-03 -0.6279036837368E-03  0.0000000000000E+00 -0.2458189240227E-02
 0.1910350800696E-03 -0.6690761775348E-03  0.0000000000000E+00 -0.2516175740256E-02
 0.2839636589535E-03 -0.7201427915114E-03  0.0000000000000E+00 -0.2554980175051E-02
 0.3946818893096E-03 -0.7819132013980E-03  0.0000000000000E+00 -0.2568469523210E-02
 0.5229934489927E-03 -0.8546485766389E-03  0.0000000000000E+00 -0.2549797734432E-02
 0.6676836649345E-03 -0.9378967366992E-03  0.0000000000000E+00 -0.2491412701543E-02
 0.8264543901738E-03 -0.1030454427825E-02  0.0000000000000E+00 -0.2385111585757E-02
 0.9960332988198E-03 -0.1130459199276E-02  0.0000000000000E+00 -0.2222182113461E-02
 0.1172401859064E-02 -0.1235495046340E-02  0.0000000000000E+00 -0.1993607859625E-02
 0.1351127741599E-02 -0.1342802321379E-02  0.0000000000000E+00 -0.1690477093157E-02
 0.1527788482037E-02 -0.1449616646841E-02  0.0000000000000E+00 -0.1304723485479E-02
 0.1698342880028E-02 -0.1553479848629E-02  0.0000000000000E+00 -0.8301603828586E-03
 0.1859223499128E-02 -0.1652371593195E-02  0.0000000000000E+00 -0.2638049130922E-03
 0.2006580052698E-02 -0.1744184307485E-02  0.0000000000000E+00  0.3928703222120E-03
-0.1082384649713E-04 -0.1646997811133E-03  0.0000000000000E+00  0.2352113275199E-03
-0.3433193183575E-04 -0.1517238132003E-03  0.0000000000000E+00 -0.5385658382198E-04
-0.5849142269601E-04 -0.1404965159789E-03  0.0000000000000E+00 -0.2989264945498E-03
-0.8012435587832E-04 -0.1333023365010E-03  0.0000000000000E+00 -0.5026091091990E-03
-0.9709289782029E-04 -0.1315351231107E-03  0.0000000000000E+00 -0.6698644966747E-03
-0.1084640462687E-03 -0.1355942084617E-03  0.0000000000000E+00 -0.8068194454905E-03
-0.1143671756782E-03 -0.1450339294030E-03  0.0000000000000E+00 -0.9197128276886E-03
-0.1156740668959E-03 -0.1588508310594E-03  0.0000000000000E+00 -0.1014202198480E-02
-0.1136426590639E-03 -0.1757866495581E-03  0.0000000000000E+00 -0.1095053577816E-02
-0.1096186288165E-03 -0.1945696397862E-03  0.0000000000000E+00 -0.1166113283893E-02
-0.1048308100909E-03 -0.2140688047254E-03  0.0000000000000E+00 -0.1230430939364E-02
-0.1002758783933E-03 -0.2333702207481E-03  0.0000000000000E+00 -0.1290430119651E-02
-0.9666958942799E-04 -0.2517987691215E-03  0.0000000000000E+00 -0.1348066974208E-02
-0.9443943850984E-04 -0.2689087253353E-03  0.0000000000000E+00 -0.1404952224871E-02
-0.9373857597192E-04 -0.2844609054445E-03  0.0000000000000E+00 -0.1462432911169E-02
-0.9446756132400E-04 -0.2983974928445E-03  0.0000000000000E+00 -0.1521639611850E-02
-0.9629641624888E-04 -0.3108202939335E-03  0.0000000000000E+00 -0.1583506882267E-02
-0.9868353652975E-04 -0.3219741829533E-03  0.0000000000000E+00 -0.1648771280357E-02
-0.1008906408778E-03 -0.3322366172005E-03  0.0000000000000E+00 -0.1717954017255E-02
-0.1019943395222E-03 -0.3421114998020E-03  0.0000000000000E+00 -0.1791327659010E-02
-0.1008949891553E-03 -0.3522265229194E-03  0.0000000000000E+00 -0.1868865842100E-02
-0.9632425388215E-04 -0.3633334854398E-03  0.0000000000000E+00 -0.1950182850026E-02
-0.8685247856008E-04 -0.3763099533524E-03  0.0000000000000E+00 -0.2034461943173E-02
-0.7090150690101E-04 -0.3921425394896E-03  0.0000000000000E+00 -0.2120381500977E-02
-0.4677648915224E-04 -0.4118326660165E-03  0.0000000000000E+00 -0.2206041209569E-02
-0.1270006536730E-04 -0.4363790444342E-03  0.0000000000000E+00 -0.2288884147450E-02
 0.3314235260593E-04 -0.4668738831842E-03  0.0000000000000E+00 -0.2365662264543E-02
 0.9250648418380E-04 -0.5045164175845E-03  0.0000000000000E+00 -0.2432435189233E-02
 0.1669390732276E-03 -0.5505199727721E-03  0.0000000000000E+00 -0.2484593674326E-02
 0.2575842373899E-03 -0.6059469488252E-03  0.0000000000000E+00 -0.2516895097602E-02
 0.3649633516967E-03 -0.6715081558696E-03  0.0000000000000E+00 -0.2523493028551E-02
 0.4887540451027E-03 -0.7473605152094E-03  0.0000000000000E+00 -0.2497945697382E-02
 0.6276058328560E-03 -0.8329367802441E-03  0.0000000000000E+00 -0.2433198114269E-02
 0.7790764207899E-03 -0.9269097546938E-03  0.0000000000000E+00 -0.2321584363197E-02
 0.9397550956111E-03 -0.1027295878691E-02  0.0000000000000E+00 -0.2154884501294E-02
 0.1105521979271E-02 -0.1131579964086E-02  0.0000000000000E+00 -0.1924418914026E-02
 0.1271933958153E-02 -0.1236963826060E-02  0.0000000000000E+00 -0.1621369472286E-02
 0.1434708518131E-02 -0.1340749143525E-02  0.0000000000000E+00 -0.1237499973105E-02
 0.1590157445477E-02 -0.1440679163491E-02  0.0000000000000E+00 -0.7662024854997E-03
 0.1735378390886E-02 -0.1535157544463E-02  0.0000000000000E+00 -0.2039605375890E-03
 0.1867399234699E-02 -0.1622729350126E-02  0.0000000000000E+00  0.4476990530277E-03
-0.1454243761168E-04  0.2604607288024E-04  0.0000000000000E+00  0.2264017718806E-03
-0.4553780077578E-04  0.4348423793937E-04  0.0000000000000E+00 -0.6137818991399E-04
-0.7688913668585E-04  0.5870808822448E-04  0.0000000000000E+00 -0.3033062614430E-03
-0.1049038997546E-03  0.6906645547856E-04  0.0000000000000E+00 -0.5025817998521E-03
-0.1271452370133E-03  0.7297765006605E-04  0.0000000000000E+00 -0.6649276556079E-03
-0.1426011507113E-03  0.7002886333394E-04  0.0000000000000E+00 -0.7971799942342E-03
-0.1514829646750E-03  0.6077113285552E-04  0.0000000000000E+00 -0.9060829780198E-03
-0.1548262531169E-03  0.4636364843337E-04  0.0000000000000E+00 -0.9975526346515E-03
-0.1540696059945E-03  0.2821793595372E-04  0.0000000000000E+00 -0.1076403844636E-02
-0.1507182352862E-03  0.7728762328365E-05  0.0000000000000E+00 -0.1146392681092E-02
-0.1461253935596E-03 -0.1388715858349E-04  0.0000000000000E+00 -0.1210407701261E-02
-0.1413779596877E-03 -0.3566278623440E-04  0.0000000000000E+00 -0.1270690263162E-02
-0.1372551166608E-03 -0.5689359497824E-04  0.0000000000000E+00 -0.1329022056786E-02
-0.1342296987342E-03 -0.7711947650064E-04  0.0000000000000E+00 -0.1386859838142E-02
-0.1324896198242E-03 -0.9609509397544E-04  0.0000000000000E+00 -0.1445419699051E-02
-0.1319653549012E-03 -0.1137599521912E-03  0.0000000000000E+00 -0.1505721512018E-02
-0.1323561822068E-03 -0.1302134350904E-03  0.0000000000000E+00 -0.1568604584657E-02
-0.1331523296954E-03 -0.1456957923569E-03  0.0000000000000E+00 -0.1634720773600E-02
-0.1336526144762E-03 -0.1605756549455E-03  0.0000000000000E+00 -0.1704513070251E-02
-0.1329786103283E-03 -0.1753417431766E-03  0.0000000000000E+00 -0.1778179249283E-02
-0.1300860660254E-03 -0.1905977635668E-03  0.0000000000000E+00 -0.1855619367155E-02
-0.1237746413678E-03 -0.2070604533785E-03  0.0000000000000E+00 -0.1936373675131E-02
-0.1126965512949E-03 -0.2255593763238E-03  0.0000000000000E+00 -0.2019549819847E-02
-0.9536920980641E-04 -0.2470183545938E-03  0.0000000000000E+00 -0.2103748356199E-02
-0.7020586787287E-04 -0.2723561541445E-03  0.0000000000000E+00 -0.2186987223588E-02
-0.3554596575184E-04 -0.3024712166775E-03  0.0000000000000E+00 -0.2266629989595E-02
 0.1030599784407E-04 -0.3383502269623E-03  0.0000000000000E+00 -0.2339371271969E-02
 0.6899001386901E-04 -0.3810907751915E-03  0.0000000000000E+00 -0.2401261665082E-02
 0.1419437931282E-03 -0.4318121746497E-03  0.0000000000000E+00 -0.2447758972949E-02
 0.2302092066700E-03 -0.4914899958723E-03  0.0000000000000E+00 -0.2473789302889E-02
 0.3342082558788E-03 -0.5607514821305E-03  0.0000000000000E+00 -0.2473794608844E-02
 0.4535140911744E-03 -0.6396661560934E-03  0.0000000000000E+00 -0.2441743680843E-02
 0.5866562678038E-03 -0.7275661413073E-03  0.0000000000000E+00 -0.2371090953470E-02
 0.7310514201114E-03 -0.8230065070237E-03  0.0000000000000E+00 -0.2254723666183E-02
 0.8831340352005E-03 -0.9238747668855E-03  0.0000000000000E+00 -0.2084925615060E-02
 0.1038644598600E-02 -0.1027531651740E-02  0.0000000000000E+00 -0.1853342517944E-02
 0.1193079455383E-02 -0.1131105777077E-02  0.0000000000000E+00 -0.1551194474614E-02
 0.1342248848359E-02 -0.1231938012227E-02  0.0000000000000E+00 -0.1169996947626E-02
 0.1482757715040E-02 -0.1327926130110E-02  0.0000000000000E+00 -0.7026394140921E-03
 0.1612351392824E-02 -0.1417820867371E-02  0.0000000000000E+00 -0.1448096284654E-03
 0.1729209751812E-02 -0.1500964300909E-02  0.0000000000000E+00  0.5022133595110E-03
-0.1845334973980E-04  0.2175103420372E-03  0.0000000000000E+00  0.2148051529472E-03
-0.5729724140274E-04  0.2396178431757E-03  0.0000000000000E+00 -0.7141689868147E-04
-0.9611694330878E-04  0.2589682357297E-03  0.0000000000000E+00 -0.3096260867948E-03
-0.1306534451286E-03  0.2725104628898E-03  0.0000000000000E+00 -0.5037353201809E-03
-0.1581647920487E-03  0.2784790004305E-03  0.0000000000000E+00 -0.6603736635868E-03
-0.1775914668269E-03  0.2764798386805E-03  0.0000000000000E+00 -0.7871958663511E-03
-0.1892744598927E-03  0.2672110866003E-03  0.0000000000000E+00 -0.8915039566837E-03
-0.1944576515596E-03  0.2520228469373E-03  0.0000000000000E+00 -0.9794759562664E-03
-0.1947915299176E-03  0.2325014658274E-03  0.0000000000000E+00 -0.1055951107482E-02
-0.1919574979995E-03  0.2101731369110E-03  0.0000000000000E+00 -0.1124562324362E-02
-0.1874386660298E-03  0.1863396173174E-03  0.0000000000000E+00 -0.1188007660788E-02
-0.1824108207429E-03  0.1620157583914E-03  0.0000000000000E+00 -0.1248324813743E-02
-0.1777122286641E-03  0.1379288453896E-03  0.0000000000000E+00 -0.1307107574872E-02
-0.1738560473912E-03  0.1145472789777E-03  0.0000000000000E+00 -0.1365651490961E-02
-0.1710605143328E-03  0.9211784375147E-04  0.0000000000000E+00 -0.1425038647848E-02
-0.1692826403836E-03  0.7070057593418E-04  0.0000000000000E+00 -0.1486177805605E-02
-0.1682486854873E-03  0.5019679311954E-04  0.0000000000000E+00 -0.1549814354406E-02
-0.1674793655319E-03  0.3037028104968E-04  0.0000000000000E+00 -0.1616518146968E-02
-0.1663099392250E-03  0.1086147620928E-04  0.0000000000000E+00 -0.1686658039001E-02
-0.1639067616338E-03 -0.8802327129675E-05  0.0000000000000E+00 -0.1760362738092E-02
-0.1592811431087E-03 -0.2919955459949E-04  0.0000000000000E+00 -0.1837466357823E-02
-0.1513012223152E-03 -0.5101013839887E-04  0.0000000000000E+00 -0.1917444667569E-02
-0.1387018222792E-03 -0.7501342978690E-04  0.0000000000000E+00 -0.1999340648226E-02
-0.1200966642241E-03 -0.1020678807155E-03  0.0000000000000E+00 -0.2081688148865E-02
-0.9400724401648E-04 -0.1330070046041E-03  0.0000000000000E+00 -0.2162432601057E-02
-0.5888831224676E-04 -0.1686271187759E-03  0.0000000000000E+00 -0.2238863829672E-02
-0.1315898179527E-04 -0.2098093658221E-03  0.0000000000000E+00 -0.2307621207914E-02
 0.4471371918663E-04 -0.2575526479508E-03  0.0000000000000E+00 -0.2364745176383E-02
 0.1160721991031E-03 -0.3128891403179E-03  0.0000000000000E+00 -0.2405757261239E-02
 0.2018747989485E-03 -0.3767188776319E-03  0.0000000000000E+00 -0.2425748517324E-02
 0.3024665558146E-03 -0.4496009366463E-03  0.0000000000000E+00 -0.2419447880596E-02
 0.4173390276061E-03 -0.5315351812443E-03  0.0000000000000E+00 -0.2381239537092E-02
 0.5449195067559E-03 -0.6217691712271E-03  0.0000000000000E+00 -0.2305101745308E-02
 0.6824876678171E-03 -0.7187481795415E-03  0.0000000000000E+00 -0.2184499049136E-02
 0.8263056225644E-03 -0.8202227170382E-03  0.0000000000000E+00 -0.2012242457907E-02
 0.9719298210643E-03 -0.9234022909457E-03  0.0000000000000E+00 -0.1780307725264E-02
 0.1114734558881E-02 -0.1025297314015E-02  0.0000000000000E+00 -0.1479900624119E-02
 0.1250581752800E-02 -0.1123266215863E-02  0.0000000000000E+00 -0.1102182819171E-02
 0.1376314378931E-02 -0.1215352837885E-02  0.0000000000000E+00 -0.6395343752719E-03
 0.1490200844239E-02 -0.1300478945211E-02  0.0000000000000E+00 -0.8666712126952E-04
 0.1591924443317E-02 -0.1378844431736E-02  0.0000000000000E+00  0.5561591251286E-03
-0.2258971642541E-04  0.4097772286191E-03  0.0000000000000E+00  0.2002686793998E-03
-0.6970402645290E-04  0.4367953878610E-03  0.0000000000000E+00 -0.8408268212145E-04
-0.1163104382044E-03  0.4604201341885E-03  0.0000000000000E+00 -0.3179172898406E-03
-0.1575230153308E-03  0.4771627333332E-03  0.0000000000000E+00 -0.5060152028577E-03
-0.1902918914543E-03  0.4850826011551E-03  0.0000000000000E+00 -0.6560826256905E-03
-0.2135521244106E-03  0.4838466756654E-03  0.0000000000000E+00 -0.7767151352746E-03
-0.2278330572527E-03  0.4743507858753E-03  0.0000000000000E+00 -0.8758227081566E-03
-0.2346384289652E-03  0.4581759403165E-03  0.0000000000000E+00 -0.9598379671168E-03
-0.2358644312974E-03  0.4371056398667E-03  0.0000000000000E+00 -0.1033588224741E-02
-0.2333848629116E-03  0.4128043319191E-03  0.0000000000000E+00 -0.1100541794729E-02
-0.2288164091204E-03  0.3866558840175E-03  0.0000000000000E+00 -0.1163172338990E-02
-0.2234206399134E-03  0.3597156908353E-03  0.0000000000000E+00 -0.1223291131344E-02
-0.2180891318019E-03  0.3327258100394E-03  0.0000000000000E+00 -0.1282291121284E-02
-0.2133694025432E-03  0.3061560752149E-03  0.0000000000000E+00 -0.1341300678251E-02
-0.2095050048257E-03  0.2802496386716E-03  0.0000000000000E+00 -0.1401266259237E-02
-0.2064757730029E-03  0.2550627792459E-03  0.0000000000000E+00 -0.1462986396502E-02
-0.2040324497820E-03  0.2304957115049E-03  0.0000000000000E+00 -0.1527114920647E-02
-0.2017246842688E-03  0.2063155651707E-03  0.0000000000000E+00 -0.1594143121555E-02
-0.1989232580431E-03  0.1821718993821E-03  0.0000000000000E+00 -0.1664370300947E-02
-0.1948387802404E-03  0.1576085480623E-03  0.0000000000000E+00 -0.1737862160093E-02
-0.1885378790813E-03  0.1320732344212E-03  0.0000000000000E+00 -0.1814394799659E-02
-0.1789572476316E-03  0.1049240799700E-03  0.0000000000000E+00 -0.1893389412930E-02
-0.1649147770237E-03  0.7543370002549E-04  0.0000000000000E+00 -0.1973835700996E-02
-0.1451212152228E-03  0.4281130849366E-04  0.0000000000000E+00 -0.2054212316607E-02
-0.1182067630836E-03  0.6311244255241E-05  0.0000000000000E+00 -0.2132401498408E-02
-0.8274060570274E-04 -0.3475850314471E-04  0.0000000000000E+00 -0.2205624556166E-02
-0.3725278496408E-04 -0.8117290944769E-04  0.0000000000000E+00 -0.2270466335606E-02
 0.1969056169332E-04 -0.1338343468669E-03  0.0000000000000E+00 -0.2322953722780E-02
 0.8934965169083E-04 -0.1936938695276E-03  0.0000000000000E+00 -0.2358665491590E-02
 0.1726178427937E-03 -0.2615866025455E-03  0.0000000000000E+00 -0.2372850077936E-02
 0.2697862338030E-03 -0.3380187794671E-03  0.0000000000000E+00 -0.2360518218471E-02
 0.3802894340024E-03 -0.4229393214100E-03  0.0000000000000E+00 -0.2316471887031E-02
 0.5024727382949E-03 -0.5155295103649E-03  0.0000000000000E+00 -0.2235228984094E-02
 0.6334858752625E-03 -0.6141354616432E-03  0.0000000000000E+00 -0.2110862548583E-02
 0.7693993511593E-03 -0.7163641003908E-03  0.0000000000000E+00 -0.1936751328244E-02
 0.9055389786582E-03 -0.8192418915189E-03  0.0000000000000E+00 -0.1705215576840E-02
 0.1037073588132E-02 -0.9196145079226E-03  0.0000000000000E+00 -0.1407428516189E-02
 0.1159872834881E-02 -0.1014796002450E-02  0.0000000000000E+00 -0.1034003165843E-02
 0.1271038678435E-02 -0.1103103133209E-02  0.0000000000000E+00 -0.5768236292495E-03
 0.1369081257971E-02 -0.1183400097237E-02  0.0000000000000E+00 -0.2990312581390E-04
 0.1455340862471E-02 -0.1256357096878E-02  0.0000000000000E+00  0.6089748713541E-03
-0.2698952239074E-04  0.6029387417915E-03  0.0000000000000E+00  0.1826140461101E-03
-0.8286497511198E-04  0.6351470873217E-03  0.0000000000000E+00 -0.9950146438466E-04
-0.1376218063280E-03  0.6632119627413E-03  0.0000000000000E+00 -0.3282110412331E-03
-0.1856768089149E-03  0.6831640284270E-03  0.0000000000000E+00 -0.5093520779275E-03
-0.2236747841454E-03  0.6929034540741E-03  0.0000000000000E+00 -0.6519126546571E-03
-0.2506015375362E-03  0.6922131578389E-03  0.0000000000000E+00 -0.7655651634661E-03
-0.2672467733029E-03  0.6822479358875E-03  0.0000000000000E+00 -0.8588718331685E-03
-0.2754332785918E-03  0.6648645562251E-03  0.0000000000000E+00 -0.9384977080673E-03
-0.2773387522227E-03  0.6420659074045E-03  0.0000000000000E+00 -0.1009207576805E-02
-0.2750442345731E-03  0.6156589371206E-03  0.0000000000000E+00 -0.1074254345437E-02
-0.2703012338184E-03  0.5871037214970E-03  0.0000000000000E+00 -0.1135849164989E-02
-0.2644517045038E-03  0.5574866160316E-03  0.0000000000000E+00 -0.1195553409014E-02
-0.2584331373044E-03  0.5275550236298E-03  0.0000000000000E+00 -0.1254547313064E-02
-0.2528204594361E-03  0.4977726151677E-03  0.0000000000000E+00 -0.1313787778721E-02
-0.2478769952956E-03  0.4683735359562E-03  0.0000000000000E+00 -0.1374085671148E-02
-0.2436014164253E-03  0.4394069351174E-03  0.0000000000000E+00 -0.1436131561982E-02
-0.2397662888514E-03  0.4107701139679E-03  0.0000000000000E+00 -0.1500491110922E-02
-0.2359484875633E-03  0.3822328173984E-03  0.0000000000000E+00 -0.1567581173316E-02
-0.2315531808269E-03  0.3534536453254E-03  0.0000000000000E+00 -0.1637636477174E-02
-0.2258343820944E-03  0.3239932157628E-03  0.0000000000000E+00 -0.1710665991154E-02
-0.2179133748751E-03  0.2933258373485E-03  0.0000000000000E+00 -0.1786395910415E-02
-0.2067950458446E-03  0.2608484044670E-03  0.0000000000000E+00 -0.1864203054771E-02
-0.1913805066868E-03  0.2258867459793E-03  0.0000000000000E+00 -0.1943035714341E-02
-0.1704782365138E-03  0.1877197132460E-03  0.0000000000000E+00 -0.2021329411415E-02
-0.1428279768051E-03  0.1456921002395E-03  0.0000000000000E+00 -0.2096912841472E-02
-0.1071132061706E-03  0.9921877044561E-04  0.0000000000000E+00 -0.2166943786042E-02
-0.6197216681458E-04  0.4763226834602E-04  0.0000000000000E+00 -0.2227952204698E-02
-0.6063198733475E-05 -0.9874408785992E-05  0.0000000000000E+00 -0.2275945991865E-02
 0.6180399526867E-04 -0.7417607187652E-04  0.0000000000000E+00 -0.2306551656049E-02
 0.1424759610061E-03 -0.1460525483292E-03  0.0000000000000E+00 -0.2315163477122E-02
 0.2362134630803E-03 -0.2259721631847E-03  0.0000000000000E+00 -0.2297064331586E-02
 0.3424207793029E-03 -0.3138525296709E-03  0.0000000000000E+00 -0.2247472752599E-02
 0.4593852839401E-03 -0.4088296651863E-03  0.0000000000000E+00 -0.2161461777696E-02
 0.5841370751871E-03 -0.5091651638001E-03  0.0000000000000E+00 -0.2033751842503E-02
 0.7125402098583E-03 -0.6123186796952E-03  0.0000000000000E+00 -0.1858343732474E-02
 0.8396262971236E-03 -0.7150996447971E-03  0.0000000000000E+00 -0.1627952241672E-02
 0.9602970897403E-03 -0.8141275804836E-03  0.0000000000000E+00 -0.1333660657124E-02
 0.1070246636547E-02 -0.9066215548922E-03  0.0000000000000E+00 -0.9655261344034E-03
 0.1167151991906E-02 -0.9911267701481E-03  0.0000000000000E+00 -0.5141069469870E-03
 0.1249359468335E-02 -0.1067266346928E-02  0.0000000000000E+00  0.2521002228941E-04
 0.1319179599483E-02 -0.1133535918553E-02  0.0000000000000E+00  0.6594811665082E-03
-0.3169671649205E-04  0.7970965622210E-03  0.0000000000000E+00  0.1616340136754E-03
-0.9690275689972E-04  0.8348172224035E-03  0.0000000000000E+00 -0.1178161008643E-03
-0.1602229679326E-03  0.8675059724613E-03  0.0000000000000E+00 -0.3405356920440E-03
-0.2152951144696E-03  0.8906632556207E-03  0.0000000000000E+00 -0.5136561938720E-03
-0.2584696940859E-03  0.9020566894125E-03  0.0000000000000E+00 -0.6476946277981E-03
-0.2888581537225E-03  0.9016567918666E-03  0.0000000000000E+00 -0.7535494313488E-03
-0.3075985536374E-03  0.8909509955648E-03  0.0000000000000E+00 -0.8404688875915E-03
-0.3168999524879E-03  0.8721212343484E-03  0.0000000000000E+00 -0.9153085068915E-03
-0.3192583967330E-03  0.8474106111455E-03  0.0000000000000E+00 -0.9827028941033E-03
-0.3169744639735E-03  0.8187689773271E-03  0.0000000000000E+00 -0.1045628775772E-02
-0.3119323969653E-03  0.7877229631839E-03  0.0000000000000E+00 -0.1105993020368E-02
-0.3055464125428E-03  0.7553776663351E-03  0.0000000000000E+00 -0.1165083778586E-02
-0.2987907452771E-03  0.7224749309114E-03  0.0000000000000E+00 -0.1223858488060E-02
-0.2922597976995E-03  0.6894640200307E-03  0.0000000000000E+00 -0.1283100420973E-02
-0.2862306525631E-03  0.6565645194912E-03  0.0000000000000E+00 -0.1343486776115E-02
-0.2807166385580E-03  0.6238151104036E-03  0.0000000000000E+00 -0.1405603894682E-02
-0.2755094017679E-03  0.5911084549337E-03  0.0000000000000E+00 -0.1469933675546E-02
-0.2702112504769E-03  0.5582162205501E-03  0.0000000000000E+00 -0.1536823287354E-02
-0.2642604382262E-03  0.5248058859796E-03  0.0000000000000E+00 -0.1606448150671E-02
-0.2569532373852E-03  0.4904548503464E-03  0.0000000000000E+00 -0.1678766843508E-02
-0.2474644964406E-03  0.4546640103593E-03  0.0000000000000E+00 -0.1753463795366E-02
-0.2348664554502E-03  0.4168691790685E-03  0.0000000000000E+00 -0.1829881863424E-02
-0.2181432375022E-03  0.3764500657411E-03  0.0000000000000E+00 -0.1906940307877E-02
-0.1962017172722E-03  0.3327567353958E-03  0.0000000000000E+00 -0.1983044318720E-02
-0.1678924259358E-03  0.2852270092930E-03  0.0000000000000E+00 -0.2055979327074E-02
-0.1320138367499E-03  0.2333856016534E-03  0.0000000000000E+00 -0.2122844685382E-02
-0.8731078429680E-04  0.1766747569082E-03  0.0000000000000E+00 -0.2180114398890E-02
-0.3252811968291E-04  0.1143828685756E-03  0.0000000000000E+00 -0.2223770235819E-02
 0.3346569978191E-04  0.4570794020487E-04  0.0000000000000E+00 -0.2249474108828E-02
 0.1114879200653E-03 -0.3008272037036E-04  0.0000000000000E+00 -0.2252750532841E-02
 0.2017929168266E-03 -0.1134335956652E-03  0.0000000000000E+00 -0.2229139685534E-02
 0.3037834867475E-03 -0.2042512789120E-03  0.0000000000000E+00 -0.2174270211452E-02
 0.4157173878134E-03 -0.3016506000642E-03  0.0000000000000E+00 -0.2083783620800E-02
 0.5345224819618E-03 -0.4038287786889E-03  0.0000000000000E+00 -0.1953091698210E-02
 0.6558409033037E-03 -0.5080993254383E-03  0.0000000000000E+00 -0.1776892338552E-02
 0.7743596587135E-03 -0.6110212133480E-03  0.0000000000000E+00 -0.1548362336207E-02
 0.8845590470870E-03 -0.7089076001133E-03  0.0000000000000E+00 -0.1258517582815E-02
 0.9820290127060E-03 -0.7988227825911E-03  0.0000000000000E+00 -0.8965703131772E-03
 0.1064235715314E-02 -0.8794557974424E-03  0.0000000000000E+00 -0.4520273356164E-03
 0.1132698040425E-02 -0.9517123187840E-03  0.0000000000000E+00  0.8198690062560E-04
 0.1181333016558E-02 -0.1014021418240E-02  0.0000000000000E+00  0.7012062373069E-03
-0.3676218634556E-04  0.9923685608433E-03  0.0000000000000E+00  0.1370988809960E-03
-0.1119609290151E-03  0.1035991502764E-02  0.0000000000000E+00 -0.1391840893610E-03
-0.1843144401492E-03  0.1073521331907E-02  0.0000000000000E+00 -0.3549067810837E-03
-0.2465849548564E-03  0.1099875595878E-02  0.0000000000000E+00 -0.5188033413012E-03
-0.2948534590981E-03  0.1112730839301E-02  0.0000000000000E+00 -0.6432153820457E-03
-0.3284557776752E-03  0.1112337908506E-02  0.0000000000000E+00 -0.7404294033508E-03
-0.3489852580209E-03  0.1100604700036E-02  0.0000000000000E+00 -0.8203965480194E-03
-0.3591123869681E-03  0.1080091389185E-02  0.0000000000000E+00 -0.8900953094418E-03
-0.3616879625132E-03  0.1053298880929E-02  0.0000000000000E+00 -0.9539427529729E-03
-0.3592403461626E-03  0.1022314962962E-02  0.0000000000000E+00 -0.1014568632444E-02
-0.3537801363723E-03  0.9887185765926E-03  0.0000000000000E+00 -0.1073531160663E-02
-0.3467825368789E-03  0.9536184149052E-03  0.0000000000000E+00 -0.1131823208287E-02
-0.3392474712929E-03  0.9177383696749E-03  0.0000000000000E+00 -0.1190171877465E-02
-0.3317799310630E-03  0.8815044783367E-03  0.0000000000000E+00 -0.1249187160906E-02
-0.3246643485066E-03  0.8451161127146E-03  0.0000000000000E+00 -0.1309416519887E-02
-0.3179244154436E-03  0.8085982313937E-03  0.0000000000000E+00 -0.1371347215017E-02
-0.3113681105711E-03  0.7718372436787E-03  0.0000000000000E+00 -0.1435382684557E-02
-0.3046213796842E-03  0.7346061004512E-03  0.0000000000000E+00 -0.1501805591636E-02
-0.2971541805773E-03  0.6965809305251E-03  0.0000000000000E+00 -0.1570737365002E-02
-0.2883036853926E-03  0.6573556683628E-03  0.0000000000000E+00 -0.1642092325896E-02
-0.2772968565094E-03  0.6164573505915E-03  0.0000000000000E+00 -0.1715521025382E-02
-0.2632720259300E-03  0.5733602385366E-03  0.0000000000000E+00 -0.1790342755110E-02
-0.2452958406259E-03  0.5274979599483E-03  0.0000000000000E+00 -0.1865460558897E-02
-0.2223743624276E-03  0.4782929669876E-03  0.0000000000000E+00 -0.1939262916506E-02
-0.1934708702226E-03  0.4252787427593E-03  0.0000000000000E+00 -0.2009503108784E-02
-0.1575007875623E-03  0.3680934533308E-03  0.0000000000000E+00 -0.2073227508557E-02
-0.1133155408017E-03  0.3062923719341E-03  0.0000000000000E+00 -0.2126852629935E-02
-0.5974253703317E-04  0.2392609279524E-03  0.0000000000000E+00 -0.2166325550246E-02
 0.4300533423984E-05  0.1662685093973E-03  0.0000000000000E+00 -0.2187328725386E-02
 0.7961791356020E-04  0.8662353712969E-04  0.0000000000000E+00 -0.2185497401700E-02
 0.1664814519737E-03 -0.1070629754366E-06  0.0000000000000E+00 -0.2156608819838E-02
 0.2643233060724E-03 -0.9383920962293E-04  0.0000000000000E+00 -0.2096689220943E-02
 0.3714054414244E-03 -0.1936938376579E-03  0.0000000000000E+00 -0.2001958260594E-02
 0.4845774990248E-03 -0.2978306191287E-03  0.0000000000000E+00 -0.1868568317450E-02
 0.5992560311723E-03 -0.4034263815577E-03  0.0000000000000E+00 -0.1692009927719E-02
 0.7097065507702E-03 -0.5067547390067E-03  0.0000000000000E+00 -0.1466033631354E-02
 0.8099045154304E-03 -0.6037387378421E-03  0.0000000000000E+00 -0.1181622147989E-02
 0.8949480561459E-03 -0.6911325060036E-03  0.0000000000000E+00 -0.8269917767657E-03
 0.9630414736503E-03 -0.7679065820708E-03  0.0000000000000E+00 -0.3899808075820E-03
 0.1014428218795E-02 -0.8354931804291E-03  0.0000000000000E+00  0.1383458887832E-03
 0.1057959798996E-02 -0.8985358195754E-03  0.0000000000000E+00  0.7516213653096E-03
-0.4224644165410E-04  0.1188882711132E-02  0.0000000000000E+00  0.1087028856965E-03
-0.1282057823160E-03  0.1238854126358E-02  0.0000000000000E+00 -0.1638004519024E-03
-0.2101204685566E-03  0.1281456623716E-02  0.0000000000000E+00 -0.3713488803911E-03
-0.2797657845426E-03  0.1310967540469E-02  0.0000000000000E+00 -0.5246560237002E-03
-0.3329981321436E-03  0.1325035842751E-02  0.0000000000000E+00 -0.6382463770733E-03
-0.3695083922246E-03  0.1324313057616E-02  0.0000000000000E+00 -0.7259649756291E-03
-0.3914744940478E-03  0.1311231420127E-02  0.0000000000000E+00 -0.7984553865006E-03
-0.4021108401471E-03  0.1288784432549E-02  0.0000000000000E+00 -0.8627180907812E-03
-0.4046567764508E-03  0.1259742573586E-02  0.0000000000000E+00 -0.9228425060260E-03
-0.4018707717861E-03  0.1226319387962E-02  0.0000000000000E+00 -0.9810309861245E-03
-0.3958780941106E-03  0.1190126499217E-02  0.0000000000000E+00 -0.1038447730837E-02
-0.3882001786015E-03  0.1152258031377E-02  0.0000000000000E+00 -0.1095771061942E-02
-0.3798497335627E-03  0.1113406264097E-02  0.0000000000000E+00 -0.1153493776296E-02
-0.3714326628469E-03  0.1073964914624E-02  0.0000000000000E+00 -0.1212056019166E-02
-0.3632341177886E-03  0.1034107653414E-02  0.0000000000000E+00 -0.1271881731760E-02
-0.3552838913757E-03  0.9938427644027E-03  0.0000000000000E+00 -0.1333365801867E-02
-0.3474036538944E-03  0.9530490783918E-03  0.0000000000000E+00 -0.1396839471760E-02
-0.3392412720752E-03  0.9115003921314E-03  0.0000000000000E+00 -0.1462526550368E-02
-0.3302969956270E-03  0.8688813153087E-03  0.0000000000000E+00 -0.1530499846943E-02
-0.3199473172914E-03  0.8248019208083E-03  0.0000000000000E+00 -0.1600635304882E-02
-0.3074694139357E-03  0.7788145131334E-03  0.0000000000000E+00 -0.1672557159767E-02
-0.2920658314552E-03  0.7304306437231E-03  0.0000000000000E+00 -0.1745571495681E-02
-0.2728846908771E-03  0.6791370918120E-03  0.0000000000000E+00 -0.1818578518517E-02
-0.2490318349486E-03  0.6244292152830E-03  0.0000000000000E+00 -0.1889964806700E-02
-0.2195856486238E-03  0.5659385591406E-03  0.0000000000000E+00 -0.1957464030895E-02
-0.1835814719445E-03  0.5034206788636E-03  0.0000000000000E+00 -0.2018076121038E-02
-0.1399787440586E-03  0.4365481229281E-03  0.0000000000000E+00 -0.2068158878477E-02
-0.8768510086804E-04  0.3648065022474E-03  0.0000000000000E+00 -0.2103615458642E-02
-0.2565962429735E-04  0.2875372762288E-03  0.0000000000000E+00 -0.2120132063505E-02
 0.4690378057365E-04  0.2040865403652E-03  0.0000000000000E+00 -0.2113431336309E-02
 0.1303177963028E-03  0.1140226080724E-03  0.0000000000000E+00 -0.2079500844926E-02
 0.2240767513768E-03  0.1740067876875E-04  0.0000000000000E+00 -0.2014742832748E-02
 0.3264863665385E-03 -0.8493654083956E-04  0.0000000000000E+00 -0.1915955796335E-02
 0.4343541295600E-03 -0.1911465401061E-03  0.0000000000000E+00 -0.1780081034333E-02
 0.5428737677099E-03 -0.2982905580200E-03  0.0000000000000E+00 -0.1603514786064E-02
 0.6458370514331E-03 -0.4023314163045E-03  0.0000000000000E+00 -0.1380743710924E-02
 0.7365070746593E-03 -0.4986923071170E-03  0.0000000000000E+00 -0.1102792144150E-02
 0.8094745633759E-03 -0.5836764481160E-03  0.0000000000000E+00 -0.7568274162614E-03
 0.8626215275959E-03 -0.6562903652528E-03  0.0000000000000E+00 -0.3279778590984E-03
 0.8991751850115E-03 -0.7192059281451E-03  0.0000000000000E+00  0.1934694968889E-03
 0.9234549746684E-03 -0.7796120862294E-03  0.0000000000000E+00  0.8138050282499E-03
-0.4822189634003E-04  0.1386779572882E-02  0.0000000000000E+00  0.7613261792910E-04
-0.1458329714955E-03  0.1443591514383E-02  0.0000000000000E+00 -0.1918577959520E-03
-0.2378950530203E-03  0.1491491587062E-02  0.0000000000000E+00 -0.3898396821460E-03
-0.3150708951696E-03  0.1524054625529E-02  0.0000000000000E+00 -0.5310038382649E-03
-0.3730674613509E-03  0.1538997763353E-02  0.0000000000000E+00 -0.6324877139865E-03
-0.4121039778352E-03  0.1537529236255E-02  0.0000000000000E+00 -0.7098659219376E-03
-0.4350981389953E-03  0.1522726809450E-02  0.0000000000000E+00 -0.7744219341377E-03
-0.4458963514039E-03  0.1498071373882E-02  0.0000000000000E+00 -0.8330339953446E-03
-0.4481545133409E-03  0.1466605429228E-02  0.0000000000000E+00 -0.8893284483366E-03
-0.4448552633024E-03  0.1430646786221E-02  0.0000000000000E+00 -0.9449917082949E-03
-0.4382204648492E-03  0.1391814064315E-02  0.0000000000000E+00 -0.1000750100086E-02
-0.4297993074952E-03  0.1351165759492E-02  0.0000000000000E+00 -0.1056952857449E-02
-0.4206026569854E-03  0.1309348003666E-02  0.0000000000000E+00 -0.1113859213278E-02
-0.4112270808549E-03  0.1266713218029E-02  0.0000000000000E+00 -0.1171746537766E-02
-0.4019517935646E-03  0.1223404368984E-02  0.0000000000000E+00 -0.1230923988347E-02
-0.3928086059691E-03  0.1179410653541E-02  0.0000000000000E+00 -0.1291702425958E-02
-0.3836304511544E-03  0.1134602467338E-02  0.0000000000000E+00 -0.1354348148901E-02
-0.3740855529997E-03  0.1088754367832E-02  0.0000000000000E+00 -0.1419032237143E-02
-0.3637030574871E-03  0.1041559471008E-02  0.0000000000000E+00 -0.1485784263132E-02
-0.3518969838910E-03  0.9926435502115E-03  0.0000000000000E+00 -0.1554447302515E-02
-0.3379922918016E-03  0.9415829285838E-03  0.0000000000000E+00 -0.1624626310732E-02
-0.3212530411807E-03  0.8879245363702E-03  0.0000000000000E+00 -0.1695624267516E-02
-0.3009068906052E-03  0.8312065331413E-03  0.0000000000000E+00 -0.1766352393629E-02
-0.2761594865931E-03  0.7709967401781E-03  0.0000000000000E+00 -0.1835211521908E-02
-0.2462067319405E-03  0.7070265690556E-03  0.0000000000000E+00 -0.1899930098879E-02
-0.2102075571012E-03  0.6391728724727E-03  0.0000000000000E+00 -0.1957469853090E-02
-0.1672320220312E-03  0.5672303209088E-03  0.0000000000000E+00 -0.2004129763655E-02
-0.1162671772774E-03  0.4907891740003E-03  0.0000000000000E+00 -0.2035760114336E-02
-0.5630745426294E-04  0.4092658524418E-03  0.0000000000000E+00 -0.2048033097188E-02
 0.1346799967278E-04  0.3220437967939E-03  0.0000000000000E+00 -0.2036732216644E-02
 0.9343469072925E-04  0.2286861663868E-03  0.0000000000000E+00 -0.1998021661027E-02
 0.1831827456540E-03  0.1292019673109E-03  0.0000000000000E+00 -0.1928646185645E-02
 0.2811073647538E-03  0.2436534612533E-04  0.0000000000000E+00 -0.1825968895810E-02
 0.3840219894427E-03 -0.8402374447693E-04  0.0000000000000E+00 -0.1687757537558E-02
 0.4869233673648E-03 -0.1929494533140E-03  0.0000000000000E+00 -0.1511440970767E-02
 0.5830681555728E-03 -0.2980528627442E-03  0.0000000000000E+00 -0.1292442391843E-02
 0.6648617018004E-03 -0.3941453240017E-03  0.0000000000000E+00 -0.1022043282454E-02
 0.7259496770054E-03 -0.4768631801805E-03  0.0000000000000E+00 -0.6861053422704E-03
 0.7642082625650E-03 -0.5450066486847E-03  0.0000000000000E+00 -0.2671722096526E-03
 0.7836811895650E-03 -0.6026710384873E-03  0.0000000000000E+00  0.2497966793463E-03
 0.7906181917595E-03 -0.6561123694594E-03  0.0000000000000E+00  0.8698519836086E-03
-0.5477552807761E-04  0.1586228265882E-02  0.0000000000000E+00  0.3900844229576E-04
-0.1650770799132E-03  0.1650447383007E-02  0.0000000000000E+00 -0.2235744650733E-03
-0.2679374181426E-03  0.1703872067131E-02  0.0000000000000E+00 -0.4103330858570E-03
-0.3527652657768E-03  0.1739314894807E-02  0.0000000000000E+00 -0.5375801606018E-03
-0.4152391272000E-03  0.1754702498616E-02  0.0000000000000E+00 -0.6255843822497E-03
-0.4563342624777E-03  0.1752000663980E-02  0.0000000000000E+00 -0.6918076391577E-03
-0.4798917023441E-03  0.1735070914562E-02  0.0000000000000E+00 -0.7480600858551E-03
-0.4904798495773E-03  0.1707929518799E-02  0.0000000000000E+00 -0.8009004735274E-03
-0.4921890210641E-03  0.1673879572237E-02  0.0000000000000E+00 -0.8533307152105E-03
-0.4882092292346E-03  0.1635310125906E-02  0.0000000000000E+00 -0.9064279879744E-03
-0.4808335776956E-03  0.1593814608434E-02  0.0000000000000E+00 -0.9604417605871E-03
-0.4716168130833E-03  0.1550392252988E-02  0.0000000000000E+00 -0.1015384472084E-02
-0.4615518887453E-03  0.1505628076632E-02  0.0000000000000E+00 -0.1071288192446E-02
-0.4512154944257E-03  0.1459824682800E-02  0.0000000000000E+00 -0.1128278488820E-02
-0.4408744305177E-03  0.1413090010883E-02  0.0000000000000E+00 -0.1186560922923E-02
-0.4305587586590E-03  0.1365392388448E-02  0.0000000000000E+00 -0.1246372125235E-02
-0.4201105604015E-03  0.1316593421572E-02  0.0000000000000E+00 -0.1307921478542E-02
-0.4092171077169E-03  0.1266468715675E-02  0.0000000000000E+00 -0.1371333718056E-02
-0.3974351837527E-03  0.1214720150539E-02  0.0000000000000E+00 -0.1436600331401E-02
-0.3842144545862E-03  0.1160988778263E-02  0.0000000000000E+00 -0.1503536337588E-02
-0.3689248010273E-03  0.1104873355661E-02  0.0000000000000E+00 -0.1571733486735E-02
-0.3508883100952E-03  0.1045953501320E-02  0.0000000000000E+00 -0.1640501041358E-02
-0.3294093381781E-03  0.9838158654514E-03  0.0000000000000E+00 -0.1708775246491E-02
-0.3037928065134E-03  0.9180991746245E-03  0.0000000000000E+00 -0.1774988647733E-02
-0.2733547531633E-03  0.8486358158642E-03  0.0000000000000E+00 -0.1836880913985E-02
-0.2373823821969E-03  0.7754278068147E-03  0.0000000000000E+00 -0.1891385883019E-02
-0.1950605536402E-03  0.6983974725378E-03  0.0000000000000E+00 -0.1934745193186E-02
-0.1454568682536E-03  0.6172457243637E-03  0.0000000000000E+00 -0.1962748310062E-02
-0.8759742895292E-04  0.5314694918607E-03  0.0000000000000E+00 -0.1971035771799E-02
-0.2063650473960E-04  0.4404932173217E-03  0.0000000000000E+00 -0.1955423506381E-02
 0.5588356397673E-04  0.3438733345606E-03  0.0000000000000E+00 -0.1912212593104E-02
 0.1416817226604E-03  0.2415597058375E-03  0.0000000000000E+00 -0.1838444476362E-02
 0.2352929793736E-03  0.1342259471509E-03  0.0000000000000E+00 -0.1732013870962E-02
 0.3336001958926E-03  0.2357571568942E-04  0.0000000000000E+00 -0.1591536059152E-02
 0.4314495300233E-03 -0.8735784233677E-04  0.0000000000000E+00 -0.1415600500571E-02
 0.5215360475629E-03 -0.1939079234082E-03  0.0000000000000E+00 -0.1200838338024E-02
 0.5951917663834E-03 -0.2901679909032E-03  0.0000000000000E+00 -0.9390502961900E-03
 0.6448018374993E-03 -0.3708087314625E-03  0.0000000000000E+00 -0.6149401664766E-03
 0.6676745927829E-03 -0.4342332015211E-03  0.0000000000000E+00 -0.2073054169993E-03
 0.6688227403158E-03 -0.4850572036449E-03  0.0000000000000E+00  0.3037331784858E-03
 0.6580234396671E-03 -0.5314268261645E-03  0.0000000000000E+00  0.9233167514098E-03
-0.6201373620623E-04  0.1787428894042E-02  0.0000000000000E+00 -0.3113945388646E-05
-0.1862209380671E-03  0.1859707078152E-02  0.0000000000000E+00 -0.2591858225852E-03
-0.3005961568591E-03  0.1918873680896E-02  0.0000000000000E+00 -0.4327323195453E-03
-0.3931387684283E-03  0.1956927804949E-02  0.0000000000000E+00 -0.5440339277578E-03
-0.4596875445337E-03  0.1972213277810E-02  0.0000000000000E+00 -0.6171093667610E-03
-0.5022717578066E-03  0.1967710121350E-02  0.0000000000000E+00 -0.6714289996457E-03
-0.5258688689982E-03  0.1948216373037E-02  0.0000000000000E+00 -0.7191296776545E-03
-0.5358551282084E-03  0.1918317943097E-02  0.0000000000000E+00 -0.7661896433295E-03
-0.5367573294702E-03  0.1881547596130E-02  0.0000000000000E+00 -0.8148005467190E-03
-0.5319424296728E-03  0.1840318968637E-02  0.0000000000000E+00 -0.8653375646965E-03
-0.5237415276136E-03  0.1796161663971E-02  0.0000000000000E+00 -0.9175435137526E-03
-0.5136893156743E-03  0.1749990174376E-02  0.0000000000000E+00 -0.9710954864158E-03
-0.5027437982443E-03  0.1702313704162E-02  0.0000000000000E+00 -0.1025811367121E-02
-0.4914513365279E-03  0.1653377457792E-02  0.0000000000000E+00 -0.1081679993457E-02
-0.4800602717750E-03  0.1603250995832E-02  0.0000000000000E+00 -0.1138816886765E-02
-0.4685956203933E-03  0.1551880783376E-02  0.0000000000000E+00 -0.1197395537641E-02
-0.4569069130888E-03  0.1499119873740E-02  0.0000000000000E+00 -0.1257577082479E-02
-0.4446995027669E-03  0.1444745651207E-02  0.0000000000000E+00 -0.1319446457849E-02
-0.4315567867047E-03  0.1388469341233E-02  0.0000000000000E+00 -0.1382961885428E-02
-0.4169622151234E-03  0.1329946988771E-02  0.0000000000000E+00 -0.1447914243314E-02
-0.4003273473834E-03  0.1268797963282E-02  0.0000000000000E+00 -0.1513886833262E-02
-0.3810279426037E-03  0.1204631094015E-02  0.0000000000000E+00 -0.1580203415099E-02
-0.3584410894308E-03  0.1137077339451E-02  0.0000000000000E+00 -0.1645839084036E-02
-0.3319696340875E-03  0.1065843348903E-02  0.0000000000000E+00 -0.1709276853001E-02
-0.3010523844735E-03  0.9908625430851E-03  0.0000000000000E+00 -0.1768286466043E-02
-0.2651104372942E-03  0.9122656032684E-03  0.0000000000000E+00 -0.1819786824009E-02
-0.2234491916758E-03  0.8301084520811E-03  0.0000000000000E+00 -0.1859966067255E-02
-0.1752199280269E-03  0.7442100373699E-03  0.0000000000000E+00 -0.1884546979649E-02
-0.1194793332933E-03  0.6541561303101E-03  0.0000000000000E+00 -0.1889122390767E-02
-0.5535012186464E-04  0.5594204764040E-03  0.0000000000000E+00 -0.1869512007114E-02
 0.1772288565782E-04  0.4595576773348E-03  0.0000000000000E+00 -0.1822109325040E-02
 0.9961773786399E-04  0.3544524056263E-03  0.0000000000000E+00 -0.1744193583053E-02
 0.1890625829292E-03  0.2446492293479E-03  0.0000000000000E+00 -0.1634134671277E-02
 0.2830874973500E-03  0.1316945443418E-03  0.0000000000000E+00 -0.1491386951267E-02
 0.3764677093308E-03  0.1855420554770E-04  0.0000000000000E+00 -0.1315820853229E-02
 0.4613389139245E-03 -0.8985189550629E-04  0.0000000000000E+00 -0.1105585756924E-02
 0.5277688438002E-03 -0.1868036989003E-03  0.0000000000000E+00 -0.8534599158048E-03
 0.5664023491025E-03 -0.2657023441257E-03  0.0000000000000E+00 -0.5431296692532E-03
 0.5733872914089E-03 -0.3239983024820E-03  0.0000000000000E+00 -0.1491106573717E-03
 0.5548916433140E-03 -0.3668930410983E-03  0.0000000000000E+00  0.3543574997514E-03
 0.5253426277821E-03 -0.4056574654403E-03  0.0000000000000E+00  0.9745752427577E-03
-0.7006851165426E-04  0.1990622341893E-02  0.0000000000000E+00 -0.5075642857885E-04
-0.2096095110121E-03  0.2071709379325E-02  0.0000000000000E+00 -0.2989393883730E-03
-0.3362793844995E-03  0.2136805677320E-02  0.0000000000000E+00 -0.4568652286282E-03
-0.4365055895233E-03  0.2177067544544E-02  0.0000000000000E+00 -0.5499033660621E-03
-0.5065760649375E-03  0.2191559113853E-02  0.0000000000000E+00 -0.6065516107255E-03
-0.5499614484513E-03  0.2184599487231E-02  0.0000000000000E+00 -0.6483347398812E-03
-0.5730163499899E-03  0.2162083694322E-02  0.0000000000000E+00 -0.6873955846419E-03
-0.5819969572240E-03  0.2129176572688E-02  0.0000000000000E+00 -0.7287974430342E-03
-0.5818457094397E-03  0.2089583531730E-02  0.0000000000000E+00 -0.7737167962754E-03
-0.5760597959752E-03  0.2045680952505E-02  0.0000000000000E+00 -0.8217425302323E-03
-0.5669671037390E-03  0.1998890314027E-02  0.0000000000000E+00 -0.8720953651000E-03
-0.5560539492896E-03  0.1950015228156E-02  0.0000000000000E+00 -0.9241299448796E-03
-0.5442260607047E-03  0.1899475555659E-02  0.0000000000000E+00 -0.9774701931548E-03
-0.5319895723812E-03  0.1847453011881E-02  0.0000000000000E+00 -0.1031987377024E-02
-0.5195690268648E-03  0.1793976696236E-02  0.0000000000000E+00 -0.1087722668679E-02
-0.5069817198358E-03  0.1738971151416E-02  0.0000000000000E+00 -0.1144798561623E-02
-0.4940834329255E-03  0.1682281771120E-02  0.0000000000000E+00 -0.1203337084129E-02
-0.4805970502481E-03  0.1623688943047E-02  0.0000000000000E+00 -0.1263389993833E-02
-0.4661319004834E-03  0.1562914232782E-02  0.0000000000000E+00 -0.1324886671658E-02
-0.4502035054980E-03  0.1499628675570E-02  0.0000000000000E+00 -0.1387596717081E-02
-0.4322615731078E-03  0.1433470353689E-02  0.0000000000000E+00 -0.1451098039556E-02
-0.4117302540761E-03  0.1364073088801E-02  0.0000000000000E+00 -0.1514735356102E-02
-0.3880540232963E-03  0.1291106505102E-02  0.0000000000000E+00 -0.1577535735887E-02
-0.3607311368524E-03  0.1214340400037E-02  0.0000000000000E+00 -0.1638052564340E-02
-0.3293255569044E-03  0.1133807776799E-02  0.0000000000000E+00 -0.1694107208497E-02
-0.2933986844832E-03  0.1049770647416E-02  0.0000000000000E+00 -0.1742619804610E-02
-0.2523836619666E-03  0.9624244568018E-03  0.0000000000000E+00 -0.1779732025120E-02
-0.2055205067775E-03  0.8717146393159E-03  0.0000000000000E+00 -0.1801097440577E-02
-0.1518981111617E-03  0.7773269021201E-03  0.0000000000000E+00 -0.1802248536257E-02
-0.9060500163405E-04  0.6787977968317E-03  0.0000000000000E+00 -0.1778982271544E-02
-0.2097856158156E-04  0.5756929903745E-03  0.0000000000000E+00 -0.1727737571947E-02
 0.5704335241680E-04  0.4678358369718E-03  0.0000000000000E+00 -0.1645960240632E-02
 0.1424347607527E-03  0.3556213314882E-03  0.0000000000000E+00 -0.1532411037985E-02
 0.2324643430403E-03  0.2403749348969E-03  0.0000000000000E+00 -0.1387333246377E-02
 0.3219524671504E-03  0.1248833512792E-03  0.0000000000000E+00 -0.1211962858700E-02
 0.4025361291501E-03  0.1421171915893E-04  0.0000000000000E+00 -0.1006319220302E-02
 0.4628501893078E-03 -0.8406810437671E-04  0.0000000000000E+00 -0.7647704664014E-03
 0.4912241724546E-03 -0.1617117669987E-03  0.0000000000000E+00 -0.4704432501722E-03
 0.4818762965244E-03 -0.2145974340094E-03  0.0000000000000E+00 -0.9310905047677E-04
 0.4420854512954E-03 -0.2484711860128E-03  0.0000000000000E+00  0.4008653200678E-03
 0.3920822491339E-03 -0.2787147464565E-03  0.0000000000000E+00  0.1023464985721E-02
-0.7910614219685E-04  0.2196104364515E-02  0.0000000000000E+00 -0.1045351835397E-03
-0.2356686436963E-03  0.2286861992272E-02  0.0000000000000E+00 -0.3430852846854E-03
-0.3754667151031E-03  0.2358014334406E-02  0.0000000000000E+00 -0.4824481170661E-03
-0.4832009419731E-03  0.2399891731487E-02  0.0000000000000E+00 -0.5545824488561E-03
-0.5560452766450E-03  0.2412718774017E-02  0.0000000000000E+00 -0.5933046571195E-03
-0.5994102831472E-03  0.2402558389250E-02  0.0000000000000E+00 -0.6221027209215E-03
-0.6212884492682E-03  0.2376556826583E-02  0.0000000000000E+00 -0.6526412231314E-03
-0.6288598200259E-03  0.2340426319852E-02  0.0000000000000E+00 -0.6886550953295E-03
-0.6274304487743E-03  0.2297954761319E-02  0.0000000000000E+00 -0.7300931237762E-03
-0.6205627630252E-03  0.2251403883636E-02  0.0000000000000E+00 -0.7756930473559E-03
-0.6105330193167E-03  0.2202038879006E-02  0.0000000000000E+00 -0.8241581051680E-03
-0.5987493025483E-03  0.2150527352771E-02  0.0000000000000E+00 -0.8745467984731E-03
-0.5860483149271E-03  0.2097188526851E-02  0.0000000000000E+00 -0.9263168319987E-03
-0.5728871383709E-03  0.2042136614263E-02  0.0000000000000E+00 -0.9792448513416E-03
-0.5594621601499E-03  0.1985359725652E-02  0.0000000000000E+00 -0.1033315105410E-02
-0.5457810328310E-03  0.1926761468963E-02  0.0000000000000E+00 -0.1088611949338E-02
-0.5317051536018E-03  0.1866181158286E-02  0.0000000000000E+00 -0.1145227700498E-02
-0.5169748595219E-03  0.1803403919981E-02  0.0000000000000E+00 -0.1203187556415E-02
-0.5012251700457E-03  0.1738163139864E-02  0.0000000000000E+00 -0.1262396091752E-02
-0.4840022836633E-03  0.1670145298837E-02  0.0000000000000E+00 -0.1322603354700E-02
-0.4647903982359E-03  0.1599005447700E-02  0.0000000000000E+00 -0.1383382839813E-02
-0.4430558418446E-03  0.1524397577813E-02  0.0000000000000E+00 -0.1444104207332E-02
-0.4183034734223E-03  0.1446022743515E-02  0.0000000000000E+00 -0.1503858164975E-02
-0.3901228477092E-03  0.1363706901586E-02  0.0000000000000E+00 -0.1561289173004E-02
-0.3582048515669E-03  0.1277579092995E-02  0.0000000000000E+00 -0.1614294646500E-02
-0.3222581645396E-03  0.1188033865014E-02  0.0000000000000E+00 -0.1659815891317E-02
-0.2818521398799E-03  0.1095411466808E-02  0.0000000000000E+00 -0.1693959195145E-02
-0.2363223085117E-03  0.9997928140862E-03  0.0000000000000E+00 -0.1712311134511E-02
-0.1847940563243E-03  0.9009771886724E-03  0.0000000000000E+00 -0.1710336833084E-02
-0.1263236144702E-03  0.7985830347869E-03  0.0000000000000E+00 -0.1683789073294E-02
-0.6013794377163E-04  0.6922094354287E-03  0.0000000000000E+00 -0.1629106105737E-02
 0.1402576731657E-04  0.5816354721058E-03  0.0000000000000E+00 -0.1543819172827E-02
 0.9543475839535E-04  0.4670999686640E-03  0.0000000000000E+00 -0.1426965942812E-02
 0.1816963016531E-03  0.3496485980799E-03  0.0000000000000E+00 -0.1279472361578E-02
 0.2678325749095E-03  0.2317534378250E-03  0.0000000000000E+00 -0.1103959633609E-02
 0.3451221533918E-03  0.1184449119491E-03  0.0000000000000E+00 -0.9026659875597E-03
 0.4006656767614E-03  0.1809729575805E-04  0.0000000000000E+00 -0.6723497174497E-03
 0.4198318733089E-03 -0.5902175072514E-04  0.0000000000000E+00 -0.3964420557618E-03
 0.3938242896083E-03 -0.1064190784001E-03  0.0000000000000E+00 -0.3964799434365E-04
 0.3305924317899E-03 -0.1300263513345E-03  0.0000000000000E+00  0.4423010669942E-03
 0.2576470240511E-03 -0.1503944218244E-03  0.0000000000000E+00  0.1069445344064E-02
-0.8933976895789E-04  0.2404246056291E-02  0.0000000000000E+00 -0.1651822244132E-03
-0.2649307425448E-03  0.2505662358615E-02  0.0000000000000E+00 -0.3918584486106E-03
-0.4187229007127E-03  0.2582884497801E-02  0.0000000000000E+00 -0.5090327901917E-03
-0.5335730284819E-03  0.2625522877009E-02  0.0000000000000E+00 -0.5572786653859E-03
-0.6081959151321E-03  0.2635598839656E-02  0.0000000000000E+00 -0.5766585297437E-03
-0.6505743283743E-03  0.2621411200546E-02  0.0000000000000E+00 -0.5922988080661E-03
-0.6706018827404E-03  0.2591479822830E-02  0.0000000000000E+00 -0.6146876218897E-03
-0.6763777637731E-03  0.2551970876549E-02  0.0000000000000E+00 -0.6457428527500E-03
-0.6734795898776E-03  0.2506625150247E-02  0.0000000000000E+00 -0.6839854984656E-03
-0.6654511952010E-03  0.2457498526870E-02  0.0000000000000E+00 -0.7272706682651E-03
-0.6544634565483E-03  0.2405650961850E-02  0.0000000000000E+00 -0.7738143771557E-03
-0.6418165102024E-03  0.2351592083895E-02  0.0000000000000E+00 -0.8224199141741E-03
-0.6282628849191E-03  0.2295532595574E-02  0.0000000000000E+00 -0.8724137384376E-03
-0.6142034039803E-03  0.2237517851773E-02  0.0000000000000E+00 -0.9235039874561E-03
-0.5998031874262E-03  0.2177496249840E-02  0.0000000000000E+00 -0.9756365621109E-03
-0.5850591787457E-03  0.2115352569905E-02  0.0000000000000E+00 -0.1028870819068E-02
-0.5698383454415E-03  0.2050922298625E-02  0.0000000000000E+00 -0.1083278768654E-02
-0.5538988910227E-03  0.1983997517316E-02  0.0000000000000E+00 -0.1138865607323E-02
-0.5369018143239E-03  0.1914325438676E-02  0.0000000000000E+00 -0.1195514836018E-02
-0.5184231141935E-03  0.1841609096300E-02  0.0000000000000E+00 -0.1252957591158E-02
-0.4979779403799E-03  0.1765519252529E-02  0.0000000000000E+00 -0.1310761534468E-02
-0.4750677297529E-03  0.1685724915603E-02  0.0000000000000E+00 -0.1368321927227E-02
-0.4492487922783E-03  0.1601949690205E-02  0.0000000000000E+00 -0.1424802252207E-02
-0.4201957488681E-03  0.1514066026297E-02  0.0000000000000E+00 -0.1478958883781E-02
-0.3877270850295E-03  0.1422292630636E-02  0.0000000000000E+00 -0.1528792587399E-02
-0.3517059543742E-03  0.1327155477915E-02  0.0000000000000E+00 -0.1571289998935E-02
-0.3118473130376E-03  0.1229143383109E-02  0.0000000000000E+00 -0.1602538046758E-02
-0.2675903114676E-03  0.1128481514197E-02  0.0000000000000E+00 -0.1618064886144E-02
-0.2181035418154E-03  0.1025098465312E-02  0.0000000000000E+00 -0.1613269455093E-02
-0.1624176384606E-03  0.9187193887319E-03  0.0000000000000E+00 -0.1583847652253E-02
-0.9965445507193E-04  0.8090097783194E-03  0.0000000000000E+00 -0.1526196387289E-02
-0.2934565961432E-04  0.6957378639495E-03  0.0000000000000E+00 -0.1437846069099E-02
 0.4810483214979E-04  0.5790004543217E-03  0.0000000000000E+00 -0.1317969177576E-02
 0.1307429201792E-03  0.4595210766984E-03  0.0000000000000E+00 -0.1168001264935E-02
 0.2139871016270E-03  0.3393082741731E-03  0.0000000000000E+00 -0.9918641038102E-03
 0.2890004171173E-03  0.2230956755757E-03  0.0000000000000E+00 -0.7942980013432E-03
 0.3413794994483E-03  0.1198649948999E-03  0.0000000000000E+00 -0.5754222960652E-03
 0.3528600743029E-03  0.4221848246655E-04  0.0000000000000E+00 -0.3203674586816E-03
 0.3101066587400E-03  0.7986452024711E-07  0.0000000000000E+00  0.1113330554325E-04
 0.2206879160607E-03 -0.1181660519101E-04  0.0000000000000E+00  0.4774473900006E-03
 0.1212532225832E-03 -0.2042754698740E-04  0.0000000000000E+00  0.1111672620360E-02
-0.1010479159801E-03  0.2615524215327E-02  0.0000000000000E+00 -0.2335733367881E-03
-0.2980704009940E-03  0.2728725813469E-02  0.0000000000000E+00 -0.4454463437405E-03
-0.4667123284308E-03  0.2811836633877E-02  0.0000000000000E+00 -0.5359286464959E-03
-0.5879669431748E-03  0.2854018454019E-02  0.0000000000000E+00 -0.5569614192295E-03
-0.6630645106902E-03  0.2860004237926E-02  0.0000000000000E+00 -0.5557995162537E-03
-0.7033438264279E-03  0.2840903187996E-02  0.0000000000000E+00 -0.5585031889807E-03
-0.7208317707690E-03  0.2806655841271E-02  0.0000000000000E+00 -0.5734190993224E-03
-0.7244659797337E-03  0.2763700828877E-02  0.0000000000000E+00 -0.6001055988925E-03
-0.7199558540978E-03  0.2715559574257E-02  0.0000000000000E+00 -0.6354994193071E-03
-0.7107259405089E-03  0.2663982077431E-02  0.0000000000000E+00 -0.6765908765569E-03
-0.6987859019477E-03  0.2609777782006E-02  0.0000000000000E+00 -0.7211690355424E-03
-0.6853004590365E-03  0.2553282011468E-02  0.0000000000000E+00 -0.7678375595383E-03
-0.6709255310100E-03  0.2494593681722E-02  0.0000000000000E+00 -0.8158328990918E-03
-0.6560006277665E-03  0.2433691115771E-02  0.0000000000000E+00 -0.8648229764998E-03
-0.6406579575960E-03  0.2370486261475E-02  0.0000000000000E+00 -0.9147342985278E-03
-0.6248836071106E-03  0.2304848313468E-02  0.0000000000000E+00 -0.9656141131790E-03
-0.6085506423307E-03  0.2236611786609E-02  0.0000000000000E+00 -0.1017523235630E-02
-0.5914360110870E-03  0.2165578323636E-02  0.0000000000000E+00 -0.1070453311922E-02
-0.5732275627321E-03  0.2091511481395E-02  0.0000000000000E+00 -0.1124270391918E-02
-0.5535309654591E-03  0.2014132797488E-02  0.0000000000000E+00 -0.1178686494228E-02
-0.5318892668841E-03  0.1933128422062E-02  0.0000000000000E+00 -0.1233259471710E-02
-0.5078313139870E-03  0.1848177376381E-02  0.0000000000000E+00 -0.1287406557958E-02
-0.4809537715879E-03  0.1759015398106E-02  0.0000000000000E+00 -0.1340369151859E-02
-0.4510073497782E-03  0.1665548614373E-02  0.0000000000000E+00 -0.1391035408141E-02
-0.4179370805962E-03  0.1568075285397E-02  0.0000000000000E+00 -0.1437539322216E-02
-0.3817675211953E-03  0.1467248251395E-02  0.0000000000000E+00 -0.1476941560846E-02
-0.3423690266717E-03  0.1363705920706E-02  0.0000000000000E+00 -0.1505331563636E-02
-0.2992931916512E-03  0.1257825193039E-02  0.0000000000000E+00 -0.1518195818362E-02
-0.2517604722297E-03  0.1149681124761E-02  0.0000000000000E+00 -0.1510879416753E-02
-0.1987874301962E-03  0.1039135989409E-02  0.0000000000000E+00 -0.1479021592704E-02
-0.1394054965752E-03  0.9259661052404E-03  0.0000000000000E+00 -0.1418948332044E-02
-0.7295085063103E-04  0.8099813366007E-03  0.0000000000000E+00 -0.1328104871941E-02
 0.5181528441867E-06  0.6911784165201E-03  0.0000000000000E+00 -0.1205634864478E-02
 0.7957315469204E-04  0.5699479571149E-03  0.0000000000000E+00 -0.1053239677799E-02
 0.1602487056448E-03  0.4476942399300E-03  0.0000000000000E+00 -0.8759123818811E-03
 0.2339544296470E-03  0.3285123805956E-03  0.0000000000000E+00 -0.6810165840659E-03
 0.2850281297022E-03  0.2215842765997E-03  0.0000000000000E+00 -0.4730900843894E-03
 0.2909735098213E-03  0.1419761165685E-03  0.0000000000000E+00 -0.2410294634241E-03
 0.2318572939325E-03  0.1043843614744E-03  0.0000000000000E+00  0.5942901135508E-04
 0.1128342013793E-03  0.1058043420067E-03  0.0000000000000E+00  0.5048011776389E-03
-0.1814468044448E-04  0.1115164727480E-03  0.0000000000000E+00  0.1148940225102E-02
-0.1146025398901E-03  0.2830567535841E-02  0.0000000000000E+00 -0.3107644201278E-03
-0.3359543888717E-03  0.2956823756515E-02  0.0000000000000E+00 -0.5039308528475E-03
-0.5202121449679E-03  0.3045314238698E-02  0.0000000000000E+00 -0.5620875839730E-03
-0.6466951910081E-03  0.3085323176044E-02  0.0000000000000E+00 -0.5523024021246E-03
-0.7205896717988E-03  0.3085599836083E-02  0.0000000000000E+00 -0.5298260156924E-03
-0.7575271935722E-03  0.3060687768858E-02  0.0000000000000E+00 -0.5203530223818E-03
-0.7718102717522E-03  0.3021850311667E-02  0.0000000000000E+00 -0.5288159560742E-03
-0.7730248281017E-03  0.2975500799286E-02  0.0000000000000E+00 -0.5518692131019E-03
-0.7668209182781E-03  0.2924729936870E-02  0.0000000000000E+00 -0.5847959945356E-03
-0.7563919962410E-03  0.2870882248636E-02  0.0000000000000E+00 -0.6238044074705E-03
-0.7435332219437E-03  0.2814480714272E-02  0.0000000000000E+00 -0.6663485799476E-03
-0.7292510596675E-03  0.2755678255721E-02  0.0000000000000E+00 -0.7109012627801E-03
-0.7140961914636E-03  0.2694464450460E-02  0.0000000000000E+00 -0.7566546816904E-03
-0.6983443778605E-03  0.2630756009136E-02  0.0000000000000E+00 -0.8032656689269E-03
-0.6820948977066E-03  0.2564433777458E-02  0.0000000000000E+00 -0.8506597283058E-03
-0.6653237605838E-03  0.2495355692479E-02  0.0000000000000E+00 -0.8988840209516E-03
-0.6479111651060E-03  0.2423358628383E-02  0.0000000000000E+00 -0.9479966372322E-03
-0.6296540563665E-03  0.2348256620919E-02  0.0000000000000E+00 -0.9979819604630E-03
-0.6102685796150E-03  0.2269832493353E-02  0.0000000000000E+00 -0.1048692400713E-02
-0.5893909143523E-03  0.2187829233640E-02  0.0000000000000E+00 -0.1099820320888E-02
-0.5665899374294E-03  0.2101949552632E-02  0.0000000000000E+00 -0.1150907367958E-02
-0.5414140246044E-03  0.2011878400079E-02  0.0000000000000E+00 -0.1201383857675E-02
-0.5134868185607E-03  0.1917352078938E-02  0.0000000000000E+00 -0.1250568291782E-02
-0.4826226846705E-03  0.1818294011291E-02  0.0000000000000E+00 -0.1297497730545E-02
-0.4488896105613E-03  0.1715067032009E-02  0.0000000000000E+00 -0.1340471066842E-02
-0.4124795311047E-03  0.1608441284122E-02  0.0000000000000E+00 -0.1376656291380E-02
-0.3734276313332E-03  0.1499201387085E-02  0.0000000000000E+00 -0.1402173993261E-02
-0.3314066135146E-03  0.1387880734731E-02  0.0000000000000E+00 -0.1412496083875E-02
-0.2856986745776E-03  0.1274718502075E-02  0.0000000000000E+00 -0.1402940727819E-02
-0.2353223767821E-03  0.1159749699889E-02  0.0000000000000E+00 -0.1369108295538E-02
-0.1792433984252E-03  0.1042917521058E-02  0.0000000000000E+00 -0.1307241807719E-02
-0.1166299124634E-03  0.9241467494877E-03  0.0000000000000E+00 -0.1214628148814E-02
-0.4720396707003E-04  0.8034097443337E-03  0.0000000000000E+00 -0.1090209201995E-02
 0.2818943245925E-04  0.6808019729724E-03  0.0000000000000E+00 -0.9356458224821E-03
 0.1064197124455E-03  0.5570255963048E-03  0.0000000000000E+00 -0.7565984368532E-03
 0.1796217826240E-03  0.4351449383271E-03  0.0000000000000E+00 -0.5628849341344E-03
 0.2314318990688E-03  0.3238619954526E-03  0.0000000000000E+00 -0.3644184598758E-03
 0.2347884224216E-03  0.2404613416945E-03  0.0000000000000E+00 -0.1566910642673E-03
 0.1605400976923E-03  0.2059562628903E-03  0.0000000000000E+00  0.1060178296389E-03
 0.7825069114509E-05  0.2223167707051E-03  0.0000000000000E+00  0.5226063263817E-03
-0.1619511037236E-03  0.2458363292441E-03  0.0000000000000E+00  0.1179542986186E-02
-0.1305126965152E-03  0.3050228939361E-02  0.0000000000000E+00 -0.3980386718511E-03
-0.3797124835534E-03  0.3190935093869E-02  0.0000000000000E+00 -0.5671834629660E-03
-0.5801187573576E-03  0.3283751488268E-02  0.0000000000000E+00 -0.5859337387883E-03
-0.7099864118756E-03  0.3319193873747E-02  0.0000000000000E+00 -0.5416143464015E-03
-0.7805672115861E-03  0.3311862904656E-02  0.0000000000000E+00 -0.4977941974533E-03
-0.8128364756857E-03  0.3280318824664E-02  0.0000000000000E+00 -0.4776069365219E-03
-0.8233299844824E-03  0.3236800726093E-02  0.0000000000000E+00 -0.4809931155097E-03
-0.8219469970705E-03  0.3187260203185E-02  0.0000000000000E+00 -0.5012557257382E-03
-0.8140410864061E-03  0.3134122650399E-02  0.0000000000000E+00 -0.5320958254595E-03
-0.8024622141521E-03  0.3078241892669E-02  0.0000000000000E+00 -0.5690968847253E-03
-0.7887459107260E-03  0.3019833974320E-02  0.0000000000000E+00 -0.6094994518674E-03
-0.7737245343517E-03  0.2958871935739E-02  0.0000000000000E+00 -0.6517239552370E-03
-0.7578396835269E-03  0.2895245060473E-02  0.0000000000000E+00 -0.6949662567190E-03
-0.7413038999785E-03  0.2828817695040E-02  0.0000000000000E+00 -0.7389003771716E-03
-0.7241852141304E-03  0.2759446994433E-02  0.0000000000000E+00 -0.7834675685876E-03
-0.7064512156399E-03  0.2686984929224E-02  0.0000000000000E+00 -0.8287253731789E-03
-0.6879906548257E-03  0.2611274352881E-02  0.0000000000000E+00 -0.8747365811295E-03
-0.6686219396961E-03  0.2532144504644E-02  0.0000000000000E+00 -0.9214843464296E-03
-0.6480914246927E-03  0.2449400566992E-02  0.0000000000000E+00 -0.9688118182761E-03
-0.6260677956332E-03  0.2362810957302E-02  0.0000000000000E+00 -0.1016391690948E-02
-0.6021453199706E-03  0.2272098268535E-02  0.0000000000000E+00 -0.1063741241141E-02
-0.5758846152328E-03  0.2176951379890E-02  0.0000000000000E+00 -0.1110288914882E-02
-0.5469207654629E-03  0.2077095304810E-02  0.0000000000000E+00 -0.1155421020204E-02
-0.5151151353532E-03  0.1972450581303E-02  0.0000000000000E+00 -0.1198335176793E-02
-0.4806514975612E-03  0.1863423398737E-02  0.0000000000000E+00 -0.1237527039364E-02
-0.4438932018371E-03  0.1750884508793E-02  0.0000000000000E+00 -0.1270309411405E-02
-0.4050481996372E-03  0.1635754611095E-02  0.0000000000000E+00 -0.1292870418507E-02
-0.3639175951021E-03  0.1518723780429E-02  0.0000000000000E+00 -0.1300707528822E-02
-0.3198554793143E-03  0.1400212430589E-02  0.0000000000000E+00 -0.1289157472348E-02
-0.2719024896647E-03  0.1280468568453E-02  0.0000000000000E+00 -0.1253822055639E-02
-0.2189932449562E-03  0.1159669524779E-02  0.0000000000000E+00 -0.1190873650419E-02
-0.1601743935757E-03  0.1037949444326E-02  0.0000000000000E+00 -0.1097389513772E-02
-0.9487251395451E-04  0.9153693834689E-03  0.0000000000000E+00 -0.9719448743825E-03
-0.2333863848603E-04  0.7918311982451E-03  0.0000000000000E+00 -0.8158155075510E-03
 0.5230825597446E-04  0.6673258373591E-03  0.0000000000000E+00 -0.6347491723343E-03
 0.1254836703171E-03  0.5435162654678E-03  0.0000000000000E+00 -0.4404194256147E-03
 0.1800797407265E-03  0.4276510396590E-03  0.0000000000000E+00 -0.2486358820627E-03
 0.1847222547019E-03  0.3383277391989E-03  0.0000000000000E+00 -0.6498188379535E-04
 0.9800346030525E-04  0.3043402864407E-03  0.0000000000000E+00  0.1526803843579E-03
-0.9298881532710E-04  0.3369594983082E-03  0.0000000000000E+00  0.5290004563047E-03
-0.3120535602195E-03  0.3830139720614E-03  0.0000000000000E+00  0.1201050782350E-02
-0.1494946353239E-03  0.3275702646061E-02  0.0000000000000E+00 -0.4969668383062E-03
-0.4308384699030E-03  0.3432314046253E-02  0.0000000000000E+00 -0.6346741334178E-03
-0.6474361359538E-03  0.3527501161256E-02  0.0000000000000E+00 -0.6051126357938E-03
-0.7778993515363E-03  0.3555083073759E-02  0.0000000000000E+00 -0.5228060459995E-03
-0.8425940323580E-03  0.3538029718413E-02  0.0000000000000E+00 -0.4588154782892E-03
-0.8688792776110E-03  0.3499255031052E-02  0.0000000000000E+00 -0.4302357878998E-03
-0.8751547927823E-03  0.3451235699508E-02  0.0000000000000E+00 -0.4302408226970E-03
-0.8711281717977E-03  0.3398887660479E-02  0.0000000000000E+00 -0.4485943814945E-03
-0.8615941811209E-03  0.3343747275435E-02  0.0000000000000E+00 -0.4776796240765E-03
-0.8489613877964E-03  0.3286123929426E-02  0.0000000000000E+00 -0.5126863566851E-03
-0.8344743921669E-03  0.3225927278138E-02  0.0000000000000E+00 -0.5507850239421E-03
-0.8187846369459E-03  0.3162965505298E-02  0.0000000000000E+00 -0.5904273482020E-03
-0.8022263072973E-03  0.3097043764000E-02  0.0000000000000E+00 -0.6308595906194E-03
-0.7849523925948E-03  0.3027987111635E-02  0.0000000000000E+00 -0.6717984602577E-03
-0.7670030192309E-03  0.2955638336070E-02  0.0000000000000E+00 -0.7132149097583E-03
-0.7483397775200E-03  0.2879849498251E-02  0.0000000000000E+00 -0.7551850509090E-03
-0.7288616035866E-03  0.2800473102057E-02  0.0000000000000E+00 -0.7977822955289E-03
-0.7084098086098E-03  0.2717356057472E-02  0.0000000000000E+00 -0.8409941746648E-03
-0.6867630917420E-03  0.2630328768781E-02  0.0000000000000E+00 -0.8846599071812E-03
-0.6636258397923E-03  0.2539189907168E-02  0.0000000000000E+00 -0.9284342640043E-03
-0.6386196558994E-03  0.2443688062354E-02  0.0000000000000E+00 -0.9718016890116E-03
-0.6113119448502E-03  0.2343517798676E-02  0.0000000000000E+00 -0.1014167494064E-02
-0.5813321045895E-03  0.2238382345541E-02  0.0000000000000E+00 -0.1054964904168E-02
-0.5485668976438E-03  0.2128175586866E-02  0.0000000000000E+00 -0.1093554144979E-02
-0.5133038108877E-03  0.2013317954047E-02  0.0000000000000E+00 -0.1128656771894E-02
-0.4760782809340E-03  0.1894753973293E-02  0.0000000000000E+00 -0.1157770922424E-02
-0.4372757876658E-03  0.1773520213420E-02  0.0000000000000E+00 -0.1177197536683E-02
-0.3968301447361E-03  0.1650456651156E-02  0.0000000000000E+00 -0.1182516491970E-02
-0.3541767029819E-03  0.1526180516459E-02  0.0000000000000E+00 -0.1169152000236E-02
-0.3084015632631E-03  0.1401197230929E-02  0.0000000000000E+00 -0.1132775024391E-02
-0.2584523823068E-03  0.1275995673733E-02  0.0000000000000E+00 -0.1069530396934E-02
-0.2033199518861E-03  0.1151033554067E-02  0.0000000000000E+00 -0.9762677866679E-03
-0.1422107723498E-03  0.1026611302684E-02  0.0000000000000E+00 -0.8510595812178E-03
-0.7483200392128E-04  0.9026111639189E-03  0.0000000000000E+00 -0.6944535197846E-03
-0.2207840948176E-05  0.7784400923906E-03  0.0000000000000E+00 -0.5115776057945E-03
 0.7089224140078E-04  0.6541381489273E-03  0.0000000000000E+00 -0.3148368042522E-03
 0.1299978951643E-03  0.5343184748604E-03  0.0000000000000E+00 -0.1255159842125E-03
 0.1407261931545E-03  0.4369776773427E-03  0.0000000000000E+00  0.3706442590852E-04
 0.4646685132426E-04  0.3994175968405E-03  0.0000000000000E+00  0.2028321625934E-03
-0.1873443491275E-03  0.4486636769065E-03  0.0000000000000E+00  0.5224074800615E-03
-0.4709789622449E-03  0.5236429226083E-03  0.0000000000000E+00  0.1209966211365E-02
-0.1725881231414E-03  0.3508721081896E-02  0.0000000000000E+00 -0.6094802407862E-03
-0.4913340897980E-03  0.3682574362490E-02  0.0000000000000E+00 -0.7051165215406E-03
-0.7232211619351E-03  0.3776683143520E-02  0.0000000000000E+00 -0.6161272042123E-03
-0.8501831649984E-03  0.3791963254363E-02  0.0000000000000E+00 -0.4933965222144E-03
-0.9060057255344E-03  0.3763048096254E-02  0.0000000000000E+00 -0.4122383953361E-03
-0.9251659903889E-03  0.3716887190349E-02  0.0000000000000E+00 -0.3785384747007E-03
-0.9270407615690E-03  0.3664905090185E-02  0.0000000000000E+00 -0.3770590903985E-03
-0.9204808954415E-03  0.3610328290669E-02  0.0000000000000E+00 -0.3943253123230E-03
-0.9094772778979E-03  0.3553645891462E-02  0.0000000000000E+00 -0.4218846966855E-03
-0.8959305163313E-03  0.3494616338134E-02  0.0000000000000E+00 -0.4548183436967E-03
-0.8807812326445E-03  0.3432868318476E-02  0.0000000000000E+00 -0.4903811484358E-03
-0.8645037211706E-03  0.3368073880406E-02  0.0000000000000E+00 -0.5271385172127E-03
-0.8473323052282E-03  0.3299977325940E-02  0.0000000000000E+00 -0.5644290085996E-03
-0.8293671613565E-03  0.3228381044156E-02  0.0000000000000E+00 -0.6020326975174E-03
-0.8106253666158E-03  0.3153124397467E-02  0.0000000000000E+00 -0.6399602158136E-03
-0.7910655188020E-03  0.3074066088901E-02  0.0000000000000E+00 -0.6783114265574E-03
-0.7705983811721E-03  0.2991071721383E-02  0.0000000000000E+00 -0.7171742845782E-03
-0.7490892821811E-03  0.2904007626041E-02  0.0000000000000E+00 -0.7565455737291E-03
-0.7263512042225E-03  0.2812731477344E-02  0.0000000000000E+00 -0.7962671091258E-03
-0.7021284093742E-03  0.2717077302288E-02  0.0000000000000E+00 -0.8359807789044E-03
-0.6760749091296E-03  0.2616829012465E-02  0.0000000000000E+00 -0.8751320840625E-03
-0.6477631122967E-03  0.2511694601722E-02  0.0000000000000E+00 -0.9130766126918E-03
-0.6167993708987E-03  0.2401349291338E-02  0.0000000000000E+00 -0.9492585187887E-03
-0.5830688316395E-03  0.2285634076717E-02  0.0000000000000E+00 -0.9831868923789E-03
-0.5469440743667E-03  0.2164944705576E-02  0.0000000000000E+00 -0.1013830424502E-02
-0.5091277857305E-03  0.2040258118938E-02  0.0000000000000E+00 -0.1038913646565E-02
-0.4701819992339E-03  0.1912691589006E-02  0.0000000000000E+00 -0.1054906017709E-02
-0.4301724184173E-03  0.1783218199658E-02  0.0000000000000E+00 -0.1057548824457E-02
-0.3886232419175E-03  0.1652665376905E-02  0.0000000000000E+00 -0.1042452325253E-02
-0.3446922062873E-03  0.1521844571743E-02  0.0000000000000E+00 -0.1005456434257E-02
-0.2973922524140E-03  0.1391642243459E-02  0.0000000000000E+00 -0.9427572611392E-03
-0.2457416189669E-03  0.1262970048402E-02  0.0000000000000E+00 -0.8510031114637E-03
-0.1888365440739E-03  0.1136552475098E-02  0.0000000000000E+00 -0.7276780059578E-03
-0.1259560450320E-03  0.1012497364629E-02  0.0000000000000E+00 -0.5723077987301E-03
-0.5708563798723E-04  0.8899208628462E-03  0.0000000000000E+00 -0.3886774709318E-03
 0.1516956373393E-04  0.7673386689724E-03  0.0000000000000E+00 -0.1883202076389E-03
 0.7964142715083E-04  0.6456287497178E-03  0.0000000000000E+00  0.3975299734046E-05
 0.1018459310316E-03  0.5389898435294E-03  0.0000000000000E+00  0.1526465629777E-03
 0.8327505888639E-05  0.4919471423159E-03  0.0000000000000E+00  0.2623891337926E-03
-0.2715189668409E-03  0.5560565990602E-03  0.0000000000000E+00  0.5024421330442E-03
-0.6420771263372E-03  0.6684914195622E-03  0.0000000000000E+00  0.1201245861241E-02
-0.2013565046275E-03  0.3751901457546E-02  0.0000000000000E+00 -0.7379458700400E-03
-0.5639111632293E-03  0.3943777056035E-02  0.0000000000000E+00 -0.7757935038107E-03
-0.8084336081866E-03  0.4030873646545E-02  0.0000000000000E+00 -0.6138303351460E-03
-0.9260595529448E-03  0.4028074866163E-02  0.0000000000000E+00 -0.4506837847634E-03
-0.9698250564790E-03  0.3985566144409E-02  0.0000000000000E+00 -0.3579557492950E-03
-0.9811457031305E-03  0.3932602571753E-02  0.0000000000000E+00 -0.3232663270852E-03
-0.9787678785815E-03  0.3877619671498E-02  0.0000000000000E+00 -0.3221727458104E-03
-0.9699502598188E-03  0.3821582246952E-02  0.0000000000000E+00 -0.3389936005676E-03
-0.9577148175796E-03  0.3763902722040E-02  0.0000000000000E+00 -0.3650967138498E-03
-0.9434309658047E-03  0.3703836826588E-02  0.0000000000000E+00 -0.3957580566694E-03
-0.9277430767330E-03  0.3640784842665E-02  0.0000000000000E+00 -0.4284702551106E-03
-0.9109635618927E-03  0.3574325244926E-02  0.0000000000000E+00 -0.4619857245863E-03
-0.8932401197089E-03  0.3504171189183E-02  0.0000000000000E+00 -0.4957683641335E-03
-0.8746296160854E-03  0.3430122006732E-02  0.0000000000000E+00 -0.5296754893898E-03
-0.8551321688359E-03  0.3352025749560E-02  0.0000000000000E+00 -0.5637622898724E-03
-0.8347067389724E-03  0.3269754473797E-02  0.0000000000000E+00 -0.5981538768948E-03
-0.8132773374630E-03  0.3183189816218E-02  0.0000000000000E+00 -0.6329541563891E-03
-0.7907337697328E-03  0.3092218183718E-02  0.0000000000000E+00 -0.6681728461205E-03
-0.7669244493611E-03  0.2996725024576E-02  0.0000000000000E+00 -0.7036619695232E-03
-0.7416380030833E-03  0.2896583980490E-02  0.0000000000000E+00 -0.7390604149183E-03
-0.7145695062757E-03  0.2791626576925E-02  0.0000000000000E+00 -0.7737751505685E-03
-0.6853007845828E-03  0.2681590659103E-02  0.0000000000000E+00 -0.8070835500427E-03
-0.6534002510213E-03  0.2566126380046E-02  0.0000000000000E+00 -0.8383863732702E-03
-0.6187192662813E-03  0.2444996140403E-02  0.0000000000000E+00 -0.8673029282620E-03
-0.5816883321539E-03  0.2318520177997E-02  0.0000000000000E+00 -0.8930532690734E-03
-0.5431636942027E-03  0.2187645315546E-02  0.0000000000000E+00 -0.9136250777249E-03
-0.5038731989458E-03  0.2053512056093E-02  0.0000000000000E+00 -0.9257248965491E-03
-0.4640056765619E-03  0.1917195926616E-02  0.0000000000000E+00 -0.9253651412659E-03
-0.4231794250443E-03  0.1779745978642E-02  0.0000000000000E+00 -0.9084787717262E-03
-0.3806529189843E-03  0.1642333744358E-02  0.0000000000000E+00 -0.8712106386682E-03
-0.3355631644642E-03  0.1506336423608E-02  0.0000000000000E+00 -0.8099245464601E-03
-0.2870529021278E-03  0.1373260009474E-02  0.0000000000000E+00 -0.7211458972098E-03
-0.2342491264640E-03  0.1244463396054E-02  0.0000000000000E+00 -0.6017584577957E-03
-0.1761791590756E-03  0.1120586814582E-02  0.0000000000000E+00 -0.4500648459423E-03
-0.1119981405015E-03  0.1000904446507E-02  0.0000000000000E+00 -0.2679148654274E-03
-0.4218121603633E-04  0.8829748613979E-03  0.0000000000000E+00 -0.6420055975520E-04
 0.2690408082939E-04  0.7635145412996E-03  0.0000000000000E+00  0.1367171926878E-03
 0.6557168490190E-04  0.6486209548319E-03  0.0000000000000E+00  0.2841173919834E-03
-0.1444458723060E-04  0.5846390276899E-03  0.0000000000000E+00  0.3407306669891E-03
-0.3395368374602E-03  0.6577164932353E-03  0.0000000000000E+00  0.4718300953275E-03
-0.8297018090656E-03  0.8186684853744E-03  0.0000000000000E+00  0.1167734142482E-02
-0.2382440043188E-03  0.4009390411325E-02  0.0000000000000E+00 -0.8851956239903E-03
-0.6522616958818E-03  0.4218463283694E-02  0.0000000000000E+00 -0.8412358757460E-03
-0.9035799582783E-03  0.4288473047541E-02  0.0000000000000E+00 -0.5907883864966E-03
-0.1003905282871E-02  0.4260606252838E-02  0.0000000000000E+00 -0.3922697514838E-03
-0.1032764823444E-02  0.4204022759759E-02  0.0000000000000E+00 -0.2968651208881E-03
-0.1036286074898E-02  0.4145895206896E-02  0.0000000000000E+00 -0.2657077765872E-03
-0.1030178291011E-02  0.4089292511888E-02  0.0000000000000E+00 -0.2665140279559E-03
-0.1019529434505E-02  0.4032723184099E-02  0.0000000000000E+00 -0.2832345250845E-03
-0.1006366750806E-02  0.3974653423492E-02  0.0000000000000E+00 -0.3077358585604E-03
-0.9915480877104E-03  0.3913936593139E-02  0.0000000000000E+00 -0.3357796677398E-03
-0.9754521020825E-03  0.3849826108329E-02  0.0000000000000E+00 -0.3652341473322E-03
-0.9582558272052E-03  0.3781861372299E-02  0.0000000000000E+00 -0.3950935430880E-03
-0.9400383785533E-03  0.3709759273586E-02  0.0000000000000E+00 -0.4249678954880E-03
-0.9208250653286E-03  0.3633337843688E-02  0.0000000000000E+00 -0.4547969461091E-03
-0.9006059600993E-03  0.3552466519080E-02  0.0000000000000E+00 -0.4846792583755E-03
-0.8793438089348E-03  0.3467037198030E-02  0.0000000000000E+00 -0.5147624236568E-03
-0.8569768384604E-03  0.3376949678461E-02  0.0000000000000E+00 -0.5451647011978E-03
-0.8334188359061E-03  0.3282109674923E-02  0.0000000000000E+00 -0.5759106325447E-03
-0.8085533108712E-03  0.3182428623382E-02  0.0000000000000E+00 -0.6068704528904E-03
-0.7822167744222E-03  0.3077821429096E-02  0.0000000000000E+00 -0.6376956604546E-03
-0.7541572217057E-03  0.2968180839504E-02  0.0000000000000E+00 -0.6677673109074E-03
-0.7239795786733E-03  0.2853302209409E-02  0.0000000000000E+00 -0.6962619823847E-03
-0.6912067810273E-03  0.2732830616026E-02  0.0000000000000E+00 -0.7224632129552E-03
-0.6556210465825E-03  0.2606431430198E-02  0.0000000000000E+00 -0.7460237846146E-03
-0.6176728162993E-03  0.2474284758889E-02  0.0000000000000E+00 -0.7663861627841E-03
-0.5783438820617E-03  0.2337213032851E-02  0.0000000000000E+00 -0.7818245702772E-03
-0.5385008702973E-03  0.2196288783709E-02  0.0000000000000E+00 -0.7893685211821E-03
-0.4984353648272E-03  0.2052640719356E-02  0.0000000000000E+00 -0.7854561395240E-03
-0.4578631947238E-03  0.1907551067213E-02  0.0000000000000E+00 -0.7665297866528E-03
-0.4161771779520E-03  0.1762614391539E-02  0.0000000000000E+00 -0.7292145684969E-03
-0.3727023854075E-03  0.1619798162278E-02  0.0000000000000E+00 -0.6701934736042E-03
-0.3268103020992E-03  0.1481344816757E-02  0.0000000000000E+00 -0.5860008367554E-03
-0.2778226718764E-03  0.1349467617781E-02  0.0000000000000E+00 -0.4730048699970E-03
-0.2247448535413E-03  0.1225694240551E-02  0.0000000000000E+00 -0.3282173444361E-03
-0.1662221595058E-03  0.1110014636518E-02  0.0000000000000E+00 -0.1511938062759E-03
-0.1011302160304E-03  0.1000050511482E-02  0.0000000000000E+00  0.5314728630196E-04
-0.3056236499893E-04  0.8894290368833E-03  0.0000000000000E+00  0.2662741386257E-03
 0.2703849203678E-04  0.7721355654823E-03  0.0000000000000E+00  0.4305348362754E-03
-0.2177047446872E-04  0.6841378287744E-03  0.0000000000000E+00  0.4511467828135E-03
-0.3821587045581E-03  0.7531675188169E-03  0.0000000000000E+00  0.4402309813028E-03
-0.1039301155855E-02  0.9761026045899E-03  0.0000000000000E+00  0.1099834129226E-02
-0.2872387263712E-03  0.4288149546487E-02  0.0000000000000E+00 -0.1054329531174E-02
-0.7613667099385E-03  0.4509416096869E-02  0.0000000000000E+00 -0.8905393199951E-03
-0.1007916851775E-02  0.4545426605247E-02  0.0000000000000E+00 -0.5367337851916E-03
-0.1080855210348E-02  0.4485424401082E-02  0.0000000000000E+00 -0.3173383562216E-03
-0.1093377652464E-02  0.4416955580799E-02  0.0000000000000E+00 -0.2314166239860E-03
-0.1090199935854E-02  0.4356499734540E-02  0.0000000000000E+00 -0.2076395742443E-03
-0.1081208343853E-02  0.4299970278528E-02  0.0000000000000E+00 -0.2111779472650E-03
-0.1069274829892E-02  0.4243918090493E-02  0.0000000000000E+00 -0.2277517511562E-03
-0.1055536145404E-02  0.4186092392992E-02  0.0000000000000E+00 -0.2502353100472E-03
-0.1040393662275E-02  0.4125102811911E-02  0.0000000000000E+00 -0.2751534310924E-03
-0.1024016900596E-02  0.4060163601319E-02  0.0000000000000E+00 -0.3008455586193E-03
-0.1006482096111E-02  0.3990837374531E-02  0.0000000000000E+00 -0.3265773866249E-03
-0.9878215691655E-03  0.3916883412990E-02  0.0000000000000E+00 -0.3521108522123E-03
-0.9680422901905E-03  0.3838161065430E-02  0.0000000000000E+00 -0.3774628939328E-03
-0.9471314916862E-03  0.3754573774898E-02  0.0000000000000E+00 -0.4027675924831E-03
-0.9250588900330E-03  0.3666039120144E-02  0.0000000000000E+00 -0.4281875091207E-03
-0.9017772143647E-03  0.3572476107818E-02  0.0000000000000E+00 -0.4538502294279E-03
-0.8772225644473E-03  0.3473807326475E-02  0.0000000000000E+00 -0.4797945823960E-03
-0.8513111306502E-03  0.3369965598600E-02  0.0000000000000E+00 -0.5059160770487E-03
-0.8239279318114E-03  0.3260903943105E-02  0.0000000000000E+00 -0.5318992316424E-03
-0.7948867869324E-03  0.3146587137887E-02  0.0000000000000E+00 -0.5571301536142E-03
-0.7638415306225E-03  0.3026907622360E-02  0.0000000000000E+00 -0.5806829615393E-03
-0.7302777110780E-03  0.2901554487057E-02  0.0000000000000E+00 -0.6016359357233E-03
-0.6938756696472E-03  0.2770099284655E-02  0.0000000000000E+00 -0.6195421145386E-03
-0.6550548651125E-03  0.2632502891718E-02  0.0000000000000E+00 -0.6339747796746E-03
-0.6148708654928E-03  0.2489319528749E-02  0.0000000000000E+00 -0.6434878929698E-03
-0.5742749097981E-03  0.2341410576347E-02  0.0000000000000E+00 -0.6455463776444E-03
-0.5336247769032E-03  0.2189884843388E-02  0.0000000000000E+00 -0.6372372894807E-03
-0.4927381058186E-03  0.2036274688722E-02  0.0000000000000E+00 -0.6157663248356E-03
-0.4511843578615E-03  0.1882676772823E-02  0.0000000000000E+00 -0.5784550705654E-03
-0.4085453631209E-03  0.1731755460858E-02  0.0000000000000E+00 -0.5224832863558E-03
-0.3645252055698E-03  0.1586624284001E-02  0.0000000000000E+00 -0.4445715397506E-03
-0.3188085765252E-03  0.1450555817065E-02  0.0000000000000E+00 -0.3407628044753E-03
-0.2706568615121E-03  0.1326340270889E-02  0.0000000000000E+00 -0.2069140680083E-03
-0.2185851909846E-03  0.1215328955800E-02  0.0000000000000E+00 -0.4015290937834E-04
-0.1607061154744E-03  0.1116381070173E-02  0.0000000000000E+00  0.1589494999809E-03
-0.9441606093796E-04  0.1023065232156E-02  0.0000000000000E+00  0.3821428827694E-03
-0.2152826485874E-04  0.9172194488929E-03  0.0000000000000E+00  0.5829875475967E-03
-0.1856330618610E-04  0.8043218940669E-03  0.0000000000000E+00  0.6088574959295E-03
-0.3860329040706E-03  0.8458888190999E-03  0.0000000000000E+00  0.4313063644914E-03
-0.1277219684099E-02  0.1144988546949E-02  0.0000000000000E+00  0.9866580657535E-03
-0.3551450518059E-03  0.4600766652545E-02  0.0000000000000E+00 -0.1247611005791E-02
-0.8976438889434E-03  0.4818351719439E-02  0.0000000000000E+00 -0.9016900454998E-03
-0.1117725943247E-02  0.4792697961108E-02  0.0000000000000E+00 -0.4391038652244E-03
-0.1152525743744E-02  0.4697362142671E-02  0.0000000000000E+00 -0.2293423384448E-03
-0.1150507765486E-02  0.4623630864132E-02  0.0000000000000E+00 -0.1658451618120E-03
-0.1142765676244E-02  0.4564447088296E-02  0.0000000000000E+00 -0.1510614243941E-03
-0.1131901708718E-02  0.4509864913714E-02  0.0000000000000E+00 -0.1574008505301E-03
-0.1119325574057E-02  0.4455447521942E-02  0.0000000000000E+00 -0.1732745488489E-03
-0.1105373240512E-02  0.4398474966194E-02  0.0000000000000E+00 -0.1930139518096E-03
-0.1090107117494E-02  0.4337560410605E-02  0.0000000000000E+00 -0.2141319125525E-03
-0.1073562653445E-02  0.4271990463765E-02  0.0000000000000E+00 -0.2354581968926E-03
-0.1055753272248E-02  0.4201420874917E-02  0.0000000000000E+00 -0.2565378854689E-03
-0.1036689385431E-02  0.4125692336069E-02  0.0000000000000E+00 -0.2772699237434E-03
-0.1016372855234E-02  0.4044727878104E-02  0.0000000000000E+00 -0.2977329046072E-03
-0.9947951393592E-03  0.3958476676198E-02  0.0000000000000E+00 -0.3180812072733E-03
-0.9719354970317E-03  0.3866886754530E-02  0.0000000000000E+00 -0.3384799477393E-03
-0.9477605834778E-03  0.3769896067692E-02  0.0000000000000E+00 -0.3590572095661E-03
-0.9222258196703E-03  0.3667439812725E-02  0.0000000000000E+00 -0.3798625673886E-03
-0.8952753627607E-03  0.3559464659635E-02  0.0000000000000E+00 -0.4008213740346E-03
-0.8668383779602E-03  0.3445952109492E-02  0.0000000000000E+00 -0.4216724138020E-03
-0.8368033037077E-03  0.3326939584413E-02  0.0000000000000E+00 -0.4418589995148E-03
-0.8049110976171E-03  0.3202462555540E-02  0.0000000000000E+00 -0.4603970562622E-03
-0.7706465885522E-03  0.3072348801673E-02  0.0000000000000E+00 -0.4760794831674E-03
-0.7335724474569E-03  0.2936131312003E-02  0.0000000000000E+00 -0.4881466358021E-03
-0.6940125511253E-03  0.2793461440890E-02  0.0000000000000E+00 -0.4960924001773E-03
-0.6530033557978E-03  0.2644399542599E-02  0.0000000000000E+00 -0.4986821073657E-03
-0.6114809842986E-03  0.2489370952939E-02  0.0000000000000E+00 -0.4939758131115E-03
-0.5698119027467E-03  0.2329363796697E-02  0.0000000000000E+00 -0.4800418896660E-03
-0.5279269165172E-03  0.2166193779312E-02  0.0000000000000E+00 -0.4551933777072E-03
-0.4856319860329E-03  0.2002566568458E-02  0.0000000000000E+00 -0.4177070039798E-03
-0.4428396344885E-03  0.1841963118534E-02  0.0000000000000E+00 -0.3654412306218E-03
-0.3996825984511E-03  0.1688481131425E-02  0.0000000000000E+00 -0.2955123850746E-03
-0.3563569120331E-03  0.1546621845747E-02  0.0000000000000E+00 -0.2039123612808E-03
-0.3126636236916E-03  0.1420758129018E-02  0.0000000000000E+00 -0.8575649328985E-04
-0.2674919190510E-03  0.1314368018354E-02  0.0000000000000E+00  0.6404823276857E-04
-0.2187902836033E-03  0.1228607401574E-02  0.0000000000000E+00  0.2492003202001E-03
-0.1638199416885E-03  0.1160618855779E-02  0.0000000000000E+00  0.4710224786206E-03
-0.8983461343098E-04  0.1089708334300E-02  0.0000000000000E+00  0.7174967909002E-03
-0.2052593355378E-04  0.9705926050361E-03  0.0000000000000E+00  0.8214945354861E-03
-0.3345493327314E-03  0.9515588061008E-03  0.0000000000000E+00  0.4940976665817E-03
-0.1549829623928E-02  0.1336406643145E-02  0.0000000000000E+00  0.8229189812356E-03
-0.4540484054689E-03  0.4972451120810E-02  0.0000000000000E+00 -0.1461618836702E-02
-0.1068036182015E-02  0.5140304683300E-02  0.0000000000000E+00 -0.8290953960854E-03
-0.1222720303046E-02  0.5011901667441E-02  0.0000000000000E+00 -0.2885742689208E-03
-0.1213691903480E-02  0.4892688580093E-02  0.0000000000000E+00 -0.1404470605468E-03
-0.1204133221523E-02  0.4824600466585E-02  0.0000000000000E+00 -0.1048608576106E-03
-0.1194062145480E-02  0.4769938376904E-02  0.0000000000000E+00 -0.9800947846192E-04
-0.1182444584519E-02  0.4719456106123E-02  0.0000000000000E+00 -0.1065717167614E-03
-0.1169922030298E-02  0.4667692632242E-02  0.0000000000000E+00 -0.1204581634965E-03
-0.1156071460495E-02  0.4612123743033E-02  0.0000000000000E+00 -0.1364648278877E-03
-0.1140857680298E-02  0.4551570041143E-02  0.0000000000000E+00 -0.1529281511719E-03
-0.1124229400305E-02  0.4485520275287E-02  0.0000000000000E+00 -0.1691982382263E-03
-0.1106188733995E-02  0.4413790435263E-02  0.0000000000000E+00 -0.1850545200009E-03
-0.1086745608146E-02  0.4336340281712E-02  0.0000000000000E+00 -0.2005037840362E-03
-0.1065910196034E-02  0.4253176962843E-02  0.0000000000000E+00 -0.2156583207026E-03
-0.1043684119617E-02  0.4164305462184E-02  0.0000000000000E+00 -0.2306706504985E-03
-0.1020057905085E-02  0.4069707490327E-02  0.0000000000000E+00 -0.2456910010623E-03
-0.9950105451485E-03  0.3969338223937E-02  0.0000000000000E+00 -0.2608351921264E-03
-0.9685123600909E-03  0.3863139346800E-02  0.0000000000000E+00 -0.2761563081481E-03
-0.9405286723534E-03  0.3751060924895E-02  0.0000000000000E+00 -0.2916106957967E-03
-0.9110226700990E-03  0.3633097236872E-02  0.0000000000000E+00 -0.3070071754226E-03
-0.8799534029091E-03  0.3509339979843E-02  0.0000000000000E+00 -0.3219105954041E-03
-0.8471913695807E-03  0.3379999019858E-02  0.0000000000000E+00 -0.3354016394418E-03
-0.8123033144487E-03  0.3245196674251E-02  0.0000000000000E+00 -0.3459784775103E-03
-0.7747688821497E-03  0.3104600509591E-02  0.0000000000000E+00 -0.3522554230839E-03
-0.7347423931052E-03  0.2957465837503E-02  0.0000000000000E+00 -0.3532048254551E-03
-0.6930726125571E-03  0.2802987069268E-02  0.0000000000000E+00 -0.3476144409650E-03
-0.6505036695422E-03  0.2640798618328E-02  0.0000000000000E+00 -0.3343966322273E-03
-0.6073300194265E-03  0.2471642834732E-02  0.0000000000000E+00 -0.3131104498079E-03
-0.5636271282671E-03  0.2297687889141E-02  0.0000000000000E+00 -0.2836372546408E-03
-0.5195268912245E-03  0.2122399517639E-02  0.0000000000000E+00 -0.2455085644365E-03
-0.4753633124098E-03  0.1950220891141E-02  0.0000000000000E+00 -0.1974262037153E-03
-0.4317607509564E-03  0.1786319111810E-02  0.0000000000000E+00 -0.1370751603561E-03
-0.3895657232968E-03  0.1636501017698E-02  0.0000000000000E+00 -0.6081110715250E-04
-0.3492713929759E-03  0.1506989662230E-02  0.0000000000000E+00  0.3650898216864E-04
-0.3108706005374E-03  0.1403974779788E-02  0.0000000000000E+00  0.1609256328367E-03
-0.2726059276726E-03  0.1332621558194E-02  0.0000000000000E+00  0.3211929054823E-03
-0.2333949080627E-03  0.1294293509196E-02  0.0000000000000E+00  0.5225780575199E-03
-0.1837362631650E-03  0.1284847838631E-02  0.0000000000000E+00  0.7899044885833E-03
-0.6290168523621E-04  0.1220491405383E-02  0.0000000000000E+00  0.1059928795939E-02
-0.2153361945824E-03  0.1119502054467E-02  0.0000000000000E+00  0.7148050193242E-03
-0.1862328285184E-02  0.1584081235707E-02  0.0000000000000E+00  0.6354661956208E-03
-0.6055545892852E-03  0.5462100113327E-02  0.0000000000000E+00 -0.1664711609363E-02
-0.1274137442924E-02  0.5438186141336E-02  0.0000000000000E+00 -0.5762175019329E-03
-0.1299455945794E-02  0.5173674547836E-02  0.0000000000000E+00 -0.1045922463721E-03
-0.1262686032170E-02  0.5076619898927E-02  0.0000000000000E+00 -0.7252283084873E-04
-0.1255681619999E-02  0.5019694929351E-02  0.0000000000000E+00 -0.4955536266969E-04
-0.1244017242765E-02  0.4973954537387E-02  0.0000000000000E+00 -0.5187226765924E-04
-0.1233381420056E-02  0.4929380536494E-02  0.0000000000000E+00 -0.5962320759893E-04
-0.1221334799079E-02  0.4881159413067E-02  0.0000000000000E+00 -0.6996623667381E-04
-0.1207888716182E-02  0.4827421035975E-02  0.0000000000000E+00 -0.8088813029029E-04
-0.1192835702854E-02  0.4767425809242E-02  0.0000000000000E+00 -0.9170755184462E-04
-0.1176171847252E-02  0.4700984137831E-02  0.0000000000000E+00 -0.1021521629357E-03
-0.1157914116469E-02  0.4628133267761E-02  0.0000000000000E+00 -0.1121803046256E-03
-0.1138096770394E-02  0.4548985078704E-02  0.0000000000000E+00 -0.1218535754043E-03
-0.1116748361377E-02  0.4463647865650E-02  0.0000000000000E+00 -0.1312805097696E-03
-0.1093885497687E-02  0.4372190134345E-02  0.0000000000000E+00 -0.1405824800019E-03
-0.1069510354103E-02  0.4274628539633E-02  0.0000000000000E+00 -0.1498726477622E-03
-0.1043611633087E-02  0.4170932144250E-02  0.0000000000000E+00 -0.1592380531827E-03
-0.1016168815626E-02  0.4061041468865E-02  0.0000000000000E+00 -0.1687237062192E-03
-0.9871593790674E-03  0.3944896526126E-02  0.0000000000000E+00 -0.1783134475398E-03
-0.9565671008856E-03  0.3822484311879E-02  0.0000000000000E+00 -0.1878945216542E-03
-0.9243969362965E-03  0.3693913887700E-02  0.0000000000000E+00 -0.1971987771424E-03
-0.8906664400513E-03  0.3559538315991E-02  0.0000000000000E+00 -0.2055851088489E-03
-0.8551654288594E-03  0.3419973441839E-02  0.0000000000000E+00 -0.2114749162866E-03
-0.8174543739957E-03  0.3275463386563E-02  0.0000000000000E+00 -0.2124636857177E-03
-0.7774548034721E-03  0.3124835343950E-02  0.0000000000000E+00 -0.2060745234772E-03
-0.7355074916852E-03  0.2965750445130E-02  0.0000000000000E+00 -0.1906988106573E-03
-0.6918573822743E-03  0.2796497469356E-02  0.0000000000000E+00 -0.1665848877752E-03
-0.6466327544508E-03  0.2617448467887E-02  0.0000000000000E+00 -0.1355743822851E-03
-0.6001277139757E-03  0.2431261039272E-02  0.0000000000000E+00 -0.9971600393052E-04
-0.5529368231822E-03  0.2242374697622E-02  0.0000000000000E+00 -0.6013370067548E-04
-0.5059336481573E-03  0.2056386440160E-02  0.0000000000000E+00 -0.1649502208093E-04
-0.4602865890346E-03  0.1879606819027E-02  0.0000000000000E+00  0.3288106625030E-04
-0.4174668429601E-03  0.1719052539077E-02  0.0000000000000E+00  0.9088848804892E-04
-0.3790009707763E-03  0.1582916788226E-02  0.0000000000000E+00  0.1618465704218E-03
-0.3457458251944E-03  0.1480660733296E-02  0.0000000000000E+00  0.2521762283726E-03
-0.3195378982791E-03  0.1422574128882E-02  0.0000000000000E+00  0.3710807421560E-03
-0.2948444180682E-03  0.1417160357657E-02  0.0000000000000E+00  0.5375059129099E-03
-0.2894700648329E-03  0.1474773496953E-02  0.0000000000000E+00  0.7531659119140E-03
-0.2042272377325E-03  0.1579599702733E-02  0.0000000000000E+00  0.1191488151910E-02
-0.5108251875535E-04  0.1479956157504E-02  0.0000000000000E+00  0.1189547649851E-02
-0.2219396616977E-02  0.2011608216516E-02  0.0000000000000E+00  0.5840180500976E-03
-0.8406319953518E-03  0.6246649991529E-02  0.0000000000000E+00 -0.1669525988348E-02
-0.1482938671036E-02  0.5502334213425E-02  0.0000000000000E+00  0.4868364773413E-04
-0.1306839684608E-02  0.5305602413955E-02  0.0000000000000E+00 -0.3694840268715E-04
-0.1315959829011E-02  0.5249106457177E-02  0.0000000000000E+00 -0.8969118475682E-05
-0.1301789621537E-02  0.5210848569384E-02  0.0000000000000E+00 -0.1063708812073E-04
-0.1294552630994E-02  0.5177811785579E-02  0.0000000000000E+00 -0.1350067190719E-04
-0.1284986437528E-02  0.5140487892368E-02  0.0000000000000E+00 -0.1778488686734E-04
-0.1274029281467E-02  0.5096461280916E-02  0.0000000000000E+00 -0.2220820080443E-04
-0.1261097316235E-02  0.5044802103135E-02  0.0000000000000E+00 -0.2650729876673E-04
-0.1246260055161E-02  0.4985449861354E-02  0.0000000000000E+00 -0.3056066992434E-04
-0.1229553353618E-02  0.4918626534468E-02  0.0000000000000E+00 -0.3435971096148E-04
-0.1211059652598E-02  0.4844642141515E-02  0.0000000000000E+00 -0.3793579999990E-04
-0.1190850111748E-02  0.4763785692646E-02  0.0000000000000E+00 -0.4133997567532E-04
-0.1168980519348E-02  0.4676279032027E-02  0.0000000000000E+00 -0.4462921472589E-04
-0.1145484958027E-02  0.4582258711370E-02  0.0000000000000E+00 -0.4785901611679E-04
-0.1120376052994E-02  0.4481775800268E-02  0.0000000000000E+00 -0.5107790127105E-04
-0.1093648497388E-02  0.4374806876615E-02  0.0000000000000E+00 -0.5432554782835E-04
-0.1065284286951E-02  0.4261284609099E-02  0.0000000000000E+00 -0.5762177056480E-04
-0.1035261988643E-02  0.4141120694624E-02  0.0000000000000E+00 -0.6096837463439E-04
-0.1003569857787E-02  0.4014272922681E-02  0.0000000000000E+00 -0.6433236476487E-04
-0.9702265979754E-03  0.3880823223299E-02  0.0000000000000E+00 -0.6762435318750E-04
-0.9353249854678E-03  0.3741150681651E-02  0.0000000000000E+00 -0.7064493081610E-04
-0.8990329441882E-03  0.3596384997649E-02  0.0000000000000E+00 -0.7252447242151E-04
-0.8614790444526E-03  0.3448438192246E-02  0.0000000000000E+00 -0.6962644614653E-04
-0.8223703397677E-03  0.3295913344986E-02  0.0000000000000E+00 -0.5593919476668E-04
-0.7808755038468E-03  0.3133544927200E-02  0.0000000000000E+00 -0.2863517685808E-04
-0.7362273505484E-03  0.2957499309655E-02  0.0000000000000E+00  0.9636343628494E-05
-0.6883233306624E-03  0.2767705790240E-02  0.0000000000000E+00  0.5357246230028E-04
-0.6378289531048E-03  0.2567563264261E-02  0.0000000000000E+00  0.9819407528378E-04
-0.5859966928063E-03  0.2362791385114E-02  0.0000000000000E+00  0.1404514813745E-03
-0.5344186238816E-03  0.2160370318655E-02  0.0000000000000E+00  0.1795955171048E-03
-0.4848461029425E-03  0.1967920229066E-02  0.0000000000000E+00  0.2168614173451E-03
-0.4392410344317E-03  0.1793295563257E-02  0.0000000000000E+00  0.2542168599649E-03
-0.3999543470541E-03  0.1646327562160E-02  0.0000000000000E+00  0.2936180954395E-03
-0.3701489848674E-03  0.1540726607349E-02  0.0000000000000E+00  0.3398686353028E-03
-0.3516201459292E-03  0.1491840929302E-02  0.0000000000000E+00  0.4029618257285E-03
-0.3529803726350E-03  0.1518909058160E-02  0.0000000000000E+00  0.4988092006617E-03
-0.3506207820732E-03  0.1640377503473E-02  0.0000000000000E+00  0.6566220321580E-03
-0.4868606469759E-03  0.1937117549407E-02  0.0000000000000E+00  0.8946195823387E-03
 0.2733661045262E-04  0.2303628805139E-02  0.0000000000000E+00  0.1772449767834E-02
-0.2747519064596E-02  0.3147670173941E-02  0.0000000000000E+00  0.1291378639570E-02
 0.4571625540713E-01 -0.1038143742852E+00  0.0000000000000E+00 -0.2524115591822E+00
 0.8249372647713E-01 -0.1382158494792E+00  0.0000000000000E+00 -0.2677883879765E+00
 0.1173840241379E+00 -0.1707255405974E+00  0.0000000000000E+00 -0.2742744798535E+00
 0.1492966190396E+00 -0.2002595163694E+00  0.0000000000000E+00 -0.2737887506266E+00
 0.1778335525303E+00 -0.2264718302919E+00  0.0000000000000E+00 -0.2683235291938E+00
 0.2029855283997E+00 -0.2493705530065E+00  0.0000000000000E+00 -0.2593462102525E+00
 0.2248434624589E+00 -0.2690684460300E+00  0.0000000000000E+00 -0.2479425432400E+00
 0.2436009721204E+00 -0.2857814640347E+00  0.0000000000000E+00 -0.2352134182386E+00
 0.2595727408232E+00 -0.2998402036200E+00  0.0000000000000E+00 -0.2220823892374E+00
 0.2731186338058E+00 -0.3116142320006E+00  0.0000000000000E+00 -0.2091763191738E+00
 0.2845819348134E+00 -0.3214529575717E+00  0.0000000000000E+00 -0.1969076518164E+00
 0.2942747620274E+00 -0.3296734999360E+00  0.0000000000000E+00 -0.1855551667332E+00
 0.3024811937878E+00 -0.3365641839254E+00  0.0000000000000E+00 -0.1752977708565E+00
 0.3094533138786E+00 -0.3423808999317E+00  0.0000000000000E+00 -0.1662243338941E+00
 0.3154041530022E+00 -0.3473399100452E+00  0.0000000000000E+00 -0.1583637002268E+00
 0.3205043295339E+00 -0.3516144776264E+00  0.0000000000000E+00 -0.1517107953333E+00
 0.3248531423731E+00 -0.3553160491371E+00  0.0000000000000E+00 -0.1462177101366E+00
 0.3284926603192E+00 -0.3584978752421E+00  0.0000000000000E+00 -0.1419475012766E+00
 0.3314852228034E+00 -0.3612194712216E+00  0.0000000000000E+00 -0.1390902574058E+00
 0.3338177863099E+00 -0.3635353814327E+00  0.0000000000000E+00 -0.1375435927049E+00
 0.4280960799400E-01 -0.9966325954901E-01  0.0000000000000E+00 -0.2377606119600E+00
 0.7851833046436E-01 -0.1331008384612E+00  0.0000000000000E+00 -0.2544093114925E+00
 0.1125053310011E+00 -0.1647862439076E+00  0.0000000000000E+00 -0.2629694362407E+00
 0.1438099835451E+00 -0.1938103324682E+00  0.0000000000000E+00 -0.2649309159229E+00
 0.1720347471265E+00 -0.2197998554742E+00  0.0000000000000E+00 -0.2618821217211E+00
 0.1971115948176E+00 -0.2427124462240E+00  0.0000000000000E+00 -0.2551354838487E+00
 0.2190985602712E+00 -0.2626267895268E+00  0.0000000000000E+00 -0.2457097277985E+00
 0.2381517131479E+00 -0.2797182699591E+00  0.0000000000000E+00 -0.2346183000349E+00
 0.2545347025001E+00 -0.2942650084813E+00  0.0000000000000E+00 -0.2227341684615E+00
 0.2685599433622E+00 -0.3065891544583E+00  0.0000000000000E+00 -0.2106913910452E+00
 0.2805365889391E+00 -0.3170066454650E+00  0.0000000000000E+00 -0.1989357526296E+00
 0.2907538444535E+00 -0.3258120118536E+00  0.0000000000000E+00 -0.1877848792249E+00
 0.2994800883250E+00 -0.3332783584164E+00  0.0000000000000E+00 -0.1774572896638E+00
 0.3069582264837E+00 -0.3396529989289E+00  0.0000000000000E+00 -0.1680835756449E+00
 0.3133984908876E+00 -0.3451504703992E+00  0.0000000000000E+00 -0.1597292744750E+00
 0.3189679616807E+00 -0.3499440960437E+00  0.0000000000000E+00 -0.1524116909511E+00
 0.3237682207882E+00 -0.3541442722715E+00  0.0000000000000E+00 -0.1461280549769E+00
 0.3278596938622E+00 -0.3578205594256E+00  0.0000000000000E+00 -0.1409646186522E+00
 0.3312716496269E+00 -0.3610236626115E+00  0.0000000000000E+00 -0.1370439295174E+00
 0.3339380678116E+00 -0.3637012962691E+00  0.0000000000000E+00 -0.1345361844591E+00
 0.4012628332158E-01 -0.9577807790161E-01  0.0000000000000E+00 -0.2234685477505E+00
 0.7487330488474E-01 -0.1283278341120E+00  0.0000000000000E+00 -0.2413132335407E+00
 0.1080172733916E+00 -0.1592563513085E+00  0.0000000000000E+00 -0.2517572083763E+00
 0.1387151504745E+00 -0.1877576179730E+00  0.0000000000000E+00 -0.2559040369721E+00
 0.1665809170332E+00 -0.2134744387227E+00  0.0000000000000E+00 -0.2550554513982E+00
 0.1915137546213E+00 -0.2363273036664E+00  0.0000000000000E+00 -0.2503547545586E+00
 0.2135417795121E+00 -0.2563649501622E+00  0.0000000000000E+00 -0.2427563067735E+00
 0.2327921546979E+00 -0.2737320331645E+00  0.0000000000000E+00 -0.2331983776227E+00
 0.2494880290076E+00 -0.2886650638253E+00  0.0000000000000E+00 -0.2225034659236E+00
 0.2639013455177E+00 -0.3014455013043E+00  0.0000000000000E+00 -0.2113010505499E+00
 0.2763097916001E+00 -0.3123579991193E+00  0.0000000000000E+00 -0.2000581953670E+00
 0.2869802444930E+00 -0.3216750793402E+00  0.0000000000000E+00 -0.1891223092832E+00
 0.2961651433199E+00 -0.3296543007259E+00  0.0000000000000E+00 -0.1787439250824E+00
 0.3040967188202E+00 -0.3365329346539E+00  0.0000000000000E+00 -0.1690870925200E+00
 0.3109778239952E+00 -0.3425193790574E+00  0.0000000000000E+00 -0.1602478873154E+00
 0.3169702416509E+00 -0.3477820482552E+00  0.0000000000000E+00 -0.1522760815702E+00
 0.3221797438307E+00 -0.3524352154998E+00  0.0000000000000E+00 -0.1452070713269E+00
 0.3266670070660E+00 -0.3565516966737E+00  0.0000000000000E+00 -0.1391380613375E+00
 0.3304573319798E+00 -0.3601689373876E+00  0.0000000000000E+00 -0.1342452078584E+00
 0.3335233203191E+00 -0.3632720342179E+00  0.0000000000000E+00 -0.1308296898851E+00
 0.3764364828508E-01 -0.9211785343247E-01  0.0000000000000E+00 -0.2095087217095E+00
 0.7151867824716E-01 -0.1238646816447E+00  0.0000000000000E+00 -0.2284869422241E+00
 0.1038661955769E+00 -0.1540731976293E+00  0.0000000000000E+00 -0.2406378332414E+00
 0.1339560564104E+00 -0.1820466449404E+00  0.0000000000000E+00 -0.2467611483396E+00
 0.1614240537646E+00 -0.2074460377680E+00  0.0000000000000E+00 -0.2479136660000E+00
 0.1861506222848E+00 -0.2301727216372E+00  0.0000000000000E+00 -0.2450944876718E+00
 0.2081427329709E+00 -0.2502523514126E+00  0.0000000000000E+00 -0.2391869531425E+00
 0.2275035733683E+00 -0.2678043935354E+00  0.0000000000000E+00 -0.2310615424175E+00
 0.2444234062132E+00 -0.2830315837284E+00  0.0000000000000E+00 -0.2214933622727E+00
 0.2591399351798E+00 -0.2961808198810E+00  0.0000000000000E+00 -0.2111005909773E+00
 0.2719025396018E+00 -0.3075084608944E+00  0.0000000000000E+00 -0.2003619690347E+00
 0.2829566716303E+00 -0.3172657856981E+00  0.0000000000000E+00 -0.1896463715897E+00
 0.2925385414051E+00 -0.3256944617978E+00  0.0000000000000E+00 -0.1792296651480E+00
 0.3008681568792E+00 -0.3330200957212E+00  0.0000000000000E+00 -0.1693038581237E+00
 0.3081392675855E+00 -0.3394425255695E+00  0.0000000000000E+00 -0.1599945920559E+00
 0.3145080203725E+00 -0.3451248837498E+00  0.0000000000000E+00 -0.1513839724545E+00
 0.3200805314628E+00 -0.3501821419661E+00  0.0000000000000E+00 -0.1435429629565E+00
 0.3249215278927E+00 -0.3546890460687E+00  0.0000000000000E+00 -0.1366022588578E+00
 0.3290695750694E+00 -0.3586942722695E+00  0.0000000000000E+00 -0.1307815522739E+00
 0.3325444979523E+00 -0.3622267630896E+00  0.0000000000000E+00 -0.1264329289774E+00
 0.3534304079138E-01 -0.8866041744237E-01  0.0000000000000E+00 -0.1958383807171E+00
 0.6841603512060E-01 -0.1196679562926E+00  0.0000000000000E+00 -0.2159097029462E+00
 0.1000048255064E+00 -0.1491888374129E+00  0.0000000000000E+00 -0.2296231330321E+00
 0.1294844515392E+00 -0.1766267858243E+00  0.0000000000000E+00 -0.2375420866008E+00
 0.1565205709714E+00 -0.2016704181306E+00  0.0000000000000E+00 -0.2405221848381E+00
 0.1809861802617E+00 -0.2242119199902E+00  0.0000000000000E+00 -0.2394345235351E+00
 0.2028738513587E+00 -0.2442611845971E+00  0.0000000000000E+00 -0.2350926062173E+00
 0.2222676641525E+00 -0.2619172095235E+00  0.0000000000000E+00 -0.2283035583544E+00
 0.2393307126728E+00 -0.2773548052581E+00  0.0000000000000E+00 -0.2197981868106E+00
 0.2542716633840E+00 -0.2907914716862E+00  0.0000000000000E+00 -0.2101793671978E+00
 0.2673146362693E+00 -0.3024582198315E+00  0.0000000000000E+00 -0.1999303868817E+00
 0.2786847986980E+00 -0.3125861281981E+00  0.0000000000000E+00 -0.1894347451821E+00
 0.2886020803618E+00 -0.3214008196417E+00  0.0000000000000E+00 -0.1789882509520E+00
 0.2972735684205E+00 -0.3291153077436E+00  0.0000000000000E+00 -0.1688072775851E+00
 0.3048832693648E+00 -0.3359200088379E+00  0.0000000000000E+00 -0.1590453127153E+00
 0.3115812005823E+00 -0.3419721497226E+00  0.0000000000000E+00 -0.1498161681550E+00
 0.3174740844238E+00 -0.3473867427271E+00  0.0000000000000E+00 -0.1412282410611E+00
 0.3226340194477E+00 -0.3522447633962E+00  0.0000000000000E+00 -0.1334453049254E+00
 0.3271167258422E+00 -0.3566102677699E+00  0.0000000000000E+00 -0.1267151633599E+00
 0.3309814110498E+00 -0.3605500364953E+00  0.0000000000000E+00 -0.1213985689085E+00
 0.3320899163295E-01 -0.8538577651838E-01  0.0000000000000E+00 -0.1824287302185E+00
 0.6553295470775E-01 -0.1157023486793E+00  0.0000000000000E+00 -0.2035656914778E+00
 0.9639173396322E-01 -0.1445594584469E+00  0.0000000000000E+00 -0.2187233550411E+00
 0.1252579251287E+00 -0.1714543663251E+00  0.0000000000000E+00 -0.2282834978403E+00
 0.1518320187737E+00 -0.1961080083613E+00  0.0000000000000E+00 -0.2329377754236E+00
 0.1759881546937E+00 -0.2184120805493E+00  0.0000000000000E+00 -0.2334458186873E+00
 0.1977101663616E+00 -0.2383662323071E+00  0.0000000000000E+00 -0.2305537625160E+00
 0.2170671371845E+00 -0.2560532596045E+00  0.0000000000000E+00 -0.2250101793138E+00
 0.2341997484836E+00 -0.2716247877302E+00  0.0000000000000E+00 -0.2175042297921E+00
 0.2492919153481E+00 -0.2852731812663E+00  0.0000000000000E+00 -0.2086210369308E+00
 0.2625452724180E+00 -0.2972068095672E+00  0.0000000000000E+00 -0.1988432626569E+00
 0.2741659850753E+00 -0.3076377479902E+00  0.0000000000000E+00 -0.1885637220725E+00
 0.2843580592313E+00 -0.3167758059359E+00  0.0000000000000E+00 -0.1780939407654E+00
 0.2933155823462E+00 -0.3248211647290E+00  0.0000000000000E+00 -0.1676715980690E+00
 0.3012127313455E+00 -0.3319545580672E+00  0.0000000000000E+00 -0.1574762003320E+00
 0.3081938800059E+00 -0.3383274893861E+00  0.0000000000000E+00 -0.1476524241381E+00
 0.3143670429104E+00 -0.3440557641064E+00  0.0000000000000E+00 -0.1383434686893E+00
 0.3198125960700E+00 -0.3492276973334E+00  0.0000000000000E+00 -0.1297413254214E+00
 0.3246019968438E+00 -0.3539220912261E+00  0.0000000000000E+00 -0.1221096346959E+00
 0.3288223286976E+00 -0.3582322908615E+00  0.0000000000000E+00 -0.1157977398484E+00
 0.3122817186891E-01 -0.8227672066702E-01  0.0000000000000E+00 -0.1692585563042E+00
 0.6284151079436E-01 -0.1119369979995E+00  0.0000000000000E+00 -0.1914437512311E+00
 0.9299104939047E-01 -0.1401471852845E+00  0.0000000000000E+00 -0.2079484361253E+00
 0.1212393033758E+00 -0.1664907579816E+00  0.0000000000000E+00 -0.2190175260242E+00
 0.1473243680600E+00 -0.1907238537158E+00  0.0000000000000E+00 -0.2252105432915E+00
 0.1711277389331E+00 -0.2127438131002E+00  0.0000000000000E+00 -0.2271911130434E+00
 0.1926290820395E+00 -0.2325446711363E+00  0.0000000000000E+00 -0.2256422934689E+00
 0.2118860186618E+00 -0.2501965910476E+00  0.0000000000000E+00 -0.2212587356057E+00
 0.2290207568182E+00 -0.2658319727317E+00  0.0000000000000E+00 -0.2146906283113E+00
 0.2441960663741E+00 -0.2796216137761E+00  0.0000000000000E+00 -0.2065038975865E+00
 0.2575935808169E+00 -0.2917536729674E+00  0.0000000000000E+00 -0.1971768924196E+00
 0.2694018446410E+00 -0.3024225255649E+00  0.0000000000000E+00 -0.1871077151612E+00
 0.2798096220535E+00 -0.3118227432699E+00  0.0000000000000E+00 -0.1766201747448E+00
 0.2889983537598E+00 -0.3201418965724E+00  0.0000000000000E+00 -0.1659705033152E+00
 0.2971328053482E+00 -0.3275512908257E+00  0.0000000000000E+00 -0.1553621382160E+00
 0.3043524050858E+00 -0.3341973093618E+00  0.0000000000000E+00 -0.1449682533765E+00
 0.3107667658513E+00 -0.3401968967872E+00  0.0000000000000E+00 -0.1349625509813E+00
 0.3164639271842E+00 -0.3456453954281E+00  0.0000000000000E+00 -0.1255596140941E+00
 0.3215277895954E+00 -0.3506333802591E+00  0.0000000000000E+00 -0.1170312357186E+00
 0.3260621612011E+00 -0.3552701924432E+00  0.0000000000000E+00 -0.1097076036348E+00
 0.2938909823440E-01 -0.7931821084597E-01  0.0000000000000E+00 -0.1563133938759E+00
 0.6031768733050E-01 -0.1083452327675E+00  0.0000000000000E+00 -0.1795365642511E+00
 0.8977173949351E-01 -0.1359190562101E+00  0.0000000000000E+00 -0.1973080220116E+00
 0.1173961204949E+00 -0.1617021531256E+00  0.0000000000000E+00 -0.2097725096933E+00
 0.1429675804661E+00 -0.1854870052277E+00  0.0000000000000E+00 -0.2173845461309E+00
 0.1663792867786E+00 -0.2071809360912E+00  0.0000000000000E+00 -0.2207261257687E+00
 0.1876103158791E+00 -0.2267759809651E+00  0.0000000000000E+00 -0.2204225654966E+00
 0.2067098062880E+00 -0.2443327025945E+00  0.0000000000000E+00 -0.2171192732924E+00
 0.2237847816028E+00 -0.2599675672835E+00  0.0000000000000E+00 -0.2114301270533E+00
 0.2389799136216E+00 -0.2738328261248E+00  0.0000000000000E+00 -0.2039012042483E+00
 0.2524590695756E+00 -0.2860986137052E+00  0.0000000000000E+00 -0.1950039627788E+00
 0.2643945971697E+00 -0.2969429632910E+00  0.0000000000000E+00 -0.1851387271595E+00
 0.2749609202066E+00 -0.3065460216012E+00  0.0000000000000E+00 -0.1746387232818E+00
 0.2843274861317E+00 -0.3150832927594E+00  0.0000000000000E+00 -0.1637761078561E+00
 0.2926502833317E+00 -0.3227171876525E+00  0.0000000000000E+00 -0.1527756532544E+00
 0.3000643975027E+00 -0.3295895212205E+00  0.0000000000000E+00 -0.1418357458103E+00
 0.3066809286719E+00 -0.3358183466509E+00  0.0000000000000E+00 -0.1311557894557E+00
 0.3125942650042E+00 -0.3415049052218E+00  0.0000000000000E+00 -0.1209680796551E+00
 0.3178970847848E+00 -0.3467481601800E+00  0.0000000000000E+00 -0.1115482751026E+00
 0.3227008543500E+00 -0.3516647998724E+00  0.0000000000000E+00 -0.1032071898974E+00
 0.2768183866187E-01 -0.7649711095759E-01  0.0000000000000E+00 -0.1435842279272E+00
 0.5794082815341E-01 -0.1049039590138E+00  0.0000000000000E+00 -0.1678399347987E+00
 0.8670700415797E-01 -0.1318464877442E+00  0.0000000000000E+00 -0.1868114587428E+00
 0.1137000940221E+00 -0.1570590020413E+00  0.0000000000000E+00 -0.2005734746384E+00
 0.1387352404772E+00 -0.1803701959890E+00  0.0000000000000E+00 -0.2094986025058E+00
 0.1617200870342E+00 -0.2017002269398E+00  0.0000000000000E+00 -0.2141004057242E+00
 0.1826358263141E+00 -0.2210418915228E+00  0.0000000000000E+00 -0.2149523884414E+00
 0.2015255730479E+00 -0.2384486560826E+00  0.0000000000000E+00 -0.2126553915432E+00
 0.2184839057875E+00 -0.2540238005801E+00  0.0000000000000E+00 -0.2077896800642E+00
 0.2336399861902E+00 -0.2679035941834E+00  0.0000000000000E+00 -0.2008814231205E+00
 0.2471419235973E+00 -0.2802421158850E+00  0.0000000000000E+00 -0.1923934456371E+00
 0.2591472880209E+00 -0.2912024208562E+00  0.0000000000000E+00 -0.1827259415280E+00
 0.2698171873147E+00 -0.3009511833265E+00  0.0000000000000E+00 -0.1722190819805E+00
 0.2793098753267E+00 -0.3096525604025E+00  0.0000000000000E+00 -0.1611583325315E+00
 0.2877732329009E+00 -0.3174606696754E+00  0.0000000000000E+00 -0.1497868467465E+00
 0.2953384203129E+00 -0.3245131535601E+00  0.0000000000000E+00 -0.1383244963479E+00
 0.3021176443755E+00 -0.3309288520059E+00  0.0000000000000E+00 -0.1269917319657E+00
 0.3082101423866E+00 -0.3368135448478E+00  0.0000000000000E+00 -0.1160346343287E+00
 0.3137141210380E+00 -0.3422715386023E+00  0.0000000000000E+00 -0.1057310278619E+00
 0.3187422582740E+00 -0.3474207057448E+00  0.0000000000000E+00 -0.9637660413569E-01
 0.2609778152965E-01 -0.7380193514518E-01  0.0000000000000E+00 -0.1310665736281E+00
 0.5569319598170E-01 -0.1015932267647E+00  0.0000000000000E+00 -0.1563522120175E+00
 0.8377375842262E-01 -0.1279047532773E+00  0.0000000000000E+00 -0.1764678007199E+00
 0.1101266833538E+00 -0.1525355899788E+00  0.0000000000000E+00 -0.1914426025257E+00
 0.1346042503664E+00 -0.1753495339635E+00  0.0000000000000E+00 -0.2015869839124E+00
 0.1571301900915E+00 -0.1962812590261E+00  0.0000000000000E+00 -0.2073580841045E+00
 0.1776897652719E+00 -0.2153263386824E+00  0.0000000000000E+00 -0.2092837583667E+00
 0.1963220463949E+00 -0.2325331685559E+00  0.0000000000000E+00 -0.2079249081892E+00
 0.2131114341960E+00 -0.2479941196552E+00  0.0000000000000E+00 -0.2038309141691E+00
 0.2281737785487E+00 -0.2618316610068E+00  0.0000000000000E+00 -0.1975084259846E+00
 0.2416432277797E+00 -0.2741855808602E+00  0.0000000000000E+00 -0.1894105172583E+00
 0.2536639448348E+00 -0.2852052826740E+00  0.0000000000000E+00 -0.1799354264882E+00
 0.2643847818165E+00 -0.2950449725999E+00  0.0000000000000E+00 -0.1694280797293E+00
 0.2739536305332E+00 -0.3038582323627E+00  0.0000000000000E+00 -0.1581846561805E+00
 0.2825108729682E+00 -0.3117914471929E+00  0.0000000000000E+00 -0.1464635660855E+00
 0.2901839804035E+00 -0.3189783078212E+00  0.0000000000000E+00 -0.1345023468901E+00
 0.2970857530508E+00 -0.3255379645660E+00  0.0000000000000E+00 -0.1225382032306E+00
 0.3033188984480E+00 -0.3315794428516E+00  0.0000000000000E+00 -0.1108278797659E+00
 0.3089847693008E+00 -0.3372101439287E+00  0.0000000000000E+00 -0.9965122350392E-01
 0.3141933737208E+00 -0.3425454920854E+00  0.0000000000000E+00 -0.8929533077477E-01
 0.2462941882216E-01 -0.7122261816473E-01  0.0000000000000E+00 -0.1187596476409E+00
 0.5355958196328E-01 -0.9839583292837E-01  0.0000000000000E+00 -0.1450737914110E+00
 0.8095217701560E-01 -0.1240725319442E+00  0.0000000000000E+00 -0.1662857941418E+00
 0.1066546899289E+00 -0.1481096402061E+00  0.0000000000000E+00 -0.1823996063266E+00
 0.1305545448968E+00 -0.1704042229111E+00  0.0000000000000E+00 -0.1936799938234E+00
 0.1525922352725E+00 -0.1909062328168E+00  0.0000000000000E+00 -0.2005384958948E+00
 0.1727584091917E+00 -0.2096154031504E+00  0.0000000000000E+00 -0.2034634661480E+00
 0.1910896383639E+00 -0.2265766509718E+00  0.0000000000000E+00 -0.2029803894648E+00
 0.2076620021130E+00 -0.2418733089296E+00  0.0000000000000E+00 -0.1996105008427E+00
 0.2225798984748E+00 -0.2556158956563E+00  0.0000000000000E+00 -0.1938416518613E+00
 0.2359651084151E+00 -0.2679314783438E+00  0.0000000000000E+00 -0.1861165138517E+00
 0.2479496730424E+00 -0.2789570599386E+00  0.0000000000000E+00 -0.1768299432432E+00
 0.2586712178881E+00 -0.2888353651167E+00  0.0000000000000E+00 -0.1663296582836E+00
 0.2682680622820E+00 -0.2977101445014E+00  0.0000000000000E+00 -0.1549200263839E+00
 0.2768735952715E+00 -0.3057205195573E+00  0.0000000000000E+00 -0.1428715872620E+00
 0.2846116855409E+00 -0.3129962986266E+00  0.0000000000000E+00 -0.1304358371351E+00
 0.2915951682076E+00 -0.3196563969450E+00  0.0000000000000E+00 -0.1178628527556E+00
 0.2979290973166E+00 -0.3258119963597E+00  0.0000000000000E+00 -0.1054174247082E+00
 0.3037165714233E+00 -0.3315722552496E+00  0.0000000000000E+00 -0.9338175240164E-01
 0.3090636518140E+00 -0.3370490273012E+00  0.0000000000000E+00 -0.8204125215862E-01
 0.2327016352285E-01 -0.6875031408616E-01  0.0000000000000E+00 -0.1066656878612E+00
 0.5152697372802E-01 -0.9529698208958E-01  0.0000000000000E+00 -0.1340067283424E+00
 0.7822530791389E-01 -0.1203315202114E+00  0.0000000000000E+00 -0.1562738856621E+00
 0.1032659146433E+00 -0.1437619730239E+00  0.0000000000000E+00 -0.1734620575611E+00
 0.1265688424220E+00 -0.1655163153488E+00  0.0000000000000E+00 -0.1858044596097E+00
 0.1480912971286E+00 -0.1855598256858E+00  0.0000000000000E+00 -0.1936767039910E+00
 0.1678300916581E+00 -0.2038972477876E+00  0.0000000000000E+00 -0.1975335972524E+00
 0.1858204571709E+00 -0.2205712263527E+00  0.0000000000000E+00 -0.1978695750069E+00
 0.2021316480608E+00 -0.2356575702721E+00  0.0000000000000E+00 -0.1951804482166E+00
 0.2168581710672E+00 -0.2492564044699E+00  0.0000000000000E+00 -0.1899362332629E+00
 0.2301108357382E+00 -0.2614834546180E+00  0.0000000000000E+00 -0.1825689011850E+00
 0.2420107336530E+00 -0.2724644704292E+00  0.0000000000000E+00 -0.1734688133354E+00
 0.2526852165360E+00 -0.2823316156610E+00  0.0000000000000E+00 -0.1629847258511E+00
 0.2622637367016E+00 -0.2912194797571E+00  0.0000000000000E+00 -0.1514267969059E+00
 0.2708730808786E+00 -0.2992602788632E+00  0.0000000000000E+00 -0.1390746885538E+00
 0.2786334830688E+00 -0.3065798849633E+00  0.0000000000000E+00 -0.1261903770441E+00
 0.2856572520116E+00 -0.3132964084768E+00  0.0000000000000E+00 -0.1130333141670E+00
 0.2920509014100E+00 -0.3195222966243E+00  0.0000000000000E+00 -0.9987394217061E-01
 0.2979186448396E+00 -0.3253678151589E+00  0.0000000000000E+00 -0.8699662043169E-01
 0.3033633427591E+00 -0.3309420276797E+00  0.0000000000000E+00 -0.7468937433325E-01
 0.2201418551153E-01 -0.6637721750091E-01  0.0000000000000E+00 -0.9478936315079E-01
 0.4958426369804E-01 -0.9228398764635E-01  0.0000000000000E+00 -0.1231544058566E+00
 0.7557873176480E-01 -0.1166660903051E+00  0.0000000000000E+00 -0.1464402204329E+00
 0.9994484980474E-01 -0.1394761993545E+00  0.0000000000000E+00 -0.1646456507248E+00
 0.1226324115610E+00 -0.1606704822941E+00  0.0000000000000E+00 -0.1779841386955E+00
 0.1436147305370E+00 -0.1802290410561E+00  0.0000000000000E+00 -0.1868039371541E+00
 0.1628951197956E+00 -0.1981620392906E+00  0.0000000000000E+00 -0.1915319490701E+00
 0.1805082872691E+00 -0.2145107158895E+00  0.0000000000000E+00 -0.1926357310154E+00
 0.1965178426723E+00 -0.2293445581529E+00  0.0000000000000E+00 -0.1905883464838E+00
 0.2110096941662E+00 -0.2427545920058E+00  0.0000000000000E+00 -0.1858431108413E+00
 0.2240848838937E+00 -0.2548463960697E+00  0.0000000000000E+00 -0.1788212681914E+00
 0.2358545957856E+00 -0.2657354912889E+00  0.0000000000000E+00 -0.1699078316601E+00
 0.2464367568132E+00 -0.2755443052704E+00  0.0000000000000E+00 -0.1594510471935E+00
 0.2559525531347E+00 -0.2843988381323E+00  0.0000000000000E+00 -0.1477646443631E+00
 0.2645224463115E+00 -0.2924246480381E+00  0.0000000000000E+00 -0.1351346026514E+00
 0.2722629107737E+00 -0.2997435185840E+00  0.0000000000000E+00 -0.1218301865133E+00
 0.2792851733791E+00 -0.3064721757710E+00  0.0000000000000E+00 -0.1081170751535E+00
 0.2856964784213E+00 -0.3127235692237E+00  0.0000000000000E+00 -0.9426907347403E-01
 0.2916018813881E+00 -0.3186087377304E+00  0.0000000000000E+00 -0.8057182310099E-01
 0.2971027601457E+00 -0.3242355006838E+00  0.0000000000000E+00 -0.6731726429537E-01
 0.2085627015389E-01 -0.6409640157303E-01  0.0000000000000E+00 -0.8313724879363E-01
 0.4772199189721E-01 -0.8934600337677E-01  0.0000000000000E+00 -0.1125212462022E+00
 0.7300025983577E-01 -0.1130629824102E+00  0.0000000000000E+00 -0.1367926311128E+00
 0.9667839950932E-01 -0.1352384387286E+00  0.0000000000000E+00 -0.1559644141936E+00
 0.1187328504746E+00 -0.1558537919930E+00  0.0000000000000E+00 -0.1702400493283E+00
 0.1391520143487E+00 -0.1749030530002E+00  0.0000000000000E+00 -0.1799479499709E+00
 0.1579456773070E+00 -0.1924018534053E+00  0.0000000000000E+00 -0.1854923724463E+00
 0.1751485450626E+00 -0.2083905976055E+00  0.0000000000000E+00 -0.1873179360659E+00
 0.1908194852396E+00 -0.2229333792168E+00  0.0000000000000E+00 -0.1858775639989E+00
 0.2050368595907E+00 -0.2361131845557E+00  0.0000000000000E+00 -0.1816091228392E+00
 0.2178929626235E+00 -0.2480264614389E+00  0.0000000000000E+00 -0.1749233165195E+00
 0.2294899736097E+00 -0.2587793939504E+00  0.0000000000000E+00 -0.1661991824783E+00
 0.2399371265334E+00 -0.2684853871162E+00  0.0000000000000E+00 -0.1557831185018E+00
 0.2493478307845E+00 -0.2772623166679E+00  0.0000000000000E+00 -0.1439904213155E+00
 0.2578363947342E+00 -0.2852292260818E+00  0.0000000000000E+00 -0.1311108353082E+00
 0.2655153340463E+00 -0.2925035801090E+00  0.0000000000000E+00 -0.1174180339832E+00
 0.2724942421757E+00 -0.2992001331922E+00  0.0000000000000E+00 -0.1031811001828E+00
 0.2788804473566E+00 -0.3054316397145E+00  0.0000000000000E+00 -0.8867501078630E-01
 0.2847796926646E+00 -0.3113096606169E+00  0.0000000000000E+00 -0.7418537730838E-01
 0.2902935549892E+00 -0.3169422327258E+00  0.0000000000000E+00 -0.6000727472576E-01
 0.1979169902804E-01 -0.6190168219608E-01  0.0000000000000E+00 -0.7171739571388E-01
 0.4593212382245E-01 -0.8647379183901E-01  0.0000000000000E+00 -0.1021124816522E+00
 0.7047967009508E-01 -0.1095110366592E+00  0.0000000000000E+00 -0.1273386395454E+00
 0.9345563105149E-01 -0.1310370696605E+00  0.0000000000000E+00 -0.1474308953348E+00
 0.1148598849416E+00 -0.1510555087723E+00  0.0000000000000E+00 -0.1625907563904E+00
 0.1346946024977E+00 -0.1695730593711E+00  0.0000000000000E+00 -0.1731333348446E+00
 0.1529757252261E+00 -0.1866105785664E+00  0.0000000000000E+00 -0.1794450675738E+00
 0.1697382235523E+00 -0.2022079542093E+00  0.0000000000000E+00 -0.1819513285807E+00
 0.1850368828278E+00 -0.2164245742820E+00  0.0000000000000E+00 -0.1810874186871E+00
 0.1989433549651E+00 -0.2293362338302E+00  0.0000000000000E+00 -0.1772770860866E+00
 0.2115420325690E+00 -0.2410310972677E+00  0.0000000000000E+00 -0.1709208532698E+00
 0.2229268533223E+00 -0.2516067690818E+00  0.0000000000000E+00 -0.1623913575449E+00
 0.2331989689009E+00 -0.2611682290269E+00  0.0000000000000E+00 -0.1520320248560E+00
 0.2424643912352E+00 -0.2698255867531E+00  0.0000000000000E+00 -0.1401579540187E+00
 0.2508313527360E+00 -0.2776914204967E+00  0.0000000000000E+00 -0.1270603814807E+00
 0.2584081504952E+00 -0.2848785822623E+00  0.0000000000000E+00 -0.1130148305027E+00
 0.2653021917885E+00 -0.2914992594511E+00  0.0000000000000E+00 -0.9829126535937E-01
 0.2716202810092E+00 -0.2976653409840E+00  0.0000000000000E+00 -0.8316374905734E-01
 0.2774686720576E+00 -0.3034886273939E+00  0.0000000000000E+00 -0.6791619953476E-01
 0.2829502761894E+00 -0.3090783253201E+00  0.0000000000000E+00 -0.5284466464842E-01
 0.1881614570932E-01 -0.5978749462501E-01  0.0000000000000E+00 -0.6053893639153E-01
 0.4420785065543E-01 -0.8365951260975E-01  0.0000000000000E+00 -0.9193393738239E-01
 0.6800846590287E-01 -0.1060009449303E+00  0.0000000000000E+00 -0.1180854353120E+00
 0.9026754089492E-01 -0.1268624919972E+00  0.0000000000000E+00 -0.1390562954541E+00
 0.1110051694412E+00 -0.1462668925307E+00  0.0000000000000E+00 -0.1550525951254E+00
 0.1302357675431E+00 -0.1642321251435E+00  0.0000000000000E+00 -0.1663817728707E+00
 0.1479808863169E+00 -0.1807838009818E+00  0.0000000000000E+00 -0.1734168243210E+00
 0.1642758132365E+00 -0.1959613949827E+00  0.0000000000000E+00 -0.1765673077541E+00
 0.1791717005095E+00 -0.2098200692421E+00  0.0000000000000E+00 -0.1762533154295E+00
 0.1927341348354E+00 -0.2224290878185E+00  0.0000000000000E+00 -0.1728858556325E+00
 0.2050402912193E+00 -0.2338690221576E+00  0.0000000000000E+00 -0.1668557696838E+00
 0.2161764935699E+00 -0.2442295236255E+00  0.0000000000000E+00 -0.1585290569689E+00
 0.2262363037327E+00 -0.2536076298352E+00  0.0000000000000E+00 -0.1482452641715E+00
 0.2353186115235E+00 -0.2621059416361E+00  0.0000000000000E+00 -0.1363177796489E+00
 0.2435255665922E+00 -0.2698305385580E+00  0.0000000000000E+00 -0.1230373507351E+00
 0.2509609366769E+00 -0.2768893137401E+00  0.0000000000000E+00 -0.1086791071422E+00
 0.2577293829363E+00 -0.2833912811467E+00  0.0000000000000E+00 -0.9351165350011E-01
 0.2639365793205E+00 -0.2894467915530E+00  0.0000000000000E+00 -0.7780615290711E-01
 0.2696889841943E+00 -0.2951674803611E+00  0.0000000000000E+00 -0.6184291626698E-01
 0.2750913124333E+00 -0.3006640422743E+00  0.0000000000000E+00 -0.4591609570967E-01
 0.1792558932391E-01 -0.5774878838104E-01  0.0000000000000E+00 -0.4961175727544E-01
 0.4254341386334E-01 -0.8089653500776E-01  0.0000000000000E+00 -0.8199185703572E-01
 0.6557966020078E-01 -0.1025250278684E+00  0.0000000000000E+00 -0.1090398644413E+00
 0.8710684065985E-01 -0.1227069088697E+00  0.0000000000000E+00 -0.1308505881461E+00
 0.1071620996930E+00 -0.1414810092271E+00  0.0000000000000E+00 -0.1476398643286E+00
 0.1257704474996E+00 -0.1588750284880E+00  0.0000000000000E+00 -0.1597122510916E+00
 0.1429583257340E+00 -0.1749186852764E+00  0.0000000000000E+00 -0.1674312304887E+00
 0.1587612131830E+00 -0.1896509669961E+00  0.0000000000000E+00 -0.1711937071343E+00
 0.1732268971349E+00 -0.2031231105650E+00  0.0000000000000E+00 -0.1714068634023E+00
 0.1864153746602E+00 -0.2153983435808E+00  0.0000000000000E+00 -0.1684703713136E+00
 0.1983971406664E+00 -0.2265501920123E+00  0.0000000000000E+00 -0.1627660094358E+00
 0.2092514067127E+00 -0.2366608580859E+00  0.0000000000000E+00 -0.1546530747710E+00
 0.2190645264598E+00 -0.2458198131388E+00  0.0000000000000E+00 -0.1444665426217E+00
 0.2279284477521E+00 -0.2541223141182E+00  0.0000000000000E+00 -0.1325168362021E+00
 0.2359391566687E+00 -0.2616678359884E+00  0.0000000000000E+00 -0.1190925264469E+00
 0.2431955363392E+00 -0.2685589226467E+00  0.0000000000000E+00 -0.1044664126930E+00
 0.2497989270785E+00 -0.2749007928790E+00  0.0000000000000E+00 -0.8890376236445E-01
 0.2558532341607E+00 -0.2808015569700E+00  0.0000000000000E+00 -0.7267097070089E-01
 0.2614646336947E+00 -0.2863721093015E+00  0.0000000000000E+00 -0.5604274612348E-01
 0.2667394916101E+00 -0.2917243545896E+00  0.0000000000000E+00 -0.3930828792125E-01
 0.1711623977395E-01 -0.5578093538023E-01  0.0000000000000E+00 -0.3894621392687E-01
 0.4093394755929E-01 -0.7817926892230E-01  0.0000000000000E+00 -0.7229274540051E-01
 0.6318757744968E-01 -0.9907702987959E-01  0.0000000000000E+00 -0.1002084092692E+00
 0.8396775607323E-01 -0.1185641217136E+00  0.0000000000000E+00 -0.1228226099202E+00
 0.1033256309969E+00 -0.1366925472505E+00  0.0000000000000E+00 -0.1403649835883E+00
 0.1212950916368E+00 -0.1534981058335E+00  0.0000000000000E+00 -0.1531412445173E+00
 0.1379066247926E+00 -0.1690138481700E+00  0.0000000000000E+00 -0.1615088494532E+00
 0.1531956301566E+00 -0.1832780542117E+00  0.0000000000000E+00 -0.1658549444791E+00
 0.1672066451452E+00 -0.1963381846099E+00  0.0000000000000E+00 -0.1665759778852E+00
 0.1799944060223E+00 -0.2082517810368E+00  0.0000000000000E+00 -0.1640616959766E+00
 0.1916231344432E+00 -0.2190857442048E+00  0.0000000000000E+00 -0.1586855319331E+00
 0.2021653165292E+00 -0.2289152201889E+00  0.0000000000000E+00 -0.1508001770835E+00
 0.2117003789444E+00 -0.2378223928340E+00  0.0000000000000E+00 -0.1407355547818E+00
 0.2203134227628E+00 -0.2458952580903E+00  0.0000000000000E+00 -0.1287981262382E+00
 0.2280941247656E+00 -0.2532265178427E+00  0.0000000000000E+00 -0.1152728897530E+00
 0.2351360877327E+00 -0.2599129373508E+00  0.0000000000000E+00 -0.1004286733446E+00
 0.2415367346138E+00 -0.2660552982818E+00  0.0000000000000E+00 -0.8452568393947E-01
 0.2473975157607E+00 -0.2717587241495E+00  0.0000000000000E+00 -0.6782384115145E-01
 0.2528236544586E+00 -0.2771326180452E+00  0.0000000000000E+00 -0.5059034796764E-01
 0.2579224898084E+00 -0.2822893113964E+00  0.0000000000000E+00 -0.3310658917011E-01
 0.1638447491647E-01 -0.5387964776355E-01  0.0000000000000E+00 -0.2855288214552E-01
 0.3937533556104E-01 -0.7550300872613E-01  0.0000000000000E+00 -0.6284323050525E-01
 0.6082767015900E-01 -0.9565192676567E-01  0.0000000000000E+00 -0.9159716503359E-01
 0.8084583607348E-01 -0.1144293335502E+00  0.0000000000000E+00 -0.1149801298358E+00
 0.9949210047505E-01 -0.1318976358676E+00  0.0000000000000E+00 -0.1332386206770E+00
 0.1168075040589E+00 -0.1480990929614E+00  0.0000000000000E+00 -0.1466828670250E+00
 0.1328256470824E+00 -0.1630692228092E+00  0.0000000000000E+00 -0.1556673691739E+00
 0.1475814652137E+00 -0.1768452624291E+00  0.0000000000000E+00 -0.1605721476381E+00
 0.1611162335913E+00 -0.1894709186181E+00  0.0000000000000E+00 -0.1617849639139E+00
 0.1734796313636E+00 -0.2009982748663E+00  0.0000000000000E+00 -0.1596870406404E+00
 0.1847299002932E+00 -0.2114879163973E+00  0.0000000000000E+00 -0.1546442649198E+00
 0.1949330874614E+00 -0.2210082289112E+00  0.0000000000000E+00 -0.1470029681132E+00
 0.2041618857372E+00 -0.2296343029161E+00  0.0000000000000E+00 -0.1370877464829E+00
 0.2124945709575E+00 -0.2374468858543E+00  0.0000000000000E+00 -0.1252003569451E+00
 0.2200143085592E+00 -0.2445316846298E+00  0.0000000000000E+00 -0.1116211156300E+00
 0.2268089874116E+00 -0.2509792212498E+00  0.0000000000000E+00 -0.9661352737315E-01
 0.2329714906257E+00 -0.2568851745427E+00  0.0000000000000E+00 -0.8043126789126E-01
 0.2386000806416E+00 -0.2623508925465E+00  0.0000000000000E+00 -0.6332627375695E-01
 0.2437982059561E+00 -0.2674833957048E+00  0.0000000000000E+00 -0.4555658081606E-01
 0.2486730871670E+00 -0.2723942627874E+00  0.0000000000000E+00 -0.2739339165561E-01
 0.1572678737160E-01 -0.5204090786466E-01  0.0000000000000E+00 -0.1844235683698E-01
 0.3786408255598E-01 -0.7286379259337E-01  0.0000000000000E+00 -0.5364995121061E-01
 0.5849634991910E-01 -0.9224574901394E-01  0.0000000000000E+00 -0.8321182134218E-01
 0.7773777387930E-01 -0.1102989651184E+00  0.0000000000000E+00 -0.1073299086229E+00
 0.9565905695918E-01 -0.1270936720506E+00  0.0000000000000E+00 -0.1262698010002E+00
 0.1123066903970E+00 -0.1426769697924E+00  0.0000000000000E+00 -0.1403490036006E+00
 0.1277164033655E+00 -0.1570859223180E+00  0.0000000000000E+00 -0.1499217353944E+00
 0.1419221948574E+00 -0.1703562991055E+00  0.0000000000000E+00 -0.1553632695337E+00
 0.1549619615793E+00 -0.1825279723474E+00  0.0000000000000E+00 -0.1570545949587E+00
 0.1668804249876E+00 -0.1936476928213E+00  0.0000000000000E+00 -0.1553697901619E+00
 0.1777300446116E+00 -0.2037699471080E+00  0.0000000000000E+00 -0.1506680611518E+00
 0.1875706298937E+00 -0.2129565745058E+00  0.0000000000000E+00 -0.1432897610796E+00
 0.1964682591852E+00 -0.2212756958844E+00  0.0000000000000E+00 -0.1335540812453E+00
 0.2044943432824E+00 -0.2288007649598E+00  0.0000000000000E+00 -0.1217575814892E+00
 0.2117252868367E+00 -0.2356102280278E+00  0.0000000000000E+00 -0.1081750694061E+00
 0.2182427969376E+00 -0.2417878682720E+00  0.0000000000000E+00 -0.9306366252922E-01
 0.2241345661932E+00 -0.2474235709892E+00  0.0000000000000E+00 -0.7666929479260E-01
 0.2294948986094E+00 -0.2526140833382E+00  0.0000000000000E+00 -0.5923463195780E-01
 0.2344245565810E+00 -0.2574630716506E+00  0.0000000000000E+00 -0.4100719887642E-01
 0.2390292648527E+00 -0.2620799238110E+00  0.0000000000000E+00 -0.2224638402030E-01
 0.1513973863501E-01 -0.5026090459438E-01  0.0000000000000E+00 -0.8625079582350E-02
 0.3639719469561E-01 -0.7025827053458E-01  0.0000000000000E+00 -0.4471945771463E-01
 0.5619082777371E-01 -0.8885541348125E-01  0.0000000000000E+00 -0.7505763924658E-01
 0.7464123475507E-01 -0.1061704767699E+00  0.0000000000000E+00 -0.9987774103860E-01
 0.9182509369431E-01 -0.1222791492037E+00  0.0000000000000E+00 -0.1194659946689E+00
 0.1077927032320E+00 -0.1372318030247E+00  0.0000000000000E+00 -0.1341494204313E+00
 0.1225809112405E+00 -0.1510660972729E+00  0.0000000000000E+00 -0.1442842662285E+00
 0.1362222430130E+00 -0.1638158431990E+00  0.0000000000000E+00 -0.1502431899976E+00
 0.1487510185131E+00 -0.1755169157634E+00  0.0000000000000E+00 -0.1524021849299E+00
 0.1602070165853E+00 -0.1862107758755E+00  0.0000000000000E+00 -0.1511295285247E+00
 0.1706370345312E+00 -0.1959459532601E+00  0.0000000000000E+00 -0.1467786597417E+00
 0.1800947771463E+00 -0.2047778895440E+00  0.0000000000000E+00 -0.1396844570597E+00
 0.1886397690242E+00 -0.2127678047749E+00  0.0000000000000E+00 -0.1301608161793E+00
 0.1963364683594E+00 -0.2199817700358E+00  0.0000000000000E+00 -0.1184988503795E+00
 0.2032542325874E+00 -0.2264906727160E+00  0.0000000000000E+00 -0.1049673131749E+00
 0.2094680903712E+00 -0.2323710372296E+00  0.0000000000000E+00 -0.8981616235215E-01
 0.2150598676511E+00 -0.2377062423561E+00  0.0000000000000E+00 -0.7328265418906E-01
 0.2201191037798E+00 -0.2425875769087E+00  0.0000000000000E+00 -0.5559914542163E-01
 0.2247429298893E+00 -0.2471143353829E+00  0.0000000000000E+00 -0.3700158064478E-01
 0.2290341108390E+00 -0.2513922254964E+00  0.0000000000000E+00 -0.1773670313860E-01
 0.1461991960039E-01 -0.4853597672224E-01  0.0000000000000E+00  0.8887992436722E-03
 0.3497206880733E-01 -0.6768358121329E-01  0.0000000000000E+00 -0.3605813011728E-01
 0.5390896360812E-01 -0.8547856413881E-01  0.0000000000000E+00 -0.6713943026491E-01
 0.7155469134420E-01 -0.1020421978559E+00  0.0000000000000E+00 -0.9262848841229E-01
 0.8798968598193E-01 -0.1174534907017E+00  0.0000000000000E+00 -0.1128331883463E+00
 0.1032664894078E+00 -0.1317645904921E+00  0.0000000000000E+00 -0.1280918597866E+00
 0.1174220534488E+00 -0.1450127916204E+00  0.0000000000000E+00 -0.1387647548705E+00
 0.1304868481174E+00 -0.1572294099135E+00  0.0000000000000E+00 -0.1452238111505E+00
 0.1424913555406E+00 -0.1684460977187E+00  0.0000000000000E+00 -0.1478416603811E+00
 0.1534703615004E+00 -0.1786990048860E+00  0.0000000000000E+00 -0.1469820712681E+00
 0.1634650614313E+00 -0.1880307888945E+00  0.0000000000000E+00 -0.1429936610188E+00
 0.1725231374265E+00 -0.1964905945545E+00  0.0000000000000E+00 -0.1362064426442E+00
 0.1806975791677E+00 -0.2041327718367E+00  0.0000000000000E+00 -0.1269293007802E+00
 0.1880457720459E+00 -0.2110158921386E+00  0.0000000000000E+00 -0.1154478884603E+00
 0.1946297152881E+00 -0.2172029661438E+00  0.0000000000000E+00 -0.1020246384698E+00
 0.2005172433014E+00 -0.2227627254429E+00  0.0000000000000E+00 -0.8690187437423E-01
 0.2057836209198E+00 -0.2277713160599E+00  0.0000000000000E+00 -0.7030753473076E-01
 0.2105127993970E+00 -0.2323136940546E+00  0.0000000000000E+00 -0.5246292886893E-01
 0.2147972998540E+00 -0.2364837356449E+00  0.0000000000000E+00 -0.3359173676389E-01
 0.2187356811761E+00 -0.2403820861316E+00  0.0000000000000E+00 -0.1392787508419E-01
 0.1416391582887E-01 -0.4686256143300E-01  0.0000000000000E+00  0.1008952606635E-01
 0.3358638823654E-01 -0.6513723569349E-01  0.0000000000000E+00 -0.2767211341702E-01
 0.5164912276620E-01 -0.8211342019374E-01  0.0000000000000E+00 -0.5946153684020E-01
 0.6847726550515E-01 -0.9791316268109E-01  0.0000000000000E+00 -0.8558610219351E-01
 0.8415303361851E-01 -0.1126168882247E+00  0.0000000000000E+00 -0.1063759435940E+00
 0.9872973988443E-01 -0.1262771080227E+00  0.0000000000000E+00 -0.1221821220325E+00
 0.1122434360692E+00 -0.1389297984188E+00  0.0000000000000E+00 -0.1333705633563E+00
 0.1247219269930E+00 -0.1506032121512E+00  0.0000000000000E+00 -0.1403141499231E+00
 0.1361915501206E+00 -0.1613245076697E+00  0.0000000000000E+00 -0.1433836373702E+00
 0.1466819997163E+00 -0.1711244558881E+00  0.0000000000000E+00 -0.1429395107489E+00
 0.1562288877934E+00 -0.1800398870967E+00  0.0000000000000E+00 -0.1393265223588E+00
 0.1648739225190E+00 -0.1881137201766E+00  0.0000000000000E+00 -0.1328705161587E+00
 0.1726635532944E+00 -0.1953934455903E+00  0.0000000000000E+00 -0.1238758109699E+00
 0.1796479565665E+00 -0.2019300069951E+00  0.0000000000000E+00 -0.1126228123068E+00
 0.1858814527843E+00 -0.2077782166955E+00  0.0000000000000E+00 -0.9936764146579E-01
 0.1914241602851E+00 -0.2129984796366E+00  0.0000000000000E+00 -0.8434481671664E-01
 0.1963440875688E+00 -0.2176589870833E+00  0.0000000000000E+00 -0.6777263287436E-01
 0.2007187878359E+00 -0.2218375055692E+00  0.0000000000000E+00 -0.4986095759095E-01
 0.2046352668435E+00 -0.2256215064512E+00  0.0000000000000E+00 -0.3082106567691E-01
 0.2081868071848E+00 -0.2291053733889E+00  0.0000000000000E+00 -0.1087467381929E-01
 0.1376827599039E-01 -0.4523714623256E-01  0.0000000000000E+00  0.1896782124889E-01
 0.3223802317501E-01 -0.6261700573674E-01  0.0000000000000E+00 -0.1956726588400E-01
 0.4941003791013E-01 -0.7875862943365E-01  0.0000000000000E+00 -0.5202781216354E-01
 0.6540857529110E-01 -0.9378295152360E-01  0.0000000000000E+00 -0.7875363752389E-01
 0.8031590756946E-01 -0.1077701442240E+00  0.0000000000000E+00 -0.1000974416994E+00
 0.9418474229088E-01 -0.1207717588785E+00  0.0000000000000E+00 -0.1164241355413E+00
 0.1070492473395E+00 -0.1328215160852E+00  0.0000000000000E+00 -0.1281067088981E+00
 0.1189339367103E+00 -0.1439440198454E+00  0.0000000000000E+00 -0.1355204300822E+00
 0.1298606652795E+00 -0.1541616320005E+00  0.0000000000000E+00 -0.1390355063960E+00
 0.1398539054058E+00 -0.1634996458812E+00  0.0000000000000E+00 -0.1390102790697E+00
 0.1489436794209E+00 -0.1719890872065E+00  0.0000000000000E+00 -0.1357865816982E+00
 0.1571657553559E+00 -0.1796667080435E+00  0.0000000000000E+00 -0.1296868515037E+00
 0.1645600313664E+00 -0.1865731485417E+00  0.0000000000000E+00 -0.1210114301235E+00
 0.1711693411071E+00 -0.1927516041763E+00  0.0000000000000E+00 -0.1100359025769E+00
 0.1770400132655E+00 -0.1982483812205E+00  0.0000000000000E+00 -0.9701035786154E-01
 0.1822239394166E+00 -0.2031150423781E+00  0.0000000000000E+00 -0.8216164226740E-01
 0.1867811968153E+00 -0.2074111295013E+00  0.0000000000000E+00 -0.6569839860023E-01
 0.1907821922534E+00 -0.2112064265211E+00  0.0000000000000E+00 -0.4781899639381E-01
 0.1943076745468E+00 -0.2145811766413E+00  0.0000000000000E+00 -0.2872259399660E-01
 0.1974448936141E+00 -0.2176226209259E+00  0.0000000000000E+00 -0.8620039352393E-02
 0.1342948224855E-01 -0.4365622281669E-01  0.0000000000000E+00  0.2751492838418E-01
 0.3092493380039E-01 -0.6012081494098E-01  0.0000000000000E+00 -0.1174912019833E-01
 0.4719067477201E-01 -0.7541312542802E-01  0.0000000000000E+00 -0.4484159901164E-01
 0.6234858648962E-01 -0.8965153614901E-01  0.0000000000000E+00 -0.7213325689121E-01
 0.7647950118331E-01 -0.1029145188395E+00  0.0000000000000E+00 -0.9399951558099E-01
 0.8963423724249E-01 -0.1152514268598E+00  0.0000000000000E+00 -0.1108200156407E+00
 0.1018441187708E+00 -0.1266928068387E+00  0.0000000000000E+00 -0.1229759444772E+00
 0.1131297366094E+00 -0.1372590193784E+00  0.0000000000000E+00 -0.1308461760876E+00
 0.1235081061692E+00 -0.1469673076076E+00  0.0000000000000E+00 -0.1348015286213E+00
 0.1329983300138E+00 -0.1558373721448E+00  0.0000000000000E+00 -0.1351992331800E+00
 0.1416248262762E+00 -0.1638944506493E+00  0.0000000000000E+00 -0.1323791150129E+00
 0.1494174599125E+00 -0.1711691939635E+00  0.0000000000000E+00 -0.1266610081124E+00
 0.1564095806226E+00 -0.1776954192458E+00  0.0000000000000E+00 -0.1183419882426E+00
 0.1626365670883E+00 -0.1835084807028E+00  0.0000000000000E+00 -0.1076934457094E+00
 0.1681364696337E+00 -0.1886459043586E+00  0.0000000000000E+00 -0.9495997592187E-01
 0.1729524721986E+00 -0.1931499333318E+00  0.0000000000000E+00 -0.8036118357170E-01
 0.1771360891973E+00 -0.1970708175415E+00  0.0000000000000E+00 -0.6409635760847E-01
 0.1807499286458E+00 -0.2004696685755E+00  0.0000000000000E+00 -0.4635260104778E-01
 0.1838679595011E+00 -0.2034188983801E+00  0.0000000000000E+00 -0.2731754726929E-01
 0.1865711437745E+00 -0.2059982087436E+00  0.0000000000000E+00 -0.7192978745864E-02
 0.1314392168949E-01 -0.4211624300170E-01  0.0000000000000E+00  0.3572262868875E-01
 0.2964507553402E-01 -0.5764663284485E-01  0.0000000000000E+00 -0.4222863241653E-02
 0.4499010198795E-01 -0.7207598958563E-01  0.0000000000000E+00 -0.3790571218092E-01
 0.5929747026845E-01 -0.8551913211236E-01  0.0000000000000E+00 -0.6572622784374E-01
 0.7264528879770E-01 -0.9805158479728E-01  0.0000000000000E+00 -0.8808267262555E-01
 0.8508128230487E-01 -0.1097193375585E+00  0.0000000000000E+00 -0.1053701164921E+00
 0.9663299321419E-01 -0.1205488625326E+00  0.0000000000000E+00 -0.1179788376178E+00
 0.1073164557866E+00 -0.1305556788652E+00  0.0000000000000E+00 -0.1262923128002E+00
 0.1171434797994E+00 -0.1397515790604E+00  0.0000000000000E+00 -0.1306829477959E+00
 0.1261276452307E+00 -0.1481505518605E+00  0.0000000000000E+00 -0.1315077674711E+00
 0.1342877586338E+00 -0.1557720724979E+00  0.0000000000000E+00 -0.1291054345664E+00
 0.1416478403283E+00 -0.1626407806889E+00  0.0000000000000E+00 -0.1237939957760E+00
 0.1482347280190E+00 -0.1687837360907E+00  0.0000000000000E+00 -0.1158680703966E+00
 0.1540762750545E+00 -0.1742284064077E+00  0.0000000000000E+00 -0.1055956594777E+00
 0.1592020121702E+00 -0.1790033162361E+00  0.0000000000000E+00 -0.9321664762947E-01
 0.1636459827027E+00 -0.1831409691982E+00  0.0000000000000E+00 -0.7894410783027E-01
 0.1674505696468E+00 -0.1866817555813E+00  0.0000000000000E+00 -0.6296854784045E-01
 0.1706700521793E+00 -0.1896775598734E+00  0.0000000000000E+00 -0.4546626111859E-01
 0.1733713526675E+00 -0.1921926228399E+00  0.0000000000000E+00 -0.2661414202327E-01
 0.1756295008030E+00 -0.1942993009743E+00  0.0000000000000E+00 -0.6606845496328E-02
 0.1290785548301E-01 -0.4061357188143E-01  0.0000000000000E+00  0.4358323658075E-01
 0.2839630191847E-01 -0.5519236618399E-01  0.0000000000000E+00  0.3006683460451E-02
 0.4280736007862E-01 -0.6874631199268E-01  0.0000000000000E+00 -0.3122240800072E-01
 0.5625546210756E-01 -0.8138605203404E-01  0.0000000000000E+00 -0.5953290103022E-01
 0.6881488722418E-01 -0.9318308491191E-01  0.0000000000000E+00 -0.8234609790309E-01
 0.8052911934533E-01 -0.1041789227406E+00  0.0000000000000E+00 -0.1000730684424E+00
 0.9142099587599E-01 -0.1143950731990E+00  0.0000000000000E+00 -0.1131138424971E+00
 0.1015013624691E+00 -0.1238416151451E+00  0.0000000000000E+00 -0.1218572684256E+00
 0.1107764550546E+00 -0.1325245559696E+00  0.0000000000000E+00 -0.1266781175031E+00
 0.1192541838313E+00 -0.1404520596551E+00  0.0000000000000E+00 -0.1279339561404E+00
 0.1269477574149E+00 -0.1476378873814E+00  0.0000000000000E+00 -0.1259630334084E+00
 0.1338754489228E+00 -0.1541007997880E+00  0.0000000000000E+00 -0.1210824033232E+00
 0.1400576746401E+00 -0.1598612232219E+00  0.0000000000000E+00 -0.1135851069491E+00
 0.1455147548631E+00 -0.1649387627315E+00  0.0000000000000E+00 -0.1037367189923E+00
 0.1502675228174E+00 -0.1693527919086E+00  0.0000000000000E+00 -0.9177342220141E-01
 0.1543405093827E+00 -0.1731257264983E+00  0.0000000000000E+00 -0.7790272109265E-01
 0.1577664727679E+00 -0.1762876186068E+00  0.0000000000000E+00 -0.6230713492899E-01
 0.1605909786914E+00 -0.1788807347882E+00  0.0000000000000E+00 -0.4515273265878E-01
 0.1628739195207E+00 -0.1809611079015E+00  0.0000000000000E+00 -0.2660651395197E-01
 0.1646853418583E+00 -0.1825945434332E+00  0.0000000000000E+00 -0.6857705719082E-02
 0.1271738685326E-01 -0.3914443986170E-01  0.0000000000000E+00  0.5108955567013E-01
 0.2717626592591E-01 -0.5275574915189E-01  0.0000000000000E+00  0.9935060739909E-02
 0.4064133239542E-01 -0.6542305477794E-01  0.0000000000000E+00 -0.2479335825395E-01
 0.5322272713759E-01 -0.7725256587531E-01  0.0000000000000E+00 -0.5355268191692E-01
 0.6498992719777E-01 -0.8831080008446E-01  0.0000000000000E+00 -0.7678764858375E-01
 0.7598105367189E-01 -0.9863369695527E-01  0.0000000000000E+00 -0.9492580964005E-01
 0.8621331756296E-01 -0.1082369081718E+00  0.0000000000000E+00 -0.1083773719151E+00
 0.9569174537022E-01 -0.1171244730753E+00  0.0000000000000E+00 -0.1175370847624E+00
 0.1044166340331E+00 -0.1252962820651E+00  0.0000000000000E+00 -0.1227826457343E+00
 0.1123900904406E+00 -0.1327545756028E+00  0.0000000000000E+00 -0.1244727263477E+00
 0.1196197715739E+00 -0.1395074831245E+00  0.0000000000000E+00 -0.1229457775281E+00
 0.1261183563308E+00 -0.1455680763568E+00  0.0000000000000E+00 -0.1185185938215E+00
 0.1319000053528E+00 -0.1509503523196E+00  0.0000000000000E+00 -0.1114835493600E+00
 0.1369775830472E+00 -0.1556661691267E+00  0.0000000000000E+00 -0.1021048876870E+00
 0.1413631273721E+00 -0.1597256891304E+00  0.0000000000000E+00 -0.9061630942319E-01
 0.1450713502180E+00 -0.1631409684630E+00  0.0000000000000E+00 -0.7722094389748E-01
 0.1481249606681E+00 -0.1659313259014E+00  0.0000000000000E+00 -0.6209425971747E-01
 0.1505605797687E+00 -0.1681291948319E+00  0.0000000000000E+00 -0.4539264341131E-01
 0.1524313783591E+00 -0.1697826945983E+00  0.0000000000000E+00 -0.2727386441631E-01
 0.1538038008966E+00 -0.1709523656944E+00  0.0000000000000E+00 -0.7922730514892E-02
 0.1256842276524E-01 -0.3770488984927E-01  0.0000000000000E+00  0.5823480625912E-01
 0.2598231496429E-01 -0.5033422824585E-01  0.0000000000000E+00  0.1655816887660E-01
 0.3849061372901E-01 -0.6210491428115E-01  0.0000000000000E+00 -0.1861960590113E-01
 0.5019922887861E-01 -0.7311876571783E-01  0.0000000000000E+00 -0.4778397757411E-01
 0.6117193263465E-01 -0.8343642611028E-01  0.0000000000000E+00 -0.7140382624246E-01
 0.7144034298412E-01 -0.9308714475677E-01  0.0000000000000E+00 -0.8992360368145E-01
 0.8101510802023E-01 -0.1020798078987E+00  0.0000000000000E+00 -0.1037638644852E+00
 0.8989480497538E-01 -0.1104118152232E+00  0.0000000000000E+00 -0.1133255322966E+00
 0.9807343335764E-01 -0.1180766147472E+00  0.0000000000000E+00 -0.1189895561019E+00
 0.1055471821085E+00 -0.1250704437288E+00  0.0000000000000E+00 -0.1211160641511E+00
 0.1123182436685E+00 -0.1313959235042E+00  0.0000000000000E+00 -0.1200441521165E+00
 0.1183939254881E+00 -0.1370606986108E+00  0.0000000000000E+00 -0.1160909785426E+00
 0.1237823952633E+00 -0.1420726420112E+00  0.0000000000000E+00 -0.1095491489372E+00
 0.1284892491951E+00 -0.1464360988551E+00  0.0000000000000E+00 -0.1006827728120E+00
 0.1325177309805E+00 -0.1501520694726E+00  0.0000000000000E+00 -0.8972449223978E-01
 0.1358724871911E+00 -0.1532220515138E+00  0.0000000000000E+00 -0.7687448360440E-01
 0.1385657825602E+00 -0.1556542794940E+00  0.0000000000000E+00 -0.6230218583642E-01
 0.1406251729819E+00 -0.1574712677619E+00  0.0000000000000E+00 -0.4615455399507E-01
 0.1420976812326E+00 -0.1587138326365E+00  0.0000000000000E+00 -0.2858021372898E-01
 0.1430477174581E+00 -0.1594388543169E+00  0.0000000000000E+00 -0.9759541303015E-02
 0.1245662817656E-01 -0.3629071441603E-01  0.0000000000000E+00  0.6501252282243E-01
 0.2481137538038E-01 -0.4792483546036E-01  0.0000000000000E+00  0.2287225969351E-01
 0.3635337386937E-01 -0.5879017729933E-01  0.0000000000000E+00 -0.1270150364017E-01
 0.4718460031989E-01 -0.6898443239114E-01  0.0000000000000E+00 -0.4222411807160E-01
 0.5736220775752E-01 -0.7856145794248E-01  0.0000000000000E+00 -0.6618972765265E-01
 0.6691009622802E-01 -0.8754261733482E-01  0.0000000000000E+00 -0.8506004501947E-01
 0.7583137905261E-01 -0.9592908489051E-01  0.0000000000000E+00 -0.9926584799619E-01
 0.8411755455322E-01 -0.1037110205931E+00  0.0000000000000E+00 -0.1092142283828E+00
 0.9175597651857E-01 -0.1108751151496E+00  0.0000000000000E+00 -0.1152894606574E+00
 0.9873682220725E-01 -0.1174115437630E+00  0.0000000000000E+00 -0.1178532464773E+00
 0.1050569499663E+00 -0.1233175860663E+00  0.0000000000000E+00 -0.1172455568937E+00
 0.1107185976991E+00 -0.1285958005311E+00  0.0000000000000E+00 -0.1137843697481E+00
 0.1157243212222E+00 -0.1332483632097E+00  0.0000000000000E+00 -0.1077633439012E+00
 0.1200727787946E+00 -0.1372724914201E+00  0.0000000000000E+00 -0.9944771079115E-01
 0.1237585471208E+00 -0.1406602121264E+00  0.0000000000000E+00 -0.8907068462400E-01
 0.1267760133979E+00 -0.1434023334899E+00  0.0000000000000E+00 -0.7683118504025E-01
 0.1291265565470E+00 -0.1454956247259E+00  0.0000000000000E+00 -0.6289373605856E-01
 0.1308285219313E+00 -0.1469525876202E+00  0.0000000000000E+00 -0.4739561849956E-01
 0.1319235136742E+00 -0.1478075214732E+00  0.0000000000000E+00 -0.3047528778639E-01
 0.1324757018383E+00 -0.1481156188596E+00  0.0000000000000E+00 -0.1230761552791E-01
 0.1237736915601E-01 -0.3489738426520E-01  0.0000000000000E+00  0.7141639987066E-01
 0.2365982486904E-01 -0.4552405158646E-01  0.0000000000000E+00  0.2887391943726E-01
 0.3422721914891E-01 -0.5547657821466E-01  0.0000000000000E+00 -0.7038633300597E-02
 0.4417802592516E-01 -0.6484891606082E-01  0.0000000000000E+00 -0.3686925153486E-01
 0.5356174404838E-01 -0.7368709662377E-01  0.0000000000000E+00 -0.6113897792164E-01
 0.6239319529051E-01 -0.8200325429561E-01  0.0000000000000E+00 -0.8032706018538E-01
 0.7066693006533E-01 -0.8978984883132E-01  0.0000000000000E+00 -0.9487400753663E-01
 0.7836674350097E-01 -0.9702920697523E-01  0.0000000000000E+00 -0.1051927639732E+00
 0.8547301123404E-01 -0.1037009644137E+00  0.0000000000000E+00 -0.1116707448430E+00
 0.9196982481825E-01 -0.1097891949172E+00  0.0000000000000E+00 -0.1146710960044E+00
 0.9784887640270E-01 -0.1152860381246E+00  0.0000000000000E+00 -0.1145346488027E+00
 0.1031077149399E+00 -0.1201893838178E+00  0.0000000000000E+00 -0.1115804189155E+00
 0.1077438014572E+00 -0.1244962756670E+00  0.0000000000000E+00 -0.1061037729612E+00
 0.1117493705914E+00 -0.1281973812599E+00  0.0000000000000E+00 -0.9837230516732E-01
 0.1151106342143E+00 -0.1312761349786E+00  0.0000000000000E+00 -0.8862164364640E-01
 0.1178115855999E+00 -0.1337126050698E+00  0.0000000000000E+00 -0.7705153364208E-01
 0.1198421338315E+00 -0.1354915911816E+00  0.0000000000000E+00 -0.6382294269130E-01
 0.1212110469203E+00 -0.1366152790653E+00  0.0000000000000E+00 -0.4906275019302E-01
 0.1219551585900E+00 -0.1371121570299E+00  0.0000000000000E+00 -0.3289693265934E-01
 0.1221412728006E+00 -0.1370386262363E+00  0.0000000000000E+00 -0.1549290986372E-01
 0.1232563698082E-01 -0.3351995361556E-01  0.0000000000000E+00  0.7744011108529E-01
 0.2252334033884E-01 -0.4312764272822E-01  0.0000000000000E+00  0.3456008224898E-01
 0.3210904200096E-01 -0.5216114312340E-01  0.0000000000000E+00 -0.1629662683269E-02
 0.4117812707285E-01 -0.6071102018500E-01  0.0000000000000E+00 -0.3171417772749E-01
 0.4977113941587E-01 -0.6881416834582E-01  0.0000000000000E+00 -0.5624362364463E-01
 0.5789222889921E-01 -0.7647191717242E-01  0.0000000000000E+00 -0.7571489302429E-01
 0.6552628143984E-01 -0.8366693841352E-01  0.0000000000000E+00 -0.9057725074495E-01
 0.7264878567768E-01 -0.9037315685104E-01  0.0000000000000E+00 -0.1012488295491E+00
 0.7923283438400E-01 -0.9656288602398E-01  0.0000000000000E+00 -0.1081197499197E+00
 0.8525637563915E-01 -0.1022140752962E+00  0.0000000000000E+00 -0.1115542389205E+00
 0.9070612319583E-01 -0.1073139418365E+00  0.0000000000000E+00 -0.1118937125200E+00
 0.9557537803026E-01 -0.1118561781162E+00  0.0000000000000E+00 -0.1094581340612E+00
 0.9985716400987E-01 -0.1158333965881E+00  0.0000000000000E+00 -0.1045449334414E+00
 0.1035380407193E+00 -0.1192305351306E+00  0.0000000000000E+00 -0.9742515452928E-01
 0.1065964194998E+00 -0.1220231008379E+00  0.0000000000000E+00 -0.8833886222996E-01
 0.1090058796386E+00 -0.1241805184266E+00  0.0000000000000E+00 -0.7748928138952E-01
 0.1107440479818E+00 -0.1256749118506E+00  0.0000000000000E+00 -0.6503577816205E-01
 0.1118093060172E+00 -0.1264974065078E+00  0.0000000000000E+00 -0.5109385331216E-01
 0.1122340871687E+00 -0.1266710807851E+00  0.0000000000000E+00 -0.3577355663775E-01
 0.1120925514883E+00 -0.1262580502613E+00  0.0000000000000E+00 -0.1923097976294E-01
 0.1229594820207E-01 -0.3215293896282E-01  0.0000000000000E+00  0.8307705892965E-01
 0.2139671608505E-01 -0.4073046696645E-01  0.0000000000000E+00  0.3992805409837E-01
 0.2999486493691E-01 -0.4884003069570E-01  0.0000000000000E+00  0.3527854439777E-02
 0.3818286757180E-01 -0.5656890851562E-01  0.0000000000000E+00 -0.2675212817474E-01
 0.4599054973770E-01 -0.6394307880723E-01  0.0000000000000E+00 -0.5149400399094E-01
 0.5340945640632E-01 -0.7095115407200E-01  0.0000000000000E+00 -0.7121209704200E-01
 0.6041362901053E-01 -0.7756487463959E-01  0.0000000000000E+00 -0.8636278868175E-01
 0.6696970258727E-01 -0.8374925747319E-01  0.0000000000000E+00 -0.9736834772186E-01
 0.7304323324137E-01 -0.8946908350476E-01  0.0000000000000E+00 -0.1046209449853E+00
 0.7860598115005E-01 -0.9469616845627E-01  0.0000000000000E+00 -0.1084853395260E+00
 0.8363985864877E-01 -0.9941300904529E-01  0.0000000000000E+00 -0.1093030193207E+00
 0.8813437378981E-01 -0.1036095734827E+00  0.0000000000000E+00 -0.1073944419026E+00
 0.9207888274759E-01 -0.1072748438538E+00  0.0000000000000E+00 -0.1030589861768E+00
 0.9545529809075E-01 -0.1103891259840E+00  0.0000000000000E+00 -0.9657181806254E-01
 0.9823520210650E-01 -0.1129211018858E+00  0.0000000000000E+00 -0.8817949259468E-01
 0.1003820126279E+00 -0.1148299727641E+00  0.0000000000000E+00 -0.7809216355602E-01
 0.1018600083988E+00 -0.1160742766578E+00  0.0000000000000E+00 -0.6647077634275E-01
 0.1026556513063E+00 -0.1166326078909E+00  0.0000000000000E+00 -0.5341872202408E-01
 0.1027966816960E+00 -0.1165223052810E+00  0.0000000000000E+00 -0.3902508934170E-01
 0.1023707921628E+00 -0.1158171696744E+00  0.0000000000000E+00 -0.2342522601481E-01
 0.1228219978767E-01 -0.3079014931206E-01  0.0000000000000E+00  0.8832006735430E-01
 0.2027363269336E-01 -0.3832623244160E-01  0.0000000000000E+00  0.4497561784504E-01
 0.2787967574783E-01 -0.4550836769724E-01  0.0000000000000E+00  0.8437810976407E-02
 0.3518948970540E-01 -0.5242005042732E-01  0.0000000000000E+00 -0.2197445171072E-01
 0.4221968397796E-01 -0.5907381545402E-01  0.0000000000000E+00 -0.4687859829782E-01
 0.4894680593682E-01 -0.6544320258653E-01  0.0000000000000E+00 -0.6680555520719E-01
 0.5533281737306E-01 -0.7148783380036E-01  0.0000000000000E+00 -0.8221625835244E-01
 0.6133507556718E-01 -0.7716345115244E-01  0.0000000000000E+00 -0.9353563416983E-01
 0.6691143636244E-01 -0.8242718767054E-01  0.0000000000000E+00 -0.1011571030270E+00
 0.7202744174623E-01 -0.8724473384441E-01  0.0000000000000E+00 -0.1054453099470E+00
 0.7666033075181E-01 -0.9159401331032E-01  0.0000000000000E+00 -0.1067411464275E+00
 0.8079620578193E-01 -0.9546166210524E-01  0.0000000000000E+00 -0.1053647620738E+00
 0.8442154300346E-01 -0.9883381965727E-01  0.0000000000000E+00 -0.1016167224704E+00
 0.8751490801435E-01 -0.1016875137023E+00  0.0000000000000E+00 -0.9577614914474E-01
 0.9004263414610E-01 -0.1039863251132E+00  0.0000000000000E+00 -0.8809769868778E-01
 0.9195886091219E-01 -0.1056803828039E+00  0.0000000000000E+00 -0.7880280393802E-01
 0.9321334584706E-01 -0.1067137172432E+00  0.0000000000000E+00 -0.6805942151129E-01
 0.9377801313650E-01 -0.1070498579236E+00  0.0000000000000E+00 -0.5595949611567E-01
 0.9367387551347E-01 -0.1066982595218E+00  0.0000000000000E+00 -0.4256439309530E-01
 0.9300896309308E-01 -0.1057508874703E+00  0.0000000000000E+00 -0.2797102160852E-01
 0.1227745624667E-01 -0.2942443236698E-01  0.0000000000000E+00  0.9316099289100E-01
 0.1914634852022E-01 -0.3590716380696E-01  0.0000000000000E+00  0.4970129459408E-01
 0.2575726251007E-01 -0.4216009278358E-01  0.0000000000000E+00  0.1310609895125E-01
 0.3219450622413E-01 -0.4826122135943E-01  0.0000000000000E+00 -0.1737016786700E-01
 0.3845786086173E-01 -0.5420601856288E-01  0.0000000000000E+00 -0.4238385498374E-01
 0.4450590574313E-01 -0.5995001931219E-01  0.0000000000000E+00 -0.6248054334698E-01
 0.5028731816441E-01 -0.6543962437841E-01  0.0000000000000E+00 -0.7812187813035E-01
 0.5574998741421E-01 -0.7062116977685E-01  0.0000000000000E+00 -0.8973356591635E-01
 0.6084404830761E-01 -0.7544418486474E-01  0.0000000000000E+00 -0.9770944340982E-01
 0.6552881779517E-01 -0.7986826420268E-01  0.0000000000000E+00 -0.1024134350251E+00
 0.6977690494912E-01 -0.8386682289983E-01  0.0000000000000E+00 -0.1041851505991E+00
 0.7357123071953E-01 -0.8742337703020E-01  0.0000000000000E+00 -0.1033434096650E+00
 0.7689599826554E-01 -0.9052180362576E-01  0.0000000000000E+00 -0.1001885472804E+00
 0.7972783698255E-01 -0.9313722555191E-01  0.0000000000000E+00 -0.9500202855481E-01
 0.8203018513588E-01 -0.9523063866642E-01  0.0000000000000E+00 -0.8804675839644E-01
 0.8375008443765E-01 -0.9674561399973E-01  0.0000000000000E+00 -0.7956008177672E-01
 0.8482214737438E-01 -0.9761162488662E-01  0.0000000000000E+00 -0.6972606986825E-01
 0.8519972928429E-01 -0.9777324624627E-01  0.0000000000000E+00 -0.5863003902426E-01
 0.8489145309296E-01 -0.9722613761991E-01  0.0000000000000E+00 -0.4629853242965E-01
 0.8403152184837E-01 -0.9608559329738E-01  0.0000000000000E+00 -0.3276044834202E-01
 0.1227361408180E-01 -0.2804724638698E-01  0.0000000000000E+00  0.9759029893347E-01
 0.1800527814142E-01 -0.3346358377653E-01  0.0000000000000E+00  0.5410492746356E-01
 0.2362008522238E-01 -0.3878782086425E-01  0.0000000000000E+00  0.1754153709609E-01
 0.2919382655043E-01 -0.4408869434216E-01  0.0000000000000E+00 -0.1292539119868E-01
 0.3470417303932E-01 -0.4933914287587E-01  0.0000000000000E+00 -0.3799413269488E-01
 0.4008816451573E-01 -0.5447337821022E-01  0.0000000000000E+00 -0.5822092287211E-01
 0.4528022355674E-01 -0.5942366891826E-01  0.0000000000000E+00 -0.7406271813144E-01
 0.5021896542594E-01 -0.6412728046805E-01  0.0000000000000E+00 -0.8594380669884E-01
 0.5484697978588E-01 -0.6852634028579E-01  0.0000000000000E+00 -0.9425781402113E-01
 0.5911738559084E-01 -0.7257443376645E-01  0.0000000000000E+00 -0.9936746718627E-01
 0.6299811972458E-01 -0.7624044510753E-01  0.0000000000000E+00 -0.1016105992834E+00
 0.6646889113244E-01 -0.7950472633013E-01  0.0000000000000E+00 -0.1013037306640E+00
 0.6951183864082E-01 -0.8234902867207E-01  0.0000000000000E+00 -0.9874513976560E-01
 0.7210265178264E-01 -0.8474749828440E-01  0.0000000000000E+00 -0.9421551805112E-01
 0.7420482027128E-01 -0.8666130515438E-01  0.0000000000000E+00 -0.8798250673576E-01
 0.7576270397906E-01 -0.8803256251780E-01  0.0000000000000E+00 -0.8030210460728E-01
 0.7669747815556E-01 -0.8877862274092E-01  0.0000000000000E+00 -0.7138766649793E-01
 0.7693921806427E-01 -0.8882147288243E-01  0.0000000000000E+00 -0.6133281301974E-01
 0.7647158759837E-01 -0.8812959917276E-01  0.0000000000000E+00 -0.5012848501900E-01
 0.7545623511339E-01 -0.8684118913130E-01  0.0000000000000E+00 -0.3768939256712E-01
 0.1226076775407E-01 -0.2664798777493E-01  0.0000000000000E+00  0.1015962621887E+00
 0.1683832995881E-01 -0.3098303230281E-01  0.0000000000000E+00  0.5818922758319E-01
 0.2145932689731E-01 -0.3538313240683E-01  0.0000000000000E+00  0.2175759003127E-01
 0.2618312641385E-01 -0.3989853406223E-01  0.0000000000000E+00 -0.8622743903335E-02
 0.3095777079784E-01 -0.4447286052212E-01  0.0000000000000E+00 -0.3369179492747E-01
 0.3569484708788E-01 -0.4901486204865E-01  0.0000000000000E+00 -0.5400956948333E-01
 0.4031420489221E-01 -0.5344299076399E-01  0.0000000000000E+00 -0.7002092221240E-01
 0.4474590754606E-01 -0.5768599651275E-01  0.0000000000000E+00 -0.8214708269056E-01
 0.4892532599538E-01 -0.6167907019713E-01  0.0000000000000E+00 -0.9078087036585E-01
 0.5279952582603E-01 -0.6536997170868E-01  0.0000000000000E+00 -0.9628366437078E-01
 0.5633166325966E-01 -0.6872298452841E-01  0.0000000000000E+00 -0.9899140677085E-01
 0.5949794222573E-01 -0.7171499077926E-01  0.0000000000000E+00 -0.9921777802296E-01
 0.6227801298228E-01 -0.7432512312184E-01  0.0000000000000E+00 -0.9725738090394E-01
 0.6464677449602E-01 -0.7652649149577E-01  0.0000000000000E+00 -0.9338601301315E-01
 0.6656961126690E-01 -0.7828221804624E-01  0.0000000000000E+00 -0.8786905508810E-01
 0.6799522873823E-01 -0.7953896805876E-01  0.0000000000000E+00 -0.8097301694448E-01
 0.6883949814090E-01 -0.8021358446031E-01  0.0000000000000E+00 -0.7295534820077E-01
 0.6900777747867E-01 -0.8020451977666E-01  0.0000000000000E+00 -0.6395091190092E-01
 0.6843637795068E-01 -0.7943248521656E-01  0.0000000000000E+00 -0.5394015104140E-01
 0.6729990956790E-01 -0.7803831633232E-01  0.0000000000000E+00 -0.4266413320632E-01
 0.1222617227935E-01 -0.2521164683692E-01  0.0000000000000E+00  0.1051667551307E+00
 0.1563020582866E-01 -0.2845046283841E-01  0.0000000000000E+00  0.6196373575655E-01
 0.1926544215139E-01 -0.3193640979679E-01  0.0000000000000E+00  0.2577528714247E-01
 0.2315888121471E-01 -0.3568855439599E-01  0.0000000000000E+00 -0.4440868132582E-02
 0.2721817773357E-01 -0.3960681723496E-01  0.0000000000000E+00 -0.2945882563305E-01
 0.3132698576239E-01 -0.4357597009079E-01  0.0000000000000E+00 -0.4982833310220E-01
 0.3539156931724E-01 -0.4750021717950E-01  0.0000000000000E+00 -0.6597816371453E-01
 0.3933399134814E-01 -0.5130080735493E-01  0.0000000000000E+00 -0.7832358112441E-01
 0.4308321582380E-01 -0.5490677081501E-01  0.0000000000000E+00 -0.8725637598445E-01
 0.4658055354411E-01 -0.5826048464129E-01  0.0000000000000E+00 -0.9313685918985E-01
 0.4978425596417E-01 -0.6132151022130E-01  0.0000000000000E+00 -0.9629964272720E-01
 0.5266652797759E-01 -0.6406276194006E-01  0.0000000000000E+00 -0.9705563340793E-01
 0.5520352609477E-01 -0.6645973066532E-01  0.0000000000000E+00 -0.9569522636078E-01
 0.5736800249751E-01 -0.6848294781768E-01  0.0000000000000E+00 -0.9248568460352E-01
 0.5912750731769E-01 -0.7009716253248E-01  0.0000000000000E+00 -0.8768089725999E-01
 0.6043758061057E-01 -0.7125659027226E-01  0.0000000000000E+00 -0.8154242332556E-01
 0.6122861865419E-01 -0.7189128091929E-01  0.0000000000000E+00 -0.7434522070779E-01
 0.6140147643073E-01 -0.7191570975587E-01  0.0000000000000E+00 -0.6633259112682E-01
 0.6081078826197E-01 -0.7115955973625E-01  0.0000000000000E+00 -0.5757556138444E-01
 0.5959373777651E-01 -0.6971594150281E-01  0.0000000000000E+00 -0.4758888432605E-01
 0.1214994712749E-01 -0.2371804618511E-01  0.0000000000000E+00  0.1082788436077E+00
 0.1435945974506E-01 -0.2583888176456E-01  0.0000000000000E+00  0.6545874156276E-01
 0.1703262234044E-01 -0.2844827591117E-01  0.0000000000000E+00  0.2963150676797E-01
 0.2012012578587E-01 -0.3145638884645E-01  0.0000000000000E+00 -0.3642578879733E-03
 0.2348414677196E-01 -0.3474063577123E-01  0.0000000000000E+00 -0.2527497208592E-01
 0.2698580177490E-01 -0.3815819187029E-01  0.0000000000000E+00 -0.4565832119309E-01
 0.3051433982070E-01 -0.4159787013057E-01  0.0000000000000E+00 -0.6191614908386E-01
 0.3398556971664E-01 -0.4497427276909E-01  0.0000000000000E+00 -0.7445376110342E-01
 0.3732357436439E-01 -0.4821257718778E-01  0.0000000000000E+00 -0.8366139239485E-01
 0.4046453377358E-01 -0.5125029080571E-01  0.0000000000000E+00 -0.8990056263513E-01
 0.4336142349932E-01 -0.5404180676028E-01  0.0000000000000E+00 -0.9350544704420E-01
 0.4598198385900E-01 -0.5655571905188E-01  0.0000000000000E+00 -0.9478467967469E-01
 0.4829766747136E-01 -0.5876263493536E-01  0.0000000000000E+00 -0.9402555453128E-01
 0.5027639404941E-01 -0.6062784858715E-01  0.0000000000000E+00 -0.9148628597057E-01
 0.5188445718680E-01 -0.6211370051243E-01  0.0000000000000E+00 -0.8740050768831E-01
 0.5308497025360E-01 -0.6318112452211E-01  0.0000000000000E+00 -0.8200693609699E-01
 0.5381689289476E-01 -0.6377259692560E-01  0.0000000000000E+00 -0.7556034966790E-01
 0.5406174203053E-01 -0.6386475286738E-01  0.0000000000000E+00 -0.6827870953624E-01
 0.5362395948556E-01 -0.6334578024030E-01  0.0000000000000E+00 -0.6071944890899E-01
 0.5242150324854E-01 -0.6197529598086E-01  0.0000000000000E+00 -0.5235413440111E-01
 0.1199695053918E-01 -0.2207275019450E-01  0.0000000000000E+00  0.1110398333346E+00
 0.1302353077644E-01 -0.2318453580297E-01  0.0000000000000E+00  0.6882915701548E-01
 0.1477501175155E-01 -0.2492239255640E-01  0.0000000000000E+00  0.3331930842441E-01
 0.1705999755808E-01 -0.2719771441728E-01  0.0000000000000E+00  0.3625102637017E-02
 0.1975466328204E-01 -0.2987230201240E-01  0.0000000000000E+00 -0.2111570108547E-01
 0.2267348835273E-01 -0.3276545149436E-01  0.0000000000000E+00 -0.4147852603833E-01
 0.2568458477611E-01 -0.3573807833968E-01  0.0000000000000E+00 -0.5781995482344E-01
 0.2870150361900E-01 -0.3870729411686E-01  0.0000000000000E+00 -0.7051847339634E-01
 0.3164792953303E-01 -0.4159829557532E-01  0.0000000000000E+00 -0.7997222592880E-01
 0.3445405624528E-01 -0.4434211332444E-01  0.0000000000000E+00 -0.8654724500227E-01
 0.3706712533430E-01 -0.4688805065125E-01  0.0000000000000E+00 -0.9057713493180E-01
 0.3945028787453E-01 -0.4920002006447E-01  0.0000000000000E+00 -0.9236924779359E-01
 0.4156933098427E-01 -0.5124304837576E-01  0.0000000000000E+00 -0.9221027970220E-01
 0.4338465847500E-01 -0.5297438973044E-01  0.0000000000000E+00 -0.9035270031556E-01
 0.4485438147953E-01 -0.5434761075059E-01  0.0000000000000E+00 -0.8701123377756E-01
 0.4594088642978E-01 -0.5531902513602E-01  0.0000000000000E+00 -0.8237825308730E-01
 0.4659240597113E-01 -0.5584209269813E-01  0.0000000000000E+00 -0.7667086608480E-01
 0.4680427078804E-01 -0.5592203901544E-01  0.0000000000000E+00 -0.6995396641239E-01
 0.4674099372007E-01 -0.5566945800473E-01  0.0000000000000E+00 -0.6260111688547E-01
 0.4618642903186E-01 -0.5533188086160E-01  0.0000000000000E+00 -0.5640494290154E-01
 0.4201333652528E+00 -0.6298304669057E+00  0.0000000000000E+00 -0.5071776666372E+00
 0.4906928953257E+00 -0.5451261998582E+00  0.0000000000000E+00  0.4003827490163E+00
 0.3642439241937E+00 -0.4145531185951E+00  0.0000000000000E+00  0.4158553593407E+00
 0.2955265978588E+00 -0.3404577745660E+00  0.0000000000000E+00  0.4056115744560E+00
 0.2329922809059E+00 -0.2724529298031E+00  0.0000000000000E+00  0.3940813847508E+00
 0.1775909270429E+00 -0.2093047390966E+00  0.0000000000000E+00  0.3525985120153E+00
 0.1398244233268E+00 -0.1638927235042E+00  0.0000000000000E+00  0.2874435231812E+00
 0.1203516167527E+00 -0.1396304863388E+00  0.0000000000000E+00  0.2226015551972E+00
 0.1081558617796E+00 -0.1245988504098E+00  0.0000000000000E+00  0.1689678984395E+00
 0.9728916100085E-01 -0.1115148419068E+00  0.0000000000000E+00  0.1260344087083E+00
 0.8618597666009E-01 -0.9835126224299E-01  0.0000000000000E+00  0.9063445628374E-01
 0.7453079327419E-01 -0.8471924035504E-01  0.0000000000000E+00  0.6093926412479E-01
 0.6206340929744E-01 -0.7037272374753E-01  0.0000000000000E+00  0.3614703351474E-01
 0.4882676935334E-01 -0.5527153431775E-01  0.0000000000000E+00  0.1631686687999E-01
 0.3529395670718E-01 -0.3989901052989E-01  0.0000000000000E+00  0.1895253843744E-02
 0.2203338396177E-01 -0.2487583885106E-01  0.0000000000000E+00 -0.6746384705647E-02
 0.8805270994305E-02 -0.1019074091314E-01  0.0000000000000E+00 -0.8597182337261E-02
 0.9073512087410E-03 -0.2194266715523E-03  0.0000000000000E+00 -0.3198234318331E-03
 0.2485866003989E-03  0.1973842408241E-02  0.0000000000000E+00  0.8279269583335E-02
 0.7304427786789E-02 -0.5866353813532E-02  0.0000000000000E+00  0.8238510113776E-02
 0.3814244150962E+00 -0.5190145754050E+00  0.0000000000000E+00 -0.6810533495993E+00
 0.4981614061830E+00 -0.5873943643180E+00  0.0000000000000E+00  0.8343053117833E-01
 0.4004439575063E+00 -0.4530732654738E+00  0.0000000000000E+00  0.3324192553476E+00
 0.3177148150735E+00 -0.3639714617056E+00  0.0000000000000E+00  0.3571131412783E+00
 0.2575039212583E+00 -0.2976226072360E+00  0.0000000000000E+00  0.3479086685106E+00
 0.2076413487211E+00 -0.2412874570198E+00  0.0000000000000E+00  0.3176319782832E+00
 0.1710606765543E+00 -0.1981793185758E+00  0.0000000000000E+00  0.2716968004899E+00
 0.1475869648043E+00 -0.1694621192213E+00  0.0000000000000E+00  0.2210152054505E+00
 0.1315887993361E+00 -0.1499722279878E+00  0.0000000000000E+00  0.1719133292832E+00
 0.1186526666559E+00 -0.1345622156770E+00  0.0000000000000E+00  0.1278710491015E+00
 0.1067268664913E+00 -0.1205575218177E+00  0.0000000000000E+00  0.8963274901164E-01
 0.9489936814200E-01 -0.1068260741169E+00  0.0000000000000E+00  0.5670459655758E-01
 0.8261519783358E-01 -0.9275296338320E-01  0.0000000000000E+00  0.2837576110311E-01
 0.6969743732195E-01 -0.7813274794461E-01  0.0000000000000E+00  0.4519977789034E-02
 0.5634450395416E-01 -0.6315103426130E-01  0.0000000000000E+00 -0.1442535410101E-01
 0.4270920246419E-01 -0.4802075244678E-01  0.0000000000000E+00 -0.2798572724621E-01
 0.2843709274544E-01 -0.3225560690662E-01  0.0000000000000E+00 -0.3642440502226E-01
 0.1815630450428E-01 -0.2048594330148E-01  0.0000000000000E+00 -0.3870549869309E-01
 0.1521965032280E-01 -0.1686780264804E-01  0.0000000000000E+00 -0.4060374417594E-01
 0.2102633612946E-01 -0.2418409507974E-01  0.0000000000000E+00 -0.4915518298012E-01
 0.3289830029006E+00 -0.4452158614684E+00  0.0000000000000E+00 -0.6871734131761E+00
 0.4642313035997E+00 -0.5509211420579E+00  0.0000000000000E+00 -0.1033052969225E+00
 0.4151273849981E+00 -0.4778247836569E+00  0.0000000000000E+00  0.1907087430276E+00
 0.3410597107617E+00 -0.3892829770391E+00  0.0000000000000E+00  0.2900709227563E+00
 0.2807820603008E+00 -0.3222615609814E+00  0.0000000000000E+00  0.3007423347337E+00
 0.2341074444875E+00 -0.2694086514413E+00  0.0000000000000E+00  0.2825995345530E+00
 0.1990045852453E+00 -0.2284608919193E+00  0.0000000000000E+00  0.2499431558884E+00
 0.1742537964996E+00 -0.1986262304228E+00  0.0000000000000E+00  0.2106401163225E+00
 0.1560191041200E+00 -0.1765486189040E+00  0.0000000000000E+00  0.1685994795759E+00
 0.1412724303136E+00 -0.1590134925510E+00  0.0000000000000E+00  0.1269477387378E+00
 0.1283221633021E+00 -0.1438703186781E+00  0.0000000000000E+00  0.8810804429854E-01
 0.1161339829823E+00 -0.1297915354297E+00  0.0000000000000E+00  0.5313044187667E-01
 0.1039591733634E+00 -0.1159071503461E+00  0.0000000000000E+00  0.2205825444716E-01
 0.9139111081727E-01 -0.1017616332378E+00  0.0000000000000E+00 -0.5113948096553E-02
 0.7838885664315E-01 -0.8730967479294E-01  0.0000000000000E+00 -0.2806062204668E-01
 0.6496322037417E-01 -0.7255919447190E-01  0.0000000000000E+00 -0.4653610494642E-01
 0.5082269715959E-01 -0.5714760810470E-01  0.0000000000000E+00 -0.6089066807224E-01
 0.3957710313646E-01 -0.4484053366953E-01  0.0000000000000E+00 -0.7112174958034E-01
 0.3542534565507E-01 -0.4065563216349E-01  0.0000000000000E+00 -0.8127746932026E-01
 0.4113463797793E-01 -0.4848323360335E-01  0.0000000000000E+00 -0.9582506921074E-01
 0.2849932528689E+00 -0.3892789856462E+00  0.0000000000000E+00 -0.6639101907864E+00
 0.4226376407763E+00 -0.5061584234086E+00  0.0000000000000E+00 -0.2162056142985E+00
 0.4105396203014E+00 -0.4762523846945E+00  0.0000000000000E+00  0.6376396721501E-01
 0.3570513731650E+00 -0.4091595364091E+00  0.0000000000000E+00  0.2026798769480E+00
 0.3023225698827E+00 -0.3455978852187E+00  0.0000000000000E+00  0.2462600790223E+00
 0.2579712129054E+00 -0.2949776731934E+00  0.0000000000000E+00  0.2448577092275E+00
 0.2243029888504E+00 -0.2557821433711E+00  0.0000000000000E+00  0.2241669087590E+00
 0.1994340968869E+00 -0.2260552550647E+00  0.0000000000000E+00  0.1943440633459E+00
 0.1802610058991E+00 -0.2029470170000E+00  0.0000000000000E+00  0.1594793732549E+00
 0.1644177741703E+00 -0.1840931471943E+00  0.0000000000000E+00  0.1221380819932E+00
 0.1506348646823E+00 -0.1679680008249E+00  0.0000000000000E+00  0.8482823901014E-01
 0.1380542760260E+00 -0.1534599643178E+00  0.0000000000000E+00  0.4939371016896E-01
 0.1259299443276E+00 -0.1396674091702E+00  0.0000000000000E+00  0.1668536695659E-01
 0.1137216927852E+00 -0.1259792876672E+00  0.0000000000000E+00 -0.1293621528287E-01
 0.1012284349091E+00 -0.1121729126744E+00  0.0000000000000E+00 -0.3914745685051E-01
 0.8838835785358E-01 -0.9818201122385E-01  0.0000000000000E+00 -0.6175719193588E-01
 0.7495735618151E-01 -0.8369743350594E-01  0.0000000000000E+00 -0.8094578398557E-01
 0.6365977257556E-01 -0.7172916390411E-01  0.0000000000000E+00 -0.9726446805657E-01
 0.5906860534004E-01 -0.6759439378107E-01  0.0000000000000E+00 -0.1133131310497E+00
 0.6486809731627E-01 -0.7581907015078E-01  0.0000000000000E+00 -0.1313608163722E+00
 0.2482710753182E+00 -0.3447779100270E+00  0.0000000000000E+00 -0.6312746494383E+00
 0.3817519219601E+00 -0.4622356278285E+00  0.0000000000000E+00 -0.2880653839416E+00
 0.3954026819353E+00 -0.4619726154714E+00  0.0000000000000E+00 -0.3894619075968E-01
 0.3634255417865E+00 -0.4180491751471E+00  0.0000000000000E+00  0.1135226552383E+00
 0.3194126403237E+00 -0.3649961078770E+00  0.0000000000000E+00  0.1831111169497E+00
 0.2792141930996E+00 -0.3180358323015E+00  0.0000000000000E+00  0.2020007948841E+00
 0.2472500440879E+00 -0.2806363334025E+00  0.0000000000000E+00  0.1942732227067E+00
 0.2228889400201E+00 -0.2515716827505E+00  0.0000000000000E+00  0.1734733817689E+00
 0.2035921605906E+00 -0.2283495173686E+00  0.0000000000000E+00  0.1455649108470E+00
 0.1873519614416E+00 -0.2089826625811E+00  0.0000000000000E+00  0.1133249719544E+00
 0.1731446793145E+00 -0.1923088118895E+00  0.0000000000000E+00  0.7902903434925E-01
 0.1603274429285E+00 -0.1775024593920E+00  0.0000000000000E+00  0.4467339055690E-01
 0.1482827051645E+00 -0.1637973138582E+00  0.0000000000000E+00  0.1161049534990E-01
 0.1364578906079E+00 -0.1505567341235E+00  0.0000000000000E+00 -0.1940917542729E-01
 0.1245712362310E+00 -0.1374669644491E+00  0.0000000000000E+00 -0.4791755221714E-01
 0.1125171374721E+00 -0.1244120995972E+00  0.0000000000000E+00 -0.7363629203728E-01
 0.1000855986782E+00 -0.1111299256498E+00  0.0000000000000E+00 -0.9647910941559E-01
 0.8924124382561E-01 -0.9993746226331E-01  0.0000000000000E+00 -0.1172026859049E+00
 0.8460084863459E-01 -0.9609066796943E-01  0.0000000000000E+00 -0.1372991340767E+00
 0.9037734309687E-01 -0.1044010088902E+00  0.0000000000000E+00 -0.1572981608907E+00
 0.2175256750816E+00 -0.3083286151966E+00  0.0000000000000E+00 -0.5965506252282E+00
 0.3438771532224E+00 -0.4217274299080E+00  0.0000000000000E+00 -0.3342304324997E+00
 0.3749506669617E+00 -0.4414099070438E+00  0.0000000000000E+00 -0.1197100080974E+00
 0.3617957662579E+00 -0.4179281073732E+00  0.0000000000000E+00  0.3130660086447E-01
 0.3305226231838E+00 -0.3780897533120E+00  0.0000000000000E+00  0.1165590874326E+00
 0.2968467303228E+00 -0.3375755313434E+00  0.0000000000000E+00  0.1535881614313E+00
 0.2676820454404E+00 -0.3029270873417E+00  0.0000000000000E+00  0.1597368823743E+00
 0.2444292839678E+00 -0.2750522502611E+00  0.0000000000000E+00  0.1483929071973E+00
 0.2255852680233E+00 -0.2523140083531E+00  0.0000000000000E+00  0.1275313598610E+00
 0.2095021228584E+00 -0.2330536618346E+00  0.0000000000000E+00  0.1007892725954E+00
 0.1953106000206E+00 -0.2163126583292E+00  0.0000000000000E+00  0.7042987050893E-01
 0.1825253716172E+00 -0.2014782276947E+00  0.0000000000000E+00  0.3838245850264E-01
 0.1706848181227E+00 -0.1879640521873E+00  0.0000000000000E+00  0.6205909745076E-02
 0.1593028792337E+00 -0.1752027606484E+00  0.0000000000000E+00 -0.2507064835507E-01
 0.1480849351543E+00 -0.1628628402066E+00  0.0000000000000E+00 -0.5479064451498E-01
 0.1369083427379E+00 -0.1508079944984E+00  0.0000000000000E+00 -0.8250464185466E-01
 0.1255831824472E+00 -0.1388033591488E+00  0.0000000000000E+00 -0.1078263574754E+00
 0.1154430682780E+00 -0.1285626340062E+00  0.0000000000000E+00 -0.1315318649374E+00
 0.1109377659404E+00 -0.1250612088225E+00  0.0000000000000E+00 -0.1542669361520E+00
 0.1164911182490E+00 -0.1331280148933E+00  0.0000000000000E+00 -0.1752493240798E+00
 0.1915894987737E+00 -0.2779070876039E+00  0.0000000000000E+00 -0.5624021464553E+00
 0.3095768804421E+00 -0.3851220124602E+00  0.0000000000000E+00 -0.3632501162672E+00
 0.3521212356116E+00 -0.4180463007359E+00  0.0000000000000E+00 -0.1822400003183E+00
 0.3542788519345E+00 -0.4112322060561E+00  0.0000000000000E+00 -0.4078750862244E-01
 0.3356606463760E+00 -0.3847619353559E+00  0.0000000000000E+00  0.5128044751959E-01
 0.3100188429628E+00 -0.3525053390402E+00  0.0000000000000E+00  0.1016803366324E+00
 0.2850364938495E+00 -0.3220811623953E+00  0.0000000000000E+00  0.1207501071844E+00
 0.2637208191148E+00 -0.2961898512815E+00  0.0000000000000E+00  0.1192188564925E+00
 0.2458813889657E+00 -0.2744881119920E+00  0.0000000000000E+00  0.1057224737864E+00
 0.2304218476673E+00 -0.2558339581288E+00  0.0000000000000E+00  0.8481987720548E-01
 0.2166495392837E+00 -0.2394633164161E+00  0.0000000000000E+00  0.5901267785700E-01
 0.2041994383978E+00 -0.2249171147012E+00  0.0000000000000E+00  0.3019016521598E-01
 0.1927486455930E+00 -0.2117718837944E+00  0.0000000000000E+00 -0.2950975593663E-04
 0.1819085093750E+00 -0.1995684362229E+00  0.0000000000000E+00 -0.3046217997448E-01
 0.1714148049771E+00 -0.1880074010904E+00  0.0000000000000E+00 -0.6029281249062E-01
 0.1611498889168E+00 -0.1769558993249E+00  0.0000000000000E+00 -0.8888683152249E-01
 0.1509398581016E+00 -0.1661993333955E+00  0.0000000000000E+00 -0.1155786141361E+00
 0.1416107042665E+00 -0.1569443518089E+00  0.0000000000000E+00 -0.1410639245161E+00
 0.1373134081847E+00 -0.1537610165874E+00  0.0000000000000E+00 -0.1653434801626E+00
 0.1424406861134E+00 -0.1612968658369E+00  0.0000000000000E+00 -0.1866820198828E+00
 0.1695545409651E+00 -0.2521725703638E+00  0.0000000000000E+00 -0.5298842588558E+00
 0.2788197624466E+00 -0.3523105860340E+00  0.0000000000000E+00 -0.3802981813723E+00
 0.3285841778076E+00 -0.3937757767622E+00  0.0000000000000E+00 -0.2299373703574E+00
 0.3426872389647E+00 -0.4000159831211E+00  0.0000000000000E+00 -0.1020771033390E+00
 0.3355516226634E+00 -0.3857705183761E+00  0.0000000000000E+00 -0.9678618942379E-02
 0.3184619830143E+00 -0.3624546192338E+00  0.0000000000000E+00  0.4893153186830E-01
 0.2987572685504E+00 -0.3374640549445E+00  0.0000000000000E+00  0.7855430448089E-01
 0.2803033072943E+00 -0.3145146862887E+00  0.0000000000000E+00  0.8639589258218E-01
 0.2640913079439E+00 -0.2944820490210E+00  0.0000000000000E+00  0.8043291855049E-01
 0.2497119134412E+00 -0.2769114138161E+00  0.0000000000000E+00  0.6566145502108E-01
 0.2367343574837E+00 -0.2613108836041E+00  0.0000000000000E+00  0.4485912738669E-01
 0.2249210023014E+00 -0.2473693594993E+00  0.0000000000000E+00  0.1994363424158E-01
 0.2140716334843E+00 -0.2348049874405E+00  0.0000000000000E+00 -0.7450292518034E-02
 0.2039006068866E+00 -0.2232738477574E+00  0.0000000000000E+00 -0.3606310113503E-01
 0.1941948250161E+00 -0.2125328948086E+00  0.0000000000000E+00 -0.6497372632963E-01
 0.1848561782738E+00 -0.2024692100761E+00  0.0000000000000E+00 -0.9339503278137E-01
 0.1757294531201E+00 -0.1928895323590E+00  0.0000000000000E+00 -0.1204376299725E+00
 0.1672442352869E+00 -0.1845883825760E+00  0.0000000000000E+00 -0.1466743555037E+00
 0.1631725368783E+00 -0.1816630764135E+00  0.0000000000000E+00 -0.1716206855840E+00
 0.1677042065727E+00 -0.1884436009391E+00  0.0000000000000E+00 -0.1928806205549E+00
 0.1507143357050E+00 -0.2301773072745E+00  0.0000000000000E+00 -0.4993606167313E+00
 0.2513677525954E+00 -0.3229934741750E+00  0.0000000000000E+00 -0.3887352227485E+00
 0.3053003417136E+00 -0.3696612373412E+00  0.0000000000000E+00 -0.2656003964424E+00
 0.3284178923276E+00 -0.3858275225026E+00  0.0000000000000E+00 -0.1529696763500E+00
 0.3311402501454E+00 -0.3821355646278E+00  0.0000000000000E+00 -0.6461353835680E-01
 0.3223713872994E+00 -0.3675947241320E+00  0.0000000000000E+00 -0.2333342907439E-02
 0.3085503546717E+00 -0.3487296443482E+00  0.0000000000000E+00  0.3487166373331E-01
 0.2937520647706E+00 -0.3295689528478E+00  0.0000000000000E+00  0.5086357806836E-01
 0.2798091768326E+00 -0.3118763621463E+00  0.0000000000000E+00  0.5216076505737E-01
 0.2669841150080E+00 -0.2958851857038E+00  0.0000000000000E+00  0.4361742690912E-01
 0.2551709409178E+00 -0.2814443008286E+00  0.0000000000000E+00  0.2811744326136E-01
 0.2442896778729E+00 -0.2684165610118E+00  0.0000000000000E+00  0.7604949601561E-02
 0.2342609756122E+00 -0.2566561350383E+00  0.0000000000000E+00 -0.1628515396598E-01
 0.2249022452913E+00 -0.2459331544562E+00  0.0000000000000E+00 -0.4226227506556E-01
 0.2160601873476E+00 -0.2360703698618E+00  0.0000000000000E+00 -0.6934634922494E-01
 0.2076643546320E+00 -0.2269840879561E+00  0.0000000000000E+00 -0.9664795802589E-01
 0.1995834095709E+00 -0.2185072085037E+00  0.0000000000000E+00 -0.1231248837339E+00
 0.1919454662166E+00 -0.2111078797918E+00  0.0000000000000E+00 -0.1492215947942E+00
 0.1880970977066E+00 -0.2083791084714E+00  0.0000000000000E+00 -0.1741049213907E+00
 0.1919130484794E+00 -0.2142496367730E+00  0.0000000000000E+00 -0.1949520403497E+00
 0.1345133128163E+00 -0.2112190816529E+00  0.0000000000000E+00 -0.4708828855480E+00
 0.2269184743806E+00 -0.2968241626955E+00  0.0000000000000E+00 -0.3908576310021E+00
 0.2828219135116E+00 -0.3463027132732E+00  0.0000000000000E+00 -0.2914783951139E+00
 0.3125083319293E+00 -0.3697977574855E+00  0.0000000000000E+00 -0.1943139878215E+00
 0.3233604026331E+00 -0.3748616130677E+00  0.0000000000000E+00 -0.1127360349305E+00
 0.3222107422250E+00 -0.3684040440473E+00  0.0000000000000E+00 -0.5037800691164E-01
 0.3144078071976E+00 -0.3558481926146E+00  0.0000000000000E+00 -0.8568436185284E-02
 0.3037994034983E+00 -0.3410571304467E+00  0.0000000000000E+00  0.1386192701846E-01
 0.2926856146380E+00 -0.3263004011771E+00  0.0000000000000E+00  0.2167698745716E-01
 0.2818755033964E+00 -0.3123761235583E+00  0.0000000000000E+00  0.1915010940949E-01
 0.2715916787055E+00 -0.2994801145164E+00  0.0000000000000E+00  0.9039194170300E-02
 0.2619325615646E+00 -0.2876699401412E+00  0.0000000000000E+00 -0.6761979227234E-02
 0.2529444568661E+00 -0.2769391714549E+00  0.0000000000000E+00 -0.2665425641120E-01
 0.2445490803050E+00 -0.2671719056884E+00  0.0000000000000E+00 -0.4935117650320E-01
 0.2366577550260E+00 -0.2582610886043E+00  0.0000000000000E+00 -0.7385266398344E-01
 0.2292328130897E+00 -0.2501577765439E+00  0.0000000000000E+00 -0.9921839175697E-01
 0.2221723751387E+00 -0.2427267453385E+00  0.0000000000000E+00 -0.1243248075776E+00
 0.2153815273255E+00 -0.2361835440516E+00  0.0000000000000E+00 -0.1495044816565E+00
 0.2117571293440E+00 -0.2336075866251E+00  0.0000000000000E+00 -0.1736983465474E+00
 0.2147925285757E+00 -0.2384829870371E+00  0.0000000000000E+00 -0.1938443751166E+00
 0.1205079546840E+00 -0.1947593042397E+00  0.0000000000000E+00 -0.4443583358393E+00
 0.2051611475158E+00 -0.2734605833754E+00  0.0000000000000E+00 -0.3882955007220E+00
 0.2614570686676E+00 -0.3240316467042E+00  0.0000000000000E+00 -0.3093776503910E+00
 0.2957172894912E+00 -0.3527434048114E+00  0.0000000000000E+00 -0.2271034477933E+00
 0.3130445655184E+00 -0.3648375464241E+00  0.0000000000000E+00 -0.1538408232391E+00
 0.3185623414331E+00 -0.3654928047217E+00  0.0000000000000E+00 -0.9404103858805E-01
 0.3165423917660E+00 -0.3590319410139E+00  0.0000000000000E+00 -0.5027662068490E-01
 0.3103669024284E+00 -0.3488854790640E+00  0.0000000000000E+00 -0.2330170447831E-01
 0.3024871230918E+00 -0.3375017014360E+00  0.0000000000000E+00 -0.1005888377714E-01
 0.2940868940868E+00 -0.3260672446609E+00  0.0000000000000E+00 -0.7099103479209E-02
 0.2856702805573E+00 -0.3150757379612E+00  0.0000000000000E+00 -0.1198566536622E-01
 0.2775101198903E+00 -0.3047747995710E+00  0.0000000000000E+00 -0.2297754828525E-01
 0.2697775709007E+00 -0.2952962412620E+00  0.0000000000000E+00 -0.3856953332836E-01
 0.2624988947049E+00 -0.2866375772780E+00  0.0000000000000E+00 -0.5752017563098E-01
 0.2556536761989E+00 -0.2787649902670E+00  0.0000000000000E+00 -0.7884600181403E-01
 0.2492414590774E+00 -0.2716688113230E+00  0.0000000000000E+00 -0.1016032469938E+00
 0.2431952995829E+00 -0.2652514952941E+00  0.0000000000000E+00 -0.1246519742853E+00
 0.2372616223427E+00 -0.2595383162139E+00  0.0000000000000E+00 -0.1482401738240E+00
 0.2338786804600E+00 -0.2571002885451E+00  0.0000000000000E+00 -0.1711952152083E+00
 0.2361246406312E+00 -0.2609616675005E+00  0.0000000000000E+00 -0.1903686564024E+00
 0.1083392713756E+00 -0.1803739367747E+00  0.0000000000000E+00 -0.4196304971597E+00
 0.1857986383705E+00 -0.2525832334399E+00  0.0000000000000E+00 -0.3822389035699E+00
 0.2413636932690E+00 -0.3030175315155E+00  0.0000000000000E+00 -0.3207576270264E+00
 0.2785943304408E+00 -0.3352507852043E+00  0.0000000000000E+00 -0.2523404194176E+00
 0.3008983836470E+00 -0.3528114755451E+00  0.0000000000000E+00 -0.1880791900287E+00
 0.3120333594795E+00 -0.3594978640636E+00  0.0000000000000E+00 -0.1326352012847E+00
 0.3153076109675E+00 -0.3586451153807E+00  0.0000000000000E+00 -0.8909166530578E-01
 0.3135445371808E+00 -0.3531400559347E+00  0.0000000000000E+00 -0.5941753057931E-01
 0.3091179259070E+00 -0.3453720766100E+00  0.0000000000000E+00 -0.4202321990147E-01
 0.3034148558791E+00 -0.3367395432821E+00  0.0000000000000E+00 -0.3435943760900E-01
 0.2971455857755E+00 -0.3279542125102E+00  0.0000000000000E+00 -0.3443120451531E-01
 0.2907305245731E+00 -0.3194245520190E+00  0.0000000000000E+00 -0.4073721523123E-01
 0.2844534402660E+00 -0.3114075204084E+00  0.0000000000000E+00 -0.5192808948775E-01
 0.2784401504176E+00 -0.3040084448838E+00  0.0000000000000E+00 -0.6685273365668E-01
 0.2727399288018E+00 -0.2972676768054E+00  0.0000000000000E+00 -0.8458077787265E-01
 0.2673935580258E+00 -0.2912189048157E+00  0.0000000000000E+00 -0.1042078355496E+00
 0.2623742075302E+00 -0.2858078486146E+00  0.0000000000000E+00 -0.1246340356624E+00
 0.2573234160227E+00 -0.2809226909663E+00  0.0000000000000E+00 -0.1460542791396E+00
 0.2542238571188E+00 -0.2786417995140E+00  0.0000000000000E+00 -0.1672851376385E+00
 0.2557256355123E+00 -0.2815319991586E+00  0.0000000000000E+00 -0.1852194519185E+00
 0.9771326361940E-01 -0.1677223807679E+00  0.0000000000000E+00 -0.3965197246673E+00
 0.1685555412664E+00 -0.2339003717072E+00  0.0000000000000E+00 -0.3735744891606E+00
 0.2226047303426E+00 -0.2833292460966E+00  0.0000000000000E+00 -0.3268064973040E+00
 0.2615332469960E+00 -0.3177376424738E+00  0.0000000000000E+00 -0.2709757697875E+00
 0.2875029161775E+00 -0.3393959005115E+00  0.0000000000000E+00 -0.2158120752493E+00
 0.3032035733618E+00 -0.3510258982862E+00  0.0000000000000E+00 -0.1658357832850E+00
 0.3111308131995E+00 -0.3551304045699E+00  0.0000000000000E+00 -0.1241829001908E+00
 0.3135495348886E+00 -0.3540418634905E+00  0.0000000000000E+00 -0.9346216908145E-01
 0.3126127371780E+00 -0.3499407658378E+00  0.0000000000000E+00 -0.7323390909516E-01
 0.3097652152333E+00 -0.3442876561480E+00  0.0000000000000E+00 -0.6180615890991E-01
 0.3058406624330E+00 -0.3379250272119E+00  0.0000000000000E+00 -0.5767196885903E-01
 0.3013663163032E+00 -0.3313780621510E+00  0.0000000000000E+00 -0.5962239736517E-01
 0.2967157280529E+00 -0.3250043212225E+00  0.0000000000000E+00 -0.6651226011104E-01
 0.2921021274690E+00 -0.3190038912050E+00  0.0000000000000E+00 -0.7732164933663E-01
 0.2876419080661E+00 -0.3134882010118E+00  0.0000000000000E+00 -0.9120650457062E-01
 0.2834197478112E+00 -0.3085369845712E+00  0.0000000000000E+00 -0.1073383141500E+00
 0.2794534246750E+00 -0.3041441239198E+00  0.0000000000000E+00 -0.1247043915402E+00
 0.2753263263286E+00 -0.3001075596194E+00  0.0000000000000E+00 -0.1434782459801E+00
 0.2725794231656E+00 -0.2980380618998E+00  0.0000000000000E+00 -0.1625591796504E+00
 0.2734337044200E+00 -0.3000569822757E+00  0.0000000000000E+00 -0.1789921207208E+00
 0.8838683376515E-01 -0.1565267773979E+00  0.0000000000000E+00 -0.3748442200858E+00
 0.1531802905598E+00 -0.2171481547125E+00  0.0000000000000E+00 -0.3629720810016E+00
 0.2051820589323E+00 -0.2649717750211E+00  0.0000000000000E+00 -0.3284980179649E+00
 0.2448115135996E+00 -0.3004975895504E+00  0.0000000000000E+00 -0.2838839800569E+00
 0.2733272935200E+00 -0.3250832809460E+00  0.0000000000000E+00 -0.2375162286201E+00
 0.2925993319228E+00 -0.3406261251640E+00  0.0000000000000E+00 -0.1935832577725E+00
 0.3044648779047E+00 -0.3489569437181E+00  0.0000000000000E+00 -0.1550143870951E+00
 0.3106835714534E+00 -0.3519006351377E+00  0.0000000000000E+00 -0.1246321845553E+00
 0.3131142334223E+00 -0.3513504689753E+00  0.0000000000000E+00 -0.1028203827219E+00
 0.3131498312010E+00 -0.3487170650700E+00  0.0000000000000E+00 -0.8863131647149E-01
 0.3116711222223E+00 -0.3448935528920E+00  0.0000000000000E+00 -0.8103435989510E-01
 0.3092668835869E+00 -0.3404730586371E+00  0.0000000000000E+00 -0.7912949308851E-01
 0.3063711973603E+00 -0.3358821881187E+00  0.0000000000000E+00 -0.8200225361832E-01
 0.3032661417183E+00 -0.3313959167510E+00  0.0000000000000E+00 -0.8879240912954E-01
 0.3001277585332E+00 -0.3271885732285E+00  0.0000000000000E+00 -0.9876691210070E-01
 0.2970847153414E+00 -0.3233859267312E+00  0.0000000000000E+00 -0.1111998399757E+00
 0.2942026971904E+00 -0.3200335904731E+00  0.0000000000000E+00 -0.1252012224155E+00
 0.2910498915757E+00 -0.3168825364841E+00  0.0000000000000E+00 -0.1409514376271E+00
 0.2887512841653E+00 -0.3151111184803E+00  0.0000000000000E+00 -0.1575168527047E+00
 0.2891033163121E+00 -0.3164112652139E+00  0.0000000000000E+00 -0.1721959156703E+00
 0.8015735056521E-01 -0.1465576000987E+00  0.0000000000000E+00 -0.3544310735339E+00
 0.1394446775532E+00 -0.2020888123979E+00  0.0000000000000E+00 -0.3509418341776E+00
 0.1890579643683E+00 -0.2479090717396E+00  0.0000000000000E+00 -0.3266338783608E+00
 0.2286192649872E+00 -0.2837320486787E+00  0.0000000000000E+00 -0.2918550851387E+00
 0.2587441416487E+00 -0.3102637883130E+00  0.0000000000000E+00 -0.2537244579320E+00
 0.2806829473563E+00 -0.3287797962794E+00  0.0000000000000E+00 -0.2160056665644E+00
 0.2957561593417E+00 -0.3405864919938E+00  0.0000000000000E+00 -0.1812963942007E+00
 0.3052961111403E+00 -0.3470757694734E+00  0.0000000000000E+00 -0.1523441154736E+00
 0.3108455908968E+00 -0.3498280798164E+00  0.0000000000000E+00 -0.1300610627301E+00
 0.3136727189563E+00 -0.3501295891259E+00  0.0000000000000E+00 -0.1140969924268E+00
 0.3146428570887E+00 -0.3488590570757E+00  0.0000000000000E+00 -0.1038470654797E+00
 0.3143635642914E+00 -0.3466318470501E+00  0.0000000000000E+00 -0.9870750457400E-01
 0.3132984521155E+00 -0.3439101926979E+00  0.0000000000000E+00 -0.9799920576698E-01
 0.3117756648447E+00 -0.3410196395313E+00  0.0000000000000E+00 -0.1010347423298E+00
 0.3100186112153E+00 -0.3381842255026E+00  0.0000000000000E+00 -0.1072048415513E+00
 0.3081964142154E+00 -0.3355719053139E+00  0.0000000000000E+00 -0.1158995852525E+00
 0.3064239776884E+00 -0.3332813406603E+00  0.0000000000000E+00 -0.1263716013531E+00
 0.3042961315913E+00 -0.3310585829062E+00  0.0000000000000E+00 -0.1388274769424E+00
 0.3025627845551E+00 -0.3296979214249E+00  0.0000000000000E+00 -0.1525741052434E+00
 0.3026035569449E+00 -0.3304800733568E+00  0.0000000000000E+00 -0.1652633293275E+00
 0.7285462947198E-01 -0.1376230816869E+00  0.0000000000000E+00 -0.3351219891471E+00
 0.1271422214248E+00 -0.1885081466818E+00  0.0000000000000E+00 -0.3378730089165E+00
 0.1741692686201E+00 -0.2320788603928E+00  0.0000000000000E+00 -0.3218750955883E+00
 0.2130808526123E+00 -0.2675736418411E+00  0.0000000000000E+00 -0.2955944473982E+00
 0.2440446658471E+00 -0.2952420634114E+00  0.0000000000000E+00 -0.2649876647264E+00
 0.2678506789856E+00 -0.3158987519264E+00  0.0000000000000E+00 -0.2333591382473E+00
 0.2854246150602E+00 -0.3304528746366E+00  0.0000000000000E+00 -0.2029363333008E+00
 0.2977559157335E+00 -0.3399463983545E+00  0.0000000000000E+00 -0.1762166638043E+00
 0.3060839868796E+00 -0.3456566539872E+00  0.0000000000000E+00 -0.1543969399423E+00
 0.3115112628143E+00 -0.3487035847667E+00  0.0000000000000E+00 -0.1375694041972E+00
 0.3148421262864E+00 -0.3499044595067E+00  0.0000000000000E+00 -0.1254823542224E+00
 0.3166672017424E+00 -0.3498590030030E+00  0.0000000000000E+00 -0.1177956527493E+00
 0.3174508544723E+00 -0.3490341585979E+00  0.0000000000000E+00 -0.1140530489508E+00
 0.3175429788625E+00 -0.3477802251224E+00  0.0000000000000E+00 -0.1137395627632E+00
 0.3171979656070E+00 -0.3463535973837E+00  0.0000000000000E+00 -0.1163710430121E+00
 0.3166170918944E+00 -0.3449555657529E+00  0.0000000000000E+00 -0.1214526056963E+00
 0.3159619805956E+00 -0.3437350686870E+00  0.0000000000000E+00 -0.1283794525489E+00
 0.3148957444187E+00 -0.3424747286212E+00  0.0000000000000E+00 -0.1373858482559E+00
 0.3138552930968E+00 -0.3416517562430E+00  0.0000000000000E+00 -0.1480747343122E+00
 0.3138181354514E+00 -0.3421598732859E+00  0.0000000000000E+00 -0.1585575432902E+00
 0.6633432562948E-01 -0.1295609816727E+00  0.0000000000000E+00 -0.3167765891906E+00
 0.1160858534923E+00 -0.1762123777910E+00  0.0000000000000E+00 -0.3240599053339E+00
 0.1604372585858E+00 -0.2174032218315E+00  0.0000000000000E+00 -0.3147647746609E+00
 0.1982714105543E+00 -0.2521037417315E+00  0.0000000000000E+00 -0.2957263869060E+00
 0.2294523110543E+00 -0.2802521769829E+00  0.0000000000000E+00 -0.2718510722408E+00
 0.2544351807094E+00 -0.3023283990971E+00  0.0000000000000E+00 -0.2459833936034E+00
 0.2738523418438E+00 -0.3189504101743E+00  0.0000000000000E+00 -0.2199940120264E+00
 0.2884302497800E+00 -0.3308898367955E+00  0.0000000000000E+00 -0.1960446939896E+00
 0.2991377795064E+00 -0.3391515130137E+00  0.0000000000000E+00 -0.1754296161281E+00
 0.3068965899161E+00 -0.3446733436441E+00  0.0000000000000E+00 -0.1585370852910E+00
 0.3124213845810E+00 -0.3481815616786E+00  0.0000000000000E+00 -0.1453862946073E+00
 0.3162596387733E+00 -0.3502326451715E+00  0.0000000000000E+00 -0.1358564734025E+00
 0.3188530461652E+00 -0.3512731681383E+00  0.0000000000000E+00 -0.1296906500959E+00
 0.3205503030160E+00 -0.3516540380171E+00  0.0000000000000E+00 -0.1265374058106E+00
 0.3216177891114E+00 -0.3516441807266E+00  0.0000000000000E+00 -0.1260325343997E+00
 0.3222746789089E+00 -0.3514634474489E+00  0.0000000000000E+00 -0.1277853823828E+00
 0.3227191005310E+00 -0.3513001323117E+00  0.0000000000000E+00 -0.1313128877142E+00
 0.3227198929096E+00 -0.3510106474893E+00  0.0000000000000E+00 -0.1368489664265E+00
 0.3224908459488E+00 -0.3508462710586E+00  0.0000000000000E+00 -0.1443103846336E+00
 0.3226446188753E+00 -0.3513586411413E+00  0.0000000000000E+00 -0.1523826158546E+00
 0.6047176421287E-01 -0.1222295733311E+00  0.0000000000000E+00 -0.2992706304388E+00
 0.1061054540326E+00 -0.1650264933474E+00  0.0000000000000E+00 -0.3097159416883E+00
 0.1477757354638E+00 -0.2037959725068E+00  0.0000000000000E+00 -0.3057435537470E+00
 0.1842308478174E+00 -0.2373683107181E+00  0.0000000000000E+00 -0.2927998587070E+00
 0.2151346351788E+00 -0.2654696492717E+00  0.0000000000000E+00 -0.2748421353324E+00
 0.2407095487566E+00 -0.2883524065944E+00  0.0000000000000E+00 -0.2542681518391E+00
 0.2613776930427E+00 -0.3064280875263E+00  0.0000000000000E+00 -0.2326425139307E+00
 0.2776704449173E+00 -0.3202668383553E+00  0.0000000000000E+00 -0.2117701176514E+00
 0.2903282886621E+00 -0.3306413694870E+00  0.0000000000000E+00 -0.1929097963930E+00
 0.3000956458755E+00 -0.3383104170390E+00  0.0000000000000E+00 -0.1766172915730E+00
 0.3075838834767E+00 -0.3438950603986E+00  0.0000000000000E+00 -0.1630992623782E+00
 0.3132814293866E+00 -0.3478918086290E+00  0.0000000000000E+00 -0.1524039470084E+00
 0.3175915741696E+00 -0.3507099845342E+00  0.0000000000000E+00 -0.1444433630910E+00
 0.3208436366217E+00 -0.3526822112171E+00  0.0000000000000E+00 -0.1390171588447E+00
 0.3232974045932E+00 -0.3540710009987E+00  0.0000000000000E+00 -0.1358769653382E+00
 0.3251708442319E+00 -0.3550952834177E+00  0.0000000000000E+00 -0.1347272819240E+00
 0.3266748806555E+00 -0.3559589680713E+00  0.0000000000000E+00 -0.1351783717650E+00
 0.3277028350738E+00 -0.3566098637083E+00  0.0000000000000E+00 -0.1373976830104E+00
 0.3283611695848E+00 -0.3571869739261E+00  0.0000000000000E+00 -0.1415558250196E+00
 0.3289900473000E+00 -0.3579938977357E+00  0.0000000000000E+00 -0.1470066493427E+00
 0.5515255786663E-01 -0.1155020228620E+00  0.0000000000000E+00 -0.2825101628952E+00
 0.9704165956048E-01 -0.1547788061037E+00  0.0000000000000E+00 -0.2949658364257E+00
 0.1361046663519E+00 -0.1911862166184E+00  0.0000000000000E+00 -0.2951505152621E+00
 0.1709776686927E+00 -0.2233878320871E+00  0.0000000000000E+00 -0.2873122686649E+00
 0.2012105005028E+00 -0.2510200463483E+00  0.0000000000000E+00 -0.2744631272519E+00
 0.2268918031804E+00 -0.2741972232549E+00  0.0000000000000E+00 -0.2586280370277E+00
 0.2482926611695E+00 -0.2931871522712E+00  0.0000000000000E+00 -0.2411335554288E+00
 0.2658025848235E+00 -0.3084122514414E+00  0.0000000000000E+00 -0.2234519391281E+00
 0.2799761896739E+00 -0.3204543469324E+00  0.0000000000000E+00 -0.2067199110963E+00
 0.2913964263230E+00 -0.3299083318928E+00  0.0000000000000E+00 -0.1915536635928E+00
 0.3005696948327E+00 -0.3372881528158E+00  0.0000000000000E+00 -0.1782685975726E+00
 0.3079188439026E+00 -0.3430232446042E+00  0.0000000000000E+00 -0.1670284173503E+00
 0.3138017616037E+00 -0.3474778600407E+00  0.0000000000000E+00 -0.1578776411986E+00
 0.3185184976532E+00 -0.3509561245179E+00  0.0000000000000E+00 -0.1507510400401E+00
 0.3223099003305E+00 -0.3537021400208E+00  0.0000000000000E+00 -0.1455176095003E+00
 0.3253745841927E+00 -0.3559162862170E+00  0.0000000000000E+00 -0.1419843375242E+00
 0.3279029323465E+00 -0.3577846524466E+00  0.0000000000000E+00 -0.1398496553216E+00
 0.3298848922862E+00 -0.3593236266454E+00  0.0000000000000E+00 -0.1391528139546E+00
 0.3314203627703E+00 -0.3606473812485E+00  0.0000000000000E+00 -0.1401186496223E+00
 0.3327645860485E+00 -0.3619926935145E+00  0.0000000000000E+00 -0.1427247720195E+00
 0.5025114112745E-01 -0.1091540101043E+00  0.0000000000000E+00 -0.2662278406197E+00
 0.8878240429173E-01 -0.1454095721590E+00  0.0000000000000E+00 -0.2796770117485E+00
 0.1253887219208E+00 -0.1795272510560E+00  0.0000000000000E+00 -0.2833222183930E+00
 0.1585068533064E+00 -0.2101630519174E+00  0.0000000000000E+00 -0.2797218144701E+00
 0.1877553838051E+00 -0.2369823076335E+00  0.0000000000000E+00 -0.2711951376782E+00
 0.2131460184087E+00 -0.2600329581000E+00  0.0000000000000E+00 -0.2594784721745E+00
 0.2348432383427E+00 -0.2794822081175E+00  0.0000000000000E+00 -0.2457635715247E+00
 0.2531227500917E+00 -0.2956304417263E+00  0.0000000000000E+00 -0.2312376361384E+00
 0.2683916963024E+00 -0.3089077990439E+00  0.0000000000000E+00 -0.2168532985787E+00
 0.2810967211425E+00 -0.3197708778806E+00  0.0000000000000E+00 -0.2032056414730E+00
 0.2916455134801E+00 -0.3286321477118E+00  0.0000000000000E+00 -0.1906528823884E+00
 0.3003943321336E+00 -0.3358519837480E+00  0.0000000000000E+00 -0.1794187280638E+00
 0.3076562161416E+00 -0.3417494125795E+00  0.0000000000000E+00 -0.1696334803424E+00
 0.3137017554988E+00 -0.3465998363076E+00  0.0000000000000E+00 -0.1613411812005E+00
 0.3187526933912E+00 -0.3506290111933E+00  0.0000000000000E+00 -0.1545251973458E+00
 0.3229856241165E+00 -0.3540179370874E+00  0.0000000000000E+00 -0.1491193490771E+00
 0.3265444049747E+00 -0.3569111753947E+00  0.0000000000000E+00 -0.1449581169493E+00
 0.3294580005560E+00 -0.3593402115725E+00  0.0000000000000E+00 -0.1419864125397E+00
 0.3318024196288E+00 -0.3613960958313E+00  0.0000000000000E+00 -0.1403159690403E+00
 0.3338841478073E+00 -0.3633171055112E+00  0.0000000000000E+00 -0.1399894948332E+00
 0.1106079522020E-01 -0.2019864059905E-01  0.0000000000000E+00  0.1128974025369E+00
 0.1126884679300E-01 -0.2030536849605E-01  0.0000000000000E+00  0.7062494605059E-01
 0.1204429374184E-01 -0.2107107613480E-01  0.0000000000000E+00  0.3548159778480E-01
 0.1353599023530E-01 -0.2253659691542E-01  0.0000000000000E+00  0.6302166766739E-02
 0.1553787750156E-01 -0.2450535032556E-01  0.0000000000000E+00 -0.1787293597553E-01
 0.1782339926693E-01 -0.2675072946850E-01  0.0000000000000E+00 -0.3769649623874E-01
 0.2020781968901E-01 -0.2910541403290E-01  0.0000000000000E+00 -0.5360250935638E-01
 0.2264473557760E-01 -0.3151622577822E-01  0.0000000000000E+00 -0.6601554269417E-01
 0.2507492845404E-01 -0.3391658696135E-01  0.0000000000000E+00 -0.7533664534931E-01
 0.2741912020775E-01 -0.3622619646605E-01  0.0000000000000E+00 -0.8192264037026E-01
 0.2961659976564E-01 -0.3838533452707E-01  0.0000000000000E+00 -0.8609696207360E-01
 0.3162545945687E-01 -0.4035306534267E-01  0.0000000000000E+00 -0.8815860329944E-01
 0.3341393029438E-01 -0.4209455932003E-01  0.0000000000000E+00 -0.8839763181916E-01
 0.3494523055125E-01 -0.4356850908271E-01  0.0000000000000E+00 -0.8709344943676E-01
 0.3618627949080E-01 -0.4473597601152E-01  0.0000000000000E+00 -0.8452167700977E-01
 0.3712647943242E-01 -0.4557615230498E-01  0.0000000000000E+00 -0.8098774324672E-01
 0.3781965320085E-01 -0.4611236814642E-01  0.0000000000000E+00 -0.7687953648625E-01
 0.3832319513297E-01 -0.4640585959187E-01  0.0000000000000E+00 -0.7243506713952E-01
 0.3898951855091E-01 -0.4681535217520E-01  0.0000000000000E+00 -0.6777764553597E-01
 0.4062316403515E-01 -0.4751837492046E-01  0.0000000000000E+00 -0.6122263915952E-01
 0.1064083759192E-01 -0.1826701720350E-01  0.0000000000000E+00  0.1136264658797E+00
 0.9444727061444E-02 -0.1709347412400E-01  0.0000000000000E+00  0.7043537661436E-01
 0.9202296961708E-02 -0.1684464064708E-01  0.0000000000000E+00  0.3530377272785E-01
 0.9811777099122E-02 -0.1744482131855E-01  0.0000000000000E+00  0.6406518060337E-02
 0.1103109703818E-01 -0.1863214434376E-01  0.0000000000000E+00 -0.1731514266043E-01
 0.1256692740822E-01 -0.2012218324466E-01  0.0000000000000E+00 -0.3656054737515E-01
 0.1421993299522E-01 -0.2174009021943E-01  0.0000000000000E+00 -0.5182261046862E-01
 0.1597504695170E-01 -0.2347436419333E-01  0.0000000000000E+00 -0.6364561168034E-01
 0.1778907733058E-01 -0.2527356293281E-01  0.0000000000000E+00 -0.7248336066195E-01
 0.1957720714804E-01 -0.2704822262518E-01  0.0000000000000E+00 -0.7870533700537E-01
 0.2127197523461E-01 -0.2872880924289E-01  0.0000000000000E+00 -0.8265185449112E-01
 0.2283102682041E-01 -0.3027094709112E-01  0.0000000000000E+00 -0.8465165471225E-01
 0.2423051072877E-01 -0.3164522597475E-01  0.0000000000000E+00 -0.8502905611838E-01
 0.2544911748535E-01 -0.3282357379936E-01  0.0000000000000E+00 -0.8408887490790E-01
 0.2648475495059E-01 -0.3379594613111E-01  0.0000000000000E+00 -0.8212221389364E-01
 0.2738108558892E-01 -0.3459257915189E-01  0.0000000000000E+00 -0.7940429387005E-01
 0.2823711195718E-01 -0.3529019142129E-01  0.0000000000000E+00 -0.7611327490848E-01
 0.2910656899238E-01 -0.3597967647296E-01  0.0000000000000E+00 -0.7213825690890E-01
 0.3031402330527E-01 -0.3691333024670E-01  0.0000000000000E+00 -0.6683318354461E-01
 0.3064497870735E-01 -0.3728868220293E-01  0.0000000000000E+00 -0.5934729172209E-01
 0.1011596101593E-01 -0.1627603057935E-01  0.0000000000000E+00  0.1138577096887E+00
 0.7366153190945E-02 -0.1359730810189E-01  0.0000000000000E+00  0.7015758877849E-01
 0.6022687212927E-02 -0.1229278749844E-01  0.0000000000000E+00  0.3514185741483E-01
 0.5769254303684E-02 -0.1204697046278E-01  0.0000000000000E+00  0.6699816608337E-02
 0.6239062098266E-02 -0.1249314462104E-01  0.0000000000000E+00 -0.1644410898735E-01
 0.7074112157072E-02 -0.1328037422436E-01  0.0000000000000E+00 -0.3503339069660E-01
 0.8059179598841E-02 -0.1423222416527E-01  0.0000000000000E+00 -0.4961185499573E-01
 0.9207486649204E-02 -0.1537133619227E-01  0.0000000000000E+00 -0.6083477024503E-01
 0.1048618163944E-01 -0.1665552049195E-01  0.0000000000000E+00 -0.6921392238212E-01
 0.1180574210569E-01 -0.1798727722020E-01  0.0000000000000E+00 -0.7513410306715E-01
 0.1309637726780E-01 -0.1929154794455E-01  0.0000000000000E+00 -0.7895045990858E-01
 0.1432051802836E-01 -0.2052632757430E-01  0.0000000000000E+00 -0.8101080641656E-01
 0.1546435929058E-01 -0.2167016785972E-01  0.0000000000000E+00 -0.8165018665613E-01
 0.1652040675961E-01 -0.2270769233033E-01  0.0000000000000E+00 -0.8116066885190E-01
 0.1750566420231E-01 -0.2364837393218E-01  0.0000000000000E+00 -0.7978284382656E-01
 0.1846929143672E-01 -0.2453163849502E-01  0.0000000000000E+00 -0.7767016949144E-01
 0.1944675085930E-01 -0.2538124741154E-01  0.0000000000000E+00 -0.7481513352015E-01
 0.2042693453443E-01 -0.2621399442957E-01  0.0000000000000E+00 -0.7094225063821E-01
 0.2132821905202E-01 -0.2704039195428E-01  0.0000000000000E+00 -0.6575893823867E-01
 0.2175709392431E-01 -0.2745325025008E-01  0.0000000000000E+00 -0.6027405106711E-01
 0.9441334672285E-02 -0.1412769953378E-01  0.0000000000000E+00  0.1134740399940E+00
 0.5015136913742E-02 -0.9835072768253E-02  0.0000000000000E+00  0.6968967180129E-01
 0.2519593269458E-02 -0.7420940332780E-02  0.0000000000000E+00  0.3508788456201E-01
 0.1417948524440E-02 -0.6355418529853E-02  0.0000000000000E+00  0.7276295548310E-02
 0.1190956282890E-02 -0.6117542722478E-02  0.0000000000000E+00 -0.1516304502181E-01
 0.1391288481107E-02 -0.6274082293756E-02  0.0000000000000E+00 -0.3301666705242E-01
 0.1785423627362E-02 -0.6643017137501E-02  0.0000000000000E+00 -0.4687147453409E-01
 0.2413213315413E-02 -0.7279651468977E-02  0.0000000000000E+00 -0.5749363386902E-01
 0.3249884652815E-02 -0.8147935573560E-02  0.0000000000000E+00 -0.6544757712570E-01
 0.4201254229703E-02 -0.9142377286292E-02  0.0000000000000E+00 -0.7112756825030E-01
 0.5197075384541E-02 -0.1018445484599E-01  0.0000000000000E+00 -0.7489497042015E-01
 0.6204693549174E-02 -0.1123491003018E-01  0.0000000000000E+00 -0.7710236464464E-01
 0.7215522830776E-02 -0.1227607384690E-01  0.0000000000000E+00 -0.7807351794791E-01
 0.8223724882247E-02 -0.1329389977976E-01  0.0000000000000E+00 -0.7806322274219E-01
 0.9240555824512E-02 -0.1429325763244E-01  0.0000000000000E+00 -0.7724890686908E-01
 0.1028284465893E-01 -0.1528459789026E-01  0.0000000000000E+00 -0.7570714808287E-01
 0.1130981772736E-01 -0.1621445566519E-01  0.0000000000000E+00 -0.7338375448097E-01
 0.1224026925220E-01 -0.1705085171562E-01  0.0000000000000E+00 -0.7018831732425E-01
 0.1319796243173E-01 -0.1794524151232E-01  0.0000000000000E+00 -0.6642543774089E-01
 0.1435884272564E-01 -0.1907815894341E-01  0.0000000000000E+00 -0.6288846064547E-01
 0.8583979204502E-02 -0.1178903529307E-01  0.0000000000000E+00  0.1124656681798E+00
 0.2354127362728E-02 -0.5765118701508E-02  0.0000000000000E+00  0.6905474138350E-01
-0.1313704056553E-02 -0.2228686420823E-02  0.0000000000000E+00  0.3520276830008E-01
-0.3225999693704E-02 -0.3858110908451E-03  0.0000000000000E+00  0.8235358787977E-02
-0.4081330871908E-02  0.4612622587075E-03  0.0000000000000E+00 -0.1337254914619E-01
-0.4433007666371E-02  0.8469979712292E-03  0.0000000000000E+00 -0.3041438687338E-01
-0.4539137378394E-02  0.9637724458398E-03  0.0000000000000E+00 -0.4351180408070E-01
-0.4334490082053E-02  0.7257213789598E-03  0.0000000000000E+00 -0.5353944257372E-01
-0.3837641252290E-02  0.1648527643273E-03  0.0000000000000E+00 -0.6110567394328E-01
-0.3147652709315E-02 -0.6049695963533E-03  0.0000000000000E+00 -0.6660371662821E-01
-0.2335635259495E-02 -0.1501352835695E-02  0.0000000000000E+00 -0.7039136928405E-01
-0.1432701766425E-02 -0.2484535767934E-02  0.0000000000000E+00 -0.7281524417787E-01
-0.4500973873034E-03 -0.3532977930973E-02  0.0000000000000E+00 -0.7417745569903E-01
 0.5964665849949E-03 -0.4622365232859E-02  0.0000000000000E+00 -0.7469505957977E-01
 0.1699843053580E-02 -0.5739697223535E-02  0.0000000000000E+00 -0.7450753876295E-01
 0.2845671348366E-02 -0.6864151355557E-02  0.0000000000000E+00 -0.7367560022407E-01
 0.3941559440066E-02 -0.7894171054105E-02  0.0000000000000E+00 -0.7219202333725E-01
 0.4991675913946E-02 -0.8866277864761E-02  0.0000000000000E+00 -0.7020325950534E-01
 0.6356472108917E-02 -0.1016878651648E-01  0.0000000000000E+00 -0.6810287480264E-01
 0.8387562779432E-02 -0.1214630628038E-01  0.0000000000000E+00 -0.6618657497205E-01
 0.7512736115880E-02 -0.9226802488884E-02  0.0000000000000E+00  0.1108085178882E+00
-0.6513780816418E-03 -0.1354140991316E-02  0.0000000000000E+00  0.6830201402579E-01
-0.5487316713022E-02  0.3293320736766E-02  0.0000000000000E+00  0.3557068467353E-01
-0.8146864891420E-02  0.5844358213679E-02  0.0000000000000E+00  0.9675698885246E-02
-0.9542037750694E-02  0.7206698746223E-02  0.0000000000000E+00 -0.1097266195113E-01
-0.1034733367694E-01  0.8030148757316E-02  0.0000000000000E+00 -0.2713471546153E-01
-0.1085038860701E-01  0.8522579486115E-02  0.0000000000000E+00 -0.3945010234685E-01
-0.1096254989542E-01  0.8569846172041E-02  0.0000000000000E+00 -0.4889749121297E-01
-0.1069784914059E-01  0.8201961587862E-02  0.0000000000000E+00 -0.5611771501312E-01
-0.1016063874340E-01  0.7541815475829E-02  0.0000000000000E+00 -0.6149191974426E-01
-0.9424325600784E-02  0.6677302491003E-02  0.0000000000000E+00 -0.6536697045910E-01
-0.8522764666867E-02  0.5653076094423E-02  0.0000000000000E+00 -0.6807864803964E-01
-0.7476085161765E-02  0.4500839178923E-02  0.0000000000000E+00 -0.6990631520820E-01
-0.6314558491056E-02  0.3260134098201E-02  0.0000000000000E+00 -0.7103847641318E-01
-0.5061333951851E-02  0.1960412945254E-02  0.0000000000000E+00 -0.7159935566974E-01
-0.3746558766227E-02  0.6380499576298E-03  0.0000000000000E+00 -0.7166115228665E-01
-0.2465263189579E-02 -0.6009051662222E-03  0.0000000000000E+00 -0.7126652548909E-01
-0.1088465275205E-02 -0.1908766895333E-02  0.0000000000000E+00 -0.7067330525537E-01
 0.8909716640870E-03 -0.3815120396701E-02  0.0000000000000E+00 -0.7017474050545E-01
 0.3789715060379E-02 -0.6643103827208E-02  0.0000000000000E+00 -0.6959599939286E-01
 0.6194791121051E-02 -0.6407299668692E-02  0.0000000000000E+00  0.1084745314989E+00
-0.4035869545287E-02  0.3431587309572E-02  0.0000000000000E+00  0.6749610286529E-01
-0.1000994890573E-01  0.9152515327276E-02  0.0000000000000E+00  0.3629058346871E-01
-0.1332664973388E-01  0.1231610691308E-01  0.0000000000000E+00  0.1170278205186E-01
-0.1515217899326E-01  0.1407873316478E-01  0.0000000000000E+00 -0.7864925736502E-02
-0.1629722450322E-01  0.1521979320737E-01  0.0000000000000E+00 -0.2309075065201E-01
-0.1708287836043E-01  0.1596646725630E-01  0.0000000000000E+00 -0.3461177682630E-01
-0.1739888332767E-01  0.1617872490260E-01  0.0000000000000E+00 -0.4350328752483E-01
-0.1725601544255E-01  0.1588630285158E-01  0.0000000000000E+00 -0.5042600495384E-01
-0.1676386882659E-01  0.1522153667147E-01  0.0000000000000E+00 -0.5573951041542E-01
-0.1599951606410E-01  0.1427955314333E-01  0.0000000000000E+00 -0.5977567582440E-01
-0.1500299591510E-01  0.1311354532725E-01  0.0000000000000E+00 -0.6285797988415E-01
-0.1380636124980E-01  0.1176844877563E-01  0.0000000000000E+00 -0.6524352568665E-01
-0.1245300110033E-01  0.1029773779321E-01  0.0000000000000E+00 -0.6709688627325E-01
-0.1097385614411E-01  0.8739040536657E-02  0.0000000000000E+00 -0.6853245741406E-01
-0.9396394837299E-02  0.7126526992253E-02  0.0000000000000E+00 -0.6962782496703E-01
-0.7793907402200E-02  0.5544593332610E-02  0.0000000000000E+00 -0.7042820587505E-01
-0.5923752969949E-02  0.3737990553043E-02  0.0000000000000E+00 -0.7121693151027E-01
-0.3225524061479E-02  0.1122566436220E-02  0.0000000000000E+00 -0.7212905569062E-01
 0.4979389343811E-03 -0.2516912030237E-02  0.0000000000000E+00 -0.7264929441073E-01
 0.4594494635815E-02 -0.3294131554526E-02  0.0000000000000E+00  0.1054302837350E+00
-0.7834266746726E-02  0.8625846012354E-02  0.0000000000000E+00  0.6671479864555E-01
-0.1488782810218E-01  0.1535398108324E-01  0.0000000000000E+00  0.3747369340224E-01
-0.1874361177324E-01  0.1900673889916E-01  0.0000000000000E+00  0.1442719152022E-01
-0.2086905560561E-01  0.2103380980983E-01  0.0000000000000E+00 -0.3952482392177E-02
-0.2222549181831E-01  0.2235766172014E-01  0.0000000000000E+00 -0.1820195750773E-01
-0.2317012642291E-01  0.2322749917795E-01  0.0000000000000E+00 -0.2893174889937E-01
-0.2357251919512E-01  0.2347942716454E-01  0.0000000000000E+00 -0.3730449128442E-01
-0.2344056767064E-01  0.2314393430795E-01  0.0000000000000E+00 -0.4398819235695E-01
-0.2288812629871E-01  0.2236251524662E-01  0.0000000000000E+00 -0.4931387776260E-01
-0.2199676322366E-01  0.2123882612875E-01  0.0000000000000E+00 -0.5359646628016E-01
-0.2081503108251E-01  0.1983706482857E-01  0.0000000000000E+00 -0.5714507590764E-01
-0.1938745839009E-01  0.1821578581142E-01  0.0000000000000E+00 -0.6019064446699E-01
-0.1776639098372E-01  0.1643794799281E-01  0.0000000000000E+00 -0.6286884632405E-01
-0.1598172828412E-01  0.1454032454967E-01  0.0000000000000E+00 -0.6527450125276E-01
-0.1404713745394E-01  0.1254312054592E-01  0.0000000000000E+00 -0.6746641221745E-01
-0.1200604170750E-01  0.1050074122298E-01  0.0000000000000E+00 -0.6944721803260E-01
-0.9533341989661E-02  0.8084298884316E-02  0.0000000000000E+00 -0.7147527173301E-01
-0.6081024863605E-02  0.4719997245811E-02  0.0000000000000E+00 -0.7354747691288E-01
-0.1590654060031E-02  0.3228424888660E-03  0.0000000000000E+00 -0.7493610066137E-01
 0.2672609660790E-02  0.1525268009788E-03  0.0000000000000E+00  0.1016376587126E+00
-0.1208216431029E-01  0.1426283586808E-01  0.0000000000000E+00  0.6604907616754E-01
-0.2012396968075E-01  0.2189951291176E-01  0.0000000000000E+00  0.3924196527010E-01
-0.2437153918379E-01  0.2588920023103E-01  0.0000000000000E+00  0.1796291568112E-01
-0.2664604195915E-01  0.2802456955765E-01  0.0000000000000E+00  0.8584124139588E-03
-0.2807240493908E-01  0.2938305499611E-01  0.0000000000000E+00 -0.1239526292982E-01
-0.2904478789430E-01  0.3023688855741E-01  0.0000000000000E+00 -0.2235551119500E-01
-0.2941334218148E-01  0.3039980922072E-01  0.0000000000000E+00 -0.3026190932276E-01
-0.2918225257369E-01  0.2990314714237E-01  0.0000000000000E+00 -0.3677821243936E-01
-0.2846762293856E-01  0.2889650964263E-01  0.0000000000000E+00 -0.4220249685713E-01
-0.2735603345767E-01  0.2749309396494E-01  0.0000000000000E+00 -0.4683082200057E-01
-0.2590627780354E-01  0.2576978226881E-01  0.0000000000000E+00 -0.5095185547618E-01
-0.2417465358236E-01  0.2379756427858E-01  0.0000000000000E+00 -0.5475948963551E-01
-0.2221760676645E-01  0.2164347314242E-01  0.0000000000000E+00 -0.5834697744987E-01
-0.2005746613429E-01  0.1933627789337E-01  0.0000000000000E+00 -0.6177129502444E-01
-0.1768929163548E-01  0.1687690779079E-01  0.0000000000000E+00 -0.6504639752933E-01
-0.1512782604047E-01  0.1429017767883E-01  0.0000000000000E+00 -0.6809903431796E-01
-0.1200007076877E-01  0.1120647539179E-01  0.0000000000000E+00 -0.7114227119932E-01
-0.7810022362968E-02  0.7102316681832E-02  0.0000000000000E+00 -0.7408460337323E-01
-0.2625949139382E-02  0.2016194460079E-02  0.0000000000000E+00 -0.7609701259666E-01
 0.3857679139134E-03  0.3976497014520E-02  0.0000000000000E+00  0.9705428713239E-01
-0.1681571720334E-01  0.2037699806792E-01  0.0000000000000E+00  0.6560392989137E-01
-0.2571754789469E-01  0.2878697630260E-01  0.0000000000000E+00  0.4172688101009E-01
-0.3017935969973E-01  0.3293166474014E-01  0.0000000000000E+00  0.2242532822791E-01
-0.3243268000823E-01  0.3499999796892E-01  0.0000000000000E+00  0.6656765836048E-02
-0.3377595141671E-01  0.3623313215566E-01  0.0000000000000E+00 -0.5605905431676E-02
-0.3463862990324E-01  0.3692496779707E-01  0.0000000000000E+00 -0.1483938964421E-01
-0.3485159614471E-01  0.3686792283622E-01  0.0000000000000E+00 -0.2234963624564E-01
-0.3441334152382E-01  0.3609352730516E-01  0.0000000000000E+00 -0.2878660687406E-01
-0.3343954168016E-01  0.3475810770034E-01  0.0000000000000E+00 -0.3441316519258E-01
-0.3202256280396E-01  0.3298563197418E-01  0.0000000000000E+00 -0.3950217802379E-01
-0.3023305836608E-01  0.3086693516915E-01  0.0000000000000E+00 -0.4430916805777E-01
-0.2813761398152E-01  0.2848313681821E-01  0.0000000000000E+00 -0.4897295000096E-01
-0.2579193559213E-01  0.2589963322541E-01  0.0000000000000E+00 -0.5352557734171E-01
-0.2320647960668E-01  0.2313212881637E-01  0.0000000000000E+00 -0.5796649762252E-01
-0.2035726646540E-01  0.2016119013884E-01  0.0000000000000E+00 -0.6224405250848E-01
-0.1723570460448E-01  0.1698680743977E-01  0.0000000000000E+00 -0.6619103254462E-01
-0.1345312910021E-01  0.1322895521887E-01  0.0000000000000E+00 -0.6997329626191E-01
-0.8586652500515E-02  0.8437030053488E-02  0.0000000000000E+00 -0.7346975213916E-01
-0.2803771845620E-02  0.2750861071925E-02  0.0000000000000E+00 -0.7584393786221E-01
-0.2313980739731E-02  0.8226010985402E-02  0.0000000000000E+00  0.9163423237613E-01
-0.2207125120904E-01  0.2700255074688E-01  0.0000000000000E+00  0.6549951558779E-01
-0.3166324015889E-01  0.3600960769602E-01  0.0000000000000E+00  0.4506809812502E-01
-0.3613104347703E-01  0.4009746404220E-01  0.0000000000000E+00  0.2792886962487E-01
-0.3817511765107E-01  0.4190593713666E-01  0.0000000000000E+00  0.1352534817516E-01
-0.3927218813083E-01  0.4284332413434E-01  0.0000000000000E+00  0.2222525479230E-02
-0.3988225698971E-01  0.4322087080026E-01  0.0000000000000E+00 -0.6349815697753E-02
-0.3981703936549E-01  0.4281100980060E-01  0.0000000000000E+00 -0.1355467310030E-01
-0.3906679590027E-01  0.4164492127915E-01  0.0000000000000E+00 -0.2002136270884E-01
-0.3774409565422E-01  0.3988466691014E-01  0.0000000000000E+00 -0.2597600090315E-01
-0.3594857487718E-01  0.3766676918070E-01  0.0000000000000E+00 -0.3165827846311E-01
-0.3376407798178E-01  0.3509652336723E-01  0.0000000000000E+00 -0.3726923015644E-01
-0.3126474695121E-01  0.3226115927487E-01  0.0000000000000E+00 -0.4286873481428E-01
-0.2850029172745E-01  0.2921801833325E-01  0.0000000000000E+00 -0.4840806940747E-01
-0.2546652112755E-01  0.2596607653050E-01  0.0000000000000E+00 -0.5381369182982E-01
-0.2212266936490E-01  0.2246722570717E-01  0.0000000000000E+00 -0.5895737337504E-01
-0.1844405391403E-01  0.1870352231194E-01  0.0000000000000E+00 -0.6357428617324E-01
-0.1405511409337E-01  0.1431145719278E-01  0.0000000000000E+00 -0.6779233226850E-01
-0.8615330689190E-02  0.8924402442885E-02  0.0000000000000E+00 -0.7151851895958E-01
-0.2355829977716E-02  0.2752793496680E-02  0.0000000000000E+00 -0.7398615635275E-01
-0.5479541401098E-02  0.1295401906691E-01  0.0000000000000E+00  0.8532911890175E-01
-0.2788454249106E-01  0.3417264134955E-01  0.0000000000000E+00  0.6587241074381E-01
-0.3795052192276E-01  0.4355524179613E-01  0.0000000000000E+00  0.4941148758940E-01
-0.4218588269227E-01  0.4734541822170E-01  0.0000000000000E+00  0.3458420031170E-01
-0.4381700611021E-01  0.4868613177222E-01  0.0000000000000E+00  0.2153963574030E-01
-0.4449561903645E-01  0.4914781264101E-01  0.0000000000000E+00  0.1113944708741E-01
-0.4470430064714E-01  0.4905163332785E-01  0.0000000000000E+00  0.3138631872340E-02
-0.4423745240310E-01  0.4815373652544E-01  0.0000000000000E+00 -0.3876640141343E-02
-0.4307524654375E-01  0.4648615094030E-01  0.0000000000000E+00 -0.1051055810560E-01
-0.4132509237622E-01  0.4421682008132E-01  0.0000000000000E+00 -0.1694828927989E-01
-0.3909580986092E-01  0.4149661787418E-01  0.0000000000000E+00 -0.2337612369145E-01
-0.3648417270099E-01  0.3844341583997E-01  0.0000000000000E+00 -0.2990918871340E-01
-0.3356651033588E-01  0.3514328596360E-01  0.0000000000000E+00 -0.3650193544097E-01
-0.3038011398136E-01  0.3163765963053E-01  0.0000000000000E+00 -0.4301010624360E-01
-0.2690440969344E-01  0.2790620410670E-01  0.0000000000000E+00 -0.4928124643937E-01
-0.2308609467719E-01  0.2389607432447E-01  0.0000000000000E+00 -0.5511199152276E-01
-0.1889309071502E-01  0.1958013853483E-01  0.0000000000000E+00 -0.6014920781828E-01
-0.1398861183866E-01  0.1463547960146E-01  0.0000000000000E+00 -0.6449881121387E-01
-0.8116556986571E-02  0.8783422942036E-02  0.0000000000000E+00 -0.6814649601931E-01
-0.1532304818329E-02  0.2269550113367E-02  0.0000000000000E+00 -0.7045388323478E-01
-0.9169029692414E-02  0.1821835945286E-01  0.0000000000000E+00  0.7809014807999E-01
-0.3428961439013E-01  0.4191793300254E-01  0.0000000000000E+00  0.6687691430114E-01
-0.4456290193344E-01  0.5140541276818E-01  0.0000000000000E+00  0.5490597212037E-01
-0.4829940146007E-01  0.5463085059735E-01  0.0000000000000E+00  0.4249443993101E-01
-0.4930108562011E-01  0.5528410622272E-01  0.0000000000000E+00  0.3076768861820E-01
-0.4937939229001E-01  0.5507990130373E-01  0.0000000000000E+00  0.2119103412570E-01
-0.4902947482598E-01  0.5434004295673E-01  0.0000000000000E+00  0.1364664268783E-01
-0.4803603838292E-01  0.5281511536508E-01  0.0000000000000E+00  0.6671283509830E-02
-0.4636984768126E-01  0.5054352023124E-01  0.0000000000000E+00 -0.3086140102633E-03
-0.4413150839132E-01  0.4770013152333E-01  0.0000000000000E+00 -0.7423091376856E-02
-0.4143944174778E-01  0.4444943142663E-01  0.0000000000000E+00 -0.1476841568118E-01
-0.3839871399545E-01  0.4091427846321E-01  0.0000000000000E+00 -0.2233298755449E-01
-0.3507803152398E-01  0.3716714599683E-01  0.0000000000000E+00 -0.2994324188311E-01
-0.3149444645677E-01  0.3322424098596E-01  0.0000000000000E+00 -0.3735688407337E-01
-0.2761071501483E-01  0.2904512517948E-01  0.0000000000000E+00 -0.4435089002162E-01
-0.2336750743113E-01  0.2456889601767E-01  0.0000000000000E+00 -0.5066146439980E-01
-0.1873581078593E-01  0.1977021348680E-01  0.0000000000000E+00 -0.5586738345730E-01
-0.1344071249208E-01  0.1438870975081E-01  0.0000000000000E+00 -0.6007199351218E-01
-0.7308369577737E-02  0.8233362123418E-02  0.0000000000000E+00 -0.6337819849577E-01
-0.5787234505688E-03  0.1547880714260E-02  0.0000000000000E+00 -0.6531245804619E-01
-0.1344578007164E-01  0.2408169666831E-01  0.0000000000000E+00  0.6987186361507E-01
-0.4131670402884E-01  0.5026419710170E-01  0.0000000000000E+00  0.6868644171459E-01
-0.5147706914841E-01  0.5953421818827E-01  0.0000000000000E+00  0.6169810737274E-01
-0.5442543338349E-01  0.6190788048556E-01  0.0000000000000E+00  0.5174973940480E-01
-0.5457186459337E-01  0.6164644704827E-01  0.0000000000000E+00  0.4127201213389E-01
-0.5385475542705E-01  0.6057173469536E-01  0.0000000000000E+00  0.3242819244625E-01
-0.5277433822769E-01  0.5899990035684E-01  0.0000000000000E+00  0.2519503510509E-01
-0.5112720735366E-01  0.5670341624522E-01  0.0000000000000E+00  0.1805771380937E-01
-0.4887969404369E-01  0.5373986061526E-01  0.0000000000000E+00  0.1049099050002E-01
-0.4612139341489E-01  0.5028942090798E-01  0.0000000000000E+00  0.2457886950887E-02
-0.4297436420821E-01  0.4652070977690E-01  0.0000000000000E+00 -0.5988985850781E-02
-0.3953884201109E-01  0.4254344202269E-01  0.0000000000000E+00 -0.1466777125794E-01
-0.3586067402624E-01  0.3839811850992E-01  0.0000000000000E+00 -0.2327026742330E-01
-0.3192886953360E-01  0.3406690354108E-01  0.0000000000000E+00 -0.3147449409587E-01
-0.2769232151708E-01  0.2949231046955E-01  0.0000000000000E+00 -0.3901192536473E-01
-0.2309521230567E-01  0.2461571461293E-01  0.0000000000000E+00 -0.4558425013110E-01
-0.1812386638449E-01  0.1942675980539E-01  0.0000000000000E+00 -0.5073015847367E-01
-0.1258606535957E-01  0.1374788265018E-01  0.0000000000000E+00 -0.5456986638276E-01
-0.6385495937331E-02  0.7472804542686E-02  0.0000000000000E+00 -0.5734557215094E-01
 0.2903570464312E-03  0.8077164987652E-03  0.0000000000000E+00 -0.5876083845879E-01
-0.1837776731833E-01  0.3061104985046E-01  0.0000000000000E+00  0.6063954468190E-01
-0.4898859158648E-01  0.5922794812322E-01  0.0000000000000E+00  0.7149556289838E-01
-0.5866184433706E-01  0.6790658517969E-01  0.0000000000000E+00  0.6992215289929E-01
-0.6052055245431E-01  0.6913439059560E-01  0.0000000000000E+00  0.6241859674570E-01
-0.5958009027296E-01  0.6772853753081E-01  0.0000000000000E+00  0.5311590287901E-01
-0.5784827815392E-01  0.6555186374197E-01  0.0000000000000E+00  0.4492227595220E-01
-0.5583861580879E-01  0.6292600379652E-01  0.0000000000000E+00  0.3780971442070E-01
-0.5341070833666E-01  0.5970883284791E-01  0.0000000000000E+00  0.3021907906414E-01
-0.5053397209343E-01  0.5599655329804E-01  0.0000000000000E+00  0.2173242191679E-01
-0.4727049148961E-01  0.5195860521899E-01  0.0000000000000E+00  0.1248868512963E-01
-0.4372460759983E-01  0.4773787150399E-01  0.0000000000000E+00  0.2768421609664E-02
-0.3996662338560E-01  0.4339858778020E-01  0.0000000000000E+00 -0.7049968797416E-02
-0.3600114518048E-01  0.3892825301477E-01  0.0000000000000E+00 -0.1655068911378E-01
-0.3178540871371E-01  0.3427168494262E-01  0.0000000000000E+00 -0.2537729443425E-01
-0.2726286443485E-01  0.2936413806915E-01  0.0000000000000E+00 -0.3325421308589E-01
-0.2239403307843E-01  0.2416337726139E-01  0.0000000000000E+00 -0.3987953315215E-01
-0.1719353396970E-01  0.1868806355783E-01  0.0000000000000E+00 -0.4478380211451E-01
-0.1157057018325E-01  0.1286216277720E-01  0.0000000000000E+00 -0.4811989287696E-01
-0.5499558306562E-02  0.6659380314478E-02  0.0000000000000E+00 -0.5027200789031E-01
 0.9166718626616E-03  0.2164949283019E-03  0.0000000000000E+00 -0.5110945808368E-01
-0.2403543410042E-01  0.3787670172202E-01  0.0000000000000E+00  0.5038529803473E-01
-0.5731326733278E-01  0.6880748560919E-01  0.0000000000000E+00  0.7552479577847E-01
-0.6607660272591E-01  0.7647511593436E-01  0.0000000000000E+00  0.7968022590647E-01
-0.6655381321139E-01  0.7628301117704E-01  0.0000000000000E+00  0.7453220869993E-01
-0.6429001641148E-01  0.7350497219607E-01  0.0000000000000E+00  0.6638118634785E-01
-0.6127282597015E-01  0.6993582565886E-01  0.0000000000000E+00  0.5879486622240E-01
-0.5808861652854E-01  0.6597448368979E-01  0.0000000000000E+00  0.5152038208479E-01
-0.5476627493401E-01  0.6169578250447E-01  0.0000000000000E+00  0.4302435673127E-01
-0.5127212462877E-01  0.5724507616470E-01  0.0000000000000E+00  0.3316015894133E-01
-0.4758841465011E-01  0.5271929759794E-01  0.0000000000000E+00  0.2238904992050E-01
-0.4375483570784E-01  0.4817318353664E-01  0.0000000000000E+00  0.1128793531207E-01
-0.3977722009987E-01  0.4358280829790E-01  0.0000000000000E+00  0.4031234739845E-03
-0.3560581757401E-01  0.3886971913876E-01  0.0000000000000E+00 -0.9819627938907E-02
-0.3117284098531E-01  0.3395108392224E-01  0.0000000000000E+00 -0.1905652180187E-01
-0.2643190838254E-01  0.2877271417957E-01  0.0000000000000E+00 -0.2706405754881E-01
-0.2137429301127E-01  0.2332444049775E-01  0.0000000000000E+00 -0.3356346999723E-01
-0.1605382875363E-01  0.1766567991282E-01  0.0000000000000E+00 -0.3811060336107E-01
-0.1049851962592E-01  0.1183983484155E-01  0.0000000000000E+00 -0.4090014648848E-01
-0.4744328555343E-02  0.5894132088551E-02  0.0000000000000E+00 -0.4244085489322E-01
 0.1217079904403E-02 -0.1307591666165E-03  0.0000000000000E+00 -0.4273681651198E-01
-0.3048562470921E-01  0.4595040814404E-01  0.0000000000000E+00  0.3916577277876E-01
-0.6626663021306E-01  0.7896236576792E-01  0.0000000000000E+00  0.8103784075005E-01
-0.7366870349268E-01  0.8517150013057E-01  0.0000000000000E+00  0.9099497792709E-01
-0.7252985374260E-01  0.8337040770375E-01  0.0000000000000E+00  0.8805450040441E-01
-0.6868969551932E-01  0.7898516336382E-01  0.0000000000000E+00  0.8121760670421E-01
-0.6400133243634E-01  0.7359804800258E-01  0.0000000000000E+00  0.7427109864123E-01
-0.5932912022489E-01  0.6792551684845E-01  0.0000000000000E+00  0.6632908887748E-01
-0.5505939677970E-01  0.6250895011113E-01  0.0000000000000E+00  0.5619730754190E-01
-0.5107037353457E-01  0.5745750502485E-01  0.0000000000000E+00  0.4437746155218E-01
-0.4714248660276E-01  0.5264842014231E-01  0.0000000000000E+00  0.3181948070263E-01
-0.4317871994018E-01  0.4795270094008E-01  0.0000000000000E+00  0.1937796932089E-01
-0.3909282436346E-01  0.4322693819959E-01  0.0000000000000E+00  0.7634181944692E-02
-0.3478841395560E-01  0.3834102096460E-01  0.0000000000000E+00 -0.3060765708436E-02
-0.3019451693830E-01  0.3321120989285E-01  0.0000000000000E+00 -0.1247792514990E-01
-0.2529515296949E-01  0.2781605026966E-01  0.0000000000000E+00 -0.2042608023338E-01
-0.2012389304018E-01  0.2218931603030E-01  0.0000000000000E+00 -0.2666563392483E-01
-0.1477896236601E-01  0.1643684201021E-01  0.0000000000000E+00 -0.3081475630093E-01
-0.9425520541516E-02  0.1074049394666E-01  0.0000000000000E+00 -0.3311107910071E-01
-0.4149125221809E-02  0.5213686679776E-02  0.0000000000000E+00 -0.3415203724965E-01
 0.1191057061098E-02 -0.2206169049718E-03  0.0000000000000E+00 -0.3403116454660E-01
-0.3776535671469E-01  0.5490634133674E-01  0.0000000000000E+00  0.2723522048411E-01
-0.7574458212454E-01  0.8954277630917E-01  0.0000000000000E+00  0.8839300697322E-01
-0.8137054597345E-01  0.9389887655328E-01  0.0000000000000E+00  0.1036801746433E+00
-0.7855076258569E-01  0.9052769398599E-01  0.0000000000000E+00  0.1028227955553E+00
-0.7279403142312E-01  0.8424243727146E-01  0.0000000000000E+00  0.9799410987464E-01
-0.6579500265678E-01  0.7626887830393E-01  0.0000000000000E+00  0.9174390734666E-01
-0.5928044238457E-01  0.6845798156246E-01  0.0000000000000E+00  0.8207335406193E-01
-0.5417911600356E-01  0.6201423709442E-01  0.0000000000000E+00  0.6920173957968E-01
-0.4999036513799E-01  0.5670424838415E-01  0.0000000000000E+00  0.5483299480991E-01
-0.4608145115306E-01  0.5191557928527E-01  0.0000000000000E+00  0.4045393673372E-01
-0.4215236698575E-01  0.4724666700414E-01  0.0000000000000E+00  0.2694956751719E-01
-0.3804351959243E-01  0.4246733130472E-01  0.0000000000000E+00  0.1468055955367E-01
-0.3365294408273E-01  0.3744865218997E-01  0.0000000000000E+00  0.3793088038717E-02
-0.2893748603914E-01  0.3214098977302E-01  0.0000000000000E+00 -0.5593330337907E-02
-0.2392870244403E-01  0.2657247169429E-01  0.0000000000000E+00 -0.1333011306719E-01
-0.1870572520507E-01  0.2082421930901E-01  0.0000000000000E+00 -0.1922364543993E-01
-0.1340659728388E-01  0.1504245249480E-01  0.0000000000000E+00 -0.2300117430032E-01
-0.8357850954537E-02  0.9573525957770E-02  0.0000000000000E+00 -0.2493947733673E-01
-0.3680277791153E-02  0.4589825356235E-02  0.0000000000000E+00 -0.2567335010084E-01
 0.9162347408029E-03 -0.1182743049480E-03  0.0000000000000E+00 -0.2533178480870E-01
-0.4583517841096E-01  0.6483032198361E-01  0.0000000000000E+00  0.1538124526315E-01
-0.8537292073401E-01  0.1000988930178E+00  0.0000000000000E+00  0.9834926348677E-01
-0.8913759411228E-01  0.1024240490256E+00  0.0000000000000E+00  0.1167662987291E+00
-0.8499892868164E-01  0.9840322947195E-01  0.0000000000000E+00  0.1185497078412E+00
-0.7653756730593E-01  0.8918596021315E-01  0.0000000000000E+00  0.1177880946796E+00
-0.6619116053086E-01  0.7743176817931E-01  0.0000000000000E+00  0.1116110638104E+00
-0.5760212616548E-01  0.6715996855492E-01  0.0000000000000E+00  0.9818341815307E-01
-0.5213177662540E-01  0.6020953018367E-01  0.0000000000000E+00  0.8111362605415E-01
-0.4824581722126E-01  0.5523718121234E-01  0.0000000000000E+00  0.6391570041809E-01
-0.4463096531773E-01  0.5077301520430E-01  0.0000000000000E+00  0.4814287249291E-01
-0.4083919768035E-01  0.4622698153121E-01  0.0000000000000E+00  0.3408840062216E-01
-0.3673952029896E-01  0.4141553455324E-01  0.0000000000000E+00  0.2166606729156E-01
-0.3227991764541E-01  0.3627434874843E-01  0.0000000000000E+00  0.1083279510068E-01
-0.2746700342632E-01  0.3080638065378E-01  0.0000000000000E+00  0.1640000829932E-02
-0.2238931091339E-01  0.2510185801070E-01  0.0000000000000E+00 -0.5779744953581E-02
-0.1716217797126E-01  0.1927569355003E-01  0.0000000000000E+00 -0.1127444078718E-01
-0.1194341354849E-01  0.1349402171424E-01  0.0000000000000E+00 -0.1474373575342E-01
-0.7255476294842E-02  0.8298091440145E-02  0.0000000000000E+00 -0.1650975357075E-01
-0.3244543236339E-02  0.3931216689961E-02  0.0000000000000E+00 -0.1719533388092E-01
 0.5391566180375E-03  0.3990455903108E-04  0.0000000000000E+00 -0.1688433044305E-01
-0.5316572713883E-01  0.7611947424939E-01  0.0000000000000E+00  0.1055786656837E-01
-0.9364166878190E-01  0.1070196646091E+00  0.0000000000000E+00  0.1116008191693E+00
-0.9766794114740E-01  0.1125901525918E+00  0.0000000000000E+00  0.1259976065126E+00
-0.9255827153193E-01  0.1075496413257E+00  0.0000000000000E+00  0.1369242029568E+00
-0.7948961896384E-01  0.9344549545266E-01  0.0000000000000E+00  0.1422027047782E+00
-0.6442252895209E-01  0.7615569511508E-01  0.0000000000000E+00  0.1340299569161E+00
-0.5401290781170E-01  0.6365075121059E-01  0.0000000000000E+00  0.1132017290545E+00
-0.4923845765544E-01  0.5748915986833E-01  0.0000000000000E+00  0.9063693151808E-01
-0.4621675485619E-01  0.5349485183078E-01  0.0000000000000E+00  0.7131731371655E-01
-0.4302025891640E-01  0.4946476264901E-01  0.0000000000000E+00  0.5508996603333E-01
-0.3935418161604E-01  0.4500350811864E-01  0.0000000000000E+00  0.4103059948032E-01
-0.3525503453557E-01  0.4014445509263E-01  0.0000000000000E+00  0.2872383156735E-01
-0.3072895875470E-01  0.3488215787985E-01  0.0000000000000E+00  0.1814094431625E-01
-0.2582103976580E-01  0.2924533766191E-01  0.0000000000000E+00  0.9268564680815E-02
-0.2071297015915E-01  0.2343381706889E-01  0.0000000000000E+00  0.2174186863608E-02
-0.1554267405016E-01  0.1761469818731E-01  0.0000000000000E+00 -0.2872286601189E-02
-0.1038288346612E-01  0.1178868810326E-01  0.0000000000000E+00 -0.5979703664817E-02
-0.6011488521401E-02  0.6791035516774E-02  0.0000000000000E+00 -0.7806829917845E-02
-0.2672437950210E-02  0.3067435142846E-02  0.0000000000000E+00 -0.8840143042859E-02
 0.2555918922456E-03  0.7300968905666E-04  0.0000000000000E+00 -0.8855950927763E-02
 0.3351443150212E+00 -0.3650196978406E+00  0.0000000000000E+00 -0.1393095046676E+00
 0.3344980438146E+00 -0.3643547792930E+00  0.0000000000000E+00 -0.1440780628878E+00
 0.3313857159685E+00 -0.3611049617362E+00  0.0000000000000E+00 -0.1497503501875E+00
 0.3259191686592E+00 -0.3554433447846E+00  0.0000000000000E+00 -0.1563824500170E+00
 0.3181371312833E+00 -0.3474103303842E+00  0.0000000000000E+00 -0.1638020125169E+00
 0.3080811453059E+00 -0.3370406812837E+00  0.0000000000000E+00 -0.1717508468506E+00
 0.2958197917922E+00 -0.3243911490371E+00  0.0000000000000E+00 -0.1799080452454E+00
 0.2814465448943E+00 -0.3095400692861E+00  0.0000000000000E+00 -0.1878937370896E+00
 0.2650757518712E+00 -0.2925832121853E+00  0.0000000000000E+00 -0.1952681736024E+00
 0.2468387356265E+00 -0.2736294125523E+00  0.0000000000000E+00 -0.2015270367556E+00
 0.2268814673394E+00 -0.2527974817907E+00  0.0000000000000E+00 -0.2060919075613E+00
 0.2053650605174E+00 -0.2302156534285E+00  0.0000000000000E+00 -0.2082945578485E+00
 0.1824709831577E+00 -0.2060253607962E+00  0.0000000000000E+00 -0.2073539416920E+00
 0.1584137948817E+00 -0.1803920144316E+00  0.0000000000000E+00 -0.2023451097329E+00
 0.1334656278942E+00 -0.1535267776334E+00  0.0000000000000E+00 -0.1921595331988E+00
 0.1079993437789E+00 -0.1257257681093E+00  0.0000000000000E+00 -0.1754554917460E+00
 0.8256472967697E-01 -0.9743980790210E-01  0.0000000000000E+00 -0.1505934532676E+00
 0.5803743364193E-01 -0.6941006619574E-01  0.0000000000000E+00 -0.1155407045825E+00
 0.3596763372302E-01 -0.4298889429104E-01  0.0000000000000E+00 -0.6774414651620E-01
 0.1996639330167E-01 -0.2142216364567E-01  0.0000000000000E+00 -0.4479936556082E-02
 0.3357613564718E+00 -0.3656624500347E+00  0.0000000000000E+00 -0.1358676994515E+00
 0.3362558827746E+00 -0.3662608848572E+00  0.0000000000000E+00 -0.1413354877923E+00
 0.3345262377517E+00 -0.3645634952206E+00  0.0000000000000E+00 -0.1474991154702E+00
 0.3304985297753E+00 -0.3605081994033E+00  0.0000000000000E+00 -0.1545931697934E+00
 0.3241957015865E+00 -0.3541325953073E+00  0.0000000000000E+00 -0.1625654140280E+00
 0.3156580917117E+00 -0.3454745808382E+00  0.0000000000000E+00 -0.1711777783187E+00
 0.3049416510964E+00 -0.3345816520719E+00  0.0000000000000E+00 -0.1801003482603E+00
 0.2921233032449E+00 -0.3215180915379E+00  0.0000000000000E+00 -0.1889379858379E+00
 0.2773008790411E+00 -0.3063656825058E+00  0.0000000000000E+00 -0.1972384497254E+00
 0.2605911357473E+00 -0.2892215186255E+00  0.0000000000000E+00 -0.2044917391889E+00
 0.2421276587424E+00 -0.2701952812016E+00  0.0000000000000E+00 -0.2101232990785E+00
 0.2220604585997E+00 -0.2494077917996E+00  0.0000000000000E+00 -0.2134803428151E+00
 0.2005593089229E+00 -0.2269927811796E+00  0.0000000000000E+00 -0.2138097417870E+00
 0.1778235962056E+00 -0.2031044372301E+00  0.0000000000000E+00 -0.2102256834021E+00
 0.1541024989412E+00 -0.1779342270753E+00  0.0000000000000E+00 -0.2016648607831E+00
 0.1297307035556E+00 -0.1517417013997E+00  0.0000000000000E+00 -0.1868245963245E+00
 0.1051880194727E+00 -0.1249060786540E+00  0.0000000000000E+00 -0.1640676681498E+00
 0.8120262898840E-01 -0.9801433540939E-01  0.0000000000000E+00 -0.1312371641226E+00
 0.5898049380094E-01 -0.7204593389624E-01  0.0000000000000E+00 -0.8518141299016E-01
 0.4113624565556E-01 -0.4903532956020E-01  0.0000000000000E+00 -0.1971381249001E-01
 0.3358971377370E+00 -0.3658024381290E+00  0.0000000000000E+00 -0.1314411563002E+00
 0.3373455922885E+00 -0.3674558302515E+00  0.0000000000000E+00 -0.1371189281516E+00
 0.3368421191370E+00 -0.3671174183114E+00  0.0000000000000E+00 -0.1436009585851E+00
 0.3342042638479E+00 -0.3646086656958E+00  0.0000000000000E+00 -0.1510133374255E+00
 0.3293828885561E+00 -0.3598847842939E+00  0.0000000000000E+00 -0.1593338185291E+00
 0.3223859036781E+00 -0.3529544106055E+00  0.0000000000000E+00 -0.1683675654131E+00
 0.3132472170015E+00 -0.3438458926503E+00  0.0000000000000E+00 -0.1777989514441E+00
 0.3020217753739E+00 -0.3326047161170E+00  0.0000000000000E+00 -0.1872312143140E+00
 0.2887853989697E+00 -0.3192940627601E+00  0.0000000000000E+00 -0.1962040905088E+00
 0.2736337624360E+00 -0.3039939911590E+00  0.0000000000000E+00 -0.2041993066502E+00
 0.2566807290627E+00 -0.2867994665100E+00  0.0000000000000E+00 -0.2106374526036E+00
 0.2380572925050E+00 -0.2678186019883E+00  0.0000000000000E+00 -0.2148664117625E+00
 0.2179130315459E+00 -0.2471729267577E+00  0.0000000000000E+00 -0.2161395866863E+00
 0.1964226749057E+00 -0.2250020929919E+00  0.0000000000000E+00 -0.2135812527804E+00
 0.1738011521045E+00 -0.2014761553134E+00  0.0000000000000E+00 -0.2061357914424E+00
 0.1503308605930E+00 -0.1768188611965E+00  0.0000000000000E+00 -0.1924960326612E+00
 0.1264025125581E+00 -0.1513434918575E+00  0.0000000000000E+00 -0.1709989683669E+00
 0.1025637896976E+00 -0.1254944269921E+00  0.0000000000000E+00 -0.1394386866661E+00
 0.7954852517129E-01 -0.9986814502155E-01  0.0000000000000E+00 -0.9459423524648E-01
 0.5796892380705E-01 -0.7494545829505E-01  0.0000000000000E+00 -0.3043111929476E-01
 0.3354926733636E+00 -0.3653645954221E+00  0.0000000000000E+00 -0.1262167247469E+00
 0.3377825144205E+00 -0.3679459330438E+00  0.0000000000000E+00 -0.1317139697666E+00
 0.3383641599755E+00 -0.3688062607001E+00  0.0000000000000E+00 -0.1382232153694E+00
 0.3370112791482E+00 -0.3677189114538E+00  0.0000000000000E+00 -0.1457426711793E+00
 0.3336149867329E+00 -0.3645760270021E+00  0.0000000000000E+00 -0.1542164986842E+00
 0.3281348668405E+00 -0.3593364445877E+00  0.0000000000000E+00 -0.1634673201325E+00
 0.3205689241951E+00 -0.3519945708711E+00  0.0000000000000E+00 -0.1732019124963E+00
 0.3109409128956E+00 -0.3425674163106E+00  0.0000000000000E+00 -0.1830354527738E+00
 0.2992963558914E+00 -0.3310912580221E+00  0.0000000000000E+00 -0.1925108614455E+00
 0.2857005502622E+00 -0.3176199343876E+00  0.0000000000000E+00 -0.2011084814369E+00
 0.2702362281481E+00 -0.3022225410379E+00  0.0000000000000E+00 -0.2082469518803E+00
 0.2530008882611E+00 -0.2849805045695E+00  0.0000000000000E+00 -0.2132747046163E+00
 0.2341048738538E+00 -0.2659850650274E+00  0.0000000000000E+00 -0.2154498692326E+00
 0.2136721220693E+00 -0.2453369597630E+00  0.0000000000000E+00 -0.2139050388353E+00
 0.1918463393446E+00 -0.2231508695849E+00  0.0000000000000E+00 -0.2075926402628E+00
 0.1688054764845E+00 -0.1995674640362E+00  0.0000000000000E+00 -0.1952071051178E+00
 0.1447844424172E+00 -0.1747734427192E+00  0.0000000000000E+00 -0.1750819696315E+00
 0.1200867125230E+00 -0.1490152419095E+00  0.0000000000000E+00 -0.1450618995968E+00
 0.9500509906619E-01 -0.1225367253228E+00  0.0000000000000E+00 -0.1023025001036E+00
 0.6919317600084E-01 -0.9511832950035E-01  0.0000000000000E+00 -0.4327252271369E-01
 0.3344972308467E+00 -0.3642913739480E+00  0.0000000000000E+00 -0.1203242757576E+00
 0.3375340922703E+00 -0.3676913644536E+00  0.0000000000000E+00 -0.1253336318380E+00
 0.3390760647885E+00 -0.3696059025750E+00  0.0000000000000E+00 -0.1315723371155E+00
 0.3388889663080E+00 -0.3697992642078E+00  0.0000000000000E+00 -0.1389420707211E+00
 0.3368268334158E+00 -0.3681247905199E+00  0.0000000000000E+00 -0.1473452973827E+00
 0.3328059525505E+00 -0.3644974973537E+00  0.0000000000000E+00 -0.1566065077228E+00
 0.3267838395185E+00 -0.3588720345522E+00  0.0000000000000E+00 -0.1664537447946E+00
 0.3187469417087E+00 -0.3512301382407E+00  0.0000000000000E+00 -0.1765254087919E+00
 0.3087045692173E+00 -0.3415746657014E+00  0.0000000000000E+00 -0.1863831742002E+00
 0.2966854726694E+00 -0.3299264975320E+00  0.0000000000000E+00 -0.1955222386178E+00
 0.2827345119544E+00 -0.3163214608392E+00  0.0000000000000E+00 -0.2033755568393E+00
 0.2669083531395E+00 -0.3008061828305E+00  0.0000000000000E+00 -0.2093100348656E+00
 0.2492702213183E+00 -0.2834328561116E+00  0.0000000000000E+00 -0.2126117883171E+00
 0.2298846037310E+00 -0.2642537310892E+00  0.0000000000000E+00 -0.2124562444091E+00
 0.2088137529777E+00 -0.2433170401045E+00  0.0000000000000E+00 -0.2078577978405E+00
 0.1861189142458E+00 -0.2206670466242E+00  0.0000000000000E+00 -0.1975944449202E+00
 0.1618686917558E+00 -0.1963507995333E+00  0.0000000000000E+00 -0.1801097916589E+00
 0.1361499710062E+00 -0.1704280450087E+00  0.0000000000000E+00 -0.1534228277870E+00
 0.1090182214032E+00 -0.1429377031939E+00  0.0000000000000E+00 -0.1151694933171E+00
 0.8040128651825E-01 -0.1137657308730E+00  0.0000000000000E+00 -0.6315419767736E-01
 0.3328767902125E+00 -0.3625472750111E+00  0.0000000000000E+00 -0.1138807932407E+00
 0.3365756092968E+00 -0.3666638365152E+00  0.0000000000000E+00 -0.1181750336601E+00
 0.3389619107167E+00 -0.3694953080911E+00  0.0000000000000E+00 -0.1238798107537E+00
 0.3398161006776E+00 -0.3708202016148E+00  0.0000000000000E+00 -0.1308418233826E+00
 0.3389755266548E+00 -0.3704748488671E+00  0.0000000000000E+00 -0.1389351501749E+00
 0.3363254872916E+00 -0.3683432575971E+00  0.0000000000000E+00 -0.1479868457252E+00
 0.3317876924863E+00 -0.3643449804484E+00  0.0000000000000E+00 -0.1577481223508E+00
 0.3253115722001E+00 -0.3584261516056E+00  0.0000000000000E+00 -0.1678894406646E+00
 0.3168687969722E+00 -0.3505540690698E+00  0.0000000000000E+00 -0.1780059157479E+00
 0.3064495309832E+00 -0.3407137019122E+00  0.0000000000000E+00 -0.1876251954040E+00
 0.2940586924402E+00 -0.3289043319078E+00  0.0000000000000E+00 -0.1962134530297E+00
 0.2797108935205E+00 -0.3151349369741E+00  0.0000000000000E+00 -0.2031765166999E+00
 0.2634232916994E+00 -0.2994175397402E+00  0.0000000000000E+00 -0.2078529888141E+00
 0.2452061746391E+00 -0.2817583222208E+00  0.0000000000000E+00 -0.2094950416368E+00
 0.2250519436691E+00 -0.2621470814704E+00  0.0000000000000E+00 -0.2072309891795E+00
 0.2029247661828E+00 -0.2405470081904E+00  0.0000000000000E+00 -0.2000026578816E+00
 0.1787565925953E+00 -0.2168895975438E+00  0.0000000000000E+00 -0.1864739957033E+00
 0.1524616591650E+00 -0.1910846477943E+00  0.0000000000000E+00 -0.1649273340044E+00
 0.1239969694955E+00 -0.1630643923062E+00  0.0000000000000E+00 -0.1332662736970E+00
 0.9346699104148E-01 -0.1328731912498E+00  0.0000000000000E+00 -0.8929228532257E-01
 0.3306088237484E+00 -0.3601087311990E+00  0.0000000000000E+00 -0.1069830638732E+00
 0.3348893110555E+00 -0.3648465644559E+00  0.0000000000000E+00 -0.1104145290943E+00
 0.3380142439704E+00 -0.3684698662687E+00  0.0000000000000E+00 -0.1153797409814E+00
 0.3397902699920E+00 -0.3707838522053E+00  0.0000000000000E+00 -0.1217089323522E+00
 0.3400535791255E+00 -0.3716239993795E+00  0.0000000000000E+00 -0.1292675514233E+00
 0.3386717970749E+00 -0.3708571157092E+00  0.0000000000000E+00 -0.1378935676947E+00
 0.3355399967147E+00 -0.3683768901124E+00  0.0000000000000E+00 -0.1473667227059E+00
 0.3305761510773E+00 -0.3640991525870E+00  0.0000000000000E+00 -0.1573972926071E+00
 0.3237175066373E+00 -0.3579582660695E+00  0.0000000000000E+00 -0.1676255989284E+00
 0.3149176030768E+00 -0.3499043626969E+00  0.0000000000000E+00 -0.1776265630660E+00
 0.3041429649979E+00 -0.3399004185631E+00  0.0000000000000E+00 -0.1869156230324E+00
 0.2913683228780E+00 -0.3279180249304E+00  0.0000000000000E+00 -0.1949533090057E+00
 0.2765692656518E+00 -0.3139307795156E+00  0.0000000000000E+00 -0.2011457893167E+00
 0.2597113662066E+00 -0.2979043842360E+00  0.0000000000000E+00 -0.2048378377521E+00
 0.2407351706886E+00 -0.2797828668811E+00  0.0000000000000E+00 -0.2052928852367E+00
 0.2195375427123E+00 -0.2594713174442E+00  0.0000000000000E+00 -0.2016520045949E+00
 0.1959536302670E+00 -0.2368186610701E+00  0.0000000000000E+00 -0.1928595745143E+00
 0.1697548998900E+00 -0.2116133927170E+00  0.0000000000000E+00 -0.1775416447774E+00
 0.1407222873213E+00 -0.1836382553184E+00  0.0000000000000E+00 -0.1538214338224E+00
 0.1088412700547E+00 -0.1528447577335E+00  0.0000000000000E+00 -0.1192817697533E+00
 0.3276780735975E+00 -0.3569599983746E+00  0.0000000000000E+00 -0.9971093230836E-01
 0.3324581254518E+00 -0.3622234186847E+00  0.0000000000000E+00 -0.1021934362850E+00
 0.3362207648085E+00 -0.3665201984221E+00  0.0000000000000E+00 -0.1062682371695E+00
 0.3388033256926E+00 -0.3696869832112E+00  0.0000000000000E+00 -0.1117780491279E+00
 0.3400514124476E+00 -0.3715693214743E+00  0.0000000000000E+00 -0.1185983234265E+00
 0.3398267203387E+00 -0.3720288231807E+00  0.0000000000000E+00 -0.1265881651855E+00
 0.3380082041841E+00 -0.3709439530400E+00  0.0000000000000E+00 -0.1355622814020E+00
 0.3344910047836E+00 -0.3682087699178E+00  0.0000000000000E+00 -0.1452774324751E+00
 0.3291849007945E+00 -0.3637313547356E+00  0.0000000000000E+00 -0.1554282153253E+00
 0.3220126008499E+00 -0.3574322308342E+00  0.0000000000000E+00 -0.1656485377730E+00
 0.3129074351425E+00 -0.3492423435940E+00  0.0000000000000E+00 -0.1755162708309E+00
 0.3018096164368E+00 -0.3390997897786E+00  0.0000000000000E+00 -0.1845592018056E+00
 0.2886600064931E+00 -0.3269442824645E+00  0.0000000000000E+00 -0.1922605457553E+00
 0.2733901148179E+00 -0.3127081647203E+00  0.0000000000000E+00 -0.1980618242912E+00
 0.2559068308118E+00 -0.2963026136446E+00  0.0000000000000E+00 -0.2013596350859E+00
 0.2360703572980E+00 -0.2775976765620E+00  0.0000000000000E+00 -0.2014899311825E+00
 0.2136645336714E+00 -0.2563956167011E+00  0.0000000000000E+00 -0.1976869528289E+00
 0.1883645276285E+00 -0.2324018462934E+00  0.0000000000000E+00 -0.1889870255922E+00
 0.1597186809342E+00 -0.2052124715347E+00  0.0000000000000E+00 -0.1740053900068E+00
 0.1273322102347E+00 -0.1744410105181E+00  0.0000000000000E+00 -0.1504392216290E+00
 0.3240768939136E+00 -0.3530933364620E+00  0.0000000000000E+00 -0.9213551632871E-01
 0.3292692993835E+00 -0.3587829633531E+00  0.0000000000000E+00 -0.9362701277823E-01
 0.3335689328955E+00 -0.3636370539303E+00  0.0000000000000E+00 -0.9670740525474E-01
 0.3368440190730E+00 -0.3675239191556E+00  0.0000000000000E+00 -0.1012505044937E+00
 0.3389557768175E+00 -0.3703054704574E+00  0.0000000000000E+00 -0.1071556706400E+00
 0.3397689788166E+00 -0.3718472262486E+00  0.0000000000000E+00 -0.1143114780820E+00
 0.3391561686390E+00 -0.3720221859446E+00  0.0000000000000E+00 -0.1225724895053E+00
 0.3369990444822E+00 -0.3707120154130E+00  0.0000000000000E+00 -0.1317460125620E+00
 0.3331886979404E+00 -0.3678072001590E+00  0.0000000000000E+00 -0.1415861177109E+00
 0.3276252630607E+00 -0.3632067142959E+00  0.0000000000000E+00 -0.1517928898782E+00
 0.3202168605319E+00 -0.3568170969021E+00  0.0000000000000E+00 -0.1620154717268E+00
 0.3108773079375E+00 -0.3485504290179E+00  0.0000000000000E+00 -0.1718578665081E+00
 0.2995217531033E+00 -0.3383204120152E+00  0.0000000000000E+00 -0.1808866839288E+00
 0.2860590445877E+00 -0.3260354447895E+00  0.0000000000000E+00 -0.1886399906619E+00
 0.2703791504661E+00 -0.3115871627512E+00  0.0000000000000E+00 -0.1946360069376E+00
 0.2523330356255E+00 -0.2948321766005E+00  0.0000000000000E+00 -0.1983790925491E+00
 0.2317009083452E+00 -0.2755635210354E+00  0.0000000000000E+00 -0.1993568040069E+00
 0.2081405065100E+00 -0.2534657816864E+00  0.0000000000000E+00 -0.1970111198578E+00
 0.1811040175006E+00 -0.2280442078987E+00  0.0000000000000E+00 -0.1906360207654E+00
 0.1496844333010E+00 -0.1985222242593E+00  0.0000000000000E+00 -0.1789613076571E+00
 0.3198039551283E+00 -0.3485074482184E+00  0.0000000000000E+00 -0.8432174160450E-01
 0.3253142386341E+00 -0.3545181979236E+00  0.0000000000000E+00 -0.8480796393559E-01
 0.3300471561191E+00 -0.3598126312380E+00  0.0000000000000E+00 -0.8682612542196E-01
 0.3338993163369E+00 -0.3642881350993E+00  0.0000000000000E+00 -0.9029135030422E-01
 0.3367502572701E+00 -0.3678256486656E+00  0.0000000000000E+00 -0.9513526388503E-01
 0.3384738163775E+00 -0.3703005536259E+00  0.0000000000000E+00 -0.1012808119131E+00
 0.3389437889484E+00 -0.3715880135136E+00  0.0000000000000E+00 -0.1086244595653E+00
 0.3380367809419E+00 -0.3715656202621E+00  0.0000000000000E+00 -0.1170246454216E+00
 0.3356337663020E+00 -0.3701148176927E+00  0.0000000000000E+00 -0.1262954223890E+00
 0.3316209629016E+00 -0.3671217043278E+00  0.0000000000000E+00 -0.1362044074763E+00
 0.3258901028090E+00 -0.3624772905811E+00  0.0000000000000E+00 -0.1464744182388E+00
 0.3183378155069E+00 -0.3560769368199E+00  0.0000000000000E+00 -0.1567884230585E+00
 0.3088635613145E+00 -0.3478184286218E+00  0.0000000000000E+00 -0.1667976633693E+00
 0.2973652487586E+00 -0.3375978607520E+00  0.0000000000000E+00 -0.1761330390457E+00
 0.2837312016933E+00 -0.3253020786094E+00  0.0000000000000E+00 -0.1844201136271E+00
 0.2678262752233E+00 -0.3107956417081E+00  0.0000000000000E+00 -0.1912984228221E+00
 0.2494678774067E+00 -0.2938985772510E+00  0.0000000000000E+00 -0.1964461747556E+00
 0.2283832054174E+00 -0.2743470995025E+00  0.0000000000000E+00 -0.1996125174528E+00
 0.2041230881793E+00 -0.2517181890367E+00  0.0000000000000E+00 -0.2006589730025E+00
 0.1758404722981E+00 -0.2252440866264E+00  0.0000000000000E+00 -0.1996405030884E+00
 0.3148634547197E+00 -0.3432068239876E+00  0.0000000000000E+00 -0.7633185939123E-01
 0.3205890674935E+00 -0.3494270639277E+00  0.0000000000000E+00 -0.7581056955001E-01
 0.3256465266283E+00 -0.3550419346629E+00  0.0000000000000E+00 -0.7672206238581E-01
 0.3299565056671E+00 -0.3599734978553E+00  0.0000000000000E+00 -0.7902695163798E-01
 0.3334169835008E+00 -0.3641217715093E+00  0.0000000000000E+00 -0.8269265869244E-01
 0.3359141137639E+00 -0.3673751495152E+00  0.0000000000000E+00 -0.8767810216341E-01
 0.3373281122284E+00 -0.3696160254350E+00  0.0000000000000E+00 -0.9392102651249E-01
 0.3375367498098E+00 -0.3707240880172E+00  0.0000000000000E+00 -0.1013286061671E+00
 0.3364177095701E+00 -0.3705785227162E+00  0.0000000000000E+00 -0.1097713971077E+00
 0.3338504097801E+00 -0.3690597065200E+00  0.0000000000000E+00 -0.1190805296047E+00
 0.3297174889520E+00 -0.3660505854648E+00  0.0000000000000E+00 -0.1290480880267E+00
 0.3239058815198E+00 -0.3614376598327E+00  0.0000000000000E+00 -0.1394307607715E+00
 0.3163072176498E+00 -0.3551113076254E+00  0.0000000000000E+00 -0.1499570391374E+00
 0.3068171072297E+00 -0.3469650039495E+00  0.0000000000000E+00 -0.1603385420393E+00
 0.2953326571452E+00 -0.3368927805393E+00  0.0000000000000E+00 -0.1702865651751E+00
 0.2817471966972E+00 -0.3247839077425E+00  0.0000000000000E+00 -0.1795359574820E+00
 0.2659405217088E+00 -0.3105130574162E+00  0.0000000000000E+00 -0.1878806273367E+00
 0.2477612715735E+00 -0.2939226671849E+00  0.0000000000000E+00 -0.1952301565858E+00
 0.2269948959353E+00 -0.2747899507418E+00  0.0000000000000E+00 -0.2017142494412E+00
 0.2033114204496E+00 -0.2527653582341E+00  0.0000000000000E+00 -0.2079297364306E+00
 0.3092622269565E+00 -0.3371981938244E+00  0.0000000000000E+00 -0.6822486976533E-01
 0.3150919829061E+00 -0.3435089212452E+00  0.0000000000000E+00 -0.6669248787737E-01
 0.3203588667644E+00 -0.3493197591127E+00  0.0000000000000E+00 -0.6646568549318E-01
 0.3250020898395E+00 -0.3545720311860E+00  0.0000000000000E+00 -0.6754910678111E-01
 0.3289367472393E+00 -0.3591834470796E+00  0.0000000000000E+00 -0.6994582439550E-01
 0.3320626405424E+00 -0.3630566663113E+00  0.0000000000000E+00 -0.7365003012479E-01
 0.3342695391419E+00 -0.3660843550073E+00  0.0000000000000E+00 -0.7863860825424E-01
 0.3354406391591E+00 -0.3681524760697E+00  0.0000000000000E+00 -0.8486375446110E-01
 0.3354551936663E+00 -0.3691427654666E+00  0.0000000000000E+00 -0.9224738544725E-01
 0.3341908540386E+00 -0.3689349243153E+00  0.0000000000000E+00 -0.1006776875275E+00
 0.3315259892651E+00 -0.3674087848584E+00  0.0000000000000E+00 -0.1100080737648E+00
 0.3273420685858E+00 -0.3644465269453E+00  0.0000000000000E+00 -0.1200588694796E+00
 0.3215260784989E+00 -0.3599349035816E+00  0.0000000000000E+00 -0.1306221619656E+00
 0.3139728911534E+00 -0.3537673699178E+00  0.0000000000000E+00 -0.1414704483291E+00
 0.3045875108386E+00 -0.3458460004712E+00  0.0000000000000E+00 -0.1523700822542E+00
 0.2932872394384E+00 -0.3360831397453E+00  0.0000000000000E+00 -0.1631012449845E+00
 0.2800041094757E+00 -0.3244029504923E+00  0.0000000000000E+00 -0.1734875622363E+00
 0.2646891214453E+00 -0.3107437427102E+00  0.0000000000000E+00 -0.1834414149394E+00
 0.2473240661745E+00 -0.2950651562882E+00  0.0000000000000E+00 -0.1930365716370E+00
 0.2279681284207E+00 -0.2773794291309E+00  0.0000000000000E+00 -0.2026171581200E+00
 0.3030100033118E+00 -0.3304917008235E+00  0.0000000000000E+00 -0.6007170368181E-01
 0.3088267055742E+00 -0.3367680726483E+00  0.0000000000000E+00 -0.5751924775513E-01
 0.3141811950546E+00 -0.3426444096497E+00  0.0000000000000E+00 -0.5612979034653E-01
 0.3190267125085E+00 -0.3480767143733E+00  0.0000000000000E+00 -0.5594523062097E-01
 0.3232937438824E+00 -0.3529986090270E+00  0.0000000000000E+00 -0.5700128803037E-01
 0.3268960821862E+00 -0.3573272903462E+00  0.0000000000000E+00 -0.5932500879092E-01
 0.3297349275831E+00 -0.3609674969727E+00  0.0000000000000E+00 -0.6292945065110E-01
 0.3317018222711E+00 -0.3638143117703E+00  0.0000000000000E+00 -0.6780793117980E-01
 0.3326810755373E+00 -0.3657554516949E+00  0.0000000000000E+00 -0.7392883554753E-01
 0.3325521312389E+00 -0.3666734897704E+00  0.0000000000000E+00 -0.8123150706779E-01
 0.3311921702797E+00 -0.3664482940134E+00  0.0000000000000E+00 -0.8962361026635E-01
 0.3284791267079E+00 -0.3649598529336E+00  0.0000000000000E+00 -0.9898034655171E-01
 0.3242952283392E+00 -0.3620915858852E+00  0.0000000000000E+00 -0.1091459339387E+00
 0.3185311650992E+00 -0.3577342200796E+00  0.0000000000000E+00 -0.1199378032975E+00
 0.3110910762558E+00 -0.3517903832444E+00  0.0000000000000E+00 -0.1311540203647E+00
 0.3018987876387E+00 -0.3441802671478E+00  0.0000000000000E+00 -0.1425845386579E+00
 0.2909062670448E+00 -0.3348491650190E+00  0.0000000000000E+00 -0.1540269862145E+00
 0.2781063511381E+00 -0.3237786849638E+00  0.0000000000000E+00 -0.1653071626384E+00
 0.2635545108529E+00 -0.3110057548763E+00  0.0000000000000E+00 -0.1763003628050E+00
 0.2474032985055E+00 -0.2966562116040E+00  0.0000000000000E+00 -0.1869322226672E+00
 0.2961194709268E+00 -0.3231011575138E+00  0.0000000000000E+00 -0.5195897567172E-01
 0.3018034361918E+00 -0.3292156744453E+00  0.0000000000000E+00 -0.4837685585155E-01
 0.3071184284576E+00 -0.3350217862664E+00  0.0000000000000E+00 -0.4580751562698E-01
 0.3120292507416E+00 -0.3404874838598E+00  0.0000000000000E+00 -0.4432099729048E-01
 0.3164803211318E+00 -0.3455607235358E+00  0.0000000000000E+00 -0.4398053472027E-01
 0.3203993628731E+00 -0.3501730728369E+00  0.0000000000000E+00 -0.4484213516014E-01
 0.3237001870496E+00 -0.3542424167235E+00  0.0000000000000E+00 -0.4695127680257E-01
 0.3262848115654E+00 -0.3576749842530E+00  0.0000000000000E+00 -0.5033842020175E-01
 0.3280453120303E+00 -0.3603670941446E+00  0.0000000000000E+00 -0.5501419163364E-01
 0.3288657640759E+00 -0.3622069742041E+00  0.0000000000000E+00 -0.6096473091921E-01
 0.3286245647817E+00 -0.3630769357162E+00  0.0000000000000E+00 -0.6814756817958E-01
 0.3271973543619E+00 -0.3628561169079E+00  0.0000000000000E+00 -0.7648836591123E-01
 0.3244607083246E+00 -0.3614239579831E+00  0.0000000000000E+00 -0.8587885306182E-01
 0.3202967483590E+00 -0.3586645454241E+00  0.0000000000000E+00 -0.9617622478396E-01
 0.3145988533668E+00 -0.3544719901606E+00  0.0000000000000E+00 -0.1072041271954E+00
 0.3072787864549E+00 -0.3487571223833E+00  0.0000000000000E+00 -0.1187550312274E+00
 0.2982757931208E+00 -0.3414560309528E+00  0.0000000000000E+00 -0.1305932281003E+00
 0.2875684623338E+00 -0.3325412445627E+00  0.0000000000000E+00 -0.1424565235388E+00
 0.2751892324918E+00 -0.3220360507905E+00  0.0000000000000E+00 -0.1540519388352E+00
 0.2612390845054E+00 -0.3100296687457E+00  0.0000000000000E+00 -0.1650399821595E+00
 0.2886063649920E+00 -0.3150438190128E+00  0.0000000000000E+00 -0.4398167892422E-01
 0.2940376833995E+00 -0.3208687652384E+00  0.0000000000000E+00 -0.3936634245353E-01
 0.2991829760751E+00 -0.3264658188992E+00  0.0000000000000E+00 -0.3560980829821E-01
 0.3040175387162E+00 -0.3318136539563E+00  0.0000000000000E+00 -0.3280158262299E-01
 0.3084987143902E+00 -0.3368733774110E+00  0.0000000000000E+00 -0.3102623812378E-01
 0.3125679777937E+00 -0.3415905940817E+00  0.0000000000000E+00 -0.3036373469986E-01
 0.3161525477116E+00 -0.3458969789261E+00  0.0000000000000E+00 -0.3088741307887E-01
 0.3191665923029E+00 -0.3497114283817E+00  0.0000000000000E+00 -0.3266055973632E-01
 0.3215122772543E+00 -0.3529410401499E+00  0.0000000000000E+00 -0.3573208219389E-01
 0.3230809387453E+00 -0.3554821992718E+00  0.0000000000000E+00 -0.4013162918585E-01
 0.3237546471953E+00 -0.3572220305652E+00  0.0000000000000E+00 -0.4586440473858E-01
 0.3234083960322E+00 -0.3580404460176E+00  0.0000000000000E+00 -0.5290591124745E-01
 0.3219131076545E+00 -0.3578129757909E+00  0.0000000000000E+00 -0.6119686291326E-01
 0.3191395949585E+00 -0.3564145218814E+00  0.0000000000000E+00 -0.7063847596197E-01
 0.3149635571084E+00 -0.3537241185412E+00  0.0000000000000E+00 -0.8108818576043E-01
 0.3092716348745E+00 -0.3496307389999E+00  0.0000000000000E+00 -0.9235547283277E-01
 0.3019685345370E+00 -0.3440401697147E+00  0.0000000000000E+00 -0.1041968601829E+00
 0.2929850949869E+00 -0.3368829243747E+00  0.0000000000000E+00 -0.1163086108332E+00
 0.2822866380537E+00 -0.3281226201348E+00  0.0000000000000E+00 -0.1283164929155E+00
 0.2698797341835E+00 -0.3177632576790E+00  0.0000000000000E+00 -0.1397636790912E+00
 0.2804903044496E+00 -0.3063411920467E+00  0.0000000000000E+00 -0.3623900368364E-01
 0.2855503181751E+00 -0.3117503066674E+00  0.0000000000000E+00 -0.3059841057423E-01
 0.2903947749367E+00 -0.3169986831789E+00  0.0000000000000E+00 -0.2566119948353E-01
 0.2950089126224E+00 -0.3220749020836E+00  0.0000000000000E+00 -0.2152913933081E-01
 0.2993622645858E+00 -0.3269522820945E+00  0.0000000000000E+00 -0.1830184707671E-01
 0.3034098280220E+00 -0.3315900373519E+00  0.0000000000000E+00 -0.1607757067594E-01
 0.3070927868592E+00 -0.3359339864675E+00  0.0000000000000E+00 -0.1495223169743E-01
 0.3103388642873E+00 -0.3399168857982E+00  0.0000000000000E+00 -0.1501705147218E-01
 0.3130624906777E+00 -0.3434585692303E+00  0.0000000000000E+00 -0.1635499553885E-01
 0.3151650100943E+00 -0.3464661125422E+00  0.0000000000000E+00 -0.1903617459641E-01
 0.3165351592069E+00 -0.3488342498861E+00  0.0000000000000E+00 -0.2311229073408E-01
 0.3170500498470E+00 -0.3504462674354E+00  0.0000000000000E+00 -0.2861022251100E-01
 0.3165768655170E+00 -0.3511755811095E+00  0.0000000000000E+00 -0.3552489087013E-01
 0.3149754260313E+00 -0.3508881561423E+00  0.0000000000000E+00 -0.4381161031618E-01
 0.3121016610483E+00 -0.3494458260371E+00  0.0000000000000E+00 -0.5337814410245E-01
 0.3078118546393E+00 -0.3467104047314E+00  0.0000000000000E+00 -0.6407654914958E-01
 0.3019672924255E+00 -0.3425482768549E+00  0.0000000000000E+00 -0.7569451392400E-01
 0.2944389262842E+00 -0.3368350309959E+00  0.0000000000000E+00 -0.8794527766029E-01
 0.2851121161353E+00 -0.3294601223760E+00  0.0000000000000E+00 -0.1004555830310E+00
 0.2738916361819E+00 -0.3203317774533E+00  0.0000000000000E+00 -0.1127545249794E+00
 0.2717957671707E+00 -0.2970200256773E+00  0.0000000000000E+00 -0.2883203285477E-01
 0.2763683800265E+00 -0.3018899792895E+00  0.0000000000000E+00 -0.2218948476178E-01
 0.2807820146119E+00 -0.3066515375386E+00  0.0000000000000E+00 -0.1609581963159E-01
 0.2850312120355E+00 -0.3113023386312E+00  0.0000000000000E+00 -0.1065941866945E-01
 0.2890969445030E+00 -0.3158269419289E+00  0.0000000000000E+00 -0.5989042893362E-02
 0.2929473636101E+00 -0.3201975709410E+00  0.0000000000000E+00 -0.2195315546266E-02
 0.2965379404918E+00 -0.3243742599064E+00  0.0000000000000E+00  0.6091159392865E-03
 0.2998111353535E+00 -0.3283045351675E+00  0.0000000000000E+00  0.2310707936645E-02
 0.3026957529272E+00 -0.3319227827992E+00  0.0000000000000E+00  0.2797406455054E-02
 0.3051061540877E+00 -0.3351494673101E+00  0.0000000000000E+00  0.1962316533020E-02
 0.3069415104460E+00 -0.3378903813240E+00  0.0000000000000E+00 -0.2912708954184E-03
 0.3080853099604E+00 -0.3400361261832E+00  0.0000000000000E+00 -0.4043415301681E-02
 0.3084053392224E+00 -0.3414620412034E+00  0.0000000000000E+00 -0.9349608264732E-02
 0.3077543596280E+00 -0.3420287954749E+00  0.0000000000000E+00 -0.1623153035952E-01
 0.3059716210440E+00 -0.3415837946343E+00  0.0000000000000E+00 -0.2466684496463E-01
 0.3028851655157E+00 -0.3399633884613E+00  0.0000000000000E+00 -0.3457864335935E-01
 0.2983145498272E+00 -0.3369955626258E+00  0.0000000000000E+00 -0.4582525765958E-01
 0.2920731431488E+00 -0.3325023934733E+00  0.0000000000000E+00 -0.5819065506397E-01
 0.2839695848831E+00 -0.3263015117098E+00  0.0000000000000E+00 -0.7137302312641E-01
 0.2738105551112E+00 -0.3182082426913E+00  0.0000000000000E+00 -0.8496869296134E-01
 0.2625529296041E+00 -0.2871131675835E+00  0.0000000000000E+00 -0.2186192407795E-01
 0.2665260976084E+00 -0.2913251918852E+00  0.0000000000000E+00 -0.1425844394005E-01
 0.2703822524392E+00 -0.2954656198267E+00  0.0000000000000E+00 -0.7053532435334E-02
 0.2741241786177E+00 -0.2995398893384E+00  0.0000000000000E+00 -0.3578582793269E-03
 0.2777432594030E+00 -0.3035425470937E+00  0.0000000000000E+00  0.5715942371919E-02
 0.2812201361926E+00 -0.3074579075519E+00  0.0000000000000E+00  0.1105072330709E-01
 0.2845245545339E+00 -0.3112599205549E+00  0.0000000000000E+00  0.1552335130970E-01
 0.2876145905077E+00 -0.3149114352200E+00  0.0000000000000E+00  0.1900433887551E-01
 0.2904353918786E+00 -0.3183629903732E+00  0.0000000000000E+00  0.2135862808836E-01
 0.2929175443469E+00 -0.3215512368029E+00  0.0000000000000E+00  0.2244763643731E-01
 0.2949751783892E+00 -0.3243971009752E+00  0.0000000000000E+00  0.2213275963922E-01
 0.2965039639864E+00 -0.3268038284159E+00  0.0000000000000E+00  0.2028058553774E-01
 0.2973791963267E+00 -0.3286550964801E+00  0.0000000000000E+00  0.1677007187402E-01
 0.2974542475344E+00 -0.3298134543224E+00  0.0000000000000E+00  0.1150182313248E-01
 0.2965597168883E+00 -0.3301194078642E+00  0.0000000000000E+00  0.4409286694329E-02
 0.2945035831248E+00 -0.3293914548738E+00  0.0000000000000E+00 -0.4528890914384E-02
 0.2910724182719E+00 -0.3274271795897E+00  0.0000000000000E+00 -0.1527688031783E-01
 0.2860331197736E+00 -0.3240049844403E+00  0.0000000000000E+00 -0.2773231473066E-01
 0.2791326128573E+00 -0.3188846396959E+00  0.0000000000000E+00 -0.4172115302026E-01
 0.2700936760378E+00 -0.3118033275469E+00  0.0000000000000E+00 -0.5698586493390E-01
 0.2527982939890E+00 -0.2766601988161E+00  0.0000000000000E+00 -0.1542801315964E-01
 0.2560658798398E+00 -0.2801020627920E+00  0.0000000000000E+00 -0.6923522428198E-02
 0.2592436839450E+00 -0.2834934930079E+00  0.0000000000000E+00  0.1324004797407E-02
 0.2623410976531E+00 -0.2868459014558E+00  0.0000000000000E+00  0.9204812450698E-02
 0.2653584326149E+00 -0.2901621170632E+00  0.0000000000000E+00  0.1660691048534E-01
 0.2682877045068E+00 -0.2934371665457E+00  0.0000000000000E+00  0.2341215558338E-01
 0.2711124328412E+00 -0.2966581021774E+00  0.0000000000000E+00  0.2949330211437E-01
 0.2738067053917E+00 -0.2998031228674E+00  0.0000000000000E+00  0.3471196256302E-01
 0.2763336136462E+00 -0.3028400874656E+00  0.0000000000000E+00  0.3891745043946E-01
 0.2786430979840E+00 -0.3057244580437E+00  0.0000000000000E+00  0.4194660177579E-01
 0.2806692224489E+00 -0.3083966906164E+00  0.0000000000000E+00  0.4362480117999E-01
 0.2823269146511E+00 -0.3107791029900E+00  0.0000000000000E+00  0.4376857513608E-01
 0.2835082673113E+00 -0.3127723025956E+00  0.0000000000000E+00  0.4219024275946E-01
 0.2840786224338E+00 -0.3142513686776E+00  0.0000000000000E+00  0.3870518517624E-01
 0.2838728661023E+00 -0.3150621714863E+00  0.0000000000000E+00  0.3314219620540E-01
 0.2826926291511E+00 -0.3150184688351E+00  0.0000000000000E+00  0.2535687950229E-01
 0.2803052830067E+00 -0.3139006322398E+00  0.0000000000000E+00  0.1524686793426E-01
 0.2764454794876E+00 -0.3114567843150E+00  0.0000000000000E+00  0.2765670586371E-02
 0.2708191595957E+00 -0.3074064352797E+00  0.0000000000000E+00 -0.1207226961431E-01
 0.2630996863146E+00 -0.3014409838494E+00  0.0000000000000E+00 -0.2920887624877E-01
 0.2425750996013E+00 -0.2657078423302E+00  0.0000000000000E+00 -0.9625575139329E-02
 0.2450391975741E+00 -0.2682762950693E+00  0.0000000000000E+00 -0.2990779291663E-03
 0.2474264400068E+00 -0.2708003151689E+00  0.0000000000000E+00  0.8897431687268E-02
 0.2497505528601E+00 -0.2732948524570E+00  0.0000000000000E+00  0.1785736918805E-01
 0.2520187807960E+00 -0.2757688198776E+00  0.0000000000000E+00  0.2647304153015E-01
 0.2542328462048E+00 -0.2782260252018E+00  0.0000000000000E+00  0.3463017687270E-01
 0.2563888981417E+00 -0.2806651564868E+00  0.0000000000000E+00  0.4220354465932E-01
 0.2584767163174E+00 -0.2830790482829E+00  0.0000000000000E+00  0.4905324482198E-01
 0.2604782242677E+00 -0.2854532867175E+00  0.0000000000000E+00  0.5502149517055E-01
 0.2623652863780E+00 -0.2877641303440E+00  0.0000000000000E+00  0.5992989286082E-01
 0.2640967069650E+00 -0.2899756694239E+00  0.0000000000000E+00  0.6357727550715E-01
 0.2656143191194E+00 -0.2920361143621E+00  0.0000000000000E+00  0.6573849389859E-01
 0.2668380572177E+00 -0.2938731044637E+00  0.0000000000000E+00  0.6616465937949E-01
 0.2676599858478E+00 -0.2953879916101E+00  0.0000000000000E+00  0.6458576274090E-01
 0.2679374775676E+00 -0.2964492413435E+00  0.0000000000000E+00  0.6071695171862E-01
 0.2674862126754E+00 -0.2968855098709E+00  0.0000000000000E+00  0.5427003243617E-01
 0.2660744918535E+00 -0.2964797165443E+00  0.0000000000000E+00  0.4497131554488E-01
 0.2634212908789E+00 -0.2949663684087E+00  0.0000000000000E+00  0.3258483746769E-01
 0.2592019321834E+00 -0.2920354593376E+00  0.0000000000000E+00  0.1693662649905E-01
 0.2530704415026E+00 -0.2873500311995E+00  0.0000000000000E+00 -0.2085227232008E-02
 0.2319336884699E+00 -0.2543102789838E+00  0.0000000000000E+00 -0.4543095795056E-02
 0.2335075178581E+00 -0.2559140044403E+00  0.0000000000000E+00  0.5507600784794E-02
 0.2350039079716E+00 -0.2574649840367E+00  0.0000000000000E+00  0.1553344609073E-01
 0.2364382165811E+00 -0.2589789219715E+00  0.0000000000000E+00  0.2543258424017E-01
 0.2378221942748E+00 -0.2604681868575E+00  0.0000000000000E+00  0.3510407967668E-01
 0.2391650211118E+00 -0.2619428723438E+00  0.0000000000000E+00  0.4444130333623E-01
 0.2404735936695E+00 -0.2634111070561E+00  0.0000000000000E+00  0.5332635272088E-01
 0.2417521444527E+00 -0.2648787268461E+00  0.0000000000000E+00  0.6162490354375E-01
 0.2430012327627E+00 -0.2663483486933E+00  0.0000000000000E+00  0.6918114975876E-01
 0.2442160475956E+00 -0.2678177953385E+00  0.0000000000000E+00  0.7581260605088E-01
 0.2453838749765E+00 -0.2692777343662E+00  0.0000000000000E+00  0.8130465711623E-01
 0.2464804892405E+00 -0.2707083068652E+00  0.0000000000000E+00  0.8540489015056E-01
 0.2474651307699E+00 -0.2720744268258E+00  0.0000000000000E+00  0.8781750176363E-01
 0.2482736461930E+00 -0.2733193440334E+00  0.0000000000000E+00  0.8819852425800E-01
 0.2488093515823E+00 -0.2743560275021E+00  0.0000000000000E+00  0.8615341920619E-01
 0.2489313924787E+00 -0.2750560789686E+00  0.0000000000000E+00  0.8123992478250E-01
 0.2484412821701E+00 -0.2752365795055E+00  0.0000000000000E+00  0.7298096527463E-01
 0.2470704297228E+00 -0.2746472049599E+00  0.0000000000000E+00  0.6089332129163E-01
 0.2444735652294E+00 -0.2729624195155E+00  0.0000000000000E+00  0.4453575706190E-01
 0.2402426124117E+00 -0.2697882107818E+00  0.0000000000000E+00  0.2359420964881E-01
 0.2209319260657E+00 -0.2425294795757E+00  0.0000000000000E+00 -0.2610960594813E-03
 0.2215430868067E+00 -0.2430921662346E+00  0.0000000000000E+00  0.1039589384998E-01
 0.2220636922728E+00 -0.2435807156111E+00  0.0000000000000E+00  0.2110377681930E-01
 0.2225081974552E+00 -0.2440088520094E+00  0.0000000000000E+00  0.3176569823514E-01
 0.2228901002764E+00 -0.2443894780492E+00  0.0000000000000E+00  0.4228845598912E-01
 0.2232233114955E+00 -0.2447360290181E+00  0.0000000000000E+00  0.5257527821402E-01
 0.2235228996870E+00 -0.2450632199562E+00  0.0000000000000E+00  0.6251939476747E-01
 0.2238053323712E+00 -0.2453873062749E+00  0.0000000000000E+00  0.7199789557763E-01
 0.2240882747392E+00 -0.2457259283956E+00  0.0000000000000E+00  0.8086538026238E-01
 0.2243899210304E+00 -0.2460975240163E+00  0.0000000000000E+00  0.8894693969111E-01
 0.2247277268630E+00 -0.2465201915644E+00  0.0000000000000E+00  0.9603002270713E-01
 0.2251162777692E+00 -0.2470097647509E+00  0.0000000000000E+00  0.1018547581763E+00
 0.2255638423260E+00 -0.2475766863959E+00  0.0000000000000E+00  0.1061023685598E+00
 0.2260668799420E+00 -0.2482210141764E+00  0.0000000000000E+00  0.1083815275144E+00
 0.2266013574239E+00 -0.2489245059283E+00  0.0000000000000E+00  0.1082131156228E+00
 0.2271091731543E+00 -0.2496381934317E+00  0.0000000000000E+00  0.1050153368067E+00
 0.2274774285486E+00 -0.2502632678006E+00  0.0000000000000E+00  0.9809470822353E-01
 0.2275093465794E+00 -0.2506233891913E+00  0.0000000000000E+00  0.8665620688584E-01
 0.2268907539085E+00 -0.2504311112320E+00  0.0000000000000E+00  0.6985121751550E-01
 0.2251469892844E+00 -0.2492507595950E+00  0.0000000000000E+00  0.4687770163652E-01
 0.2096336596163E+00 -0.2304336788662E+00  0.0000000000000E+00  0.3149063411728E-02
 0.2092264693503E+00 -0.2298966034550E+00  0.0000000000000E+00  0.1427270511703E-01
 0.2087050976721E+00 -0.2292530462749E+00  0.0000000000000E+00  0.2548619639262E-01
 0.2080805329559E+00 -0.2285120754140E+00  0.0000000000000E+00  0.3669586043504E-01
 0.2073651862975E+00 -0.2276841608996E+00  0.0000000000000E+00  0.4781539040327E-01
 0.2065747540929E+00 -0.2267829752668E+00  0.0000000000000E+00  0.5875802174605E-01
 0.2057294775055E+00 -0.2258266059024E+00  0.0000000000000E+00  0.6942958068386E-01
 0.2048550721919E+00 -0.2248384496267E+00  0.0000000000000E+00  0.7972190145033E-01
 0.2039835051331E+00 -0.2238479676252E+00  0.0000000000000E+00  0.8950601302642E-01
 0.2031537049819E+00 -0.2228913925610E+00  0.0000000000000E+00  0.9862443099679E-01
 0.2024122007354E+00 -0.2220123931537E+00  0.0000000000000E+00  0.1068817968437E+00
 0.2018135703756E+00 -0.2212625990795E+00  0.0000000000000E+00  0.1140329453601E+00
 0.2014204060082E+00 -0.2207017344180E+00  0.0000000000000E+00  0.1197672261359E+00
 0.2013021868949E+00 -0.2203968324414E+00  0.0000000000000E+00  0.1236875458856E+00
 0.2015318420456E+00 -0.2204194750673E+00  0.0000000000000E+00  0.1252821747341E+00
 0.2021775621032E+00 -0.2208389395998E+00  0.0000000000000E+00  0.1238871583080E+00
 0.2032850364680E+00 -0.2217070256816E+00  0.0000000000000E+00  0.1186382110168E+00
 0.2048402934923E+00 -0.2230260670815E+00  0.0000000000000E+00  0.1084174997146E+00
 0.2067023387019E+00 -0.2246868340705E+00  0.0000000000000E+00  0.9182957919797E-01
 0.2085179549176E+00 -0.2263814028666E+00  0.0000000000000E+00  0.6724125461225E-01
 0.1981091265911E+00 -0.2180976671917E+00  0.0000000000000E+00  0.5630654185524E-02
 0.1966472648820E+00 -0.2164224164120E+00  0.0000000000000E+00  0.1706126603998E-01
 0.1950401657528E+00 -0.2146005978174E+00  0.0000000000000E+00  0.2857596822032E-01
 0.1932927930282E+00 -0.2126340246082E+00  0.0000000000000E+00  0.4008050093166E-01
 0.1914138672530E+00 -0.2105280769665E+00  0.0000000000000E+00  0.5149246549192E-01
 0.1894182006978E+00 -0.2082939188457E+00  0.0000000000000E+00  0.6273257042621E-01
 0.1873283663537E+00 -0.2059500566606E+00  0.0000000000000E+00  0.7371725914872E-01
 0.1851761997921E+00 -0.2035237324125E+00  0.0000000000000E+00  0.8435218785071E-01
 0.1830044912698E+00 -0.2010525026186E+00  0.0000000000000E+00  0.9452585783522E-01
 0.1808691282164E+00 -0.1985862574982E+00  0.0000000000000E+00  0.1041026177368E+00
 0.1788418976491E+00 -0.1961898858145E+00  0.0000000000000E+00  0.1129141236153E+00
 0.1770141379607E+00 -0.1939467745185E+00  0.0000000000000E+00  0.1207480900592E+00
 0.1755014144208E+00 -0.1919633269207E+00  0.0000000000000E+00  0.1273326778378E+00
 0.1744493330656E+00 -0.1903746490192E+00  0.0000000000000E+00  0.1323139691393E+00
 0.1740403903438E+00 -0.1893513979958E+00  0.0000000000000E+00  0.1352223645411E+00
 0.1745010547437E+00 -0.1891072659542E+00  0.0000000000000E+00  0.1354207536581E+00
 0.1761061479606E+00 -0.1899049221368E+00  0.0000000000000E+00  0.1320220628287E+00
 0.1791713707272E+00 -0.1920533686870E+00  0.0000000000000E+00  0.1237542515690E+00
 0.1839984594189E+00 -0.1958710000247E+00  0.0000000000000E+00  0.1087477929935E+00
 0.1907261055220E+00 -0.2015507857295E+00  0.0000000000000E+00  0.8436267115258E-01
 0.1864344681401E+00 -0.2056022097820E+00  0.0000000000000E+00  0.7144669029548E-02
 0.1839038820094E+00 -0.2027735888664E+00  0.0000000000000E+00  0.1870601158990E-01
 0.1811935407599E+00 -0.1997547022622E+00  0.0000000000000E+00  0.3029276712873E-01
 0.1783001822100E+00 -0.1965379394226E+00  0.0000000000000E+00  0.4180480811442E-01
 0.1752270235270E+00 -0.1931218212307E+00  0.0000000000000E+00  0.5315855799689E-01
 0.1719864027877E+00 -0.1895134513251E+00  0.0000000000000E+00  0.6427653148544E-01
 0.1686015639083E+00 -0.1857301192281E+00  0.0000000000000E+00  0.7507933836116E-01
 0.1651084183415E+00 -0.1818008744379E+00  0.0000000000000E+00  0.8547949632289E-01
 0.1615578504405E+00 -0.1777686205286E+00  0.0000000000000E+00  0.9537622924319E-01
 0.1580190019885E+00 -0.1736931439364E+00  0.0000000000000E+00  0.1046504408163E+00
 0.1545839646782E+00 -0.1696554801926E+00  0.0000000000000E+00  0.1131590518688E+00
 0.1513744159159E+00 -0.1657641176685E+00  0.0000000000000E+00  0.1207277635435E+00
 0.1485509653010E+00 -0.1621637552254E+00  0.0000000000000E+00  0.1271409439329E+00
 0.1463263882701E+00 -0.1590477114041E+00  0.0000000000000E+00  0.1321265264152E+00
 0.1449846090127E+00 -0.1566757312735E+00  0.0000000000000E+00  0.1353320856298E+00
 0.1449084860578E+00 -0.1554000462344E+00  0.0000000000000E+00  0.1362845504218E+00
 0.1466213203706E+00 -0.1557044683139E+00  0.0000000000000E+00  0.1343171450825E+00
 0.1508497515434E+00 -0.1582641350302E+00  0.0000000000000E+00  0.1284261141597E+00
 0.1586157291220E+00 -0.1640371268942E+00  0.0000000000000E+00  0.1169457418874E+00
 0.1712187656505E+00 -0.1743264123341E+00  0.0000000000000E+00  0.9677739984064E-01
 0.1746905506302E+00 -0.1930327949346E+00  0.0000000000000E+00  0.7672567217350E-02
 0.1711022755766E+00 -0.1890616366151E+00  0.0000000000000E+00  0.1917643179106E-01
 0.1673010200752E+00 -0.1848578172663E+00  0.0000000000000E+00  0.3058615470247E-01
 0.1632739402059E+00 -0.1804030776177E+00  0.0000000000000E+00  0.4178970059600E-01
 0.1590186011778E+00 -0.1756890911522E+00  0.0000000000000E+00  0.5269550589681E-01
 0.1545455407913E+00 -0.1707197481612E+00  0.0000000000000E+00  0.6321890389274E-01
 0.1498797058841E+00 -0.1655123433539E+00  0.0000000000000E+00  0.7327294271188E-01
 0.1450620397824E+00 -0.1600989110818E+00  0.0000000000000E+00  0.8276243960966E-01
 0.1401519664081E+00 -0.1545284204126E+00  0.0000000000000E+00  0.9158016463158E-01
 0.1352312946598E+00 -0.1488703171035E+00  0.0000000000000E+00  0.9960435708180E-01
 0.1304100664149E+00 -0.1432198896934E+00  0.0000000000000E+00  0.1066970994744E+00
 0.1258350555613E+00 -0.1377061000330E+00  0.0000000000000E+00  0.1127033450195E+00
 0.1217020246450E+00 -0.1325028756826E+00  0.0000000000000E+00  0.1174506170575E+00
 0.1182735844780E+00 -0.1278455203740E+00  0.0000000000000E+00  0.1207495766465E+00
 0.1159059063838E+00 -0.1240551250917E+00  0.0000000000000E+00  0.1223957597429E+00
 0.1150902866035E+00 -0.1215762799902E+00  0.0000000000000E+00  0.1221725914022E+00
 0.1165218682886E+00 -0.1210385800592E+00  0.0000000000000E+00  0.1198547610940E+00
 0.1212219163354E+00 -0.1233649346473E+00  0.0000000000000E+00  0.1152037970376E+00
 0.1307884574281E+00 -0.1299846256109E+00  0.0000000000000E+00  0.1079295019096E+00
 0.1480317412191E+00 -0.1433661136448E+00  0.0000000000000E+00  0.9719745718044E-01
 0.1629615086416E+00 -0.1804781205418E+00  0.0000000000000E+00  0.7219525862431E-02
 0.1583542354796E+00 -0.1754038271618E+00  0.0000000000000E+00  0.1847187188974E-01
 0.1535073357438E+00 -0.1700612154549E+00  0.0000000000000E+00  0.2944324492677E-01
 0.1483985929251E+00 -0.1644218626815E+00  0.0000000000000E+00  0.4000499632180E-01
 0.1430226470789E+00 -0.1584736292449E+00  0.0000000000000E+00  0.5005087797824E-01
 0.1373927427957E+00 -0.1522220404182E+00  0.0000000000000E+00  0.5947874512857E-01
 0.1315412615083E+00 -0.1456905347769E+00  0.0000000000000E+00  0.6817978509646E-01
 0.1255207679698E+00 -0.1389212432453E+00  0.0000000000000E+00  0.7603289380860E-01
 0.1194063691364E+00 -0.1319770459287E+00  0.0000000000000E+00  0.8290254550854E-01
 0.1132998167894E+00 -0.1249452932209E+00  0.0000000000000E+00  0.8863936856315E-01
 0.1073357277585E+00 -0.1179435140861E+00  0.0000000000000E+00  0.9308345572308E-01
 0.1016904288110E+00 -0.1111275463226E+00  0.0000000000000E+00  0.9607128001605E-01
 0.9659423677171E-01 -0.1047027839791E+00  0.0000000000000E+00  0.9744816134298E-01
 0.9234852973072E-01 -0.9893969306412E-01  0.0000000000000E+00  0.9708989813227E-01
 0.8934992615441E-01 -0.9419554265166E-01  0.0000000000000E+00  0.9494016881675E-01
 0.8812582948769E-01 -0.9094578600744E-01  0.0000000000000E+00  0.9107629528590E-01
 0.8938920782902E-01 -0.8983149962060E-01  0.0000000000000E+00  0.8582903462658E-01
 0.9413207646095E-01 -0.9173638072351E-01  0.0000000000000E+00  0.8001612721884E-01
 0.1037941431351E+00 -0.9792435317894E-01  0.0000000000000E+00  0.7544012933124E-01
 0.1207996031052E+00 -0.1103705052609E+00  0.0000000000000E+00  0.7637674331553E-01
 0.1513329455600E+00 -0.1680282930238E+00  0.0000000000000E+00  0.5818549332371E-02
 0.1457749683698E+00 -0.1619207493058E+00  0.0000000000000E+00  0.1662788957464E-01
 0.1399623888797E+00 -0.1555212423972E+00  0.0000000000000E+00  0.2690060274904E-01
 0.1338663901707E+00 -0.1487944509253E+00  0.0000000000000E+00  0.3649270348566E-01
 0.1274855316296E+00 -0.1417317876800E+00  0.0000000000000E+00  0.4528205712826E-01
 0.1208454684782E+00 -0.1343507216418E+00  0.0000000000000E+00  0.5314524039240E-01
 0.1139980233852E+00 -0.1266936259283E+00  0.0000000000000E+00  0.5994674687453E-01
 0.1070215504303E+00 -0.1188279762431E+00  0.0000000000000E+00  0.6553611612607E-01
 0.1000231864561E+00 -0.1108484361556E+00  0.0000000000000E+00  0.6975066029350E-01
 0.9314307188120E-01 -0.1028808789225E+00  0.0000000000000E+00  0.7242316720887E-01
 0.8656045174195E-01 -0.9508823048659E-01  0.0000000000000E+00  0.7339536970424E-01
 0.8050150315818E-01 -0.8767795250318E-01  0.0000000000000E+00  0.7253936988162E-01
 0.7524863765249E-01 -0.8091087893677E-01  0.0000000000000E+00  0.6979095348725E-01
 0.7115074011951E-01 -0.7511082853037E-01  0.0000000000000E+00  0.6520138192361E-01
 0.6863306911178E-01 -0.7067366988686E-01  0.0000000000000E+00  0.5901883842149E-01
 0.6820349509329E-01 -0.6807263011364E-01  0.0000000000000E+00  0.5181945321991E-01
 0.7044691293138E-01 -0.6785179868906E-01  0.0000000000000E+00  0.4472600391083E-01
 0.7598084554331E-01 -0.7058518483439E-01  0.0000000000000E+00  0.3979480263802E-01
 0.8530644405965E-01 -0.7673467235003E-01  0.0000000000000E+00  0.4076518131264E-01
 0.9797398692563E-01 -0.8604293486297E-01  0.0000000000000E+00  0.5480923335526E-01
 0.1398894936484E+00 -0.1557723708506E+00  0.0000000000000E+00  0.3532667750906E-02
 0.1334786788591E+00 -0.1487318025037E+00  0.0000000000000E+00  0.1371781158700E-01
 0.1268130661794E+00 -0.1413910087809E+00  0.0000000000000E+00  0.2304769471716E-01
 0.1198632162847E+00 -0.1337144980179E+00  0.0000000000000E+00  0.3137485747331E-01
 0.1126423033890E+00 -0.1257086612439E+00  0.0000000000000E+00  0.3857050565618E-01
 0.1052018949318E+00 -0.1174172786321E+00  0.0000000000000E+00  0.4449927000113E-01
 0.9762859777454E-01 -0.1089181447967E+00  0.0000000000000E+00  0.4901255649471E-01
 0.9004312026753E-01 -0.1003222083111E+00  0.0000000000000E+00  0.5195336199277E-01
 0.8260170017397E-01 -0.9177513311113E-01  0.0000000000000E+00  0.5316935556508E-01
 0.7549919877115E-01 -0.8346057214778E-01  0.0000000000000E+00  0.5253364294627E-01
 0.6897283781152E-01 -0.7560414599045E-01  0.0000000000000E+00  0.4997446271403E-01
 0.6330519663578E-01 -0.6847678775537E-01  0.0000000000000E+00  0.4551651632258E-01
 0.5882440526939E-01 -0.6239548561795E-01  0.0000000000000E+00  0.3933807325195E-01
 0.5589810370105E-01 -0.5771819995829E-01  0.0000000000000E+00  0.3184972013588E-01
 0.5491494245166E-01 -0.5482723129975E-01  0.0000000000000E+00  0.2380288861746E-01
 0.5624169557291E-01 -0.5409023442734E-01  0.0000000000000E+00  0.1643898315791E-01
 0.6013071152763E-01 -0.5577709917357E-01  0.0000000000000E+00  0.1169169372849E-01
 0.6652486889537E-01 -0.5988676989486E-01  0.0000000000000E+00  0.1244382176406E-01
 0.7460650484597E-01 -0.6577236119663E-01  0.0000000000000E+00  0.2277702819905E-01
 0.8188531646704E-01 -0.7138347726653E-01  0.0000000000000E+00  0.4731212502760E-01
 0.1287120192889E+00 -0.1437953834843E+00  0.0000000000000E+00  0.4513668439814E-03
 0.1215722432081E+00 -0.1359484362197E+00  0.0000000000000E+00  0.9843807100873E-02
 0.1141918702466E+00 -0.1278084698835E+00  0.0000000000000E+00  0.1801401619746E-01
 0.1065501799540E+00 -0.1193500337033E+00  0.0000000000000E+00  0.2483498882163E-01
 0.9868779622655E-01 -0.1106081720779E+00  0.0000000000000E+00  0.3019230307897E-01
 0.9069605957263E-01 -0.1016678471920E+00  0.0000000000000E+00  0.3396166974800E-01
 0.8270936123609E-01 -0.9265654870958E-01  0.0000000000000E+00  0.3601194090280E-01
 0.7490117714886E-01 -0.8374073648649E-01  0.0000000000000E+00  0.3622273647537E-01
 0.6748251568780E-01 -0.7512477767265E-01  0.0000000000000E+00  0.3451173388329E-01
 0.6070075559807E-01 -0.6705036229021E-01  0.0000000000000E+00  0.3087025793749E-01
 0.5483650950612E-01 -0.5979408081793E-01  0.0000000000000E+00  0.2540756280321E-01
 0.5019563384810E-01 -0.5366037988900E-01  0.0000000000000E+00  0.1840481347499E-01
 0.4709250610450E-01 -0.4896620846341E-01  0.0000000000000E+00  0.1037951419444E-01
 0.4581886526501E-01 -0.4601204175841E-01  0.0000000000000E+00  0.2159709549526E-02
 0.4658938290476E-01 -0.4503123554064E-01  0.0000000000000E+00 -0.5036545253619E-02
 0.4944983964934E-01 -0.4610528660682E-01  0.0000000000000E+00 -0.9530595363274E-02
 0.5412654795995E-01 -0.4902660955231E-01  0.0000000000000E+00 -0.9161525375433E-02
 0.5978729959240E-01 -0.5308625190074E-01  0.0000000000000E+00 -0.1421036072971E-02
 0.6472950766681E-01 -0.5679745636099E-01  0.0000000000000E+00  0.1591456669486E-01
 0.6642934916721E-01 -0.5785591703656E-01  0.0000000000000E+00  0.4303413938630E-01
 0.1178742649846E+00 -0.1321741783166E+00  0.0000000000000E+00 -0.3323209883945E-02
 0.1101464410612E+00 -0.1236644271609E+00  0.0000000000000E+00  0.5114222163100E-02
 0.1022034192246E+00 -0.1148818968587E+00  0.0000000000000E+00  0.1193763691870E-01
 0.9404513123543E-01 -0.1058238701096E+00  0.0000000000000E+00  0.1707545297557E-01
 0.8575292328302E-01 -0.9656828925007E-01  0.0000000000000E+00  0.2045890190118E-01
 0.7746914837686E-01 -0.8725360050244E-01  0.0000000000000E+00  0.2200710082189E-01
 0.6938241418316E-01 -0.7806463946905E-01  0.0000000000000E+00  0.2164554298975E-01
 0.6171834999630E-01 -0.6922413345918E-01  0.0000000000000E+00  0.1933970933625E-01
 0.5473256760602E-01 -0.6098642911553E-01  0.0000000000000E+00  0.1513598633883E-01
 0.4870216699269E-01 -0.5362983102706E-01  0.0000000000000E+00  0.9206923612321E-02
 0.4391225375204E-01 -0.4744408292884E-01  0.0000000000000E+00  0.1899164188278E-02
 0.4063382141080E-01 -0.4270947779171E-01  0.0000000000000E+00 -0.6218327095731E-02
 0.3908887825956E-01 -0.3966371587118E-01  0.0000000000000E+00 -0.1431051014384E-01
 0.3939795950777E-01 -0.3845207789501E-01  0.0000000000000E+00 -0.2124652094047E-01
 0.4150460135643E-01 -0.3905619024480E-01  0.0000000000000E+00 -0.2560248606367E-01
 0.4507275323810E-01 -0.4119821298703E-01  0.0000000000000E+00 -0.2573298149795E-01
 0.4936188107727E-01 -0.4422560030925E-01  0.0000000000000E+00 -0.1998008800330E-01
 0.5312093063474E-01 -0.4701223976124E-01  0.0000000000000E+00 -0.7149246204118E-02
 0.5467087274864E-01 -0.4801069897898E-01  0.0000000000000E+00  0.1260490925612E-01
 0.5239157860584E-01 -0.4567371231739E-01  0.0000000000000E+00  0.3684226670778E-01
 0.1074389061250E+00 -0.1209732745690E+00  0.0000000000000E+00 -0.7683156690816E-02
 0.9926847733098E-01 -0.1119492963786E+00  0.0000000000000E+00 -0.3617599733430E-03
 0.9091596727151E-01 -0.1026827685763E+00  0.0000000000000E+00  0.4959242031533E-02
 0.8241455319655E-01 -0.9320749625383E-01  0.0000000000000E+00  0.8310160925629E-02
 0.7389900174287E-01 -0.8365806458642E-01  0.0000000000000E+00  0.9704266610502E-02
 0.6556913721318E-01 -0.7423382651192E-01  0.0000000000000E+00  0.9137198305029E-02
 0.5766530327574E-01 -0.6517539922867E-01  0.0000000000000E+00  0.6626890837947E-02
 0.5045243856114E-01 -0.5674969137971E-01  0.0000000000000E+00  0.2263380171723E-02
 0.4420638932367E-01 -0.4923710342474E-01  0.0000000000000E+00 -0.3742135106986E-02
 0.3919722362840E-01 -0.4291570960585E-01  0.0000000000000E+00 -0.1101313754750E-01
 0.3566563130408E-01 -0.3803861841305E-01  0.0000000000000E+00 -0.1897194891493E-01
 0.3378944867863E-01 -0.3480168629812E-01  0.0000000000000E+00 -0.2681740767011E-01
 0.3363823904436E-01 -0.3329974692659E-01  0.0000000000000E+00 -0.3352494279653E-01
 0.3511534657163E-01 -0.3347103781642E-01  0.0000000000000E+00 -0.3788385700525E-01
 0.3789040645539E-01 -0.3503292249149E-01  0.0000000000000E+00 -0.3859569811258E-01
 0.4133419143712E-01 -0.3742011143910E-01  0.0000000000000E+00 -0.3446990489289E-01
 0.4448867763043E-01 -0.3975489783399E-01  0.0000000000000E+00 -0.2476340206639E-01
 0.4614982027162E-01 -0.4091563854627E-01  0.0000000000000E+00 -0.9684194572965E-02
 0.4515907491902E-01 -0.3979371654497E-01  0.0000000000000E+00  0.9113439595534E-02
 0.4087381822134E-01 -0.3572088394049E-01  0.0000000000000E+00  0.2851061521342E-01
 0.9745771988362E-01 -0.1102466974651E+00  0.0000000000000E+00 -0.1250337215880E-01
 0.8898646721292E-01 -0.1008547834336E+00  0.0000000000000E+00 -0.6447970322619E-02
 0.8036891993234E-01 -0.9125569592132E-01  0.0000000000000E+00 -0.2739484658887E-02
 0.7168516297492E-01 -0.8153517485687E-01  0.0000000000000E+00 -0.1188544735832E-02
 0.6313459375216E-01 -0.7189646880024E-01  0.0000000000000E+00 -0.1668606890100E-02
 0.5497444724315E-01 -0.6260029663128E-01  0.0000000000000E+00 -0.4085801475444E-02
 0.4748453194168E-01 -0.5393095748242E-01  0.0000000000000E+00 -0.8310706104931E-02
 0.4094565001705E-01 -0.4617585385981E-01  0.0000000000000E+00 -0.1411465178282E-01
 0.3562091277524E-01 -0.3960765425792E-01  0.0000000000000E+00 -0.2112100124659E-01
 0.3173343551410E-01 -0.3446279835586E-01  0.0000000000000E+00 -0.2877419320179E-01
 0.2943711508947E-01 -0.3091308480642E-01  0.0000000000000E+00 -0.3632931396984E-01
 0.2877962903147E-01 -0.2902965545238E-01  0.0000000000000E+00 -0.4286742731278E-01
 0.2965917498006E-01 -0.2874097762945E-01  0.0000000000000E+00 -0.4734565029387E-01
 0.3177993001756E-01 -0.2978973054828E-01  0.0000000000000E+00 -0.4869532845261E-01
 0.3461739863903E-01 -0.3169910160711E-01  0.0000000000000E+00 -0.4598525576281E-01
 0.3741588577066E-01 -0.3376877217382E-01  0.0000000000000E+00 -0.3866445739772E-01
 0.3925718466799E-01 -0.3513527900984E-01  0.0000000000000E+00 -0.2687446121095E-01
 0.3924502854471E-01 -0.3493773996595E-01  0.0000000000000E+00 -0.1173507432179E-01
 0.3679770807872E-01 -0.3258590109980E-01  0.0000000000000E+00  0.4630161837188E-02
 0.3192660930467E-01 -0.2802555179991E-01  0.0000000000000E+00  0.1958134705395E-01
 0.8797263113935E-01 -0.1000387156014E+00  0.0000000000000E+00 -0.1764930465915E-01
 0.7933279140852E-01 -0.9041631637154E-01  0.0000000000000E+00 -0.1298932458844E-01
 0.7057591732608E-01 -0.8061863736778E-01  0.0000000000000E+00 -0.1094297368129E-01
 0.6184774849980E-01 -0.7080374035172E-01  0.0000000000000E+00 -0.1110165966138E-01
 0.5342170613204E-01 -0.6125337300423E-01  0.0000000000000E+00 -0.1321302615301E-01
 0.4560492980278E-01 -0.5228187509768E-01  0.0000000000000E+00 -0.1708622556018E-01
 0.3869563744260E-01 -0.4419551592873E-01  0.0000000000000E+00 -0.2248649558547E-01
 0.3296082737042E-01 -0.3727125504871E-01  0.0000000000000E+00 -0.2906121781228E-01
 0.2861755995748E-01 -0.3173901515073E-01  0.0000000000000E+00 -0.3630071635200E-01
 0.2581033767433E-01 -0.2775973289210E-01  0.0000000000000E+00 -0.4353004529525E-01
 0.2458296451484E-01 -0.2539789772111E-01  0.0000000000000E+00 -0.4993008194385E-01
 0.2484688556089E-01 -0.2459050165554E-01  0.0000000000000E+00 -0.5458989840906E-01
 0.2635118757159E-01 -0.2511757828849E-01  0.0000000000000E+00 -0.5659562713630E-01
 0.2866329540112E-01 -0.2658288243835E-01  0.0000000000000E+00 -0.5516241940077E-01
 0.3117495887317E-01 -0.2841818495985E-01  0.0000000000000E+00 -0.4981190493880E-01
 0.3315484314815E-01 -0.2993051115163E-01  0.0000000000000E+00 -0.4058077817700E-01
 0.3386985254027E-01 -0.3041274456108E-01  0.0000000000000E+00 -0.2820365475492E-01
 0.3277391204589E-01 -0.2931812355881E-01  0.0000000000000E+00 -0.1414700364166E-01
 0.2970470549584E-01 -0.2644745293971E-01  0.0000000000000E+00 -0.3461205656177E-03
 0.2496740213959E-01 -0.2204142092786E-01  0.0000000000000E+00  0.1137629426422E-01
 0.7901474314042E-01 -0.9038311137204E-01  0.0000000000000E+00 -0.2298148186297E-01
 0.7032156650399E-01 -0.8065087707381E-01  0.0000000000000E+00 -0.1982243398077E-01
 0.6152294469658E-01 -0.7076090501264E-01  0.0000000000000E+00 -0.1941470463894E-01
 0.5285896759153E-01 -0.6097408272493E-01  0.0000000000000E+00 -0.2108372455527E-01
 0.4468397424846E-01 -0.5165702394688E-01  0.0000000000000E+00 -0.2447334825090E-01
 0.3733881058282E-01 -0.4316074454990E-01  0.0000000000000E+00 -0.2932770834270E-01
 0.3111177002898E-01 -0.3578335202615E-01  0.0000000000000E+00 -0.3533745990021E-01
 0.2622535032404E-01 -0.2975886576985E-01  0.0000000000000E+00 -0.4206189940224E-01
 0.2282441715536E-01 -0.2524617275037E-01  0.0000000000000E+00 -0.4890887647710E-01
 0.2095888041089E-01 -0.2231263314787E-01  0.0000000000000E+00 -0.5515522925716E-01
 0.2056200381424E-01 -0.2091262228385E-01  0.0000000000000E+00 -0.5999790807581E-01
 0.2142989143440E-01 -0.2086709657437E-01  0.0000000000000E+00 -0.6263251539581E-01
 0.2320986685643E-01 -0.2185154755333E-01  0.0000000000000E+00 -0.6236014802855E-01
 0.2540770634745E-01 -0.2340169941348E-01  0.0000000000000E+00 -0.5872084966952E-01
 0.2742624962287E-01 -0.2494848004209E-01  0.0000000000000E+00 -0.5164174454229E-01
 0.2864743812265E-01 -0.2589353008920E-01  0.0000000000000E+00 -0.4156555359245E-01
 0.2855857153723E-01 -0.2572688983027E-01  0.0000000000000E+00 -0.2949183609760E-01
 0.2689420698701E-01 -0.2416235781077E-01  0.0000000000000E+00 -0.1684419251228E-01
 0.2372730113308E-01 -0.2123076393511E-01  0.0000000000000E+00 -0.5125615573816E-02
 0.1944053859529E-01 -0.1726308511429E-01  0.0000000000000E+00  0.4531686201830E-02
 0.7060403806391E-01 -0.8130278510834E-01  0.0000000000000E+00 -0.2836971519023E-01
 0.6194456484642E-01 -0.7155176641163E-01  0.0000000000000E+00 -0.2679385773346E-01
 0.5316516460815E-01 -0.6163899197589E-01  0.0000000000000E+00 -0.2791519343188E-01
 0.4464461052902E-01 -0.5197284496834E-01  0.0000000000000E+00 -0.3078458319253E-01
 0.3681887742211E-01 -0.4300571781687E-01  0.0000000000000E+00 -0.3501789070928E-01
 0.3003402093968E-01 -0.3509378768135E-01  0.0000000000000E+00 -0.4035540205513E-01
 0.2453425299856E-01 -0.2849108283077E-01  0.0000000000000E+00 -0.4645707843199E-01
 0.2047090120968E-01 -0.2335914574158E-01  0.0000000000000E+00 -0.5283365929905E-01
 0.1790368459837E-01 -0.1977137993096E-01  0.0000000000000E+00 -0.5885996637407E-01
 0.1678994950392E-01 -0.1770198204619E-01  0.0000000000000E+00 -0.6382744086502E-01
 0.1697084647199E-01 -0.1701191523037E-01  0.0000000000000E+00 -0.6701582711475E-01
 0.1816345205007E-01 -0.1744033319410E-01  0.0000000000000E+00 -0.6778177221948E-01
 0.1996654538694E-01 -0.1860901211259E-01  0.0000000000000E+00 -0.6566218144143E-01
 0.2188802895659E-01 -0.2004718606874E-01  0.0000000000000E+00 -0.6048444868640E-01
 0.2340113448808E-01 -0.2124354532719E-01  0.0000000000000E+00 -0.5246314022340E-01
 0.2403094737946E-01 -0.2172735674253E-01  0.0000000000000E+00 -0.4224496824968E-01
 0.2345812415271E-01 -0.2116757355777E-01  0.0000000000000E+00 -0.3085108964850E-01
 0.2160431655979E-01 -0.1945806607364E-01  0.0000000000000E+00 -0.1948342596958E-01
 0.1864973916028E-01 -0.1674195186369E-01  0.0000000000000E+00 -0.9231129338321E-02
 0.1495029240589E-01 -0.1334143977904E-01  0.0000000000000E+00 -0.7969859064729E-03
 0.6275061352389E-01 -0.7281004483632E-01  0.0000000000000E+00 -0.3371099979465E-01
 0.5416540841140E-01 -0.6308373293656E-01  0.0000000000000E+00 -0.3377506685687E-01
 0.4542616621367E-01 -0.5317405510073E-01  0.0000000000000E+00 -0.3620281821405E-01
 0.3711142034640E-01 -0.4370549213774E-01  0.0000000000000E+00 -0.3985136531873E-01
 0.2972097628745E-01 -0.3519144863994E-01  0.0000000000000E+00 -0.4445039183064E-01
 0.2355743133424E-01 -0.2794519099217E-01  0.0000000000000E+00 -0.4981644020859E-01
 0.1878171706383E-01 -0.2212988035728E-01  0.0000000000000E+00 -0.5560539632966E-01
 0.1546089986738E-01 -0.1782137562037E-01  0.0000000000000E+00 -0.6130057949408E-01
 0.1357423105485E-01 -0.1501126476058E-01  0.0000000000000E+00 -0.6628301221567E-01
 0.1300388554480E-01 -0.1359718619117E-01  0.0000000000000E+00 -0.6990432566504E-01
 0.1352835835376E-01 -0.1337498530743E-01  0.0000000000000E+00 -0.7156405350019E-01
 0.1482575427291E-01 -0.1404075606531E-01  0.0000000000000E+00 -0.7079185039609E-01
 0.1649250896567E-01 -0.1520763020812E-01  0.0000000000000E+00 -0.6733209939186E-01
 0.1808179529432E-01 -0.1644135501983E-01  0.0000000000000E+00 -0.6121966501753E-01
 0.1916316135415E-01 -0.1731637690321E-01  0.0000000000000E+00 -0.5282519426773E-01
 0.1939777619770E-01 -0.1748778874011E-01  0.0000000000000E+00 -0.4283982281044E-01
 0.1861133773086E-01 -0.1676308419608E-01  0.0000000000000E+00 -0.3217362978178E-01
 0.1683538447976E-01 -0.1514595520883E-01  0.0000000000000E+00 -0.2177371386314E-01
 0.1428825475906E-01 -0.1282407773995E-01  0.0000000000000E+00 -0.1242608590700E-01
 0.1128225840369E-01 -0.1008684940361E-01  0.0000000000000E+00 -0.4646616352554E-02
 0.5545368608662E-01 -0.6491646559975E-01  0.0000000000000E+00 -0.3894389776945E-01
 0.4691051968554E-01 -0.5517244205518E-01  0.0000000000000E+00 -0.4064791636499E-01
 0.3819319988249E-01 -0.4525234812219E-01  0.0000000000000E+00 -0.4400037783051E-01
 0.3016369348462E-01 -0.3606483377946E-01  0.0000000000000E+00 -0.4788727171851E-01
 0.2330946381099E-01 -0.2813097257603E-01  0.0000000000000E+00 -0.5241896391115E-01
 0.1779872017011E-01 -0.2159559775637E-01  0.0000000000000E+00 -0.5749417369414E-01
 0.1369512463648E-01 -0.1652427373930E-01  0.0000000000000E+00 -0.6272089183267E-01
 0.1099568230198E-01 -0.1292088372567E-01  0.0000000000000E+00 -0.6756674062529E-01
 0.9619438883085E-02 -0.1071629276262E-01  0.0000000000000E+00 -0.7144890222867E-01
 0.9399237076143E-02 -0.9757100107651E-02  0.0000000000000E+00 -0.7380742791834E-01
 0.1008174329899E-01 -0.9804350357374E-02  0.0000000000000E+00 -0.7417183010989E-01
 0.1133962569139E-01 -0.1054408383005E-01  0.0000000000000E+00 -0.7222694464280E-01
 0.1279769074356E-01 -0.1161147100560E-01  0.0000000000000E+00 -0.6787327617449E-01
 0.1407403652905E-01 -0.1262954990662E-01  0.0000000000000E+00 -0.6126983844705E-01
 0.1483396230528E-01 -0.1326080712795E-01  0.0000000000000E+00 -0.5284142703958E-01
 0.1484801647493E-01 -0.1326395073495E-01  0.0000000000000E+00 -0.4323198768389E-01
 0.1403790732079E-01 -0.1254052910215E-01  0.0000000000000E+00 -0.3319869393933E-01
 0.1248985648002E-01 -0.1115164851254E-01  0.0000000000000E+00 -0.2347062247468E-01
 0.1042713764478E-01 -0.9293303330432E-02  0.0000000000000E+00 -0.1462987525057E-01
 0.8150333668885E-02 -0.7239092565824E-02  0.0000000000000E+00 -0.7117943559010E-02
 0.4870495754571E-01 -0.5762838068963E-01  0.0000000000000E+00 -0.4416455223834E-01
 0.3996777956599E-01 -0.4762150685006E-01  0.0000000000000E+00 -0.4739260665084E-01
 0.3129238079302E-01 -0.3763963524727E-01  0.0000000000000E+00 -0.5085318883762E-01
 0.2376781856562E-01 -0.2902359592904E-01  0.0000000000000E+00 -0.5446229680508E-01
 0.1755079277066E-01 -0.2178447135661E-01  0.0000000000000E+00 -0.5872524228877E-01
 0.1267142487387E-01 -0.1594737025136E-01  0.0000000000000E+00 -0.6335705556720E-01
 0.9147266889430E-02 -0.1152829380959E-01  0.0000000000000E+00 -0.6790435966110E-01
 0.6934189149012E-02 -0.8492311452032E-02  0.0000000000000E+00 -0.7184482387872E-01
 0.5914671705741E-02 -0.6733012586372E-02  0.0000000000000E+00 -0.7466342768486E-01
 0.5894620103847E-02 -0.6068174186031E-02  0.0000000000000E+00 -0.7590357576015E-01
 0.6611783261904E-02 -0.6246568686184E-02  0.0000000000000E+00 -0.7521772697173E-01
 0.7754204564724E-02 -0.6964964226302E-02  0.0000000000000E+00 -0.7241519759576E-01
 0.8989288515661E-02 -0.7895507175860E-02  0.0000000000000E+00 -0.6750074080778E-01
 0.1000251494604E-01 -0.8722823194737E-02  0.0000000000000E+00 -0.6069276266205E-01
 0.1054173614637E-01 -0.9187273528392E-02  0.0000000000000E+00 -0.5240845347404E-01
 0.1045842136320E-01 -0.9126288589002E-02  0.0000000000000E+00 -0.4320751507878E-01
 0.9733459761613E-02 -0.8501751045213E-02  0.0000000000000E+00 -0.3369985264201E-01
 0.8477532714225E-02 -0.7402365851284E-02  0.0000000000000E+00 -0.2444461452666E-01
 0.6902326294334E-02 -0.6018794405370E-02  0.0000000000000E+00 -0.1587943510607E-01
 0.5313482803595E-02 -0.4623451570500E-02  0.0000000000000E+00 -0.8314146497911E-02
 0.4205679109095E-01 -0.5072152993203E-01  0.0000000000000E+00 -0.5050645660071E-01
 0.3279340277922E-01 -0.3956576085412E-01  0.0000000000000E+00 -0.5320111547329E-01
 0.2482730466628E-01 -0.3051260824504E-01  0.0000000000000E+00 -0.5592636449851E-01
 0.1805982924562E-01 -0.2272098173249E-01  0.0000000000000E+00 -0.5939414418175E-01
 0.1245476259846E-01 -0.1616476031368E-01  0.0000000000000E+00 -0.6340061046403E-01
 0.8111966007801E-02 -0.1092928368016E-01  0.0000000000000E+00 -0.6753332867467E-01
 0.5042036662585E-02 -0.7034318262292E-02  0.0000000000000E+00 -0.7134289426213E-01
 0.3179437821974E-02 -0.4423743692175E-02  0.0000000000000E+00 -0.7437620199242E-01
 0.2383189683739E-02 -0.2966945619755E-02  0.0000000000000E+00 -0.7621285322364E-01
 0.2447376575239E-02 -0.2467520449708E-02  0.0000000000000E+00 -0.7650236130733E-01
 0.3116013017964E-02 -0.2677191441956E-02  0.0000000000000E+00 -0.7500220632143E-01
 0.4104723013622E-02 -0.3316278450859E-02  0.0000000000000E+00 -0.7161147283360E-01
 0.5129106700689E-02 -0.4100935280497E-02  0.0000000000000E+00 -0.6639351366363E-01
 0.5937985726779E-02 -0.4775615157563E-02  0.0000000000000E+00 -0.5957937067753E-01
 0.6346925296913E-02 -0.5146526101642E-02  0.0000000000000E+00 -0.5154428816230E-01
 0.6264820187024E-02 -0.5109083995023E-02  0.0000000000000E+00 -0.4275478963798E-01
 0.5706103724733E-02 -0.4661606950147E-02  0.0000000000000E+00 -0.3369472666613E-01
 0.4784861613730E-02 -0.3901333440762E-02  0.0000000000000E+00 -0.2479036711551E-01
 0.3699196014481E-02 -0.3007457104393E-02  0.0000000000000E+00 -0.1636796499188E-01
 0.2688651975067E-02 -0.2217443399093E-02  0.0000000000000E+00 -0.8591636445984E-02
</DataArray>
<DataArray type="Float64" Name="S_Centroid" NumberOfComponents="4" ComponentName0="S11" ComponentName1="S22" ComponentName2="S33" ComponentName3="S12" format="ascii">
-0.1010686039951E+01 -0.8215901819522E+01 -0.1845317599392E+01 -0.9904624649629E+00
 0.1430579570017E+00 -0.6646299135134E+01 -0.1300648255008E+01 -0.2787811907233E-01
-0.2787552636252E-01 -0.6250040595268E+01 -0.1255583243036E+01 -0.4652296312530E-01
 0.4478516631254E-02 -0.6065422316608E+01 -0.1212188778058E+01 -0.1961020996533E-01
-0.1583298543971E-02 -0.5963502549527E+01 -0.1193017187392E+01 -0.1208313890767E-01
-0.3244229426680E-04 -0.5901210905439E+01 -0.1180248687134E+01 -0.7616253243115E-02
-0.2802772368014E-03 -0.5859939765889E+01 -0.1172044026090E+01 -0.5289745495900E-02
-0.1635591004288E-03 -0.5830500724113E+01 -0.1166132874019E+01 -0.3952403456062E-02
-0.1585928778398E-03 -0.5808101326356E+01 -0.1161652001157E+01 -0.3167662979128E-02
-0.1410488225180E-03 -0.5790084034856E+01 -0.1158045033992E+01 -0.2676458495980E-02
-0.1350651891558E-03 -0.5775001171353E+01 -0.1155027264520E+01 -0.2333840490995E-02
-0.1318986950156E-03 -0.5762114050839E+01 -0.1152449207080E+01 -0.2048463071340E-02
-0.1321457708086E-03 -0.5751137844960E+01 -0.1150254015286E+01 -0.1759510208974E-02
-0.1349294906436E-03 -0.5742098436994E+01 -0.1148446690410E+01 -0.1422540205354E-02
-0.1402475021426E-03 -0.5735255016230E+01 -0.1147079069839E+01 -0.1001527157965E-02
-0.1483002278742E-03 -0.5731061587041E+01 -0.1146241994534E+01 -0.4634539423583E-03
-0.1593501421477E-03 -0.5730155584050E+01 -0.1146063003916E+01  0.2255368968271E-03
-0.1746315949072E-03 -0.5733372906229E+01 -0.1146709524652E+01  0.1105345927388E-02
-0.1950672074607E-03 -0.5741781700933E+01 -0.1148395370740E+01  0.2226557971687E-02
-0.2234684889422E-03 -0.5756767358159E+01 -0.1151398182487E+01  0.3660855516401E-02
-0.2649473135348E-03 -0.5780178875203E+01 -0.1156088781730E+01  0.5521990415494E-02
-0.3253132928742E-03 -0.5814667850757E+01 -0.1162998650140E+01  0.8013779261759E-02
-0.6249115062829E-03 -0.5864674893152E+01 -0.1173059978412E+01  0.1184868546118E-01
-0.1965033038373E-02 -0.5936991074657E+01 -0.1187791239239E+01  0.1990152785850E-01
-0.4579329805231E-02 -0.6033174199280E+01 -0.1207550723811E+01  0.3730475539293E-01
-0.7840660646584E-02 -0.6146391652997E+01 -0.1230846481070E+01  0.6789805251503E-01
-0.1150575666591E-01 -0.6269316697892E+01 -0.1256164509630E+01  0.1121906510551E+00
-0.1581637290747E-01 -0.6398631490087E+01 -0.1282889591715E+01  0.1685995757407E+00
-0.2128751843255E-01 -0.6535632010613E+01 -0.1311383925350E+01  0.2352082194559E+00
-0.2856047858013E-01 -0.6685073539807E+01 -0.1342726823686E+01  0.3109930525228E+00
-0.3839147738001E-01 -0.6853523543994E+01 -0.1378383024814E+01  0.3963787383676E+00
-0.5168779001722E-01 -0.7047732128035E+01 -0.1419884004768E+01  0.4932248188026E+00
-0.6851350541652E-01 -0.7272022373367E+01 -0.1468107197633E+01  0.6029195669102E+00
-0.8872191294854E-01 -0.7534837669252E+01 -0.1524711939160E+01  0.7245728366228E+00
-0.1123183731581E+00 -0.7861303177817E+01 -0.1594724333958E+01  0.8597248060172E+00
-0.1482376059204E+00 -0.8290435233292E+01 -0.1687734592992E+01  0.1017667336276E+01
-0.1757412323433E+00 -0.8874985908779E+01 -0.1810145455198E+01  0.1218071111875E+01
-0.3354944437724E+00 -0.9704905569792E+01 -0.2008080032636E+01  0.1506313301220E+01
-0.9345759839918E-02 -0.1097219983380E+02 -0.2196309151455E+01  0.1905631596576E+01
-0.2978959657706E+01 -0.1315792463624E+02 -0.3227376906881E+01  0.3420437900770E+01
 0.9024099020363E+01 -0.1361651099601E+02 -0.9184824088153E+00  0.3168784501082E+01
-0.1070968629768E+01 -0.7203200286616E+01 -0.1654833807936E+01 -0.1054792611238E+01
-0.1534536427792E+00 -0.6781581434859E+01 -0.1387007036196E+01 -0.4345737022680E+00
-0.3422053828145E-02 -0.6265006291165E+01 -0.1253685687680E+01 -0.1304929555562E+00
-0.1705443279923E-01 -0.6052756727989E+01 -0.1213962250247E+01 -0.8024972527530E-01
-0.4436600055311E-02 -0.5926788630357E+01 -0.1186245063759E+01 -0.4532728891768E-01
-0.3342602617630E-02 -0.5848712068991E+01 -0.1170410951762E+01 -0.2953825089354E-01
-0.1732638273737E-02 -0.5796106553104E+01 -0.1159567855554E+01 -0.2037906771717E-01
-0.1118943544388E-02 -0.5758540845176E+01 -0.1151931974909E+01 -0.1508930294575E-01
-0.7249328464527E-03 -0.5730175919604E+01 -0.1146180187569E+01 -0.1183675648092E-01
-0.5238903367482E-03 -0.5707757495076E+01 -0.1141656294095E+01 -0.9731479721662E-02
-0.4216479496837E-03 -0.5689414825211E+01 -0.1137967311589E+01 -0.8241298396953E-02
-0.3872055994281E-03 -0.5674120127592E+01 -0.1134901483550E+01 -0.7040990222025E-02
-0.3988733866762E-03 -0.5661377787307E+01 -0.1132355349012E+01 -0.5914367773942E-02
-0.4460522631113E-03 -0.5651055881597E+01 -0.1130300403615E+01 -0.4706567255609E-02
-0.5235533594219E-03 -0.5643290305992E+01 -0.1128762788690E+01 -0.3295184401220E-02
-0.6303091230420E-03 -0.5638434478937E+01 -0.1127812974418E+01 -0.1571877974136E-02
-0.7689543052614E-03 -0.5637039913398E+01 -0.1127561790343E+01  0.5720330317316E-03
-0.9463956769364E-03 -0.5639861601657E+01 -0.1128161616278E+01  0.3259126745184E-02
-0.1175446080929E-02 -0.5647889393066E+01 -0.1129812984665E+01  0.6643508280831E-02
-0.1481304797133E-02 -0.5662416269004E+01 -0.1132779531640E+01  0.1094038116254E-01
-0.1912675001782E-02 -0.5685167386936E+01 -0.1137416029336E+01  0.1648243922829E-01
-0.2619326119936E-02 -0.5718566524817E+01 -0.1144237187238E+01  0.2390120870550E-01
-0.4369742224213E-02 -0.5765990130320E+01 -0.1154071991706E+01  0.3462894870299E-01
-0.8478697852245E-02 -0.5830631084708E+01 -0.1167821973914E+01  0.5101059571280E-01
-0.1523384404521E-01 -0.5912617393014E+01 -0.1185570265078E+01  0.7570122875224E-01
-0.2350392482590E-01 -0.6008299866914E+01 -0.1206360776324E+01  0.1108820309207E+00
-0.3223807608211E-01 -0.6113207740979E+01 -0.1229089181727E+01  0.1575316798586E+00
-0.4129752124656E-01 -0.6224916012457E+01 -0.1253242725416E+01  0.2154476406892E+00
-0.5129566470106E-01 -0.6343848289509E+01 -0.1279028809901E+01  0.2840517906134E+00
-0.6328394660481E-01 -0.6472707345109E+01 -0.1307198277821E+01  0.3631513337609E+00
-0.7857100059928E-01 -0.6615357609769E+01 -0.1338785742023E+01  0.4533454414854E+00
-0.9811429202513E-01 -0.6775591007814E+01 -0.1374741080453E+01  0.5557274568649E+00
-0.1218620640362E+00 -0.6957201447187E+01 -0.1415812723342E+01  0.6714977247725E+00
-0.1499945974168E+00 -0.7167037062724E+01 -0.1463406353835E+01  0.8028499640010E+00
-0.1873234694844E+00 -0.7418046500040E+01 -0.1521074016571E+01  0.9550085743006E+00
-0.2354376495053E+00 -0.7726968549508E+01 -0.1592481263532E+01  0.1137069471104E+01
-0.3301100287942E+00 -0.8112226343991E+01 -0.1688467299717E+01  0.1375360347942E+01
-0.3973698942329E+00 -0.8572125568933E+01 -0.1793899119364E+01  0.1663441689901E+01
-0.8806345141010E+00 -0.9128395526232E+01 -0.2001806037896E+01  0.2310783736682E+01
-0.1588647295915E+01 -0.8516518288941E+01 -0.2021033147087E+01  0.2199100065566E+01
 0.7778264304487E+01 -0.7360703654698E+01  0.8351213120236E-01  0.6770393352286E+00
-0.1126089687985E+01 -0.6643422045769E+01 -0.1553902369906E+01 -0.9896991295010E+00
-0.3600596605845E+00 -0.6569907973562E+01 -0.1385993547482E+01 -0.6115574297948E+00
-0.7524523798196E-01 -0.6245596443106E+01 -0.1264168355055E+01 -0.2660760793299E+00
-0.3427514787915E-01 -0.6010852070124E+01 -0.1209025461616E+01 -0.1394555066412E+00
-0.1806449629806E-01 -0.5877393024798E+01 -0.1179091521789E+01 -0.8581782487188E-01
-0.9346690817873E-02 -0.5788637881426E+01 -0.1159596931728E+01 -0.5544733340937E-01
-0.5561008439606E-02 -0.5727851822402E+01 -0.1146682583255E+01 -0.3871562169405E-01
-0.3347284571455E-02 -0.5683779571473E+01 -0.1137425388158E+01 -0.2860651730631E-01
-0.2161494907220E-02 -0.5650409733024E+01 -0.1130514262432E+01 -0.2230478262921E-01
-0.1494217457191E-02 -0.5624139650608E+01 -0.1125126790379E+01 -0.1813749369136E-01
-0.1152935199862E-02 -0.5602847716041E+01 -0.1120800146949E+01 -0.1516305280133E-01
-0.1017080362567E-02 -0.5585299363092E+01 -0.1117263305340E+01 -0.1279042038256E-01
-0.1024028023153E-02 -0.5570837401193E+01 -0.1114372302449E+01 -0.1062970108362E-01
-0.1138416529649E-02 -0.5559198962349E+01 -0.1112067492347E+01 -0.8402379484697E-02
-0.1343009856242E-02 -0.5550410806841E+01 -0.1110350779885E+01 -0.5890976459195E-02
-0.1632872446270E-02 -0.5544730988326E+01 -0.1109272788684E+01 -0.2906087265535E-02
-0.2013869208880E-02 -0.5542622126207E+01 -0.1108927215607E+01  0.7383982194024E-03
-0.2503798341048E-02 -0.5544749227106E+01 -0.1109450621621E+01  0.5248258658404E-02
-0.3137791283381E-02 -0.5552001019042E+01 -0.1111027778621E+01  0.1087775730360E-01
-0.3982938470572E-02 -0.5565538881675E+01 -0.1113904380628E+01  0.1797431699436E-01
-0.5174833659601E-02 -0.5586885038105E+01 -0.1118411991019E+01  0.2706694033062E-01
-0.7109140071257E-02 -0.5618015764216E+01 -0.1125024997622E+01  0.3908352400087E-01
-0.1085380190521E-01 -0.5661088127276E+01 -0.1134388402740E+01  0.5553707425659E-01
-0.1777326055758E-01 -0.5717465671974E+01 -0.1147047803599E+01  0.7812028547152E-01
-0.2807354555963E-01 -0.5786744671201E+01 -0.1162963660682E+01  0.1082601198143E+00
-0.4049560920982E-01 -0.5866762993666E+01 -0.1181451738180E+01  0.1472425008939E+00
-0.5370631859050E-01 -0.5954782062315E+01 -0.1201697694088E+01  0.1961126343166E+00
-0.6733874656852E-01 -0.6048971403065E+01 -0.1223262048155E+01  0.2554141011448E+00
-0.8201172611204E-01 -0.6149077152264E+01 -0.1246217794245E+01  0.3253756979206E+00
-0.9898635065001E-01 -0.6256174396120E+01 -0.1271032168294E+01  0.4062903749143E+00
-0.1197528930272E+00 -0.6371924739272E+01 -0.1298335545807E+01  0.4987033873986E+00
-0.1453359944557E+00 -0.6497972913885E+01 -0.1328661801467E+01  0.6033223516055E+00
-0.1759684012125E+00 -0.6636237076429E+01 -0.1362441115830E+01  0.7214247099220E+00
-0.2133553419847E+00 -0.6789423672803E+01 -0.1400555823827E+01  0.8560340023487E+00
-0.2616326695825E+00 -0.6959735598076E+01 -0.1444273675053E+01  0.1011732098021E+01
-0.3328481921333E+00 -0.7146100169018E+01 -0.1495789694519E+01  0.1197311594730E+01
-0.4325186087663E+00 -0.7327671784363E+01 -0.1552038101753E+01  0.1414061055397E+01
-0.5963071915750E+00 -0.7466459130176E+01 -0.1612553288379E+01  0.1696577471061E+01
-0.1032472428646E+01 -0.7199279513251E+01 -0.1646350412912E+01  0.1935953004921E+01
-0.2034562131534E+00 -0.6066579643073E+01 -0.1254007189931E+01  0.9723647290520E+00
 0.7317452052458E+01 -0.5296334792870E+01  0.4042234579409E+00 -0.5833887339004E-01
-0.1153667930699E+01 -0.6264321717838E+01 -0.1483597951815E+01 -0.9070852434769E+00
-0.5067534610717E+00 -0.6316195069460E+01 -0.1364589726440E+01 -0.6762875815916E+00
-0.1691236249101E+00 -0.6144747994763E+01 -0.1262774342752E+01 -0.3721246856660E+00
-0.6937407906894E-01 -0.5947814566009E+01 -0.1203437746948E+01 -0.2051187515151E+00
-0.3625785635551E-01 -0.5812661719235E+01 -0.1169783932549E+01 -0.1272350766209E+00
-0.1989722152441E-01 -0.5720463367602E+01 -0.1148072134933E+01 -0.8437525876707E-01
-0.1162195785650E-01 -0.5654461089291E+01 -0.1133216626316E+01 -0.5928209920247E-01
-0.7145703596533E-02 -0.5605752452928E+01 -0.1122579648033E+01 -0.4401830749153E-01
-0.4606473808491E-02 -0.5568437299859E+01 -0.1114608771342E+01 -0.3426179310460E-01
-0.3183590563758E-02 -0.5538957118945E+01 -0.1108428158419E+01 -0.2771527514847E-01
-0.2425962463723E-02 -0.5515089649388E+01 -0.1103503138814E+01 -0.2299677350950E-01
-0.2098202900408E-02 -0.5495490529142E+01 -0.1099517762792E+01 -0.1924743525804E-01
-0.2066101495060E-02 -0.5479393195344E+01 -0.1096291875704E+01 -0.1589414927145E-01
-0.2255793662552E-02 -0.5466434595709E+01 -0.1093738094172E+01 -0.1252849052667E-01
-0.2629553189850E-02 -0.5456548906596E+01 -0.1091835708227E+01 -0.8833282372495E-02
-0.3175075712408E-02 -0.5449905818209E+01 -0.1090616195036E+01 -0.4535681284000E-02
-0.3901526725625E-02 -0.5446878436512E+01 -0.1090156008892E+01  0.6278236251095E-03
-0.4841411033435E-02 -0.5448033517377E+01 -0.1090575001933E+01  0.6943051788384E-02
-0.6060437415783E-02 -0.5454140114308E+01 -0.1092040126617E+01  0.1475564639152E-01
-0.7682186959110E-02 -0.5466194622697E+01 -0.1094775378245E+01  0.2452597371533E-01
-0.9961321914422E-02 -0.5485449547159E+01 -0.1099082190192E+01  0.3692983447088E-01
-0.1350107955545E-01 -0.5513337037838E+01 -0.1105367639950E+01  0.5300504597193E-01
-0.1948147506672E-01 -0.5551059141607E+01 -0.1114108139936E+01  0.7409346030267E-01
-0.2914219511665E-01 -0.5598988202268E+01 -0.1125626096250E+01  0.1013580624120E+00
-0.4258711529954E-01 -0.5656496081902E+01 -0.1139816656425E+01  0.1355679752822E+00
-0.5859437758843E-01 -0.5722168148345E+01 -0.1156152522415E+01  0.1775144551367E+00
-0.7580422446788E-01 -0.5794218135299E+01 -0.1174004489447E+01  0.2281717800884E+00
-0.9374848278932E-01 -0.5871139086533E+01 -0.1192977531641E+01  0.2884137598999E+00
-0.1130053264010E+00 -0.5952116548030E+01 -0.1213024392962E+01  0.3588809237526E+00
-0.1348698122230E+00 -0.6036923823625E+01 -0.1234358745563E+01  0.4400583137505E+00
-0.1608402462869E+00 -0.6125483141381E+01 -0.1257264696268E+01  0.5323335228071E+00
-0.1919808081525E+00 -0.6217527878252E+01 -0.1281901756383E+01  0.6360876254882E+00
-0.2290657883149E+00 -0.6312504789694E+01 -0.1308314135097E+01  0.7523055070183E+00
-0.2741213198413E+00 -0.6408419548988E+01 -0.1336508193681E+01  0.8830238836955E+00
-0.3326351668501E+00 -0.6499022733746E+01 -0.1366331600479E+01  0.1030883906458E+01
-0.4126537542260E+00 -0.6566773656895E+01 -0.1395885503025E+01  0.1195424983409E+01
-0.5208216893746E+00 -0.6574084127304E+01 -0.1418981184480E+01  0.1369982388357E+01
-0.6908939097822E+00 -0.6407751371098E+01 -0.1419729077332E+01  0.1523544916329E+01
-0.7708538011537E+00 -0.5772273359546E+01 -0.1308625451640E+01  0.1340767435679E+01
 0.8985171999483E+00 -0.4823260428013E+01 -0.7849486573097E+00  0.1925881832047E+00
 0.6847527525542E+01 -0.4448117423336E+01  0.4798820275921E+00 -0.2379870988755E+00
-0.1162304336538E+01 -0.5976346903132E+01 -0.1427730269209E+01 -0.8280317042621E+00
-0.6102349846030E+00 -0.6075575387501E+01 -0.1337162094346E+01 -0.6874654632245E+00
-0.2604358802304E+00 -0.6001929426393E+01 -0.1252473079988E+01 -0.4409510566640E+00
-0.1163131782653E+00 -0.5858006549651E+01 -0.1194863963388E+01 -0.2651353342359E+00
-0.6043620647289E-01 -0.5734604893972E+01 -0.1159008237359E+01 -0.1686555767602E+00
-0.3409155556857E-01 -0.5643506162725E+01 -0.1135519560579E+01 -0.1141668356602E+00
-0.2019770179361E-01 -0.5575663408880E+01 -0.1119172238812E+01 -0.8129512452031E-01
-0.1254732751895E-01 -0.5524118417032E+01 -0.1107333165411E+01 -0.6075083191549E-01
-0.8174430460889E-02 -0.5483995137615E+01 -0.1098433929983E+01 -0.4738389128344E-01
-0.5674901004953E-02 -0.5451993206398E+01 -0.1091533637746E+01 -0.3826182020946E-01
-0.4314424293437E-02 -0.5425969848281E+01 -0.1086056870698E+01 -0.3162402871429E-01
-0.3688620474036E-02 -0.5404559779805E+01 -0.1081649696174E+01 -0.2634918529332E-01
-0.3570100292667E-02 -0.5386942598126E+01 -0.1078102555749E+01 -0.2168535352907E-01
-0.3830704130465E-02 -0.5372686997155E+01 -0.1075303556280E+01 -0.1709397900570E-01
-0.4403862414317E-02 -0.5361652786413E+01 -0.1073211345758E+01 -0.1215807254339E-01
-0.5265612185270E-02 -0.5353929884105E+01 -0.1071839115230E+01 -0.6522158883305E-02
-0.6427562743576E-02 -0.5349803057302E+01 -0.1071246139972E+01  0.1518225041045E-03
-0.7939106502147E-02 -0.5349734925079E+01 -0.1071534822283E+01  0.8223319776779E-02
-0.9901445031906E-02 -0.5354360969501E+01 -0.1072852498893E+01  0.1811632380450E-01
-0.1250393610113E-01 -0.5364487920886E+01 -0.1075398387422E+01  0.3037803659816E-01
-0.1611846303100E-01 -0.5381060574808E+01 -0.1079435823653E+01  0.4576375078485E-01
-0.2148437358087E-01 -0.5404993772069E+01 -0.1085295645302E+01  0.6529070578247E-01
-0.2977661751541E-01 -0.5436801049443E+01 -0.1093315549683E+01  0.9005715521775E-01
-0.4205824083063E-01 -0.5476285721688E+01 -0.1103668808950E+01  0.1208330277360E+00
-0.5834757567695E-01 -0.5522702778122E+01 -0.1116210087393E+01  0.1580143082177E+00
-0.7752652912428E-01 -0.5575002312821E+01 -0.1130505785235E+01  0.2021002777516E+00
-0.9832421541094E-01 -0.5631874331951E+01 -0.1146039726550E+01  0.2539376477770E+00
-0.1202468514080E+00 -0.5691924139266E+01 -0.1162434215456E+01  0.3144726898637E+00
-0.1437991563038E+00 -0.5753853162340E+01 -0.1179530481305E+01  0.3844685979041E+00
-0.1701913421823E+00 -0.5816402060726E+01 -0.1197318698423E+01  0.4643850047498E+00
-0.2008104963440E+00 -0.5878087785728E+01 -0.1215779674531E+01  0.5543489021884E+00
-0.2367321301026E+00 -0.5936904177061E+01 -0.1234727279832E+01  0.6542983374091E+00
-0.2789093566049E+00 -0.5989767167343E+01 -0.1253735323472E+01  0.7643625549887E+00
-0.3294495894719E+00 -0.6030636690704E+01 -0.1272017274990E+01  0.8847694357934E+00
-0.3925224294099E+00 -0.6046367282041E+01 -0.1287777961480E+01  0.1013783722515E+01
-0.4717212470278E+00 -0.6010747068502E+01 -0.1296493682425E+01  0.1142755781653E+01
-0.5675859702892E+00 -0.5871250884974E+01 -0.1287767390242E+01  0.1247306514201E+01
-0.6467183343180E+00 -0.5509311635464E+01 -0.1231206012303E+01  0.1231550205752E+01
-0.3433499879967E+00 -0.4813627425194E+01 -0.1031395498007E+01  0.7885261665811E+00
 0.1678263118979E+01 -0.4160553775373E+01 -0.4964581386765E+00 -0.2353300597027E+00
 0.6413638934564E+01 -0.3997493698869E+01  0.4832290543396E+00 -0.2635700432657E+00
-0.1159394777539E+01 -0.5741027287035E+01 -0.1380084433480E+01 -0.7564011628075E+00
-0.6828089201011E+00 -0.5856450900929E+01 -0.1307851983695E+01 -0.6728941532103E+00
-0.3407407606806E+00 -0.5842477313556E+01 -0.1236643633275E+01 -0.4801657821188E+00
-0.1678044906874E+00 -0.5747166120911E+01 -0.1182994139948E+01 -0.3134878086051E+00
-0.8964132971461E-01 -0.5643622353024E+01 -0.1146652753634E+01 -0.2074229987352E+00
-0.5154527495624E-01 -0.5558251139362E+01 -0.1121959299582E+01 -0.1435396409433E+00
-0.3109816914704E-01 -0.5491309849609E+01 -0.1104481620209E+01 -0.1038083729609E+00
-0.1957058805807E-01 -0.5438728602417E+01 -0.1091659854362E+01 -0.7828170302793E-01
-0.1289342417662E-01 -0.5396906117116E+01 -0.1081959924381E+01 -0.6132623764137E-01
-0.9018225956139E-02 -0.5363093236605E+01 -0.1074422308522E+01 -0.4956566169618E-01
-0.6864040287603E-02 -0.5335357285675E+01 -0.1068444281114E+01 -0.4091472569195E-01
-0.5828264165156E-02 -0.5312401877763E+01 -0.1063646044235E+01 -0.3402293007085E-01
-0.5566925833254E-02 -0.5293404602322E+01 -0.1059794321423E+01 -0.2797182127438E-01
-0.5884254344498E-02 -0.5277898111217E+01 -0.1056756488859E+01 -0.2209950093922E-01
-0.6676326364219E-02 -0.5265686622667E+01 -0.1054472605519E+01 -0.1589314286261E-01
-0.7902937407856E-02 -0.5256790077791E+01 -0.1052938618730E+01 -0.8918564597437E-02
-0.9576320131416E-02 -0.5251407823588E+01 -0.1052196844423E+01 -0.7686274224842E-03
-0.1176301227527E-01 -0.5249895339295E+01 -0.1052331685995E+01  0.8980639713395E-02
-0.1460133272190E-01 -0.5252745979745E+01 -0.1053469478191E+01  0.2081561269262E-01
-0.1834600725924E-01 -0.5260563166677E+01 -0.1055781850520E+01  0.3533926766829E-01
-0.2346379684569E-01 -0.5273981879065E+01 -0.1059489150970E+01  0.5332527712184E-01
-0.3076273494582E-01 -0.5293474606894E+01 -0.1064847484235E+01  0.7569774524637E-01
-0.4134762935224E-01 -0.5319068040627E+01 -0.1072083149971E+01  0.1033118686617E+00
-0.5610329682111E-01 -0.5350218301907E+01 -0.1081264335858E+01  0.1366513336301E+00
-0.7498531732697E-01 -0.5386096553338E+01 -0.1092216390408E+01  0.1758855447982E+00
-0.9699811538615E-01 -0.5425803482890E+01 -0.1104560336115E+01  0.2213201245557E+00
-0.1209996693135E+00 -0.5468223990440E+01 -0.1117844748608E+01  0.2736429294435E+00
-0.1465018644168E+00 -0.5511935950883E+01 -0.1131687579923E+01  0.3337123730934E+00
-0.1739076513093E+00 -0.5555220116752E+01 -0.1145825570686E+01  0.4022136682933E+00
-0.2042564121177E+00 -0.5596001445359E+01 -0.1160051588781E+01  0.4794194036771E+00
-0.2387349356677E+00 -0.5631660924453E+01 -0.1174079189519E+01  0.5650863059670E+00
-0.2782696761277E+00 -0.5658678854531E+01 -0.1187389723825E+01  0.6585124330849E+00
-0.3236538995480E+00 -0.5671820679501E+01 -0.1199094933678E+01  0.7585999969181E+00
-0.3762214237909E+00 -0.5661898227291E+01 -0.1207623948211E+01  0.8630604404371E+00
-0.4373338863253E+00 -0.5611740971951E+01 -0.1209814989683E+01  0.9653492388218E+00
-0.5045100765505E+00 -0.5491038801573E+01 -0.1199109793493E+01  0.1048523172314E+01
-0.5594044042352E+00 -0.5245837372558E+01 -0.1161048372660E+01  0.1069036893643E+01
-0.4988874394741E+00 -0.4799088432950E+01 -0.1059595190274E+01  0.9072166341363E+00
 0.1079275807973E+00 -0.4181897776931E+01 -0.8147940513682E+00  0.3556286861409E+00
 0.2205704315197E+01 -0.3769536300603E+01 -0.3127664017418E+00 -0.4530823585384E+00
 0.6027749410393E+01 -0.3708156569228E+01  0.4639185751459E+00 -0.2510958551898E+00
-0.1149463798272E+01 -0.5538920012160E+01 -0.1337676782019E+01 -0.6921950270078E+00
-0.7332748270324E+00 -0.5657221710324E+01 -0.1278099326516E+01 -0.6460987963483E+00
-0.4080500095864E+00 -0.5679016637182E+01 -0.1217413347495E+01 -0.4984007906416E+00
-0.2188078254431E+00 -0.5622722386899E+01 -0.1168306059878E+01 -0.3491460983278E+00
-0.1218744406951E+00 -0.5541451249234E+01 -0.1132665154864E+01 -0.2413804175507E+00
-0.7166804956685E-01 -0.5465313637307E+01 -0.1107396353876E+01 -0.1713441938284E+00
-0.4403123993131E-01 -0.5401584935900E+01 -0.1089123251395E+01 -0.1260345631447E+00
-0.2811709237585E-01 -0.5349554748393E+01 -0.1075534384180E+01 -0.9609442882265E-01
-0.1874365671139E-01 -0.5307090093297E+01 -0.1065166765874E+01 -0.7575849404672E-01
-0.1322278304999E-01 -0.5272159869061E+01 -0.1057076546174E+01 -0.6141140730338E-01
-0.1009573388791E-01 -0.5243161349919E+01 -0.1050651432417E+01 -0.5073382997055E-01
-0.8538410286170E-02 -0.5218940097769E+01 -0.1045495717190E+01 -0.4218909607572E-01
-0.8073607958136E-02 -0.5198719935031E+01 -0.1041358724115E+01 -0.3471495642812E-01
-0.8426177939368E-02 -0.5182027607534E+01 -0.1038090772563E+01 -0.2753831386853E-01
-0.9447267961377E-02 -0.5168630388207E+01 -0.1035615546666E+01 -0.2005846273431E-01
-0.1107569560295E-01 -0.5158488760441E+01 -0.1033912906615E+01 -0.1176922550666E-01
-0.1332163042545E-01 -0.5151721231977E+01 -0.1033008587874E+01 -0.2202142979607E-02
-0.1626715447572E-01 -0.5148576202816E+01 -0.1032968686851E+01  0.9120208731740E-02
-0.2008553057962E-01 -0.5149401934459E+01 -0.1033897508414E+01  0.2272878875646E-01
-0.2508801756186E-01 -0.5154597553112E+01 -0.1035937129571E+01  0.3925156746518E-01
-0.3180624921738E-01 -0.5164510390759E+01 -0.1039263343481E+01  0.5943496120149E-01
-0.4106412797080E-01 -0.5179253292707E+01 -0.1044063499693E+01  0.8407694548181E-01
-0.5386441187214E-01 -0.5198507535543E+01 -0.1050474405136E+01  0.1138153147135E+00
-0.7093015338178E-01 -0.5221502851931E+01 -0.1058486616835E+01  0.1489223037523E+00
-0.9217235408012E-01 -0.5247333277630E+01 -0.1067901142255E+01  0.1894155062667E+00
-0.1167122518432E+00 -0.5275128097373E+01 -0.1078368085912E+01  0.2354506684152E+00
-0.1435356050547E+00 -0.5303806584965E+01 -0.1089468454238E+01  0.2875347278786E+00
-0.1721607328772E+00 -0.5331841454720E+01 -0.1100800453923E+01  0.3463385575769E+00
-0.2028589961147E+00 -0.5357155471941E+01 -0.1112002910181E+01  0.4123353599146E+00
-0.2364329052394E+00 -0.5377040778542E+01 -0.1122694753486E+01  0.4854929848323E+00
-0.2737690447626E+00 -0.5387987670808E+01 -0.1132351359987E+01  0.5650907590428E+00
-0.3154506801857E+00 -0.5385282756292E+01 -0.1140146704285E+01  0.6496288557686E+00
-0.3616884462723E+00 -0.5362098196470E+01 -0.1144757345607E+01  0.7365390226329E+00
-0.4122415318059E+00 -0.5307350301220E+01 -0.1143918383651E+01  0.8208157578173E+00
-0.4646410055543E+00 -0.5202390018500E+01 -0.1133406221700E+01  0.8913966298684E+00
-0.5077776685617E+00 -0.5017551521790E+01 -0.1105065854537E+01  0.9238412872837E+00
-0.4999662603782E+00 -0.4710716636798E+01 -0.1042136594964E+01  0.8635055184523E+00
-0.2929807803325E+00 -0.4255809040411E+01 -0.9097579777052E+00  0.6018802691337E+00
 0.5197125924237E+00 -0.3757575142925E+01 -0.6475725197499E+00  0.4061250275555E-01
 0.2552893905238E+01 -0.3511117564913E+01 -0.1916447347909E+00 -0.5551975924069E+00
 0.5690503854947E+01 -0.3495115505221E+01  0.4390776764880E+00 -0.2343272518551E+00
-0.1135158068194E+01 -0.5359104576112E+01 -0.1298852548216E+01 -0.6345695172471E+00
-0.7677799903656E+00 -0.5474479676839E+01 -0.1248451952044E+01 -0.6138730009383E+00
-0.4629271997287E+00 -0.5517341062953E+01 -0.1196053670359E+01 -0.5024375764776E+00
-0.2664104614537E+00 -0.5490563457932E+01 -0.1151394801034E+01 -0.3733625179531E+00
-0.1551443940030E+00 -0.5430573965432E+01 -0.1117143688534E+01 -0.2694838125223E+00
-0.9364138614988E-01 -0.5365578944525E+01 -0.1091844082405E+01 -0.1966499881199E+00
-0.5862508114614E-01 -0.5306852844547E+01 -0.1073095601129E+01 -0.1473263160234E+00
-0.3801161602622E-01 -0.5256703554258E+01 -0.1058943049836E+01 -0.1137286571348E+00
-0.2565420213254E-01 -0.5214546527303E+01 -0.1048040161504E+01 -0.9036942437244E-01
-0.1826409785157E-01 -0.5179152120627E+01 -0.1039483259185E+01 -0.7359089754414E-01
-0.1400593700682E-01 -0.5149329689866E+01 -0.1032667140763E+01 -0.6094575437853E-01
-0.1182280727892E-01 -0.5124125670059E+01 -0.1027189710774E+01 -0.5076465947062E-01
-0.1109364764511E-01 -0.5102850591298E+01 -0.1022788863029E+01 -0.4187092955361E-01
-0.1145523369102E-01 -0.5085052495295E+01 -0.1019301560986E+01 -0.3339735355078E-01
-0.1270737887175E-01 -0.5070479314898E+01 -0.1016637353903E+01 -0.2466659391999E-01
-0.1476336940125E-01 -0.5059042931028E+01 -0.1014761275207E+01 -0.1510962515622E-01
-0.1762790346260E-01 -0.5050787070808E+01 -0.1013683009959E+01 -0.4206235494205E-02
-0.2139526716041E-01 -0.5045856080888E+01 -0.1013450284711E+01  0.8562102517931E-02
-0.2626798685438E-01 -0.5044455781680E+01 -0.1014144768819E+01  0.2375283020694E-01
-0.3259981751944E-01 -0.5046790686693E+01 -0.1015878115980E+01  0.4199218934475E-01
-0.4095723978155E-01 -0.5052954581174E+01 -0.1018782379372E+01  0.6396931496969E-01
-0.5214227808609E-01 -0.5062775234122E+01 -0.1022983517685E+01  0.9034620413440E-01
-0.6704302086037E-01 -0.5075685735648E+01 -0.1028545766628E+01  0.1215737949984E+00
-0.8624100471850E-01 -0.5090758177864E+01 -0.1035399851945E+01  0.1577623747512E+00
-0.1096134618850E+00 -0.5107009546225E+01 -0.1043324617169E+01  0.1988140691418E+00
-0.1363798658254E+00 -0.5123530885028E+01 -0.1051982165847E+01  0.2447507880836E+00
-0.1656309638603E+00 -0.5139191219154E+01 -0.1060964452412E+01  0.2958819596505E+00
-0.1968731126744E+00 -0.5152327081101E+01 -0.1069840054697E+01  0.3526303987439E+00
-0.2302138360740E+00 -0.5160570735033E+01 -0.1078156930287E+01  0.4151723489966E+00
-0.2661591167782E+00 -0.5160745208091E+01 -0.1085380881147E+01  0.4830892263346E+00
-0.3051904947271E+00 -0.5148695423736E+01 -0.1090777199946E+01  0.5551039906737E+00
-0.3473375484208E+00 -0.5118885677867E+01 -0.1093244661548E+01  0.6288259070440E+00
-0.3918179806930E+00 -0.5063558915748E+01 -0.1091075395546E+01  0.7001549479553E+00
-0.4362116003501E+00 -0.4971000576965E+01 -0.1081442451578E+01  0.7615587972863E+00
-0.4734103570373E+00 -0.4823295355420E+01 -0.1059341158277E+01  0.7982181277076E+00
-0.4823876469921E+00 -0.4595749869745E+01 -0.1015627518481E+01  0.7807817954514E+00
-0.4015077720801E+00 -0.4264416683813E+01 -0.9331849050841E+00  0.6538255139707E+00
-0.6470973748601E-01 -0.3843781138588E+01 -0.7816981868629E+00  0.3376380683197E+00
 0.8703842918871E+00 -0.3461297663664E+01 -0.5181826820769E+00 -0.1800374516553E+00
 0.2775687509936E+01 -0.3321581785935E+01 -0.1091788568266E+00 -0.5963116044288E+00
 0.5396138142844E+01 -0.3324138606652E+01  0.4143999134135E+00 -0.2214584024877E+00
-0.1118040404141E+01 -0.5194972551295E+01 -0.1262602609901E+01 -0.5825987013006E+00
-0.7905993732965E+00 -0.5304984468158E+01 -0.1219116786457E+01 -0.5797112972128E+00
-0.5068151797830E+00 -0.5359860837890E+01 -0.1173335221019E+01 -0.4971024249937E+00
-0.3091777244470E+00 -0.5354710294437E+01 -0.1132777620657E+01 -0.3881122606455E+00
-0.1878678401575E+00 -0.5313456412910E+01 -0.1100264867009E+01 -0.2915834569369E+00
-0.1165862035935E+00 -0.5260144663892E+01 -0.1075346189521E+01 -0.2188619070132E+00
-0.7444341794581E-01 -0.5207605052814E+01 -0.1056409709894E+01 -0.1671759219992E+00
-0.4902866313713E-01 -0.5160385220734E+01 -0.1041882792299E+01 -0.1307973437369E+00
-0.3351238238062E-01 -0.5119346726486E+01 -0.1030571837130E+01 -0.1048791945297E+00
-0.2408806680187E-01 -0.5084078947064E+01 -0.1021633417997E+01 -0.8590944574571E-01
-0.1856925179950E-01 -0.5053845933170E+01 -0.1014483052111E+01 -0.7141919747209E-01
-0.1566883388091E-01 -0.5027936281044E+01 -0.1008721038016E+01 -0.5966594563579E-01
-0.1461785564329E-01 -0.5005778988979E+01 -0.1004079383886E+01 -0.4939251436961E-01
-0.1495981403027E-01 -0.4986966410740E+01 -0.1000385259861E+01 -0.3965827427565E-01
-0.1643836643380E-01 -0.4971243120527E+01 -0.9975363122567E+00 -0.2972317443269E-01
-0.1893712101733E-01 -0.4958483173168E+01 -0.9954840736708E+00 -0.1896641485802E-01
-0.2245139034155E-01 -0.4948662793258E+01 -0.9942228515351E+00 -0.6826911523645E-02
-0.2708284797624E-01 -0.4941828005171E+01 -0.9937821854380E+00  0.7242053995640E-02
-0.3305502404140E-01 -0.4938049785598E+01 -0.9942209767430E+00  0.2380739637997E-01
-0.4074794575115E-01 -0.4937354940800E+01 -0.9956205921460E+00  0.4347248470600E-01
-0.5073647073509E-01 -0.4939621416680E+01 -0.9980715923554E+00  0.6685156859742E-01
-0.6377529050570E-01 -0.4944454093510E+01 -0.1001645891729E+01  0.9447293259107E-01
-0.8063547199691E-01 -0.4951105152437E+01 -0.1006348139882E+01  0.1266283883342E+00
-0.1017751384657E+00 -0.4958530936694E+01 -0.1012061230113E+01  0.1632978410922E+00
-0.1270415083494E+00 -0.4965672750592E+01 -0.1018542866966E+01  0.2042838365771E+00
-0.1557271553573E+00 -0.4971551524050E+01 -0.1025455751162E+01  0.2494774520979E+00
-0.1869944053917E+00 -0.4974949621010E+01 -0.1032388820664E+01  0.2989791909541E+00
-0.2203085950779E+00 -0.4974069340674E+01 -0.1038875602631E+01  0.3529300535687E+00
-0.2555787493066E+00 -0.4966325880846E+01 -0.1044380941593E+01  0.4111606605236E+00
-0.2929578538758E+00 -0.4948227667452E+01 -0.1048237119886E+01  0.4728181955252E+00
-0.3324192208487E+00 -0.4915219397354E+01 -0.1049527739280E+01  0.5360300666086E+00
-0.3732400222328E+00 -0.4861334986181E+01 -0.1046915017283E+01  0.5975025128187E+00
-0.4133163861398E+00 -0.4778558071539E+01 -0.1038374907009E+01  0.6517150745780E+00
-0.4476473079846E+00 -0.4655661040742E+01 -0.1020661684954E+01  0.6890602963955E+00
-0.4641109896212E+00 -0.4477271780124E+01 -0.9882765686755E+00  0.6921742947989E+00
-0.4323839723728E+00 -0.4226367327673E+01 -0.9317502738933E+00  0.6302625279337E+00
-0.2779134130143E+00 -0.3897142735953E+01 -0.8350112422361E+00  0.4550337365676E+00
 0.1626777309117E+00 -0.3529244243890E+01 -0.6733133126287E+00  0.1195958385703E+00
 0.1157880439959E+01 -0.3244192433249E+01 -0.4172624048757E+00 -0.3312508025771E+00
 0.2913441055223E+01 -0.3170803072214E+01 -0.5147240416520E-01 -0.6062585095802E+00
 0.5137499137113E+01 -0.3179695126372E+01  0.3915608079828E+00 -0.2132449417107E+00
-0.1099056670308E+01 -0.5042293358033E+01 -0.1228270023971E+01 -0.5354628146608E+00
-0.8047241317187E+00 -0.5146070542677E+01 -0.1190158952614E+01 -0.5454314042997E+00
-0.5413283310024E+00 -0.5207355574343E+01 -0.1149736798201E+01 -0.4857090861992E+00
-0.3465894063757E+00 -0.5217718005157E+01 -0.1112861498889E+01 -0.3953868327438E+00
-0.2189355908154E+00 -0.5192187791034E+01 -0.1082224692496E+01 -0.3080682955275E+00
-0.1396967585133E+00 -0.5150164887443E+01 -0.1057972344956E+01 -0.2377163238529E+00
-0.9102536250385E-01 -0.5104418864355E+01 -0.1039088860855E+01 -0.1852268646272E+00
-0.6091119853266E-01 -0.5060883718221E+01 -0.1024358998615E+01 -0.1469919961039E+00
-0.4217547577145E-01 -0.5021620941982E+01 -0.1012759298642E+01 -0.1190477711733E+00
-0.3061615459086E-01 -0.4986992778084E+01 -0.1003521801489E+01 -0.9819119004113E-01
-0.2374144122601E-01 -0.4956726067388E+01 -0.9960935165657E+00 -0.8203088072952E-01
-0.2004920836952E-01 -0.4930374107754E+01 -0.9900846779782E+00 -0.6881117558692E-01
-0.1862543340203E-01 -0.4907506671599E+01 -0.9852264356812E+00 -0.5723072113582E-01
-0.1891878470026E-01 -0.4887778611800E+01 -0.9813394939232E+00 -0.4629845859245E-01
-0.2061376496224E-01 -0.4870944991624E+01 -0.9783117658953E+00 -0.3522744771041E-01
-0.2356077704946E-01 -0.4856852385762E+01 -0.9760826471070E+00 -0.2335757481275E-01
-0.2774156239873E-01 -0.4845417696948E+01 -0.9746318663924E+00 -0.1009856078935E-01
-0.3325930969569E-01 -0.4836596628230E+01 -0.9739712020984E+00  0.5111693505523E-02
-0.4034882584883E-01 -0.4830336678607E+01 -0.9741371154070E+00  0.2283455016868E-01
-0.4940014233973E-01 -0.4826507816644E+01 -0.9751816063282E+00  0.4363492001524E-01
-0.6097473469358E-01 -0.4824808872861E+01 -0.9771567360717E+00  0.6804334665918E-01
-0.7576352123064E-01 -0.4824672114632E+01 -0.9800871417769E+00  0.9646220575016E-01
-0.9442300613550E-01 -0.4825216550404E+01 -0.9839279259696E+00  0.1290468926888E+00
-0.1173018298335E+00 -0.4825311048828E+01 -0.9885225904623E+00  0.1656665624910E+00
-0.1442152625988E+00 -0.4823826620640E+01 -0.9936083914538E+00  0.2060297245683E+00
-0.1745010159129E+00 -0.4819705024864E+01 -0.9988412230393E+00  0.2498947388991E+00
-0.2073555195285E+00 -0.4811636247727E+01 -0.1003798368409E+01  0.2971473468256E+00
-0.2421691897679E+00 -0.4797712378398E+01 -0.1007976328653E+01  0.3476323129479E+00
-0.2786171451361E+00 -0.4775209891447E+01 -0.1010765422378E+01  0.4008140006728E+00
-0.3164471386467E+00 -0.4740470594081E+01 -0.1011383561616E+01  0.4553894202803E+00
-0.3550316570450E+00 -0.4688776998902E+01 -0.1008761746221E+01  0.5088952370115E+00
-0.3927345004233E+00 -0.4614111785954E+01 -0.1001369272197E+01  0.5572027072525E+00
-0.4259113250041E+00 -0.4508800076120E+01 -0.9869422949315E+00  0.5936142768806E+00
-0.4468063601656E+00 -0.4362998808165E+01 -0.9619610480005E+00  0.6070761578636E+00
-0.4384860469172E+00 -0.4165096016653E+01 -0.9207164264337E+00  0.5791462274441E+00
-0.3633538779397E+00 -0.3906534749208E+01 -0.8539777381549E+00  0.4808027219657E+00
-0.1413301154791E+00 -0.3596114975458E+01 -0.7474890293258E+00  0.2751831641694E+00
 0.3758855676801E+00 -0.3285261954566E+01 -0.5818752860479E+00 -0.5527497532400E-01
 0.1388132549809E+01 -0.3076910315589E+01 -0.3377555581891E+00 -0.4333470535387E+00
 0.2992919843574E+01 -0.3043873673607E+01 -0.1019076615847E-01 -0.6008906950351E+00
 0.4907958562888E+01 -0.3053841710046E+01  0.3708233760941E+00 -0.2086464110836E+00
-0.1078796260242E+01 -0.4898235211970E+01 -0.1195406312255E+01 -0.4924781455238E+00
-0.8122713554693E+00 -0.4995641435553E+01 -0.1161582575513E+01 -0.5119726890968E+00
-0.5679727292027E+00 -0.5059842693191E+01 -0.1125563101251E+01 -0.4705024210346E+00
-0.3786493614045E+00 -0.5081129281468E+01 -0.1091955744846E+01 -0.3969285684001E+00
-0.2476491058547E+00 -0.5068394309496E+01 -0.1063208698913E+01 -0.3195871679892E+00
-0.1623074614886E+00 -0.5036724061253E+01 -0.1039806320043E+01 -0.2532102341131E+00
-0.1079267614536E+00 -0.4997907628667E+01 -0.1021166893241E+01 -0.2012704618893E+00
-0.7338886818832E-01 -0.4958531359546E+01 -0.1006384060543E+01 -0.1620839872079E+00
-0.5148156034378E-01 -0.4921543957389E+01 -0.9946051183673E+00 -0.1326788049434E+00
-0.3775136503938E-01 -0.4887982188770E+01 -0.9851467254416E+00 -0.1102829784364E+00
-0.2946273412974E-01 -0.4858014269789E+01 -0.9774954153495E+00 -0.9266841374578E-01
-0.2492400394734E-01 -0.4831463355097E+01 -0.9712774862820E+00 -0.7812255987516E-01
-0.2308528806425E-01 -0.4808052695904E+01 -0.9662276111915E+00 -0.6533623269558E-01
-0.2330249246243E-01 -0.4787512724765E+01 -0.9621630577828E+00 -0.5329195527749E-01
-0.2519988013249E-01 -0.4769620379835E+01 -0.9589640662832E+00 -0.4117282786061E-01
-0.2859190830381E-01 -0.4754204365508E+01 -0.9565592690162E+00 -0.2829271357991E-01
-0.3344254215316E-01 -0.4741131002480E+01 -0.9549147231560E+00 -0.1404411824174E-01
-0.3985004849637E-01 -0.4730275369045E+01 -0.9540250977243E+00  0.2138261520130E-02
-0.4805031635375E-01 -0.4721475313739E+01 -0.9539051402329E+00  0.2079757504683E-01
-0.5842834865098E-01 -0.4714466338394E+01 -0.9545789516333E+00  0.4244948117384E-01
-0.7151511236264E-01 -0.4708801788257E+01 -0.9560633943704E+00  0.6753774656657E-01
-0.8792751179639E-01 -0.4703781674790E+01 -0.9583418515977E+00  0.9634857340513E-01
-0.1082116587810E+00 -0.4698427079772E+01 -0.9613277620355E+00  0.1289187122784E+00
-0.1326162437199E+00 -0.4691541016564E+01 -0.9648314664340E+00  0.1650187211057E+00
-0.1609185552974E+00 -0.4681934007761E+01 -0.9685705270444E+00  0.2042640894453E+00
-0.1924730202066E+00 -0.4668474539555E+01 -0.9721895264392E+00  0.2462781656095E+00
-0.2264725714857E+00 -0.4649773746585E+01 -0.9752492781464E+00  0.2907319323500E+00
-0.2621980365171E+00 -0.4623851366818E+01 -0.9772098952287E+00  0.3371742644663E+00
-0.2990569262320E+00 -0.4587925767135E+01 -0.9773965532378E+00  0.3847050332597E+00
-0.3363467778281E+00 -0.4538312042003E+01 -0.9749317784939E+00  0.4315840875017E+00
-0.3727663516601E+00 -0.4470351587706E+01 -0.9686236023069E+00  0.4748042037063E+00
-0.4056585821158E+00 -0.4378313639966E+01 -0.9567944586737E+00  0.5095359407521E+00
-0.4297397127046E+00 -0.4255353210077E+01 -0.9370185985190E+00  0.5282356993940E+00
-0.4345664016690E+00 -0.4093639535780E+01 -0.9056412009849E+00  0.5191217789776E+00
-0.3991034123710E+00 -0.3885867881684E+01 -0.8569942715811E+00  0.4641115551067E+00
-0.2811175459424E+00 -0.3631289210425E+01 -0.7824813629334E+00  0.3382831488065E+00
-0.1078061281871E-02 -0.3348688260819E+01 -0.6699532744032E+00  0.1174454476567E+00
 0.5683841264405E+00 -0.3091884383067E+01 -0.5047000588459E+00 -0.1930670268602E+00
 0.1569512456767E+01 -0.2941867280996E+01 -0.2744709689358E+00 -0.5013383391289E+00
 0.3032125538112E+01 -0.2932976846577E+01  0.1982973860241E-01 -0.5884847465340E+00
 0.4701984395611E+01 -0.2941992931054E+01  0.3519982981566E+00 -0.2064844557241E+00
-0.1057637522654E+01 -0.4760832235031E+01 -0.1163693968877E+01 -0.4530842664310E+00
-0.8147606890896E+00 -0.4852069906561E+01 -0.1133366136019E+01 -0.4798036726670E+00
-0.5880545334364E+00 -0.4917005762740E+01 -0.1101012075642E+01 -0.4529967586552E+00
-0.4056383346235E+00 -0.4945825874950E+01 -0.1070292857863E+01 -0.3941659280482E+00
-0.2736238078118E+00 -0.4943277319473E+01 -0.1043380241005E+01 -0.3268719996478E+00
-0.1839100966476E+00 -0.4920768614574E+01 -0.1020935757457E+01 -0.2655166616953E+00
-0.1247497794538E+00 -0.4888675096691E+01 -0.1002684990170E+01 -0.2152263288147E+00
-0.8619495376398E-01 -0.4853685296797E+01 -0.9879760648342E+00 -0.1759213153221E+00
-0.6125936269796E-01 -0.4819321325897E+01 -0.9761161522643E+00 -0.1456203961257E+00
-0.4538419336198E-01 -0.4787164086217E+01 -0.9665096703179E+00 -0.1220564908944E+00
-0.3566133664149E-01 -0.4757778379472E+01 -0.9586879575083E+00 -0.1032323161216E+00
-0.3024283796605E-01 -0.4731247451484E+01 -0.9522980720803E+00 -0.8752791562224E-01
-0.2795751163810E-01 -0.4707451745842E+01 -0.9470818656087E+00 -0.7366061127013E-01
-0.2807389923227E-01 -0.4686205277493E+01 -0.9428558493947E+00 -0.6061033274604E-01
-0.3015682635594E-01 -0.4667315629411E+01 -0.9394945051529E+00 -0.4754748743509E-01
-0.3398296292437E-01 -0.4650602266982E+01 -0.9369170599424E+00 -0.3377349219752E-01
-0.3949451915713E-01 -0.4635889876675E+01 -0.9350768931001E+00 -0.1867547797802E-01
-0.4677831238395E-01 -0.4622983678932E+01 -0.9339524121802E+00 -0.1696115900620E-02
-0.5606141494356E-01 -0.4611626979097E+01 -0.9335376927190E+00  0.1767925462156E-01
-0.6771063407662E-01 -0.4601443053776E+01 -0.9338307514857E+00  0.3991005078179E-01
-0.8221333793998E-01 -0.4591869606939E+01 -0.9348166029056E+00  0.6535372897922E-01
-0.1001062493138E+00 -0.4582107013309E+01 -0.9364426664786E+00  0.9419018816770E-01
-0.1218293514499E+00 -0.4571105766616E+01 -0.9385870375992E+00  0.1263512662442E+00
-0.1475370744221E+00 -0.4557621563351E+01 -0.9410317415771E+00  0.1615167474607E+00
-0.1769600884240E+00 -0.4540418049826E+01 -0.9434756417089E+00  0.1992089407947E+00
-0.2094422260837E+00 -0.4518305907525E+01 -0.9455496408116E+00  0.2389158381633E+00
-0.2441376212586E+00 -0.4489842470521E+01 -0.9467960324642E+00  0.2800994696190E+00
-0.2801849936762E+00 -0.4453020561027E+01 -0.9466411250467E+00  0.3220248848168E+00
-0.3166948358781E+00 -0.4405079944131E+01 -0.9443549700738E+00  0.3634473235174E+00
-0.3524802877174E+00 -0.4342437278116E+01 -0.9389835271586E+00  0.4022274373769E+00
-0.3855198858981E+00 -0.4260687142867E+01 -0.9292414195998E+00  0.4348961809289E+00
-0.4120882967192E+00 -0.4154662520008E+01 -0.9133501769555E+00  0.4561042470254E+00
-0.4252821246479E+00 -0.4018702311794E+01 -0.8887969005324E+00  0.4578373139935E+00
-0.4122535020696E+00 -0.3847329309549E+01 -0.8519165750182E+00  0.4282994142705E+00
-0.3488943445106E+00 -0.3637505805329E+01 -0.7972800418484E+00  0.3509556118392E+00
-0.1909505845660E+00 -0.3394823549767E+01 -0.7171548375530E+00  0.2062805643726E+00
 0.1363041579928E+00 -0.3143751563278E+01 -0.6014894900200E+00 -0.1799685749170E-01
 0.7378400313377E+00 -0.2934850929420E+01 -0.4394021861641E+00 -0.3004015337536E+00
 0.1710384304286E+01 -0.2828418466521E+01 -0.2236068357789E+00 -0.5458226531144E+00
 0.3043182927617E+01 -0.2833718837828E+01  0.4189281858209E-01 -0.5732905177806E+00
 0.4515150770987E+01 -0.2841200864703E+01  0.3347899862456E+00 -0.2058360134794E+00
-0.1035830393887E+01 -0.4628677399585E+01 -0.1132901575576E+01 -0.4168226388581E+00
-0.8132994984663E+00 -0.4714093443100E+01 -0.1105478604786E+01 -0.4491365718869E+00
-0.6026681958296E+00 -0.4778404356293E+01 -0.1076214526461E+01 -0.4342130024816E+00
-0.4279654792894E+00 -0.4812271543337E+01 -0.1048047420142E+01 -0.3882307294740E+00
-0.2966980599170E+00 -0.4817691671037E+01 -0.1022877961433E+01 -0.3306390757232E+00
-0.2041433844897E+00 -0.4803084126830E+01 -0.1001445517187E+01 -0.2749117022140E+00
-0.1411585443093E+00 -0.4777282626688E+01 -0.9836882488576E+00 -0.2271146653010E+00
-0.9907989434144E-01 -0.4746706845579E+01 -0.9691573624256E+00 -0.1884207655004E+00
-0.7133692004546E-01 -0.4715176834937E+01 -0.9573027652615E+00 -0.1577634426188E+00
-0.5339816218409E-01 -0.4684676051085E+01 -0.9476148567744E+00 -0.1334087975906E+00
-0.4225693077919E-01 -0.4656105231195E+01 -0.9396724463971E+00 -0.1136371866581E+00
-0.3594713552160E-01 -0.4629786071223E+01 -0.9331466552539E+00 -0.9696181549744E-01
-0.3319495111801E-01 -0.4605752079936E+01 -0.9277894200358E+00 -0.8215725994083E-01
-0.3318979632042E-01 -0.4583904100715E+01 -0.9234187931672E+00 -0.6822343405368E-01
-0.3543961727839E-01 -0.4564086512401E+01 -0.9199052396435E+00 -0.5433495285377E-01
-0.3968241010474E-01 -0.4546117022600E+01 -0.9171599002077E+00 -0.3979415224708E-01
-0.4583509272804E-01 -0.4529787506739E+01 -0.9151245335299E+00 -0.2399411804796E-01
-0.5396681385652E-01 -0.4514844571142E+01 -0.9137622906159E+00 -0.6395465865460E-02
-0.6428674048924E-01 -0.4500952423572E+01 -0.9130478464177E+00  0.1347989553315E-01
-0.7713239173699E-01 -0.4487643258367E+01 -0.9129551436249E+00  0.3603102057626E-01
-0.9293774979916E-01 -0.4474265223186E+01 -0.9134406082083E+00  0.6153157515619E-01
-0.1121557759540E+00 -0.4459945818999E+01 -0.9144203326165E+00  0.9006439641942E-01
-0.1351239572657E+00 -0.4443587266865E+01 -0.9157422584717E+00  0.1214671725008E+00
-0.1619051476629E+00 -0.4423915122656E+01 -0.9171640677305E+00  0.1553345544272E+00
-0.1921734436896E+00 -0.4399662577046E+01 -0.9183672178319E+00  0.1910962091698E+00
-0.2252369613043E+00 -0.4369603707581E+01 -0.9189681474708E+00  0.2281074851308E+00
-0.2601795511738E+00 -0.4332273267820E+01 -0.9184905774853E+00  0.2656327373252E+00
-0.2959695478488E+00 -0.4285685376320E+01 -0.9163309984881E+00  0.3026746622078E+00
-0.3313976067855E+00 -0.4227176130177E+01 -0.9117147609780E+00  0.3376781055328E+00
-0.3647720477624E+00 -0.4153376397384E+01 -0.9036297024944E+00  0.3681624077685E+00
-0.3933345273259E+00 -0.4060293991529E+01 -0.8907257170438E+00  0.3903043587643E+00
-0.4123038078235E+00 -0.3943532114453E+01 -0.8711671974367E+00  0.3984411830226E+00
-0.4132821226681E+00 -0.3798827920162E+01 -0.8424220211191E+00  0.3844664651960E+00
-0.3814575853992E+00 -0.3623136768417E+01 -0.8009188826979E+00  0.3371987417319E+00
-0.2907924348871E+00 -0.3417233088548E+01 -0.7416051157378E+00  0.2424828889818E+00
-0.9723768618763E-01 -0.3191313006263E+01 -0.6577101482908E+00  0.8660332529287E-01
 0.2665811293697E+00 -0.2972131689351E+01 -0.5411101200594E+00 -0.1325804817542E+00
 0.8843340337403E+00 -0.2804125506510E+01 -0.3839583002753E+00 -0.3833244873760E+00
 0.1818169704208E+01 -0.2729999039332E+01 -0.1823658697424E+00 -0.5741186558973E+00
 0.3034327176454E+01 -0.2743435067366E+01  0.5817842268451E-01 -0.5574400979704E+00
 0.4343968385271E+01 -0.2749403396376E+01  0.3189130025310E+00 -0.2060584527501E+00
-0.1013544474815E+01 -0.4500737189177E+01 -0.1102856349232E+01 -0.3833163760796E+00
-0.8087071087952E+00 -0.4580727270365E+01 -0.1077886891894E+01 -0.4200432249766E+00
-0.6127155954846E+00 -0.4643574758940E+01 -0.1051258086550E+01 -0.4148394830831E+00
-0.4460829154514E+00 -0.4680671929022E+01 -0.1025350984174E+01 -0.3800027592146E+00
-0.3168598685512E+00 -0.4692226462216E+01 -0.1001817281082E+01 -0.3315407499235E+00
-0.2227705127782E+00 -0.4684299716294E+01 -0.9814140604387E+00 -0.2817203038905E+00
-0.1568836367048E+00 -0.4664230409966E+01 -0.9642228237021E+00 -0.2370276774948E+00
-0.1118203685293E+00 -0.4637945160540E+01 -0.9499531199693E+00 -0.1995569661686E+00
-0.8154867761585E-01 -0.4609341573628E+01 -0.9381780642288E+00 -0.1690380460842E+00
-0.6167472528606E-01 -0.4580669236859E+01 -0.9284688062643E+00 -0.1442616442847E+00
-0.4916397773545E-01 -0.4553096081056E+01 -0.9204520254742E+00 -0.1238120889575E+00
-0.4197236903458E-01 -0.4527152111046E+01 -0.9138249096331E+00 -0.1063662885564E+00
-0.3874480627902E-01 -0.4503013398450E+01 -0.9083516544813E+00 -0.9078214002546E-01
-0.3860205391418E-01 -0.4480666657313E+01 -0.9038537557139E+00 -0.7610002436637E-01
-0.4099927326265E-01 -0.4459996722711E+01 -0.9001992126088E+00 -0.6151469285170E-01
-0.4563585807918E-01 -0.4440825775282E+01 -0.8972923400430E+00 -0.4634212269625E-01
-0.5240050365670E-01 -0.4422921289052E+01 -0.8950643718791E+00 -0.2999188306273E-01
-0.6133907827590E-01 -0.4405982469109E+01 -0.8934643227906E+00 -0.1195120181082E-01
-0.7263486715769E-01 -0.4389609524001E+01 -0.8924488915302E+00  0.8215281407321E-02
-0.8658704866861E-01 -0.4373263102517E+01 -0.8919700435285E+00  0.3084423253320E-01
-0.1035690465304E+00 -0.4356224459567E+01 -0.8919587145107E+00  0.5612916694559E-01
-0.1239480919894E+00 -0.4337570590555E+01 -0.8923037498052E+00  0.8406426187226E-01
-0.1479619688157E+00 -0.4316174490236E+01 -0.8928273051145E+00  0.1144018227331E+00
-0.1755825135778E+00 -0.4290748091360E+01 -0.8932661342982E+00  0.1466562331337E+00
-0.2064170242395E+00 -0.4260012276662E+01 -0.8932858734914E+00  0.1801667269986E+00
-0.2397156975413E+00 -0.4222728644884E+01 -0.8924888817842E+00  0.2141621355011E+00
-0.2744653813115E+00 -0.4177442954689E+01 -0.8903816804677E+00  0.2477253114139E+00
-0.3094414339431E+00 -0.4122237937289E+01 -0.8863358874539E+00  0.2796254858903E+00
-0.3431001833109E+00 -0.4054613299512E+01 -0.8795427096709E+00  0.3080422216719E+00
-0.3732402237968E+00 -0.3971507773609E+01 -0.8689496124296E+00  0.3302256832820E+00
-0.3963798277584E+00 -0.3869463932400E+01 -0.8531687647449E+00  0.3421211985581E+00
-0.4067481098256E+00 -0.3744988653271E+01 -0.8303473649925E+00  0.3379646802132E+00
-0.3946604385905E+00 -0.3595301659142E+01 -0.7979924314374E+00  0.3099050579063E+00
-0.3438677766579E+00 -0.3419662175378E+01 -0.7527060016234E+00  0.2478687541981E+00
-0.2274995287707E+00 -0.3221972268099E+01 -0.6898943696541E+00  0.1405485102696E+00
-0.3400245131058E-02 -0.3015374932259E+01 -0.6037550444747E+00 -0.2018018118982E-01
 0.3872569373268E+00 -0.2826515592042E+01 -0.4878517382126E+00 -0.2284780373549E+00
 0.1009219671480E+01 -0.2692672157435E+01 -0.3366905022082E+00 -0.4469344505586E+00
 0.1899107465289E+01 -0.2642460476015E+01 -0.1486706043604E+00 -0.5912285364776E+00
 0.3011222838726E+01 -0.2660386868343E+01  0.7016719512209E-01 -0.5419607905388E+00
 0.4185685418657E+01 -0.2665070135938E+01  0.3041230610756E+00 -0.2067317285085E+00
-0.9908977330332E+00 -0.4376235286975E+01 -0.1073426619997E+01 -0.3522534667001E+00
-0.8015988287879E+00 -0.4451197094461E+01 -0.1050559200304E+01 -0.3925190632658E+00
-0.6189344777015E+00 -0.4512075913798E+01 -0.1026202093592E+01 -0.3953398113505E+00
-0.4604389220880E+00 -0.4551077175703E+01 -0.1002303234494E+01 -0.3701583855491E+00
-0.3341923100984E+00 -0.4567274318906E+01 -0.9802933404083E+00 -0.3301468413275E+00
-0.2396537437675E+00 -0.4564905619509E+01 -0.9609118869740E+00 -0.2862796598098E+00
-0.1717192702901E+00 -0.4549950006459E+01 -0.9443338694214E+00 -0.2451043521854E+00
-0.1242241328552E+00 -0.4527725852114E+01 -0.9303900108578E+00 -0.2093502487057E+00
-0.9174077815233E-01 -0.4502044939146E+01 -0.9187571571503E+00 -0.1794085579440E+00
-0.7009739295152E-01 -0.4475302059882E+01 -0.9090799041130E+00 -0.1545597516661E+00
-0.5629470065774E-01 -0.4448862299030E+01 -0.9010314133640E+00 -0.1337002744765E+00
-0.4825018785161E-01 -0.4423428719581E+01 -0.8943357948131E+00 -0.1156911148010E+00
-0.4455019958017E-01 -0.4399304689720E+01 -0.8887709911037E+00 -0.9949425850927E-01
-0.4425886569939E-01 -0.4376558336469E+01 -0.8841634536088E+00 -0.8420833018533E-01
-0.4678391404343E-01 -0.4355116354644E+01 -0.8803800668561E+00 -0.6906268905983E-01
-0.5178711829311E-01 -0.4334810346133E+01 -0.8773195059583E+00 -0.5339868092765E-01
-0.5912673559061E-01 -0.4315391151444E+01 -0.8749035904441E+00 -0.3665187246545E-01
-0.6882054623943E-01 -0.4296521358625E+01 -0.8730683939826E+00 -0.1834345537308E-01
-0.8101923120376E-01 -0.4277751467539E+01 -0.8717541527387E+00  0.1914668216241E-02
-0.9597645766052E-01 -0.4258488298746E+01 -0.8708929642586E+00  0.2439625616042E-01
-0.1139999589702E+00 -0.4237965885508E+01 -0.8703931818655E+00  0.4921888422506E-01
-0.1353702768811E+00 -0.4215229756951E+01 -0.8701200197322E+00  0.7629569032477E-01
-0.1602275178219E+00 -0.4189140479346E+01 -0.8698736123957E+00  0.1053011531284E+00
-0.1884517451306E+00 -0.4158412381009E+01 -0.8693728381826E+00  0.1356743551482E+00
-0.2195737848304E+00 -0.4121772890361E+01 -0.8682693479765E+00  0.1666683812940E+00
-0.2527671148969E+00 -0.4077996093290E+01 -0.8661526545440E+00  0.1973949832765E+00
-0.2869001721823E+00 -0.4025671975223E+01 -0.8625144423335E+00  0.2267758137329E+00
-0.3205393318055E+00 -0.3962995552394E+01 -0.8567069896057E+00  0.2533810749514E+00
-0.3518014503278E+00 -0.3887687355391E+01 -0.8478977737785E+00  0.2751776343927E+00
-0.3779864018517E+00 -0.3797066515983E+01 -0.8350105960095E+00  0.2892270587024E+00
-0.3949304018310E+00 -0.3688292324103E+01 -0.8166445573558E+00  0.2913708225000E+00
-0.3959830526689E+00 -0.3558839887033E+01 -0.7909645997267E+00  0.2759445619600E+00
-0.3704341299185E+00 -0.3407386550505E+01 -0.7555641473434E+00  0.2356444129343E+00
-0.3011448085188E+00 -0.3235225644319E+01 -0.7072741011067E+00  0.1618437459456E+00
-0.1613618167924E+00 -0.3048625041982E+01 -0.6419973813213E+00  0.4623905457015E-01
 0.8802993826291E-01 -0.2862273160023E+01 -0.5548486526199E+00 -0.1143056662550E+00
 0.4970712048167E+00 -0.2701185389075E+01 -0.4408228434205E+00 -0.3080752441438E+00
 0.1114430398709E+01 -0.2595537586938E+01 -0.2962214420598E+00 -0.4953508124043E+00
 0.1958305645561E+01 -0.2563103784868E+01 -0.1209596296638E+00 -0.6005539855438E+00
 0.2977829766635E+01 -0.2583369423512E+01  0.7889206980008E-01 -0.5273082521324E+00
 0.4038110122364E+01 -0.2587022510066E+01  0.2902175267841E+00 -0.2076014398590E+00
-0.9679740893326E+00 -0.4254577111739E+01 -0.1044510255779E+01 -0.3233734918129E+00
-0.7924434022843E+00 -0.4324888535990E+01 -0.1023466402906E+01 -0.3665189808638E+00
-0.6219270987933E+00 -0.4383507997960E+01 -0.1001087034268E+01 -0.3760250495330E+00
-0.4714541220374E+00 -0.4423446812338E+01 -0.9789802014631E+00 -0.3592142270549E+00
-0.3488348331479E+00 -0.4443086139519E+01 -0.9583842088143E+00 -0.3269422279397E+00
-0.2547306674644E+00 -0.4445275307822E+01 -0.9400012090644E+00 -0.2889164458708E+00
-0.1855164552175E+00 -0.4434804591980E+01 -0.9240642232091E+00 -0.2515102248421E+00
-0.1361314484814E+00 -0.4416344198695E+01 -0.9104951430028E+00 -0.2178548493989E+00
-0.1017745473501E+00 -0.4393507761295E+01 -0.8990564751261E+00 -0.1888679074392E+00
-0.7855499773901E-01 -0.4368734845772E+01 -0.8894579819561E+00 -0.1642684123097E+00
-0.6356166577394E-01 -0.4343521476105E+01 -0.8814166415100E+00 -0.1432583785573E+00
-0.5471037054884E-01 -0.4318706490780E+01 -0.8746833852996E+00 -0.1248937689169E+00
-0.5055166960974E-01 -0.4294702138229E+01 -0.8690507745176E+00 -0.1082559449126E+00
-0.5010595247497E-01 -0.4271650779674E+01 -0.8643513593096E+00 -0.9251647144691E-01
-0.5273980789961E-01 -0.4249520424961E+01 -0.8604520593939E+00 -0.7695197685183E-01
-0.5807919342173E-01 -0.4228155792492E+01 -0.8572470099567E+00 -0.6093964114234E-01
-0.6595047759765E-01 -0.4207298055163E+01 -0.8546497192874E+00 -0.4394938500746E-01
-0.7633945627932E-01 -0.4186583253326E+01 -0.8525845546256E+00 -0.2554243403317E-01
-0.8935876809327E-01 -0.4165525378324E+01 -0.8509768419639E+00 -0.5381117484670E-02
-0.1052110750908E+00 -0.4143493281412E+01 -0.8497408839628E+00  0.1674597620129E-01
-0.1241348828667E+00 -0.4119690866939E+01 -0.8487651626086E+00  0.4088496553608E-01
-0.1463237495284E+00 -0.4093148650939E+01 -0.8478944927282E+00  0.6687495464634E-01
-0.1718215714661E+00 -0.4062729875749E+01 -0.8469103020630E+00  0.9431952362884E-01
-0.2004152628042E+00 -0.4027166671224E+01 -0.8455163994048E+00  0.1225880162148E+00
-0.2315506721445E+00 -0.3985211676483E+01 -0.8433524822924E+00  0.1508537754214E+00
-0.2643094467914E+00 -0.3935675726308E+01 -0.8399970471367E+00  0.1781238438442E+00
-0.2974257595162E+00 -0.3877223947818E+01 -0.8349299539082E+00  0.2031822097089E+00
-0.3292479911276E+00 -0.3808201717180E+01 -0.8274899539921E+00  0.2244382257730E+00
-0.3575580043563E+00 -0.3726595959141E+01 -0.8168308048712E+00  0.2397028840728E+00
-0.3791829982268E+00 -0.3630156913616E+01 -0.8018679943172E+00  0.2459326953529E+00
-0.3893419817372E+00 -0.3516704766671E+01 -0.7812093613227E+00  0.2389889585508E+00
-0.3806466618901E+00 -0.3384687405386E+01 -0.7530668246767E+00  0.2134842184736E+00
-0.3416477978866E+00 -0.3234132381963E+01 -0.7151560466266E+00  0.1628850281210E+00
-0.2548339128566E+00 -0.3068019861686E+01 -0.6645707648114E+00  0.8020232366728E-01
-0.9432586462315E-01 -0.2894249101167E+01 -0.5977150020647E+00 -0.3994319992839E-01
 0.1752749790633E+00 -0.2727967356608E+01 -0.5105384831166E+00 -0.1964872959842E+00
 0.5955985437786E+00 -0.2591714043150E+01 -0.3992231058232E+00 -0.3736879378564E+00
 0.1202077168422E+01 -0.2509196939657E+01 -0.2614239581425E+00 -0.5318210921050E+00
 0.1999895586905E+01 -0.2490110538131E+01 -0.9804299170615E-01 -0.6043962703395E+00
 0.2936975716641E+01 -0.2511514539714E+01  0.8509223665345E-01 -0.5136421357020E+00
 0.3899464972733E+01 -0.2514337866894E+01  0.2770254252958E+00 -0.2085438355932E+00
-0.9448344676614E+00 -0.4135299418402E+01 -0.1016026792353E+01 -0.2964572751166E+00
-0.7816027819903E+00 -0.4201309452389E+01 -0.9965824617262E+00 -0.3419776534580E+00
-0.6221856668633E+00 -0.4257517541187E+01 -0.9759406561528E+00 -0.3571021429783E+00
-0.4795109866929E+00 -0.4297690294792E+01 -0.9554402705342E+00 -0.3475633182860E+00
-0.3609567946246E+00 -0.4319812452247E+01 -0.9361538633240E+00 -0.3223324941971E+00
-0.2679939703325E+00 -0.4325687461469E+01 -0.9187363000506E+00 -0.2899339647589E+00
-0.1981744871386E+00 -0.4319093753138E+01 -0.9034536615178E+00 -0.2564222389125E+00
-0.1474140980542E+00 -0.4304062060330E+01 -0.8902952449433E+00 -0.2251484056570E+00
-0.1115283830910E+00 -0.4283937460777E+01 -0.8790931818731E+00 -0.1974317919998E+00
-0.8694409793891E-01 -0.4261125479415E+01 -0.8696139284290E+00 -0.1733706654249E+00
-0.7087992127709E-01 -0.4237194005985E+01 -0.8616147982915E+00 -0.1524552304612E+00
-0.6128255617231E-01 -0.4213080867113E+01 -0.8548726973957E+00 -0.1339390805122E+00
-0.5668855229334E-01 -0.4189287120054E+01 -0.8491951471235E+00 -0.1170329461827E+00
-0.5608769767523E-01 -0.4166020248663E+01 -0.8444216018504E+00 -0.1009927942236E+00
-0.5881235738989E-01 -0.4143287437324E+01 -0.8404199714659E+00 -0.8515314959090E-01
-0.6445517768559E-01 -0.4120949044608E+01 -0.8370808569322E+00 -0.6893604857266E-01
-0.7280995236577E-01 -0.4098742646196E+01 -0.8343105321445E+00 -0.5185288102569E-01
-0.8382754165961E-01 -0.4076286903670E+01 -0.8320229014640E+00 -0.3350975636577E-01
-0.9757834702274E-01 -0.4053071258619E+01 -0.8301299334982E+00 -0.1362145043720E-01
-0.1142099964166E+00 -0.4028440649042E+01 -0.8285301414377E+00  0.7962451410993E-02
-0.1338894938228E+00 -0.4001583720788E+01 -0.8270946552467E+00  0.3122121771536E-01
-0.1567236108708E+00 -0.3971530342220E+01 -0.8256508029212E+00  0.5592649667265E-01
-0.1826611994801E+00 -0.3937160112620E+01 -0.8239642746981E+00  0.8161767161143E-01
-0.2113945925789E+00 -0.3897237524012E+01 -0.8217264355628E+00  0.1076007344993E+00
-0.2422777598419E+00 -0.3850558160885E+01 -0.8185671963430E+00  0.1329776423156E+00
-0.2742892127210E+00 -0.3795992038979E+01 -0.8140562624704E+00  0.1566654920932E+00
-0.3060185576772E+00 -0.3732306700298E+01 -0.8076650636303E+00  0.1773364107644E+00
-0.3355941515741E+00 -0.3658029102508E+01 -0.7987246627184E+00  0.1932790929186E+00
-0.3604765586586E+00 -0.3571445763356E+01 -0.7863844761210E+00  0.2022067229593E+00
-0.3770595031068E+00 -0.3470767550746E+01 -0.7695654222380E+00  0.2010524620589E+00
-0.3800275972731E+00 -0.3354485937213E+01 -0.7469027180270E+00  0.1858102042050E+00
-0.3614148056494E+00 -0.3221977937447E+01 -0.7166785592986E+00  0.1515146509714E+00
-0.3093201350361E+00 -0.3074459156983E+01 -0.6767558684883E+00  0.9255441560018E-01
-0.2063135213590E+00 -0.2916223698390E+01 -0.6245074532556E+00  0.3641257456377E-02
-0.2794557076870E-01 -0.2756155256322E+01 -0.5568201737154E+00 -0.1179167111243E+00
 0.2571617895350E+00 -0.2609078773368E+01 -0.4703834037759E+00 -0.2676901309833E+00
 0.6829514350474E+00 -0.2494687180937E+01 -0.3623471545774E+00 -0.4274276115282E+00
 0.1274224683984E+01 -0.2431098642793E+01 -0.2313747952095E+00 -0.5588724832678E+00
 0.2027201441341E+01 -0.2422194105488E+01 -0.7899853400658E-01 -0.6042932267327E+00
 0.2890744417238E+01 -0.2444189451146E+01  0.8931099454932E-01 -0.5009582288655E+00
 0.3768271287588E+01 -0.2446295531417E+01  0.2643951551740E+00 -0.2095563406965E+00
-0.9215239101767E+00 -0.4018035775179E+01 -0.9879119517922E+00 -0.2713188483595E+00
-0.7693600308621E+00 -0.4080061866008E+01 -0.9698843938265E+00 -0.3188210890754E+00
-0.6201136866761E+00 -0.4133796197562E+01 -0.9507819910154E+00 -0.3387065982733E+00
-0.4849508129762E+00 -0.4173692028569E+01 -0.9317285821929E+00 -0.3355038537665E+00
-0.3707399367064E+00 -0.4197533827377E+01 -0.9136547664313E+00 -0.3166529782898E+00
-0.2794751398877E+00 -0.4206345642292E+01 -0.8971641698047E+00 -0.2896059403687E+00
-0.2096322320278E+00 -0.4203060530444E+01 -0.8825385656451E+00 -0.2600180610408E+00
-0.1579728990672E+00 -0.4191107492929E+01 -0.8698160913605E+00 -0.2313231804961E+00
-0.1208983596787E+00 -0.4173525005233E+01 -0.8588846857808E+00 -0.2051331660496E+00
-0.9517058060006E-01 -0.4152626054013E+01 -0.8495593395821E+00 -0.1818643013859E+00
-0.7816868461385E-01 -0.4130000190153E+01 -0.8416337874946E+00 -0.1612704118199E+00
-0.6789772747022E-01 -0.4106649809112E+01 -0.8349095197575E+00 -0.1427986797634E+00
-0.6290022221103E-01 -0.4083144336113E+01 -0.8292089240210E+00 -0.1257943711991E+00
-0.6214819158986E-01 -0.4059746077859E+01 -0.8243788661739E+00 -0.1096061139556E+00
-0.6494700422487E-01 -0.4036498024743E+01 -0.8202890180168E+00 -0.9363482132201E-01
-0.7085906039817E-01 -0.4013277648172E+01 -0.8168273538857E+00 -0.7735486144692E-01
-0.7964561551896E-01 -0.3989824067256E+01 -0.8138939486830E+00 -0.6032493315581E-01
-0.9122056835499E-01 -0.3965746731305E+01 -0.8113934720227E+00 -0.4219973422372E-01
-0.1056090482416E+00 -0.3940521190770E+01 -0.8092260598607E+00 -0.2274754051887E-01
-0.1229008885893E+00 -0.3913480824358E+01 -0.8072763546188E+00 -0.1876994722097E-02
-0.1431903438384E+00 -0.3883811955314E+01 -0.8054004718318E+00  0.2032899407015E-01
-0.1664980182389E+00 -0.3850556405198E+01 -0.8034108966592E+00  0.4358093397644E-01
-0.1926788379448E+00 -0.3812622490135E+01 -0.8010602775527E+00  0.6736073728808E-01
-0.2213295023595E+00 -0.3768820517314E+01 -0.7980300158263E+00  0.9091830090353E-01
-0.2517070847356E+00 -0.3718005237718E+01 -0.7939424763214E+00  0.1132941927671E+00
-0.2826794394779E+00 -0.3659125664026E+01 -0.7883610324483E+00  0.1333321007184E+00
-0.3126866439645E+00 -0.3591074537507E+01 -0.7807522479284E+00  0.1496193813077E+00
-0.3396416070211E+00 -0.3512584117145E+01 -0.7704451563137E+00  0.1603646659717E+00
-0.3607055531118E+00 -0.3422261396052E+01 -0.7565934011068E+00  0.1632400359116E+00
-0.3718884990476E+00 -0.3318787951015E+01 -0.7381353010117E+00  0.1552312861227E+00
-0.3674353671099E+00 -0.3201308600181E+01 -0.7137488040938E+00  0.1325618945783E+00
-0.3389690473425E+00 -0.3070050462787E+01 -0.6818039121856E+00  0.9079838891314E-01
-0.2744061062016E+00 -0.2927225405200E+01 -0.6403263118220E+00  0.2533609027549E-01
-0.1567717478577E+00 -0.2778079895452E+01 -0.5869703374085E+00 -0.6744840581142E-01
 0.3658220564179E-01 -0.2631949797825E+01 -0.5190735261714E+00 -0.1878872505491E+00
 0.3329838889501E+00 -0.2502815988556E+01 -0.4339664263878E+00 -0.3289789209766E+00
 0.7595709988457E+00 -0.2407475605141E+01 -0.3295809261702E+00 -0.4711523135226E+00
 0.1332775117235E+01 -0.2359354947480E+01 -0.2053159691084E+00 -0.5784687238611E+00
 0.2042880725273E+01 -0.2358365857481E+01 -0.6309702738168E-01 -0.6012472408648E+00
 0.2840764271367E+01 -0.2380930775396E+01  0.9196670056453E-01 -0.4891201639262E+00
 0.3643222062086E+01 -0.2382367516915E+01  0.2521709127919E+00 -0.2107922324220E+00
-0.8980762640618E+00 -0.3902492387282E+01 -0.9601137445756E+00 -0.2477992010628E+00
-0.7559391572215E+00 -0.3960820944912E+01 -0.9433520344837E+00 -0.2969731601733E+00
-0.6160433566966E+00 -0.4012076794573E+01 -0.9256240440467E+00 -0.3209246743767E+00
-0.4880746963265E+00 -0.4051326570984E+01 -0.9078802669905E+00 -0.3232615248211E+00
-0.3783671767838E+00 -0.4076282854256E+01 -0.8909300194838E+00 -0.3101786940468E+00
-0.2892318335359E+00 -0.4087394924920E+01 -0.8753253647346E+00 -0.2881745402646E+00
-0.2198600266617E+00 -0.4086899210454E+01 -0.8613518602584E+00 -0.2624689733866E+00
-0.1677344258696E+00 -0.4077676163189E+01 -0.8490821304641E+00 -0.2364790884067E+00
-0.1297978814713E+00 -0.4062443345231E+01 -0.8384482578343E+00 -0.2120173012875E+00
-0.1031505711148E+00 -0.4043380458791E+01 -0.8293062183388E+00 -0.1897588983680E+00
-0.8535259680743E-01 -0.4022057889152E+01 -0.8214821094329E+00 -0.1696926818476E+00
-0.7448943588386E-01 -0.3999511777878E+01 -0.8148002548937E+00 -0.1514502918862E+00
-0.6912717646636E-01 -0.3976360133504E+01 -0.8090974740505E+00 -0.1345125144487E+00
-0.6823216755622E-01 -0.3952909258939E+01 -0.8042282972831E+00 -0.1183258776111E+00
-0.7109004092112E-01 -0.3929233713069E+01 -0.8000647627198E+00 -0.1023640416821E+00
-0.7723642810400E-01 -0.3905228648229E+01 -0.7964930271354E+00 -0.8615960297915E-01
-0.8640073375099E-01 -0.3880638952126E+01 -0.7934079489981E+00 -0.6932314023943E-01
-0.9845873721655E-01 -0.3855071989114E+01 -0.7907061570485E+00 -0.5156057913914E-01
-0.1133883154425E+00 -0.3827998780124E+01 -0.7882774308596E+00 -0.3269392519071E-01
-0.1312198421537E+00 -0.3798751914166E+01 -0.7859943629761E+00 -0.1268847944880E-01
-0.1519744328105E+00 -0.3766526618169E+01 -0.7837002218739E+00  0.8315392565602E-02
-0.1755875548383E+00 -0.3730387707188E+01 -0.7811950640460E+00  0.2997323879447E-01
-0.2018215054648E+00 -0.3689283266532E+01 -0.7782209659958E+00  0.5171638159237E-01
-0.2301769948062E+00 -0.3642081522017E+01 -0.7744517149049E+00  0.7274667154917E-01
-0.2598112128543E+00 -0.3587710668798E+01 -0.7695043877970E+00  0.9205454616983E-01
-0.2894774758217E+00 -0.3525215410291E+01 -0.7629385885913E+00  0.1084279488522E+00
-0.3174663263766E+00 -0.3453631534081E+01 -0.7542195833303E+00  0.1203969034053E+00
-0.3414857455918E+00 -0.3371912684104E+01 -0.7426796970059E+00  0.1261295456771E+00
-0.3584264877271E+00 -0.3278995602415E+01 -0.7274844288687E+00  0.1233100442194E+00
-0.3639722436273E+00 -0.3174025771519E+01 -0.7075996135732E+00  0.1090442213069E+00
-0.3520289126526E+00 -0.3056761252120E+01 -0.6817580431135E+00  0.7986355291998E-01
-0.3139714931639E+00 -0.2928177253191E+01 -0.6484297589334E+00  0.3194049089096E-01
-0.2377728672031E+00 -0.2791280766854E+01 -0.6058107358387E+00 -0.3829591316370E-01
-0.1072032618442E+00 -0.2651943871159E+01 -0.5518294348236E+00 -0.1329111366340E+00
 0.9837103453789E-01 -0.2519540182978E+01 -0.4842338369037E+00 -0.2502433741845E+00
 0.4023786504992E+00 -0.2406893851822E+01 -0.4009030462384E+00 -0.3814276504224E+00
 0.8260955170988E+00 -0.2328038241520E+01 -0.3003885493604E+00 -0.5064503307411E+00
 0.1379407214993E+01 -0.2292590984774E+01 -0.1826367566776E+00 -0.5921715374433E+00
 0.2049031593006E+01 -0.2297685518258E+01 -0.4973078579156E-01 -0.5958853516918E+00
 0.2788399945570E+01 -0.2321460790460E+01  0.9338783241368E-01 -0.4778174050597E+00
 0.3523182453720E+01 -0.2322095464906E+01  0.2402174013423E+00 -0.2126109838157E+00
-0.8745173490472E+00 -0.3788430866497E+01 -0.9325896570055E+00 -0.2257614173837E+00
-0.7415194004383E+00 -0.3843319083606E+01 -0.9169677104728E+00 -0.2763592336624E+00
-0.6102495467824E+00 -0.3892128506999E+01 -0.9004756241743E+00 -0.3038085404200E+00
-0.4891464662172E+00 -0.3930467627459E+01 -0.8839228319068E+00 -0.3110066734011E+00
-0.3840157513104E+00 -0.3956059818161E+01 -0.8680151268286E+00 -0.3031338483113E+00
-0.2973383705682E+00 -0.3968935450483E+01 -0.8532547769248E+00 -0.2858509378142E+00
-0.2288525836807E+00 -0.3970762953565E+01 -0.8399231199649E+00 -0.2639354790497E+00
-0.1766474504527E+00 -0.3963933820224E+01 -0.8281162664752E+00 -0.2407183907287E+00
-0.1381566947290E+00 -0.3950846965107E+01 -0.8178007441534E+00 -0.2181375566098E+00
-0.1108107801234E+00 -0.3933522769540E+01 -0.8088667219857E+00 -0.1970730422800E+00
-0.9236258526027E-01 -0.3913480678067E+01 -0.8011686646038E+00 -0.1777183734064E+00
-0.8099477399882E-01 -0.3891764020185E+01 -0.7945517706765E+00 -0.1598769429476E+00
-0.7531195463021E-01 -0.3869021011926E+01 -0.7888666050664E+00 -0.1431625927163E+00
-0.7428582164749E-01 -0.3845591152272E+01 -0.7839754064661E+00 -0.1271222594542E+00
-0.7718932382382E-01 -0.3821575793595E+01 -0.7797530351030E+00 -0.1113066643666E+00
-0.8353506673640E-01 -0.3796887592016E+01 -0.7760845433151E+00 -0.9531097525069E-01
-0.9302185347474E-01 -0.3771280564129E+01 -0.7728604950373E+00 -0.7880099179097E-01
-0.1054869729575E+00 -0.3744366088950E+01 -0.7699706238549E+00 -0.6153552469648E-01
-0.1208600104494E+00 -0.3715618765319E+01 -0.7672957665874E+00 -0.4338982810070E-01
-0.1391111614308E+00 -0.3684379697213E+01 -0.7646981831237E+00 -0.2438309078546E-01
-0.1601887536734E+00 -0.3649862705611E+01 -0.7620103032117E+00 -0.4708363702439E-02
-0.1839445771619E+00 -0.3611165205867E+01 -0.7590219679161E+00  0.1524106723670E-01
-0.2100499565613E+00 -0.3567284771387E+01 -0.7554669568470E+00  0.3485301315271E-01
-0.2379101648622E+00 -0.3517158105774E+01 -0.7510136653183E+00  0.5328996406902E-01
-0.2665815870367E+00 -0.3459798894131E+01 -0.7452761073390E+00  0.6950433891044E-01
-0.2947025151553E+00 -0.3394360829917E+01 -0.7378126800088E+00  0.8224650325785E-01
-0.3204183926578E+00 -0.3320035532368E+01 -0.7280907958545E+00  0.9001607312997E-01
-0.3412478710513E+00 -0.3236006758463E+01 -0.7154509365639E+00  0.9097802139921E-01
-0.3538454280369E+00 -0.3141539864408E+01 -0.6990770689061E+00  0.8287663817279E-01
-0.3536303966825E+00 -0.3036223579413E+01 -0.6779708053217E+00  0.6299473516084E-01
-0.3342709977728E+00 -0.2920373178944E+01 -0.6509288450430E+00  0.2823065989794E-01
-0.2870463690026E+00 -0.2795597809278E+01 -0.6165288448431E+00 -0.2459596852533E-01
-0.2001873088820E+00 -0.2665504171243E+01 -0.5731383045653E+00 -0.9804155350928E-01
-0.5841780614450E-01 -0.2536309904199E+01 -0.5189455498016E+00 -0.1927655694389E+00
 0.1567910241064E+00 -0.2417121546789E+01 -0.4520661112729E+00 -0.3054809259794E+00
 0.4652426694357E+00 -0.2319447239867E+01 -0.3708409196121E+00 -0.4260588240518E+00
 0.8832254710198E+00 -0.2254798101782E+01 -0.2743145302401E+00 -0.5346820687082E+00
 0.1415709031847E+01 -0.2229733986038E+01 -0.1628049932641E+00 -0.6011468827503E+00
 0.2046925411691E+01 -0.2239567170015E+01 -0.3852835223879E-01 -0.5889317708729E+00
 0.2735584325018E+01 -0.2264420469339E+01  0.9423277253980E-01 -0.4659094347905E+00
 0.3405350452249E+01 -0.2267027745745E+01  0.2276645446933E+00 -0.2164040211989E+00
-0.8508705229288E+00 -0.3675659089602E+01 -0.9053059359962E+00 -0.2050898387801E+00
-0.7262495462903E+00 -0.3727348028056E+01 -0.8907195281420E+00 -0.2569114948576E+00
-0.6029647572908E+00 -0.3773775198933E+01 -0.8753480042885E+00 -0.2873916317014E+00
-0.4883992767424E+00 -0.3811025871340E+01 -0.8598850424297E+00 -0.2988725641149E+00
-0.3878544736841E+00 -0.3836885726037E+01 -0.8449480525350E+00 -0.2957051284901E+00
-0.3038782076574E+00 -0.3851084058087E+01 -0.8309924655317E+00 -0.2828208891530E+00
-0.2366209503575E+00 -0.3854830099754E+01 -0.8182902222158E+00 -0.2645669466557E+00
-0.1846761728505E+00 -0.3850086723103E+01 -0.8069525912152E+00 -0.2441422245838E+00
-0.1459153817834E+00 -0.3838947536891E+01 -0.7969725956106E+00 -0.2235506523304E+00
-0.1180836672400E+00 -0.3823259381667E+01 -0.7882686215274E+00 -0.2038290865578E+00
-0.9913116222769E-01 -0.3804467328808E+01 -0.7807197098408E+00 -0.1853457626883E+00
-0.8734946632705E-01 -0.3783599929232E+01 -0.7741898906481E+00 -0.1680608573269E+00
-0.8139381062508E-01 -0.3761319218802E+01 -0.7685426173375E+00 -0.1517160565843E+00
-0.8025091075805E-01 -0.3737987623329E+01 -0.7636477181966E+00 -0.1359587790156E+00
-0.8318765464273E-01 -0.3713728328962E+01 -0.7593832080366E+00 -0.1204191578936E+00
-0.8969747829542E-01 -0.3688470792036E+01 -0.7556336653262E+00 -0.1047577160643E+00
-0.9945030119547E-01 -0.3661980784663E+01 -0.7522862283816E+00 -0.8869755851055E-01
-0.1122452738883E+00 -0.3633878868629E+01 -0.7492248396678E+00 -0.7205103413087E-01
-0.1279635372373E+00 -0.3603650183140E+01 -0.7463227551966E+00 -0.5474542786256E-01
-0.1465153053610E+00 -0.3570652328114E+01 -0.7434335377730E+00 -0.3685060263565E-01
-0.1677772601470E+00 -0.3534126009358E+01 -0.7403806649336E+00 -0.1860732901373E-01
-0.1915196046363E+00 -0.3493209464388E+01 -0.7369458247861E+00 -0.4514650196110E-03
-0.2173250577978E+00 -0.3446958026429E+01 -0.7328566277658E+00  0.1696869083848E-01
-0.2445052956818E+00 -0.3394385620065E+01 -0.7277781939942E+00  0.3278553597876E-01
-0.2720172883175E+00 -0.3334600880015E+01 -0.7213236444150E+00  0.4592616120520E-01
-0.2983872415272E+00 -0.3266876020923E+01 -0.7130526631152E+00  0.5512155492610E-01
-0.3216241968939E+00 -0.3190565918399E+01 -0.7024380335258E+00  0.5886666946244E-01
-0.3390776879439E+00 -0.3105085787583E+01 -0.6888327053698E+00  0.5535744501508E-01
-0.3472043678401E+00 -0.3010018721293E+01 -0.6714446278320E+00  0.4243984639501E-01
-0.3412235451758E+00 -0.2905364269461E+01 -0.6493175726030E+00  0.1761877663278E-01
-0.3146638557177E+00 -0.2791927438973E+01 -0.6213182681965E+00 -0.2180174182888E-01
-0.2588443252846E+00 -0.2671832497022E+01 -0.5861353731954E+00 -0.7834394068537E-01
-0.1624144485565E+00 -0.2549104971849E+01 -0.5423038921620E+00 -0.1536058908509E+00
-0.1118663750305E-01 -0.2430078646109E+01 -0.4882530639980E+00 -0.2470205769969E+00
 0.2112752629303E+00 -0.2323382911571E+01 -0.4224215360227E+00 -0.3540266750804E+00
 0.5214857039314E+00 -0.2239165695275E+01 -0.3435360033878E+00 -0.4637259033456E+00
 0.9316029965610E+00 -0.2186703659076E+01 -0.2510201362436E+00 -0.5569325543837E+00
 0.1442805353053E+01 -0.2170147288399E+01 -0.1454683892369E+00 -0.6063421192011E+00
 0.2038476080783E+01 -0.2183669795477E+01 -0.2903874337149E-01 -0.5808188415378E+00
 0.2679717506868E+01 -0.2209025572186E+01  0.9413838833928E-01 -0.4536523030621E+00
 0.3306167579609E+01 -0.2215669079696E+01  0.2180997032326E+00 -0.2197354699841E+00
-0.8271461578477E+00 -0.3564013129920E+01 -0.8782318706402E+00 -0.1856752549679E+00
-0.7102451288005E+00 -0.3612720616445E+01 -0.8645931619325E+00 -0.2385595077454E+00
-0.5943771929363E+00 -0.3656843137054E+01 -0.8502440786678E+00 -0.2716822751054E+00
-0.4860317630549E+00 -0.3692885063449E+01 -0.8357833777549E+00 -0.2869509910770E+00
-0.3900380574188E+00 -0.3718725149656E+01 -0.8217526536599E+00 -0.2880359239103E+00
-0.3089394908206E+00 -0.3733880376048E+01 -0.8085639854223E+00 -0.2792368788437E+00
-0.2431918113871E+00 -0.3739191406809E+01 -0.7964766555076E+00 -0.2644935030012E+00
-0.1918039110530E+00 -0.3736250059581E+01 -0.7856108058333E+00 -0.2468444954021E+00
-0.1530327022087E+00 -0.3726864649598E+01 -0.7759794819244E+00 -0.2283138928945E+00
-0.1249173234051E+00 -0.3712703160738E+01 -0.7675241082656E+00 -0.2100539893871E+00
-0.1056039700920E+00 -0.3695119982574E+01 -0.7601448018602E+00 -0.1925792053775E+00
-0.9350059560747E-01 -0.3675111315372E+01 -0.7537223934273E+00 -0.1759904058549E+00
-0.8732247760504E-01 -0.3653338813017E+01 -0.7481322692725E+00 -0.1601499305967E+00
-0.8607964465256E-01 -0.3630178342886E+01 -0.7432516085829E+00 -0.1448037757598E+00
-0.8903902354586E-01 -0.3605769962599E+01 -0.7389618082403E+00 -0.1296621487191E+00
-0.9567876021481E-01 -0.3580058789374E+01 -0.7351475208724E+00 -0.1144523442604E+00
-0.1056419838342E+00 -0.3552824266657E+01 -0.7316932610012E+00 -0.9895577888858E-01
-0.1186906653257E+00 -0.3523700373044E+01 -0.7284782185292E+00 -0.8303818581378E-01
-0.1346580745599E+00 -0.3492188618605E+01 -0.7253693494418E+00 -0.6667713653210E-01
-0.1533953550211E+00 -0.3457669805988E+01 -0.7222130429636E+00 -0.4998971648834E-01
-0.1747092707283E+00 -0.3419418488450E+01 -0.7188255625471E+00 -0.3325943452840E-01
-0.1982909871692E+00 -0.3376620614065E+01 -0.7149823309010E+00 -0.1695850746214E-01
-0.2236375389506E+00 -0.3328396112563E+01 -0.7104067408885E+00 -0.1763887632491E-02
-0.2499698794091E+00 -0.3273843066979E+01 -0.7047625997793E+00  0.1143614961831E-01
-0.2761487777917E+00 -0.3212172031606E+01 -0.6976641722756E+00  0.2155603257245E-01
-0.3005939173789E+00 -0.3142779831447E+01 -0.6886747600272E+00  0.2732486351101E-01
-0.3211896945573E+00 -0.3065187405646E+01 -0.6772754301329E+00  0.2725663466591E-01
-0.3351396022429E+00 -0.2979036846785E+01 -0.6628352996826E+00  0.1960827356422E-01
-0.3387426398985E+00 -0.2884211000836E+01 -0.6445907377520E+00  0.2361777430950E-02
-0.3270812102185E+00 -0.2781080469151E+01 -0.6216323451369E+00 -0.2672247043734E-01
-0.2936348129531E+00 -0.2670867761751E+01 -0.5929005237758E+00 -0.6991361740644E-01
-0.2298780687285E+00 -0.2556097353009E+01 -0.5571950926504E+00 -0.1290879827785E+00
-0.1250007337207E+00 -0.2441054916303E+01 -0.5132111376521E+00 -0.2049644953624E+00
 0.3402320490850E-01 -0.2332010965776E+01 -0.4595975590219E+00 -0.2959358543466E+00
 0.2616130381129E+00 -0.2236984944446E+01 -0.3950743871536E+00 -0.3964806377343E+00
 0.5713647769792E+00 -0.2164792941769E+01 -0.3186856377067E+00 -0.4953218126900E+00
 0.9720169484638E+00 -0.2122778346102E+01 -0.2301522829571E+00 -0.5741789681335E+00
 0.1462036882913E+01 -0.2113200072304E+01 -0.1302326398189E+00 -0.6085487343674E+00
 0.2024264888660E+01 -0.2129606304558E+01 -0.2106828349341E-01 -0.5716888823020E+00
 0.2623724383464E+01 -0.2154911107870E+01  0.9376265651596E-01 -0.4424205355757E+00
 0.3211553849297E+01 -0.2165676567664E+01  0.2091754594435E+00 -0.2162365292759E+00
-0.8033581345540E+00 -0.3453354648655E+01 -0.8513425693279E+00 -0.1674286747487E+00
-0.6936024762392E+00 -0.3499266587100E+01 -0.8385738251636E+00 -0.2212398630827E+00
-0.5846474170808E+00 -0.3541159965802E+01 -0.8251614888724E+00 -0.2566799933416E+00
-0.4822194318925E+00 -0.3575905739166E+01 -0.8116250463058E+00 -0.2753111636719E+00
-0.3907120359854E+00 -0.3601493324630E+01 -0.7984410840207E+00 -0.2802435477102E+00
-0.3126151927939E+00 -0.3617294218983E+01 -0.7859818940675E+00 -0.2752313032206E+00
-0.2486055607468E+00 -0.3623855330039E+01 -0.7744921896980E+00 -0.2638354684524E+00
-0.1980308904805E+00 -0.3622450350003E+01 -0.7640962594827E+00 -0.2489191264662E+00
-0.1594837532393E+00 -0.3614625786544E+01 -0.7548219192044E+00 -0.2324917326770E+00
-0.1312739886282E+00 -0.3601871842971E+01 -0.7466291774455E+00 -0.2157861293388E+00
-0.1117384337134E+00 -0.3585441723997E+01 -0.7394360425605E+00 -0.1994366322676E+00
-0.9940517837708E-01 -0.3566285660985E+01 -0.7331381787971E+00 -0.1836684318912E+00
-0.9305651734296E-01 -0.3545052899647E+01 -0.7276218942403E+00 -0.1684560132171E+00
-0.9173270410475E-01 -0.3522124169939E+01 -0.7227713855790E+00 -0.1536405085505E+00
-0.9470620587861E-01 -0.3497651553034E+01 -0.7184715624885E+00 -0.1390114619697E+00
-0.1014436818913E+00 -0.3471594323221E+01 -0.7146076116709E+00 -0.1243632042020E+00
-0.1115638275165E+00 -0.3443746833617E+01 -0.7110621428224E+00 -0.1095355802902E+00
-0.1247928629145E+00 -0.3413759802641E+01 -0.7077105436568E+00 -0.9444693199402E-01
-0.1409173188271E+00 -0.3381155851153E+01 -0.7044146444926E+00 -0.7912302810937E-01
-0.1597307056896E+00 -0.3345344489535E+01 -0.7010150494909E+00 -0.6372464496010E-01
-0.1809720045810E+00 -0.3305639844412E+01 -0.6973223801895E+00 -0.4857316521684E-01
-0.2042562041719E+00 -0.3261281216667E+01 -0.6931074944958E+00 -0.3417113519051E-01
-0.2289979833328E+00 -0.3211458619198E+01 -0.6880913307595E+00 -0.2121685105159E-01
-0.2543312476318E+00 -0.3155359562903E+01 -0.6819381722687E+00 -0.1061000633968E-01
-0.2790251712421E+00 -0.3092301273630E+01 -0.6742652990217E+00 -0.3436622626560E-02
-0.3014003735173E+00 -0.3021808339983E+01 -0.6646417526041E+00 -0.9531727558551E-03
-0.3192303632765E+00 -0.2943566865515E+01 -0.6525594554822E+00 -0.4605381202759E-02
-0.3295970916697E+00 -0.2857436890479E+01 -0.6374068059279E+00 -0.1604966377216E-01
-0.3286818714059E+00 -0.2763578522684E+01 -0.6184520880336E+00 -0.3714060512678E-01
-0.3114897319947E+00 -0.2662690291369E+01 -0.5948360135366E+00 -0.6983935373601E-01
-0.2715315279077E+00 -0.2556340680684E+01 -0.5655744501461E+00 -0.1159812010934E+00
-0.2005327301803E+00 -0.2447349346967E+01 -0.5295764233208E+00 -0.1768248283613E+00
-0.8831031156129E-01 -0.2340129100762E+01 -0.4856878897021E+00 -0.2523004899936E+00
 0.7697197624643E-01 -0.2240753583137E+01 -0.4327563278266E+00 -0.3399393709791E+00
 0.3078334813552E+00 -0.2156557791709E+01 -0.3697448675804E+00 -0.4335298958807E+00
 0.6153014182674E+00 -0.2095099441077E+01 -0.2959596089720E+00 -0.5217129251564E+00
 0.1005340445419E+01 -0.2062064492926E+01 -0.2113448126506E+00 -0.5872882630909E+00
 0.1474387021073E+01 -0.2058267507449E+01 -0.1167760990154E+00 -0.6083343102384E+00
 0.2005467754280E+01 -0.2076831943613E+01 -0.1427283807920E-01 -0.5620198698334E+00
 0.2567010199729E+01 -0.2102326560080E+01  0.9293672931468E-01 -0.4311173825951E+00
 0.3119373131409E+01 -0.2114478402527E+01  0.2009789487712E+00 -0.2126175992567E+00
-0.7795161839943E+00 -0.3343568345086E+01 -0.8246169181038E+00 -0.1502698295339E+00
-0.6764025259009E+00 -0.3386852682222E+01 -0.8126510537340E+00 -0.2048949525175E+00
-0.5739113511969E+00 -0.3426595551448E+01 -0.8001013924515E+00 -0.2423780685719E+00
-0.4771148400299E+00 -0.3459989692215E+01 -0.7874209181824E+00 -0.2640049977919E+00
-0.3900075897156E+00 -0.3485143296695E+01 -0.7750301888310E+00 -0.2724228900591E+00
-0.3149937905083E+00 -0.3501332471016E+01 -0.7632652636783E+00 -0.2709156566080E+00
-0.2529049132675E+00 -0.3508871623462E+01 -0.7523553185569E+00 -0.2626973014684E+00
-0.2033624951911E+00 -0.3508763912856E+01 -0.7424252926724E+00 -0.2504493894293E+00
-0.1652486837331E+00 -0.3502319027826E+01 -0.7335135532420E+00 -0.2361415101532E+00
-0.1371193836461E+00 -0.3490855113218E+01 -0.7255949101850E+00 -0.2210582862477E+00
-0.1174935179709E+00 -0.3475518512106E+01 -0.7186024167234E+00 -0.2059303109873E+00
-0.1050200242049E+00 -0.3457203503039E+01 -0.7124447160649E+00 -0.1910910753103E+00
-0.9855291692905E-01 -0.3436537121976E+01 -0.7070180183164E+00 -0.1766178679647E+00
-0.9716819918040E-01 -0.3413897477483E+01 -0.7022131457964E+00 -0.1624422833079E+00
-0.1001487035088E+00 -0.3389444150184E+01 -0.6979185811384E+00 -0.1484312263754E+00
-0.1069532397070E+00 -0.3363148892653E+01 -0.6940204368137E+00 -0.1344452450940E+00
-0.1171786079988E+00 -0.3334821697699E+01 -0.6904000714272E+00 -0.1203818578425E+00
-0.1305171109009E+00 -0.3304132597694E+01 -0.6869299519550E+00 -0.1062105981911E+00
-0.1467101881678E+00 -0.3270629138470E+01 -0.6834678755121E+00 -0.9200294145033E-01
-0.1654956836066E+00 -0.3233754001150E+01 -0.6798499470819E+00 -0.7795964546480E-01
-0.1865474118101E+00 -0.3192865502871E+01 -0.6758825930076E+00 -0.6443508938035E-01
-0.2094075138733E+00 -0.3147260759362E+01 -0.6713336646508E+00 -0.5195618028547E-01
-0.2334122533585E+00 -0.3096204000159E+01 -0.6659232606265E+00 -0.4123533158601E-01
-0.2576131325621E+00 -0.3038975724987E+01 -0.6593177813345E+00 -0.3317459627069E-01
-0.2806937797652E+00 -0.2975002343470E+01 -0.6511392343498E+00 -0.2884879784009E-01
-0.3008850119534E+00 -0.2903936484508E+01 -0.6409643088433E+00 -0.2948500694872E-01
-0.3158649738147E+00 -0.2825625001198E+01 -0.6282980043650E+00 -0.3647003261647E-01
-0.3226196122805E+00 -0.2740133004333E+01 -0.6125505324504E+00 -0.5135241498462E-01
-0.3172517549697E+00 -0.2647871605838E+01 -0.5930246809983E+00 -0.7580282796296E-01
-0.2947442914738E+00 -0.2549821962717E+01 -0.5689132593156E+00 -0.1114907894840E+00
-0.2487094780639E+00 -0.2447829144086E+01 -0.5393077324663E+00 -0.1598232078785E+00
-0.1711991146461E+00 -0.2344913637894E+01 -0.5032225580066E+00 -0.2214821871434E+00
-0.5271383654388E-01 -0.2245506187711E+01 -0.4596440117001E+00 -0.2957063822823E+00
 0.1174022983806E+00 -0.2155388046057E+01 -0.4075971556090E+00 -0.3793335367460E+00
 0.3499102175119E+00 -0.2081180015178E+01 -0.3462539646929E+00 -0.4656899734006E+00
 0.6536107622207E+00 -0.2029279959992E+01 -0.2751338436541E+00 -0.5435595997935E+00
 0.1032219039351E+01 -0.2003979516255E+01 -0.1943520982768E+00 -0.5969021126223E+00
 0.1480758483654E+01 -0.2004975608975E+01 -0.1048434266265E+00 -0.6061886183153E+00
 0.1982719425877E+01 -0.2025275373730E+01 -0.8511189697381E-02 -0.5518888518402E+00
 0.2509968534626E+01 -0.2050861181460E+01  0.9182147200144E-01 -0.4200358146553E+00
 0.3029117271191E+01 -0.2064379247642E+01  0.1929476075848E+00 -0.2082738608365E+00
-0.7556281026382E+00 -0.3234555998747E+01 -0.7980368321688E+00 -0.1341274489497E+00
-0.6587130330769E+00 -0.3275364497949E+01 -0.7868155179296E+00 -0.1894715856992E+00
-0.5622847068919E+00 -0.3313036208615E+01 -0.7750641946508E+00 -0.2287646564398E+00
-0.4708513670373E+00 -0.3345046994577E+01 -0.7631796836952E+00 -0.2530697786919E+00
-0.3880441809334E+00 -0.3369626115854E+01 -0.7515340705562E+00 -0.2646497339868E+00
-0.3161610615422E+00 -0.3385991620888E+01 -0.7404305475193E+00 -0.2663835700615E+00
-0.2561368238907E+00 -0.3394275325283E+01 -0.7300824407138E+00 -0.2611703923803E+00
-0.2078119652541E+00 -0.3395251905176E+01 -0.7206127848239E+00 -0.2515110373542E+00
-0.1703163502219E+00 -0.3390019258637E+01 -0.7120671323825E+00 -0.2393175394306E+00
-0.1424271858899E+00 -0.3379732305181E+01 -0.7044319087111E+00 -0.2259030538601E+00
-0.1228348036017E+00 -0.3365428644429E+01 -0.6976527000020E+00 -0.2120736736375E+00
-0.1103072537582E+00 -0.3347939762399E+01 -0.6916494135378E+00 -0.1982559505700E+00
-0.1037729982399E+00 -0.3327862776754E+01 -0.6863271652258E+00 -0.1846202421468E+00
-0.1023480141122E+00 -0.3305566826540E+01 -0.6815829782867E+00 -0.1711830309248E+00
-0.1053296334390E+00 -0.3281214887977E+01 -0.6773089143759E+00 -0.1578855957559E+00
-0.1121722309569E+00 -0.3254789437523E+01 -0.6733923437304E+00 -0.1446529534425E+00
-0.1224533581808E+00 -0.3226116418921E+01 -0.6697139653998E+00 -0.1314387777210E+00
-0.1358335542299E+00 -0.3194887088542E+01 -0.6661441384808E+00 -0.1182618187625E+00
-0.1520112474068E+00 -0.3160676892280E+01 -0.6625376378099E+00 -0.1052364260912E+00
-0.1706710365192E+00 -0.3122965189678E+01 -0.6587272550552E+00 -0.9259949057094E-01
-0.1914246203529E+00 -0.3081158071923E+01 -0.6545165482083E+00 -0.8073352576867E-01
-0.2137450692310E+00 -0.3034613805882E+01 -0.6496717847035E+00 -0.7018393824019E-01
-0.2368947553700E+00 -0.2982673663968E+01 -0.6439136934627E+00 -0.6167021804610E-01
-0.2598482895561E+00 -0.2924713066355E+01 -0.6369122806729E+00 -0.5608809279224E-01
-0.2812110028706E+00 -0.2860268052958E+01 -0.6282958205280E+00 -0.5449033993359E-01
-0.2991345467676E+00 -0.2789117030144E+01 -0.6176503245860E+00 -0.5806122622794E-01
-0.3112183611304E+00 -0.2711260260512E+01 -0.6044957333362E+00 -0.6811280143757E-01
-0.3143781221620E+00 -0.2626952063691E+01 -0.5882660459365E+00 -0.8606895865466E-01
-0.3046755714061E+00 -0.2536825993392E+01 -0.5683003214280E+00 -0.1134024569191E+00
-0.2771213357578E+00 -0.2442100349709E+01 -0.5438443451972E+00 -0.1514866390353E+00
-0.2254881363612E+00 -0.2344831745703E+01 -0.5140639840731E+00 -0.2013154370818E+00
-0.1422110724802E+00 -0.2248159254545E+01 -0.4780740725288E+00 -0.2630438710346E+00
-0.1850488382774E-01 -0.2156444796543E+01 -0.4349899425561E+00 -0.3353171137336E+00
 0.1551426311963E+00 -0.2075113636452E+01 -0.3839942067732E+00 -0.4144321185214E+00
 0.3878903915789E+00 -0.2010074346670E+01 -0.3244367958527E+00 -0.4934421864310E+00
 0.6866263304918E+00 -0.1966678514016E+01 -0.2560104405197E+00 -0.5614357524630E+00
 0.1053270030009E+01 -0.1948053398100E+01 -0.1789566762849E+00 -0.6035615486367E+00
 0.1481882631918E+01 -0.1953066732944E+01 -0.9423682160939E-01 -0.6024599313022E+00
 0.1956670601036E+01 -0.1974782806362E+01 -0.3622441119166E-02 -0.5414246164432E+00
 0.2452597305585E+01 -0.2000583948731E+01  0.9040267271792E-01 -0.4090228263244E+00
 0.2940745852381E+01 -0.2015460648658E+01  0.1850570435022E+00 -0.2032296458010E+00
-0.7317001495207E+00 -0.3126233144381E+01 -0.7715866702779E+00 -0.1189380067700E+00
-0.6405911523997E+00 -0.3164703176830E+01 -0.7610588771867E+00 -0.1749207613540E+00
-0.5498665441421E+00 -0.3200382067579E+01 -0.7500497335208E+00 -0.2158245133818E+00
-0.4635459481859E+00 -0.3230995498642E+01 -0.7389083003762E+00 -0.2425315308206E+00
-0.3849303241433E+00 -0.3254892419808E+01 -0.7279645596377E+00 -0.2569842447669E+00
-0.3161991559437E+00 -0.3271260562174E+01 -0.7174919543150E+00 -0.2617132472446E+00
-0.2583507304380E+00 -0.3280089639556E+01 -0.7076880845441E+00 -0.2593340558890E+00
-0.2113986382408E+00 -0.3281962537054E+01 -0.6986722454700E+00 -0.2521721523303E+00
-0.1746829975729E+00 -0.3277789482215E+01 -0.6904945062468E+00 -0.2420703477585E+00
-0.1471782434512E+00 -0.3268572926197E+01 -0.6831502441094E+00 -0.2303519243410E+00
-0.1277341405223E+00 -0.3255242734603E+01 -0.6765953851071E+00 -0.2178805213480E+00
-0.1152342444220E+00 -0.3238563404441E+01 -0.6707595397677E+00 -0.2051615873600E+00
-0.1086825236359E+00 -0.3219096327733E+01 -0.6655557801914E+00 -0.1924487666447E+00
-0.1072379744899E+00 -0.3197196443961E+01 -0.6608868935382E+00 -0.1798372482726E+00
-0.1102158873481E+00 -0.3173026497934E+01 -0.6566484868412E+00 -0.1673389015184E+00
-0.1170693562508E+00 -0.3146577938406E+01 -0.6527294686578E+00 -0.1549406869516E+00
-0.1273593759596E+00 -0.3117692633680E+01 -0.6490104115989E+00 -0.1426502634949E+00
-0.1407171231814E+00 -0.3086084391949E+01 -0.6453603126428E+00 -0.1305331459433E+00
-0.1568004488828E+00 -0.3051358778996E+01 -0.6416318551368E+00 -0.1187434427427E+00
-0.1752435161400E+00 -0.3013034467684E+01 -0.6376556062666E+00 -0.1075502300658E+00
-0.1955993442009E+00 -0.2970567946879E+01 -0.6332334676518E+00 -0.9735934315654E-01
-0.2172761221141E+00 -0.2923380907895E+01 -0.6281314153616E+00 -0.8872898670443E-01
-0.2394673848488E+00 -0.2870893253617E+01 -0.6220721369627E+00 -0.8237897055980E-01
-0.2610771034874E+00 -0.2812575741744E+01 -0.6147305782065E+00 -0.7919053707513E-01
-0.2806405061253E+00 -0.2748072636827E+01 -0.6057426376167E+00 -0.8018455031949E-01
-0.2962416797185E+00 -0.2677283691009E+01 -0.5947050830073E+00 -0.8649080505811E-01
-0.3054185802133E+00 -0.2600352909810E+01 -0.5811543066646E+00 -0.9933359393019E-01
-0.3050418213174E+00 -0.2517705881547E+01 -0.5645495489853E+00 -0.1199996753475E+00
-0.2911668600718E+00 -0.2430169003107E+01 -0.5442671807459E+00 -0.1497557855861E+00
-0.2588759414412E+00 -0.2339153603522E+01 -0.5196059167354E+00 -0.1896818250664E+00
-0.2021504215498E+00 -0.2246868592631E+01 -0.4898038101349E+00 -0.2403816374005E+00
-0.1138489257473E+00 -0.2156501856325E+01 -0.4540701631806E+00 -0.3015374465475E+00
 0.1409036865704E-01 -0.2072280043115E+01 -0.4116379410255E+00 -0.3712959665667E+00
 0.1900919154658E+00 -0.1999234409074E+01 -0.3618285041132E+00 -0.4455486161041E+00
 0.4218725792588E+00 -0.1942585854856E+01 -0.3041426596515E+00 -0.5172282530330E+00
 0.7146927432042E+00 -0.1906756185879E+01 -0.2384126920876E+00 -0.5758407299094E+00
 0.1069053285456E+01 -0.1893913993947E+01 -0.1649721441566E+00 -0.6077092850429E+00
 0.1478404925542E+01 -0.1902325359379E+01 -0.8478408803074E-01 -0.5974259455638E+00
 0.1927812214179E+01 -0.1925256912220E+01  0.5110603994673E-03 -0.5306728913811E+00
 0.2394912207180E+01 -0.1951394435884E+01  0.8870355558094E-01 -0.3979716914094E+00
 0.2854195531394E+01 -0.1967586054660E+01  0.1773218979892E+00 -0.1975620221468E+00
-0.7077373687365E+00 -0.3018526511866E+01 -0.7452527872256E+00 -0.1046446609229E+00
-0.6220854529401E+00 -0.3054782670054E+01 -0.7353736355568E+00 -0.1611973947115E+00
-0.5367421635389E+00 -0.3088544937542E+01 -0.7250574310204E+00 -0.2035402546543E+00
-0.4553014363178E+00 -0.3117760196305E+01 -0.7146123371732E+00 -0.2324075957894E+00
-0.3807644986331E+00 -0.3140893477664E+01 -0.7043316057547E+00 -0.2494738347847E+00
-0.3151860962812E+00 -0.3157122725680E+01 -0.6944617747405E+00 -0.2569696377348E+00
-0.2595972566723E+00 -0.3166328314290E+01 -0.6851851244025E+00 -0.2572566096861E+00
-0.2141465104361E+00 -0.3168933053360E+01 -0.6766159228417E+00 -0.2524932604377E+00
-0.1783510872281E+00 -0.3165682137456E+01 -0.6688066549029E+00 -0.2444462067207E+00
-0.1513598062086E+00 -0.3157437334570E+01 -0.6617594380167E+00 -0.2344346072148E+00
-0.1321692457721E+00 -0.3145023910558E+01 -0.6554386410328E+00 -0.2233643820494E+00
-0.1197734913611E+00 -0.3129137339802E+01 -0.6497821759150E+00 -0.2118069540819E+00
-0.1132517119817E+00 -0.3110299157833E+01 -0.6447101835699E+00 -0.2000896875493E+00
-0.1118079298496E+00 -0.3088845932288E+01 -0.6401307819661E+00 -0.1883799363012E+00
-0.1147782146818E+00 -0.3064937050057E+01 -0.6359430624240E+00 -0.1767557774884E+00
-0.1216172542702E+00 -0.3038571242009E+01 -0.6320377086740E+00 -0.1652629606766E+00
-0.1318721738470E+00 -0.3009606008314E+01 -0.6282956457946E+00 -0.1539604162307E+00
-0.1451473701706E+00 -0.2977778531493E+01 -0.6245851896398E+00 -0.1429575747625E+00
-0.1610628363879E+00 -0.2942726041848E+01 -0.6207577848972E+00 -0.1324449626226E+00
-0.1792054339112E+00 -0.2904008366991E+01 -0.6166427693692E+00 -0.1227198353696E+00
-0.1990732736328E+00 -0.2861134131338E+01 -0.6120414901143E+00 -0.1142066238250E+00
-0.2200142189507E+00 -0.2813589732540E+01 -0.6067207993390E+00 -0.1074708429259E+00
-0.2411584799704E+00 -0.2760874140721E+01 -0.6004065330851E+00 -0.1032262365742E+00
-0.2613462377070E+00 -0.2702552494685E+01 -0.5927797553116E+00 -0.1023320481239E+00
-0.2790515043595E+00 -0.2638374264156E+01 -0.5834851623977E+00 -0.1057684691626E+00
-0.2923029854479E+00 -0.2568354329098E+01 -0.5721314714346E+00 -0.1146009692238E+00
-0.2985944301820E+00 -0.2492769022962E+01 -0.5582726989478E+00 -0.1299558879173E+00
-0.2947754847359E+00 -0.2412196001414E+01 -0.5413943052974E+00 -0.1529743584009E+00
-0.2769269627747E+00 -0.2327624922100E+01 -0.5209103847372E+00 -0.1847141745530E+00
-0.2402403365200E+00 -0.2240618543967E+01 -0.4961717834909E+00 -0.2259704377471E+00
-0.1789433941401E+00 -0.2153485425468E+01 -0.4664857708728E+00 -0.2769850586349E+00
-0.8634390611156E-01 -0.2069404620128E+01 -0.4311497116726E+00 -0.3370236018226E+00
 0.4490389315230E-01 -0.1992418722970E+01 -0.3895029717675E+00 -0.4038235257080E+00
 0.2222052119727E+00 -0.1927147066792E+01 -0.3409883760450E+00 -0.4729878279225E+00
 0.4519921793019E+00 -0.1878161922873E+01 -0.2852339529646E+00 -0.5374495822660E+00
 0.7381517932974E+00 -0.1849069848529E+01 -0.2221836143571E+00 -0.5872055062446E+00
 0.1080078064325E+01 -0.1841258897269E+01 -0.1522361688574E+00 -0.6097109633803E+00
 0.1470878689102E+01 -0.1852577270057E+01 -0.7633971732856E-01 -0.5912980910721E+00
 0.1896529436328E+01 -0.1876588930212E+01  0.3988101282548E-02 -0.5196527928678E+00
 0.2336951735040E+01 -0.1903140261453E+01  0.8676229601030E-01 -0.3868285329429E+00
 0.2769391816610E+01 -0.1920585239103E+01  0.1697613180310E+00 -0.1913407567142E+00
-0.6837438295806E+00 -0.2911371997182E+01 -0.7190231760668E+00 -0.9119636269769E-01
-0.6032375023353E+00 -0.2945527507375E+01 -0.7097530125181E+00 -0.1482600227775E+00
-0.5229854515973E+00 -0.2977446499725E+01 -0.7000864006966E+00 -0.1918932517207E+00
-0.4462086327251E+00 -0.3005272517847E+01 -0.6902962404006E+00 -0.2227086118711E+00
-0.3756361000049E+00 -0.3027581812011E+01 -0.6806435925455E+00 -0.2421554923645E+00
-0.3131955767112E+00 -0.3043557654700E+01 -0.6713506562862E+00 -0.2522063372906E+00
-0.2599272747026E+00 -0.3052997539066E+01 -0.6625849726271E+00 -0.2549964531561E+00
-0.2160830764872E+00 -0.3056191420851E+01 -0.6544549092197E+00 -0.2525276159348E+00
-0.1813282761818E+00 -0.3053740304283E+01 -0.6470137257343E+00 -0.2464868815732E+00
-0.1549647992505E+00 -0.3046377429384E+01 -0.6402684552677E+00 -0.2381785384770E+00
-0.1361232759232E+00 -0.3034828088005E+01 -0.6341902822357E+00 -0.2285380013610E+00
-0.1239024108986E+00 -0.3019718420304E+01 -0.6287241756092E+00 -0.2181910581500E+00
-0.1174551874111E+00 -0.3001527414031E+01 -0.6237965295837E+00 -0.2075296302459E+00
-0.1160317708786E+00 -0.2980570061598E+01 -0.6193203757238E+00 -0.1967865384721E+00
-0.1189912470735E+00 -0.2956999763545E+01 -0.6151982112909E+00 -0.1861012615920E+00
-0.1257924865661E+00 -0.2930820944892E+01 -0.6113226954011E+00 -0.1755746914059E+00
-0.1359713885556E+00 -0.2901906239592E+01 -0.6075755346832E+00 -0.1653138766384E+00
-0.1491082774412E+00 -0.2870016592534E+01 -0.6038249829927E+00 -0.1554689953359E+00
-0.1647882313052E+00 -0.2834821843778E+01 -0.5999220239561E+00 -0.1462634808602E+00
-0.1825542097128E+00 -0.2795924100360E+01 -0.5956956708912E+00 -0.1380187453894E+00
-0.2018534685367E+00 -0.2752885049849E+01 -0.5909477124829E+00 -0.1311732142838E+00
-0.2219784115552E+00 -0.2705256166337E+01 -0.5854469243024E+00 -0.1262944890372E+00
-0.2420018102752E+00 -0.2652614876088E+01 -0.5789233458993E+00 -0.1240843068064E+00
-0.2607073541419E+00 -0.2594618527819E+01 -0.5710651849017E+00 -0.1253731349544E+00
-0.2765171770264E+00 -0.2531117413526E+01 -0.5615269264779E+00 -0.1310929198886E+00
-0.2874170234949E+00 -0.2462233914054E+01 -0.5499301957045E+00 -0.1422367816116E+00
-0.2908733410202E+00 -0.2388364064291E+01 -0.5358474890470E+00 -0.1598255868880E+00
-0.2837373352090E+00 -0.2310217834079E+01 -0.5187910415881E+00 -0.1848499775679E+00
-0.2621433063535E+00 -0.2228919410698E+01 -0.4982125508343E+00 -0.2181603099400E+00
-0.2214233052843E+00 -0.2146144676699E+01 -0.4735136034526E+00 -0.2602801290082E+00
-0.1560798056082E+00 -0.2064256099006E+01 -0.4440671875400E+00 -0.3111209147198E+00
-0.5988294448345E-01 -0.1986377538975E+01 -0.4092521027900E+00 -0.3695873040446E+00
 0.7381706063734E-01 -0.1916333717421E+01 -0.3685033368478E+00 -0.4330891617161E+00
 0.2514819004623E+00 -0.1858329332782E+01 -0.3213694912527E+00 -0.4970405357492E+00
 0.4784090569977E+00 -0.1816335814960E+01 -0.2675853555798E+00 -0.5544677742400E+00
 0.7573354348592E+00 -0.1793252757627E+01 -0.2071834676408E+00 -0.5959013317886E+00
 0.1086803982752E+01 -0.1789840156687E+01 -0.1406072368823E+00 -0.6098681149477E+00
 0.1459776210831E+01 -0.1803672781810E+01 -0.6877931522084E-01 -0.5842394415948E+00
 0.1863137077655E+01 -0.1828661056567E+01  0.6895204320372E-02 -0.5083795770881E+00
 0.2278769173555E+01 -0.1855665779405E+01  0.8462068009088E-01 -0.3755711736501E+00
 0.2686244790924E+01 -0.1874299577492E+01  0.1623890451062E+00 -0.1846180971770E+00
-0.6597228164670E+00 -0.2804713034191E+01 -0.6928871804565E+00 -0.7854712549797E-01
-0.5840831278704E+00 -0.2836870971142E+01 -0.6841908299977E+00 -0.1360705190676E+00
-0.5086607974672E+00 -0.2867016761753E+01 -0.6751355219043E+00 -0.1808642783268E+00
-0.4363480347078E+00 -0.2893469604549E+01 -0.6659635377750E+00 -0.2134400504073E+00
-0.3696263837125E+00 -0.2914911506599E+01 -0.6569075878509E+00 -0.2350576835293E+00
-0.3102969720688E+00 -0.2930542124616E+01 -0.6481678289954E+00 -0.2474672425498E+00
-0.2593912515814E+00 -0.2940097412167E+01 -0.6398977422850E+00 -0.2526031142505E+00
-0.2172384097860E+00 -0.2943757707596E+01 -0.6321992328970E+00 -0.2523216027507E+00
-0.1836265430999E+00 -0.2941998739389E+01 -0.6251250658129E+00 -0.2482295573951E+00
-0.1579911536582E+00 -0.2935437274188E+01 -0.6186856947884E+00 -0.2416085596781E+00
-0.1395843944390E+00 -0.2924704235154E+01 -0.6128577350510E+00 -0.2334129653005E+00
-0.1276031048912E+00 -0.2910357446993E+01 -0.6075921194307E+00 -0.2243126341020E+00
-0.1212718755642E+00 -0.2892831863512E+01 -0.6028207567979E+00 -0.2147554134275E+00
-0.1198873924357E+00 -0.2872418561572E+01 -0.5984611997194E+00 -0.2050329000195E+00
-0.1228334729665E+00 -0.2849262802995E+01 -0.5944192640498E+00 -0.1953408964503E+00
-0.1295754799769E+00 -0.2823373246792E+01 -0.5905897541543E+00 -0.1858314237401E+00
-0.1396406574126E+00 -0.2794637008047E+01 -0.5868555418367E+00 -0.1766561545708E+00
-0.1525880419606E+00 -0.2762838811883E+01 -0.5830853794574E+00 -0.1680026001528E+00
-0.1679709068317E+00 -0.2727681525326E+01 -0.5791304950612E+00 -0.1601234740651E+00
-0.1852919194791E+00 -0.2688810017208E+01 -0.5748203959028E+00 -0.1533603463295E+00
-0.2039517618750E+00 -0.2645839232498E+01 -0.5699582073676E+00 -0.1481611983883E+00
-0.2231924924295E+00 -0.2598385266365E+01 -0.5643155601678E+00 -0.1450908041855E+00
-0.2420356124820E+00 -0.2546102455978E+01 -0.5576276220013E+00 -0.1448334566950E+00
-0.2592159183471E+00 -0.2488737142784E+01 -0.5495906204157E+00 -0.1481848680508E+00
-0.2731132282814E+00 -0.2426234946381E+01 -0.5398696429772E+00 -0.1560223869392E+00
-0.2816826823387E+00 -0.2358817071352E+01 -0.5280999586075E+00 -0.1692605461829E+00
-0.2823796094127E+00 -0.2286985898027E+01 -0.5138731091453E+00 -0.1888097079241E+00
-0.2720774055240E+00 -0.2211563999072E+01 -0.4967282883210E+00 -0.2155083556704E+00
-0.2469883082793E+00 -0.2133782841015E+01 -0.4761542369541E+00 -0.2500045662154E+00
-0.2026102777007E+00 -0.2055396884944E+01 -0.4516014392583E+00 -0.2925669654298E+00
-0.1337401891540E+00 -0.1978783608867E+01 -0.4225047659000E+00 -0.3428098511939E+00
-0.3461354371356E-01 -0.1906975489621E+01 -0.3883178124534E+00 -0.3993306022125E+00
 0.1007527647339E+00 -0.1843557878098E+01 -0.3485610278667E+00 -0.4592847245683E+00
 0.2779557596582E+00 -0.1792329264137E+01 -0.3028747054089E+00 -0.5179802802085E+00
 0.5012982892344E+00 -0.1756712375605E+01 -0.2510828210155E+00 -0.5686066441027E+00
 0.7725611239518E+00 -0.1738999521941E+01 -0.1932876824781E+00 -0.6022475997722E+00
 0.1089643723209E+01 -0.1739451322923E+01 -0.1299615218794E+00 -0.6084301045847E+00
 0.1445502676699E+01 -0.1755478798001E+01 -0.6199522518420E-01 -0.5763796127984E+00
 0.1827900804913E+01 -0.1781356319535E+01  0.9308897214354E-02 -0.4968705255819E+00
 0.2220421909576E+01 -0.1808829172346E+01  0.8231854867256E-01 -0.3641927175467E+00
 0.2604655809847E+01 -0.1828588844090E+01  0.1552133954642E+00 -0.1774334758666E+00
-0.6356769751669E+00 -0.2698499277256E+01 -0.6668352604211E+00 -0.6665541393376E-01
-0.5646534299194E+00 -0.2728753613841E+01 -0.6586814185672E+00 -0.1245938258433E+00
-0.4938246677318E+00 -0.2757192770377E+01 -0.6502034973105E+00 -0.1704339733148E+00
-0.4257913376964E+00 -0.2782293644032E+01 -0.6416170059066E+00 -0.2046034119098E+00
-0.3628093685743E+00 -0.2802838368847E+01 -0.6331295569186E+00 -0.2282019038789E+00
-0.3065554859108E+00 -0.2818051005222E+01 -0.6249213075387E+00 -0.2427879778955E+00
-0.2580388117065E+00 -0.2827623164067E+01 -0.6171324043508E+00 -0.2501182314698E+00
-0.2176444402946E+00 -0.2831645316792E+01 -0.6098579605049E+00 -0.2519151966330E+00
-0.1852614446746E+00 -0.2830484888165E+01 -0.6031492755556E+00 -0.2497068854985E+00
-0.1604411946293E+00 -0.2824653800083E+01 -0.5970190078387E+00 -0.2447467214536E+00
-0.1425453406097E+00 -0.2814694786491E+01 -0.5914480342335E+00 -0.2379994207628E+00
-0.1308620928997E+00 -0.2801099366794E+01 -0.5863923006767E+00 -0.2301698928000E+00
-0.1246848515724E+00 -0.2784257957997E+01 -0.5817885705831E+00 -0.2217538891148E+00
-0.1233566037630E+00 -0.2764436130541E+01 -0.5775585554670E+00 -0.2130952236841E+00
-0.1262871614513E+00 -0.2741769295596E+01 -0.5736112999570E+00 -0.2044408022846E+00
-0.1329504239586E+00 -0.2716269026982E+01 -0.5698438986794E+00 -0.1959895081531E+00
-0.1428674576117E+00 -0.2687836155253E+01 -0.5661407310092E+00 -0.1879338925612E+00
-0.1555788325631E+00 -0.2656278891234E+01 -0.5623715531394E+00 -0.1804952088924E+00
-0.1706092448352E+00 -0.2621333084954E+01 -0.5583884742785E+00 -0.1739517596038E+00
-0.1874248367102E+00 -0.2582686279291E+01 -0.5540222314557E+00 -0.1686613369607E+00
-0.2053841701990E+00 -0.2540006215382E+01 -0.5490780852980E+00 -0.1650772375025E+00
-0.2236842550697E+00 -0.2492972419445E+01 -0.5433313429992E+00 -0.1637568412751E+00
-0.2413016788797E+00 -0.2441313780233E+01 -0.5365230998173E+00 -0.1653621053591E+00
-0.2569301000849E+00 -0.2384861540476E+01 -0.5283583359853E+00 -0.1706488386429E+00
-0.2689166061258E+00 -0.2323650284786E+01 -0.5185133859088E+00 -0.1804346551590E+00
-0.2751977697200E+00 -0.2257990644313E+01 -0.5066376903560E+00 -0.1955509623332E+00
-0.2732329903015E+00 -0.2188477677962E+01 -0.4923421409891E+00 -0.2167948426961E+00
-0.2599363761775E+00 -0.2116027368988E+01 -0.4751927561140E+00 -0.2448537038202E+00
-0.2316188562770E+00 -0.2041953137400E+01 -0.4547144055113E+00 -0.2801814126187E+00
-0.1839640047349E+00 -0.1968057455625E+01 -0.4304042984854E+00 -0.3228106425391E+00
-0.1120753687445E+00 -0.1896700431391E+01 -0.4017551660137E+00 -0.3720922180481E+00
-0.1064861444977E-01 -0.1830795879282E+01 -0.3682889042342E+00 -0.4263667246456E+00
 0.1256683211403E+00 -0.1773678191283E+01 -0.3296019789401E+00 -0.4825998377430E+00
 0.3016867023603E+00 -0.1728755879220E+01 -0.2854138396250E+00 -0.5360616111504E+00
 0.5208431255338E+00 -0.1698956280805E+01 -0.2356226345653E+00 -0.5801548952233E+00
 0.7841290293664E+00 -0.1686054306652E+01 -0.1803850581452E+00 -0.6065190520005E+00
 0.1088967187711E+01 -0.1689918139786E+01 -0.1201901922060E+00 -0.6056044976718E+00
 0.1428408682123E+01 -0.1707876148660E+01 -0.5589349414033E-01 -0.5678246365363E+00
 0.1791049354889E+01 -0.1734565394598E+01  0.1129679222650E-01 -0.4851447961042E+00
 0.2161965190273E+01 -0.1762506211617E+01  0.7989179692165E-01 -0.3526930134947E+00
 0.2524523265568E+01 -0.1783330984196E+01  0.1482384584832E+00 -0.1698185990124E+00
-0.6116084261296E+00 -0.2592685521550E+01 -0.6408587990855E+00 -0.5548363281263E-01
-0.5449755991904E+00 -0.2621122022532E+01 -0.6332195337801E+00 -0.1137977072359E+00
-0.4785269033183E+00 -0.2647917496343E+01 -0.6252888892499E+00 -0.1605831688056E+00
-0.4146027218903E+00 -0.2671691214725E+01 -0.6172587965209E+00 -0.1961971573080E+00
-0.3552526800522E+00 -0.2691319920476E+01 -0.6093145291852E+00 -0.2216039426456E+00
-0.3020323863104E+00 -0.2706057833081E+01 -0.6016180528431E+00 -0.2381971167201E+00
-0.2559184635886E+00 -0.2715566067292E+01 -0.5942969150318E+00 -0.2475764560637E+00
-0.2173343975904E+00 -0.2719861955092E+01 -0.5874392792901E+00 -0.2513424552207E+00
-0.1862514927932E+00 -0.2719219707401E+01 -0.5810942486979E+00 -0.2509471185710E+00
-0.1623210944001E+00 -0.2714057388747E+01 -0.5752757052018E+00 -0.2476121917759E+00
-0.1450030164609E+00 -0.2704835982550E+01 -0.5699678082955E+00 -0.2423058881724E+00
-0.1336700316541E+00 -0.2691983417300E+01 -0.5651306982120E+00 -0.2357603381529E+00
-0.1276811594517E+00 -0.2675845850477E+01 -0.5607054103409E+00 -0.2285118240184E+00
-0.1264250048205E+00 -0.2656662390289E+01 -0.5566174873161E+00 -0.2209500437747E+00
-0.1293382536262E+00 -0.2634557281515E+01 -0.5527791152653E+00 -0.2133677493129E+00
-0.1359051408550E+00 -0.2609543838042E+01 -0.5490898039615E+00 -0.2060062633341E+00
-0.1456429262705E+00 -0.2581535760659E+01 -0.5454357455135E+00 -0.1990951012416E+00
-0.1580765372655E+00 -0.2550364190482E+01 -0.5416881536213E+00 -0.1928855548910E+00
-0.1727053931545E+00 -0.2515797517905E+01 -0.5377005902243E+00 -0.1876778078774E+00
-0.1889629854860E+00 -0.2477565371822E+01 -0.5333056794085E+00 -0.1838420389635E+00
-0.2061703284194E+00 -0.2435387250901E+01 -0.5283115237365E+00 -0.1818328473411E+00
-0.2234847953513E+00 -0.2389004281057E+01 -0.5224978230674E+00 -0.1821960305510E+00
-0.2398445113867E+00 -0.2338216851657E+01 -0.5156122802920E+00 -0.1855668904624E+00
-0.2539097759691E+00 -0.2282936310201E+01 -0.5073692247944E+00 -0.1926570247469E+00
-0.2640043747887E+00 -0.2223279205310E+01 -0.4974567234325E+00 -0.2042203550284E+00
-0.2680578224208E+00 -0.2159635773004E+01 -0.4855387263200E+00 -0.2210022033154E+00
-0.2635475841317E+00 -0.2092680125482E+01 -0.4712455489449E+00 -0.2436855964859E+00
-0.2474447799557E+00 -0.2023403351040E+01 -0.4541696329667E+00 -0.2728102469721E+00
-0.2161761884700E+00 -0.1953177706053E+01 -0.4338707853697E+00 -0.3086461054128E+00
-0.1656255754744E+00 -0.1883827106788E+01 -0.4098905425603E+00 -0.3510102768626E+00
-0.9120908647569E-01 -0.1817667928249E+01 -0.3817754086338E+00 -0.3990232853541E+00
 0.1192901391342E-01 -0.1757475681320E+01 -0.3491093386835E+00 -0.4508154620330E+00
 0.1485493274103E+00 -0.1706329973751E+01 -0.3115561339107E+00 -0.5032186225476E+00
 0.3227541222509E+00 -0.1667270713039E+01 -0.2689033221646E+00 -0.5515195081998E+00
 0.5372298487456E+00 -0.1642782115375E+01 -0.2211104566206E+00 -0.5893691753914E+00
 0.7923208335809E+00 -0.1634201384521E+01 -0.1683761126971E+00 -0.6089523103448E+00
 0.1085106198395E+01 -0.1641091982482E+01 -0.1111971584744E+00 -0.6015654172445E+00
 0.1408800187859E+01 -0.1660758543157E+01 -0.5039167181061E-01 -0.5586630562548E+00
 0.1752781933703E+01 -0.1688189526027E+01  0.1291848172764E-01 -0.4732220108505E+00
 0.2103448947323E+01 -0.1716589423102E+01  0.7737190599715E-01 -0.3410747090649E+00
 0.2445746915964E+01 -0.1738419980281E+01  0.1414653892447E+00 -0.1618010768207E+00
-0.5875188583138E+00 -0.2487230815560E+01 -0.6149499439383E+00 -0.4499770664584E-01
-0.5250735867997E+00 -0.2513927799870E+01 -0.6078002863909E+00 -0.1036525317116E+00
-0.4628118003224E+00 -0.2539138895491E+01 -0.6003901481091E+00 -0.1512931291994E+00
-0.4028399620478E+00 -0.2561612697762E+01 -0.5928905407968E+00 -0.1882174437142E+00
-0.3470183319325E+00 -0.2580315326353E+01 -0.5854667403813E+00 -0.2152749217743E+00
-0.2967852984890E+00 -0.2594535233536E+01 -0.5782641150217E+00 -0.2337172305585E+00
-0.2530774523473E+00 -0.2603914177318E+01 -0.5713983344476E+00 -0.2450062759479E+00
-0.2163423891914E+00 -0.2608410472354E+01 -0.5649505807275E+00 -0.2506320171785E+00
-0.1866176365929E+00 -0.2608218427868E+01 -0.5589672212214E+00 -0.2519743092676E+00
-0.1636403854409E+00 -0.2603672463713E+01 -0.5534625780780E+00 -0.2502212462532E+00
-0.1469580932481E+00 -0.2595158270860E+01 -0.5484232809937E+00 -0.2463391492554E+00
-0.1360214251225E+00 -0.2583043366871E+01 -0.5438129665021E+00 -0.2410806390665E+00
-0.1302516053713E+00 -0.2567630525965E+01 -0.5395764343076E+00 -0.2350158124709E+00
-0.1290818294289E+00 -0.2549131963182E+01 -0.5356427665039E+00 -0.2285742091835E+00
-0.1319762203311E+00 -0.2527659788680E+01 -0.5319272097285E+00 -0.2220892191448E+00
-0.1384309264167E+00 -0.2503228022503E+01 -0.5283317976567E+00 -0.2158401102484E+00
-0.1479616574283E+00 -0.2475762337359E+01 -0.5247448067767E+00 -0.2100893513602E+00
-0.1600804961415E+00 -0.2445116034203E+01 -0.5210393138331E+00 -0.2051145146583E+00
-0.1742649185620E+00 -0.2411089260629E+01 -0.5170708435432E+00 -0.2012339850227E+00
-0.1899197009014E+00 -0.2373452710495E+01 -0.5126744899188E+00 -0.1988266251690E+00
-0.2063329465321E+00 -0.2331976101254E+01 -0.5076618171220E+00 -0.1983445793795E+00
-0.2226278544822E+00 -0.2286459779453E+01 -0.5018175342648E+00 -0.2003182731873E+00
-0.2377105450655E+00 -0.2236772013734E+01 -0.4948965191343E+00 -0.2053526182754E+00
-0.2502156408697E+00 -0.2182898916653E+01 -0.4866229187558E+00 -0.2141115207643E+00
-0.2584527483008E+00 -0.2125031571634E+01 -0.4766968710902E+00 -0.2272823695605E+00
-0.2603551414112E+00 -0.2063629830438E+01 -0.4647970012958E+00 -0.2455228745110E+00
-0.2534310184667E+00 -0.1999433561703E+01 -0.4505729227480E+00 -0.2694029598395E+00
-0.2347225583721E+00 -0.1933491807643E+01 -0.4336428796649E+00 -0.2993198872961E+00
-0.2007861409429E+00 -0.1867214903646E+01 -0.4136002150809E+00 -0.3353715916438E+00
-0.1477157292585E+00 -0.1802425519660E+01 -0.3900282555956E+00 -0.3771806537446E+00
-0.7124071248407E-01 -0.1741375359637E+01 -0.3625232198263E+00 -0.4236691970643E+00
 0.3306237958134E-01 -0.1686688393986E+01 -0.3307252078092E+00 -0.4727995217833E+00
 0.1694043219760E+00 -0.1641191538823E+01 -0.2943574477557E+00 -0.5213174381826E+00
 0.3412514952018E+00 -0.1607580540339E+01 -0.2532658128015E+00 -0.5645695263357E+00
 0.5506440361740E+00 -0.1587946243995E+01 -0.2074604446555E+00 -0.5964771999873E+00
 0.7973995654715E+00 -0.1583257838259E+01 -0.1571716568994E+00 -0.6097515814006E+00
 0.1078359046764E+01 -0.1592845326980E+01 -0.1028972575765E+00 -0.5964600222371E+00
 0.1386946235033E+01 -0.1614031890745E+01 -0.4541713181912E-01 -0.5489697842038E+00
 0.1713273241296E+01 -0.1642141235184E+01  0.1422640143433E-01 -0.4611211059532E+00
 0.2044916861339E+01 -0.1670986113271E+01  0.7478615072799E-01 -0.3293416857494E+00
 0.2368230880982E+01 -0.1693763799935E+01  0.1348934182196E+00 -0.1534066092498E+00
-0.5634096010495E+00 -0.2382097723150E+01 -0.5891014736182E+00 -0.3516672221639E-01
-0.5049686540420E+00 -0.2407126711727E+01 -0.5824190818324E+00 -0.9413107649534E-01
-0.4467190110454E+00 -0.2430809105183E+01 -0.5755056318214E+00 -0.1425457182630E+00
-0.3905553815699E+00 -0.2452011739210E+01 -0.5685134326275E+00 -0.1806587005699E+00
-0.3381634391572E+00 -0.2469785268312E+01 -0.5615897498622E+00 -0.2092221432949E+00
-0.2908685250023E+00 -0.2483455208165E+01 -0.5548647549017E+00 -0.2293657794552E+00
-0.2495617026374E+00 -0.2492652911135E+01 -0.5484429309269E+00 -0.2424307513752E+00
-0.2147030862526E+00 -0.2497289559234E+01 -0.5423985371797E+00 -0.2498075848915E+00
-0.1863828343538E+00 -0.2497491221650E+01 -0.5367748191994E+00 -0.2528085420453E+00
-0.1644115306562E+00 -0.2493518037692E+01 -0.5315859215909E+00 -0.2525873135043E+00
-0.1484146421414E+00 -0.2485686704688E+01 -0.5268202772162E+00 -0.2501041896516E+00
-0.1379143338154E+00 -0.2474307780065E+01 -0.5224444305612E+00 -0.2461265431889E+00
-0.1323905348820E+00 -0.2459641972098E+01 -0.5184065091209E+00 -0.2412522130199E+00
-0.1313197654544E+00 -0.2441874594112E+01 -0.5146388795819E+00 -0.2359448714788E+00
-0.1341938961683E+00 -0.2421104951097E+01 -0.5110597770684E+00 -0.2305734542830E+00
-0.1405223700676E+00 -0.2397346867741E+01 -0.5075738551251E+00 -0.2254506794833E+00
-0.1498214850763E+00 -0.2370537058191E+01 -0.5040717161647E+00 -0.2208679262801E+00
-0.1615932284534E+00 -0.2340550038403E+01 -0.5004286608283E+00 -0.2171252867425E+00
-0.1752964637251E+00 -0.2307216643500E+01 -0.4965026288435E+00 -0.2145557350341E+00
-0.1903112049122E+00 -0.2270347242559E+01 -0.4921316968276E+00 -0.2135432779227E+00
-0.2058972957969E+00 -0.2229759808498E+01 -0.4871314281178E+00 -0.2145341232239E+00
-0.2211492099369E+00 -0.2185311073648E+01 -0.4812920638888E+00 -0.2180399469174E+00
-0.2349474449885E+00 -0.2136933111298E+01 -0.4743761183260E+00 -0.2246321185942E+00
-0.2459084268030E+00 -0.2084681067228E+01 -0.4661179057520E+00 -0.2349241701055E+00
-0.2523362747024E+00 -0.2028812889969E+01 -0.4562298397327E+00 -0.2495351540013E+00
-0.2521780268114E+00 -0.1969848108028E+01 -0.4444052335900E+00 -0.2690349150218E+00
-0.2429838763335E+00 -0.1908579602743E+01 -0.4303127022274E+00 -0.2938826865342E+00
-0.2218788930205E+00 -0.1846098553878E+01 -0.4135954955428E+00 -0.3243399819028E+00
-0.1855596525875E+00 -0.1783835022921E+01 -0.3938789409710E+00 -0.3603456883759E+00
-0.1303363253249E+00 -0.1723591397756E+01 -0.3707855501413E+00 -0.4013489576267E+00
-0.5224789637405E-01 -0.1667538559840E+01 -0.3439572963683E+00 -0.4461036226557E+00
 0.5271657143515E-01 -0.1618140966959E+01 -0.3130848837701E+00 -0.4924417256164E+00
 0.1882602414558E+00 -0.1577979302801E+01 -0.2779438164107E+00 -0.5370634303588E+00
 0.3572820949598E+00 -0.1549431087980E+01 -0.2384298021569E+00 -0.5754084404356E+00
 0.5612679633871E+00 -0.1534240124281E+01 -0.1945944350784E+00 -0.6016807880393E+00
 0.7996101199799E+00 -0.1533067879530E+01 -0.1466915540958E+00 -0.6090935146836E+00
 0.1068994635516E+01 -0.1545068425131E+01 -0.9521475934191E-01 -0.5904134672366E+00
 0.1363084948572E+01 -0.1567613500743E+01 -0.4090571104376E-01 -0.5388086807554E+00
 0.1672677250377E+01 -0.1596343880729E+01  0.1526667415716E-01 -0.4488596725737E+00
 0.1986406609402E+01 -0.1625616336034E+01  0.7215805574890E-01 -0.3174985250644E+00
 0.2291885535808E+01 -0.1649282656767E+01  0.1285205777232E+00 -0.1446601356550E+00
-0.5392816853884E+00 -0.2277251706104E+01 -0.5633066866925E+00 -0.2596263621341E-01
-0.4846798292657E+00 -0.2300677963977E+01 -0.5570715669495E+00 -0.8520835936536E-01
-0.4302843027452E+00 -0.2322883744262E+01 -0.5506336176065E+00 -0.1343235211771E+00
-0.3777966773732E+00 -0.2342844747391E+01 -0.5441282930610E+00 -0.1735140885629E+00
-0.3287408662421E+00 -0.2359691766658E+01 -0.5376865345921E+00 -0.2034497877562E+00
-0.2843333786574E+00 -0.2372789298288E+01 -0.5314245433079E+00 -0.2251558727357E+00
-0.2454158292622E+00 -0.2381765468338E+01 -0.5254362673496E+00 -0.2398681736190E+00
-0.2124514967059E+00 -0.2386494292472E+01 -0.5197891655811E+00 -0.2488883885995E+00
-0.1855717035158E+00 -0.2387043746588E+01 -0.5145230976878E+00 -0.2534661906487E+00
-0.1646495473478E+00 -0.2383608173452E+01 -0.5096515517544E+00 -0.2547210691190E+00
-0.1493797919053E+00 -0.2376441286603E+01 -0.5051642232293E+00 -0.2536041944208E+00
-0.1393500893214E+00 -0.2365800248662E+01 -0.5010300750625E+00 -0.2508928358166E+00
-0.1340956011591E+00 -0.2351905325407E+01 -0.4972001927221E+00 -0.2472071166979E+00
-0.1331347589623E+00 -0.2334915249588E+01 -0.4936100090655E+00 -0.2430394897199E+00
-0.1359872961117E+00 -0.2314916099719E+01 -0.4901806864703E+00 -0.2387895101673E+00
-0.1421771604678E+00 -0.2291920724698E+01 -0.4868195842873E+00 -0.2347989086111E+00
-0.1512232570434E+00 -0.2265875933978E+01 -0.4834198454078E+00 -0.2313839538022E+00
-0.1626201582177E+00 -0.2236676375414E+01 -0.4798593138768E+00 -0.2288635409078E+00
-0.1758114118029E+00 -0.2204182265513E+01 -0.4759987425560E+00 -0.2275817245636E+00
-0.1901562007762E+00 -0.2168241951262E+01 -0.4716796374362E+00 -0.2279243035070E+00
-0.2048907270501E+00 -0.2128719345984E+01 -0.4667220215616E+00 -0.2303283592555E+00
-0.2190861160778E+00 -0.2085524365749E+01 -0.4609221032337E+00 -0.2352838574578E+00
-0.2316034759984E+00 -0.2038648471219E+01 -0.4540503962094E+00 -0.2433260440254E+00
-0.2410482245759E+00 -0.1988209855256E+01 -0.4458516226100E+00 -0.2550161473977E+00
-0.2457271587033E+00 -0.1934525585054E+01 -0.4360505552490E+00 -0.2709040226754E+00
-0.2436101888685E+00 -0.1878165155801E+01 -0.4243550752573E+00 -0.2914725039979E+00
-0.2322993311831E+00 -0.1819962439019E+01 -0.4104523601566E+00 -0.3170737428745E+00
-0.2090122516629E+00 -0.1761036376862E+01 -0.3940097315762E+00 -0.3478412954911E+00
-0.1705934473297E+00 -0.1702820771476E+01 -0.3746828493444E+00 -0.3835685793304E+00
-0.1135718798190E+00 -0.1647082060117E+01 -0.3521307932344E+00 -0.4235519881212E+00
-0.3428908331809E-01 -0.1595898297765E+01 -0.3260374810749E+00 -0.4664050508363E+00
 0.7087533410786E-01 -0.1551570698463E+01 -0.2961390772838E+00 -0.5098629260741E+00
 0.2051586075355E+00 -0.1516443262813E+01 -0.2622569349634E+00 -0.5506137132480E+00
 0.3709556400046E+00 -0.1492601547920E+01 -0.2243291849258E+00 -0.5842152169306E+00
 0.5692788718428E+00 -0.1481484735758E+01 -0.1824411755015E+00 -0.6051587150447E+00
 0.7991801576079E+00 -0.1483498310975E+01 -0.1368636327129E+00 -0.6071312849547E+00
 0.1057256097821E+01 -0.1497666653179E+01 -0.8808211238414E-01 -0.5835327249654E+00
 0.1337428240256E+01 -0.1521431067983E+01 -0.3680056609370E-01 -0.5282344117080E+00
 0.1631130196025E+01 -0.1550730675428E+01  0.1607990435905E-01 -0.4364536880611E+00
 0.1927950566909E+01 -0.1580411050542E+01  0.6950790430908E-01 -0.3055503625463E+00
 0.2216628441171E+01 -0.1604907501509E+01  0.1223441897554E+00 -0.1355863331514E+00
-0.5151358942465E+00 -0.2172660605705E+01 -0.5375593080006E+00 -0.1736003034310E-01
-0.4642242920670E+00 -0.2194543598776E+01 -0.5317535860924E+00 -0.7686149343598E-01
-0.4135402021306E+00 -0.2215321324188E+01 -0.5257723130983E+00 -0.1266099320528E+00
-0.3646076374510E+00 -0.2234070460533E+01 -0.5197356273415E+00 -0.1667758649306E+00
-0.3187998165156E+00 -0.2249998013983E+01 -0.5137595737554E+00 -0.1979594887399E+00
-0.2772285174572E+00 -0.2262508711946E+01 -0.5079474534496E+00 -0.2210969152557E+00
-0.2406831965902E+00 -0.2271233194633E+01 -0.5023832857307E+00 -0.2373326469902E+00
-0.2096228072242E+00 -0.2276016631992E+01 -0.4971278952511E+00 -0.2478896196658E+00
-0.1842102354579E+00 -0.2276877672993E+01 -0.4922175890247E+00 -0.2539601817481E+00
-0.1643716778979E+00 -0.2273952465333E+01 -0.4876648359130E+00 -0.2566305566016E+00
-0.1498634114873E+00 -0.2267437368592E+01 -0.4834601632199E+00 -0.2568405757361E+00
-0.1403330148875E+00 -0.2257539707460E+01 -0.4795745516156E+00 -0.2553733250521E+00
-0.1353675262561E+00 -0.2244441121789E+01 -0.4759617367014E+00 -0.2528663294620E+00
-0.1345258044522E+00 -0.2228274332877E+01 -0.4725600345075E+00 -0.2498358349793E+00
-0.1373554164415E+00 -0.2209111975437E+01 -0.4692934853687E+00 -0.2467072923116E+00
-0.1433958776168E+00 -0.2186965250685E+01 -0.4660722326053E+00 -0.2438471109291E+00
-0.1521706005823E+00 -0.2161790114760E+01 -0.4627921499647E+00 -0.2415924968765E+00
-0.1631693388861E+00 -0.2133500158238E+01 -0.4593339062694E+00 -0.2402775149192E+00
-0.1758235595407E+00 -0.2101983482536E+01 -0.4555614152038E+00 -0.2402539250561E+00
-0.1894754875543E+00 -0.2067124465250E+01 -0.4513199972860E+00 -0.2419061744367E+00
-0.2033422235708E+00 -0.2028830362525E+01 -0.4464345238716E+00 -0.2456593305594E+00
-0.2164767979488E+00 -0.1987060788629E+01 -0.4407075238826E+00 -0.2519791022574E+00
-0.2277269495567E+00 -0.1941861933920E+01 -0.4339177831612E+00 -0.2613625782165E+00
-0.2356939120843E+00 -0.1893408920748E+01 -0.4258205729117E+00 -0.2743174533679E+00
-0.2386947247073E+00 -0.1842070250855E+01 -0.4161530013136E+00 -0.2913243645444E+00
-0.2347303326371E+00 -0.1788456046910E+01 -0.4046372819390E+00 -0.3127809305706E+00
-0.2214629797136E+00 -0.1733429987105E+01 -0.3909785991897E+00 -0.3389367812142E+00
-0.1962106329911E+00 -0.1678125887713E+01 -0.3748673097268E+00 -0.3698060683858E+00
-0.1559708733219E+00 -0.1623967576497E+01 -0.3559876952683E+00 -0.4050505467664E+00
-0.9749115548678E-01 -0.1572672915823E+01 -0.3340328192394E+00 -0.4438337445691E+00
-0.1740590553217E-01 -0.1526218663809E+01 -0.3087249184685E+00 -0.4846545632077E+00
 0.8753803200337E-01 -0.1486742404111E+01 -0.2798408785914E+00 -0.5251804377133E+00
 0.2201523048695E+00 -0.1456363064525E+01 -0.2472421556153E+00 -0.5621149641331E+00
 0.3823856569888E+00 -0.1436899993031E+01 -0.2109028703511E+00 -0.5911521268330E+00
 0.5748478474610E+00 -0.1429526100626E+01 -0.1709356531802E+00 -0.6070692984674E+00
 0.7963211918935E+00 -0.1434435006234E+01 -0.1276227647698E+00 -0.6039979944924E+00
 0.1043363955999E+01 -0.1450558453928E+01 -0.8143890079935E-01 -0.5759095868563E+00
 0.1310165655400E+01 -0.1475421697844E+01 -0.3305120898124E-01 -0.5172939010748E+00
 0.1588753189628E+01 -0.1505243684344E+01  0.1670190130558E-01 -0.4239175176835E+00
 0.1869576838090E+01 -0.1535310693224E+01  0.6685322996945E-01 -0.2935028731661E+00
 0.2142384901531E+01 -0.1560578854900E+01  0.1163612110602E+00 -0.1262097685183E+00
-0.4909728040215E+00 -0.2068294201862E+01 -0.5118534088039E+00 -0.9335908416631E-02
-0.4436176969557E+00 -0.2088687972619E+01 -0.5064611414618E+00 -0.6906956285047E-01
-0.3965165441640E+00 -0.2108082726995E+01 -0.5009198616962E+00 -0.1193892161598E+00
-0.3510287646397E+00 -0.2125649539789E+01 -0.4953356682668E+00 -0.1604356740764E+00
-0.3083863636547E+00 -0.2140668178009E+01 -0.4898109156314E+00 -0.1927508045544E+00
-0.2696002711364E+00 -0.2152584368366E+01 -0.4844369351192E+00 -0.2171951541670E+00
-0.2354060102643E+00 -0.2161035831533E+01 -0.4792883755013E+00 -0.2348345994404E+00
-0.2062522781702E+00 -0.2165845797161E+01 -0.4744196221355E+00 -0.2468228299013E+00
-0.1823255642552E+00 -0.2166991100790E+01 -0.4698633400105E+00 -0.2543002576343E+00
-0.1635971027297E+00 -0.2164556430883E+01 -0.4656307136610E+00 -0.2583213286093E+00
-0.1498778185575E+00 -0.2158685981830E+01 -0.4617127669575E+00 -0.2598130294666E+00
-0.1408701568654E+00 -0.2149540694046E+01 -0.4580821770082E+00 -0.2595608546491E+00
-0.1362098623263E+00 -0.2137265498393E+01 -0.4546950789193E+00 -0.2582153751730E+00
-0.1354947290712E+00 -0.2121967851537E+01 -0.4514925228494E+00 -0.2563120055842E+00
-0.1383000280854E+00 -0.2103706890287E+01 -0.4484013903563E+00 -0.2542975938519E+00
-0.1441817793107E+00 -0.2082491592264E+01 -0.4453346809509E+00 -0.2525590350221E+00
-0.1526696869005E+00 -0.2058286120007E+01 -0.4421911679706E+00 -0.2514506268386E+00
-0.1632511835586E+00 -0.2031021740324E+01 -0.4388545913159E+00 -0.2513180870254E+00
-0.1753488041511E+00 -0.2000612795198E+01 -0.4351923263548E+00 -0.2525176652407E+00
-0.1882915983871E+00 -0.1966977549306E+01 -0.4310538359618E+00 -0.2554295382802E+00
-0.2012819899161E+00 -0.1930063786453E+01 -0.4262691616256E+00 -0.2604641793500E+00
-0.2133599961445E+00 -0.1889877127842E+01 -0.4206474310654E+00 -0.2680608994400E+00
-0.2233657402113E+00 -0.1846513688141E+01 -0.4139758918391E+00 -0.2786771146266E+00
-0.2299026738060E+00 -0.1800199377308E+01 -0.4060204162730E+00 -0.2927663934176E+00
-0.2313049934912E+00 -0.1751346624888E+01 -0.3965303295845E+00 -0.3107408677049E+00
-0.2256118748247E+00 -0.1700597320836E+01 -0.3852418448727E+00 -0.3329155149725E+00
-0.2105528130719E+00 -0.1648834680125E+01 -0.3718775041808E+00 -0.3594427282425E+00
-0.1835519314788E+00 -0.1597195989300E+01 -0.3561495894628E+00 -0.3902262856402E+00
-0.1417628046117E+00 -0.1547083518634E+01 -0.3377692696824E+00 -0.4248100080052E+00
-0.8214870402249E-01 -0.1500156639278E+01 -0.3164610733758E+00 -0.4622434188622E+00
-0.1625362650358E-02 -0.1458285305339E+01 -0.2919821379488E+00 -0.5009340873876E+00
 0.1027170197203E+00 -0.1423445658614E+01 -0.2641457317149E+00 -0.5385069417406E+00
 0.2333029354776E+00 -0.1397544411412E+01 -0.2328482986566E+00 -0.5717033657836E+00
 0.3916874771953E+00 -0.1382159377234E+01 -0.1980943829595E+00 -0.5963659469989E+00
 0.5781391807642E+00 -0.1378231506696E+01 -0.1600184675709E+00 -0.6075527229365E+00
 0.7912297597419E+00 -0.1385779988091E+01 -0.1189100474417E+00 -0.5998095087900E+00
 0.1027518843021E+01 -0.1403673543526E+01 -0.7523094122201E-01 -0.5676230440498E+00
 0.1281467508916E+01 -0.1429530860534E+01 -0.2961267076502E-01 -0.5060274906478E+00
 0.1545654404793E+01 -0.1459832773997E+01  0.1716432641508E-01 -0.4112640172693E+00
 0.1811310180180E+01 -0.1490263928137E+01  0.6420925136559E-01 -0.2813622335668E+00
 0.2069087993910E+01 -0.1516245729351E+01  0.1105684545595E+00 -0.1165548260208E+00
-0.4667928220607E+00 -0.1964123838155E+01 -0.4861833392878E+00 -0.1869533425383E-02
-0.4228744519190E+00 -0.1983077312690E+01 -0.4811903600921E+00 -0.6181352066146E-01
-0.3792409470375E+00 -0.2001130757807E+01 -0.4760743480630E+00 -0.1126465579264E+00
-0.3370978259792E+00 -0.2017544212885E+01 -0.4709284147903E+00 -0.1544847832389E+00
-0.2975439352514E+00 -0.2031667218267E+01 -0.4658422376452E+00 -0.1878216094168E+00
-0.2614929582025E+00 -0.2042986921510E+01 -0.4608959828104E+00 -0.2134541440748E+00
-0.2296254328985E+00 -0.2051151724924E+01 -0.4561554383617E+00 -0.2323812311670E+00
-0.2023751811032E+00 -0.2055968600501E+01 -0.4516687630511E+00 -0.2456962979074E+00
-0.1799457806991E+00 -0.2057378947958E+01 -0.4474649523993E+00 -0.2544932330694E+00
-0.1623466901691E+00 -0.2055421895555E+01 -0.4435537237543E+00 -0.2597966008337E+00
-0.1494375118336E+00 -0.2050194182214E+01 -0.4399263453650E+00 -0.2625196125441E+00
-0.1409710270986E+00 -0.2041813643418E+01 -0.4365569406085E+00 -0.2634473370750E+00
-0.1366287540543E+00 -0.2030390443951E+01 -0.4334038460594E+00 -0.2632395124277E+00
-0.1360459723966E+00 -0.2016007641444E+01 -0.4304107291818E+00 -0.2624464467971E+00
-0.1388254638391E+00 -0.1998710948394E+01 -0.4275072888170E+00 -0.2615321270742E+00
-0.1445405831218E+00 -0.1978506627325E+01 -0.4246094484165E+00 -0.2608999080334E+00
-0.1527289955219E+00 -0.1955366124436E+01 -0.4216190302742E+00 -0.2609174709017E+00
-0.1628782014819E+00 -0.1929237064806E+01 -0.4184230594926E+00 -0.2619388143479E+00
-0.1744048448466E+00 -0.1900058277646E+01 -0.4148926306809E+00 -0.2643216423984E+00
-0.1866284637719E+00 -0.1867779624705E+01 -0.4108816238179E+00 -0.2684391794911E+00
-0.1987410784718E+00 -0.1832386444754E+01 -0.4062255106984E+00 -0.2746850324542E+00
-0.2097745649647E+00 -0.1793926539947E+01 -0.4007402269538E+00 -0.2834703646976E+00
-0.2185668739439E+00 -0.1752541078478E+01 -0.3942215963587E+00 -0.2952118868984E+00
-0.2237296130496E+00 -0.1708500683013E+01 -0.3864460649710E+00 -0.3103090191028E+00
-0.2236203723621E+00 -0.1662254473659E+01 -0.3771749748245E+00 -0.3291067294218E+00
-0.2163227899062E+00 -0.1614467804305E+01 -0.3661581242984E+00 -0.3518405529773E+00
-0.1996393205308E+00 -0.1566034108779E+01 -0.3531346911242E+00 -0.3785714522848E+00
-0.1711044149251E+00 -0.1518084185171E+01 -0.3378377250533E+00 -0.4091020983054E+00
-0.1280286012475E+00 -0.1471989130529E+01 -0.3200035511237E+00 -0.4428717879053E+00
-0.6758636992182E-01 -0.1429342282879E+01 -0.2993857350214E+00 -0.4788337020511E+00
 0.1303817317115E-01 -0.1391903731968E+01 -0.2757731158686E+00 -0.5153250081052E+00
 0.1164353411887E+00 -0.1361492293490E+01 -0.2490113941709E+00 -0.5499497247238E+00
 0.2446786227108E+00 -0.1339815937939E+01 -0.2190274663095E+00 -0.5795047629353E+00
 0.3989767013891E+00 -0.1328234169004E+01 -0.1858514962925E+00 -0.5999891589125E+00
 0.5793100484101E+00 -0.1327486418209E+01 -0.1496352761895E+00 -0.6067330998165E+00
 0.7840885964292E+00 -0.1337449076788E+01 -0.1106720977208E+00 -0.5946668310261E+00
 0.1009903871255E+01 -0.1356951432875E+01 -0.6940951335837E-01 -0.5587412236075E+00
 0.1251487533669E+01 -0.1383711453308E+01 -0.2644478432193E-01 -0.4944699148840E+00
 0.1501931005118E+01 -0.1414454701527E+01  0.1749526097875E-01 -0.3985046981322E+00
 0.1753172890958E+01 -0.1445226647628E+01  0.6158924958381E-01 -0.2691350647319E+00
 0.1996678433426E+01 -0.1471864718899E+01  0.1049627444694E+00 -0.1066455590025E+00
-0.4425962179982E+00 -0.1860122099302E+01 -0.4605436703227E+00  0.5057707279160E-02
-0.4020079589301E+00 -0.1877679333087E+01 -0.4559374651975E+00 -0.5507610339304E-01
-0.3617392246890E+00 -0.1894429752634E+01 -0.4512338021885E+00 -0.1063680951005E+00
-0.3228503373329E+00 -0.1909717952536E+01 -0.4465136646274E+00 -0.1489142700061E+00
-0.2863137511754E+00 -0.1922960706220E+01 -0.4418548980633E+00 -0.1831684131923E+00
-0.2529491883336E+00 -0.1933686756022E+01 -0.4373271953879E+00 -0.2098751368949E+00
-0.2233817133999E+00 -0.1941557985364E+01 -0.4329879462048E+00 -0.2299769017132E+00
-0.1980267673325E+00 -0.1946369727070E+01 -0.4288793052713E+00 -0.2445153570298E+00
-0.1770997821818E+00 -0.1948033291229E+01 -0.4250266210155E+00 -0.2545432369980E+00
-0.1606427774959E+00 -0.1946547343623E+01 -0.4214380305038E+00 -0.2610574079638E+00
-0.1485589252264E+00 -0.1941965377835E+01 -0.4181048668426E+00 -0.2649568314015E+00
-0.1406473572458E+00 -0.1934365178048E+01 -0.4150025132428E+00 -0.2670237991513E+00
-0.1366327052274E+00 -0.1923824053868E+01 -0.4120913579598E+00 -0.2679237601064E+00
-0.1361863657543E+00 -0.1910401600283E+01 -0.4093175993068E+00 -0.2682179722669E+00
-0.1389384038044E+00 -0.1894130276940E+01 -0.4066137422079E+00 -0.2683835485215E+00
-0.1444802481727E+00 -0.1875013214283E+01 -0.4038986985097E+00 -0.2688364643085E+00
-0.1523590823893E+00 -0.1853028245213E+01 -0.4010774714969E+00 -0.2699542375388E+00
-0.1620647441722E+00 -0.1828138006950E+01 -0.3980405561557E+00 -0.2720959427984E+00
-0.1730109015590E+00 -0.1800303989039E+01 -0.3946629840005E+00 -0.2756179001603E+00
-0.1845111012698E+00 -0.1769505259389E+01 -0.3908032779551E+00 -0.2808839444316E+00
-0.1957510535287E+00 -0.1735761636284E+01 -0.3863025437188E+00 -0.2882688488554E+00
-0.2057591212181E+00 -0.1699159205790E+01 -0.3809836710788E+00 -0.2981542523985E+00
-0.2133761821225E+00 -0.1659879325076E+01 -0.3746511070225E+00 -0.3109155706540E+00
-0.2172274454592E+00 -0.1618231397261E+01 -0.3670917740141E+00 -0.3268985557788E+00
-0.2156994403127E+00 -0.1574694336205E+01 -0.3580787606393E+00 -0.3463828774837E+00
-0.2069255584915E+00 -0.1529949264507E+01 -0.3473749697760E+00 -0.3695283098468E+00
-0.1887856894366E+00 -0.1484891477634E+01 -0.3347354384021E+00 -0.3963105324746E+00
-0.1589272706302E+00 -0.1440636705320E+01 -0.3199127999572E+00 -0.4264404109142E+00
-0.1148170805025E+00 -0.1398517044614E+01 -0.3026668295334E+00 -0.4592656259126E+00
-0.5383471413708E-01 -0.1360054313799E+01 -0.2827778098010E+00 -0.4936593820578E+00
 0.2658115091805E-01 -0.1326897666948E+01 -0.2600633070812E+00 -0.5279070905149E+00
 0.1287247497612E+00 -0.1300714100162E+01 -0.2343978735729E+00 -0.5596101889827E+00
 0.2543522188744E+00 -0.1283026453991E+01 -0.2057348500890E+00 -0.5856349710764E+00
 0.4043680568875E+00 -0.1274997477929E+01 -0.1741258868029E+00 -0.6021411101932E+00
 0.5785104397801E+00 -0.1277191900770E+01 -0.1397362942802E+00 -0.6047202802069E+00
 0.7750677880111E+00 -0.1289369943711E+01 -0.1028604326726E+00 -0.5886580947581E+00
 0.9906867047824E+00 -0.1310340164974E+01 -0.6393069299098E-01 -0.5493229761558E+00
 0.1220365134429E+01 -0.1337922946359E+01 -0.2351156273644E-01 -0.4826511177208E+00
 0.1457670814639E+01 -0.1369072307907E+01  0.1771970161046E-01 -0.3856498910921E+00
 0.1695185567864E+01 -0.1400161121803E+01  0.5900489009133E-01 -0.2568283380900E+00
 0.1925104287125E+01 -0.1427399180008E+01  0.9954102290662E-01 -0.9650549520688E-01
-0.4183831533399E+00 -0.1756262531924E+01 -0.4349291435338E+00  0.1146240519703E-01
-0.3810308252696E+00 -0.1772462897810E+01 -0.4306987510339E+00 -0.4884176437687E-01
-0.3440357502221E+00 -0.1787945228121E+01 -0.4263962020224E+00 -0.1005409471720E+00
-0.3083199953504E+00 -0.1802135179330E+01 -0.4220910412257E+00 -0.1437151750248E+00
-0.2747352232934E+00 -0.1814514643370E+01 -0.4178499795591E+00 -0.1787866254298E+00
-0.2440101498124E+00 -0.1824653953925E+01 -0.4137328269125E+00 -0.2064574105528E+00
-0.2167143244587E+00 -0.1832230599160E+01 -0.4097889908301E+00 -0.2276234654217E+00
-0.1932422600269E+00 -0.1837031955835E+01 -0.4060548492231E+00 -0.2432826900285E+00
-0.1738171516971E+00 -0.1838943650362E+01 -0.4025521664103E+00 -0.2544519407486E+00
-0.1585089787259E+00 -0.1837928220838E+01 -0.3992874458625E+00 -0.2621027618287E+00
-0.1472602019750E+00 -0.1833999618522E+01 -0.3962519700040E+00 -0.2671197417678E+00
-0.1399128653929E+00 -0.1827198369140E+01 -0.3934222527689E+00 -0.2702804418255E+00
-0.1362323512454E+00 -0.1817570762502E+01 -0.3907606285722E+00 -0.2722529349336E+00
-0.1359249136014E+00 -0.1805153900497E+01 -0.3882157686046E+00 -0.2736057923538E+00
-0.1386476617575E+00 -0.1789967235278E+01 -0.3857229851547E+00 -0.2748254844566E+00
-0.1440107592300E+00 -0.1772010414963E+01 -0.3832042405487E+00 -0.2763369676987E+00
-0.1515723538189E+00 -0.1751266795730E+01 -0.3805678355807E+00 -0.2785242294268E+00
-0.1608267626999E+00 -0.1727712673761E+01 -0.3777078929204E+00 -0.2817483995362E+00
-0.1711874516809E+00 -0.1701330330645E+01 -0.3745035620457E+00 -0.2863617852403E+00
-0.1819653315651E+00 -0.1672125589953E+01 -0.3708181898292E+00 -0.2927166435105E+00
-0.1923436915441E+00 -0.1640149620548E+01 -0.3664986678796E+00 -0.3011672449373E+00
-0.2013517404912E+00 -0.1605522880475E+01 -0.3613749295781E+00 -0.3120646784232E+00
-0.2078380151657E+00 -0.1568462118478E+01 -0.3552600320224E+00 -0.3257428760805E+00
-0.2104462641257E+00 -0.1529309789411E+01 -0.3479512158922E+00 -0.3424948371852E+00
-0.2075968137164E+00 -0.1488568096232E+01 -0.3392329870447E+00 -0.3625372239108E+00
-0.1974771980180E+00 -0.1446926871772E+01 -0.3288808188587E+00 -0.3859580829089E+00
-0.1780480763859E+00 -0.1405275861888E+01 -0.3166647923735E+00 -0.4126541436205E+00
-0.1470711922415E+00 -0.1364708442037E+01 -0.3023559313611E+00 -0.4422536392038E+00
-0.1021674732779E+00 -0.1326511488698E+01 -0.2857357966530E+00 -0.4740249070530E+00
-0.4091434164867E-01 -0.1292131571990E+01 -0.2666091867006E+00 -0.5067762037575E+00
 0.3900922880993E-01 -0.1263107429743E+01 -0.2448196438347E+00 -0.5387576696154E+00
 0.1396240156457E+00 -0.1240960698813E+01 -0.2202673399158E+00 -0.5675835789379E+00
 0.2623998512459E+00 -0.1227042486200E+01 -0.1929285298657E+00 -0.5902001882443E+00
 0.4079745607307E+00 -0.1222338564682E+01 -0.1628728032173E+00 -0.6029291176201E+00
 0.5758832493072E+00 -0.1227262431482E+01 -0.1302758383763E+00 -0.6016114465315E+00
 0.7643258656226E+00 -0.1241480456484E+01 -0.9543091959427E-01 -0.5818602442930E+00
 0.9700213609826E+00 -0.1263795203218E+01 -0.5875476932261E-01 -0.5394191908543E+00
 0.1188227293640E+01 -0.1292130589192E+01 -0.2078065942014E-01 -0.4705969387026E+00
 0.1412953719658E+01 -0.1323653776449E+01  0.1785998890806E-01 -0.3727088898799E+00
 0.1637367685093E+01 -0.1355035224637E+01  0.5646649293256E-01 -0.2444492552493E+00
 0.1854320526635E+01 -0.1382818443048E+01  0.9430041812264E-01 -0.8615743547412E-01
-0.3941537084899E+00 -0.1652519401749E+01 -0.4093346281474E+00  0.1735921054152E-01
-0.3599550525979E+00 -0.1667397728780E+01 -0.4054705623175E+00 -0.4309662245113E-01
-0.3261537807966E+00 -0.1681643577365E+01 -0.4015594776161E+00 -0.9515323823047E-01
-0.2935390673344E+00 -0.1694761002356E+01 -0.3976600198637E+00 -0.1388786244259E+00
-0.2628463229872E+00 -0.1706295301400E+01 -0.3938283307459E+00 -0.1746707702127E+00
-0.2347158828517E+00 -0.1715858266350E+01 -0.3901148356535E+00 -0.2031985419264E+00
-0.2096621044544E+00 -0.1723144532405E+01 -0.3865613331321E+00 -0.2253205571807E+00
-0.1880568638728E+00 -0.1727936370272E+01 -0.3831986525391E+00 -0.2419985882272E+00
-0.1701280599994E+00 -0.1730097266094E+01 -0.3800450708817E+00 -0.2542187669983E+00
-0.1559700146987E+00 -0.1729557240719E+01 -0.3771054567029E+00 -0.2629298038394E+00
-0.1455609863889E+00 -0.1726293901192E+01 -0.3743709830948E+00 -0.2690020510675E+00
-0.1387830344350E+00 -0.1720313025194E+01 -0.3718192174663E+00 -0.2732067053139E+00
-0.1354402384089E+00 -0.1711631611881E+01 -0.3694143755628E+00 -0.2762116926607E+00
-0.1352725786337E+00 -0.1700265244700E+01 -0.3671075701371E+00 -0.2785895413297E+00
-0.1379639744955E+00 -0.1686220669349E+01 -0.3648369342054E+00 -0.2808325489042E+00
-0.1431439152749E+00 -0.1669493762763E+01 -0.3625275410096E+00 -0.2833712197324E+00
-0.1503828484230E+00 -0.1650072582083E+01 -0.3600910914670E+00 -0.2865928359124E+00
-0.1591815781535E+00 -0.1627945741406E+01 -0.3574254692380E+00 -0.2908577594928E+00
-0.1689559867241E+00 -0.1603114433662E+01 -0.3544140893585E+00 -0.2965118740653E+00
-0.1790175225996E+00 -0.1575608765067E+01 -0.3509252627625E+00 -0.3038939207803E+00
-0.1885507189820E+00 -0.1545508116295E+01 -0.3468117722233E+00 -0.3133362871301E+00
-0.1965897016285E+00 -0.1512963439066E+01 -0.3419106332337E+00 -0.3251588137577E+00
-0.2019950155440E+00 -0.1478222193996E+01 -0.3360434469154E+00 -0.3396541194768E+00
-0.2034333742253E+00 -0.1441654409530E+01 -0.3290175616537E+00 -0.3570637337895E+00
-0.1993630882844E+00 -0.1403779499822E+01 -0.3206285223990E+00 -0.3775439354670E+00
-0.1880293692246E+00 -0.1365289595743E+01 -0.3106637976228E+00 -0.4011153131434E+00
-0.1674759416513E+00 -0.1327062395421E+01 -0.2989076718686E+00 -0.4276020306445E+00
-0.1355790001807E+00 -0.1290162831492E+01 -0.2851483705835E+00 -0.4565586025498E+00
-0.9011036374025E-01 -0.1255827765493E+01 -0.2691876298579E+00 -0.4871855693837E+00
-0.2883714224577E-01 -0.1225426278678E+01 -0.2508526879227E+00 -0.5182399313200E+00
 0.5033582972692E-01 -0.1200388462172E+01 -0.2300105299165E+00 -0.5479510363243E+00
 0.1491774718340E+00 -0.1182097658194E+01 -0.2065840403503E+00 -0.5739588537265E+00
 0.2688997391443E+00 -0.1171746167629E+01 -0.1805692883877E+00 -0.5932974549354E+00
 0.4099069181336E+00 -0.1170160754868E+01 -0.1520507696127E+00 -0.6024494891796E+00
 0.5715644878380E+00 -0.1177624100019E+01 -0.1212119242424E+00 -0.5974925044010E+00
 0.7520108500560E+00 -0.1193727333847E+01 -0.8834329807471E-01 -0.5743404621076E+00
 0.9480498166178E+00 -0.1217278523053E+01 -0.5384574208945E-01 -0.5290739037031E+00
 0.1155190242581E+01 -0.1246304754316E+01 -0.1822290261847E-01 -0.4583297054654E+00
 0.1367852910795E+01 -0.1278172023490E+01  0.1793617772827E-01 -0.3596900863928E+00
 0.1579738102671E+01 -0.1309821789250E+01  0.5398326348859E-01 -0.2320051314621E+00
 0.1784288614365E+01 -0.1338097121983E+01  0.8923829980610E-01 -0.7562328225181E-01
-0.3699079087472E+00 -0.1548867479726E+01 -0.3837550834129E+00  0.2276088877052E-01
-0.3387922082874E+00 -0.1562454144521E+01 -0.3802492762278E+00 -0.3782842568156E-01
-0.3081157514347E+00 -0.1575491793696E+01 -0.3767215146398E+00 -0.9019411705348E-01
-0.2785387458933E+00 -0.1587560977615E+01 -0.3732199502630E+00 -0.1343959278141E+00
-0.2506839200804E+00 -0.1598269064005E+01 -0.3697906023274E+00 -0.1708146594455E+00
-0.2251055379466E+00 -0.1607269069271E+01 -0.3664749269045E+00 -0.2000946312594E+00
-0.2022633992565E+00 -0.1614273804554E+01 -0.3633074461758E+00 -0.2230658336249E+00
-0.1825057860223E+00 -0.1619062530205E+01 -0.3603136686145E+00 -0.2406611777180E+00
-0.1660631849158E+00 -0.1621479337460E+01 -0.3575085098025E+00 -0.2538410800543E+00
-0.1530515610475E+00 -0.1621424653117E+01 -0.3548952481213E+00 -0.2635339513843E+00
-0.1434822308589E+00 -0.1618842442551E+01 -0.3524649399341E+00 -0.2705962233399E+00
-0.1372749018336E+00 -0.1613705952973E+01 -0.3501961761796E+00 -0.2757913406669E+00
-0.1342706110525E+00 -0.1606004496280E+01 -0.3480550266530E+00 -0.2797845755804E+00
-0.1342420725601E+00 -0.1595733098029E+01 -0.3459950392735E+00 -0.2831493080640E+00
-0.1368997964452E+00 -0.1582886141606E+01 -0.3439571927357E+00 -0.2863803608636E+00
-0.1418931247408E+00 -0.1567455502416E+01 -0.3418697305256E+00 -0.2899105622388E+00
-0.1488060287510E+00 -0.1549433165017E+01 -0.3396478438147E+00 -0.2941275156046E+00
-0.1571476663044E+00 -0.1528818749978E+01 -0.3371932882810E+00 -0.2993881986449E+00
-0.1663387888748E+00 -0.1505630494385E+01 -0.3343938616347E+00 -0.3060298841772E+00
-0.1756943603408E+00 -0.1479920324434E+01 -0.3311229418891E+00 -0.3143761081953E+00
-0.1844035843547E+00 -0.1451792722094E+01 -0.3272392661660E+00 -0.3247362716239E+00
-0.1915092734281E+00 -0.1421425329204E+01 -0.3225869253333E+00 -0.3373985709888E+00
-0.1958879406575E+00 -0.1389091796902E+01 -0.3169959522354E+00 -0.3526147981764E+00
-0.1962331833747E+00 -0.1355184534065E+01 -0.3102835481116E+00 -0.3705766009324E+00
-0.1910448384252E+00 -0.1320234534616E+01 -0.3022558791122E+00 -0.3913827474048E+00
-0.1786285343320E+00 -0.1284930455434E+01 -0.2927118023150E+00 -0.4149907706047E+00
-0.1571124184230E+00 -0.1250132315650E+01 -0.2814489510085E+00 -0.4411585930745E+00
-0.1244862652531E+00 -0.1216871611075E+01 -0.2682715792631E+00 -0.4693755640329E+00
-0.7866858414538E-01 -0.1186331647894E+01 -0.2530000501778E+00 -0.4987851903120E+00
-0.1760742486419E-01 -0.1159803023935E+01 -0.2354820932689E+00 -0.5281056033072E+00
 0.6058086865649E-01 -0.1138609916692E+01 -0.2156058128198E+00 -0.5555580005569E+00
 0.1574337836175E+00 -0.1124004768197E+01 -0.1933141997965E+00 -0.5788186824126E+00
 0.2739312482784E+00 -0.1117033357713E+01 -0.1686204243997E+00 -0.5950151446192E+00
 0.4102731124912E+00 -0.1118379622815E+01 -0.1416213041751E+00 -0.6007884649086E+00
 0.5656835755578E+00 -0.1128213064311E+01 -0.1125058994271E+00 -0.5924392972563E+00
 0.7382612303089E+00 -0.1146064990022E+01 -0.8156075315790E-01 -0.5661573805251E+00
 0.9249034208895E+00 -0.1170757812765E+01 -0.4917087910772E-01 -0.5183252288301E+00
 0.1121360890608E+01 -0.1200420338433E+01 -0.1581188980061E-01 -0.4458687351844E+00
 0.1322435914183E+01 -0.1232604133172E+01  0.1796635646977E-01 -0.3466010822694E+00
 0.1522315424706E+01 -0.1264497995607E+01  0.5156348658809E-01 -0.2195032790426E+00
 0.1714976010688E+01 -0.1293214438546E+01  0.8435231568525E-01 -0.6492388688106E-01
-0.3456457500898E+00 -0.1445281852220E+01 -0.3581855257993E+00  0.2767835597738E-01
-0.3175535843746E+00 -0.1457602826531E+01 -0.3550312874716E+00 -0.3302652925219E-01
-0.2899435459379E+00 -0.1469457222068E+01 -0.3518801588445E+00 -0.8565377576861E-01
-0.2633494767678E+00 -0.1480500888661E+01 -0.3487700782829E+00 -0.1302586557643E+00
-0.2382840989319E+00 -0.1490402280926E+01 -0.3457372811235E+00 -0.1672115300246E+00
-0.2152176210753E+00 -0.1498855319754E+01 -0.3428145932742E+00 -0.1971404833096E+00
-0.1945562021543E+00 -0.1505591552714E+01 -0.3400295560405E+00 -0.2208551734043E+00
-0.1766242644371E+00 -0.1510388628824E+01 -0.3374025836800E+00 -0.2392666139225E+00
-0.1616536434452E+00 -0.1513073243577E+01 -0.3349453823955E+00 -0.2533143565992E+00
-0.1497801104588E+00 -0.1513518500253E+01 -0.3326597270993E+00 -0.2639090358368E+00
-0.1410460159177E+00 -0.1511636944311E+01 -0.3305365969712E+00 -0.2718935836216E+00
-0.1354068599482E+00 -0.1507371216250E+01 -0.3285556201354E+00 -0.2780224846059E+00
-0.1327392068520E+00 -0.1500684408753E+01 -0.3266847279891E+00 -0.2829560635044E+00
-0.1328476536068E+00 -0.1491551924824E+01 -0.3248799205273E+00 -0.2872656677542E+00
-0.1354691009577E+00 -0.1479956165460E+01 -0.3230850580978E+00 -0.2914455586705E+00
-0.1402732089114E+00 -0.1465884832344E+01 -0.3212316130378E+00 -0.2959278727461E+00
-0.1468585840179E+00 -0.1449333120485E+01 -0.3192383456576E+00 -0.3010977676468E+00
-0.1547444575758E+00 -0.1430310390975E+01 -0.3170109744339E+00 -0.3073064327238E+00
-0.1633587281799E+00 -0.1408850094430E+01 -0.3144417692076E+00 -0.3148805691351E+00
-0.1720226464085E+00 -0.1385023553487E+01 -0.3114092446194E+00 -0.3241270632310E+00
-0.1799332639702E+00 -0.1358957301815E+01 -0.3077781177432E+00 -0.3353314897172E+00
-0.1861455420252E+00 -0.1330851976571E+01 -0.3033995082402E+00 -0.3487502819640E+00
-0.1895555326594E+00 -0.1301003087909E+01 -0.2981117285558E+00 -0.3645951664408E+00
-0.1888871430348E+00 -0.1269820540054E+01 -0.2917415409650E+00 -0.3830097430634E+00
-0.1826846674918E+00 -0.1237841728635E+01 -0.2841052834589E+00 -0.4040383143896E+00
-0.1693161589684E+00 -0.1205746685941E+01 -0.2750125730799E+00 -0.4275798038229E+00
-0.1469947086986E+00 -0.1174372931851E+01 -0.2642735320479E+00 -0.4533320641379E+00
-0.1138219294514E+00 -0.1144714521037E+01 -0.2517072938485E+00 -0.4807273953286E+00
-0.6785806462499E-01 -0.1117898756737E+01 -0.2371513678062E+00 -0.5088622205800E+00
-0.7222955343912E-02 -0.1095137792820E+01 -0.2204721529182E+00 -0.5364269416665E+00
 0.6976962846067E-01 -0.1077653352719E+01 -0.2015767478554E+00 -0.5616455884066E+00
 0.1644449032812E+00 -0.1066574492281E+01 -0.1804259204885E+00 -0.5822395219316E+00
 0.2775741339713E+00 -0.1062811999175E+01 -0.1570475753810E+00 -0.5954334577194E+00
 0.4091781404873E+00 -0.1066921436789E+01 -0.1315486612206E+00 -0.5980230712530E+00
 0.5583636891816E+00 -0.1078974249295E+01 -0.1041221135742E+00 -0.5865186636361E+00
 0.7232068826959E+00 -0.1098454568550E+01 -0.7504953828909E-01 -0.5573621150576E+00
 0.9007041567266E+00 -0.1124205801605E+01 -0.4470032964181E-01 -0.5072061508685E+00
 0.1086838070780E+01 -0.1154456249206E+01 -0.1352363588665E-01 -0.4332307701882E+00
 0.1276765469835E+01 -0.1186930860423E+01  0.1796692215007E-01 -0.3334487936610E+00
 0.1465118267007E+01 -0.1219044813521E+01  0.4921469143061E-01 -0.2069509093641E+00
 0.1646355684648E+01 -0.1248153585224E+01  0.7964042107141E-01 -0.5407893385410E-01
-0.3213672254287E+00 -0.1341737750633E+01 -0.3326210001688E+00  0.3212069465118E-01
-0.2962503482971E+00 -0.1352814607670E+01 -0.3298129961080E+00 -0.2868188669779E-01
-0.2716587514897E+00 -0.1363507332732E+01 -0.3270332217174E+00 -0.8152346779339E-01
-0.2480012665094E+00 -0.1373546546067E+01 -0.3243095673479E+00 -0.1264586993309E+00
-0.2256824562207E+00 -0.1382661133847E+01 -0.3216687228067E+00 -0.1638541486294E+00
-0.2050902269505E+00 -0.1390585515496E+01 -0.3191351532447E+00 -0.1943297490690E+00
-0.1865782900533E+00 -0.1397070091485E+01 -0.3167296810273E+00 -0.2186828394067E+00
-0.1704475999057E+00 -0.1401891640236E+01 -0.3144678527142E+00 -0.2378092459003E+00
-0.1569309325119E+00 -0.1404860754308E+01 -0.3123583420185E+00 -0.2526323368490E+00
-0.1461828457990E+00 -0.1405824862941E+01 -0.3104015463734E+00 -0.2640474311343E+00
-0.1382753812110E+00 -0.1404666851635E+01 -0.3085884511676E+00 -0.2728844203511E+00
-0.1331984661624E+00 -0.1401300391275E+01 -0.3068997760607E+00 -0.2798877363161E+00
-0.1308630606443E+00 -0.1395663687289E+01 -0.3053053541362E+00 -0.2857106273748E+00
-0.1311049318315E+00 -0.1387713426483E+01 -0.3037636761894E+00 -0.2909197145628E+00
-0.1336871897295E+00 -0.1377420440766E+01 -0.3022215306026E+00 -0.2960058121456E+00
-0.1383002149685E+00 -0.1364768146078E+01 -0.3006136766887E+00 -0.3013975540725E+00
-0.1445582452105E+00 -0.1349754295502E+01 -0.2988625125958E+00 -0.3074750938491E+00
-0.1519921532132E+00 -0.1332396784591E+01 -0.2968777919847E+00 -0.3145816442704E+00
-0.1600390806801E+00 -0.1312742503676E+01 -0.2945563212604E+00 -0.3230316005327E+00
-0.1680291220735E+00 -0.1290879812256E+01 -0.2917817912139E+00 -0.3331139941405E+00
-0.1751700998022E+00 -0.1266954334545E+01 -0.2884248911672E+00 -0.3450899836562E+00
-0.1805322759138E+00 -0.1241186144336E+01 -0.2843436882870E+00 -0.3591843718598E+00
-0.1830344302945E+00 -0.1213888492237E+01 -0.2793845886694E+00 -0.3755698175857E+00
-0.1814337338044E+00 -0.1185484213900E+01 -0.2733835936146E+00 -0.3943438986916E+00
-0.1743212994405E+00 -0.1156512378066E+01 -0.2661667394675E+00 -0.4154996015982E+00
-0.1601289464678E+00 -0.1127639834565E+01 -0.2575537600444E+00 -0.4388816532018E+00
-0.1371544937549E+00 -0.1099677532565E+01 -0.2473664089500E+00 -0.4641337799403E+00
-0.1036089133945E+00 -0.1073578967166E+01 -0.2354375796203E+00 -0.4906388559196E+00
-0.5768863208140E-01 -0.1050413935842E+01 -0.2216205168870E+00 -0.5174553486928E+00
 0.2324099869687E-02 -0.1031317038647E+01 -0.2057985908222E+00 -0.5432558914534E+00
 0.7793177012000E-01 -0.1017411538660E+01 -0.1878959565079E+00 -0.5662768473687E+00
 0.1702651844059E+00 -0.1009710582944E+01 -0.1678890822094E+00 -0.5842917543441E+00
 0.2799079400209E+00 -0.1009000680622E+01 -0.1458185502931E+00 -0.5946249052452E+00
 0.4067238606873E+00 -0.1015721824978E+01 -0.1217995946731E+00 -0.5942218905078E+00
 0.5497221457396E+00 -0.1029860248664E+01 -0.9602762201574E-01 -0.5797893548143E+00
 0.7069699356396E+00 -0.1050863136596E+01 -0.6877864121614E-01 -0.5479991466328E+00
 0.8755657755696E+00 -0.1077599700772E+01 -0.4040678564261E-01 -0.4957452034489E+00
 0.1051713632210E+01 -0.1108394970413E+01 -0.1133626780943E-01 -0.4204303629435E+00
 0.1230900277648E+01 -0.1141136192958E+01  0.1795281720539E-01 -0.3202395576725E+00
 0.1408165447256E+01 -0.1173446489554E+01  0.4694379223984E-01 -0.1943550622178E+00
 0.1578405636119E+01 -0.1202901122294E+01  0.7510090388408E-01 -0.4310686395364E-01
-0.2970723520051E+00 -0.1238210396095E+01 -0.3070565541955E+00  0.3609515063441E-01
-0.2748936890699E+00 -0.1248060276537E+01 -0.3045907976601E+00 -0.2478705392269E-01
-0.2532829027118E+00 -0.1257609510688E+01 -0.3021784871828E+00 -0.7779552542865E-01
-0.2325239758475E+00 -0.1266663600170E+01 -0.2998375196715E+00 -0.1229883131736E+00
-0.2129143843322E+00 -0.1275011510635E+01 -0.2975851834277E+00 -0.1607348866951E+00
-0.1947612612727E+00 -0.1282427656204E+01 -0.2954377878976E+00 -0.1916550308855E+00
-0.1783673541149E+00 -0.1288680968094E+01 -0.2934096688139E+00 -0.2165416053059E+00
-0.1640111881835E+00 -0.1293547457138E+01 -0.2915117334081E+00 -0.2362817518592E+00
-0.1519268743778E+00 -0.1296822228062E+01 -0.2897498248056E+00 -0.2517871565873E+00
-0.1422875206918E+00 -0.1298328093056E+01 -0.2881231270430E+00 -0.2639401726420E+00
-0.1351941650865E+00 -0.1297919598462E+01 -0.2866227569807E+00 -0.2735580851604E+00
-0.1306702617330E+00 -0.1295482810448E+01 -0.2852306186864E+00 -0.2813742356221E+00
-0.1286603167043E+00 -0.1290932250280E+01 -0.2839185176276E+00 -0.2880327853279E+00
-0.1290306828650E+00 -0.1284206768903E+01 -0.2826474945653E+00 -0.2940930955889E+00
-0.1315705112862E+00 -0.1275266077915E+01 -0.2813673220329E+00 -0.3000398336859E+00
-0.1359912396260E+00 -0.1264089259807E+01 -0.2800161040591E+00 -0.3062955200500E+00
-0.1419236132562E+00 -0.1250676046099E+01 -0.2785199360212E+00 -0.3132329544173E+00
-0.1489115578850E+00 -0.1235051733585E+01 -0.2767926624185E+00 -0.3211854015584E+00
-0.1564033670621E+00 -0.1217274952869E+01 -0.2747356680800E+00 -0.3304534414040E+00
-0.1637403173188E+00 -0.1197448825834E+01 -0.2722378326873E+00 -0.3413072778045E+00
-0.1701436670155E+00 -0.1175735217190E+01 -0.2691757808522E+00 -0.3539832984722E+00
-0.1747018246508E+00 -0.1152370236071E+01 -0.2654144160993E+00 -0.3686750354700E+00
-0.1763591169724E+00 -0.1127680983552E+01 -0.2608080239912E+00 -0.3855172780278E+00
-0.1739084867692E+00 -0.1102098988390E+01 -0.2552014988346E+00 -0.4045637509511E+00
-0.1659897020586E+00 -0.1076160700431E+01 -0.2484300841999E+00 -0.4257593191582E+00
-0.1510990932205E+00 -0.1050515785547E+01 -0.2403229793346E+00 -0.4488988286766E+00
-0.1276183476568E+00 -0.1025945233371E+01 -0.2307127196435E+00 -0.4735775348213E+00
-0.9386470073710E-01 -0.1003359646281E+01 -0.2194448726737E+00 -0.4991359775173E+00
-0.4816475322991E-01 -0.9837706238798E+00 -0.2063870784974E+00 -0.5246029811639E+00
 0.1104632128672E-01 -0.9682367971154E+00 -0.1914380980184E+00 -0.5486422721650E+00
 0.8510046467132E-01 -0.9577873438416E+00 -0.1745373784349E+00 -0.5695107388159E+00
 0.1749506331166E+00 -0.9533268326114E+00 -0.1556752422187E+00 -0.5850398654707E+00
 0.2810115245123E+00 -0.9555273659700E+00 -0.1349031703018E+00 -0.5926547721961E+00
 0.4030089287493E+00 -0.9647246169231E+00 -0.1123431393088E+00 -0.5894457471604E+00
 0.5398708074494E+00 -0.9808303860766E+00 -0.8819191703962E-01 -0.5723028258750E+00
 0.6896655821068E+00 -0.1003263005920E+01 -0.6271948569716E-01 -0.5381070715170E+00
 0.8495948219442E+00 -0.1030920735442E+01 -0.3626518323995E-01 -0.4839670506729E+00
 0.1016073397132E+01 -0.1062222190018E+01 -0.9229758714886E-02 -0.4074802211929E+00
 0.1184895618719E+01 -0.1095206955443E+01  0.1793773292249E-01 -0.3069792472076E+00
 0.1351476094178E+01 -0.1127690059372E+01  0.4475720762803E-01 -0.1817225670133E+00
 0.1511108416588E+01 -0.1157446391186E+01  0.7073240613449E-01 -0.3202483399669E-01
-0.2727612007556E+00 -0.1134674855539E+01 -0.2814872154534E+00  0.3960711142416E-01
-0.2534949626316E+00 -0.1143310393231E+01 -0.2793610753354E+00 -0.2133620582376E-01
-0.2348377209108E+00 -0.1151730856476E+01 -0.2773137196097E+00 -0.7446337735850E-01
-0.2169476045452E+00 -0.1159817364165E+01 -0.2753529978452E+00 -0.1198401432971E+00
-0.2000153443614E+00 -0.1167418887437E+01 -0.2734868504350E+00 -0.1578457672911E+00
-0.1842686532379E+00 -0.1174349208853E+01 -0.2717235764671E+00 -0.1891079531276E+00
-0.1699611234858E+00 -0.1180395016615E+01 -0.2700712320446E+00 -0.2144228485150E+00
-0.1573505492339E+00 -0.1185331022958E+01 -0.2685363184398E+00 -0.2346752474785E+00
-0.1466735631895E+00 -0.1188936800409E+01 -0.2671220767002E+00 -0.2507694610196E+00
-0.1381223444626E+00 -0.1191011034590E+01 -0.2658266797717E+00 -0.2635770666168E+00
-0.1318268506774E+00 -0.1191380840502E+01 -0.2646415421794E+00 -0.2739030899449E+00
-0.1278435983022E+00 -0.1189905793523E+01 -0.2635498822922E+00 -0.2824687422821E+00
-0.1261500493101E+00 -0.1186477819595E+01 -0.2625255776930E+00 -0.2899071610561E+00
-0.1266426705062E+00 -0.1181018797172E+01 -0.2615322974328E+00 -0.2967680463339E+00
-0.1291364892300E+00 -0.1173477807923E+01 -0.2605228633127E+00 -0.3035273889103E+00
-0.1333642640559E+00 -0.1163829623517E+01 -0.2594387813805E+00 -0.3105991785123E+00
-0.1389740007453E+00 -0.1152075455149E+01 -0.2582098950264E+00 -0.3183467189468E+00
-0.1455239288080E+00 -0.1138246951970E+01 -0.2567541799815E+00 -0.3270915715693E+00
-0.1524752113704E+00 -0.1122412874822E+01 -0.2549776210379E+00 -0.3371192136583E+00
-0.1591824237780E+00 -0.1104688936207E+01 -0.2527742757637E+00 -0.3486802731684E+00
-0.1648826690227E+00 -0.1085250520660E+01 -0.2500266416623E+00 -0.3619862329813E+00
-0.1686850479383E+00 -0.1064346544539E+01 -0.2466063221702E+00 -0.3771999187552E+00
-0.1695619003731E+00 -0.1042314307066E+01 -0.2423752450996E+00 -0.3944196157260E+00
-0.1663440347022E+00 -0.1019590114468E+01 -0.2371868333683E+00 -0.4136574650545E+00
-0.1577212342221E+00 -0.9967039221038E+00 -0.2308850347056E+00 -0.4348133991971E+00
-0.1422545568249E+00 -0.9742847245922E+00 -0.2233078596110E+00 -0.4576365479624E+00
-0.1184081460566E+00 -0.9530807776332E+00 -0.2142977879312E+00 -0.4816790154019E+00
-0.8460189418595E-01 -0.9339581469215E+00 -0.2037120112570E+00 -0.5062455418506E+00
-0.3928622120654E-01 -0.9178702326934E+00 -0.1914312936325E+00 -0.5303428225705E+00
 0.1896026862895E-01 -0.9058018450840E+00 -0.1773683179340E+00 -0.5526335218628E+00
 0.9131163174628E-01 -0.8986927153941E+00 -0.1614762191357E+00 -0.5714020988232E+00
 0.1785582734514E+00 -0.8973459446195E+00 -0.1437575363758E+00 -0.5845426497729E+00
 0.2809626859649E+00 -0.9023282660160E+00 -0.1242731178620E+00 -0.5895815532693E+00
 0.3981287958979E+00 -0.9138808307199E+00 -0.1031504085015E+00 -0.5837483134812E+00
 0.5289164958128E+00 -0.9318499080333E+00 -0.8058668364494E-01 -0.5641039111407E+00
 0.6714028445481E+00 -0.9556311613044E+00 -0.5684566419833E-01 -0.5277192339423E+00
 0.8228915671523E+00 -0.9841537594936E+00 -0.3225243894885E-01 -0.4718929858824E+00
 0.9799980061312E+00 -0.1015926489275E+01 -0.7185696735731E-02 -0.3943915253740E+00
 0.1138803868556E+01 -0.1049132453288E+01  0.1793428332080E-01 -0.2936734049919E+00
 0.1295069683192E+01 -0.1081764880415E+01  0.4266096119112E-01 -0.1690600432693E+00
 0.1444450649169E+01 -0.1111780937086E+01  0.6653394340801E-01 -0.2084871452410E-01
-0.2484339288099E+00 -0.1031105906384E+01 -0.2559079708521E+00  0.4266006526658E-01
-0.2320658408616E+00 -0.1038535115579E+01 -0.2541201950748E+00 -0.1832516572392E-01
-0.2163453551026E+00 -0.1045837999747E+01 -0.2524366747314E+00 -0.7152156635959E-01
-0.2013025745356E+00 -0.1052972652817E+01 -0.2508550492086E+00 -0.1170072399903E+00
-0.1870211337972E+00 -0.1059848228619E+01 -0.2493738761992E+00 -0.1551784850621E+00
-0.1736505606990E+00 -0.1066317091558E+01 -0.2479935341468E+00 -0.1866792001322E+00
-0.1613974819965E+00 -0.1072182429962E+01 -0.2467159860681E+00 -0.2123166116372E+00
-0.1505013518230E+00 -0.1077216479861E+01 -0.2455435699957E+00 -0.2329793691153E+00
-0.1412033103755E+00 -0.1081182586582E+01 -0.2444771830345E+00 -0.2495685021569E+00
-0.1337158694999E+00 -0.1083855257285E+01 -0.2435142289856E+00 -0.2629467914384E+00
-0.1281984173410E+00 -0.1085034700508E+01 -0.2426466271854E+00 -0.2739072018332E+00
-0.1247404718612E+00 -0.1084554891701E+01 -0.2418590763165E+00 -0.2831577166116E+00
-0.1233520921862E+00 -0.1082286157576E+01 -0.2411276535456E+00 -0.2913185444402E+00
-0.1239594793210E+00 -0.1078134265115E+01 -0.2404187524697E+00 -0.2989274275621E+00
-0.1264033617167E+00 -0.1072038207681E+01 -0.2396883174511E+00 -0.3064493068031E+00
-0.1304380016783E+00 -0.1063968546588E+01 -0.2388813132128E+00 -0.3142874115973E+00
-0.1357292887377E+00 -0.1053927562737E+01 -0.2379313738405E+00 -0.3227936128496E+00
-0.1418508427863E+00 -0.1041952303083E+01 -0.2367606327018E+00 -0.3322762272740E+00
-0.1482782209389E+00 -0.1028120150615E+01 -0.2352796778168E+00 -0.3430045598065E+00
-0.1543811923828E+00 -0.1012557353796E+01 -0.2333877127135E+00 -0.3552091304051E+00
-0.1594148604595E+00 -0.9954502399538E+00 -0.2309730235244E+00 -0.3690765897642E+00
-0.1625112748827E+00 -0.9770574887498E+00 -0.2279137561227E+00 -0.3847398048668E+00
-0.1626729226626E+00 -0.9577231863864E+00 -0.2240792251488E+00 -0.4022620612303E+00
-0.1587701914529E+00 -0.9378848146136E+00 -0.2193310044816E+00 -0.4216162493456E+00
-0.1495438149796E+00 -0.9180623491149E+00 -0.2135212360006E+00 -0.4426605101129E+00
-0.1336193348441E+00 -0.8988610937734E+00 -0.2064960888005E+00 -0.4651022273348E+00
-0.1095414691151E+00 -0.8809943414180E+00 -0.1981071650587E+00 -0.4884553021939E+00
-0.7582874445879E-01 -0.8652825753455E+00 -0.1882222667656E+00 -0.5119946376368E+00
-0.3104879130113E-01 -0.8526215788123E+00 -0.1767340766562E+00 -0.5347115389224E+00
 0.2608578652772E-01 -0.8439249446695E+00 -0.1635678340657E+00 -0.5552745169893E+00
 0.9660326735737E-01 -0.8400477723260E+00 -0.1486889032094E+00 -0.5720016523686E+00
 0.1811456050383E+00 -0.8416985470594E+00 -0.1321105903728E+00 -0.5828534319395E+00
 0.2798378679238E+00 -0.8493468666224E+00 -0.1139018014370E+00 -0.5854573596409E+00
 0.3921757556307E+00 -0.8631478159550E+00 -0.9419441346847E-01 -0.5771766424205E+00
 0.5169614146635E+00 -0.8828893198994E+00 -0.7318558213774E-01 -0.5552313993422E+00
 0.6522853125518E+00 -0.9079488157077E+00 -0.5113270139313E-01 -0.5168642601689E+00
 0.7955508923687E+00 -0.9372869832526E+00 -0.2834721859920E-01 -0.4595413670813E+00
 0.9435637038057E+00 -0.9694991314558E+00 -0.5187085607305E-02 -0.3811742390756E+00
 0.1092674954851E+01 -0.1002904195476E+01  0.1795415214267E-01 -0.2803274198011E+00
 0.1238966048723E+01 -0.1035662219280E+01  0.4066076649451E-01 -0.1563739592438E+00
 0.1378422602181E+01 -0.1065897975197E+01  0.6250492632821E-01 -0.9593138166872E-02
-0.2240908148161E+00 -0.9274779048595E+00 -0.2303137473671E+00  0.4525554304544E-01
-0.2106184662782E+00 -0.9337040245795E+00 -0.2288645015819E+00 -0.1575144620601E-01
-0.1978286281678E+00 -0.9398969101481E+00 -0.2275451110539E+00 -0.6896576478540E-01
-0.1856200141318E+00 -0.9460936181423E+00 -0.2263427298276E+00 -0.1144830531853E+00
-0.1739681496478E+00 -0.9522638835720E+00 -0.2252464100004E+00 -0.1527243966422E+00
-0.1629455660841E+00 -0.9582976526995E+00 -0.2242486470983E+00 -0.1843585195042E+00
-0.1527145737139E+00 -0.9640128230783E+00 -0.2233454826866E+00 -0.2102116312275E+00
-0.1434994281785E+00 -0.9691773018034E+00 -0.2225353493124E+00 -0.2311823312183E+00
-0.1355485835434E+00 -0.9735368618392E+00 -0.2218170923819E+00 -0.2481722192353E+00
-0.1290968764217E+00 -0.9768412611789E+00 -0.2211876308161E+00 -0.2620369900657E+00
-0.1243341939379E+00 -0.9788639785549E+00 -0.2206396377863E+00 -0.2735575354382E+00
-0.1213833617247E+00 -0.9794140920747E+00 -0.2201594940405E+00 -0.2834274008886E+00
-0.1202868751941E+00 -0.9783412607037E+00 -0.2197256304537E+00 -0.2922519542433E+00
-0.1210003560634E+00 -0.9755360182582E+00 -0.2193072781323E+00 -0.3005547639739E+00
-0.1233900310527E+00 -0.9709278752829E+00 -0.2188635845284E+00 -0.3087874906594E+00
-0.1272317574399E+00 -0.9644833696013E+00 -0.2183430286618E+00 -0.3173405557507E+00
-0.1322097967129E+00 -0.9562055380905E+00 -0.2176830702044E+00 -0.3265526628162E+00
-0.1379140783934E+00 -0.9461359736650E+00 -0.2168100136424E+00 -0.3367175540919E+00
-0.1438358836961E+00 -0.9343592855034E+00 -0.2156390370532E+00 -0.3480875051062E+00
-0.1493618505494E+00 -0.9210103318924E+00 -0.2140744396783E+00 -0.3608726030754E+00
-0.1537669913092E+00 -0.9062839603520E+00 -0.2120101934914E+00 -0.3752349323177E+00
-0.1562082847973E+00 -0.8904457610717E+00 -0.2093308122931E+00 -0.3912783133846E+00
-0.1557201906139E+00 -0.8738434361274E+00 -0.2059127284166E+00 -0.4090326500876E+00
-0.1512140466782E+00 -0.8569123406579E+00 -0.2016252804717E+00 -0.4284339480072E+00
-0.1414820996912E+00 -0.8401593453667E+00 -0.1963282919371E+00 -0.4493016146131E+00
-0.1252137381167E+00 -0.8241634623363E+00 -0.1898754429200E+00 -0.4713050291079E+00
-0.1010319823897E+00 -0.8096012691903E+00 -0.1821266530299E+00 -0.4939244398018E+00
-0.6754963767978E-01 -0.7972471336131E+00 -0.1729593568359E+00 -0.5164102942102E+00
-0.2344475515809E-01 -0.7879402935353E+00 -0.1622770121568E+00 -0.5377444984023E+00
 0.3244538821923E-01 -0.7825260947780E+00 -0.1500161435472E+00 -0.5566074593807E+00
 0.1010148577212E+00 -0.7817799339694E+00 -0.1361530172785E+00 -0.5713560713764E+00
 0.1827701417645E+00 -0.7863222609509E+00 -0.1207104256360E+00 -0.5800202964040E+00
 0.2777119239996E+00 -0.7965330200953E+00 -0.1037642207653E+00 -0.5803282900528E+00
 0.3852390169847E+00 -0.8124884566952E+00 -0.8544988921541E-01 -0.5697716226397E+00
 0.5041035604543E+00 -0.8339237712740E+00 -0.6596404314688E-01 -0.5457185022728E+00
 0.6324118337644E+00 -0.8602010053638E+00 -0.4555783499874E-01 -0.5055664831995E+00
 0.7676631018054E+00 -0.8903117386393E+00 -0.2452972773230E-01 -0.4469279735437E+00
 0.9068430352387E+00 -0.9229338843577E+00 -0.3218169871767E-02 -0.3678373979153E+00
 0.1046556704354E+01 -0.9565156305684E+00  0.1800821502545E-01 -0.2669467352361E+00
 0.1183185281265E+01 -0.9893748194961E+00  0.3876209293141E-01 -0.1436707390284E+00
 0.1313017706819E+01 -0.1019791816896E+01  0.5864517885846E-01  0.1728425111272E-02
-0.1997323001617E+00 -0.8237646563889E+00 -0.2046993943604E+00  0.4739303657705E-01
-0.1891656188785E+00 -0.8287859522957E+00 -0.2035903172686E+00 -0.1361430449677E-01
-0.1793112969799E+00 -0.8338727138745E+00 -0.2026368051904E+00 -0.6679279059627E-01
-0.1699320521375E+00 -0.8391435972358E+00 -0.2018151328819E+00 -0.1122614124310E+00
-0.1608936537455E+00 -0.8446295032117E+00 -0.2011046343881E+00 -0.1504744840866E+00
-0.1521928669094E+00 -0.8502566755586E+00 -0.2004899114811E+00 -0.1821346943549E+00
-0.1439508986516E+00 -0.8558553239997E+00 -0.1999612475099E+00 -0.2080953386576E+00
-0.1363807785099E+00 -0.8611864543489E+00 -0.1995134495447E+00 -0.2292709635681E+00
-0.1297419382408E+00 -0.8659762654088E+00 -0.1991436436974E+00 -0.2465673079649E+00
-0.1242942567316E+00 -0.8699487011485E+00 -0.1988485945391E+00 -0.2608343590898E+00
-0.1202597143092E+00 -0.8728503795802E+00 -0.1986220217376E+00 -0.2728406469778E+00
-0.1177950755817E+00 -0.8744660379049E+00 -0.1984522256545E+00 -0.2832639052398E+00
-0.1169752699152E+00 -0.8746255688261E+00 -0.1983201707035E+00 -0.2926927057307E+00
-0.1177850619610E+00 -0.8732051927098E+00 -0.1981980538875E+00 -0.3016342868474E+00
-0.1201159257003E+00 -0.8701256216061E+00 -0.1980483124124E+00 -0.3105249313935E+00
-0.1237653010212E+00 -0.8653496521998E+00 -0.1978229935920E+00 -0.3197403824657E+00
-0.1284361682326E+00 -0.8588808664658E+00 -0.1974634098821E+00 -0.3296046418239E+00
-0.1337355160208E+00 -0.8507646608120E+00 -0.1969000383006E+00 -0.3403957554696E+00
-0.1391714857716E+00 -0.8410915946177E+00 -0.1960526189993E+00 -0.3523483193803E+00
-0.1441490420936E+00 -0.8300033471295E+00 -0.1948304807478E+00 -0.3656518616903E+00
-0.1479647756847E+00 -0.8177010256570E+00 -0.1931331631462E+00 -0.3804443466950E+00
-0.1498023134062E+00 -0.8044544729458E+00 -0.1908513601143E+00 -0.3968016087017E+00
-0.1487296298801E+00 -0.7906120711861E+00 -0.1878683430127E+00 -0.4147218808214E+00
-0.1437000806670E+00 -0.7766040289631E+00 -0.1840608246687E+00 -0.4341066575829E+00
-0.1335576687217E+00 -0.7629213127443E+00 -0.1792957989649E+00 -0.4547395613432E+00
-0.1170546653159E+00 -0.7501144087348E+00 -0.1734338173945E+00 -0.4762554532199E+00
-0.9288980426887E-01 -0.7388218353602E+00 -0.1663423304045E+00 -0.4981050609866E+00
-0.5976555254515E-01 -0.7297717430486E+00 -0.1579074614718E+00 -0.5195191757420E+00
-0.1646346835988E-01 -0.7237483012497E+00 -0.1480423561279E+00 -0.5394755735584E+00
 0.3806369835408E-01 -0.7215318740989E+00 -0.1366936371859E+00 -0.5566718168584E+00
 0.1045868569353E+00 -0.7238231595286E+00 -0.1238472623641E+00 -0.5695080678838E+00
 0.1834890083005E+00 -0.7311608915990E+00 -0.1095343782919E+00 -0.5760863234479E+00
 0.2746579236517E+00 -0.7438421616413E+00 -0.9383684899620E-01 -0.5742347737758E+00
 0.3774047942530E+00 -0.7618704918508E+00 -0.7689314066536E-01 -0.5615683717088E+00
 0.4904371265486E+00 -0.7849325472998E+00 -0.5889908502790E-01 -0.5355932381687E+00
 0.6118771893313E+00 -0.8123762866786E+00 -0.4009982006701E-01 -0.4938462799553E+00
 0.7393147267035E+00 -0.8432223566147E+00 -0.2078152629190E-01 -0.4340663052625E+00
 0.8699055398025E+00 -0.8762269676978E+00 -0.1264285597898E-02 -0.3543894056262E+00
 0.1000495173153E+01 -0.9099619929666E+00  0.1810663630701E-01 -0.2535371338688E+00
 0.1127747604709E+01 -0.9428965353759E+00  0.3697021441754E-01 -0.1309569610631E+00
 0.1248232113069E+01 -0.9734573328802E+00  0.5495495685660E-01  0.1310353534170E-01
-0.1753590350415E+00 -0.7199392833977E+00 -0.1790596663560E+00  0.4906989913338E-01
-0.1677208982761E+00 -0.7237488046709E+00 -0.1782939432462E+00 -0.1191480905136E-01
-0.1608183310992E+00 -0.7277295070209E+00 -0.1777095702721E+00 -0.6500061799532E-01
-0.1542721256958E+00 -0.7320849636150E+00 -0.1772714205037E+00 -0.1103364842406E+00
-0.1478360414404E+00 -0.7369079685264E+00 -0.1769488046301E+00 -0.1484192839858E+00
-0.1414324590558E+00 -0.7421594014157E+00 -0.1767183747276E+00 -0.1799954782925E+00
-0.1351453945792E+00 -0.7476786851131E+00 -0.1765648185695E+00 -0.2059538285442E+00
-0.1291815604360E+00 -0.7532165716639E+00 -0.1764796290497E+00 -0.2272307251693E+00
-0.1238159379064E+00 -0.7584770155888E+00 -0.1764585933285E+00 -0.2447392761165E+00
-0.1193368892592E+00 -0.7631566158777E+00 -0.1764987036574E+00 -0.2593247319403E+00
-0.1160005724012E+00 -0.7669747396287E+00 -0.1765950650374E+00 -0.2717426275159E+00
-0.1139985990844E+00 -0.7696922436449E+00 -0.1767381711795E+00 -0.2826532949164E+00
-0.1134384432890E+00 -0.7711201667985E+00 -0.1769117246537E+00 -0.2926264799735E+00
-0.1143337353934E+00 -0.7711214051628E+00 -0.1770910307501E+00 -0.3021509775332E+00
-0.1166008742835E+00 -0.7696086520836E+00 -0.1772419079145E+00 -0.3116457204968E+00
-0.1200587533848E+00 -0.7665413499719E+00 -0.1773200233136E+00 -0.3214700776572E+00
-0.1244292713452E+00 -0.7619235232676E+00 -0.1772705615641E+00 -0.3319320123417E+00
-0.1293370542787E+00 -0.7558037435044E+00 -0.1770281621945E+00 -0.3432929570320E+00
-0.1343080472119E+00 -0.7482773698323E+00 -0.1765170860392E+00 -0.3557693787423E+00
-0.1387667868700E+00 -0.7394912571639E+00 -0.1756516114242E+00 -0.3695303095507E+00
-0.1420328812977E+00 -0.7296506797118E+00 -0.1743367147997E+00 -0.3846902089171E+00
-0.1433180793683E+00 -0.7190272707119E+00 -0.1724690725860E+00 -0.4012981188922E+00
-0.1417251571119E+00 -0.7079673847100E+00 -0.1699385108966E+00 -0.4193223894025E+00
-0.1362502916883E+00 -0.6968933257509E+00 -0.1666287259708E+00 -0.4386323672780E+00
-0.1257892200076E+00 -0.6862776467438E+00 -0.1624133757704E+00 -0.4589787085917E+00
-0.1091558693795E+00 -0.6766403882521E+00 -0.1571592538682E+00 -0.4799649695066E+00
-0.8512185061791E-01 -0.6685810063600E+00 -0.1507405736418E+00 -0.5010160590971E+00
-0.5247447903692E-01 -0.6627816872997E+00 -0.1430512353989E+00 -0.5213473287162E+00
-0.1009182560250E-01 -0.6599733385536E+00 -0.1340130348282E+00 -0.5399369965134E+00
 0.4296695698254E-01 -0.6608748450857E+00 -0.1235815794621E+00 -0.5555043090700E+00
 0.1073602259975E+00 -0.6661172639610E+00 -0.1117514092579E+00 -0.5664965154828E+00
 0.1833585875480E+00 -0.6761637034332E+00 -0.9856102464571E-01 -0.5710898275822E+00
 0.2707469887024E+00 -0.6912346067105E+00 -0.8409752485476E-01 -0.5672118838594E+00
 0.3687564022700E+00 -0.7112659054208E+00 -0.6850190165091E-01 -0.5525965671914E+00
 0.4760528926645E+00 -0.7358986167437E+00 -0.5196914559023E-01 -0.5248787268663E+00
 0.5907727514414E+00 -0.7644664884007E+00 -0.3473874790951E-01 -0.4817203094174E+00
 0.7105893295077E+00 -0.7960161235508E+00 -0.1708535906320E-01 -0.4209678042346E+00
 0.8328184595530E+00 -0.8293771150079E+00  0.6882689192791E-03 -0.3408383201135E+00
 0.9545349626376E+00 -0.8632402606841E+00  0.1825894066277E-01 -0.2401051009505E+00
 0.1072673187711E+01 -0.8962220170809E+00  0.3529023465189E-01 -0.1182396624431E+00
 0.1184064253167E+01 -0.9268894165508E+00  0.5143496808970E-01  0.2452059755471E-01
-0.1509719324197E+00 -0.6159740859605E+00 -0.1533892059617E+00  0.5028121911220E-01
-0.1462989263181E+00 -0.6185593695733E+00 -0.1529716614577E+00 -0.1065592125383E-01
-0.1423762169953E+00 -0.6214301537764E+00 -0.1527612764307E+00 -0.6358838479654E-01
-0.1386753072670E+00 -0.6248789693791E+00 -0.1527108576048E+00 -0.1087027071100E+00
-0.1348351157048E+00 -0.6290613185287E+00 -0.1527792891233E+00 -0.1465487825975E+00
-0.1307053112371E+00 -0.6339705577959E+00 -0.1529351760855E+00 -0.1779274951463E+00
-0.1263375009787E+00 -0.6394513990729E+00 -0.1531577822926E+00 -0.2037717989755E+00
-0.1219380585990E+00 -0.6452401314244E+00 -0.1534356402911E+00 -0.2250457008312E+00
-0.1178030577662E+00 -0.6510151121644E+00 -0.1537636362774E+00 -0.2426724923315E+00
-0.1142535072056E+00 -0.6564436327127E+00 -0.1541394302805E+00 -0.2574931630735E+00
-0.1115822749647E+00 -0.6612172179258E+00 -0.1545599008812E+00 -0.2702492015918E+00
-0.1100169487241E+00 -0.6650732680425E+00 -0.1550180456633E+00 -0.2815816845850E+00
-0.1096977185035E+00 -0.6678049386721E+00 -0.1555005337523E+00 -0.2920394000091E+00
-0.1106667642532E+00 -0.6692628914657E+00 -0.1559859334681E+00 -0.3020906168307E+00
-0.1128649906909E+00 -0.6693526938025E+00 -0.1564435392299E+00 -0.3121350678237E+00
-0.1161324853515E+00 -0.6680309334822E+00 -0.1568326861037E+00 -0.3225142252356E+00
-0.1202101118696E+00 -0.6653020867403E+00 -0.1571024420630E+00 -0.3335188738234E+00
-0.1247405402387E+00 -0.6612173885747E+00 -0.1571915881050E+00 -0.3453931159746E+00
-0.1292682725791E+00 -0.6558759763636E+00 -0.1570288521285E+00 -0.3583350344179E+00
-0.1332384561465E+00 -0.6494283831320E+00 -0.1565333701882E+00 -0.3724934084224E+00
-0.1359949348384E+00 -0.6420821279943E+00 -0.1556154148854E+00 -0.3879599657929E+00
-0.1367788255289E+00 -0.6341083678843E+00 -0.1541774409801E+00 -0.4047582723648E+00
-0.1347287635196E+00 -0.6258489409817E+00 -0.1521155431670E+00 -0.4228286466713E+00
-0.1288843287605E+00 -0.6177157290065E+00 -0.1493200137784E+00 -0.4420106280855E+00
-0.1181927579479E+00 -0.6101606145373E+00 -0.1456706766677E+00 -0.4620245831534E+00
-0.1015282083138E+00 -0.6036715337458E+00 -0.1410399505136E+00 -0.4824456913823E+00
-0.7773214998235E-01 -0.5988081513229E+00 -0.1353080622773E+00 -0.5026763071201E+00
-0.4567179397324E-01 -0.5962072232058E+00 -0.1283758053487E+00 -0.5219199787896E+00
-0.4314682036385E-02 -0.5965484618166E+00 -0.1201726305613E+00 -0.5391592620672E+00
 0.4718258144218E-01 -0.6004929649646E+00 -0.1106620783535E+00 -0.5531389334966E+00
 0.1093760240381E+00 -0.6086072535321E+00 -0.9984624738662E-01 -0.5623565953463E+00
 0.1824342035881E+00 -0.6212847182295E+00 -0.8777010423616E-01 -0.5650645967550E+00
 0.2660481394814E+00 -0.6386748657221E+00 -0.7452534635867E-01 -0.5592896213847E+00
 0.3593743315994E+00 -0.6606503201059E+00 -0.6025519859916E-01 -0.5428807172897E+00
 0.4610385703821E+00 -0.6868081667107E+00 -0.4515391993858E-01 -0.5135933955334E+00
 0.5691870944055E+00 -0.7164664466295E+00 -0.2945587088372E-01 -0.4692016395425E+00
 0.6815682900679E+00 -0.7486932550988E+00 -0.1342499320622E-01 -0.4076419692245E+00
 0.7956474596231E+00 -0.7823857217534E+00  0.2652347613466E-02 -0.3271921017027E+00
 0.9087195016683E+00 -0.8163492235519E+00  0.1847405589856E-01 -0.2266582750029E+00
 0.1017981814716E+01 -0.8493464223064E+00  0.3372707898442E-01 -0.1055267851729E+00
 0.1120514281204E+01 -0.8800823925604E+00  0.4808637844525E-01  0.3596862829894E-01
-0.1265722314749E+00 -0.5118403929528E+00 -0.1276825267882E+00  0.5101966757404E-01
-0.1249155788147E+00 -0.5131831165791E+00 -0.1276197409805E+00 -0.9842591448541E-02
-0.1240132989527E+00 -0.5149360848346E+00 -0.1277898786617E+00 -0.6255639216077E-01
-0.1231786609842E+00 -0.5174856052828E+00 -0.1281328551627E+00 -0.1073546976197E+00
-0.1219323730951E+00 -0.5210507170466E+00 -0.1285966199446E+00 -0.1448522705898E+00
-0.1200535331309E+00 -0.5256544424917E+00 -0.1291415970489E+00 -0.1759160993915E+00
-0.1175672050836E+00 -0.5311418790811E+00 -0.1297418187662E+00 -0.2015324626076E+00
-0.1146866337171E+00 -0.5372296944853E+00 -0.1303832675833E+00 -0.2226985819196E+00
-0.1117355725501E+00 -0.5435665990584E+00 -0.1310604362747E+00 -0.2403502306586E+00
-0.1090725568188E+00 -0.5497882271255E+00 -0.1317721587524E+00 -0.2553240154070E+00
-0.1070300939571E+00 -0.5555575395315E+00 -0.1325175286724E+00 -0.2683458324912E+00
-0.1058730309445E+00 -0.5605889364321E+00 -0.1332923954615E+00 -0.2800353396088E+00
-0.1057744466139E+00 -0.5646587720865E+00 -0.1340866457381E+00 -0.2909181126319E+00
-0.1068046717955E+00 -0.5676066979599E+00 -0.1348822759610E+00 -0.3014398380171E+00
-0.1089285743348E+00 -0.5693321785199E+00 -0.1356521525923E+00 -0.3119793211776E+00
-0.1120070325389E+00 -0.5697895661621E+00 -0.1363593217721E+00 -0.3228587911801E+00
-0.1157997642454E+00 -0.5689839117210E+00 -0.1369567372341E+00 -0.3343509101776E+00
-0.1199677186862E+00 -0.5669687189063E+00 -0.1373872895657E+00 -0.3466819307688E+00
-0.1240745222397E+00 -0.5638460117207E+00 -0.1375841088422E+00 -0.3600314830544E+00
-0.1275867703235E+00 -0.5597686537298E+00 -0.1374710868592E+00 -0.3745285076259E+00
-0.1298735508062E+00 -0.5549446597567E+00 -0.1369636441535E+00 -0.3902429217334E+00
-0.1302063834611E+00 -0.5496426373105E+00 -0.1359698061804E+00 -0.4071742436712E+00
-0.1277606194838E+00 -0.5441976289267E+00 -0.1343916516847E+00 -0.4252366686323E+00
-0.1216196404494E+00 -0.5390087942264E+00 -0.1321256889040E+00 -0.4442422390637E+00
-0.1107817901612E+00 -0.5345053035503E+00 -0.1290574206654E+00 -0.4638835611264E+00
-0.9417989273680E-01 -0.5311415376079E+00 -0.1250642879325E+00 -0.4837100765122E+00
-0.7072214239463E-01 -0.5294368485868E+00 -0.1200317999849E+00 -0.5031044085643E+00
-0.3935060691208E-01 -0.5299833048364E+00 -0.1138667840465E+00 -0.5212613632949E+00
 0.8847655822920E-03 -0.5334116855247E+00 -0.1065053855755E+00 -0.5371710680159E+00
 0.5073877298765E-01 -0.5403291418119E+00 -0.9791807522393E-01 -0.5496070264374E+00
 0.1106750402354E+00 -0.5512428135001E+00 -0.8811355596593E-01 -0.5571199694372E+00
 0.1807698324068E+00 -0.5664821626656E+00 -0.7714246720126E-01 -0.5580401441425E+00
 0.2606281504122E+00 -0.5861310957907E+00 -0.6510059004579E-01 -0.5504931915781E+00
 0.3493363156139E+00 -0.6100025087067E+00 -0.5213323939540E-01 -0.5324403999587E+00
 0.4454791325629E+00 -0.6376502319229E+00 -0.3843422044470E-01 -0.5017511287367E+00
 0.5472066091178E+00 -0.6683738209510E+00 -0.2423344272775E-01 -0.4562997900474E+00
 0.6523316655685E+00 -0.7012569908600E+00 -0.9785065204111E-02 -0.3940963681394E+00
 0.7584575183516E+00 -0.7352572325935E+00  0.4640057220757E-02 -0.3134588179454E+00
 0.8630914930874E+00 -0.7692898776939E+00  0.1876032335825E-01 -0.2132060315772E+00
 0.9636925583536E+00 -0.8022653542911E+00  0.3228544129359E-01 -0.9282786914916E-01
 0.1057583559461E+01 -0.8330295015915E+00  0.4491081224321E-01  0.4743690831329E-01
-0.1021615711566E+00 -0.4075083946884E+00 -0.1019339946879E+00  0.5127531823224E-01
-0.1035882501831E+00 -0.4075839643076E+00 -0.1022344444215E+00 -0.9481868656826E-02
-0.1057601614601E+00 -0.4082070622568E+00 -0.1027934462751E+00 -0.6190609107350E-01
-0.1078216294972E+00 -0.4098634372490E+00 -0.1035370148921E+00 -0.1062871186327E+00
-0.1091712971330E+00 -0.4128364097679E+00 -0.1044015429359E+00 -0.1433181483053E+00
-0.1095205279330E+00 -0.4171750059336E+00 -0.1053391083430E+00 -0.1739451909129E+00
-0.1088750585526E+00 -0.4227186347113E+00 -0.1063187402370E+00 -0.1992174258812E+00
-0.1074636399515E+00 -0.4291581272693E+00 -0.1073243550434E+00 -0.2201706312336E+00
-0.1056454186852E+00 -0.4361077914521E+00 -0.1083506436420E+00 -0.2377547118871E+00
-0.1038220404266E+00 -0.4431689279438E+00 -0.1093981953042E+00 -0.2528010518711E+00
-0.1023689130040E+00 -0.4499751678174E+00 -0.1104688178104E+00 -0.2660178342446E+00
-0.1015895027706E+00 -0.4562184807652E+00 -0.1115615983696E+00 -0.2780007836950E+00
-0.1016898844131E+00 -0.4616596717692E+00 -0.1126699129154E+00 -0.2892498749163E+00
-0.1027680112076E+00 -0.4661287756882E+00 -0.1137793590746E+00 -0.3001861829167E+00
-0.1048120200920E+00 -0.4695203236068E+00 -0.1148664704514E+00 -0.3111659878668E+00
-0.1077030201573E+00 -0.4717871756302E+00 -0.1158980408845E+00 -0.3224911094537E+00
-0.1112193121500E+00 -0.4729351922316E+00 -0.1168309026172E+00 -0.3344153399836E+00
-0.1150401910715E+00 -0.4730198655289E+00 -0.1176120130726E+00 -0.3471467555003E+00
-0.1187487933434E+00 -0.4721453432523E+00 -0.1181788290802E+00 -0.3608466443801E+00
-0.1218338061785E+00 -0.4704656224716E+00 -0.1184598874952E+00 -0.3756246837805E+00
-0.1236903690642E+00 -0.4681876383364E+00 -0.1183756032440E+00 -0.3915300398203E+00
-0.1236212446073E+00 -0.4655755677132E+00 -0.1178393642200E+00 -0.4085397171870E+00
-0.1208391815785E+00 -0.4629555784861E+00 -0.1167589537528E+00 -0.4265437480604E+00
-0.1144716192373E+00 -0.4607120049238E+00 -0.1150367265464E+00 -0.4453289580557E+00
-0.1035675101384E+00 -0.4592494410815E+00 -0.1125633919213E+00 -0.4645625758641E+00
-0.8711670726356E-01 -0.4589874159940E+00 -0.1092208262790E+00 -0.4837706567796E+00
-0.6409093889595E-01 -0.4604045904210E+00 -0.1048991074265E+00 -0.5023184789515E+00
-0.3350205490639E-01 -0.4640492250649E+00 -0.9951025747708E-01 -0.5193945944210E+00
 0.5524656106250E-02 -0.4705055580118E+00 -0.9299618176686E-01 -0.5339992842858E+00
 0.5366418040712E-01 -0.4803307442721E+00 -0.8533331404457E-01 -0.5449373478232E+00
 0.1112974694967E+00 -0.4939777575720E+00 -0.7653605875554E-01 -0.5508149676654E+00
 0.1784178307843E+00 -0.5117178744695E+00 -0.6666000973037E-01 -0.5500419571107E+00
 0.2545513898593E+00 -0.5335744970889E+00 -0.5580462227749E-01 -0.5408432526675E+00
 0.3387173464987E+00 -0.5593038295991E+00 -0.4411729727748E-01 -0.5212904463018E+00
 0.4294570600610E+00 -0.5884162203507E+00 -0.3179183253168E-01 -0.4893613339935E+00
 0.5249160223630E+00 -0.6201887737494E+00 -0.1905455056123E-01 -0.4430206479669E+00
 0.6229590077887E+00 -0.6537135738326E+00 -0.6150913300425E-02 -0.3803364594645E+00
 0.7213138986978E+00 -0.6879995866714E+00  0.6662862504564E-02 -0.2996466715714E+00
 0.8176934451309E+00 -0.7220660838450E+00  0.1912547254217E-01 -0.1997601278676E+00
 0.9098232200132E+00 -0.7549749597306E+00  0.3096965251800E-01 -0.8015505659178E-01
 0.9952738261229E+00 -0.7857222775047E+00  0.4191031034816E-01  0.5891452279547E-01
-0.7774207961032E-01 -0.3029469539275E+00 -0.7613780784211E-01  0.5103542633013E-01
-0.8233616482132E-01 -0.3017240234131E+00 -0.7681203879148E-01 -0.9583029563251E-02
-0.8765007005035E-01 -0.3012009316023E+00 -0.7777020148940E-01 -0.6164005636394E-01
-0.9264646538570E-01 -0.3019694567699E+00 -0.7892318560717E-01 -0.1054945067754E+00
-0.9659766682736E-01 -0.3043777258938E+00 -0.8019507973924E-01 -0.1419336797319E+00
-0.9915113154326E-01 -0.3084960005143E+00 -0.8152942762640E-01 -0.1719969868333E+00
-0.1003021644886E+00 -0.3141505224803E+00 -0.8289053862894E-01 -0.1968065443727E+00
-0.1003053106493E+00 -0.3209988940380E+00 -0.8426084219304E-01 -0.2174416436969E+00
-0.9956403282251E-01 -0.3286155615864E+00 -0.8563592015786E-01 -0.2348671546143E+00
-0.9852934759365E-01 -0.3365645699224E+00 -0.8701878479990E-01 -0.2499075433351E+00
-0.9762307302991E-01 -0.3444495164582E+00 -0.8841451921510E-01 -0.2632505009335E+00
-0.9718863975024E-01 -0.3519407157535E+00 -0.8982587243926E-01 -0.2754649215934E+00
-0.9746508460185E-01 -0.3587849093785E+00 -0.9125000015579E-01 -0.2870226524724E+00
-0.9857727502035E-01 -0.3648041133989E+00 -0.9267627906483E-01 -0.2983181666285E+00
-0.1005357441530E+00 -0.3698892551362E+00 -0.9408500125982E-01 -0.3096837627236E+00
-0.1032411041422E+00 -0.3739925704214E+00 -0.9544673633499E-01 -0.3213998732732E+00
-0.1064898058386E+00 -0.3771210720497E+00 -0.9672217701895E-01 -0.3337008720463E+00
-0.1099793918536E+00 -0.3793320692561E+00 -0.9786229368022E-01 -0.3467765205208E+00
-0.1133127192234E+00 -0.3807311956946E+00 -0.9880878445597E-01 -0.3607700469415E+00
-0.1160010237112E+00 -0.3814725344624E+00 -0.9949471311729E-01 -0.3757725908876E+00
-0.1174661128290E+00 -0.3817605399866E+00 -0.9984533205094E-01 -0.3918137556266E+00
-0.1170426515821E+00 -0.3818532680245E+00 -0.9977918540815E-01 -0.4088496658020E+00
-0.1139813175019E+00 -0.3820661253680E+00 -0.9920949005232E-01 -0.4267482030230E+00
-0.1074537588224E+00 -0.3827666945854E+00 -0.9804409214253E-01 -0.4452732308510E+00
-0.9655898476439E-01 -0.3843332720096E+00 -0.9617845278797E-01 -0.4640688456296E+00
-0.8034222588199E-01 -0.3871493420215E+00 -0.9349831497394E-01 -0.4826397891646E+00
-0.5783556241922E-01 -0.3916525717843E+00 -0.8989762818028E-01 -0.5003359496463E+00
-0.2811556633511E-01 -0.3983483591656E+00 -0.8529278637111E-01 -0.5163415466549E+00
 0.9624180872682E-02 -0.4077768573137E+00 -0.7963053647479E-01 -0.5296689488042E+00
 0.5598760463015E-01 -0.4204492451737E+00 -0.7289232919488E-01 -0.5391561951213E+00
 0.1112826198982E+00 -0.4367696157095E+00 -0.6509740013228E-01 -0.5434668044128E+00
 0.1754286768518E+00 -0.4569568385098E+00 -0.5630563317062E-01 -0.5410917705875E+00
 0.2478796462920E+00 -0.4809788183005E+00 -0.4661983509639E-01 -0.5303561755216E+00
 0.3275896575218E+00 -0.5085377457124E+00 -0.3618961817739E-01 -0.5094411143038E+00
 0.4130525416246E+00 -0.5390994931556E+00 -0.2520939068185E-01 -0.4764289807407E+00
 0.5023988641566E+00 -0.5719136455127E+00 -0.1390295647839E-01 -0.4293663238627E+00
 0.5935302012209E+00 -0.6060721900606E+00 -0.2508397805309E-02 -0.3663652436078E+00
 0.6842833838829E+00 -0.6406248439278E+00  0.8731708121139E-02 -0.2857637693199E+00
 0.7725686336356E+00 -0.6746858501332E+00  0.1957655699220E-01 -0.1863353784818E+00
 0.8563897774582E+00 -0.7074726246406E+00  0.2978343100733E-01 -0.6752463707040E-01
 0.9335860909639E+00 -0.7381500463314E+00  0.3908720950894E-01  0.7038960184495E-01
-0.5331647982316E-01 -0.1981233852378E+00 -0.5028797376155E-01  0.5028417374307E-01
-0.6118074472059E-01 -0.1955632988897E+00 -0.5134880948721E-01 -0.1015772081463E-01
-0.6971948159964E-01 -0.1938733441398E+00 -0.5271856593346E-01 -0.6176193301095E-01
-0.7769871248005E-01 -0.1937589309706E+00 -0.5429152949913E-01 -0.1049710390377E+00
-0.8425987692355E-01 -0.1956331130230E+00 -0.5597859882345E-01 -0.1406846759968E+00
-0.8899172842578E-01 -0.1995811845181E+00 -0.5771458344879E-01 -0.1700517367671E+00
-0.9189012286023E-01 -0.2054070533140E+00 -0.5945943612087E-01 -0.1942777468721E+00
-0.9324760222969E-01 -0.2127263930694E+00 -0.6119479997168E-01 -0.2144898994528E+00
-0.9352215966937E-01 -0.2210676489884E+00 -0.6291796266911E-01 -0.2316678337225E+00
-0.9322107029479E-01 -0.2299545525084E+00 -0.6463512552378E-01 -0.2466263896310E+00
-0.9281621481155E-01 -0.2389601546156E+00 -0.6635527487420E-01 -0.2600292483368E+00
-0.9269220976678E-01 -0.2477342010054E+00 -0.6808528316898E-01 -0.2724151703951E+00
-0.9312079687779E-01 -0.2560111566164E+00 -0.6982639173934E-01 -0.2842252221160E+00
-0.9425281762268E-01 -0.2636068537613E+00 -0.7157193534329E-01 -0.2958253433923E+00
-0.9612012346986E-01 -0.2704101152492E+00 -0.7330604883615E-01 -0.3075225553788E+00
-0.9864192563490E-01 -0.2763735421555E+00 -0.7500309467571E-01 -0.3195751251931E+00
-0.1016322324596E+00 -0.2815057413717E+00 -0.7662759590809E-01 -0.3321976606356E+00
-0.1048065776870E+00 -0.2858657682411E+00 -0.7813447034991E-01 -0.3455616547560E+00
-0.1077875818619E+00 -0.2895602235423E+00 -0.7946956226503E-01 -0.3597927182749E+00
-0.1101093064769E+00 -0.2927423760838E+00 -0.8057033771273E-01 -0.3749643180241E+00
-0.1112206602900E+00 -0.2956129732947E+00 -0.8136672792939E-01 -0.3910878017171E+00
-0.1104887021995E+00 -0.2984224503168E+00 -0.8178223172191E-01 -0.4081001427583E+00
-0.1072024408652E+00 -0.3014737538191E+00 -0.8173524015481E-01 -0.4258491400786E+00
-0.1005778156730E+00 -0.3051159487486E+00 -0.8113875409340E-01 -0.4440779355111E+00
-0.8976333739517E-01 -0.3096994225916E+00 -0.7989255318785E-01 -0.4624096160007E+00
-0.7385801134158E-01 -0.3155704757296E+00 -0.7788569857481E-01 -0.4803294204148E+00
-0.5195115941095E-01 -0.3231254913205E+00 -0.7501533126410E-01 -0.4971733845813E+00
-0.2317908267072E-01 -0.3328279397947E+00 -0.7120140555406E-01 -0.5121227571088E+00
 0.1320335147710E-01 -0.3451763383013E+00 -0.6639459835420E-01 -0.5242032779182E+00
 0.5773775450521E-01 -0.3606399321495E+00 -0.6058043643157E-01 -0.5322875351469E+00
 0.1106686589229E+00 -0.3795792943211E+00 -0.5378212788107E-01 -0.5350978160065E+00
 0.1718507233364E+00 -0.4021667859178E+00 -0.4606321320267E-01 -0.5312078600207E+00
 0.2406719322256E+00 -0.4283199001270E+00 -0.3752959413950E-01 -0.5190443115325E+00
 0.3160226558546E+00 -0.4576893497232E+00 -0.2833333919592E-01 -0.4968982457987E+00
 0.3963436091080E+00 -0.4896949295647E+00 -0.1867026436956E-01 -0.4629546058213E+00
 0.4797378305238E+00 -0.5235525442364E+00 -0.8762942873104E-02 -0.4153349697237E+00
 0.5641261993244E+00 -0.5583446574620E+00  0.1156308389707E-02 -0.3521827268664E+00
 0.6474357321768E+00 -0.5931497351080E+00  0.1085719957555E-01 -0.2718173921330E+00
 0.7277627308425E+00 -0.6271634027328E+00  0.2011986592175E-01 -0.1729500793327E+00
 0.8034058880677E+00 -0.6597587300997E+00  0.2872943202170E-01 -0.5495935675772E-01
 0.8725188741975E+00 -0.6902996053310E+00  0.3644385431634E-01  0.8184798359090E-01
-0.2888821818673E-01 -0.9300319078424E-01 -0.2437828215746E-01  0.4900235977829E-01
-0.4014604783975E-01 -0.8905933162018E-01 -0.2584107627705E-01 -0.1122012160171E-01
-0.5200864038539E-01 -0.8617742916839E-01 -0.2763721432258E-01 -0.6227635287654E-01
-0.6302774502608E-01 -0.8518523689719E-01 -0.2964259682636E-01 -0.1047102308231E+00
-0.7220926649704E-01 -0.8656019366574E-01 -0.3175389250573E-01 -0.1395551031273E+00
-0.7909033308102E-01 -0.9039456730005E-01 -0.3389698058132E-01 -0.1680873840597E+00
-0.8368092181415E-01 -0.9645873583443E-01 -0.3602793206657E-01 -0.1916068386259E+00
-0.8632598665516E-01 -0.1043163050119E+00 -0.3812845890158E-01 -0.2112921241586E+00
-0.8754962381060E-01 -0.1134429531189E+00 -0.4019851598490E-01 -0.2281361614785E+00
-0.8792280014370E-01 -0.1233190546265E+00 -0.4224837158359E-01 -0.2429402668744E+00
-0.8797111825501E-01 -0.1334869492397E+00 -0.4429161415893E-01 -0.2563397783976E+00
-0.8812135292107E-01 -0.1435773287645E+00 -0.4633973702764E-01 -0.2688396075930E+00
-0.8867737970863E-01 -0.1533145377537E+00 -0.4839838421367E-01 -0.2808472855958E+00
-0.8981478983230E-01 -0.1625103258290E+00 -0.5046502388426E-01 -0.2926983794545E+00
-0.9158544681767E-01 -0.1710530839006E+00 -0.5252770692637E-01 -0.3046735224036E+00
-0.9392607586359E-01 -0.1788968804528E+00 -0.5456459207635E-01 -0.3170082516816E+00
-0.9666749545991E-01 -0.1860524442732E+00 -0.5654398878919E-01 -0.3298972663196E+00
-0.9954282468604E-01 -0.1925805937981E+00 -0.5842468456743E-01 -0.3434940158880E+00
-0.1021943318946E+00 -0.1985884884564E+00 -0.6015656496660E-01 -0.3579070860393E+00
-0.1041790093135E+00 -0.2042278258483E+00 -0.6168136795149E-01 -0.3731932613668E+00
-0.1049731234607E+00 -0.2096945956023E+00 -0.6293354475038E-01 -0.3893470494706E+00
-0.1039764597951E+00 -0.2152303060012E+00 -0.6384135411057E-01 -0.4062880927464E+00
-0.1005166496247E+00 -0.2211239304886E+00 -0.6432811698124E-01 -0.4238462371084E+00
-0.9385396901601E-01 -0.2277043989288E+00 -0.6431167454729E-01 -0.4417461449398E+00
-0.8318592118440E-01 -0.2352926611667E+00 -0.6369571741937E-01 -0.4595919175188E+00
-0.6766379386757E-01 -0.2441967013737E+00 -0.6237209997767E-01 -0.4768508628678E+00
-0.4643117815307E-01 -0.2547712758816E+00 -0.6024049170458E-01 -0.4928463038891E+00
-0.1867923482607E-01 -0.2674387766117E+00 -0.5722360314026E-01 -0.5067573298317E+00
 0.1628282087787E-01 -0.2826584475462E+00 -0.5327512612753E-01 -0.5176236808656E+00
 0.5894305430953E-01 -0.3008616057198E+00 -0.4838371100303E-01 -0.5243531440314E+00
 0.1094923946314E+00 -0.3223707324487E+00 -0.4257566819787E-01 -0.5257277129758E+00
 0.1677299521916E+00 -0.3473177799926E+00 -0.3591756609542E-01 -0.5204053523288E+00
 0.2329842419326E+00 -0.3755751786811E+00 -0.2851818777466E-01 -0.5069162725471E+00
 0.3040827665773E+00 -0.4067448047755E+00 -0.2053240794559E-01 -0.4836634077981E+00
 0.3794061798326E+00 -0.4401983907578E+00 -0.1215844236621E-01 -0.4489342699880E+00
 0.4570149922473E+00 -0.4751108151698E+00 -0.3619164638435E-02 -0.4009206060931E+00
 0.5348294441471E+00 -0.5105446300122E+00  0.4856962899362E-02 -0.3377853058873E+00
 0.6108451278344E+00 -0.5455955616500E+00  0.1304991343134E-01 -0.2578124937566E+00
 0.6833264735987E+00 -0.5795221103352E+00  0.2076087296207E-01 -0.1596255174160E+00
 0.7508827792536E+00 -0.6118405237572E+00  0.2780845151366E-01 -0.4249177855885E-01
 0.8120649416982E+00 -0.6421552983673E+00  0.3398192917256E-01  0.9327063581579E-01
-0.4461621833475E-02  0.1245025749616E-01  0.1597727156345E-02  0.4716703569132E-01
-0.1925930067644E-01  0.1783321536275E-01 -0.2852170669872E-03 -0.1278712286699E-01
-0.3456228588228E-01  0.2193655769004E-01 -0.2525145676077E-02 -0.6318880431035E-01
-0.4868738104988E-01  0.2380026678390E-01 -0.4977422927366E-02 -0.1047045413758E+00
-0.6050045809038E-01  0.2288407798561E-01 -0.7523276133059E-02 -0.1385265945743E+00
-0.6949663056538E-01  0.1909920840009E-01 -0.1007948458325E-01 -0.1660791650530E+00
-0.7571676760323E-01  0.1272243948149E-01 -0.1259886581209E-01 -0.1887672866186E+00
-0.7957518962571E-01  0.4253935812056E-02 -0.1506425098720E-01 -0.2078234650363E+00
-0.8167506801240E-01 -0.5721925722616E-02 -0.1747939900747E-01 -0.2242508004089E+00
-0.8265891401246E-01 -0.1663933183700E-01 -0.1985964946582E-01 -0.2388318079676E+00
-0.8310954657078E-01 -0.2801028213425E-01 -0.2222396607217E-01 -0.2521682704698E+00
-0.8349647609569E-01 -0.3944848726621E-01 -0.2458899303878E-01 -0.2647271375013E+00
-0.8415473124143E-01 -0.5067076395686E-01 -0.2696509944147E-01 -0.2768795944760E+00
-0.8528309377243E-01 -0.6148716790087E-01 -0.2935405277207E-01 -0.2889291322288E+00
-0.8695188574922E-01 -0.7178750001656E-01 -0.3174787762624E-01 -0.3011291032210E+00
-0.8911408004239E-01 -0.8152849559871E-01 -0.3412851563678E-01 -0.3136919808914E+00
-0.9161641233338E-01 -0.9072360103708E-01 -0.3646800321751E-01 -0.3267926209920E+00
-0.9420904394153E-01 -0.9943548670420E-01 -0.3872890670625E-01 -0.3405668269875E+00
-0.9655362755987E-01 -0.1077715610609E+00 -0.4086503833309E-01 -0.3551068887537E+00
-0.9823002644313E-01 -0.1158813317527E+00 -0.4282227227727E-01 -0.3704540093472E+00
-0.9874194914819E-01 -0.1239551563945E+00 -0.4453942177223E-01 -0.3865873671973E+00
-0.9752208685030E-01 -0.1322245084352E+00 -0.4594931974181E-01 -0.4034111813171E+00
-0.9393688725338E-01 -0.1409630642320E+00 -0.4697999099713E-01 -0.4207395447565E+00
-0.8729100010581E-01 -0.1504781436103E+00 -0.4755382945183E-01 -0.4382809064530E+00
-0.7683050455135E-01 -0.1610597902887E+00 -0.4757805967697E-01 -0.4556223371160E+00
-0.6175765096879E-01 -0.1729765052449E+00 -0.4694683194231E-01 -0.4722145799928E+00
-0.4126753374933E-01 -0.1865409603912E+00 -0.4556169950703E-01 -0.4873690137831E+00
-0.1460148988965E-01 -0.2021351515325E+00 -0.4334732893035E-01 -0.5002628456496E+00
 0.1888374865646E-01 -0.2201812373239E+00 -0.4025949833341E-01 -0.5099497847645E+00
 0.5963150322950E-01 -0.2410764970830E+00 -0.3628899931144E-01 -0.5153727701553E+00
 0.1077891019210E+00 -0.2651107879901E+00 -0.3146433768268E-01 -0.5153738755626E+00
 0.1631097501479E+00 -0.2923820184159E+00 -0.2585445403886E-01 -0.5086965989122E+00
 0.2248692947760E+00 -0.3227233743270E+00 -0.1957081620182E-01 -0.4939772807462E+00
 0.2918332174889E+00 -0.3556909172093E+00 -0.1277154013439E-01 -0.4697340959548E+00
 0.3623140786703E+00 -0.3906062536623E+00 -0.5658435082727E-02 -0.4343595020587E+00
 0.4343120465512E+00 -0.4265947222855E+00  0.1543464876135E-02 -0.3861130236128E+00
 0.5057238940212E+00 -0.4626866170987E+00  0.8607455512770E-02 -0.3231655147419E+00
 0.5745913018994E+00 -0.4979865540145E+00  0.1532094980528E-01 -0.2437493634835E+00
 0.6393201003420E+00 -0.5317981655618E+00  0.2150438727649E-01 -0.1463832109056E+00
 0.6988312078140E+00 -0.5637405641317E+00  0.2701812913905E-01 -0.3016867252202E-01
 0.7522048192439E+00 -0.5937010327141E+00  0.3170075777835E-01  0.1046277829716E+00
 0.1995790939788E-01  0.1182761140608E+00  0.2764680510370E-01  0.4475107341952E-01
 0.1448455842614E-02  0.1251630741097E+00  0.2532230636780E-01 -0.1487852052169E-01
-0.1743049071518E-01  0.1305216668501E+00  0.2261823556402E-01 -0.6450543458872E-01
-0.3473657131671E-01  0.1332483899404E+00  0.1970236401833E-01 -0.1049448581104E+00
-0.4919168943008E-01  0.1327432236511E+00  0.1671030709320E-01 -0.1375778462389E+00
-0.6026194792967E-01  0.1289344288952E+00  0.1373449639776E-01 -0.1639991384159E+00
-0.6803982636366E-01  0.1221624842027E+00  0.1082453172912E-01 -0.1857299905145E+00
-0.7302885507854E-01  0.1130046854998E+00  0.7995166203387E-02 -0.2040574903820E+00
-0.7592564604844E-01  0.1021131017365E+00  0.5237491215646E-02 -0.2199898135125E+00
-0.7745234072911E-01  0.9010209006746E-01  0.2529949905368E-02 -0.2342838169936E+00
-0.7825208964303E-01  0.7748886136486E-01 -0.1526456579098E-03 -0.2475015953828E+00
-0.7883715606623E-01  0.6467391821662E-01 -0.2832647612133E-02 -0.2600676688839E+00
-0.7957223178222E-01  0.5194488208022E-01 -0.5525470022735E-02 -0.2723140774221E+00
-0.8067734869685E-01  0.3949070365839E-01 -0.8237329130438E-02 -0.2845107265769E+00
-0.8223947417634E-01  0.2741817475310E-01 -0.1096426004803E-01 -0.2968830508978E+00
-0.8422638701980E-01  0.1576661953095E-01 -0.1369195370180E-01 -0.3096203753988E+00
-0.8649971530760E-01  0.4519233885860E-02 -0.1639609652867E-01 -0.3228779896993E+00
-0.8882599762424E-01 -0.6388645086670E-02 -0.1904292882594E-01 -0.3367746131153E+00
-0.9088587262862E-01 -0.1706444971435E-01 -0.2159006479031E-01 -0.3513870905859E+00
-0.9228185781999E-01 -0.2765501027045E-01 -0.2398737397553E-01 -0.3667422361916E+00
-0.9254501806395E-01 -0.3834435631972E-01 -0.2617787526681E-01 -0.3828054902625E+00
-0.9114097653536E-01 -0.4935302500732E-01 -0.2809880072724E-01 -0.3994676380847E+00
-0.8747510036766E-01 -0.6093827022845E-01 -0.2968267456153E-01 -0.4165293006793E+00
-0.8089646412263E-01 -0.7338447101270E-01 -0.3085618748686E-01 -0.4336850299365E+00
-0.7069944236720E-01 -0.8694934257170E-01 -0.3152975745761E-01 -0.4505067907680E+00
-0.5613616283466E-01 -0.1018606654416E+00 -0.3159936612611E-01 -0.4664299633566E+00
-0.3645073581789E-01 -0.1183883956256E+00 -0.3096782675015E-01 -0.4807544171215E+00
-0.1093024670760E-01 -0.1368745660354E+00 -0.2956096298910E-01 -0.4926552438562E+00
 0.2102772928200E-01 -0.1577061616995E+00 -0.2733568689084E-01 -0.5011994281800E+00
 0.5983059899302E-01 -0.1812500989834E+00 -0.2428390035993E-01 -0.5053642731875E+00
 0.1055924001486E+00 -0.2077690542652E+00 -0.2043533112783E-01 -0.5040516405390E+00
 0.1580306838220E+00 -0.2373335688838E+00 -0.1586057724870E-01 -0.4960915689955E+00
 0.2163762291693E+00 -0.2697440521164E+00 -0.1067356474846E-01 -0.4802295290799E+00
 0.2793336785877E+00 -0.3045145896950E+00 -0.5036182296506E-02 -0.4551039674397E+00
 0.3451388565554E+00 -0.3409146165752E+00  0.8448480086369E-03 -0.4192171776895E+00
 0.4117106926604E+00 -0.3780110187158E+00  0.6739934889349E-02 -0.3708974418421E+00
 0.4768945715560E+00 -0.4147853732696E+00  0.1242183984237E-01 -0.3083126292591E+00
 0.5387584428980E+00 -0.4503448749217E+00  0.1768271385876E-01 -0.2296214200904E+00
 0.5958200932197E+00 -0.4840412444386E+00  0.2235577008935E-01 -0.1332363278507E+00
 0.6472672812335E+00 -0.5155159614829E+00  0.2635026434277E-01 -0.1805565021964E-01
 0.6928962964490E+00 -0.5449240650824E+00  0.2959444671433E-01  0.1158664841140E+00
 0.4436366274167E-01  0.2245165560628E+00  0.5377604456222E-01  0.4172264143800E-01
 0.2194156816304E-01  0.2329829902697E+00  0.5098491244628E-01 -0.1751722539846E-01
-0.6696680654402E-03  0.2396347365015E+00  0.4779301439937E-01 -0.6623276855230E-01
-0.2124018328774E-01  0.2432122113322E+00  0.4439440627041E-01 -0.1054198336669E+00
-0.3834513286877E-01  0.2430609050196E+00  0.4094315504026E-01 -0.1366838800127E+00
-0.5143914088115E-01  0.2391436917622E+00  0.3754091073561E-01 -0.1618156527803E+00
-0.6069186610107E-01  0.2318847344756E+00  0.3423857418511E-01 -0.1824630637461E+00
-0.6671913455549E-01  0.2219535185949E+00  0.3104687727053E-01 -0.1999662426527E+00
-0.7032667764824E-01  0.2100775179737E+00  0.2795016848159E-01 -0.2153308796197E+00
-0.7232432138587E-01  0.1969211757916E+00  0.2491937125247E-01 -0.2292795399992E+00
-0.7341802044878E-01  0.1830287677218E+00  0.2192214978127E-01 -0.2423275700212E+00
-0.7416206445934E-01  0.1688114060825E+00  0.1892986860671E-01 -0.2548523183970E+00
-0.7494871013628E-01  0.1545575150609E+00  0.1592176122219E-01 -0.2671439829374E+00
-0.7601687934644E-01  0.1404520691818E+00  0.1288703815911E-01 -0.2794376406083E+00
-0.7746810798460E-01  0.1265963262992E+00  0.9825643809325E-02 -0.2919304699493E+00
-0.7928337640854E-01  0.1130243532175E+00  0.6748195462354E-02 -0.3047888318477E+00
-0.8133806743212E-01  0.9971533265444E-01  0.3675453099233E-02 -0.3181489410114E+00
-0.8341432920820E-01  0.8660244096934E-01  0.6376223617299E-03 -0.3321131494991E+00
-0.8521126828928E-01  0.7357838024353E-01 -0.2326577643819E-02 -0.3467438118361E+00
-0.8635369059442E-01  0.6049936250033E-01 -0.5170865695869E-02 -0.3620546157869E+00
-0.8639976135576E-01  0.4718820227186E-01 -0.7842311933640E-02 -0.3779989156568E+00
-0.8484790428858E-01  0.3343598191831E-01 -0.1028238462727E-01 -0.3944561267142E+00
-0.8114241789454E-01  0.1900278062725E-01 -0.1242792763865E-01 -0.4112157700195E+00
-0.7467688244490E-01  0.3628335575837E-02 -0.1420970958555E-01 -0.4279608982303E+00
-0.6479386245827E-01 -0.1291135952927E-01 -0.1554104462909E-01 -0.4442503110650E+00
-0.5079457332854E-01 -0.3080203064568E-01 -0.1631932103802E-01 -0.4595051147268E+00
-0.3197000717687E-01 -0.5027005899959E-01 -0.1644801348039E-01 -0.4730138187431E+00
-0.7648903165510E-02 -0.7161761490675E-01 -0.1585330385068E-01 -0.4839486910440E+00
 0.2273676864413E-01 -0.9519803157064E-01 -0.1449225280125E-01 -0.4913886428608E+00
 0.5956732852148E-01 -0.1213511899205E+00 -0.1235677246394E-01 -0.4943437650089E+00
 0.1029341878069E+00 -0.1503179004267E+00 -0.9476742665173E-02 -0.4917746276269E+00
 0.1525303348351E+00 -0.1821483124222E+00 -0.5923595605672E-02 -0.4825983085995E+00
 0.2075501998304E+00 -0.2166174027244E+00 -0.1813440605810E-02 -0.4656727038631E+00
 0.2666400048777E+00 -0.2532022175420E+00  0.2687557507191E-02 -0.4397630298627E+00
 0.3279490694027E+00 -0.2911190338724E+00  0.7366007215829E-02 -0.4034898590487E+00
 0.3892936136522E+00 -0.3293650804701E+00  0.1198570681503E-01 -0.3552532442926E+00
 0.4484277554866E+00 -0.3668589491780E+00  0.1631376150482E-01 -0.2932142734778E+00
 0.5034299071771E+00 -0.4026821061274E+00  0.2014956051019E-01 -0.2154173256823E+00
 0.5529238298356E+00 -0.4363019225592E+00  0.2332438180283E-01 -0.1201715891285E+00
 0.5962395734161E+00 -0.4672943219459E+00  0.2578905067831E-01 -0.6229817862423E-02
 0.6340286592515E+00 -0.4958454876714E+00  0.2763663472782E-01  0.1268697645504E+00
 0.6874731462544E-01  0.3312174240495E+00  0.7999294892698E-01  0.3804459284512E-01
 0.4217877775495E-01  0.3413504696927E+00  0.7670585063253E-01 -0.2072947169532E-01
 0.1565621530589E-01  0.3493369515894E+00  0.7299863446683E-01 -0.6837730008708E-01
-0.8269888156887E-02  0.3537471265032E+00  0.6909544869886E-01 -0.1061150159714E+00
-0.2802717643792E-01  0.3538804218718E+00  0.6517065005788E-01 -0.1358151360496E+00
-0.4308235841222E-01  0.3497570970184E+00  0.6133494863521E-01 -0.1594927419927E+00
-0.5371377028569E-01  0.3419090242277E+00  0.5763905164730E-01 -0.1789316314657E+00
-0.6067618713690E-01  0.3311145763971E+00  0.5408767865802E-01 -0.1955203553618E+00
-0.6490126267604E-01  0.3181840112172E+00  0.5065655046307E-01 -0.2102515779789E+00
-0.6729416548741E-01  0.3038321551299E+00  0.4730759863344E-01 -0.2238029880769E+00
-0.6862516731690E-01  0.2886268965106E+00  0.4400034649440E-01 -0.2366352421182E+00
-0.6948891575883E-01  0.2729853836137E+00  0.4069929417744E-01 -0.2490736262593E+00
-0.7030243300656E-01  0.2571926332360E+00  0.3737804060287E-01 -0.2613640229059E+00
-0.7132072433584E-01  0.2414263893057E+00  0.3402113350093E-01 -0.2737057865537E+00
-0.7265756089594E-01  0.2257801597178E+00  0.3062452022071E-01 -0.2862678474449E+00
-0.7430537838782E-01  0.2102814340482E+00  0.2719521153732E-01 -0.2991940746699E+00
-0.7615208830961E-01  0.1949047455253E+00  0.2375053179705E-01 -0.3126023139991E+00
-0.7799460108707E-01  0.1795809420073E+00  0.2031726848679E-01 -0.3265794102963E+00
-0.7954987132393E-01  0.1642029723008E+00  0.1693062044767E-01 -0.3411742652307E+00
-0.8046448732474E-01  0.1486303445468E+00  0.1363317164756E-01 -0.3563887472719E+00
-0.8032328595037E-01  0.1326930519471E+00  0.1047395335542E-01 -0.3721658137456E+00
-0.7865719113367E-01  0.1161942460122E+00  0.7507411087583E-02 -0.3883756354460E+00
-0.7494934424592E-01  0.9891201059980E-01  0.4792533342191E-02 -0.4047991061491E+00
-0.6863794877133E-01  0.8061119659124E-01  0.2394649599664E-02 -0.4211102929989E+00
-0.5911386192398E-01  0.6110283654604E-01  0.3977949303397E-03 -0.4368568408885E+00
-0.4572695189101E-01  0.4024470481891E-01 -0.1096449430760E-02 -0.4514466209709E+00
-0.2781338871821E-01  0.1785512581862E-01 -0.1991652609595E-02 -0.4641567081592E+00
-0.4739889448743E-02 -0.6327893633348E-02 -0.2213556649403E-02 -0.4741554137943E+00
 0.2403332061961E-01 -0.3262504055018E-01 -0.1718344011720E-02 -0.4805315938167E+00
 0.5886823535470E-01 -0.6135197656979E-01 -0.4967482504197E-03 -0.4823257232026E+00
 0.9984467883412E-01 -0.9273266496469E-01  0.1422402795082E-02 -0.4785550678919E+00
 0.1466431368928E+00 -0.1268040745005E+00  0.3967812537573E-02 -0.4682234889619E+00
 0.1984321483724E+00 -0.1633240795318E+00  0.7021613872757E-02 -0.4503045359017E+00
 0.2538032130933E+00 -0.2017393853533E+00  0.1041276570315E-01 -0.4236982994693E+00
 0.3108114106485E+00 -0.2412131252945E+00  0.1391965727822E-01 -0.3871549433040E+00
 0.3671396583646E+00 -0.2806628158269E+00  0.1729536876526E-01 -0.3391567161728E+00
 0.4204251075819E+00 -0.3189185031752E+00  0.2030132118386E-01 -0.2778459695441E+00
 0.4686618037473E+00 -0.3550332739735E+00  0.2272570629340E-01 -0.2011512775012E+00
 0.5107612767660E+00 -0.3885215385232E+00  0.2444794801286E-01 -0.1071056136896E+00
 0.5458571557188E+00 -0.4194035982439E+00  0.2529071187184E-01  0.5252087963916E-02
 0.5754420102361E+00 -0.4465227864074E+00  0.2578384514995E-01  0.1373919093480E+00
 0.9309857133292E-01  0.4384291032724E+00  0.1063055365051E+00  0.3367375276541E-01
 0.6211197389171E-01  0.4503286309706E+00  0.1024881224996E+00 -0.2454502095244E-01
 0.3147418301855E-01  0.4596945737858E+00  0.9823375282468E-01 -0.7094493566631E-01
 0.4094835339170E-02  0.4649108217323E+00  0.9380113281205E-01 -0.1070117067909E+00
-0.1830862091944E-01  0.4652440376706E+00  0.8938708468221E-01 -0.1349363804562E+00
-0.3524663988531E-01  0.4608012528782E+00  0.8511092386683E-01 -0.1569894644745E+00
-0.4714488939637E-01  0.4522507548643E+00  0.8102117430089E-01 -0.1750976844800E+00
-0.5492757789332E-01  0.4404979153914E+00  0.7711406864871E-01 -0.1906892717955E+00
-0.5966985577814E-01  0.4264422296306E+00  0.7335447586356E-01 -0.2047297690964E+00
-0.6237900902627E-01  0.4108474236737E+00  0.6969368396800E-01 -0.2178393277448E+00
-0.6388980718312E-01  0.3942999250745E+00  0.6608202456297E-01 -0.2304152120044E+00
-0.6483444048682E-01  0.3772172579478E+00  0.6247656442317E-01 -0.2427257866026E+00
-0.6565111645842E-01  0.3598762475633E+00  0.5884502709783E-01 -0.2549705177126E+00
-0.6660766107104E-01  0.3424439286340E+00  0.5516725433464E-01 -0.2673125870388E+00
-0.6782751115983E-01  0.3250038095538E+00  0.5143526044525E-01 -0.2798930776622E+00
-0.6931269917612E-01  0.3075755286219E+00  0.4765256659923E-01 -0.2928341439981E+00
-0.7096238097653E-01  0.2901283917524E+00  0.4383320280833E-01 -0.3062361816450E+00
-0.7258732957037E-01  0.2725907825003E+00  0.4000069118204E-01 -0.3201715174037E+00
-0.7392164710175E-01  0.2548559871675E+00  0.3618686855237E-01 -0.3346766972253E+00
-0.7463306834177E-01  0.2367869674397E+00  0.3243078030283E-01 -0.3497430915289E+00
-0.7433249568443E-01  0.2182210480890E+00  0.2877771090973E-01 -0.3653049564607E+00
-0.7258286623809E-01  0.1989736474703E+00  0.2527815662311E-01 -0.3812253872666E+00
-0.6890595543113E-01  0.1788412536383E+00  0.2198705996907E-01 -0.3972792298211E+00
-0.6278474016375E-01  0.1576146145672E+00  0.1896597516331E-01 -0.4131342320407E+00
-0.5365870702453E-01  0.1351410571852E+00  0.1629647027498E-01 -0.4283290254099E+00
-0.4092635306898E-01  0.1113234125543E+00  0.1407941210686E-01 -0.4422593083562E+00
-0.2396783022653E-01  0.8602614500240E-01  0.1241166314012E-01 -0.4541904986407E+00
-0.2184667789452E-02  0.5902824383291E-01  0.1136871537810E-01 -0.4632854646450E+00
 0.2494038067401E-01  0.3004131417090E-01  0.1099633913284E-01 -0.4686404381753E+00
 0.5775957789998E-01 -0.1228188801729E-02  0.1130627798813E-01 -0.4693230265097E+00
 0.9635251001568E-01 -0.3499186986307E-01  0.1227212821339E-01 -0.4644040999995E+00
 0.1404003705610E+00 -0.7128078127137E-01  0.1382391806392E-01 -0.4529729595942E+00
 0.1890581875891E+00 -0.1098451399509E+00  0.1584260976372E-01 -0.4341215865885E+00
 0.2408696039024E+00 -0.1501100870644E+00  0.1815190363807E-01 -0.4068941027831E+00
 0.2937867064156E+00 -0.1911883876891E+00  0.2051966405108E-01 -0.3701859029457E+00
 0.3453357526927E+00 -0.2319062758993E+00  0.2268589569673E-01 -0.3225754859086E+00
 0.3929623035514E+00 -0.2709821311331E+00  0.2439603484719E-01 -0.2621911624354E+00
 0.4346240645849E+00 -0.3073975149461E+00  0.2544531030692E-01 -0.1867854814480E+00
 0.4690954250018E+00 -0.3407760366352E+00  0.2566387805574E-01 -0.9417236135287E-01
 0.4970944220168E+00 -0.3714098921632E+00  0.2513690634529E-01  0.1708060425458E-01
 0.5154598115179E+00 -0.3992712007094E+00  0.2323772250798E-01  0.1460846324095E+00
 0.1174055329298E+00  0.5462100098602E+00  0.1327231105357E+00  0.2856226680324E-01
 0.8168719558218E-01  0.5600007076357E+00  0.1283375825560E+00 -0.2899668521153E-01
 0.4670327674429E-01  0.5708015137994E+00  0.1235009599491E+00 -0.7393891254214E-01
 0.1576886074477E-01  0.5767940888243E+00  0.1185125916798E+00 -0.1080840291693E+00
-0.9261524529681E-02  0.5772319316799E+00  0.1135940831227E+00 -0.1340032042601E+00
-0.2798405308707E-01  0.5723466479973E+00  0.1088725206044E+00 -0.1542561253150E+00
-0.4101893231220E-01  0.5629768820447E+00  0.1043915915021E+00 -0.1709159470796E+00
-0.4949418609669E-01  0.5501740524780E+00  0.1001359747684E+00 -0.1854365223398E+00
-0.5464624319032E-01  0.5349316067798E+00  0.9605707414926E-01 -0.1987380730425E+00
-0.5758977835987E-01  0.5180582656790E+00  0.9209369883613E-01 -0.2113684645675E+00
-0.5922249334287E-01  0.5001519690033E+00  0.8818589644615E-01 -0.2236523245827E+00
-0.6020996061981E-01  0.4816237679445E+00  0.8428276272086E-01 -0.2357965011410E+00
-0.6100715278316E-01  0.4627369463194E+00  0.8034595990449E-01 -0.2479524738561E+00
-0.6189100432723E-01  0.4436441650005E+00  0.7635063327236E-01 -0.2602473245423E+00
-0.6299184267497E-01  0.4244166816234E+00  0.7228496886681E-01 -0.2727951076323E+00
-0.6431936347842E-01  0.4050650715381E+00  0.6814914262743E-01 -0.2856973357523E+00
-0.6578266472133E-01  0.3855528984285E+00  0.6395404769443E-01 -0.2990380585401E+00
-0.6720547311180E-01  0.3658059758692E+00  0.5972010144138E-01 -0.3128761641471E+00
-0.6833830286697E-01  0.3457179923974E+00  0.5547593873274E-01 -0.3272369502293E+00
-0.6886931427926E-01  0.3251554154736E+00  0.5125722100266E-01 -0.3421025670453E+00
-0.6843473136100E-01  0.3039628540062E+00  0.4710562523096E-01 -0.3574002127337E+00
-0.6662886892930E-01  0.2819679070660E+00  0.4306780826911E-01 -0.3729880730549E+00
-0.6301186033611E-01  0.2589855557701E+00  0.3919473967085E-01 -0.3886376154716E+00
-0.5711173268691E-01  0.2348329871777E+00  0.3554425142781E-01 -0.4040131066020E+00
-0.4841732382058E-01  0.2093950142816E+00  0.3219553857195E-01 -0.4186464799570E+00
-0.3637634597746E-01  0.1826212538508E+00  0.2924898201050E-01 -0.4319223965434E+00
-0.2041247029374E-01  0.1544241595786E+00  0.2680233825637E-01 -0.4430942968028E+00
 0.4038670518797E-04  0.1246251634731E+00  0.2493311040719E-01 -0.4513178218471E+00
 0.2548203428802E-01  0.9296869077598E-01  0.2369014536581E-01 -0.4556934833236E+00
 0.5626322145737E-01  0.5918223127074E-01  0.2308909088968E-01 -0.4553119575567E+00
 0.9247482602748E-01  0.2306294497105E-01  0.2310755454404E-01 -0.4492935030170E+00
 0.1338130578483E+00 -0.1542132332077E-01  0.2367834725835E-01 -0.4368102532784E+00
 0.1794344346173E+00 -0.5602359774890E-01  0.2468216774148E-01 -0.4170746365878E+00
 0.2278443579909E+00 -0.9815902376347E-01  0.2593706723197E-01 -0.3892850651686E+00
 0.2768885754227E+00 -0.1408957621772E+00  0.2719856305441E-01 -0.3525020673993E+00
 0.3238988143504E+00 -0.1829600551312E+00  0.2818775226386E-01 -0.3054236724401E+00
 0.3660943503408E+00 -0.2229236703933E+00  0.2863413641618E-01 -0.2461712802197E+00
 0.4012027383983E+00 -0.2596641608560E+00  0.2830771593028E-01 -0.1722899530650E+00
 0.4283693485718E+00 -0.2928590061875E+00  0.2710206888072E-01 -0.8124600137780E-01
 0.4475305126654E+00 -0.3232700684302E+00  0.2485208921737E-01  0.2882206009158E-01
 0.4629588016793E+00 -0.3522477040343E+00  0.2214221985894E-01  0.1565877840506E+00
 0.1416523570083E+00  0.6546228360618E+00  0.1592550409871E+00  0.2264643446387E-01
 0.1008376420659E+00  0.6704459359322E+00  0.1542567178982E+00 -0.3412509406158E-01
 0.6124649652795E-01  0.6827369500980E+00  0.1487966915424E+00 -0.7736434988935E-01
 0.2665339269885E-01  0.6894589431407E+00  0.1432224693021E+00 -0.1093033379994E+00
-0.9662029401182E-03  0.6898812848836E+00  0.1377830184418E+00 -0.1329679948934E+00
-0.2135006766501E-01  0.6844088680157E+00  0.1326117620462E+00 -0.1512427028805E+00
-0.3537035174853E-01  0.6740904440624E+00  0.1277440203663E+00 -0.1663448717745E+00
-0.4439707017015E-01  0.6601426250367E+00  0.1231491128084E+00 -0.1797329351330E+00
-0.4984507084575E-01  0.6436546566140E+00  0.1187619189233E+00 -0.1922588549446E+00
-0.5293939968898E-01  0.6254731651877E+00  0.1145067548060E+00 -0.2043814549350E+00
-0.5463692451701E-01  0.6061983210618E+00  0.1103122809527E+00 -0.2163432767203E+00
-0.5563092542486E-01  0.5862266604719E+00  0.1061191485907E+00 -0.2282856373376E+00
-0.5638786818430E-01  0.5658021292955E+00  0.1018828537404E+00 -0.2403112027981E+00
-0.5718968309625E-01  0.5450593060210E+00  0.9757392603892E-01 -0.2525116700324E+00
-0.5817066667214E-01  0.5240550698828E+00  0.9317688203057E-01 -0.2649753601253E+00
-0.5934622002499E-01  0.5027898851532E+00  0.8868873434721E-01 -0.2777845413657E+00
-0.6063410014729E-01  0.4812212036263E+00  0.8411742194924E-01 -0.2910082225606E+00
-0.6187009456265E-01  0.4592722642292E+00  0.7948043511766E-01 -0.3046930305700E+00
-0.6282036843057E-01  0.4368372598850E+00  0.7480337940555E-01 -0.3188541339880E+00
-0.6319268537351E-01  0.4137861626501E+00  0.7011869650017E-01 -0.3334656876890E+00
-0.6264765691432E-01  0.3899706449070E+00  0.6546459857404E-01 -0.3484494074195E+00
-0.6081009307272E-01  0.3652301038602E+00  0.6088400306473E-01 -0.3636607273637E+00
-0.5727800841429E-01  0.3393977333877E+00  0.5642394583546E-01 -0.3788705237500E+00
-0.5162473809238E-01  0.3123173652669E+00  0.5213852621183E-01 -0.3937426670847E+00
-0.4338944805235E-01  0.2839123043699E+00  0.4810457198033E-01 -0.4078050054237E+00
-0.3207016672191E-01  0.2541807287372E+00  0.4442211306500E-01 -0.4204325241722E+00
-0.1713428411593E-01  0.2230852431986E+00  0.4119019243031E-01 -0.4308664319459E+00
 0.1953625780928E-02  0.1904917932775E+00  0.3848908438521E-01 -0.4382532194619E+00
 0.2568038681722E-01  0.1561790950457E+00  0.3637189691456E-01 -0.4416941788000E+00
 0.5440300943339E-01  0.1198958258506E+00  0.3485976757624E-01 -0.4402981939710E+00
 0.8823524969084E-01  0.8144558794505E-01  0.3393616803287E-01 -0.4332293416169E+00
 0.1269038455561E+00  0.4078881551661E-01  0.3353853271430E-01 -0.4197380891135E+00
 0.1695845733723E+00 -0.1841637609428E-02  0.3354858765250E-01 -0.3991574565786E+00
 0.2147597194908E+00 -0.4586555888949E-01  0.3377883262361E-01 -0.3708502145650E+00
 0.2601672936447E+00 -0.9031784120566E-01  0.3396989099400E-01 -0.3340655796003E+00
 0.3029189986193E+00 -0.1338178618534E+00  0.3382022785713E-01 -0.2876549390614E+00
 0.3399077765762E+00 -0.1747586312191E+00  0.3302982956360E-01 -0.2297483627940E+00
 0.3686419172783E+00 -0.2118376694017E+00  0.3136085004263E-01 -0.1576723779962E+00
 0.3880827421272E+00 -0.2447972116547E+00  0.2865710652152E-01 -0.6832872047581E-01
 0.3996520568367E+00 -0.2746734053039E+00  0.2499573067902E-01  0.4030614508509E-01
 0.4047510845526E+00 -0.3048601890591E+00  0.1997817939640E-01  0.1695427137977E+00
 0.1658183358056E+00  0.7637356131630E+00  0.1859107925640E+00  0.1586096202917E-01
 0.1194805081242E+00  0.7817407089287E+00  0.1802442460964E+00 -0.3997037405740E-01
 0.7498769510748E-01  0.7955654600190E+00  0.1741106336198E+00 -0.8121660024537E-01
 0.3663487141954E-01  0.8029371698074E+00  0.1679144107475E+00 -0.1106257993638E+00
 0.6489992609656E-02  0.8031838342576E+00  0.1619347677865E+00 -0.1317682734199E+00
-0.1540092317504E-01  0.7969462473451E+00  0.1563090671632E+00 -0.1478887333697E+00
-0.3023134985815E-01  0.7855290433015E+00  0.1510595409396E+00 -0.1613379025447E+00
-0.3965472290182E-01  0.7703318272892E+00  0.1461354230551E+00 -0.1735487485991E+00
-0.4527952750446E-01  0.7525371132513E+00  0.1414515192572E+00 -0.1852767596100E+00
-0.4844086689445E-01  0.7330183184662E+00  0.1369154923545E+00 -0.1968732720725E+00
-0.5014830145869E-01  0.7123660837992E+00  0.1324435584417E+00 -0.2084896036668E+00
-0.5111547870727E-01  0.6909532973611E+00  0.1279675656376E+00 -0.2201985114216E+00
-0.5181425017725E-01  0.6689985233042E+00  0.1234368564647E+00 -0.2320540021900E+00
-0.5252709488967E-01  0.6466146945754E+00  0.1188175217077E+00 -0.2441138614283E+00
-0.5338927554423E-01  0.6238424571692E+00  0.1140906380251E+00 -0.2564424969354E+00
-0.5441996525369E-01  0.6006713912488E+00  0.1092502868270E+00 -0.2691046714064E+00
-0.5554434967161E-01  0.5770526981293E+00  0.1043016712458E+00 -0.2821558636537E+00
-0.5660942019522E-01  0.5529072119709E+00  0.9925955983422E-01 -0.2956317153372E+00
-0.5739621403885E-01  0.5281298380465E+00  0.9414672620444E-01 -0.3095383873837E+00
-0.5763116227899E-01  0.5025940588724E+00  0.8899258064477E-01 -0.3238431872197E+00
-0.5699808647401E-01  0.4761582540291E+00  0.8383203476022E-01 -0.3384638138953E+00
-0.5515105740183E-01  0.4486729319931E+00  0.7870437609104E-01 -0.3532550548553E+00
-0.5172514099782E-01  0.4199887843917E+00  0.7365272977628E-01 -0.3679900810921E+00
-0.4633905459391E-01  0.3899760388105E+00  0.6872739786743E-01 -0.3823357327813E+00
-0.3858338146830E-01  0.3585971596270E+00  0.6400275658545E-01 -0.3958187696168E+00
-0.2800796455248E-01  0.3259005468910E+00  0.5957851735550E-01 -0.4078062183810E+00
-0.1412468847631E-01  0.2919012869887E+00  0.5555532053031E-01 -0.4175270330579E+00
 0.3572288073382E-02  0.2565124338109E+00  0.5201694515197E-01 -0.4241166894333E+00
 0.2556056162483E-01  0.2195494389367E+00  0.4902200084279E-01 -0.4266735608546E+00
 0.5221052817833E-01  0.1807837766595E+00  0.4659886166194E-01 -0.4243192107470E+00
 0.8367012997329E-01  0.1400249113573E+00  0.4473900893278E-01 -0.4162545116801E+00
 0.1197129104923E+00  0.9722091957184E-01  0.4338676665934E-01 -0.4018012876782E+00
 0.1595548347047E+00  0.5257899387520E-01  0.4242676634820E-01 -0.3804101856824E+00
 0.2016755857136E+00  0.6656530398118E-02  0.4166642384322E-01 -0.3516161527847E+00
 0.2437144470956E+00 -0.3956589415039E-01  0.4082971119745E-01 -0.3148835347944E+00
 0.2825305224407E+00 -0.8460323427956E-01  0.3958545822211E-01 -0.2692588309653E+00
 0.3146252061524E+00 -0.1266277201692E+00  0.3759949775691E-01 -0.2129256833158E+00
 0.3370743788889E+00 -0.1640976436939E+00  0.3459534755451E-01 -0.1429386126180E+00
 0.3488647778863E+00 -0.1966414337797E+00  0.3044466927497E-01 -0.5566087687272E-01
 0.3516741274972E+00 -0.2259726327567E+00  0.2514029932271E-01  0.5204097473458E-01
 0.3481056103742E+00 -0.2546987886366E+00  0.1868136462591E-01  0.1812191628017E+00
 0.1898786372515E+00  0.8736302163700E+00  0.2127017738938E+00  0.8126758791433E-02
 0.1375193191367E+00  0.8939878434747E+00  0.2063014355964E+00 -0.4657801344125E-01
 0.8779478175733E-01  0.9093820652476E+00  0.1994353723728E+00 -0.8548605934124E-01
 0.4559081462772E-01  0.9172908793726E+00  0.1925763416697E+00 -0.1119958665139E+00
 0.1302028095130E-01  0.9171626227959E+00  0.1860365835216E+00 -0.1303300793117E+00
-0.1018560466250E-01  0.9099539457432E+00  0.1799536708977E+00 -0.1441265911332E+00
-0.2562442544220E-01  0.8972766626432E+00  0.1743304500379E+00 -0.1558458508328E+00
-0.3527636786715E-01  0.8807275333481E+00  0.1690902356158E+00 -0.1668542649038E+00
-0.4095506693605E-01  0.8615735113646E+00  0.1641236913314E+00 -0.1777772318940E+00
-0.4410093913266E-01  0.8406987899784E+00  0.1593195725432E+00 -0.1888391636923E+00
-0.4576662137350E-01  0.8186701207002E+00  0.1545807021688E+00 -0.2000920329587E+00
-0.4667707940541E-01  0.7958266960319E+00  0.1498299255579E+00 -0.2115384311588E+00
-0.4730270160742E-01  0.7723556152641E+00  0.1450105848922E+00 -0.2231850395387E+00
-0.4792184291622E-01  0.7483448956170E+00  0.1400846126276E+00 -0.2350580179205E+00
-0.4866773419062E-01  0.7238174478078E+00  0.1350299447355E+00 -0.2472001916617E+00
-0.4956147528959E-01  0.6987515008132E+00  0.1298380070395E+00 -0.2596608587790E+00
-0.5053455512021E-01  0.6730921022384E+00  0.1245115112790E+00 -0.2724836406862E+00
-0.5144440180308E-01  0.6467580228764E+00  0.1190627259888E+00 -0.2856945238854E+00
-0.5208618933933E-01  0.6196451982806E+00  0.1135118034797E+00 -0.2992917349653E+00
-0.5220403053566E-01  0.5916306482193E+00  0.1078853251443E+00 -0.3132367362196E+00
-0.5150358739585E-01  0.5625789763657E+00  0.1022150793171E+00 -0.3274444755900E+00
-0.4966662790418E-01  0.5323507920735E+00  0.9653683427237E-01 -0.3417710494342E+00
-0.4636409308051E-01  0.5008130737395E+00  0.9088979748617E-01 -0.3559948421348E+00
-0.4126000492153E-01  0.4678616526215E+00  0.8532033081137E-01 -0.3697893006927E+00
-0.3399766415190E-01  0.4334984051152E+00  0.7990014938326E-01 -0.3826835227964E+00
-0.2418079280250E-01  0.3978234515709E+00  0.7472853286722E-01 -0.3940387246503E+00
-0.1136732351656E-01  0.3609068531331E+00  0.6990790696501E-01 -0.4030719142461E+00
 0.4919203191453E-02  0.3227119493261E+00  0.6552623147992E-01 -0.4089058969140E+00
 0.2514997036431E-01  0.2830945200627E+00  0.6164889900404E-01 -0.4106324514382E+00
 0.4971488998633E-01  0.2418522737014E+00  0.5831343360647E-01 -0.4073798961509E+00
 0.7880661097034E-01  0.1988023484156E+00  0.5552179270453E-01 -0.3983776225740E+00
 0.1122620283319E+00  0.1538778545523E+00  0.5322797737000E-01 -0.3830092649576E+00
 0.1493608154378E+00  0.1072495521162E+00  0.5132207427555E-01 -0.3608362222210E+00
 0.1886078478830E+00  0.5943098145251E-01  0.4960776660632E-01 -0.3315700114999E+00
 0.2275611503101E+00  0.1139141236363E-01  0.4779051324689E-01 -0.2949167702198E+00
 0.2628105930945E+00 -0.3529106073643E-01  0.4550390714968E-01 -0.2501746531337E+00
 0.2903609829186E+00 -0.7853891503469E-01  0.4236441420805E-01 -0.1956354778871E+00
 0.3067220305354E+00 -0.1164490388144E+00  0.3805459891125E-01 -0.1281125343644E+00
 0.3106201624797E+00 -0.1485080840067E+00  0.3242241617772E-01 -0.4318862843425E-01
 0.3041991328809E+00 -0.1765841759087E+00  0.2552299177477E-01  0.6327774536073E-01
 0.2917592958932E+00 -0.2038449803058E+00  0.1758286337948E-01  0.1923576560660E+00
 0.2138019428118E+00  0.9844030368347E+00  0.2396409995002E+00 -0.6487386210235E-03
 0.1548365784273E+00  0.1007306583068E+01  0.2324286357625E+00 -0.5399704623781E-01
 0.9951237387093E-01  0.1024291470639E+01  0.2247607722511E+00 -0.9015256634805E-01
 0.5338510682206E-01  0.1032579509964E+01  0.2171929265937E+00 -0.1133404013347E+00
 0.1853654679270E-01  0.1031828553586E+01  0.2100730232061E+00 -0.1285644510892E+00
-0.5746787969321E-02  0.1023412325790E+01  0.2035331105970E+00 -0.1398810412455E+00
-0.2156375933970E-01  0.1009305088948E+01  0.1975482688654E+00 -0.1498186824726E+00
-0.3126424095051E-01  0.9913078695539E+00  0.1920087285818E+00 -0.1596228419639E+00
-0.3687245662412E-01  0.9707545932066E+00  0.1867764300997E+00 -0.1697501134782E+00
-0.3992371067308E-01  0.9485185361680E+00  0.1817189678068E+00 -0.1802786588640E+00
-0.4150061307505E-01  0.9251257143513E+00  0.1767250228887E+00 -0.1911548982237E+00
-0.4232875789725E-01  0.9008710272813E+00  0.1717084564355E+00 -0.2023115591675E+00
-0.4286964698020E-01  0.8759043100738E+00  0.1666069351014E+00 -0.2137107009527E+00
-0.4339275815101E-01  0.8502859039293E+00  0.1613786315604E+00 -0.2253499980773E+00
-0.4402639758138E-01  0.8240199617658E+00  0.1559987151614E+00 -0.2372535174869E+00
-0.4479189867952E-01  0.7970732674668E+00  0.1504562759994E+00 -0.2494574030557E+00
-0.4562607665501E-01  0.7693850824995E+00  0.1447518033259E+00 -0.2619952248658E+00
-0.4639615752708E-01  0.7408726546734E+00  0.1388953014990E+00 -0.2748846780359E+00
-0.4691080291413E-01  0.7114334151766E+00  0.1329045244329E+00 -0.2881170587487E+00
-0.4693081225128E-01  0.6809480208971E+00  0.1268034436187E+00 -0.3016487999412E+00
-0.4618213942462E-01  0.6492867382919E+00  0.1206209215708E+00 -0.3153930894796E+00
-0.4437231321560E-01  0.6163189504012E+00  0.1143893291417E+00 -0.3292090439946E+00
-0.4120652752740E-01  0.5819261496259E+00  0.1081439260312E+00 -0.3428831416560E+00
-0.3639377341263E-01  0.5460283013868E+00  0.1019269071137E+00 -0.3560993434908E+00
-0.2963152460379E-01  0.5086663605421E+00  0.9580696861529E-01 -0.3683930128440E+00
-0.2058001798167E-01  0.4699933310344E+00  0.8988266394990E-01 -0.3791222540602E+00
-0.8845597138504E-02  0.4301367533367E+00  0.8425823249518E-01 -0.3874929297158E+00
 0.6018102678584E-02  0.3891139206425E+00  0.7902640584180E-01 -0.3926139531185E+00
 0.2447761249695E-01  0.3468257215312E+00  0.7426066791219E-01 -0.3935671637656E+00
 0.4694722230898E-01  0.3031016376181E+00  0.7000977302864E-01 -0.3894816671814E+00
 0.7367350423640E-01  0.2577713336446E+00  0.6628896856398E-01 -0.3796061084406E+00
 0.1045726897902E+00  0.2107538010941E+00  0.6306529911660E-01 -0.3633736622335E+00
 0.1390138290764E+00  0.1621749316934E+00  0.6023775305158E-01 -0.3404447223372E+00
 0.1755617417922E+00  0.1124813448621E+00  0.5760861818929E-01 -0.3107056140757E+00
 0.2117257012354E+00  0.6259507502955E-01  0.5486415607054E-01 -0.2741293437418E+00
 0.2438199673692E+00  0.1415713067669E-01  0.5159542037800E-01 -0.2303303654537E+00
 0.2672599555541E+00 -0.3047860316503E-01  0.4735627118347E-01 -0.1778041486844E+00
 0.2777648687202E+00 -0.6894541926384E-01  0.4176389051360E-01 -0.1131520141467E+00
 0.2735487311744E+00 -0.1003619320181E+00  0.3463736034740E-01 -0.3106472020863E-01
 0.2573157683647E+00 -0.1267611825200E+00  0.2611091755803E-01  0.7382447893154E-01
 0.2355157006180E+00 -0.1524010039280E+00  0.1662293958570E-01  0.2030365084036E+00
 0.2375483803786E+00  0.1096169567224E+01  0.2667435934954E+00 -0.1057425592767E-01
 0.1712876914526E+00  0.1121837226732E+01  0.2586249874908E+00 -0.6227903908971E-01
 0.1099566919545E+00  0.1140408798487E+01  0.2500731018147E+00 -0.9518025572783E-01
 0.5986739286220E-01  0.1148856196019E+01  0.2417447213786E+00 -0.1145632009784E+00
 0.2295206882492E-01  0.1147175057195E+01  0.2340254286913E+00 -0.1263649185873E+00
-0.2117536936070E-02  0.1137282850102E+01  0.2270330660162E+00 -0.1350697371398E+00
-0.1805300914583E-01  0.1121572006487E+01  0.2207038027570E+00 -0.1432074131114E+00
-0.2761266906802E-01  0.1102042965590E+01  0.2148860625064E+00 -0.1518328002550E+00
-0.3302767611013E-01  0.1080067838280E+01  0.2094080355543E+00 -0.1611909988237E+00
-0.3591086031322E-01  0.1056481115507E+01  0.2041140540803E+00 -0.1711963600399E+00
-0.3735806454158E-01  0.1031749190206E+01  0.1988782280963E+00 -0.1816865339446E+00
-0.3808340745863E-01  0.1006112080550E+01  0.1936057375033E+00 -0.1925270713718E+00
-0.3853175733519E-01  0.9796772469541E+00  0.1882291007286E+00 -0.2036396230682E+00
-0.3895906170519E-01  0.9524753459418E+00  0.1827032595698E+00 -0.2149973696793E+00
-0.3948602484257E-01  0.9244913573889E+00  0.1770010691468E+00 -0.2266088887454E+00
-0.4013273564067E-01  0.8956809583900E+00  0.1711096470996E+00 -0.2384996997459E+00
-0.4084054588086E-01  0.8659782868861E+00  0.1650275506601E+00 -0.2506952252377E+00
-0.4148600400202E-01  0.8352998243600E+00  0.1587627664373E+00 -0.2632062480615E+00
-0.4189074182824E-01  0.8035451449327E+00  0.1523308828908E+00 -0.2760180559098E+00
-0.4183129439050E-01  0.7705987790368E+00  0.1457534991011E+00 -0.2890826486739E+00
-0.4105221015869E-01  0.7363360907428E+00  0.1390567781889E+00 -0.3023120908235E+00
-0.3928443099293E-01  0.7006336267016E+00  0.1322698411127E+00 -0.3155698650708E+00
-0.3626521736211E-01  0.6633850010662E+00  0.1254239586098E+00 -0.3286532774936E+00
-0.3174779522292E-01  0.6245320101845E+00  0.1185568447590E+00 -0.3412609500567E+00
-0.2548533755323E-01  0.5841535499759E+00  0.1117336441495E+00 -0.3529390008938E+00
-0.1719778769790E-01  0.5424560992035E+00  0.1050516638665E+00 -0.3630457917254E+00
-0.6543079626857E-02  0.4996269686029E+00  0.9861677926471E-01 -0.3707775043126E+00
 0.6893420642728E-02  0.4557413970669E+00  0.9252696492069E-01 -0.3752286325216E+00
 0.2357423230342E-01  0.4107513202093E+00  0.8686511179693E-01 -0.3754684441211E+00
 0.4394136168302E-01  0.3645258602476E+00  0.8169344560345E-01 -0.3706213056513E+00
 0.6830260508380E-01  0.3169157511147E+00  0.7704367238775E-01 -0.3599453265949E+00
 0.9666795249250E-01  0.2678314872987E+00  0.7289988904453E-01 -0.3429083826134E+00
 0.1285222756348E+00  0.2173500132206E+00  0.6917445880186E-01 -0.3192522987873E+00
 0.1625322660965E+00  0.1658283460286E+00  0.6567212340361E-01 -0.2890277589440E+00
 0.1962073927041E+00  0.1140952612950E+00  0.6206053172461E-01 -0.2524922616021E+00
 0.2256050336216E+00  0.6380319652708E-01  0.5788164689224E-01 -0.2096498370423E+00
 0.2454628691490E+00  0.1758024734636E-01  0.5260862408299E-01 -0.1593271801046E+00
 0.2504423509063E+00 -0.2161428985694E-01  0.4576561289183E-01 -0.9800901020914E-01
 0.2379038547878E+00 -0.5229353221391E-01  0.3712206506794E-01 -0.1939771880115E-01
 0.2110931416948E+00 -0.7663878980234E-01  0.2689087077920E-01  0.8351360814005E-01
 0.1791130902350E+00 -0.1003856572336E+00  0.1574548683491E-01  0.2132218714956E+00
 0.2610666449493E+00  0.1209071020391E+01  0.2940275374495E+00 -0.2177816318336E-01
 0.1866927034848E+00  0.1237747132528E+01  0.2848879714477E+00 -0.7147610079861E-01
 0.1189093779311E+00  0.1257859812398E+01  0.2753538421689E+00 -0.1005100241391E+00
 0.6487333472720E-01  0.1266161945685E+01  0.2662070600493E+00 -0.1155380098914E+00
 0.2618579348324E-01  0.1263170811520E+01  0.2578713248433E+00 -0.1236051365929E+00
 0.6829585320793E-03  0.1251503235591E+01  0.2504372425565E+00 -0.1296047332034E+00
-0.1508290647595E-01  0.1234019288693E+01  0.2437872800762E+00 -0.1359669211480E+00
-0.2430734962639E-01  0.1212895205583E+01  0.2377175747336E+00 -0.1434698111707E+00
-0.2941208218953E-01  0.1189498418989E+01  0.2320172708172E+00 -0.1521027337423E+00
-0.3206210102629E-01  0.1164590665444E+01  0.2265057162587E+00 -0.1616027177978E+00
-0.3334627196373E-01  0.1138558682760E+01  0.2210424854531E+00 -0.1716996048169E+00
-0.3395414142722E-01  0.1111577795444E+01  0.2155247340150E+00 -0.1821972492294E+00
-0.3430620759919E-01  0.1083709140365E+01  0.2098805896806E+00 -0.1929826728538E+00
-0.3464054196000E-01  0.1054952685598E+01  0.2040624317684E+00 -0.2040093435228E+00
-0.3506789984839E-01  0.1025274549936E+01  0.1980413329685E+00 -0.2152739797591E+00
-0.3560592047604E-01  0.9946201193795E+00  0.1918028426388E+00 -0.2267941555488E+00
-0.3619991976824E-01  0.9629193743705E+00  0.1853438936823E+00 -0.2385891036778E+00
-0.3673548409739E-01  0.9300890049609E+00  0.1786707068351E+00 -0.2506640736305E+00
-0.3704687624121E-01  0.8960315839038E+00  0.1717969440925E+00 -0.2629991851286E+00
-0.3692552856907E-01  0.8606359619104E+00  0.1647420891231E+00 -0.2755423648781E+00
-0.3613279394839E-01  0.8237821397228E+00  0.1575298715023E+00 -0.2882047575787E+00
-0.3442024473539E-01  0.7853520114192E+00  0.1501863555747E+00 -0.3008550424469E+00
-0.3155432278968E-01  0.7452482656718E+00  0.1427387907034E+00 -0.3133037835917E+00
-0.2733117563655E-01  0.7034312180881E+00  0.1352200105052E+00 -0.3252685769013E+00
-0.2156115139638E-01  0.6600154904785E+00  0.1276908697192E+00 -0.3363113838523E+00
-0.1402760713774E-01  0.6152607369468E+00  0.1202466277536E+00 -0.3457949764989E+00
-0.4444037837062E-02  0.5694157968577E+00  0.1129943534879E+00 -0.3529081647788E+00
 0.7569944286790E-02  0.5226179107568E+00  0.1060375725888E+00 -0.3567314854704E+00
 0.2247235843888E-01  0.4748770427306E+00  0.9946988171612E-01 -0.3563201726743E+00
 0.4073452678795E-01  0.4261122963546E+00  0.9336936601983E-01 -0.3507893893985E+00
 0.6273023262752E-01  0.3762083065158E+00  0.8778770913680E-01 -0.3393971045191E+00
 0.8857479924745E-01  0.3250788423223E+00  0.8273072954673E-01 -0.3216289935401E+00
 0.1178943075150E+00  0.2727548114090E+00  0.7812982494903E-01 -0.2972845706809E+00
 0.1495046965576E+00  0.2194848198950E+00  0.7379790439020E-01 -0.2665567413335E+00
 0.1809838536992E+00  0.1659508799513E+00  0.6938694776404E-01 -0.2299915897641E+00
 0.2081852129592E+00  0.1137363625927E+00  0.6438431606978E-01 -0.1880554136079E+00
 0.2251055568304E+00  0.6570206514151E-01  0.5816152526105E-01 -0.1400728574541E+00
 0.2250424649232E+00  0.2552012207122E-01  0.5011251814562E-01 -0.8259209474525E-01
 0.2040108449338E+00 -0.4423891218758E-02  0.3991739133781E-01 -0.8259998801080E-02
 0.1656032469229E+00 -0.2632124556894E-01  0.2785640068589E-01  0.9214605539495E-01
 0.1222491215080E+00 -0.4776814718454E-01  0.1489619508666E-01  0.2228011127934E+00
 0.2842898656760E+00  0.1323283956949E+01  0.3215147693160E+00 -0.3441296333395E-01
 0.2008249222909E+00  0.1355238711574E+01  0.3112127314104E+00 -0.8163717659113E-01
 0.1261101314503E+00  0.1376779877725E+01  0.3005780063140E+00 -0.1060484976932E+00
 0.6822650191881E-01  0.1384516459271E+01  0.2905485965675E+00 -0.1160997216671E+00
 0.2816878180211E-01  0.1379749926274E+01  0.2815837458111E+00 -0.1201371933982E+00
 0.2654713326085E-02  0.1365982013657E+01  0.2737273494755E+00 -0.1233955847073E+00
-0.1262884169450E-01  0.1346571865584E+01  0.2667886087534E+00 -0.1280599209090E+00
-0.2132501827526E-01  0.1323820245185E+01  0.2604990492636E+00 -0.1345297606555E+00
-0.2601293934320E-01  0.1299030699085E+01  0.2546035557422E+00 -0.1424969784931E+00
-0.2837586235006E-01  0.1272853185281E+01  0.2488954682951E+00 -0.1515147221789E+00
-0.2947261393402E-01  0.1245575057232E+01  0.2432204922839E+00 -0.1612113281737E+00
-0.2995471026622E-01  0.1217298867510E+01  0.2374688349873E+00 -0.1713374816941E+00
-0.3021095863268E-01  0.1188037155214E+01  0.2315652427668E+00 -0.1817528617231E+00
-0.3045773934558E-01  0.1157759447601E+01  0.2254603450106E+00 -0.1923966635755E+00
-0.3079395279605E-01  0.1126414143191E+01  0.2191240413442E+00 -0.2032576166016E+00
-0.3123390368256E-01  0.1093937655461E+01  0.2125407535227E+00 -0.2143480867736E+00
-0.3172653413762E-01  0.1060257064845E+01  0.2057061092067E+00 -0.2256830762424E+00
-0.3216639037256E-01  0.1025290443809E+01  0.1986248136470E+00 -0.2372636676030E+00
-0.3240024775439E-01  0.9889444384589E+00  0.1913088409916E+00 -0.2490655902185E+00
-0.3223379542164E-01  0.9511129565085E+00  0.1837758349558E+00 -0.2610328308430E+00
-0.3144339957619E-01  0.9116804284603E+00  0.1760474084001E+00 -0.2730753190026E+00
-0.2979805177896E-01  0.8705322148836E+00  0.1681468351265E+00 -0.2850670674643E+00
-0.2708964580505E-01  0.8275763864402E+00  0.1600973505127E+00 -0.2968338018059E+00
-0.2315513077703E-01  0.7827872735403E+00  0.1519264308165E+00 -0.3081164333558E+00
-0.1786328937073E-01  0.7363115902835E+00  0.1436896623237E+00 -0.3184984549171E+00
-0.1106504377197E-01  0.6884605512781E+00  0.1354791035200E+00 -0.3273520822985E+00
-0.2534145307643E-02  0.6395453098254E+00  0.1274022348020E+00 -0.3338620922454E+00
 0.8072262439300E-02  0.5897688550216E+00  0.1195682252739E+00 -0.3370968504427E+00
 0.2120615523796E-01  0.5392069902546E+00  0.1120826307687E+00 -0.3360978023096E+00
 0.3736789625058E-01  0.4878416564621E+00  0.1050419121078E+00 -0.3299682600666E+00
 0.5699888536521E-01  0.4356089816713E+00  0.9852157487539E-01 -0.3179575798955E+00
 0.8032711675081E-01  0.3824452508187E+00  0.9255447489308E-01 -0.2995512636517E+00
 0.1071416384138E+00  0.3283481471027E+00  0.8709795840116E-01 -0.2745769113130E+00
 0.1364573291159E+00  0.2734482273254E+00  0.8198111250987E-01 -0.2433335962571E+00
 0.1660078738130E+00  0.2182250289109E+00  0.7684658168988E-01 -0.2066383544473E+00
 0.1915412990747E+00  0.1640809901673E+00  0.7112445890823E-01 -0.1654787498689E+00
 0.2063031945082E+00  0.1140054845090E+00  0.6406173675803E-01 -0.1198796447159E+00
 0.2018970535944E+00  0.7246305731739E-01  0.5487202300001E-01 -0.6674322039292E-01
 0.1722925700143E+00  0.4311473941023E-01  0.4308146252687E-01  0.2319438649084E-02
 0.1209632030661E+00  0.2408631945185E-01  0.2900990493588E-01  0.9946820600309E-01
 0.6452574231882E-01  0.5492088477695E-02  0.1400356636797E-01  0.2315984619999E+00
 0.3071295289393E+00  0.1439034580840E+01  0.3492328271598E+00 -0.4866111171000E-01
 0.2133950369504E+00  0.1474560123178E+01  0.3375910370562E+00 -0.9280132138212E-01
 0.1312482466735E+00  0.1497310310909E+01  0.3257117163700E+00 -0.1116518010760E+00
 0.6974315782654E-01  0.1503903736429E+01  0.3147293835409E+00 -0.1160336287180E+00
 0.2885364572378E-01  0.1496798954002E+01  0.3051305244919E+00 -0.1157915655986E+00
 0.3823324347589E-02  0.1480592910023E+01  0.2968832512981E+00 -0.1163548307487E+00
-0.1064877636279E-01  0.1459137725004E+01  0.2896977940450E+00 -0.1194623120622E+00
-0.1863375542777E-01  0.1434769077884E+01  0.2832270687116E+00 -0.1250219994588E+00
-0.2281441557851E-01  0.1408650342681E+01  0.2771671895506E+00 -0.1323957120268E+00
-0.2485022717377E-01  0.1381278110142E+01  0.2712855806362E+00 -0.1409564322660E+00
-0.2574524692566E-01  0.1352822951298E+01  0.2654155448294E+00 -0.1502435486982E+00
-0.2609996914157E-01  0.1323309390217E+01  0.2594418880812E+00 -0.1599661578399E+00
-0.2626505507731E-01  0.1292701280285E+01  0.2532872488159E+00 -0.1699651868887E+00
-0.2643213203790E-01  0.1260939424572E+01  0.2469014621860E+00 -0.1801714529900E+00
-0.2668687853769E-01  0.1227956542959E+01  0.2402539364644E+00 -0.1905696450533E+00
-0.2703973232896E-01  0.1193681898214E+01  0.2333284366538E+00 -0.2011696064127E+00
-0.2744315858195E-01  0.1158041183865E+01  0.2261196084261E+00 -0.2119840068964E+00
-0.2780078904454E-01  0.1120955180904E+01  0.2186308816297E+00 -0.2230111060965E+00
-0.2797204601754E-01  0.1082335886278E+01  0.2108727711943E+00 -0.2342229977346E+00
-0.2777653160804E-01  0.1042083366963E+01  0.2028613700938E+00 -0.2455596856877E+00
-0.2700397363776E-01  0.1000086727539E+01  0.1946165536802E+00 -0.2569290559682E+00
-0.2543720080890E-01  0.9562330844064E+00  0.1861591794935E+00 -0.2682096989085E+00
-0.2288884112429E-01  0.9104316439304E+00  0.1775085632063E+00 -0.2792435726104E+00
-0.1923343808790E-01  0.8626648781180E+00  0.1686862905196E+00 -0.2897990426429E+00
-0.1439902891200E-01  0.8131061215300E+00  0.1597414209039E+00 -0.2994873580512E+00
-0.8308584205446E-02  0.7621146524605E+00  0.1507612158975E+00 -0.3076961577453E+00
-0.8014111945666E-03  0.7100631484475E+00  0.1418523495643E+00 -0.3136107416454E+00
 0.8423951401288E-02  0.6572232767444E+00  0.1331294476129E+00 -0.3162907947066E+00
 0.1981100802603E-01  0.6037450053218E+00  0.1247112045279E+00 -0.3147665443751E+00
 0.3388698456786E-01  0.5496884081223E+00  0.1167150802772E+00 -0.3081294977147E+00
 0.5115890799437E-01  0.4950637409818E+00  0.1092445314231E+00 -0.2956142351083E+00
 0.7196915987417E-01  0.4398575703070E+00  0.1023653475616E+00 -0.2766885143006E+00
 0.9628486713245E-01  0.3840599762827E+00  0.9606897011458E-01 -0.2511739294758E+00
 0.1233667485845E+00  0.3276895824199E+00  0.9021126754512E-01 -0.2194249323298E+00
 0.1512068159589E+00  0.2709757882803E+00  0.8443652210603E-01 -0.1824817457720E+00
 0.1756014041684E+00  0.2150005502991E+00  0.7812039205760E-01 -0.1418784546614E+00
 0.1891245561956E+00  0.1626896174686E+00  0.7036283578133E-01 -0.9856043400302E-01
 0.1813708560226E+00  0.1192886089882E+00  0.6013189389819E-01 -0.5021447142199E-01
 0.1433074365267E+00  0.9019371480112E-01  0.4670023096146E-01  0.1238104400156E-01
 0.7738071549586E-01  0.7445160743121E-01  0.3036646503791E-01  0.1051669117469E+00
 0.5408021276704E-02  0.5943350163938E-01  0.1296830477646E-01  0.2393625463018E+00
 0.3294663108112E+00  0.1556620505985E+01  0.3772173689802E+00 -0.6474258736583E-01
 0.2240286475156E+00  0.1596019538019E+01  0.3640096425312E+00 -0.1049855940825E+00
 0.1339535721032E+00  0.1619589561608E+01  0.3507086319682E+00 -0.1171015797036E+00
 0.6924200990806E-01  0.1624249658985E+01  0.3386983388255E+00 -0.1150630001569E+00
 0.2822794543320E-01  0.1614140236445E+01  0.3284736412704E+00 -0.1103804196618E+00
 0.4247090512845E-02  0.1595169987574E+01  0.3198834203841E+00 -0.1084068793936E+00
-0.9082044347095E-02  0.1571609861485E+01  0.3125055680843E+00 -0.1101699905752E+00
-0.1619423029617E-01  0.1545691443903E+01  0.3058994472796E+00 -0.1149727524440E+00
-0.1979912254116E-01  0.1518347063284E+01  0.2997095926146E+00 -0.1218324985590E+00
-0.2148412269862E-01  0.1489880142247E+01  0.2936792082857E+00 -0.1299592512336E+00
-0.2217390578796E-01  0.1460331897287E+01  0.2876316025858E+00 -0.1388226204776E+00
-0.2240637947520E-01  0.1429647498331E+01  0.2814482279650E+00 -0.1481044293780E+00
-0.2248892580682E-01  0.1397744671468E+01  0.2750511532307E+00 -0.1576363916273E+00
-0.2258631304299E-01  0.1364538844761E+01  0.2683905103429E+00 -0.1673470139442E+00
-0.2277024530732E-01  0.1329950032652E+01  0.2614359613646E+00 -0.1772207762902E+00
-0.2304712555488E-01  0.1293902643284E+01  0.2541711073332E+00 -0.1872675038998E+00
-0.2337305382359E-01  0.1256322690285E+01  0.2465899309668E+00 -0.1974992989329E+00
-0.2366105020023E-01  0.1217135062254E+01  0.2386948059676E+00 -0.2079129079134E+00
-0.2378358103686E-01  0.1176258529720E+01  0.2304949931712E+00 -0.2184775829392E+00
-0.2357421995148E-01  0.1133600838838E+01  0.2220053270854E+00 -0.2291292329492E+00
-0.2283474424261E-01  0.1089056707188E+01  0.2132443957667E+00 -0.2397723677291E+00
-0.2135800853292E-01  0.1042513832443E+01  0.2042311678253E+00 -0.2502883030608E+00
-0.1897155001397E-01  0.9938779880949E+00  0.1949812905216E+00 -0.2605350601409E+00
-0.1558287415839E-01  0.9431324134447E+00  0.1855099106216E+00 -0.2703120265256E+00
-0.1117935813755E-01  0.8904692406942E+00  0.1758579791318E+00 -0.2792648048984E+00
-0.5760668123847E-02  0.8362896694627E+00  0.1661058027429E+00 -0.2868033933251E+00
 0.7626235691329E-03  0.7810247126391E+00  0.1563574695716E+00 -0.2921195812039E+00
 0.8646431493852E-02  0.7250161581504E+00  0.1467325201153E+00 -0.2942700167431E+00
 0.1832275388881E-01  0.6684965758793E+00  0.1373638680005E+00 -0.2922793175697E+00
 0.3034169655224E-01  0.6116217270549E+00  0.1283926866346E+00 -0.2852308941955E+00
 0.4526999277746E-01  0.5545037079642E+00  0.1199547419358E+00 -0.2723420425984E+00
 0.6355932202120E-01  0.4972162634238E+00  0.1121551187602E+00 -0.2530475303745E+00
 0.8536026295942E-01  0.4397826418308E+00  0.1050285825231E+00 -0.2271269165182E+00
 0.1102166275620E+00  0.3821385187672E+00  0.9847103073318E-01 -0.1949262125330E+00
 0.1364867305727E+00  0.3242391817144E+00  0.9214518383048E-01 -0.1576246739530E+00
 0.1602266779481E+00  0.2666946592266E+00  0.8538426870726E-01 -0.1172676943201E+00
 0.1735541114466E+00  0.2120666515108E+00  0.7712415374072E-01 -0.7592051228558E-01
 0.1638354222576E+00  0.1661991386154E+00  0.6600691315817E-01 -0.3264397164128E-01
 0.1177939806466E+00  0.1367173827654E+00  0.5090227344090E-01  0.2208704778659E-01
 0.3522459059012E-01  0.1245961326976E+00  0.3196414513384E-01  0.1088763177258E+00
-0.5582890035679E-01  0.1140825296244E+00  0.1165072602714E-01  0.2457381215118E+00
 0.3511358638240E+00  0.1676444875481E+01  0.4055161539037E+00 -0.8292472309638E-01
 0.2322340590722E+00  0.1720003879303E+01  0.3904475934932E+00 -0.1181632211578E+00
 0.1337884060543E+00  0.1743734337733E+01  0.3755045543530E+00 -0.1220695286111E+00
 0.6656226247979E-01  0.1745387377320E+01  0.3623899333599E+00 -0.1128363218868E+00
 0.2633251676471E-01  0.1731511727631E+01  0.3515688541179E+00 -0.1037071242119E+00
 0.4024025434699E-02  0.1709505396345E+01  0.3427058894626E+00 -0.9950144486162E-01
-0.7849882188520E-02  0.1683871243016E+01  0.3352042771605E+00 -0.1002068988157E+00
-0.1396218418109E-01  0.1656540811777E+01  0.3285157304144E+00 -0.1044282759361E+00
-0.1695022740316E-01  0.1628117992180E+01  0.3222335577570E+00 -0.1108532966954E+00
-0.1827873709631E-01  0.1598681303397E+01  0.3160805179700E+00 -0.1185618506900E+00
-0.1877077956099E-01  0.1568137501934E+01  0.3098733490920E+00 -0.1269790521570E+00
-0.1889252042518E-01  0.1536356004917E+01  0.3034927014207E+00 -0.1357758236705E+00
-0.1890466947414E-01  0.1503213970079E+01  0.2968618645445E+00 -0.1447846364569E+00
-0.1894414620713E-01  0.1468606514690E+01  0.2899324780168E+00 -0.1539375781951E+00
-0.1906858488911E-01  0.1432444831741E+01  0.2826752535825E+00 -0.1632224097171E+00
-0.1928053941717E-01  0.1394651184098E+01  0.2750741330351E+00 -0.1726511189835E+00
-0.1954003032041E-01  0.1355153719477E+01  0.2671227418117E+00 -0.1822367872827E+00
-0.1976988993133E-01  0.1313882791898E+01  0.2588225842501E+00 -0.1919759050294E+00
-0.1985626203999E-01  0.1270765397957E+01  0.2501818309113E+00 -0.2018357949729E+00
-0.1964724746482E-01  0.1225718896499E+01  0.2412143334012E+00 -0.2117482684217E+00
-0.1895596799093E-01  0.1178645524246E+01  0.2319379147071E+00 -0.2216127580206E+00
-0.1758153346723E-01  0.1129433461652E+01  0.2223703889505E+00 -0.2313101900260E+00
-0.1535940538392E-01  0.1077980621181E+01  0.2125242463263E+00 -0.2407127119448E+00
-0.1222360051355E-01  0.1024262112186E+01  0.2024077053506E+00 -0.2496531612119E+00
-0.8219799585964E-02  0.9684780714461E+00  0.1920516572338E+00 -0.2578181325606E+00
-0.3428925838106E-02  0.9110617846534E+00  0.1815265744680E+00 -0.2646477933856E+00
 0.2161367093369E-02  0.8524958694532E+00  0.1709314498564E+00 -0.2693480031866E+00
 0.8757420631160E-02  0.7931913251544E+00  0.1603897515471E+00 -0.2709807344983E+00
 0.1677646386984E-01  0.7334714245496E+00  0.1500495799198E+00 -0.2685744727389E+00
 0.2678592143937E-01  0.6736071940487E+00  0.1400786251850E+00 -0.2612129276095E+00
 0.3940230105725E-01  0.6138451203538E+00  0.1306494862290E+00 -0.2480986765545E+00
 0.5517387372731E-01  0.5543921382801E+00  0.1219132042181E+00 -0.2286228148014E+00
 0.7442768704128E-01  0.4953618099223E+00  0.1139579010908E+00 -0.2024885149935E+00
 0.9701064745168E-01  0.4366647452461E+00  0.1067350801300E+00 -0.1699615636510E+00
 0.1217442884656E+00  0.3780016134061E+00  0.9994918186370E-01 -0.1322394105746E+00
 0.1452015223270E+00  0.3193817698739E+00  0.9291665982475E-01 -0.9175404677518E-01
 0.1594402798343E+00  0.2625949874667E+00  0.8440705471796E-01 -0.5179914196774E-01
 0.1496134400446E+00  0.2136157250928E+00  0.7264583410998E-01 -0.1353789242374E-01
 0.9671585221175E-01  0.1826895295547E+00  0.5588107718598E-01  0.3180841332890E-01
-0.4860521785310E-02  0.1742846084511E+00  0.3388481783809E-01  0.1102084281231E+00
-0.1201667034591E+00  0.1694447676053E+00  0.9855612976112E-02  0.2502189123681E+00
 0.3719061355216E+00  0.1799071665888E+01  0.4341955667519E+00 -0.1035347577233E+00
 0.2373555884638E+00  0.1847002466198E+01  0.4168716171442E+00 -0.1322237774670E+00
 0.1302439842554E+00  0.1869801187106E+01  0.4000090402328E+00 -0.1260651321440E+00
 0.6159524103945E-01  0.1867004580429E+01  0.3857199700413E+00 -0.1089179259794E+00
 0.2328522993149E-01  0.1848545121553E+01  0.3743660758754E+00 -0.9558655773953E-01
 0.3296942482635E-02  0.1823352899905E+01  0.3653299739214E+00 -0.8963245558984E-01
-0.6858806600057E-02  0.1795803894044E+01  0.3577890228203E+00 -0.8963350450594E-01
-0.1189235607244E-01  0.1767280902957E+01  0.3510777146085E+00 -0.9345716257925E-01
-0.1425408154843E-01  0.1737971520998E+01  0.3447434930270E+00 -0.9951658810212E-01
-0.1523910568889E-01  0.1707713105541E+01  0.3384948050144E+00 -0.1068096573775E+00
-0.1555142095265E-01  0.1676282604139E+01  0.3321462415867E+00 -0.1147468797030E+00
-0.1557958110949E-01  0.1643482974039E+01  0.3255806834374E+00 -0.1230056972366E+00
-0.1553630665543E-01  0.1609159552350E+01  0.3187246538883E+00 -0.1314290810526E+00
-0.1553088927229E-01  0.1573193900211E+01  0.3115326068299E+00 -0.1399580122061E+00
-0.1560745641928E-01  0.1535493104437E+01  0.3039771341332E+00 -0.1485864391640E+00
-0.1576521647364E-01  0.1495980311343E+01  0.2960430233853E+00 -0.1573302185486E+00
-0.1596850841033E-01  0.1454587615289E+01  0.2877238256632E+00 -0.1662046444891E+00
-0.1615043427573E-01  0.1411252006380E+01  0.2790203185786E+00 -0.1752071192867E+00
-0.1621160411496E-01  0.1365910001004E+01  0.2699396834002E+00 -0.1843041468717E+00
-0.1601575071313E-01  0.1318490807206E+01  0.2604950151803E+00 -0.1934238045205E+00
-0.1538757168596E-01  0.1268907307730E+01  0.2507039509446E+00 -0.2024586847079E+00
-0.1412915797947E-01  0.1217049898765E+01  0.2405841517422E+00 -0.2112848940720E+00
-0.1207583770114E-01  0.1162805180269E+01  0.2301458719429E+00 -0.2197843544892E+00
-0.9179439488139E-02  0.1106129926288E+01  0.2193901006291E+00 -0.2278237796382E+00
-0.5541285021074E-02  0.1047217781087E+01  0.2083353023176E+00 -0.2351368268939E+00
-0.1327654886908E-02  0.9865191152544E+00  0.1970382950096E+00 -0.2412022749059E+00
 0.3391263316888E-02  0.9245562614814E+00  0.1855895077252E+00 -0.2452494861998E+00
 0.8768903220669E-02  0.8618050660571E+00  0.1741147964501E+00 -0.2463576018819E+00
 0.1520468518975E-01  0.7986868580108E+00  0.1627783110657E+00 -0.2435733327776E+00
 0.2327652841671E-01  0.7356093575610E+00  0.1517771794572E+00 -0.2359947961621E+00
 0.3363696794093E-01  0.6729903230361E+00  0.1413254603013E+00 -0.2228188321412E+00
 0.4691024572507E-01  0.6112242051374E+00  0.1316268921339E+00 -0.2033891217174E+00
 0.6357892140446E-01  0.5505881181256E+00  0.1228334097364E+00 -0.1773040789800E+00
 0.8378932879078E-01  0.4910573143794E+00  0.1149693303472E+00 -0.1446778162625E+00
 0.1068901036062E+00  0.4321600750228E+00  0.1078100373323E+00 -0.1065786676092E+00
 0.1302371014178E+00  0.3732562289502E+00  0.1006986675741E+00 -0.6559100072298E-01
 0.1464319540830E+00  0.3148988618713E+00  0.9226616456575E-01 -0.2614916331265E-01
 0.1388725641423E+00  0.2623106822475E+00  0.8023665047359E-01  0.7721755378431E-02
 0.8128958496634E-01  0.2283523952329E+00  0.6192839696265E-01  0.4225670043534E-01
-0.4176579338426E-01  0.2232375501384E+00  0.3629435189166E-01  0.1088348914092E+00
-0.1889267946785E+00  0.2254989896478E+00  0.7314439102849E-02  0.2520762934084E+00
 0.3914400923867E+00  0.1925318924009E+01  0.4633518101837E+00 -0.1269750498484E+00
 0.2385052886512E+00  0.1977633806119E+01  0.4432278255586E+00 -0.1468992749561E+00
 0.1227498013081E+00  0.1997709923924E+01  0.4240919513660E+00 -0.1283598338921E+00
 0.5433759256351E-01  0.1988565262494E+01  0.4085805770997E+00 -0.1027909418727E+00
 0.1930906454539E-01  0.1964748152126E+01  0.3968114492472E+00 -0.8588299881506E-01
 0.2253235845327E-02  0.1936442056349E+01  0.3877390642167E+00 -0.7886218203345E-01
-0.6008039998300E-02  0.1907302726814E+01  0.3802589430295E+00 -0.7855397697127E-01
-0.9943781127263E-02  0.1877893375063E+01  0.3735899243542E+00 -0.8215110652992E-01
-0.1170321586830E-01  0.1847931433413E+01  0.3672456489813E+00 -0.8789264492453E-01
-0.1237578644875E-01  0.1817018731702E+01  0.3609285944289E+00 -0.9475382136815E-01
-0.1253563173551E-01  0.1784818343434E+01  0.3544565476216E+00 -0.1021627390037E+00
-0.1249179748289E-01  0.1751082198794E+01  0.3477180854436E+00 -0.1098205241466E+00
-0.1240997692202E-01  0.1715635698440E+01  0.3406451493796E+00 -0.1175893764996E+00
-0.1237326964842E-01  0.1678355145116E+01  0.3331963800586E+00 -0.1254234783380E+00
-0.1241347369409E-01  0.1639148923905E+01  0.3253470948903E+00 -0.1333250446300E+00
-0.1252721241439E-01  0.1597944286796E+01  0.3170834196012E+00 -0.1413148801818E+00
-0.1268357610177E-01  0.1554678962737E+01  0.3083990819225E+00 -0.1494113089161E+00
-0.1282631235220E-01  0.1509297395627E+01  0.2992942211148E+00 -0.1576136608021E+00
-0.1287128993048E-01  0.1461746490393E+01  0.2897750444106E+00 -0.1658889806559E+00
-0.1269948401938E-01  0.1411969558969E+01  0.2798540191600E+00 -0.1741626618392E+00
-0.1214869106062E-01  0.1359894606196E+01  0.2695491870438E+00 -0.1823191837269E+00
-0.1102191680227E-01  0.1305418794103E+01  0.2588793793177E+00 -0.1902242938384E+00
-0.9145576079677E-02  0.1248416363396E+01  0.2478541611565E+00 -0.1977621909232E+00
-0.6477945478009E-02  0.1188814930035E+01  0.2364674004351E+00 -0.2048306020702E+00
-0.3171048840426E-02  0.1126782606663E+01  0.2247223149131E+00 -0.2112146712466E+00
 0.5204186156936E-03  0.1062764542923E+01  0.2126569954765E+00 -0.2164403424969E+00
 0.4439392752289E-02  0.9973033853865E+00  0.2003485586132E+00 -0.2197720864768E+00
 0.8684522144074E-02  0.9309306107185E+00  0.1879230293728E+00 -0.2203226712146E+00
 0.1363506116450E-01  0.8641719835616E+00  0.1755614115613E+00 -0.2171775672217E+00
 0.1987163548237E-01  0.7975952910634E+00  0.1634933877454E+00 -0.2094700899499E+00
 0.2806573062189E-01  0.7318301021547E+00  0.1519791688200E+00 -0.1964077622495E+00
 0.3888938848634E-01  0.6675192483286E+00  0.1412817294683E+00 -0.1772923144480E+00
 0.5294532241561E-01  0.6051907456990E+00  0.1316272155843E+00 -0.1515995841980E+00
 0.7064905628541E-01  0.5450046424660E+00  0.1231307415851E+00 -0.1192307911060E+00
 0.9188587915805E-01  0.4864719201920E+00  0.1156715615937E+00 -0.8097447290970E-01
 0.1150023529563E+00  0.4284061460274E+00  0.1086817014162E+00 -0.3923337649400E-01
 0.1339158991582E+00  0.3697439496421E+00  0.1007319712611E+00  0.8281874425362E-03
 0.1314407751696E+00  0.3135840715913E+00  0.8900497067845E-01  0.3180136720804E-01
 0.7295238569311E-01  0.2744605670373E+00  0.6948259158146E-01  0.5466440273771E-01
-0.7361378610004E-01  0.2712093655024E+00  0.3951911646934E-01  0.1046754441243E+00
-0.2638634833906E+00  0.2822067427113E+00  0.3668651918797E-02  0.2502595538037E+00
 0.4092327110969E+00  0.2056423524578E+01  0.4931312544833E+00 -0.1537387225432E+00
 0.2344628448424E+00  0.2112666264871E+01  0.4694258289377E+00 -0.1616236462258E+00
 0.1107137905346E+00  0.2127091808331E+01  0.4475611264424E+00 -0.1278813195045E+00
 0.4497732369710E-01  0.2109199993199E+01  0.4308354697991E+00 -0.9389245492586E-01
 0.1475916571191E-01  0.2079505494287E+01  0.4188529382412E+00 -0.7457411425125E-01
 0.1113865626530E-02  0.2048508975076E+01  0.4099245742489E+00 -0.6734715130883E-01
-0.5201634825179E-02  0.2018293172682E+01  0.4026183135709E+00 -0.6711932187713E-01
-0.8085933521872E-02  0.1988385939341E+01  0.3960600070656E+00 -0.7062366660952E-01
-0.9299510891662E-02  0.1958041125731E+01  0.3897483287755E+00 -0.7606181519648E-01
-0.9706523319674E-02  0.1926655052035E+01  0.3833897114560E+00 -0.8244959493470E-01
-0.9748249543574E-02  0.1893805045478E+01  0.3768113648018E+00 -0.8926463625969E-01
-0.9656796712030E-02  0.1859213534821E+01  0.3699113531339E+00 -0.9624702571644E-01
-0.9554058977551E-02  0.1822700648510E+01  0.3626293233102E+00 -0.1032850756046E+00
-0.9499499162958E-02  0.1784147005890E+01  0.3549295066342E+00 -0.1103490600155E+00
-0.9514286611472E-02  0.1743468175033E+01  0.3467907828519E+00 -0.1174504767651E+00
-0.9593391867469E-02  0.1700598775873E+01  0.3382010818406E+00 -0.1246153907103E+00
-0.9711038139306E-02  0.1655483605092E+01  0.3291545182954E+00 -0.1318654489202E+00
-0.9821783038862E-02  0.1608074860214E+01  0.3196506201982E+00 -0.1392026759294E+00
-0.9857321849231E-02  0.1558329955063E+01  0.3096945312576E+00 -0.1465962432866E+00
-0.9717774743125E-02  0.1506208047981E+01  0.2992980591075E+00 -0.1539709193922E+00
-0.9257138392737E-02  0.1451657892646E+01  0.2884801551494E+00 -0.1612031559681E+00
-0.8279504097500E-02  0.1394591927287E+01  0.2772624887695E+00 -0.1681424058413E+00
-0.6593691169162E-02  0.1334875735111E+01  0.2656564127469E+00 -0.1746638273308E+00
-0.4150122123943E-02  0.1272397960824E+01  0.2536495715197E+00 -0.1806881096058E+00
-0.1143487147707E-02  0.1207276722414E+01  0.2412266506478E+00 -0.1860527639282E+00
 0.2082024936010E-02  0.1139919109506E+01  0.2284002302917E+00 -0.1903385573866E+00
 0.5280458152921E-02  0.1070857645106E+01  0.2152276238589E+00 -0.1928593529688E+00
 0.8496285598194E-02  0.1000663617792E+01  0.2018319836855E+00 -0.1927844039516E+00
 0.1208726554717E-01  0.9299728481371E+00  0.1884120255444E+00 -0.1892664103062E+00
 0.1662806936906E-01  0.8595391770015E+00  0.1752334518853E+00 -0.1815022159385E+00
 0.2278941589165E-01  0.7902475756823E+00  0.1626074007378E+00 -0.1687342800935E+00
 0.3125672602496E-01  0.7230537708075E+00  0.1508621016145E+00 -0.1502387282122E+00
 0.4270373812827E-01  0.6588339543140E+00  0.1403075405792E+00 -0.1253663450628E+00
 0.5775975009738E-01  0.5980789044460E+00  0.1311677328632E+00 -0.9376350933844E-01
 0.7679332016719E-01  0.5405027302690E+00  0.1234592119269E+00 -0.5581559682543E-01
 0.9920139116112E-01  0.4846830891347E+00  0.1167768977993E+00 -0.1337511658245E-01
 0.1209904002894E+00  0.4279114247231E+00  0.1097803666384E+00  0.2848274840590E-01
 0.1265149597103E+00  0.3694521549111E+00  0.9919342440239E-01  0.5919112318288E-01
 0.7317509605833E-01  0.3227932683219E+00  0.7919367405613E-01  0.7098555544644E-01
-0.9728206207834E-01  0.3182401580128E+00  0.4419161984541E-01  0.9829793628243E-01
-0.3472414923546E+00  0.3395794619564E+00 -0.1532406102469E-02  0.2432779457462E+00
 0.4245020111273E+00  0.2194349679917E+01  0.5237703460136E+00 -0.1844157545400E+00
 0.2235300812136E+00  0.2252998817663E+01  0.4953057871560E+00 -0.1752574736785E+00
 0.9363240233584E-01  0.2256987816054E+01  0.4701240506834E+00 -0.1230809135478E+00
 0.3402572244833E-01  0.2227572190212E+01  0.4523195892722E+00 -0.8172286468949E-01
 0.1013382563368E-01  0.2192128646549E+01  0.4404525009998E+00 -0.6184690003142E-01
 0.1043034069643E-03  0.2159346498792E+01  0.4318901668755E+00 -0.5535578665152E-01
-0.4363968903465E-02  0.2128748860340E+01  0.4248769846185E+00 -0.5552375568626E-01
-0.6304788746779E-02  0.2098800463777E+01  0.4184991412421E+00 -0.5900719257940E-01
-0.7057431373048E-02  0.2068367636097E+01  0.4122620470879E+00 -0.6411163704086E-01
-0.7257734026937E-02  0.2036694211251E+01  0.4058873014930E+00 -0.6995409727207E-01
-0.7219753956461E-02  0.2003312828722E+01  0.3992186209018E+00 -0.7609044717189E-01
-0.7105814759646E-02  0.1967943013462E+01  0.3921674455842E+00 -0.8231115460558E-01
-0.6999190515968E-02  0.1930416493064E+01  0.3846834662418E+00 -0.8853497800680E-01
-0.6939215296667E-02  0.1890628658748E+01  0.3767378943040E+00 -0.9474936353741E-01
-0.6938507685181E-02  0.1848508354032E+01  0.3683139747576E+00 -0.1009748452441E+00
-0.6991385183063E-02  0.1804000696555E+01  0.3594018676298E+00 -0.1072421713288E+00
-0.7077446204132E-02  0.1757058598132E+01  0.3499962356009E+00 -0.1135759791341E+00
-0.7161889966523E-02  0.1707641651954E+01  0.3400959574653E+00 -0.1199813814822E+00
-0.7192300141432E-02  0.1655716835001E+01  0.3297049118849E+00 -0.1264313440382E+00
-0.7089668257492E-02  0.1601259579214E+01  0.3188339869423E+00 -0.1328532622648E+00
-0.6728887807343E-02  0.1544245300511E+01  0.3075032871229E+00 -0.1391181894269E+00
-0.5918896152221E-02  0.1484615178514E+01  0.2957392608792E+00 -0.1450545793032E+00
-0.4443952402619E-02  0.1422238292827E+01  0.2835588723101E+00 -0.1505131689919E+00
-0.2229542728198E-02  0.1356958985888E+01  0.2709458926694E+00 -0.1554216214087E+00
 0.4991027489831E-03  0.1288814755878E+01  0.2578627755679E+00 -0.1596637835168E+00
 0.3310770587084E-02  0.1218126148784E+01  0.2442873875143E+00 -0.1628801184032E+00
 0.5872964386975E-02  0.1145368650726E+01  0.2302483264536E+00 -0.1644517748378E+00
 0.8180458125068E-02  0.1071128823895E+01  0.2158618596206E+00 -0.1636366953278E+00
 0.1056921168507E-01  0.9961584850444E+00  0.2013455423462E+00 -0.1596937051561E+00
 0.1359801568428E-01  0.9214278340509E+00  0.1870051727336E+00 -0.1519197013929E+00
 0.1791509045830E-01  0.8481236499321E+00  0.1732077506591E+00 -0.1396236399875E+00
 0.2418106063906E-01  0.7775790249583E+00  0.1603520195089E+00 -0.1220835073542E+00
 0.3308013281923E-01  0.7111177518259E+00  0.1488395791469E+00 -0.9854268100465E-01
 0.4537706256012E-01  0.6497266835975E+00  0.1390207513031E+00 -0.6837861325438E-01
 0.6182305844846E-01  0.5935883888045E+00  0.1310822914039E+00 -0.3149870956258E-01
 0.8271245391755E-01  0.5415377559083E+00  0.1248500438256E+00  0.1107235128541E-01
 0.1065527217101E+00  0.4898824715423E+00  0.1192870404280E+00  0.5547377874258E-01
 0.1222624376793E+00  0.4327195508439E+00  0.1109963993586E+00  0.8969475733463E-01
 0.8292443692594E-01  0.3770528958801E+00  0.9199546793205E-01  0.9398891285272E-01
-0.1077037900383E+00  0.3653488018598E+00  0.5152900313215E-01  0.9171478754364E-01
-0.4418197239581E+00  0.3979318408083E+00 -0.8777576760753E-02  0.2291321096863E+00
 0.4359992684125E+00  0.2342411044035E+01  0.5556820707699E+00 -0.2196519851157E+00
 0.2033262981338E+00  0.2399485795516E+01  0.5205624264870E+00 -0.1855290245382E+00
 0.7135545621179E-01  0.2385248557558E+01  0.4913208100752E+00 -0.1118195383039E+00
 0.2250050608913E-01  0.2341783671758E+01  0.4728568426156E+00 -0.6611215738197E-01
 0.6034035191041E-02  0.2302006210015E+01  0.4616080559198E+00 -0.4821179654402E-01
-0.5972121867189E-03  0.2268860978175E+01  0.4536527599575E+00 -0.4325824452679E-01
-0.3453196789597E-02  0.2238704556967E+01  0.4470502786971E+00 -0.4399540557095E-01
-0.4608493076330E-02  0.2209221884920E+01  0.4409226849389E+00 -0.4744828137304E-01
-0.5007237609129E-02  0.2179004647965E+01  0.4347994885502E+00 -0.5213235613036E-01
-0.5065522290274E-02  0.2147224669942E+01  0.4284318359145E+00 -0.5732363133523E-01
-0.4986656329801E-02  0.2113421880874E+01  0.4216870511924E+00 -0.6267615789003E-01
-0.4873741070709E-02  0.2077342699859E+01  0.4144937979341E+00 -0.6803695537789E-01
-0.4778165394762E-02  0.2038848905428E+01  0.4068141540687E+00 -0.7335642736204E-01
-0.4723336662103E-02  0.1997861389873E+01  0.3986276165822E+00 -0.7863810270736E-01
-0.4715572505441E-02  0.1954328283706E+01  0.3899225480504E+00 -0.8390991489225E-01
-0.4749496087563E-02  0.1908208003402E+01  0.3806917071356E+00 -0.8920573084526E-01
-0.4810094892672E-02  0.1859462118053E+01  0.3709304101594E+00 -0.9455213089598E-01
-0.4872620380666E-02  0.1808056496334E+01  0.3606367805646E+00 -0.9995720441759E-01
-0.4899841855783E-02  0.1753965457630E+01  0.3498131283675E+00 -0.1053991824567E+00
-0.4834406046012E-02  0.1697178870942E+01  0.3384688980228E+00 -0.1108123396503E+00
-0.4577771021666E-02  0.1637703026908E+01  0.3266250560443E+00 -0.1160687817147E+00
-0.3952561646664E-02  0.1575526248173E+01  0.3143147419890E+00 -0.1209756166869E+00
-0.2716153233590E-02  0.1510547258898E+01  0.3015662256265E+00 -0.1253408196311E+00
-0.7504642161728E-03  0.1442572429825E+01  0.2883643974188E+00 -0.1290712735417E+00
 0.1706038937280E-02  0.1371521767548E+01  0.2746455653896E+00 -0.1320780787708E+00
 0.4143904618881E-02  0.1297556565674E+01  0.2603400979380E+00 -0.1340599773691E+00
 0.6154302907252E-02  0.1221023252451E+01  0.2454355147288E+00 -0.1344888283419E+00
 0.7692468995983E-02  0.1142488141299E+01  0.2300361254868E+00 -0.1327577683121E+00
 0.9072542169298E-02  0.1062827870611E+01  0.2143800857505E+00 -0.1282846506888E+00
 0.1082491343537E-01  0.9832670488053E+00  0.1988183954108E+00 -0.1205114727352E+00
 0.1355195013805E-01  0.9053439579143E+00  0.1837791843490E+00 -0.1088506843871E+00
 0.1785048496582E-01  0.8308294369347E+00  0.1697359869094E+00 -0.9261907055136E-01
 0.2435021369945E-01  0.7615853758645E+00  0.1571871202551E+00 -0.7099225075605E-01
 0.3384900700739E-01  0.6992644771885E+00  0.1466226990240E+00 -0.4310709739467E-01
 0.4735947441240E-01  0.6448237007555E+00  0.1384366370964E+00 -0.8365189433045E-02
 0.6577175428254E-01  0.5978914136476E+00  0.1327326355639E+00  0.3311447908044E-01
 0.8963902914787E-01  0.5552562334474E+00  0.1289790544410E+00  0.7961310037924E-01
 0.1154314457831E+00  0.5065763255416E+00  0.1244015561187E+00  0.1214557387810E+00
 0.1013984287533E+00  0.4442672613406E+00  0.1091331396450E+00  0.1268453113370E+00
-0.9697816444829E-01  0.4163225522646E+00  0.6386887851498E-01  0.8985549237921E-01
-0.5505403031786E+00  0.4587131239181E+00 -0.1836543612578E-01  0.2055537631882E+00
 0.4416925753978E+00  0.2506655780415E+01  0.5896696799494E+00 -0.2599189588942E+00
 0.1705244802761E+00  0.2552189311187E+01  0.5445427664070E+00 -0.1878520923459E+00
 0.4469364980400E-01  0.2507370270503E+01  0.5104127916671E+00 -0.9147997169456E-01
 0.1211934104364E-01  0.2449572620997E+01  0.4923383997445E+00 -0.4777965372400E-01
 0.2999984498529E-02  0.2408891074198E+01  0.4823782189273E+00 -0.3455107529170E-01
-0.9188238449906E-03  0.2377086488807E+01  0.4752335400740E+00 -0.3147113000395E-01
-0.2464144058609E-02  0.2348271942783E+01  0.4691615667359E+00 -0.3279184377899E-01
-0.3035373802498E-02  0.2319786743762E+01  0.4633502808963E+00 -0.3609886425387E-01
-0.3196932501634E-02  0.2290073147930E+01  0.4573752499012E+00 -0.4021123986047E-01
-0.3176108147440E-02  0.2258352022944E+01  0.4510351896802E+00 -0.4461081500431E-01
-0.3091676462074E-02  0.2224222116844E+01  0.4442260946959E+00 -0.4905379089747E-01
-0.2998907763592E-02  0.2187490314782E+01  0.4368982879139E+00 -0.5344539267329E-01
-0.2925712345296E-02  0.2148066666271E+01  0.4290281971782E+00 -0.5776456730308E-01
-0.2883814940520E-02  0.2105908152047E+01  0.4206048736888E+00 -0.6202768830578E-01
-0.2875528831071E-02  0.2060987722525E+01  0.4116224448725E+00 -0.6626691801736E-01
-0.2896550228964E-02  0.2013279382914E+01  0.4020765725285E+00 -0.7051665560389E-01
-0.2936971677544E-02  0.1962753294761E+01  0.3919632704575E+00 -0.7480358514050E-01
-0.2981027461760E-02  0.1909379647954E+01  0.3812797297799E+00 -0.7913803467608E-01
-0.3005100720631E-02  0.1853136570668E+01  0.3700262995032E+00 -0.8350445271648E-01
-0.2972408089269E-02  0.1794023623886E+01  0.3582102484971E+00 -0.8784841932390E-01
-0.2815773406096E-02  0.1732077092336E+01  0.3458522689395E+00 -0.9205395800363E-01
-0.2386357686426E-02  0.1667352660315E+01  0.3329932654878E+00 -0.9591605314976E-01
-0.1421874353735E-02  0.1599826200930E+01  0.3196808700789E+00 -0.9918322541355E-01
 0.2557745655814E-03  0.1529299003877E+01  0.3059109602469E+00 -0.1016972155395E+00
 0.2418234511915E-02  0.1455532394243E+01  0.2915901300960E+00 -0.1033525831136E+00
 0.4498078997873E-02  0.1378415949918E+01  0.2765828099045E+00 -0.1038921054432E+00
 0.6034314204792E-02  0.1298055951512E+01  0.2608180570298E+00 -0.1029116274760E+00
 0.6960587400687E-02  0.1214950459169E+01  0.2443822129555E+00 -0.1000087267654E+00
 0.7567521360321E-02  0.1130117808501E+01  0.2275370693629E+00 -0.9483195345349E-01
 0.8338703034832E-02  0.1045088098165E+01  0.2106853633793E+00 -0.8702229227968E-01
 0.9806196548889E-02  0.9618073412773E+00  0.1943227104609E+00 -0.7613358952379E-01
 0.1246538463960E-01  0.8825336032603E+00  0.1789998002473E+00 -0.6156508007098E-01
 0.1683253151037E-01  0.8097403452830E+00  0.1653145778221E+00 -0.4248174182800E-01
 0.2362550852067E-01  0.7458845703560E+00  0.1539020180686E+00 -0.1786593605768E-01
 0.3394449549209E-01  0.6930528011074E+00  0.1453994614865E+00  0.1334338179365E-01
 0.4908976268914E-01  0.6521721300151E+00  0.1402523806308E+00  0.5191673324608E-01
 0.7018598785082E-01  0.6220354854251E+00  0.1384442967182E+00  0.9812968280226E-01
 0.1014402643881E+00  0.5929164913886E+00  0.1388713532247E+00  0.1494784977330E+00
 0.1234012350291E+00  0.5363672917493E+00  0.1319537073219E+00  0.1711446944679E+00
-0.5369979285292E-01  0.4821785969963E+00  0.8569576210564E-01  0.1029370136155E+00
-0.6754044230262E+00  0.5271940186008E+00 -0.2964208132677E-01  0.1714414539983E+00
 0.4383691115711E+00  0.2699410575239E+01  0.6275559467133E+00 -0.3045039235566E+00
 0.1205777853081E+00  0.2707386472765E+01  0.5655928600427E+00 -0.1727282070888E+00
 0.1680840959167E-01  0.2614567557510E+01  0.5262752012624E+00 -0.6011963920918E-01
 0.5266813534537E-02  0.2549592008704E+01  0.5109717720618E+00 -0.2925980420792E-01
 0.1120509776411E-02  0.2513092873583E+01  0.5028426841648E+00 -0.2184601194796E-01
-0.8764050269553E-03  0.2484123806462E+01  0.4966494876876E+00 -0.2041864129552E-01
-0.1433631123114E-02  0.2457691650537E+01  0.4912516112030E+00 -0.2220244093682E-01
-0.1666028062846E-02  0.2430673408621E+01  0.4858014833507E+00 -0.2509545066610E-01
-0.1689168483887E-02  0.2401725493684E+01  0.4800072721926E+00 -0.2843017240599E-01
-0.1647304904430E-02  0.2370197573139E+01  0.4737100607056E+00 -0.3186003141503E-01
-0.1582950336735E-02  0.2335812742021E+01  0.4668459652935E+00 -0.3524963287627E-01
-0.1522835908904E-02  0.2298468478903E+01  0.4593891354442E+00 -0.3855302490443E-01
-0.1478065297064E-02  0.2258141049865E+01  0.4513326036390E+00 -0.4177162157046E-01
-0.1453297515248E-02  0.2214833013179E+01  0.4426759497292E+00 -0.4492881670146E-01
-0.1448741494032E-02  0.2168546912201E+01  0.4334196405998E+00 -0.4805638540117E-01
-0.1461674201253E-02  0.2119273901954E+01  0.4235624518621E+00 -0.5118562509418E-01
-0.1486650383680E-02  0.2066991998265E+01  0.4131010757319E+00 -0.5434066489138E-01
-0.1515280784413E-02  0.2011672925420E+01  0.4020315349179E+00 -0.5753256405465E-01
-0.1535235373684E-02  0.1953293758625E+01  0.3903517104670E+00 -0.6075222814009E-01
-0.1526857762959E-02  0.1891856432106E+01  0.3780659205022E+00 -0.6395982805421E-01
-0.1454662009201E-02  0.1827417576262E+01  0.3651925882923E+00 -0.6706470720930E-01
-0.1217554936141E-02  0.1760111769622E+01  0.3517788481792E+00 -0.6987534137684E-01
-0.5578504323079E-03  0.1690067140660E+01  0.3379018630807E+00 -0.7207884930229E-01
 0.7673665056536E-03  0.1617171275717E+01  0.3235877332663E+00 -0.7338654629355E-01
 0.2568933366397E-02  0.1540989025632E+01  0.3087115963999E+00 -0.7358433845372E-01
 0.4263426578201E-02  0.1460954957054E+01  0.2930436810931E+00 -0.7241967502119E-01
 0.5386665207278E-02  0.1376762615081E+01  0.2764298601767E+00 -0.6966596487433E-01
 0.5878167114101E-02  0.1288783519827E+01  0.2589323412467E+00 -0.6523134354797E-01
 0.5997141532133E-02  0.1198211729158E+01  0.2408417777268E+00 -0.5909109457007E-01
 0.6151665616537E-02  0.1106954333243E+01  0.2226212030891E+00 -0.5114761746391E-01
 0.6773288612421E-02  0.1017433370915E+01  0.2048413349579E+00 -0.4113045900521E-01
 0.8232797427472E-02  0.9324327379515E+00  0.1881331098792E+00 -0.2855732500326E-01
 0.1086641045617E-01  0.8550608837742E+00  0.1731854614267E+00 -0.1266898062531E-01
 0.1526446094523E-01  0.7887065653601E+00  0.1607942076571E+00  0.7606037932911E-02
 0.2229061172046E-01  0.7368095184147E+00  0.1518200282893E+00  0.3352617342438E-01
 0.3363859350392E-01  0.7024833776207E+00  0.1472243964187E+00  0.6691518847597E-01
 0.5009915311062E-01  0.6866359920540E+00  0.1473470312286E+00  0.1088704283796E+00
 0.7637539054886E-01  0.6882854314442E+00  0.1529321666775E+00  0.1645634347128E+00
 0.1345673181641E+00  0.6693144379276E+00  0.1607763536141E+00  0.2208184986055E+00
 0.3585518027105E-01  0.5920377826604E+00  0.1255785944576E+00  0.1489177119894E+00
-0.8146155413018E+00  0.6213884221695E+00 -0.3864542440231E-01  0.1323887904255E+00
 0.4222058151736E+00  0.2950395268316E+01  0.6745202267491E+00 -0.3468149177560E+00
 0.4744951002855E-01  0.2844250996524E+01  0.5783401099285E+00 -0.1200453126046E+00
-0.3354047092007E-02  0.2693783651888E+01  0.5380859289774E+00 -0.2179005127341E-01
 0.3593870125202E-02  0.2644971334856E+01  0.5297130488895E+00 -0.1510892305596E-01
-0.4210357164155E-03  0.2614319186686E+01  0.5227796379839E+00 -0.1032403386388E-01
-0.2936584766692E-03  0.2590527910152E+01  0.5180468580546E+00 -0.1080672240217E-01
-0.5757016567739E-03  0.2567241773862E+01  0.5133332220902E+00 -0.1242150155226E-01
-0.5805128256400E-03  0.2542125402587E+01  0.5083089855266E+00 -0.1457629927084E-01
-0.5741303958973E-03  0.2514138260091E+01  0.5027128334300E+00 -0.1685169376863E-01
-0.5440157484929E-03  0.2482898274791E+01  0.4964708592064E+00 -0.1910573992018E-01
-0.5143282818049E-03  0.2448300659421E+01  0.4895572735228E+00 -0.2128170055876E-01
-0.4893211006020E-03  0.2410363749675E+01  0.4819748928968E+00 -0.2337089673896E-01
-0.4724886322418E-03  0.2369144942607E+01  0.4737344978541E+00 -0.2538616147952E-01
-0.4646523236240E-03  0.2324700436497E+01  0.4648471637614E+00 -0.2735010613408E-01
-0.4655243020831E-03  0.2277065983388E+01  0.4553200986020E+00 -0.2928801659432E-01
-0.4739996072501E-03  0.2226250533919E+01  0.4451553134958E+00 -0.3122346820626E-01
-0.4880986699261E-03  0.2172238469825E+01  0.4343500807033E+00 -0.3317459433068E-01
-0.5046830566445E-03  0.2114999596894E+01  0.4228989890692E+00 -0.3515077204169E-01
-0.5195717608472E-03  0.2054503716966E+01  0.4107968351624E+00 -0.3714863481186E-01
-0.5255583997757E-03  0.1990745858640E+01  0.3980440659794E+00 -0.3914469191407E-01
-0.5102484298100E-03  0.1923785923457E+01  0.3846551407372E+00 -0.4108307846931E-01
-0.4343580450795E-03  0.1853817619034E+01  0.3706766577213E+00 -0.4283023090383E-01
-0.9558470821186E-04  0.1781212273659E+01  0.3562233430983E+00 -0.4405727411696E-01
 0.7841599460357E-03  0.1706166555943E+01  0.3413901482650E+00 -0.4426326774792E-01
 0.2085581711411E-02  0.1628039805766E+01  0.3260250823536E+00 -0.4293219228447E-01
 0.3294518572085E-02  0.1545485321748E+01  0.3097559726798E+00 -0.3972891878828E-01
 0.4037221174471E-02  0.1457518405744E+01  0.2923111297395E+00 -0.3470518486697E-01
 0.4294097076773E-02  0.1364327936340E+01  0.2737244107621E+00 -0.2824466290591E-01
 0.4270865106861E-02  0.1267349509156E+01  0.2543240786424E+00 -0.2077416743393E-01
 0.4253812052060E-02  0.1168966942828E+01  0.2346441544725E+00 -0.1252785427628E-01
 0.4534984160453E-02  0.1072168351641E+01  0.2153406703691E+00 -0.3436462924992E-02
 0.5341735839147E-02  0.9802973201100E+00  0.1971278141273E+00  0.6850222118465E-02
 0.6831277699968E-02  0.8970476846713E+00  0.1807757951680E+00  0.1893510162983E-01
 0.9293463174145E-02  0.8267591940615E+00  0.1672105339388E+00  0.3371803542081E-01
 0.1356631395296E-01  0.7745690447672E+00  0.1576270740929E+00  0.5253671411381E-01
 0.2005868927787E-01  0.7459386987920E+00  0.1531994798968E+00  0.7730848775717E-01
 0.3302537675928E-01  0.7463606982066E+00  0.1558772173159E+00  0.1119803982448E+00
 0.4401295364888E-01  0.7791144359008E+00  0.1646254803631E+00  0.1569095645924E+00
 0.1059292755649E+00  0.8491904989131E+00  0.1910239577421E+00  0.2482266976980E+00
 0.1771702937223E+00  0.8151030739127E+00  0.1984546764842E+00  0.2478224264369E+00
-0.9536080888196E+00  0.8093105874242E+00 -0.2885950070912E-01  0.1216704268015E+00
 0.4005725190582E+00  0.3353606672925E+01  0.7508358495849E+00 -0.3478179133753E+00
-0.5964171803174E-01  0.2850888643265E+01  0.5582493933653E+00  0.1014242658609E-01
 0.1086719092238E-01  0.2766051391814E+01  0.5553837248232E+00 -0.7697583874039E-02
-0.2046216826368E-02  0.2733398062292E+01  0.5462703772331E+00 -0.1868566344460E-02
 0.5125250428224E-03  0.2714111764521E+01  0.5429248660029E+00 -0.2216060019648E-02
-0.5536693782537E-04  0.2696763133270E+01  0.5393415613032E+00 -0.2812639973679E-02
 0.7531083404311E-04  0.2677356274975E+01  0.5354863251412E+00 -0.3705184754826E-02
 0.4781249679875E-04  0.2654418873564E+01  0.5308933451231E+00 -0.4626708489433E-02
 0.5735168942500E-04  0.2627515436568E+01  0.5255145654823E+00 -0.5522353896020E-02
 0.5690744070919E-04  0.2596602699540E+01  0.5193319291348E+00 -0.6366806218425E-02
 0.5739050197595E-04  0.2561799004176E+01  0.5123712865704E+00 -0.7158273099198E-02
 0.5605852256407E-04  0.2523265133137E+01  0.5046642458519E+00 -0.7903291647018E-02
 0.5351866470316E-04  0.2481151764334E+01  0.4962410639943E+00 -0.8612494910969E-02
 0.4958913044051E-04  0.2435574396154E+01  0.4871248043157E+00 -0.9297753044803E-02
 0.4430064105232E-04  0.2386604156963E+01  0.4773296986335E+00 -0.9970628332901E-02
 0.3773219045100E-04  0.2334267665253E+01  0.4668610864454E+00 -0.1064122940504E-01
 0.2957896527456E-04  0.2278552645808E+01  0.4557164517453E+00 -0.1131782243613E-01
 0.2049175943997E-04  0.2219424192935E+01  0.4438889435533E+00 -0.1200453550452E-01
 0.1011349833679E-04  0.2156836226170E+01  0.4313692743615E+00 -0.1270174468395E-01
-0.8935689009837E-06  0.2090766926434E+01  0.4181532128039E+00 -0.1340257595940E-01
-0.1154115505431E-04  0.2021259212690E+01  0.4042495403307E+00 -0.1408840687907E-01
-0.2072090789662E-04  0.1948510802219E+01  0.3896980220691E+00 -0.1471769388347E-01
 0.3517887294113E-04  0.1873125983320E+01  0.3746322380210E+00 -0.1510926505029E-01
 0.3502887051947E-03  0.1796149132870E+01  0.3592998896690E+00 -0.1450550957783E-01
 0.8933399070394E-03  0.1716844870960E+01  0.3435476472926E+00 -0.1165399888078E-01
 0.1394856974638E-02  0.1632403365860E+01  0.3267596494361E+00 -0.5965661830618E-02
 0.1748605916061E-02  0.1540801377178E+01  0.3085100012160E+00  0.2007571584284E-02
 0.2001738777266E-02  0.1442013868910E+01  0.2888031258410E+00  0.1116092961817E-01
 0.2256597184317E-02  0.1337836684436E+01  0.2680186603179E+00  0.2045709896665E-01
 0.2611758051347E-02  0.1231273454134E+01  0.2467770461142E+00  0.2926072521367E-01
 0.3152203257415E-02  0.1125980926526E+01  0.2258266293218E+00  0.3741573263723E-01
 0.3963313063557E-02  0.1025949282196E+01  0.2059825221212E+00  0.4517946183470E-01
 0.5046035981701E-02  0.9352696160418E+00  0.1880631332071E+00  0.5296184569448E-01
 0.6459750664138E-02  0.8590772107191E+00  0.1731073948562E+00  0.6117043639799E-01
 0.8351485666974E-02  0.8045496471133E+00  0.1625802289787E+00  0.7080596551224E-01
 0.1185560745708E-01  0.7799643868957E+00  0.1583640012304E+00  0.8395038015162E-01
 0.1485938837644E-01  0.7948133159374E+00  0.1619345432758E+00  0.1039185832131E+00
 0.3304088980843E-01  0.8626235067256E+00  0.1791328819761E+00  0.1367962563599E+00
-0.1434028118550E-02  0.1008556884533E+01  0.2014245742843E+00  0.1863790791910E+00
 0.3351354581731E+00  0.1283590536937E+01  0.3237452038462E+00  0.3692603673816E+00
-0.1089223063199E+01  0.1367105780092E+01  0.5557654420681E-01  0.2690372159089E+00
-0.1670961864889E+01 -0.2281290966169E+01 -0.1857558825886E+01 -0.5151256314019E+00
-0.1444882526017E+01 -0.2345737938814E+01 -0.1781591613952E+01 -0.5465069146810E+00
-0.1226358519898E+01 -0.2402315927934E+01 -0.1705476986155E+01 -0.5597438368897E+00
-0.1020051945731E+01 -0.2446811683251E+01 -0.1629425901489E+01 -0.5587525527524E+00
-0.8292500979338E+00 -0.2479476151608E+01 -0.1555101333340E+01 -0.5475990396152E+00
-0.6545461868973E+00 -0.2500897541073E+01 -0.1483058548384E+01 -0.5292779805363E+00
-0.4962675957928E+00 -0.2512234570852E+01 -0.1413996014737E+01 -0.5060051906961E+00
-0.3543382339239E+00 -0.2515082873044E+01 -0.1348627916854E+01 -0.4800273845496E+00
-0.2279824671949E+00 -0.2511300609631E+01 -0.1287463042843E+01 -0.4532293661581E+00
-0.1160416571254E+00 -0.2502706417455E+01 -0.1230811591931E+01 -0.4268904476397E+00
-0.1731046770278E-01 -0.2490922275363E+01 -0.1178869386251E+01 -0.4018523509717E+00
 0.6932514344890E-01 -0.2477402458467E+01 -0.1131796335188E+01 -0.3786840140483E+00
 0.1448889075850E+00 -0.2463459574992E+01 -0.1089728210917E+01 -0.3577505530585E+00
 0.2102880302365E+00 -0.2450259783392E+01 -0.1052786721313E+01 -0.3392333347528E+00
 0.2662887079999E+00 -0.2438789102551E+01 -0.1021075182849E+01 -0.3231912252147E+00
 0.3135027748567E+00 -0.2429839297410E+01 -0.9946781630772E+00 -0.3096138682782E+00
 0.3519471410022E+00 -0.2424253642923E+01 -0.9739840534325E+00 -0.2984034903167E+00
 0.3814360004136E+00 -0.2422607004152E+01 -0.9593503693236E+00 -0.2896887783504E+00
 0.4023140957303E+00 -0.2425052004624E+01 -0.9506868147686E+00 -0.2838576684052E+00
 0.4123672153893E+00 -0.2433972247093E+01 -0.9501543624906E+00 -0.2807012098295E+00
-0.1643036642260E+01 -0.2224558551070E+01 -0.1817769736255E+01 -0.4852257390873E+00
-0.1424671963482E+01 -0.2288423674083E+01 -0.1745154945229E+01 -0.5192026769364E+00
-0.1212361100797E+01 -0.2344163448281E+01 -0.1671566533827E+01 -0.5366723192938E+00
-0.1011671020392E+01 -0.2389713127686E+01 -0.1598650545542E+01 -0.5406753390566E+00
-0.8250010310665E+00 -0.2424325940938E+01 -0.1527183672968E+01 -0.5344533100684E+00
-0.6534492227022E+00 -0.2448649391675E+01 -0.1457986345059E+01 -0.5206846613381E+00
-0.4974389982977E+00 -0.2463664917435E+01 -0.1391718836865E+01 -0.5014484244853E+00
-0.3569508905268E+00 -0.2470705925331E+01 -0.1328998700082E+01 -0.4788128576025E+00
-0.2313714880646E+00 -0.2471370310214E+01 -0.1270288641969E+01 -0.4545595278410E+00
-0.1197368611765E+00 -0.2467284201123E+01 -0.1215899896197E+01 -0.4299824310532E+00
-0.2100207527101E-01 -0.2459954054408E+01 -0.1166049377992E+01 -0.4059913322264E+00
 0.6584303989580E-01 -0.2450752294011E+01 -0.1120907346591E+01 -0.3832344477086E+00
 0.1417427911401E+00 -0.2440944748674E+01 -0.1080624917300E+01 -0.3621577343014E+00
 0.2075477001256E+00 -0.2431681793494E+01 -0.1045343021232E+01 -0.3430277056760E+00
 0.2639782120254E+00 -0.2423976734182E+01 -0.1015199302839E+01 -0.3259781114378E+00
 0.3115166781886E+00 -0.2418736620860E+01 -0.9903933705435E+00 -0.3110442674994E+00
 0.3502958950912E+00 -0.2416693874743E+01 -0.9712070479732E+00 -0.2982205206028E+00
 0.3802704365148E+00 -0.2418424477133E+01 -0.9579323966611E+00 -0.2876828954419E+00
 0.4008743857658E+00 -0.2424820768519E+01 -0.9512547974813E+00 -0.2796814890379E+00
 0.4113991353697E+00 -0.2436108475432E+01 -0.9516133874157E+00 -0.2745636419759E+00
-0.1615562269855E+01 -0.2170273948767E+01 -0.1779343018240E+01 -0.4560582610851E+00
-0.1403484993091E+01 -0.2232877397832E+01 -0.1709090319399E+01 -0.4924759872172E+00
-0.1197369334265E+01 -0.2288282089028E+01 -0.1638256164792E+01 -0.5137902215929E+00
-0.1001840117919E+01 -0.2334382031030E+01 -0.1568024406029E+01 -0.5222531371013E+00
-0.8193945068140E+00 -0.2370640858096E+01 -0.1499316617705E+01 -0.5205213298062E+00
-0.6511252987301E+00 -0.2397415333974E+01 -0.1432814093737E+01 -0.5109280709421E+00
-0.4975770469331E+00 -0.2415563700220E+01 -0.1369176147689E+01 -0.4954210346335E+00
-0.3587899855989E+00 -0.2426235652020E+01 -0.1308962046361E+01 -0.4759150567588E+00
-0.2342805338971E+00 -0.2430823771731E+01 -0.1252599020468E+01 -0.4540887063347E+00
-0.1232429757949E+00 -0.2430781127960E+01 -0.1200391325720E+01 -0.4312266341250E+00
-0.2476662055075E-01 -0.2427492298905E+01 -0.1152561689221E+01 -0.4082820316923E+00
 0.6205734567784E-01 -0.2422250100554E+01 -0.1109290591978E+01 -0.3859638968093E+00
 0.1380955976467E+00 -0.2416269482163E+01 -0.1070741723007E+01 -0.3647835208721E+00
 0.2041348526690E+00 -0.2410680061591E+01 -0.1037076245563E+01 -0.3450756993002E+00
 0.2608257952554E+00 -0.2406509729571E+01 -0.1008471446571E+01 -0.3270365049904E+00
 0.3086167354348E+00 -0.2404657919444E+01 -0.9851393539855E+00 -0.3107675136606E+00
 0.3476675884777E+00 -0.2405862860002E+01 -0.9673517751629E+00 -0.2963409621319E+00
 0.3778378848004E+00 -0.2410809887827E+01 -0.9554968389991E+00 -0.2839552274497E+00
 0.3988425831427E+00 -0.2420040151255E+01 -0.9499628546032E+00 -0.2739698121782E+00
 0.4101703593652E+00 -0.2433892314521E+01 -0.9511493165107E+00 -0.2669993673290E+00
-0.1588044657061E+01 -0.2117683440011E+01 -0.1741692201206E+01 -0.4275688201620E+00
-0.1381734685610E+01 -0.2179217787856E+01 -0.1673647658284E+01 -0.4662998824681E+00
-0.1181314166433E+01 -0.2234128017109E+01 -0.1605257822193E+01 -0.4910976192582E+00
-0.9908307674037E+00 -0.2280637712738E+01 -0.1537590181767E+01 -0.5035941806932E+00
-0.8125774388455E+00 -0.2318169650404E+01 -0.1471451128215E+01 -0.5059462575532E+00
-0.6477107817439E+00 -0.2346989737906E+01 -0.1407509240665E+01 -0.5001928323890E+00
-0.4967997182728E+00 -0.2367800064212E+01 -0.1346361894353E+01 -0.4881366394623E+00
-0.3599435564669E+00 -0.2381608729142E+01 -0.1288529570968E+01 -0.4715541685814E+00
-0.2367645098707E+00 -0.2389642021582E+01 -0.1234411066652E+01 -0.4520272703108E+00
-0.1265863241049E+00 -0.2393201652722E+01 -0.1184300346105E+01 -0.4308175329562E+00
-0.2861428056748E-01 -0.2393557141653E+01 -0.1138420565556E+01 -0.4089019779534E+00
 0.5796716790910E-01 -0.2391920415010E+01 -0.1096958023355E+01 -0.3870334117215E+00
 0.1339476571499E+00 -0.2389452357969E+01 -0.1060087206696E+01 -0.3657748271293E+00
 0.2000461767494E+00 -0.2387252815555E+01 -0.1027987117631E+01 -0.3455180780836E+00
 0.2568588726292E+00 -0.2386332121983E+01 -0.1000852424658E+01 -0.3265195758891E+00
 0.3047997310851E+00 -0.2387579471597E+01 -0.9789064755578E+00 -0.3089468828108E+00
 0.3440187451270E+00 -0.2391747271087E+01 -0.9624324047601E+00 -0.2929448225979E+00
 0.3744597773278E+00 -0.2399460934968E+01 -0.9517505416770E+00 -0.2787801203440E+00
 0.3959569668998E+00 -0.2411242412270E+01 -0.9471841569216E+00 -0.2669011273059E+00
 0.4082997181754E+00 -0.2427501349601E+01 -0.9490247643631E+00 -0.2580263858775E+00
-0.1560447859712E+01 -0.2066584424342E+01 -0.1704705169181E+01 -0.3996701650529E+00
-0.1359417676295E+01 -0.2127107437788E+01 -0.1638666799463E+01 -0.4406320471863E+00
-0.1164367013764E+01 -0.2181484006096E+01 -0.1572549975346E+01 -0.4686186392211E+00
-0.9787638841279E+00 -0.2228197507033E+01 -0.1507271850022E+01 -0.4847797689662E+00
-0.8047070081019E+00 -0.2266711046439E+01 -0.1443566481973E+01 -0.4908616021084E+00
-0.6433282996968E+00 -0.2297198097985E+01 -0.1382047403405E+01 -0.4886418851618E+00
-0.4952118859959E+00 -0.2320252850561E+01 -0.1323268422825E+01 -0.4797808294039E+00
-0.3604915436576E+00 -0.2336756335774E+01 -0.1267706500118E+01 -0.4659256296725E+00
-0.2388761906176E+00 -0.2347796673679E+01 -0.1215736243136E+01 -0.4485677285486E+00
-0.1297965561193E+00 -0.2354544048006E+01 -0.1167640080977E+01 -0.4289374844249E+00
-0.3255819049274E-01 -0.2358161686667E+01 -0.1123638339415E+01 -0.4080211980487E+00
 0.5356896129310E-01 -0.2359781762689E+01 -0.1083920013907E+01 -0.3866015210932E+00
 0.1293005451243E+00 -0.2360507212011E+01 -0.1048667130777E+01 -0.3652821450962E+00
 0.1952923305014E+00 -0.2361396962038E+01 -0.1018069174240E+01 -0.3445046484122E+00
 0.2520904237512E+00 -0.2363433162871E+01 -0.9923310848692E+00 -0.3245822711109E+00
 0.3000766358072E+00 -0.2367488061478E+01 -0.9716833676007E+00 -0.3057472821970E+00
 0.3394215143699E+00 -0.2374296149671E+01 -0.9563910761660E+00 -0.2882209003584E+00
 0.3701355172635E+00 -0.2384471761884E+01 -0.9467380325704E+00 -0.2723373572115E+00
 0.3921795534136E+00 -0.2398542871756E+01 -0.9429907572291E+00 -0.2586023744137E+00
 0.4055531493840E+00 -0.2417024189824E+01 -0.9453913866088E+00 -0.2477521816469E+00
-0.1532690365972E+01 -0.2016750644533E+01 -0.1668237270706E+01 -0.3723035313601E+00
-0.1336573939001E+01 -0.2076309871793E+01 -0.1604055387005E+01 -0.4154401870263E+00
-0.1146620784096E+01 -0.2130095039628E+01 -0.1540056433244E+01 -0.4463741943234E+00
-0.9657721733497E+00 -0.2176842751694E+01 -0.1477029011024E+01 -0.4658846898479E+00
-0.7959042931675E+00 -0.2216067670381E+01 -0.1415626819277E+01 -0.4753832155356E+00
-0.6380921792666E+00 -0.2247889059115E+01 -0.1356411178599E+01 -0.4764200385237E+00
-0.4929074973318E+00 -0.2272811166811E+01 -0.1299887768850E+01 -0.4705178830672E+00
-0.3605067031310E+00 -0.2291610365060E+01 -0.1246495018888E+01 -0.4592044479515E+00
-0.2406654963398E+00 -0.2305255441744E+01 -0.1196582837864E+01 -0.4438861836092E+00
-0.1329033569638E+00 -0.2314801712261E+01 -0.1150421379618E+01 -0.4257572185714E+00
-0.3661261406910E-01 -0.2321314991371E+01 -0.1108225971746E+01 -0.4058025771799E+00
 0.4885926531358E-01 -0.2325849851165E+01 -0.1070185572636E+01 -0.3848239229090E+00
 0.1241594046453E+00 -0.2329448210272E+01 -0.1036485736016E+01 -0.3634570222650E+00
 0.1898851598000E+00 -0.2333121973165E+01 -0.1007321299727E+01 -0.3421869351122E+00
 0.2465378187272E+00 -0.2337818466686E+01 -0.9829019020475E+00 -0.3213800009381E+00
 0.2944787070681E+00 -0.2344384027284E+01 -0.9634554980578E+00 -0.3013314780773E+00
 0.3338996058755E+00 -0.2353540424944E+01 -0.9492311825545E+00 -0.2823336097990E+00
 0.3648747455249E+00 -0.2365901964459E+01 -0.9404827905134E+00 -0.2647782153603E+00
 0.3874609549724E+00 -0.2382025121028E+01 -0.9374451556685E+00 -0.2492033363162E+00
 0.4018134757799E+00 -0.2402491096123E+01 -0.9403184791764E+00 -0.2363219182496E+00
-0.1504702491610E+01 -0.1967987767643E+01 -0.1632164417709E+01 -0.3454256253907E+00
-0.1313223631223E+01 -0.2026605300348E+01 -0.1569719593857E+01 -0.3907015334416E+00
-0.1128157821992E+01 -0.2079742454090E+01 -0.1507713125934E+01 -0.4243845638651E+00
-0.9519608554057E+00 -0.2126369270062E+01 -0.1446815155300E+01 -0.4469745432689E+00
-0.7862785933134E+00 -0.2166067254742E+01 -0.1387602545066E+01 -0.4596133540288E+00
-0.6321013403573E+00 -0.2198924002989E+01 -0.1330581907998E+01 -0.4636553331177E+00
-0.4899715078835E+00 -0.2225374583478E+01 -0.1276212659703E+01 -0.4604944768405E+00
-0.3600549078087E+00 -0.2246106377540E+01 -0.1224895801007E+01 -0.4515484403779E+00
-0.2421785946800E+00 -0.2261985655705E+01 -0.1176957194696E+01 -0.4381441397662E+00
-0.1359348703569E+00 -0.2273966219642E+01 -0.1132653509427E+01 -0.4214365260284E+00
-0.4079100567979E-01 -0.2283024696414E+01 -0.1092193377214E+01 -0.4024018215907E+00
 0.4383614291109E-01 -0.2290140880230E+01 -0.1055763223862E+01 -0.3818524802305E+00
 0.1185313597903E+00 -0.2296294623080E+01 -0.1023548731150E+01 -0.3604493365061E+00
 0.1838392329692E+00 -0.2302447505097E+01 -0.9957458853745E+00 -0.3387153131629E+00
 0.2402231805256E+00 -0.2309507826333E+01 -0.9725637810629E+00 -0.3170655884531E+00
 0.2880299246127E+00 -0.2318295442593E+01 -0.9542247910305E+00 -0.2958535785593E+00
 0.3274724489676E+00 -0.2329522094569E+01 -0.9409633310459E+00 -0.2754337777363E+00
 0.3586766081954E+00 -0.2343810425067E+01 -0.9330128915632E+00 -0.2562441106039E+00
 0.3817714521488E+00 -0.2361743529074E+01 -0.9305868737946E+00 -0.2388392567622E+00
 0.3970037805002E+00 -0.2383944603977E+01 -0.9338621846654E+00 -0.2238930688241E+00
-0.1476417418978E+01 -0.1920120721707E+01 -0.1596372922073E+01 -0.3190069265360E+00
-0.1289379875966E+01 -0.1977799958557E+01 -0.1535574518331E+01 -0.3664011518300E+00
-0.1109043100922E+01 -0.2030230022909E+01 -0.1475458364458E+01 -0.4026694330034E+00
-0.9374195399748E+00 -0.2076596167921E+01 -0.1416587379118E+01 -0.4281071629866E+00
-0.7759233996234E+00 -0.2116554362726E+01 -0.1359464544856E+01 -0.4436419312392E+00
-0.6254433446930E+00 -0.2150178949480E+01 -0.1304542474952E+01 -0.4504614815258E+00
-0.4864791064834E+00 -0.2177851748035E+01 -0.1252235498448E+01 -0.4498419707661E+00
-0.3591953839144E+00 -0.2200185217581E+01 -0.1202908879652E+01 -0.4431005580990E+00
-0.2434572556296E+00 -0.2217956640440E+01 -0.1156864528219E+01 -0.4314900555608E+00
-0.1389165556727E+00 -0.2232029780825E+01 -0.1114344775327E+01 -0.4161249069666E+00
-0.4510482303086E-01 -0.2243299450449E+01 -0.1075550005808E+01 -0.3979672712999E+00
 0.3849961906877E-01 -0.2252674098956E+01 -0.1040662002907E+01 -0.3778341373666E+00
 0.1124257269282E+00 -0.2261071996661E+01 -0.1009863744213E+01 -0.3564055580070E+00
 0.1771714738813E+00 -0.2269403135822E+01 -0.9833488786178E+00 -0.3342369550794E+00
 0.2331682019921E+00 -0.2278535763246E+01 -0.9613227513509E+00 -0.3117870477107E+00
 0.2807521287562E+00 -0.2289263868116E+01 -0.9440005151050E+00 -0.2894607059699E+00
 0.3201544117625E+00 -0.2302291612090E+01 -0.9316044817908E+00 -0.2676648766573E+00
 0.3515411956845E+00 -0.2318251338015E+01 -0.9243537645510E+00 -0.2468736321494E+00
 0.3750898114997E+00 -0.2337747925250E+01 -0.9224493111231E+00 -0.2276495412103E+00
 0.3910882616055E+00 -0.2361424615004E+01 -0.9260580837483E+00 -0.2106269183287E+00
-0.1447773245351E+01 -0.1872993448224E+01 -0.1560760342022E+01 -0.2930290368238E+00
-0.1265049040625E+01 -0.1929721641847E+01 -0.1501542216954E+01 -0.3425304794588E+00
-0.1089328989944E+01 -0.1981384059655E+01 -0.1443235129651E+01 -0.3812478752946E+00
-0.9222231481124E+00 -0.2027362316614E+01 -0.1386305164905E+01 -0.4093336220430E+00
-0.7649193091037E+00 -0.2067390479410E+01 -0.1331185597225E+01 -0.4275481687258E+00
-0.6181945405878E+00 -0.2101542762093E+01 -0.1278276529018E+01 -0.4369396038731E+00
-0.4824966198605E+00 -0.2130160775633E+01 -0.1227948972768E+01 -0.4386783441137E+00
-0.3579805383750E+00 -0.2153793719956E+01 -0.1180533898421E+01 -0.4339905953380E+00
-0.2445384695293E+00 -0.2173141354227E+01 -0.1136309514283E+01 -0.4240605719034E+00
-0.1418704698179E+00 -0.2188987126064E+01 -0.1095503067286E+01 -0.4099620883336E+00
-0.4956287771008E-01 -0.2202150795710E+01 -0.1058305423823E+01 -0.3926396852921E+00
 0.3285207387347E-01 -0.2213473270304E+01 -0.1024891959723E+01 -0.3729100850533E+00
 0.1058539954534E+00 -0.2223812825380E+01 -0.9954406475406E+00 -0.3514675145310E+00
 0.1699000774744E+00 -0.2234028233574E+01 -0.9701402309060E+00 -0.3288945564535E+00
 0.2253945090174E+00 -0.2244947952481E+01 -0.9491901160205E+00 -0.3056874425876E+00
 0.2726653860895E+00 -0.2257341039934E+01 -0.9327975549408E+00 -0.2822948907348E+00
 0.3119586158094E+00 -0.2271904636823E+01 -0.9211746275398E+00 -0.2591668001401E+00
 0.3434700652285E+00 -0.2289279680720E+01 -0.9145305169616E+00 -0.2368053763731E+00
 0.3674055495808E+00 -0.2310086940918E+01 -0.9130602516127E+00 -0.2157776080563E+00
 0.3840588952057E+00 -0.2334973613198E+01 -0.9169299151308E+00 -0.1966869473752E+00
-0.1418713222900E+01 -0.1826467168842E+01 -0.1525234780250E+01 -0.2674828035396E+00
-0.1240232776321E+01 -0.1882218175806E+01 -0.1467551943778E+01 -0.3190861472332E+00
-0.1069057225327E+01 -0.1933051151334E+01 -0.1410990933452E+01 -0.3601383691083E+00
-0.9064343048107E+00 -0.1978525217242E+01 -0.1355930971926E+01 -0.3906991891449E+00
-0.7533352019121E+00 -0.2018452689999E+01 -0.1302740305894E+01 -0.4114020083180E+00
-0.6104211036189E+00 -0.2052916815473E+01 -0.1251768818798E+01 -0.4231797638217E+00
-0.4780818261599E+00 -0.2082229190539E+01 -0.1203346174797E+01 -0.4271097112988E+00
-0.3564560487598E+00 -0.2106885498958E+01 -0.1157770524491E+01 -0.4243365476690E+00
-0.2454541104745E+00 -0.2127517597108E+01 -0.1115296699735E+01 -0.4159814578253E+00
-0.1448147874413E+00 -0.2144836991330E+01 -0.1076136333293E+01 -0.4030784207035E+00
-0.5417085953446E-01 -0.2159594569976E+01 -0.1040469749231E+01 -0.3865520763508E+00
 0.2689853963724E-01 -0.2172567696876E+01 -0.1008464501345E+01 -0.3672151563961E+00
 0.9882978579072E-01 -0.2184556968781E+01 -0.9802917735191E+00 -0.3457715915647E+00
 0.1620445964756E+00 -0.2196371172359E+01 -0.9561334882401E+00 -0.3228258292016E+00
 0.2169240188345E+00 -0.2208799738892E+01 -0.9361815860526E+00 -0.2989052371515E+00
 0.2637894906884E+00 -0.2222587197959E+01 -0.9206349200823E+00 -0.2744945857127E+00
 0.3028983904640E+00 -0.2238422907992E+01 -0.9096965209308E+00 -0.2500779659796E+00
 0.3344679321525E+00 -0.2256953871172E+01 -0.9035683890472E+00 -0.2261793466444E+00
 0.3587184114271E+00 -0.2278811848791E+01 -0.9024439132723E+00 -0.2033698440505E+00
 0.3759256707247E+00 -0.2304641130658E+01 -0.9064962638694E+00 -0.1822353690759E+00
-0.1389186234865E+01 -0.1780419039210E+01 -0.1489714475037E+01 -0.2423666280351E+00
-0.1214929398603E+01 -0.1835155582337E+01 -0.1433539937406E+01 -0.2960689623033E+00
-0.1048260908250E+01 -0.1885096455703E+01 -0.1378677957561E+01 -0.3393587638300E+00
-0.8901050626879E+00 -0.1929959472245E+01 -0.1325430328057E+01 -0.3722440948459E+00
-0.7412296047615E+00 -0.1969632739667E+01 -0.1274105298650E+01 -0.3952652938377E+00
-0.6021798622712E+00 -0.2004214427038E+01 -0.1225005312868E+01 -0.4092622368518E+00
-0.4732844817967E+00 -0.2033993921193E+01 -0.1178420846416E+01 -0.4152315639042E+00
-0.3546610151716E+00 -0.2059421381190E+01 -0.1134618723412E+01 -0.4142456931212E+00
-0.2462308435533E+00 -0.2081068849297E+01 -0.1093830852865E+01 -0.4073683693971E+00
-0.1477635450485E+00 -0.2099583114513E+01 -0.1056252927315E+01 -0.3955952082011E+00
-0.5893106987505E-01 -0.2115651833824E+01 -0.1022053962146E+01 -0.3798296204135E+00
 0.2064688147134E-01 -0.2129992846725E+01 -0.9913926011549E+00 -0.3608774354829E+00
 0.9136901198955E-01 -0.2143351736781E+01 -0.9644318782058E+00 -0.3394482824868E+00
 0.1536262367750E+00 -0.2156488894826E+01 -0.9413454468965E+00 -0.3161633194072E+00
 0.2077797195639E+00 -0.2170155444931E+01 -0.9223165885833E+00 -0.2915746681180E+00
 0.2541451393967E+00 -0.2185071124489E+01 -0.9075352106917E+00 -0.2661955862059E+00
 0.2929886494468E+00 -0.2201915700138E+01 -0.8971957115493E+00 -0.2405364343903E+00
 0.3245431188161E+00 -0.2221338898254E+01 -0.8914940140746E+00 -0.2151376016198E+00
 0.3490356084781E+00 -0.2243980012697E+01 -0.8906238677241E+00 -0.1905750050559E+00
 0.3667138224640E+00 -0.2270480788308E+01 -0.8947704716772E+00 -0.1674311269901E+00
-0.1359146943264E+01 -0.1734740729728E+01 -0.1454127202618E+01 -0.2176850774443E+00
-0.1189135010258E+01 -0.1788416463061E+01 -0.1399449188911E+01 -0.2734831192880E+00
-0.1026966019093E+01 -0.1837402052915E+01 -0.1346252990429E+01 -0.3189262975283E+00
-0.8732783514370E+00 -0.1881555444774E+01 -0.1294771880935E+01 -0.3540041993913E+00
-0.7286517663366E+00 -0.1920836084735E+01 -0.1245259286845E+01 -0.3791927750211E+00
-0.5935190378784E+00 -0.1955360356593E+01 -0.1197973312363E+01 -0.3952585798940E+00
-0.4681467462808E+00 -0.1985401194228E+01 -0.1153167529114E+01 -0.4031297906380E+00
-0.3526281223786E+00 -0.2011369689126E+01 -0.1111078968589E+01 -0.4038154595253E+00
-0.2468900607149E+00 -0.2033784830869E+01 -0.1071917196326E+01 -0.3983274456630E+00
-0.1507264485270E+00 -0.2053234921650E+01 -0.1035861841356E+01 -0.3876249661570E+00
-0.6384218412477E-01 -0.2070349493328E+01 -0.1003070085859E+01 -0.3725895945572E+00
 0.1410805031153E-01 -0.2085790743564E+01 -0.9736908633590E+00 -0.3540179866858E+00
 0.8349020363539E-01 -0.2100251970368E+01 -0.9478780279603E+00 -0.3326218897618E+00
 0.1446684042896E+00 -0.2114446766761E+01 -0.9257958280136E+00 -0.3090342796504E+00
 0.1979865555320E+00 -0.2129088384077E+01 -0.9076178571139E+00 -0.2838258952379E+00
 0.2437551463864E+00 -0.2144870847518E+01 -0.8935243772656E+00 -0.2575313819315E+00
 0.2822470839814E+00 -0.2162461736321E+01 -0.8837008843582E+00 -0.2306802331810E+00
 0.3137074070375E+00 -0.2182509729821E+01 -0.8783370894803E+00 -0.2038243719421E+00
 0.3383679720916E+00 -0.2205658397312E+01 -0.8776264976278E+00 -0.1775441234740E+00
 0.3564502860592E+00 -0.2232551228036E+01 -0.8817674404924E+00 -0.1524272946813E+00
-0.1328555989030E+01 -0.1689337226108E+01 -0.1418409807517E+01 -0.1934476800565E+00
-0.1162844462539E+01 -0.1741898550128E+01 -0.1365229212491E+01 -0.2513355223601E+00
-0.1005192775763E+01 -0.1789865519542E+01 -0.1313677395461E+01 -0.2988575929626E+00
-0.8559892874083E+00 -0.1833218060279E+01 -0.1263927450207E+01 -0.3360115323639E+00
-0.7156427077340E+00 -0.1871981050938E+01 -0.1216183163491E+01 -0.3632329364079E+00
-0.5844790062091E+00 -0.1906290319906E+01 -0.1170661580305E+01 -0.3812325251134E+00
-0.4627036924995E+00 -0.1936406383843E+01 -0.1127581733021E+01 -0.3908815290314E+00
-0.3503839145602E+00 -0.1962706377739E+01 -0.1087152434623E+01 -0.3931341452481E+00
-0.2474479636935E+00 -0.1985661846022E+01 -0.1049561607904E+01 -0.3889558094661E+00
-0.1537088235211E+00 -0.2005807952256E+01 -0.1014972882041E+01 -0.3792716550858E+00
-0.6889912099984E-01 -0.2023720673456E+01 -0.9835313008997E+00 -0.3649413639518E+00
 0.7296289408853E-02 -0.2040010190107E+01 -0.9553755309047E+00 -0.3467506771384E+00
 0.7521484443212E-01 -0.2055320104576E+01 -0.9306494699069E+00 -0.3254103006588E+00
 0.1351972657153E+00 -0.2070318618796E+01 -0.9095070336409E+00 -0.3015604989447E+00
 0.1875722805291E+00 -0.2085681167639E+01 -0.8921111746789E+00 -0.2757849035938E+00
 0.2326455458738E+00 -0.2102074575847E+01 -0.8786316418590E+00 -0.2486330339022E+00
 0.2706952259803E+00 -0.2120151099020E+01 -0.8692442581240E+00 -0.2206470923288E+00
 0.3019766373288E+00 -0.2140554171366E+01 -0.8641314388057E+00 -0.1923858643887E+00
 0.3267272750250E+00 -0.2163928315233E+01 -0.8634844867077E+00 -0.1644322921762E+00
 0.3451549727235E+00 -0.2190919563331E+01 -0.8675093553851E+00 -0.1373821721428E+00
-0.1297379912525E+01 -0.1644125511692E+01 -0.1382507545875E+01 -0.1696678548185E+00
-0.1136052045449E+01 -0.1695513251103E+01 -0.1330835686004E+01 -0.2296351965172E+00
-0.9829566826933E+00 -0.1742398488395E+01 -0.1280916927163E+01 -0.2791686351505E+00
-0.8382662385284E+00 -0.1784865579043E+01 -0.1232871951131E+01 -0.3182947231022E+00
-0.7022361058517E+00 -0.1822997912751E+01 -0.1186859985733E+01 -0.3474286723804E+00
-0.5750929661129E+00 -0.1856950384903E+01 -0.1143060372078E+01 -0.3672407145241E+00
-0.4569837720158E+00 -0.1886973694450E+01 -0.1101660006445E+01 -0.3785558624423E+00
-0.3479490704153E+00 -0.1913414960126E+01 -0.1062841091659E+01 -0.3822815024853E+00
-0.2479156748195E+00 -0.1936702878052E+01 -0.1026770717245E+01 -0.3793419676523E+00
-0.1567116015337E+00 -0.1957324028081E+01 -0.9935967433990E+00 -0.3706308632377E+00
-0.7409293115592E-01 -0.1975804867647E+01 -0.9634519629936E+00 -0.3569863605335E+00
 0.2293495494641E-03 -0.1992706846189E+01 -0.9364644210455E+00 -0.3391820053329E+00
 0.6656773374852E-01 -0.2008626201198E+01 -0.9127674773863E+00 -0.3179247318942E+00
 0.1252423155083E+00 -0.2024186859510E+01 -0.8925039334171E+00 -0.2938580029229E+00
 0.1765682651034E+00 -0.2040026107372E+01 -0.8758251836446E+00 -0.2675731334991E+00
 0.2208465940213E+00 -0.2056781628868E+01 -0.8628894641892E+00 -0.2396286409763E+00
 0.2583596113251E+00 -0.2075086820640E+01 -0.8538617862123E+00 -0.2105736740132E+00
 0.2893719023222E+00 -0.2095575393780E+01 -0.8489156388319E+00 -0.1809694099147E+00
 0.3141290580358E+00 -0.2118888712433E+01 -0.8482370354154E+00 -0.1513987293236E+00
 0.3328391358205E+00 -0.2145674285434E+01 -0.8520325181573E+00 -0.1224638260702E+00
-0.1265591110594E+01 -0.1599033483208E+01 -0.1346373555672E+01 -0.1463620321878E+00
-0.1108752091576E+01 -0.1649184400836E+01 -0.1296230148146E+01 -0.2083928198674E+00
-0.9602694772373E+00 -0.1694925423769E+01 -0.1247941600308E+01 -0.2598747747932E+00
-0.8201318058670E+00 -0.1736428544210E+01 -0.1201583361489E+01 -0.3008793784782E+00
-0.6884591423825E+00 -0.1773828097197E+01 -0.1157274999667E+01 -0.3318178704535E+00
-0.5653876118644E+00 -0.1807296436825E+01 -0.1115161500056E+01 -0.3533333367041E+00
-0.4510093124830E+00 -0.1837075859699E+01 -0.1075400028198E+01 -0.3662144239170E+00
-0.3453387316086E+00 -0.1863486397173E+01 -0.1038147807894E+01 -0.3713292423026E+00
-0.2482994144992E+00 -0.1886917608113E+01 -0.1003551998082E+01 -0.3695661608856E+00
-0.1597313718857E+00 -0.1907811327570E+01 -0.9717450662794E+00 -0.3617899718988E+00
-0.7941073941034E-01 -0.1926648005548E+01 -0.9428476077390E+00 -0.3488180681804E+00
-0.7071335911503E-02 -0.1943943265662E+01 -0.9169768604138E+00 -0.3314109340339E+00
 0.5757730824336E-01 -0.1960247991057E+01 -0.8942552186545E+00 -0.3102694387332E+00
 0.1148368792986E+00 -0.1976142624390E+01 -0.8748136979741E+00 -0.2860366410865E+00
 0.1650101940299E+00 -0.1992225616832E+01 -0.8587912465390E+00 -0.2593069011913E+00
 0.2083936481349E+00 -0.2009103222062E+01 -0.8463334975989E+00 -0.2306425114170E+00
 0.2452728047152E+00 -0.2027386181779E+01 -0.8375932850957E+00 -0.2005944192634E+00
 0.2759210335486E+00 -0.2047693751982E+01 -0.8327331755514E+00 -0.1697219369894E+00
 0.3005946827151E+00 -0.2070659602683E+01 -0.8319305102750E+00 -0.1386044889589E+00
 0.3195125172013E+00 -0.2096930756226E+01 -0.8353865702226E+00 -0.1078462544720E+00
-0.1233167649557E+01 -0.1553998834855E+01 -0.1309968244351E+01 -0.1235488498788E+00
-0.1080939408725E+01 -0.1602847014312E+01 -0.1261379615628E+01 -0.1876202805244E+00
-0.9371398942216E+00 -0.1647382387994E+01 -0.1214725469561E+01 -0.2409906845056E+00
-0.8016036630529E+00 -0.1687848695985E+01 -0.1170042605780E+01 -0.2837883582996E+00
-0.6743332648345E+00 -0.1724423314551E+01 -0.1127415589452E+01 -0.3164338678594E+00
-0.5553837653594E+00 -0.1757293532402E+01 -0.1086958327191E+01 -0.3395546387871E+00
-0.4447970113669E+00 -0.1786693695307E+01 -0.1048800629477E+01 -0.3539118866565E+00
-0.3425628572143E+00 -0.1812918810322E+01 -0.1013076381173E+01 -0.3603414446883E+00
-0.2486007256977E+00 -0.1836322236175E+01 -0.9799137895949E+00 -0.3597006440254E+00
-0.1627604914199E+00 -0.1857304258728E+01 -0.9494304301616E+00 -0.3528282770870E+00
-0.8483574803046E-01 -0.1876302334695E+01 -0.9217348965432E+00 -0.3405219792227E+00
-0.1458054113793E-01 -0.1893788776112E+01 -0.8969335768327E+00 -0.3235286879540E+00
 0.4827588436692E-01 -0.1910270784845E+01 -0.8751376010052E+00 -0.3025413556973E+00
 0.1040185082945E+00 -0.1926285791962E+01 -0.8564656211516E+00 -0.2781995505295E+00
 0.1529386187779E+00 -0.1942392424351E+01 -0.8410432864860E+00 -0.2510966343568E+00
 0.1953278570310E+00 -0.1959162962745E+01 -0.8290024975828E+00 -0.2217940963884E+00
 0.2314742401282E+00 -0.1977181533430E+01 -0.8204824257709E+00 -0.1908401093387E+00
 0.2616595591795E+00 -0.1997048078870E+01 -0.8156326021860E+00 -0.1587880672861E+00
 0.2861528138040E+00 -0.2019383778088E+01 -0.8146185511472E+00 -0.1262100333003E+00
 0.3051902198938E+00 -0.2044831637961E+01 -0.8176314644180E+00 -0.9370631785083E-01
-0.1200093021803E+01 -0.1508968033094E+01 -0.1273258692572E+01 -0.1012484843177E+00
-0.1052609616096E+01 -0.1556446142509E+01 -0.1226256203434E+01 -0.1673303206168E+00
-0.9135743175915E+00 -0.1599715902104E+01 -0.1181246400261E+01 -0.2225303357749E+00
-0.7826953007526E+00 -0.1639077952588E+01 -0.1138233426183E+01 -0.2670420168413E+00
-0.6598748860866E+00 -0.1674744719237E+01 -0.1097271211719E+01 -0.3013058458130E+00
-0.5450969770981E+00 -0.1706915247377E+01 -0.1058445742819E+01 -0.3259433698391E+00
-0.4383584225246E+00 -0.1735815611374E+01 -0.1021861793341E+01 -0.3416963890295E+00
-0.3396265912602E+00 -0.1761717123757E+01 -0.9876315435530E+00 -0.3493749128023E+00
-0.2488167274162E+00 -0.1784939209070E+01 -0.9558652877239E+00 -0.3498099255944E+00
-0.1657872339597E+00 -0.1805843228110E+01 -0.9266663148225E+00 -0.3438170845924E+00
-0.9034728804684E-01 -0.1824826198346E+01 -0.9001315363217E+00 -0.3321755297303E+00
-0.2226919716440E-01 -0.1842319259043E+01 -0.8763565721947E+00 -0.3156185201968E+00
 0.3869982180114E-01 -0.1858787280140E+01 -0.8554411032496E+00 -0.2948296790588E+00
 0.9282926493678E-01 -0.1874724866742E+01 -0.8374909307242E+00 -0.2704425230806E+00
 0.1403993627698E+00 -0.1890649588498E+01 -0.8226176040058E+00 -0.2430459725378E+00
 0.1816966749625E+00 -0.1907097036878E+01 -0.8109381680435E+00 -0.2131967607709E+00
 0.2170108299159E+00 -0.1924620681851E+01 -0.8025766283741E+00 -0.1814362498705E+00
 0.2466314848901E+00 -0.1943796235787E+01 -0.7976674308983E+00 -0.1483081035915E+00
 0.2708411554132E+00 -0.1965227185160E+01 -0.7963614319612E+00 -0.1143729513652E+00
 0.2898968976936E+00 -0.1989547374357E+01 -0.7988357220059E+00 -0.8022099582271E-01
-0.1166355904369E+01 -0.1463895395035E+01 -0.1236218107585E+01 -0.7948206930297E-01
-0.1023759418998E+01 -0.1509935813194E+01 -0.1190836756110E+01 -0.1475362152227E+00
-0.8895773668451E+00 -0.1551881887094E+01 -0.1147485846441E+01 -0.2045069578582E+00
-0.7634167216551E+00 -0.1590077447986E+01 -0.1106142256926E+01 -0.2506583877955E+00
-0.6450960628661E+00 -0.1624762097323E+01 -0.1066833332583E+01 -0.2864591504125E+00
-0.5345381320292E+00 -0.1656143020573E+01 -0.1029620139111E+01 -0.3125331523295E+00
-0.4317004684998E+00 -0.1684437093853E+01 -0.9945846517832E+00 -0.3296098971106E+00
-0.3365306736628E+00 -0.1709892651790E+01 -0.9618189605232E+00 -0.3384794788033E+00
-0.2489404261158E+00 -0.1732796875299E+01 -0.9314165293027E+00 -0.3399509755516E+00
-0.1687960092582E+00 -0.1753474325070E+01 -0.9034670548427E+00 -0.3348197879788E+00
-0.9592095080464E-01 -0.1772283722156E+01 -0.8780561940644E+00 -0.3238480246159E+00
-0.3010443518353E-01 -0.1789616831378E+01 -0.8552689931148E+00 -0.3077554636854E+00
 0.2888957332514E-01 -0.1805897251748E+01 -0.8351936067403E+00 -0.2872154181549E+00
 0.8131586878222E-01 -0.1821576707671E+01 -0.8179225922034E+00 -0.2628533190666E+00
 0.1274437578605E+00 -0.1837130295195E+01 -0.8035526705090E+00 -0.2352507956050E+00
 0.1675541794379E+00 -0.1853054087848E+01 -0.7921849549433E+00 -0.2049564763798E+00
 0.2019373906382E+00 -0.1869866826942E+01 -0.7839268330747E+00 -0.1725013959347E+00
 0.2308900333111E+00 -0.1888115029266E+01 -0.7788957461230E+00 -0.1384160024621E+00
 0.2547079501922E+00 -0.1908378878108E+01 -0.7772253341493E+00 -0.1032456081810E+00
 0.2736696414651E+00 -0.1931276487689E+01 -0.7790752157493E+00 -0.6756446774890E-01
-0.1131949796712E+01 -0.1418742134414E+01 -0.1198825204589E+01 -0.5827118809934E-01
-0.9943867719721E+00 -0.1463277973524E+01 -0.1155102427454E+01 -0.1282514909311E+00
-0.8651523614974E+00 -0.1503844594361E+01 -0.1113428566429E+01 -0.1869329900161E+00
-0.7437750334190E+00 -0.1540816542733E+01 -0.1073758038068E+01 -0.2346533263858E+00
-0.6300050999777E+00 -0.1574453004183E+01 -0.1036095306328E+01 -0.2719155526226E+00
-0.5237140085145E+00 -0.1604965425801E+01 -0.1000479331591E+01 -0.2993527900897E+00
-0.4248259299878E+00 -0.1632560093790E+01 -0.9669714287232E+00 -0.3176885087758E+00
-0.3332718504066E+00 -0.1657462576553E+01 -0.9356451782979E+00 -0.3276982607517E+00
-0.2489610467163E+00 -0.1679929016079E+01 -0.9065783272142E+00 -0.3301733960105E+00
-0.1717676203905E+00 -0.1700248871548E+01 -0.8798477489796E+00 -0.3258919199387E+00
-0.1015287769307E+00 -0.1718744356571E+01 -0.8555283705757E+00 -0.3156005409087E+00
-0.3804970857882E-01 -0.1735769368619E+01 -0.8336949641685E+00 -0.3000060576172E+00
 0.1888963105256E-01 -0.1751707058764E+01 -0.8144241889586E+00 -0.2797709114164E+00
 0.6952971105576E-01 -0.1766966032522E+01 -0.7977950690658E+00 -0.2555109327483E+00
 0.1141287244113E+00 -0.1781977371775E+01 -0.7838888622729E+00 -0.2277981953480E+00
 0.1529612124341E+00 -0.1797194742867E+01 -0.7727897573436E+00 -0.1971704641867E+00
 0.1863169029841E+00 -0.1813098058508E+01 -0.7645871411571E+00 -0.1641454448092E+00
 0.2144982120844E+00 -0.1830199639321E+01 -0.7593796688751E+00 -0.1292372934863E+00
 0.2378131733938E+00 -0.1849050508547E+01 -0.7572815456012E+00 -0.9297261398572E-01
 0.2565600790998E+00 -0.1870245432643E+01 -0.7584321142415E+00 -0.5590488097516E-01
-0.1096872699389E+01 -0.1373475537313E+01 -0.1161063668305E+01 -0.3763746296313E-01
-0.9644910258729E+00 -0.1416441537053E+01 -0.1119038301737E+01 -0.1094896964370E+00
-0.8403017631907E+00 -0.1455575636886E+01 -0.1079062375299E+01 -0.1698200436932E+00
-0.7237750211788E+00 -0.1491271915669E+01 -0.1041072057678E+01 -0.2190406300202E+00
-0.6146071468167E+00 -0.1523801959839E+01 -0.1005052277579E+01 -0.2576934716379E+00
-0.5126278431778E+00 -0.1553377477448E+01 -0.9710224982313E+00 -0.2864265381926E+00
-0.4177339542325E+00 -0.1580192427353E+01 -0.9390253969635E+00 -0.3059627255428E+00
-0.3298433159302E+00 -0.1604449414772E+01 -0.9091175811240E+00 -0.3170678972647E+00
-0.2488644096253E+00 -0.1626374345137E+01 -0.8813622125028E+00 -0.3205195818083E+00
-0.1746795818293E+00 -0.1646222921018E+01 -0.8558241741676E+00 -0.3170812046691E+00
-0.1071395224813E+00 -0.1664282347089E+01 -0.8325682765865E+00 -0.3074858393346E+00
-0.4606501157923E-01 -0.1680869928821E+01 -0.8116594199296E+00 -0.2924280840731E+00
 0.8748353434703E-02 -0.1696329015579E+01 -0.7931629091961E+00 -0.2725593497012E+00
 0.5752672735921E-01 -0.1711024736288E+01 -0.7771440622254E+00 -0.2484848603836E+00
 0.1005166888520E+00 -0.1725342556973E+01 -0.7636681560801E+00 -0.2207654479466E+00
 0.1379853577241E+00 -0.1739690828327E+01 -0.7528015692742E+00 -0.1899258420504E+00
 0.1702205566137E+00 -0.1754506535488E+01 -0.7446144081821E+00 -0.1564679486832E+00
 0.1975290854242E+00 -0.1770262679223E+01 -0.7391847872106E+00 -0.1208870040935E+00
 0.2202293722810E+00 -0.1787475234374E+01 -0.7366055533153E+00 -0.8368816104016E-01
 0.2386358259562E+00 -0.1806707802901E+01 -0.7369938272948E+00 -0.4540078375171E-01
-0.1061126734535E+01 -0.1328068135687E+01 -0.1122921586156E+01 -0.1760220324356E-01
-0.9340730136703E+00 -0.1369401443534E+01 -0.1082632992140E+01 -0.9126419949162E-01
-0.8150275494455E+00 -0.1407053024436E+01 -0.1044377867075E+01 -0.1531788557295E+00
-0.7034196628307E+00 -0.1441426649245E+01 -0.1008077764119E+01 -0.2038321247339E+00
-0.5989047530500E+00 -0.1472799622730E+01 -0.9737010541471E+00 -0.2438081525833E+00
-0.5012798727721E+00 -0.1501379899121E+01 -0.9412500904022E+00 -0.2737743276329E+00
-0.4104205578039E+00 -0.1527347124071E+01 -0.9107508081710E+00 -0.2944576864194E+00
-0.3262351675036E+00 -0.1550880418342E+01 -0.8822443231095E+00 -0.3066187553457E+00
-0.2486333379632E+00 -0.1572175927920E+01 -0.8557803527946E+00 -0.3110248674561E+00
-0.1775064868540E+00 -0.1591456661310E+01 -0.8314126775284E+00 -0.3084276094842E+00
-0.1127189951857E+00 -0.1608976089425E+01 -0.8091966877145E+00 -0.2995482854301E+00
-0.5410719104324E-01 -0.1625016035951E+01 -0.7891879146856E+00 -0.2850703207613E+00
-0.1482325307177E-02 -0.1639880587040E+01 -0.7714405668466E+00 -0.2656343189488E+00
 0.4536712816389E-01 -0.1653890989113E+01 -0.7560062127285E+00 -0.2418343887258E+00
 0.8667534404669E-01 -0.1667385495349E+01 -0.7429337692277E+00 -0.2142190066532E+00
 0.1227007384569E+00 -0.1680724273621E+01 -0.7322710596699E+00 -0.1832982906632E+00
 0.1537276462236E+00 -0.1694297294080E+01 -0.7240677326559E+00 -0.1495564372418E+00
 0.1800655989611E+00 -0.1708533099258E+01 -0.7183797233175E+00 -0.1134676438096E+00
 0.2020418815135E+00 -0.1723906141567E+01 -0.7152762004110E+00 -0.7551342994853E-01
 0.2199818508959E+00 -0.1740941972472E+01 -0.7148512553275E+00 -0.3619735337344E-01
-0.1024717755756E+01 -0.1282496924629E+01 -0.1084390897030E+01  0.1813876008965E-02
-0.9031351063406E+00 -0.1322137759826E+01 -0.1045878244445E+01 -0.7358802070719E-01
-0.7893315520486E+00 -0.1358260237191E+01 -0.1009368138383E+01 -0.1370192455497E+00
-0.6827106110374E+00 -0.1391269343041E+01 -0.9747705759445E+00 -0.1890377316070E+00
-0.5828984000625E+00 -0.1421441979043E+01 -0.9420399757902E+00 -0.2302718131384E+00
-0.4896678629101E+00 -0.1448978393891E+01 -0.9111637383857E+00 -0.2614119589602E+00
-0.4028791285937E+00 -0.1474041762398E+01 -0.8821528165284E+00 -0.2831933775163E+00
-0.3224348727660E+00 -0.1496786947314E+01 -0.8550342532689E+00 -0.2963751250372E+00
-0.2482480937772E+00 -0.1517380557089E+01 -0.8298454638025E+00 -0.3017176744917E+00
-0.1802204219114E+00 -0.1536013755201E+01 -0.8066300611967E+00 -0.2999634109944E+00
-0.1182304581744E+00 -0.1552907399443E+01 -0.7854347910880E+00 -0.2918237982341E+00
-0.6213034891875E-01 -0.1568308848022E+01 -0.7663064206184E+00 -0.2779723321524E+00
-0.1174730196361E-01 -0.1582483429786E+01 -0.7492884420218E+00 -0.2590393895574E+00
 0.3311498884078E-01 -0.1595708131600E+01 -0.7344187752342E+00 -0.2356079358243E+00
 0.7267724248045E-01 -0.1608272479013E+01 -0.7217297593395E+00 -0.2082135480663E+00
 0.1071876486276E+00 -0.1620485694587E+01 -0.7112500797970E+00 -0.1773507641729E+00
 0.1369252365891E+00 -0.1632686752518E+01 -0.7030079107036E+00 -0.1434847648730E+00
 0.1622005380812E+00 -0.1645254538697E+01 -0.6970353785216E+00 -0.1070672018601E+00
 0.1833478641192E+00 -0.1658615547574E+01 -0.6933758094652E+00 -0.6855456487986E-01
 0.2007027873427E+00 -0.1673247284821E+01 -0.6920959120593E+00 -0.2842423488875E-01
-0.9876549555318E+00 -0.1236742618027E+01 -0.1045466856921E+01  0.2059086953985E-01
-0.8716812512996E+00 -0.1274634818688E+01 -0.1008768550335E+01 -0.5647370089685E-01
-0.7632157706666E+00 -0.1309185334211E+01 -0.9740285168220E+00 -0.1213500752825E+00
-0.6616486507097E+00 -0.1340793256102E+01 -0.9411476938146E+00 -0.1746655148223E+00
-0.5665870128589E+00 -0.1369729551646E+01 -0.9100687830090E+00 -0.2170937626128E+00
-0.4777876251891E+00 -0.1396182923514E+01 -0.8807661556564E+00 -0.2493512696562E+00
-0.3951009261670E+00 -0.1420297802459E+01 -0.8532374002903E+00 -0.2721848233969E+00
-0.3184277479140E+00 -0.1442203826965E+01 -0.8274968380944E+00 -0.2863554082386E+00
-0.2476868397565E+00 -0.1462038097028E+01 -0.8035707182507E+00 -0.2926196683397E+00
-0.1827914241015E+00 -0.1479960631702E+01 -0.7814934642456E+00 -0.2917132874792E+00
-0.1236350975080E+00 -0.1496160710417E+01 -0.7613040277939E+00 -0.2843398417792E+00
-0.7008633245304E-01 -0.1510852222175E+01 -0.7430411187905E+00 -0.2711643189112E+00
-0.2198882517667E-01 -0.1524262291230E+01 -0.7267380228680E+00 -0.2528077776946E+00
 0.2083769629320E-01 -0.1536623380732E+01 -0.7124192698792E+00 -0.2298424742819E+00
 0.5859922207961E-01 -0.1548174940366E+01 -0.7001005858187E+00 -0.2027911051967E+00
 0.9153196949982E-01 -0.1559172684581E+01 -0.6897911343384E+00 -0.1721322791531E+00
 0.1199076807634E+00 -0.1569900788574E+01 -0.6814967589426E+00 -0.1383114957741E+00
 0.1440360786947E+00 -0.1580683487623E+01 -0.6752242804837E+00 -0.1017570563906E+00
 0.1642574023061E+00 -0.1591892694199E+01 -0.6709885854876E+00 -0.6290013408552E-01
 0.1809171927185E+00 -0.1603948851887E+01 -0.6688248781128E+00 -0.2219321189409E-01
-0.9499504653394E+00 -0.1190788923588E+01 -0.1006147510244E+01  0.3870983931484E-01
-0.8397169945541E+00 -0.1226880378181E+01 -0.9713007627221E+00 -0.3993319571402E-01
-0.7366826644302E+00 -0.1259820082584E+01 -0.9383562887167E+00 -0.1061792085831E+00
-0.6402341330403E+00 -0.1289995467505E+01 -0.9072079099551E+00 -0.1607217093628E+00
-0.5499684513297E+00 -0.1317666622538E+01 -0.8777884824913E+00 -0.2042804934297E+00
-0.4656335194592E+00 -0.1343006994331E+01 -0.8500610393255E+00 -0.2376002768075E+00
-0.3870755756908E+00 -0.1366139916994E+01 -0.8240112794718E+00 -0.2614422632694E+00
-0.3141974406618E+00 -0.1387168692779E+01 -0.7996420806892E+00 -0.2765723065144E+00
-0.2469261198800E+00 -0.1406200803596E+01 -0.7769696520629E+00 -0.2837459316506E+00
-0.1851879749311E+00 -0.1423365736290E+01 -0.7560202423565E+00 -0.2836944473111E+00
-0.1288925467772E+00 -0.1438822207543E+01 -0.7368259326618E+00 -0.2771154730783E+00
-0.7792530583225E-01 -0.1452751688169E+01 -0.7194181853559E+00 -0.2646670440998E+00
-0.3214712608604E-01 -0.1465343779934E+01 -0.7038207240445E+00 -0.2469621024931E+00
 0.8605255293883E-02 -0.1476786359312E+01 -0.6900451171384E+00 -0.2245630666656E+00
 0.4452165163113E-01 -0.1487267714860E+01 -0.6780906479976E+00 -0.1979803223270E+00
 0.7582438020932E-01 -0.1496987791657E+01 -0.6679468016861E+00 -0.1676768210899E+00
 0.1027757726258E+00 -0.1506172499359E+01 -0.6595964598917E+00 -0.1340783645990E+00
 0.1256831181418E+00 -0.1515086755737E+01 -0.6530197080137E+00 -0.9758978863793E-01
 0.1448921695881E+00 -0.1524041918247E+01 -0.6482003802257E+00 -0.5861753881611E-01
 0.1607593321842E+00 -0.1533393789761E+01 -0.6451381934246E+00 -0.1759191705997E-01
-0.9116189484644E+00 -0.1144621826471E+01 -0.9664331617683E+00  0.5615291511530E-01
-0.8072494923541E+00 -0.1178864793641E+01 -0.9334737120499E+00 -0.2397779634256E-01
-0.7097354265124E+00 -0.1210159101204E+01 -0.9023504257381E+00 -0.9151346744491E-01
-0.6184673888059E+00 -0.1238876053140E+01 -0.8729514155005E+00 -0.1472107284688E+00
-0.5330399801729E+00 -0.1265260470656E+01 -0.8452012097456E+00 -0.1918357462392E+00
-0.4531989375534E+00 -0.1289466954976E+01 -0.8190529674113E+00 -0.2261632974093E+00
-0.3787915494192E+00 -0.1311595328173E+01 -0.7944818304534E+00 -0.2509713154631E+00
-0.3097264101480E+00 -0.1331721333376E+01 -0.7714804374994E+00 -0.2670330126403E+00
-0.2459413498467E+00 -0.1349922631464E+01 -0.7500560693134E+00 -0.2751051606748E+00
-0.1873775203541E+00 -0.1366298754611E+01 -0.7302278473814E+00 -0.2759168026319E+00
-0.1339614583621E+00 -0.1380978916212E+01 -0.7120219742441E+00 -0.2701614594291E+00
-0.8559639306673E-01 -0.1394113348723E+01 -0.6954635768774E+00 -0.2584918535003E+00
-0.4216114919273E-01 -0.1405855027313E+01 -0.6805676012314E+00 -0.2415142619155E+00
-0.3510541422145E-02 -0.1416347472328E+01 -0.6673332647698E+00 -0.2197825424424E+00
 0.3052750103284E-01 -0.1425727087872E+01 -0.6557438041512E+00 -0.1937958693855E+00
 0.6015931981453E-01 -0.1434136214174E+01 -0.6457691387113E+00 -0.1640024155854E+00
 0.8563560729028E-01 -0.1441739523495E+01 -0.6373688389994E+00 -0.1308088931846E+00
 0.1072597513525E+00 -0.1448738605915E+01 -0.6304950600451E+00 -0.9459714507218E-01
 0.1253834480876E+00 -0.1455379238424E+01 -0.6250980198726E+00 -0.5575009651315E-01
 0.1403774475262E+00 -0.1461946441602E+01 -0.6211374256402E+00 -0.1467954847285E-01
-0.8726772210981E+00 -0.1098228913898E+01 -0.9263258810988E+00  0.7290332391371E-01
-0.7742875412882E+00 -0.1130580228838E+01 -0.8952878496885E+00 -0.8618088255260E-02
-0.6823782667768E+00 -0.1160199049097E+01 -0.8660113362643E+00 -0.7735859635033E-01
-0.5963491385484E+00 -0.1187437312011E+01 -0.8383796296363E+00 -0.1341351589735E+00
-0.5157987274364E+00 -0.1212520661042E+01 -0.8123101105246E+00 -0.1797605565245E+00
-0.4404767718796E+00 -0.1235581343395E+01 -0.7877473121811E+00 -0.2150410542400E+00
-0.3702366337445E+00 -0.1256693188532E+01 -0.7646570145305E+00 -0.2407731381907E+00
-0.3049963973902E+00 -0.1275903070226E+01 -0.7430227478949E+00 -0.2577394140870E+00
-0.2447073073751E+00 -0.1293258568878E+01 -0.7228439600054E+00 -0.2666998936774E+00
-0.1893270045487E+00 -0.1308829850727E+01 -0.7041337201934E+00 -0.2683831991384E+00
-0.1388001069996E+00 -0.1322717786049E+01 -0.6869134079904E+00 -0.2634804789207E+00
-0.9304837644736E-01 -0.1335042748953E+01 -0.6712028272359E+00 -0.2526408079109E+00
-0.5196936768016E-01 -0.1345922283463E+01 -0.6570090743709E+00 -0.2364654499808E+00
-0.1543706343621E-01 -0.1355456172532E+01 -0.6443198192707E+00 -0.2155013460476E+00
 0.1670123896651E-01 -0.1363728674015E+01 -0.6331028928672E+00 -0.1902380565410E+00
 0.4463372089392E-01 -0.1370823226788E+01 -0.6233090661893E+00 -0.1611104242741E+00
 0.6859708656562E-01 -0.1376840976762E+01 -0.6148746268329E+00 -0.1285072405949E+00
 0.8888944851945E-01 -0.1381917132480E+01 -0.6077230099200E+00 -0.9278828807237E-01
 0.1058696975670E+00 -0.1386228162857E+01 -0.6017684771601E+00 -0.5431457560175E-01
 0.1199295469408E+00 -0.1389983930925E+01 -0.5969255589588E+00 -0.1348335816671E-01
-0.8331438665132E+00 -0.1051598672259E+01 -0.8858289909764E+00  0.8894538084917E-01
-0.7408416031380E+00 -0.1082019840568E+01 -0.8567448763686E+00  0.6136088699773E-02
-0.6546166862133E+00 -0.1109937797078E+01 -0.8293406050432E+00 -0.6371920005315E-01
-0.5738808875195E+00 -0.1135682986512E+01 -0.8034950187569E+00 -0.1214957164867E+00
-0.4982421225558E+00 -0.1159458335892E+01 -0.7791192134945E+00 -0.1680532611630E+00
-0.4274598619226E+00 -0.1181370238395E+01 -0.7561501452314E+00 -0.2042307520888E+00
-0.3613983766733E+00 -0.1201463965416E+01 -0.7345452989187E+00 -0.2308445767118E+00
-0.2999888822662E+00 -0.1219756138580E+01 -0.7142801579863E+00 -0.2486883031111E+00
-0.2431986188847E+00 -0.1236263970809E+01 -0.6953474153924E+00 -0.2585267706241E+00
-0.1910034141775E+00 -0.1251028898655E+01 -0.6777551853124E+00 -0.2610897066206E+00
-0.1433670224475E+00 -0.1264124757219E+01 -0.6615211347652E+00 -0.2570674153276E+00
-0.1002304469817E+00 -0.1275643707979E+01 -0.6466608511913E+00 -0.2471069457579E+00
-0.6151067770946E-01 -0.1285669445486E+01 -0.6331746562958E+00 -0.2318063409005E+00
-0.2710190617506E-01 -0.1294259121875E+01 -0.6210396816082E+00 -0.2117075899519E+00
 0.3127569756651E-02 -0.1301445144469E+01 -0.6102092585669E+00 -0.1872926985221E+00
 0.2934550287061E-01 -0.1307251379360E+01 -0.6006157604268E+00 -0.1589851452160E+00
 0.5177212179485E-01 -0.1311713966554E+01 -0.5921726655350E+00 -0.1271574183255E+00
 0.7069889253379E-01 -0.1314899939119E+01 -0.5847744904118E+00 -0.9214843407224E-01
 0.8649367297299E-01 -0.1316914603358E+01 -0.5782978358140E+00 -0.5429900810927E-01
 0.9957796791388E-01 -0.1317890952793E+01 -0.5726071014407E+00 -0.1399531780539E-01
-0.7930388562701E+00 -0.1004719781809E+01 -0.8449465577540E+00  0.1042643994113E+00
-0.7069238544806E+00 -0.1033176977512E+01 -0.8178473889620E+00  0.2027563417952E-01
-0.6264577613033E+00 -0.1059373627668E+01 -0.7923407508069E+00 -0.5059869035522E-01
-0.5510653134429E+00 -0.1083617530254E+01 -0.7683009345888E+00 -0.1092911876742E+00
-0.4803683106980E+00 -0.1106085565419E+01 -0.7456333198836E+00 -0.1567094870327E+00
-0.4141414066491E+00 -0.1126854675093E+01 -0.7242681565818E+00 -0.1937261422797E+00
-0.3522644965309E+00 -0.1145938887929E+01 -0.7041555889100E+00 -0.2211783102102E+00
-0.2946855018255E+00 -0.1163323128838E+01 -0.6852640546738E+00 -0.2398716017503E+00
-0.2413902123204E+00 -0.1178993952257E+01 -0.6675805556581E+00 -0.2505768282324E+00
-0.1923742991482E+00 -0.1192964773607E+01 -0.6511093625433E+00 -0.2540259723442E+00
-0.1476216150346E+00 -0.1205283879967E+01 -0.6358655810381E+00 -0.2509097502609E+00
-0.1070929691986E+00 -0.1216017185149E+01 -0.6218617709661E+00 -0.2418746814646E+00
-0.7072533167052E-01 -0.1225216588412E+01 -0.6090927008940E+00 -0.2275174478580E+00
-0.3843402065774E-01 -0.1232898316214E+01 -0.5975261968140E+00 -0.2083773219792E+00
-0.1010993328747E-01 -0.1239043879192E+01 -0.5871022903763E+00 -0.1849312438708E+00
 0.1439189096166E-01 -0.1243617574063E+01 -0.5777360695921E+00 -0.1575937631839E+00
 0.3527253977006E-01 -0.1246589855431E+01 -0.5693191369165E+00 -0.1267229791180E+00
 0.5281537796727E-01 -0.1247959213294E+01 -0.5617176011788E+00 -0.9263804785332E-01
 0.6739893977288E-01 -0.1247760542753E+01 -0.5547699519934E+00 -0.5566094783352E-01
 0.7948319323024E-01 -0.1246052181686E+01 -0.5482874231835E+00 -0.1616883779861E-01
-0.7523832430702E+00 -0.9575804375816E+00 -0.8036829278679E+00  0.1188465434823E+00
-0.6725482903851E+00 -0.9840443853729E+00 -0.7785985556314E+00  0.3379218140822E-01
-0.5979104744027E+00 -0.1008504466614E+01 -0.7550150203628E+00 -0.3799919574740E-01
-0.5279066756898E+00 -0.1031245429553E+01 -0.7328014876054E+00 -0.9751832165890E-01
-0.4621765672529E+00 -0.1052414766690E+01 -0.7118579251478E+00 -0.1457220944905E+00
-0.4005153625028E+00 -0.1072056129337E+01 -0.6921085994092E+00 -0.1835175586824E+00
-0.3428232685189E+00 -0.1090149456549E+01 -0.6734971790737E+00 -0.2117629889171E+00
-0.2890684431117E+00 -0.1106646485401E+01 -0.6559860147373E+00 -0.2312765967112E+00
-0.2392577453787E+00 -0.1121502840400E+01 -0.6395574736937E+00 -0.2428358289763E+00
-0.1934082754727E+00 -0.1134704708225E+01 -0.6242131007548E+00 -0.2471756413251E+00
-0.1515247976486E+00 -0.1146276501201E+01 -0.6099666089123E+00 -0.2449880657425E+00
-0.1135882631870E+00 -0.1156260199130E+01 -0.5968287757753E+00 -0.2369203645648E+00
-0.7955591110860E-01 -0.1164678513109E+01 -0.5847901778991E+00 -0.2235696918899E+00
-0.4936490017096E-01 -0.1171509178837E+01 -0.5738108156781E+00 -0.2054750467217E+00
-0.2293026410470E-01 -0.1176684552604E+01 -0.5638189624230E+00 -0.1831112088011E+00
-0.1323575156249E-03 -0.1180110067472E+01 -0.5547139383372E+00 -0.1568867013607E+00
 0.1920773703985E-01 -0.1181690476400E+01 -0.5463668861136E+00 -0.1271473181366E+00
 0.3536368485885E-01 -0.1181356482429E+01 -0.5386166134918E+00 -0.9419296741326E-01
 0.4872585338724E-01 -0.1179076245033E+01 -0.5312646827262E+00 -0.5832696684114E-01
 0.5979789457122E-01 -0.1174841174900E+01 -0.5240703404251E+00 -0.1991743124679E-01
-0.7111988011493E+00 -0.9101675465865E+00 -0.7620421815030E+00  0.1326786181125E+00
-0.6377308342276E+00 -0.9346133276958E+00 -0.7390017542296E+00  0.4667808104501E-01
-0.5689860367974E+00 -0.9573270622907E+00 -0.7173671547519E+00 -0.2592143602137E-01
-0.5044111991281E+00 -0.9785705167005E+00 -0.6970014046716E+00 -0.8617166960375E-01
-0.4436676670461E+00 -0.9984581397409E+00 -0.6777991274708E+00 -0.1350810769517E+00
-0.3865767851151E+00 -0.1016996024658E+01 -0.6596792189203E+00 -0.1735919287519E+00
-0.3330638507023E+00 -0.1034126969406E+01 -0.6425796838211E+00 -0.2025833634218E+00
-0.2831207741256E+00 -0.1049768020243E+01 -0.6264577317641E+00 -0.2228861805537E+00
-0.2367779720018E+00 -0.1063843652951E+01 -0.6112921621773E+00 -0.2352846137774E+00
-0.1940754714321E+00 -0.1076313700598E+01 -0.5970829093395E+00 -0.2405168297406E+00
-0.1550395651752E+00 -0.1087180529329E+01 -0.5838434429363E+00 -0.2392766469160E+00
-0.1196713683896E+00 -0.1096464831346E+01 -0.5715840124261E+00 -0.2322129996743E+00
-0.8794830705471E-01 -0.1104163346376E+01 -0.5602924756915E+00 -0.2199251918134E+00
-0.5982978675523E-01 -0.1110218645626E+01 -0.5499227618245E+00 -0.2029545119833E+00
-0.3525642108848E-01 -0.1114516663789E+01 -0.5403933485217E+00 -0.1817769075433E+00
-0.1413668770208E-01 -0.1116905451404E+01 -0.5315898040314E+00 -0.1567983369440E+00
 0.3682426802773E-02 -0.1117224436444E+01 -0.5233647432040E+00 -0.1283545634889E+00
 0.1846263691643E-01 -0.1115337811152E+01 -0.5155313305830E+00 -0.9672575211835E-01
 0.3060731094214E-01 -0.1111152017116E+01 -0.5078560106136E+00 -0.6219446492062E-01
 0.4066540282466E-01 -0.1104605294831E+01 -0.5000517479744E+00 -0.2511758273040E-01
-0.6695077899667E+00 -0.8624659673526E+00 -0.7200276641138E+00  0.1457477549563E+00
-0.6024895671988E+00 -0.8848727366339E+00 -0.6990602810283E+00  0.5892636624627E-01
-0.5396983126678E+00 -0.9058362613874E+00 -0.6794012480827E+00 -0.1436455776797E-01
-0.4805875104277E+00 -0.9255954372620E+00 -0.6609059837379E+00 -0.7524337054033E-01
-0.4248442634519E+00 -0.9442272870248E+00 -0.6434636270920E+00 -0.1247734244311E+00
-0.3723221516860E+00 -0.9616954157807E+00 -0.6269882551191E+00 -0.1639327760215E+00
-0.3229765741502E+00 -0.9779022028309E+00 -0.6114130236304E+00 -0.1936204237012E+00
-0.2768267248540E+00 -0.9927285641129E+00 -0.5966909843010E+00 -0.2146791103234E+00
-0.2339290449680E+00 -0.1006067721707E+01 -0.5827984788592E+00 -0.2278994794563E+00
-0.1943478983477E+00 -0.1017854102018E+01 -0.5697349387266E+00 -0.2340226450967E+00
-0.1581315020799E+00 -0.1028069929427E+01 -0.5575146713944E+00 -0.2337441814196E+00
-0.1253007577093E+00 -0.1036717488072E+01 -0.5461485741321E+00 -0.2277151408285E+00
-0.9585268431916E-01 -0.1043771367228E+01 -0.5356233028684E+00 -0.2165383123414E+00
-0.6976887433585E-01 -0.1049143372482E+01 -0.5258887546707E+00 -0.2007598066267E+00
-0.4701680175107E-01 -0.1052677084986E+01 -0.5168561254557E+00 -0.1808604973842E+00
-0.2753630607468E-01 -0.1054165656579E+01 -0.5083999211579E+00 -0.1572480279685E+00
-0.1120521182837E-01 -0.1053383682115E+01 -0.5003567788841E+00 -0.1302509035573E+00
 0.2222721984269E-02 -0.1050129629831E+01 -0.4925162454387E+00 -0.1001280616996E+00
 0.1316466326238E-01 -0.1044252952370E+01 -0.4846114946514E+00 -0.6713659731840E-01
 0.2222588772144E-01 -0.1035651252063E+01 -0.4763099200323E+00 -0.3161818342099E-01
-0.6273326657049E+00 -0.8144575254337E+00 -0.6776413881164E+00  0.1580410431594E+00
-0.5668449863989E+00 -0.8348081828084E+00 -0.6587769878565E+00  0.7053078015715E-01
-0.5100642595356E+00 -0.8540241990976E+00 -0.6411215739315E+00 -0.3325842213450E-02
-0.4564470582106E+00 -0.8723211289880E+00 -0.6245210463993E+00 -0.6472281174125E-01
-0.4057112148716E+00 -0.8897328795975E+00 -0.6088587228562E+00 -0.1147829054903E+00
-0.3577496183385E+00 -0.9061747047899E+00 -0.5940444303636E+00 -0.1545201899708E+00
-0.3125531656151E+00 -0.9215050838778E+00 -0.5800073757905E+00 -0.1848515322825E+00
-0.2701719021690E+00 -0.9355675864993E+00 -0.5666975582368E+00 -0.2066302645535E+00
-0.2306907391963E+00 -0.9482242924638E+00 -0.5540900634749E+00 -0.2206525510355E+00
-0.1941997255680E+00 -0.9593852402102E+00 -0.5421849325406E+00 -0.2276617122674E+00
-0.1607691864855E+00 -0.9690143505384E+00 -0.5309982610544E+00 -0.2283545155322E+00
-0.1304389820853E+00 -0.9770983956145E+00 -0.5205425661986E+00 -0.2233839472448E+00
-0.1032244323133E+00 -0.9835940681211E+00 -0.5108046939086E+00 -0.2133570071964E+00
-0.7912854552989E-01 -0.9883880395321E+00 -0.5017327937065E+00 -0.1988268461394E+00
-0.5814658184384E-01 -0.9912874819384E+00 -0.4932340087266E+00 -0.1802833924522E+00
-0.4025354768882E-01 -0.9920347650530E+00 -0.4851755057581E+00 -0.1581413907191E+00
-0.2536481925774E-01 -0.9903401662952E+00 -0.4773813419991E+00 -0.1327260779894E+00
-0.1325500529714E-01 -0.9859354653716E+00 -0.4696195200232E+00 -0.1042731701094E+00
-0.3492617875381E-02 -0.9786157531717E+00 -0.4615909332214E+00 -0.7300725850360E-01
 0.4610132481869E-02 -0.9682494672847E+00 -0.4529104862086E+00 -0.3924689750720E-01
-0.5846958080186E+00 -0.7661198374102E+00 -0.6348833517412E+00  0.1695450183613E+00
-0.5308203790036E+00 -0.7844007181950E+00 -0.6181539141155E+00  0.8148582475663E-01
-0.4801044654231E+00 -0.8018795498988E+00 -0.6025324856731E+00  0.7199702944160E-02
-0.4320045462001E+00 -0.8187464897277E+00 -0.5878529853951E+00 -0.5459617999272E-01
-0.3862758725402E+00 -0.8349845608426E+00 -0.5739924022340E+00 -0.1050898041484E+00
-0.3428591955142E+00 -0.8504535244087E+00 -0.5608569769412E+00 -0.1453308104076E+00
-0.3017868957726E+00 -0.8649644621482E+00 -0.5483731368319E+00 -0.1762505892894E+00
-0.2631434225104E+00 -0.8783228518275E+00 -0.5364891475781E+00 -0.1987109138792E+00
-0.2270445786170E+00 -0.8903601577105E+00 -0.5251802247419E+00 -0.2135121327963E+00
-0.1936074045949E+00 -0.9009631178474E+00 -0.5144481442430E+00 -0.2213986522734E+00
-0.1629244119725E+00 -0.9100789745950E+00 -0.5043115904076E+00 -0.2230673865497E+00
-0.1350531375798E+00 -0.9176814944289E+00 -0.4947852757891E+00 -0.2191723305912E+00
-0.1100250649307E+00 -0.9237137455965E+00 -0.4858572397155E+00 -0.2103244617559E+00
-0.8786264821358E-01 -0.9280439716491E+00 -0.4774761101244E+00 -0.1970853431446E+00
-0.6858914822526E-01 -0.9304516141988E+00 -0.4695491571484E+00 -0.1799581482983E+00
-0.5221906257781E-01 -0.9306353301961E+00 -0.4619415634321E+00 -0.1593717624885E+00
-0.3871464597331E-01 -0.9282423408033E+00 -0.4544697826323E+00 -0.1356546457075E+00
-0.2787960809653E-01 -0.9229337279949E+00 -0.4468822668295E+00 -0.1090178001375E+00
-0.1926815719242E-01 -0.9144476966001E+00 -0.4388464501694E+00 -0.7964303953744E-01
-0.1207820637112E-01 -0.9026413166327E+00 -0.4299181747214E+00 -0.4780658374247E-01
-0.5416193148259E+00 -0.7174248214980E+00 -0.5917507425713E+00  0.1802450355631E+00
-0.4944424195436E+00 -0.7336255427374E+00 -0.5771919408081E+00  0.9178697526839E-01
-0.4498438317323E+00 -0.7493868664449E+00 -0.5636384267137E+00  0.1722002241480E-01
-0.4072784911220E+00 -0.7648684511373E+00 -0.5509090614646E+00 -0.4484581985417E-01
-0.3665483282025E+00 -0.7799911833622E+00 -0.5388735690686E+00 -0.9567060884864E-01
-0.3276529078440E+00 -0.7945509021954E+00 -0.5274357893807E+00 -0.1363378678803E+00
-0.2906726776152E+00 -0.8083079889469E+00 -0.5165209119741E+00 -0.1677882824880E+00
-0.2557300462321E+00 -0.8210301557502E+00 -0.5060772936481E+00 -0.1908890494810E+00
-0.2229739202343E+00 -0.8325193249449E+00 -0.4960818239760E+00 -0.2064430675694E+00
-0.1925496926075E+00 -0.8426402057495E+00 -0.4865392509938E+00 -0.2151945102704E+00
-0.1645721539218E+00 -0.8513245792221E+00 -0.4774714633666E+00 -0.2178390745185E+00
-0.1391150908381E+00 -0.8585349603488E+00 -0.4688955228685E+00 -0.2150301268556E+00
-0.1162229361988E+00 -0.8642040088900E+00 -0.4608006630230E+00 -0.2073810664343E+00
-0.9593400762029E-01 -0.8681887907634E+00 -0.4531377140910E+00 -0.1954615290253E+00
-0.7829771630408E-01 -0.8702526526986E+00 -0.4458186723005E+00 -0.1797912219576E+00
-0.6337301785693E-01 -0.8700638091889E+00 -0.4387153075988E+00 -0.1608220489835E+00
-0.5118187331669E-01 -0.8672107029184E+00 -0.4316445097357E+00 -0.1388967787071E+00
-0.4157047609161E-01 -0.8612760729200E+00 -0.4243378769592E+00 -0.1142030533899E+00
-0.3408351664935E-01 -0.8519289664362E+00 -0.4164258659940E+00 -0.8686610842820E-01
-0.2776642305295E-01 -0.8390311198879E+00 -0.4073948441489E+00 -0.5708371761470E-01
-0.4981245623814E+00 -0.6683363527792E+00 -0.5482366287350E+00  0.1901244754419E+00
-0.4577416289798E+00 -0.6824498427424E+00 -0.5358899903502E+00  0.1014312135396E+00
-0.4193125276904E+00 -0.6965262229914E+00 -0.5244442114903E+00  0.2674714073852E-01
-0.3822915255429E+00 -0.7106822506401E+00 -0.5136976735031E+00 -0.3544932220630E-01
-0.3465416434749E+00 -0.7247615598004E+00 -0.5035125042623E+00 -0.8649766330227E-01
-0.3121346074656E+00 -0.7384853223228E+00 -0.4937913657481E+00 -0.1275113130564E+00
-0.2792071110881E+00 -0.7515619789929E+00 -0.4844614711093E+00 -0.1594324044769E+00
-0.2479221886450E+00 -0.7637228306594E+00 -0.4754731578671E+00 -0.1831297265084E+00
-0.2184640133279E+00 -0.7747425165233E+00 -0.4668070678461E+00 -0.1994070275287E+00
-0.1910075143673E+00 -0.7844649923908E+00 -0.4584720770135E+00 -0.2090070104248E+00
-0.1656902627154E+00 -0.7928075197503E+00 -0.4504939566162E+00 -0.2126227564970E+00
-0.1426009965530E+00 -0.7997218450439E+00 -0.4428917344272E+00 -0.2109049178546E+00
-0.1217937655854E+00 -0.8051317330428E+00 -0.4356549832503E+00 -0.2044664231870E+00
-0.1033157920718E+00 -0.8088874764581E+00 -0.4287355351216E+00 -0.1938816910854E+00
-0.8723821700483E-01 -0.8107517841316E+00 -0.4220552994636E+00 -0.1796872621793E+00
-0.7366622929265E-01 -0.8103833663692E+00 -0.4155033089072E+00 -0.1623675139617E+00
-0.6270240373688E-01 -0.8073300462223E+00 -0.4089152504437E+00 -0.1422981018873E+00
-0.5425639223865E-01 -0.8010848643976E+00 -0.4020103895994E+00 -0.1196531409629E+00
-0.4787852364564E-01 -0.7912156291990E+00 -0.3943742508367E+00 -0.9448680095347E-01
-0.4241646470363E-01 -0.7775883638539E+00 -0.3854022684445E+00 -0.6685805789507E-01
-0.4542306143229E+00 -0.6188055551453E+00 -0.5043269983709E+00  0.1991638755359E+00
-0.4207541944152E+00 -0.6308311820057E+00 -0.4942451256642E+00  0.1104182194029E+00
-0.3885462817422E+00 -0.6432724292412E+00 -0.4849547929322E+00  0.3579905532718E-01
-0.3570719712523E+00 -0.6561843016687E+00 -0.4762304470650E+00 -0.2637834940646E-01
-0.3262710989073E+00 -0.6693050416965E+00 -0.4679207848970E+00 -0.7753904637897E-01
-0.2963102233462E+00 -0.6822757041732E+00 -0.4599353847676E+00 -0.1188182100394E+00
-0.2673881380065E+00 -0.6947509647816E+00 -0.4522053771634E+00 -0.1511484044724E+00
-0.2397122361058E+00 -0.7064316074802E+00 -0.4446876053576E+00 -0.1753955240174E+00
-0.2135020665690E+00 -0.7170666386985E+00 -0.4373672903664E+00 -0.1923628859134E+00
-0.1889638940116E+00 -0.7264815244773E+00 -0.4302593455985E+00 -0.2027907495242E+00
-0.1662588765573E+00 -0.7345795498023E+00 -0.4233940593151E+00 -0.2073685701343E+00
-0.1454903957621E+00 -0.7413010797660E+00 -0.4167919924411E+00 -0.2067423076453E+00
-0.1267189620883E+00 -0.7465592373375E+00 -0.4104407526891E+00 -0.2015206935626E+00
-0.1099944557109E+00 -0.7501991503812E+00 -0.4042909938379E+00 -0.1922765676072E+00
-0.9539173009709E-01 -0.7519881609384E+00 -0.3982685477765E+00 -0.1795561363410E+00
-0.8306605657669E-01 -0.7516181652693E+00 -0.3923015832726E+00 -0.1638818462702E+00
-0.7321694058692E-01 -0.7486295978550E+00 -0.3862678720880E+00 -0.1456891154200E+00
-0.6587118676086E-01 -0.7424454360716E+00 -0.3799088117677E+00 -0.1251690062642E+00
-0.6061020089524E-01 -0.7324517800977E+00 -0.3727391301213E+00 -0.1023030307340E+00
-0.5602408544797E-01 -0.7184625522901E+00 -0.3640087188136E+00 -0.7691712775037E-01
-0.4099555825576E+00 -0.5687668297435E+00 -0.4599995326148E+00  0.2073393107572E+00
-0.3835176889587E+00 -0.5787069228379E+00 -0.4522455663974E+00  0.1187535257763E+00
-0.3575937893373E+00 -0.5896038275016E+00 -0.4451828787851E+00  0.4440324499778E-01
-0.3316499143782E+00 -0.6013709777646E+00 -0.4385198181949E+00 -0.1759743655169E-01
-0.3057568474600E+00 -0.6136369755462E+00 -0.4321150957169E+00 -0.6875876521386E-01
-0.2801847581622E+00 -0.6259386732855E+00 -0.4258780117002E+00 -0.1102236112799E+00
-0.2552161094148E+00 -0.6378985409750E+00 -0.4197638846185E+00 -0.1428998413657E+00
-0.2310943610368E+00 -0.6491837656975E+00 -0.4137307185158E+00 -0.1676471076677E+00
-0.2080775485841E+00 -0.6595240640217E+00 -0.4077727568904E+00 -0.1852670825295E+00
-0.1864039297791E+00 -0.6687284099037E+00 -0.4019121986315E+00 -0.1964972743854E+00
-0.1662599290151E+00 -0.6766870632579E+00 -0.3961850853634E+00 -0.2020232792880E+00
-0.1477643568467E+00 -0.6833273491381E+00 -0.3906131008221E+00 -0.2024852614356E+00
-0.1309837244126E+00 -0.6885475456979E+00 -0.3851796959750E+00 -0.1984844509853E+00
-0.1159632847263E+00 -0.6921806974050E+00 -0.3798276706384E+00 -0.1905837001814E+00
-0.1027719917546E+00 -0.6940039486142E+00 -0.3744846910235E+00 -0.1793246023660E+00
-0.9155398150313E-01 -0.6937343770812E+00 -0.3690855275985E+00 -0.1652510551228E+00
-0.8268370453553E-01 -0.6910636340134E+00 -0.3636612481956E+00 -0.1488884658366E+00
-0.7632666733244E-01 -0.6853564525420E+00 -0.3579910654330E+00 -0.1305120652098E+00
-0.7224404900098E-01 -0.6757904297649E+00 -0.3515762041282E+00 -0.1100819409901E+00
-0.6864329201815E-01 -0.6618605410715E+00 -0.3433368006813E+00 -0.8706965967535E-01
-0.3652790783438E+00 -0.5180865034321E+00 -0.4151818223817E+00  0.2146260310531E+00
-0.3461025982499E+00 -0.5260236949961E+00 -0.4098993567860E+00  0.1264566036873E+00
-0.3264917017960E+00 -0.5354788527744E+00 -0.4051261596206E+00  0.5260262686402E-01
-0.3060825358523E+00 -0.5462761507846E+00 -0.4006085817032E+00 -0.9062996196292E-02
-0.2850047387003E+00 -0.5577598204257E+00 -0.3960993417846E+00 -0.6012005236111E-01
-0.2637689284615E+00 -0.5694952791306E+00 -0.3916341765750E+00 -0.1016904758012E+00
-0.2426918434384E+00 -0.5810256661485E+00 -0.3871472285239E+00 -0.1346493138123E+00
-0.2220655651151E+00 -0.5920035193052E+00 -0.3826124687071E+00 -0.1598440432407E+00
-0.2021821540092E+00 -0.6021412834715E+00 -0.3780320146571E+00 -0.1780742368474E+00
-0.1833152498745E+00 -0.6112378550599E+00 -0.3734399583720E+00 -0.1900752229906E+00
-0.1656771371261E+00 -0.6191700606998E+00 -0.3688781820426E+00 -0.1965298832761E+00
-0.1494039495963E+00 -0.6258500312791E+00 -0.3643693700873E+00 -0.1980727214013E+00
-0.1345717251999E+00 -0.6311564470724E+00 -0.3598922400552E+00 -0.1952963804865E+00
-0.1212206755944E+00 -0.6348980242363E+00 -0.3553757880191E+00 -0.1887462952623E+00
-0.1093936935541E+00 -0.6368413260234E+00 -0.3507304583118E+00 -0.1789406067981E+00
-0.9922989731905E-01 -0.6367571258482E+00 -0.3459139000112E+00 -0.1664131089626E+00
-0.9100230847507E-01 -0.6343488377870E+00 -0.3409150378785E+00 -0.1517249403430E+00
-0.8555107953013E-01 -0.6297028603249E+00 -0.3361693508792E+00 -0.1353726350625E+00
-0.8267177500477E-01 -0.6213262570670E+00 -0.3308790742345E+00 -0.1175011457778E+00
-0.8039532548433E-01 -0.6081899352157E+00 -0.3236350717082E+00 -0.9712017217274E-01
-0.3202727553343E+00 -0.4666727281575E+00 -0.3698643763030E+00  0.2209772320317E+00
-0.3084190843580E+00 -0.4724939477956E+00 -0.3670291241812E+00  0.1335892686038E+00
-0.2954693615325E+00 -0.4811056810774E+00 -0.3649902691009E+00  0.6047246284082E-01
-0.2803289707096E+00 -0.4908453571347E+00 -0.3624519331675E+00 -0.7433834454462E-03
-0.2640476736625E+00 -0.5016998475009E+00 -0.3599013340339E+00 -0.5158157572737E-01
-0.2470663278439E+00 -0.5129601796726E+00 -0.3572124576267E+00 -0.9318024740840E-01
-0.2298230366619E+00 -0.5241585877221E+00 -0.3543713625616E+00 -0.1263594880287E+00
-0.2126228595824E+00 -0.5349079312141E+00 -0.3513394707832E+00 -0.1519464513547E+00
-0.1958106565388E+00 -0.5449378060145E+00 -0.3481517765170E+00 -0.1707375356382E+00
-0.1796893582676E+00 -0.5540355813438E+00 -0.3448507207427E+00 -0.1834705361389E+00
-0.1644962253369E+00 -0.5620604308005E+00 -0.3414816275185E+00 -0.1908274431021E+00
-0.1503902245460E+00 -0.5689114612564E+00 -0.3380717914697E+00 -0.1934381219419E+00
-0.1374608471779E+00 -0.5744416736821E+00 -0.3345941839555E+00 -0.1918888869542E+00
-0.1257550874565E+00 -0.5784254659320E+00 -0.3309648592531E+00 -0.1867067062138E+00
-0.1152841312909E+00 -0.5805827345222E+00 -0.3270574261026E+00 -0.1783683831820E+00
-0.1061288497725E+00 -0.5806843390378E+00 -0.3228021979221E+00 -0.1673610942112E+00
-0.9865082477412E-01 -0.5786079264709E+00 -0.3183116122778E+00 -0.1542047953657E+00
-0.9276941345727E-01 -0.5741020460840E+00 -0.3134295851894E+00 -0.1393443052890E+00
-0.9196040772338E-01 -0.5693879171957E+00 -0.3108337119236E+00 -0.1239172427719E+00
-0.9149606806488E-01 -0.5584217795839E+00 -0.3054613876202E+00 -0.1068451723338E+00
-0.2731842590964E+00 -0.4122442622037E+00 -0.3221514041940E+00  0.2266119049482E+00
-0.2717183889282E+00 -0.4195064159028E+00 -0.3248756574466E+00  0.1404676674924E+00
-0.2641338826344E+00 -0.4261641044309E+00 -0.3244400530978E+00  0.6799858867638E-01
-0.2544984266639E+00 -0.4351421491588E+00 -0.3241310698145E+00  0.7398168652973E-02
-0.2428578372941E+00 -0.4454168794765E+00 -0.3234891160617E+00 -0.4309326755632E-01
-0.2301233454176E+00 -0.4564047327321E+00 -0.3226681959119E+00 -0.8465005320810E-01
-0.2166031762688E+00 -0.4673079238835E+00 -0.3214382162563E+00 -0.1179999078986E+00
-0.2027640218010E+00 -0.4779019719664E+00 -0.3199130162593E+00 -0.1439152519460E+00
-0.1889657192146E+00 -0.4879299035728E+00 -0.3181409419032E+00 -0.1632086244769E+00
-0.1755199495322E+00 -0.4971369684450E+00 -0.3161487506474E+00 -0.1766270307601E+00
-0.1627079718179E+00 -0.5053821597920E+00 -0.3140023610602E+00 -0.1848512959291E+00
-0.1507045350262E+00 -0.5125425269074E+00 -0.3117261183182E+00 -0.1885086691194E+00
-0.1396249744497E+00 -0.5184510129611E+00 -0.3092957132986E+00 -0.1881842444428E+00
-0.1295302035761E+00 -0.5228324414683E+00 -0.3066104423932E+00 -0.1843932660997E+00
-0.1204458966970E+00 -0.5253519877606E+00 -0.3035250049252E+00 -0.1775739466288E+00
-0.1123314164055E+00 -0.5256371782337E+00 -0.2998452387199E+00 -0.1681188839880E+00
-0.1055651850956E+00 -0.5236651800031E+00 -0.2957382708463E+00 -0.1564711554020E+00
-0.1004826285470E+00 -0.5197736893093E+00 -0.2915204686531E+00 -0.1427631968758E+00
-0.9468832750503E-01 -0.5126901716187E+00 -0.2854678938641E+00 -0.1277573815025E+00
-0.1038895535782E+00 -0.5182500024589E+00 -0.2924055905958E+00 -0.1151121284638E+00
-0.4989770867678E+01 -0.9275337533025E+01 -0.6704600931325E+01 -0.1035056463364E+01
 0.2624436512832E+00 -0.3965389393712E+01 -0.1740384494527E+01  0.8171076517162E+00
-0.1218153006078E+00 -0.3300578743140E+01 -0.1608525196482E+01  0.8486844075060E+00
-0.2303439653678E+00 -0.2826198548798E+01 -0.1436574978014E+01  0.8277787240509E+00
-0.3106780508182E+00 -0.2373719728854E+01 -0.1261666953246E+01  0.8042477246335E+00
-0.2891180555085E+00 -0.1868284041032E+01 -0.1013978982802E+01  0.7195888006147E+00
-0.1988187216267E+00 -0.1438480546432E+01 -0.7695306540359E+00  0.5866194355394E+00
-0.1251681169198E+00 -0.1186319558970E+01 -0.6163992061048E+00  0.4542888885260E+00
-0.8427568868907E-01 -0.1034294922886E+01 -0.5257281861067E+00  0.3448324460746E+00
-0.5773606012145E-01 -0.9099972971702E+00 -0.4548346767735E+00  0.2572130792052E+00
-0.3717859748982E-01 -0.7903918181132E+00 -0.3889580943469E+00  0.1849682782801E+00
-0.2154573669237E-01 -0.6715458744816E+00 -0.3257530564256E+00  0.1243658452535E+00
-0.1235190943896E-01 -0.5529075549588E+00 -0.2656719475931E+00  0.7376945621236E-01
-0.6764166265755E-02 -0.4316552020026E+00 -0.2060571025635E+00  0.3329972835351E-01
-0.3179442366581E-02 -0.3100895129708E+00 -0.1472364086351E+00  0.3867864990370E-02
-0.9490274692803E-03 -0.1924152431871E+00 -0.9088120697799E-01 -0.1376813206351E-01
-0.8357454065764E-02 -0.8589219660801E-01 -0.4429733570432E-01 -0.1754527009027E-01
 0.2569833956746E-01  0.2109924617478E-01  0.2199486524306E-01 -0.6527008818214E-03
 0.7207189025768E-01  0.7911375070356E-01  0.7105725107156E-01  0.1689646855112E-01
 0.7579322496393E-01  0.2203493267413E-01  0.4597923397327E-01  0.1681328596012E-01
-0.2842306648950E+01 -0.6517567837650E+01 -0.4399140997544E+01 -0.1389904796228E+01
-0.8197145707036E+00 -0.5250554453893E+01 -0.2853026434324E+01  0.1702663902979E+00
-0.4824056117259E-01 -0.3531984331263E+01 -0.1682705695177E+01  0.6784066441167E+00
-0.1821587820286E+00 -0.2964551750730E+01 -0.1478953946646E+01  0.7288023297304E+00
-0.2316698190277E+00 -0.2497492386148E+01 -0.1282706233179E+01  0.7100176914138E+00
-0.2282441708375E+00 -0.2060606644735E+01 -0.1075759880591E+01  0.6482285276342E+00
-0.1688517428592E+00 -0.1675953765021E+01 -0.8670585865043E+00  0.5544832667555E+00
-0.9701389484876E-01 -0.1391091789881E+01 -0.6994096700488E+00  0.4510514400608E+00
-0.5067232255063E-01 -0.1199901006438E+01 -0.5877694631337E+00  0.3508435294339E+00
-0.2437603569535E-01 -0.1057906168505E+01 -0.5086726346838E+00  0.2609613249086E+00
-0.6584744166409E-02 -0.9342761257717E+00 -0.4422046077493E+00  0.1829239777231E+00
 0.6014320908989E-02 -0.8173548318358E+00 -0.3813300391684E+00  0.1157236665379E+00
 0.1307226280734E-01 -0.7027161509028E+00 -0.3241326265828E+00  0.5790971658392E-01
 0.1477893975785E-01 -0.5886095720235E+00 -0.2697003964808E+00  0.9224444474897E-02
 0.1235381824985E-01 -0.4753830728210E+00 -0.2176237490965E+00 -0.2943949818919E-01
 0.4498215076179E-02 -0.3658281317996E+00 -0.1698250604292E+00 -0.5711372912022E-01
-0.6018776546319E-02 -0.2537440814495E+00 -0.1220885429484E+00 -0.7433552051386E-01
-0.3776815066885E-03 -0.1581011420663E+00 -0.7448504689037E-01 -0.7899081372342E-01
 0.9424997235470E-02 -0.1215441986701E+00 -0.5269602454061E-01 -0.8286478409973E-01
-0.1514057661972E-01 -0.1996729490518E+00 -0.1009623568095E+00 -0.1003167000408E+00
-0.2373500753182E+01 -0.5533496120516E+01 -0.3716288521212E+01 -0.1402394721905E+01
-0.8768941596916E+00 -0.5020373533083E+01 -0.2771715808574E+01 -0.2108271367475E+00
-0.3102131311381E+00 -0.3954915863298E+01 -0.2004610622301E+01  0.3892015166985E+00
-0.1497518060080E+00 -0.3130742370878E+01 -0.1541832259226E+01  0.5919814754930E+00
-0.1801660462467E+00 -0.2641568584088E+01 -0.1326215272894E+01  0.6137598673013E+00
-0.1731374081430E+00 -0.2228305148294E+01 -0.1128677998663E+01  0.5767337444534E+00
-0.1295366284571E+00 -0.1874293679523E+01 -0.9418002423621E+00  0.5100880736553E+00
-0.6801467146179E-01 -0.1589973966257E+01 -0.7792546577514E+00  0.4298777887619E+00
-0.1957314922546E-01 -0.1376992427975E+01 -0.6563858196194E+00  0.3440805708422E+00
 0.9390946929238E-02 -0.1216265882084E+01 -0.5672312180838E+00  0.2590770180423E+00
 0.2664605990908E-01 -0.1084343663360E+01 -0.4971178723611E+00  0.1798123354490E+00
 0.3734623132125E-01 -0.9664313956641E+00 -0.4366700261336E+00  0.1084294733056E+00
 0.4231302434057E-01 -0.8551005425484E+00 -0.3820101325887E+00  0.4501684584703E-01
 0.4145042979211E-01 -0.7469281180106E+00 -0.3315745126217E+00 -0.1043662877694E-01
 0.3473109155415E-01 -0.6415894454681E+00 -0.2852234256161E+00 -0.5726657565191E-01
 0.2229153385738E-01 -0.5390244455614E+00 -0.2428644678849E+00 -0.9497164282481E-01
 0.5214544972516E-02 -0.4354805789126E+00 -0.2022250354389E+00 -0.1242666696360E+00
-0.6747350875135E-02 -0.3513091340361E+00 -0.1682865474815E+00 -0.1451464278327E+00
-0.2263359292535E-01 -0.3331681965182E+00 -0.1672268406143E+00 -0.1658723865024E+00
-0.6705860680741E-01 -0.4328458380481E+00 -0.2349550884861E+00 -0.1955613658948E+00
-0.2171067835855E+01 -0.4923199423863E+01 -0.3334305603611E+01 -0.1354918757806E+01
-0.9453406627496E+00 -0.4736345009436E+01 -0.2670392259154E+01 -0.4412359479057E+00
-0.4253483500784E+00 -0.4044907557078E+01 -0.2101020271035E+01  0.1301305454423E+00
-0.2086907008149E+00 -0.3336082171000E+01 -0.1666043245527E+01  0.4136324022702E+00
-0.1496627997909E+00 -0.2794236088064E+01 -0.1383632473782E+01  0.5025715902489E+00
-0.1302559746493E+00 -0.2387190205454E+01 -0.1183199701648E+01  0.4997096110736E+00
-0.9095392308719E-01 -0.2050485076601E+01 -0.1006476327301E+01  0.4574834876343E+00
-0.3713591849537E-01 -0.1773827152360E+01 -0.8511526411430E+00  0.3966205377622E+00
 0.1042418961618E-01 -0.1553690190832E+01 -0.7253350187318E+00  0.3254681089473E+00
 0.4201642995605E-01 -0.1380477127788E+01 -0.6290765263853E+00  0.2492613920249E+00
 0.6064749925413E-01 -0.1239772361014E+01 -0.5541886836214E+00  0.1731188552631E+00
 0.7092403886814E-01 -0.1118930004316E+01 -0.4925628025114E+00  0.1008034902225E+00
 0.7477472499929E-01 -0.1009296106483E+01 -0.4392250481833E+00  0.3405176932677E-01
 0.7226069503305E-01 -0.9061106545454E+00 -0.3919094799768E+00 -0.2640043937421E-01
 0.6325182061807E-01 -0.8077740885924E+00 -0.3499254650604E+00 -0.7989276914747E-01
 0.4763840696186E-01 -0.7138733041758E+00 -0.3131304008963E+00 -0.1260350856856E+00
 0.2650375526329E-01 -0.6210668154147E+00 -0.2794446375624E+00 -0.1651954776555E+00
 0.1834870099421E-02 -0.5507730343473E+00 -0.2580009365421E+00 -0.1984989145621E+00
-0.3149687604502E-01 -0.5484887096117E+00 -0.2725932245672E+00 -0.2312512880441E+00
-0.8536538616888E-01 -0.6595987232348E+00 -0.3501331305317E+00 -0.2680832989361E+00
-0.2072241217778E+01 -0.4492849323191E+01 -0.3085592546429E+01 -0.1288315612143E+01
-0.1015117336978E+01 -0.4459964481766E+01 -0.2573288448282E+01 -0.5878885391331E+00
-0.5145378591404E+00 -0.4014028871801E+01 -0.2128426358144E+01 -0.7948202202299E-01
-0.2631002782410E+00 -0.3452793003006E+01 -0.1746469837756E+01  0.2316788884292E+00
-0.1537054712102E+00 -0.2947210568173E+01 -0.1457430534813E+01  0.3736961573433E+00
-0.1015862631873E+00 -0.2539341470883E+01 -0.1241236031865E+01  0.4122465205060E+00
-0.5826888911355E-01 -0.2212907166332E+01 -0.1067452743352E+01  0.3964759650290E+00
-0.7316470222841E-02 -0.1943890442285E+01 -0.9170672465529E+00  0.3540273100196E+00
 0.3942669674372E-01 -0.1723600561662E+01 -0.7915617145040E+00  0.2970712468675E+00
 0.7310806677030E-01 -0.1544584277491E+01 -0.6915938172848E+00  0.2312754531557E+00
 0.9398223336728E-01 -0.1397664670716E+01 -0.6127307439998E+00  0.1612837437007E+00
 0.1052645700913E+00 -0.1273632991519E+01 -0.5491331566780E+00  0.9117018488394E-01
 0.1091902403672E+00 -0.1164605756677E+01 -0.4960452914074E+00  0.2369488848841E-01
 0.1061916507156E+00 -0.1065296614444E+01 -0.4507793318092E+00 -0.3961056212864E-01
 0.9614164413099E-01 -0.9734020329816E+00 -0.4123123817140E+00 -0.9779092297143E-01
 0.7893852290928E-01 -0.8881195883619E+00 -0.3803150997981E+00 -0.1502781471367E+00
 0.5539472545200E-01 -0.8067094561775E+00 -0.3531179225453E+00 -0.1968961418241E+00
 0.2226205282968E-01 -0.7498959318329E+00 -0.3419879222641E+00 -0.2391891551020E+00
-0.2205196879448E-01 -0.7595683636947E+00 -0.3673615553382E+00 -0.2802023146695E+00
-0.7948857546820E-01 -0.8745022576929E+00 -0.4483756904485E+00 -0.3210166551393E+00
-0.2015363235992E+01 -0.4161707279685E+01 -0.2903223135005E+01 -0.1217450256555E+01
-0.1085510157489E+01 -0.4210426825862E+01 -0.2489090375862E+01 -0.6821029240218E+00
-0.5944762930302E+00 -0.3926560271265E+01 -0.2124887179829E+01 -0.2443061391723E+00
-0.3179900161394E+00 -0.3500536441705E+01 -0.1794707430635E+01  0.6389102222420E-01
-0.1717818249114E+00 -0.3064077241525E+01 -0.1520853757368E+01  0.2378756888309E+00
-0.9059400355085E-01 -0.2680072624696E+01 -0.1302213311973E+01  0.3134452276649E+00
-0.3430246716823E-01 -0.2363319337555E+01 -0.1126882245362E+01  0.3259936377629E+00
 0.1856894482203E-01 -0.2101763849669E+01 -0.9791016027945E+00  0.3028426679952E+00
 0.6616385430398E-01 -0.1884445438610E+01 -0.8545923424564E+00  0.2602680815600E+00
 0.1021023484215E+00 -0.1704247794647E+01 -0.7530083578162E+00  0.2056923932187E+00
 0.1256917697265E+00 -0.1554403163676E+01 -0.6714943534530E+00  0.1437344297266E+00
 0.1390258720304E+00 -0.1428335759085E+01 -0.6059756453788E+00  0.7833154802809E-01
 0.1442074436740E+00 -0.1319665497554E+01 -0.5524652839222E+00  0.1266512193900E-01
 0.1418522997750E+00 -0.1223476843708E+01 -0.5083635343592E+00 -0.5116458852123E-01
 0.1319374850239E+00 -0.1137237109315E+01 -0.4724908222184E+00 -0.1118176419580E+00
 0.1143989465567E+00 -0.1059953451279E+01 -0.4444106160921E+00 -0.1683768202481E+00
 0.8989851433988E-01 -0.9892302277434E+00 -0.4226859042275E+00 -0.2200537909446E+00
 0.5172710651334E-01 -0.9442145362706E+00 -0.4194690909220E+00 -0.2684323776409E+00
 0.1241366155478E-02 -0.9620197561070E+00 -0.4515658421319E+00 -0.3148304821981E+00
-0.5645401347067E-01 -0.1075307618960E+01 -0.5319279658931E+00 -0.3576516820856E+00
-0.1977815995400E+01 -0.3894128594413E+01 -0.2759813950212E+01 -0.1147759483493E+01
-0.1151809369711E+01 -0.3987315057325E+01 -0.2415388474581E+01 -0.7413267684934E+00
-0.6705785829861E+00 -0.3814119550219E+01 -0.2107808117260E+01 -0.3719183682981E+00
-0.3749213737423E+00 -0.3499456306850E+01 -0.1820957505260E+01 -0.8323981358268E-01
-0.1998616370647E+00 -0.3140361973049E+01 -0.1569905092772E+01  0.1046539746146E+00
-0.9302868949599E-01 -0.2797209026395E+01 -0.1358411723023E+01  0.2075108912548E+00
-0.2100706461367E-01 -0.2499038316602E+01 -0.1184421326167E+01  0.2464287903722E+00
 0.3828603225353E-01 -0.2247063644687E+01 -0.1038125475211E+01  0.2433037889574E+00
 0.8896082210864E-01 -0.2034996326380E+01 -0.9146366846877E+00  0.2157601507595E+00
 0.1280013230959E+00 -0.1856716253192E+01 -0.8124960150842E+00  0.1731017903556E+00
 0.1548637795848E+00 -0.1706821347230E+01 -0.7294200549434E+00  0.1204340365405E+00
 0.1710652282263E+00 -0.1580430908292E+01 -0.6624018679508E+00  0.6161258212339E-01
 0.1785032082305E+00 -0.1472600994690E+01 -0.6082259580932E+00 -0.6022399175625E-04
 0.1778466188406E+00 -0.1379202139965E+01 -0.5646370934962E+00 -0.6216771428405E-01
 0.1691407113670E+00 -0.1297888702343E+01 -0.5305115544132E+00 -0.1230465562031E+00
 0.1523924325885E+00 -0.1227631194007E+01 -0.5053622165850E+00 -0.1814016971318E+00
 0.1281930886194E+00 -0.1166252592010E+01 -0.4878879653563E+00 -0.2358747229180E+00
 0.8774341610607E-01 -0.1130848650496E+01 -0.4902594589199E+00 -0.2878855604705E+00
 0.3458699789253E-01 -0.1153471879691E+01 -0.5258758931117E+00 -0.3374356740748E+00
-0.2149407679202E-01 -0.1261239187799E+01 -0.6028846328285E+00 -0.3809837143554E+00
-0.1949469370153E+01 -0.3670804519830E+01 -0.2641528721592E+01 -0.1081396447521E+01
-0.1211666659428E+01 -0.3787708900213E+01 -0.2349706507072E+01 -0.7761187381240E+00
-0.7431972485598E+00 -0.3691605228787E+01 -0.2084357159066E+01 -0.4692599398855E+00
-0.4342363457021E+00 -0.3465678070960E+01 -0.1832959771182E+01 -0.2083206192280E+00
-0.2360396347071E+00 -0.3180211641337E+01 -0.1605638095668E+01 -0.1975228357189E-01
-0.1067223924844E+00 -0.2885973832485E+01 -0.1406567222168E+01  0.9986026919995E-01
-0.1814644376583E-01 -0.2614968174422E+01 -0.1237563867410E+01  0.1603149072339E+00
 0.5026197215136E-01 -0.2377566575054E+01 -0.1093833160590E+01  0.1763181482699E+00
 0.1062469915286E+00 -0.2173644263238E+01 -0.9716767152390E+00  0.1641488135015E+00
 0.1495884471061E+00 -0.1999894523034E+01 -0.8696438534805E+00  0.1340029695394E+00
 0.1804826301308E+00 -0.1852355090243E+01 -0.7857800542599E+00  0.9154923963892E-01
 0.2003083471770E+00 -0.1727407416838E+01 -0.7177365609202E+00  0.4070129440358E-01
 0.2108586438145E+00 -0.1621290830834E+01 -0.6629031262177E+00 -0.1520467862056E-01
 0.2128308565546E+00 -0.1530738347488E+01 -0.6194165191675E+00 -0.7359816564138E-01
 0.2063127255283E+00 -0.1453800417960E+01 -0.5863192139556E+00 -0.1325994415966E+00
 0.1913772858189E+00 -0.1389542667911E+01 -0.5631377281552E+00 -0.1906021078717E+00
 0.1686075025776E+00 -0.1335959786312E+01 -0.5486555719636E+00 -0.2457910817758E+00
 0.1280887916643E+00 -0.1307962710981E+01 -0.5545407406725E+00 -0.2993354196381E+00
 0.7481625846601E-01 -0.1332676041826E+01 -0.5911940966795E+00 -0.3502462973943E+00
 0.2141071118668E-01 -0.1432253810448E+01 -0.6630962549711E+00 -0.3936339198191E+00
-0.1925492172757E+01 -0.3480151941281E+01 -0.2540652727154E+01 -0.1019103300278E+01
-0.1264083168619E+01 -0.3608414708358E+01 -0.2290073996371E+01 -0.7933371899261E+00
-0.8116734131355E+00 -0.3566618636002E+01 -0.2057797257875E+01 -0.5420416258321E+00
-0.4950647284254E+00 -0.3410352138260E+01 -0.1835545922687E+01 -0.3121830132124E+00
-0.2788695093962E+00 -0.3190199367974E+01 -0.1630462368229E+01 -0.1318643641004E+00
-0.1301145698261E+00 -0.2946302782034E+01 -0.1445916151707E+01 -0.4761924304758E-02
-0.2525469861612E-01 -0.2708030206995E+01 -0.1284643902379E+01  0.7116666073793E-01
 0.5382225865419E-01 -0.2490345162260E+01 -0.1145165761790E+01  0.1038032206318E+00
 0.1168009626564E+00 -0.2298242055542E+01 -0.1025277311056E+01  0.1064505410197E+00
 0.1656832822889E+00 -0.2131742436765E+01 -0.9240478002600E+00  0.8901515702957E-01
 0.2014814844501E+00 -0.1988784810169E+01 -0.8400325609571E+00  0.5738253731462E-01
 0.2256970121839E+00 -0.1866981515573E+01 -0.7714037146364E+00  0.1552030532189E-01
 0.2401315683174E+00 -0.1763611742085E+01 -0.7160356798547E+00 -0.3323500812079E-01
 0.2455515531122E+00 -0.1676225590273E+01 -0.6724167957601E+00 -0.8624954102006E-01
 0.2420969972558E+00 -0.1603333849993E+01 -0.6397813191639E+00 -0.1415231617983E+00
 0.2299038777000E+00 -0.1544171399608E+01 -0.6177057337302E+00 -0.1972407308250E+00
 0.2095795547161E+00 -0.1496912765339E+01 -0.6050466074583E+00 -0.2512752731301E+00
 0.1707751003690E+00 -0.1474340598959E+01 -0.6126757827832E+00 -0.3045338671738E+00
 0.1192708304306E+00 -0.1498999400180E+01 -0.6484724261373E+00 -0.3553161663916E+00
 0.6915556839601E-01 -0.1588651311530E+01 -0.7141629974614E+00 -0.3978613071587E+00
-0.1903463338974E+01 -0.3314615970605E+01 -0.2452497269282E+01 -0.9609854814895E+00
-0.1308881882439E+01 -0.3446606933464E+01 -0.2235079737805E+01 -0.7976686353450E+00
-0.8752829813910E+00 -0.3443138603003E+01 -0.2029658139517E+01 -0.5948538680618E+00
-0.5561584329298E+00 -0.3341081249126E+01 -0.1831702645921E+01 -0.3965591591410E+00
-0.3267988929902E+00 -0.3176684673672E+01 -0.1646637272155E+01 -0.2300735408611E+00
-0.1617827487849E+00 -0.2980618613407E+01 -0.1476928636484E+01 -0.1028122590867E+00
-0.4166747559773E-01 -0.2777406252560E+01 -0.1324964648873E+01 -0.1748660447394E-01
 0.4876416904758E-01 -0.2583303318577E+01 -0.1191233397257E+01  0.2828964699940E-01
 0.1198767261345E+00 -0.2406596809853E+01 -0.1074758436622E+01  0.4423874994844E-01
 0.1753224037957E+00 -0.2250194442884E+01 -0.9751898558982E+00  0.3908185596943E-01
 0.2168664250264E+00 -0.2114038855321E+01 -0.8916710399767E+00  0.1844733505639E-01
 0.2462167535494E+00 -0.1997058765436E+01 -0.8228957434998E+00 -0.1379995761779E-01
 0.2652484377613E+00 -0.1897541883670E+01 -0.7671779176313E+00 -0.5439644169962E-01
 0.2748447170639E+00 -0.1813812370317E+01 -0.7233147951943E+00 -0.1007166868229E+00
 0.2752312212430E+00 -0.1744845693172E+01 -0.6907188000548E+00 -0.1507197225374E+00
 0.2666147197836E+00 -0.1690081566022E+01 -0.6690294160349E+00 -0.2024865139539E+00
 0.2496455051544E+00 -0.1647901926903E+01 -0.6571805165551E+00 -0.2537240973029E+00
 0.2140098091231E+00 -0.1629112932686E+01 -0.6650984663876E+00 -0.3051111873015E+00
 0.1656947805867E+00 -0.1652120388108E+01 -0.6986200337630E+00 -0.3544864218128E+00
 0.1192541979482E+00 -0.1730849948910E+01 -0.7574500010311E+00 -0.3956007658650E+00
-0.1882153439276E+01 -0.3168958578783E+01 -0.2374022642466E+01 -0.9068537473463E+00
-0.1346330929396E+01 -0.3299889016251E+01 -0.2183723368915E+01 -0.7924397980345E+00
-0.9335119949002E+00 -0.3323261855499E+01 -0.2000683704613E+01 -0.6313829604936E+00
-0.6162745377795E+00 -0.3263052884018E+01 -0.1823283883620E+01 -0.4634764244439E+00
-0.3782330659910E+00 -0.3145098831266E+01 -0.1655965987510E+01 -0.3139608640079E+00
-0.2002432877298E+00 -0.2992305111034E+01 -0.1500497743613E+01 -0.1919204870700E+00
-0.6649957803698E-01 -0.2823945836517E+01 -0.1358509341395E+01 -0.1026053484197E+00
 0.3525740766530E-01 -0.2655568641425E+01 -0.1231546276743E+01 -0.4755449897389E-01
 0.1151276367897E+00 -0.2497071649115E+01 -0.1119513682954E+01 -0.2052833425570E-01
 0.1778537083591E+00 -0.2353387676337E+01 -0.1022500962356E+01 -0.1448796629585E-01
 0.2258266966345E+00 -0.2226197870736E+01 -0.9401744494430E+00 -0.2446054158355E-01
 0.2609665502217E+00 -0.2115706592364E+01 -0.8717278175959E+00 -0.4689295572221E-01
 0.2852299112005E+00 -0.2021193813783E+01 -0.8159030321444E+00 -0.7871333338702E-01
 0.2996430854500E+00 -0.1941730271400E+01 -0.7717809754389E+00 -0.1173881136278E+00
 0.3045512532475E+00 -0.1876749427974E+01 -0.7389331402473E+00 -0.1609102079142E+00
 0.3002471046521E+00 -0.1825917266053E+01 -0.7170649740398E+00 -0.2073535654617E+00
 0.2874358117234E+00 -0.1787857230274E+01 -0.7051980649300E+00 -0.2543917844621E+00
 0.2561667800515E+00 -0.1771588072844E+01 -0.7122480058061E+00 -0.3025309672331E+00
 0.2121473123472E+00 -0.1791848481136E+01 -0.7424595474475E+00 -0.3493779905043E+00
 0.1696650547471E+00 -0.1859258653558E+01 -0.7941089894270E+00 -0.3885074623609E+00
-0.1860947962316E+01 -0.3039369221028E+01 -0.2303149070330E+01 -0.8563887704081E+00
-0.1376927895912E+01 -0.3166241659855E+01 -0.2135289685795E+01 -0.7800793956732E+00
-0.9860871541824E+00 -0.3208051338778E+01 -0.1971245086692E+01 -0.6546074026256E+00
-0.6743450880802E+00 -0.3179835358052E+01 -0.1811464805087E+01 -0.5149804482087E+00
-0.4316496018361E+00 -0.3099853110906E+01 -0.1659806270779E+01 -0.3838350820026E+00
-0.2439669826946E+00 -0.2984910754481E+01 -0.1517572532623E+01 -0.2706840844739E+00
-0.9865099022595E-01 -0.2849478446939E+01 -0.1385620831953E+01 -0.1818197252613E+00
 0.1379450363060E-01 -0.2707367103129E+01 -0.1265979118553E+01 -0.1212602665867E+00
 0.1025595541175E+00 -0.2568828213425E+01 -0.1159146266934E+01 -0.8576167333785E-01
 0.1729448256814E+00 -0.2439930275055E+01 -0.1065483158503E+01 -0.7012130129973E-01
 0.2278014419093E+00 -0.2323626308265E+01 -0.9850376846887E+00 -0.7026776437395E-01
 0.2692271529343E+00 -0.2221201733135E+01 -0.9174280503672E+00 -0.8313717400871E-01
 0.2992373665407E+00 -0.2132848189205E+01 -0.8617970844663E+00 -0.1059756929181E+00
 0.3190007576709E+00 -0.2058340449569E+01 -0.8174896531187E+00 -0.1364341504304E+00
 0.3290037182101E+00 -0.1997557939216E+01 -0.7842204818838E+00 -0.1726138325332E+00
 0.3296395216028E+00 -0.1950411348987E+01 -0.7617627569385E+00 -0.2126690523145E+00
 0.3216763001080E+00 -0.1915801481889E+01 -0.7492388335368E+00 -0.2543551750275E+00
 0.2957650483168E+00 -0.1901157839134E+01 -0.7545346097705E+00 -0.2980699576694E+00
 0.2569387067754E+00 -0.1918023158796E+01 -0.7807096904694E+00 -0.3413982403553E+00
 0.2186767164818E+00 -0.1974211590076E+01 -0.8251013884964E+00 -0.3779988817729E+00
-0.1839556998203E+01 -0.2922967792499E+01 -0.2238386645953E+01 -0.8092239285488E+00
-0.1401274595209E+01 -0.3043951792352E+01 -0.2089256396854E+01 -0.7623969172725E+00
-0.1032941319025E+01 -0.3097977959227E+01 -0.1941532055854E+01 -0.6669520358552E+00
-0.7295285678088E+00 -0.3093899547154E+01 -0.1797011209475E+01 -0.5530117755251E+00
-0.4856820844298E+00 -0.3044452766868E+01 -0.1659163375902E+01 -0.4404328069883E+00
-0.2914474398711E+00 -0.2961771816110E+01 -0.1529013046433E+01 -0.3384403743254E+00
-0.1368679101746E+00 -0.2856301454296E+01 -0.1406789597733E+01 -0.2534344903909E+00
-0.1485860852188E-01 -0.2739721461258E+01 -0.1294652629513E+01 -0.1907391207291E+00
 0.8248921790490E-01 -0.2621810796597E+01 -0.1193481138958E+01 -0.1494569574583E+00
 0.1605691409438E+00 -0.2509034417879E+01 -0.1103778677360E+01 -0.1261350182858E+00
 0.2225026489811E+00 -0.2405112412925E+01 -0.1025826586452E+01 -0.1176978957261E+00
 0.2705074169573E+00 -0.2312122701277E+01 -0.9595591811962E+00 -0.1216783620684E+00
 0.3066194189902E+00 -0.2231013437253E+01 -0.9044651862896E+00 -0.1357393064591E+00
 0.3321291993666E+00 -0.2162181082958E+01 -0.8601243831065E+00 -0.1577992844884E+00
 0.3476705657939E+00 -0.2105921718146E+01 -0.8263780395097E+00 -0.1861357237644E+00
 0.3537472173286E+00 -0.2062402712722E+01 -0.8030680807982E+00 -0.2190577841572E+00
 0.3511957367479E+00 -0.2030835075775E+01 -0.7894304873404E+00 -0.2544987584517E+00
 0.3314558115210E+00 -0.2017253928947E+01 -0.7923251131807E+00 -0.2928127471355E+00
 0.2985854213756E+00 -0.2030465539964E+01 -0.8139836536719E+00 -0.3317534281269E+00
 0.2648355241577E+00 -0.2075942790784E+01 -0.8512204131554E+00 -0.3652900425836E+00
-0.1817861370704E+01 -0.2817508764017E+01 -0.2178623957793E+01 -0.7649882048772E+00
-0.1420005269671E+01 -0.2931549945478E+01 -0.2045230945932E+01 -0.7407593495835E+00
-0.1074166112292E+01 -0.2993161354474E+01 -0.1911643904531E+01 -0.6704041188393E+00
-0.7812084206681E+00 -0.3006959863902E+01 -0.1780439089232E+01 -0.5793550618105E+00
-0.5391615957248E+00 -0.2981653738383E+01 -0.1654783202833E+01 -0.4847269975769E+00
-0.3412674801276E+00 -0.2925861184619E+01 -0.1535550468536E+01 -0.3950678733255E+00
-0.1798215902162E+00 -0.2846849435737E+01 -0.1422535378590E+01 -0.3163558922873E+00
-0.4972821946196E-01 -0.2754153554680E+01 -0.1317824430504E+01 -0.2543513972579E+00
 0.5549823508600E-01 -0.2656602593226E+01 -0.1222519045225E+01 -0.2098375159291E+00
 0.1409789565975E+00 -0.2560518581393E+01 -0.1137183620770E+01 -0.1808802378436E+00
 0.2099133048391E+00 -0.2469942514127E+01 -0.1062213725671E+01 -0.1653762448180E+00
 0.2645653989667E+00 -0.2387434367363E+01 -0.9977484126157E+00 -0.1614887615361E+00
 0.3069460391283E+00 -0.2314496352708E+01 -0.9435486449892E+00 -0.1673515381323E+00
 0.3384336599072E+00 -0.2252023723701E+01 -0.8993873277018E+00 -0.1812089983705E+00
 0.3598015746361E+00 -0.2200673250957E+01 -0.8652096856765E+00 -0.2015651268996E+00
 0.3716676254595E+00 -0.2160865609543E+01 -0.8409230503866E+00 -0.2269384491141E+00
 0.3749416670921E+00 -0.2132145223364E+01 -0.8258856693529E+00 -0.2555126990142E+00
 0.3620170683783E+00 -0.2119339782857E+01 -0.8259416737103E+00 -0.2876559953907E+00
 0.3357792822832E+00 -0.2128965220310E+01 -0.8427973887349E+00 -0.3214629649641E+00
 0.3069022817072E+00 -0.2164585808159E+01 -0.8731112552176E+00 -0.3514202363468E+00
-0.1795828227822E+01 -0.2721195374139E+01 -0.2123001087537E+01 -0.7233287220843E+00
-0.1433745680020E+01 -0.2827759925849E+01 -0.2002907629678E+01 -0.7162078254331E+00
-0.1109968805875E+01 -0.2893507730211E+01 -0.1881633967188E+01 -0.6665997522974E+00
-0.8289694796361E+00 -0.2920199333030E+01 -0.1762109337484E+01 -0.5956226232150E+00
-0.5911281916165E+00 -0.2913609540282E+01 -0.1647226729814E+01 -0.5178050166077E+00
-0.3921456599701E+00 -0.2879748697235E+01 -0.1537790343986E+01 -0.4408278913053E+00
-0.2261827141483E+00 -0.2823499660481E+01 -0.1433350712440E+01 -0.3699926415260E+00
-0.8970557272943E-01 -0.2752447944740E+01 -0.1335812149823E+01 -0.3109063583615E+00
 0.2237866914356E-01 -0.2674248560444E+01 -0.1246378845750E+01 -0.2654307404807E+00
 0.1146690396844E+00 -0.2594728138358E+01 -0.1165627773420E+01 -0.2328510051415E+00
 0.1902692594231E+00 -0.2517901820995E+01 -0.1093987301164E+01 -0.2119327868651E+00
 0.2514096329944E+00 -0.2446530823648E+01 -0.1031706956991E+01 -0.2014438870491E+00
 0.3000265078212E+00 -0.2382457758899E+01 -0.9787426855239E+00 -0.1999983792785E+00
 0.3375423383002E+00 -0.2326928293967E+01 -0.9350113967918E+00 -0.2061933518607E+00
 0.3648488790386E+00 -0.2280876987262E+01 -0.9005332085808E+00 -0.2187853910985E+00
 0.3826737812990E+00 -0.2244952014829E+01 -0.8752707675392E+00 -0.2365297660133E+00
 0.3920053471278E+00 -0.2219036770698E+01 -0.8587047669002E+00 -0.2579012274603E+00
 0.3863548512807E+00 -0.2206929699792E+01 -0.8556701766299E+00 -0.2833213817449E+00
 0.3673641692510E+00 -0.2213291775617E+01 -0.8675859727916E+00 -0.3113757252390E+00
 0.3438266163987E+00 -0.2240188203255E+01 -0.8912899435616E+00 -0.3372721009419E+00
-0.1773462143332E+01 -0.2632554842636E+01 -0.2070827978153E+01 -0.6839224273855E+00
-0.1443091862810E+01 -0.2731460713270E+01 -0.1962039705781E+01 -0.6895367534500E+00
-0.1140636114218E+01 -0.2798791744187E+01 -0.1851531088754E+01 -0.6568879507129E+00
-0.8725686196291E+00 -0.2834423700622E+01 -0.1742286386099E+01 -0.6032539747712E+00
-0.6408228499912E+00 -0.2841993175280E+01 -0.1636923527726E+01 -0.5407911529414E+00
-0.4429627614768E+00 -0.2825613501825E+01 -0.1536230839856E+01 -0.4762431396664E+00
-0.2746805582279E+00 -0.2788466232498E+01 -0.1439678987990E+01 -0.4141557825824E+00
-0.1336170783128E+00 -0.2736483668538E+01 -0.1348947347598E+01 -0.3596258447901E+00
-0.1592609127622E-01 -0.2676091974522E+01 -0.1265248487716E+01 -0.3150957960562E+00
 0.8233232592805E-01 -0.2612422156180E+01 -0.1189142217202E+01 -0.2807538863443E+00
 0.1640293647771E+00 -0.2549222008007E+01 -0.1121040539475E+01 -0.2560864373962E+00
 0.2312847737597E+00 -0.2489230349856E+01 -0.1061234418074E+01 -0.2403992915200E+00
 0.2859114938930E+00 -0.2434435500436E+01 -0.1009806280514E+01 -0.2327613245781E+00
 0.3293247343031E+00 -0.2386280182123E+01 -0.9667690580234E+00 -0.2321215568477E+00
 0.3624987472770E+00 -0.2345874981412E+01 -0.9321868276792E+00 -0.2374919247071E+00
 0.3862546508717E+00 -0.2314041913144E+01 -0.9060600109697E+00 -0.2478624608057E+00
 0.4016576863517E+00 -0.2290983333312E+01 -0.8879830518190E+00 -0.2619988829654E+00
 0.4035117444025E+00 -0.2279633045691E+01 -0.8817770093691E+00 -0.2803792823823E+00
 0.3923115961941E+00 -0.2283227382873E+01 -0.8887304174850E+00 -0.3021933355762E+00
 0.3747259804398E+00 -0.2302735281884E+01 -0.9061643693803E+00 -0.3235868233035E+00
-0.1750780106613E+01 -0.2550352790128E+01 -0.2021532456341E+01 -0.6464828356072E+00
-0.1448592791395E+01 -0.2641646797601E+01 -0.1922412601952E+01 -0.6613467461158E+00
-0.1166514700165E+01 -0.2708720743935E+01 -0.1821360654107E+01 -0.6423770916656E+00
-0.9118986368252E+00 -0.2750164566013E+01 -0.1721169700968E+01 -0.6035232390730E+00
-0.6876732872159E+00 -0.2768099770687E+01 -0.1624213333095E+01 -0.5547981070637E+00
-0.4927687655750E+00 -0.2765273174791E+01 -0.1531279708088E+01 -0.5020069261284E+00
-0.3241463069758E+00 -0.2743749378400E+01 -0.1441910968469E+01 -0.4489673718465E+00
-0.1802850387090E+00 -0.2708122128822E+01 -0.1357551365296E+01 -0.4000912125482E+00
-0.5838008052696E-01 -0.2663642501089E+01 -0.1279350610115E+01 -0.3580196250415E+00
 0.4481101319062E-01 -0.2614658105539E+01 -0.1207828130340E+01 -0.3235450722849E+00
 0.1318367721805E+00 -0.2564501786168E+01 -0.1143352553674E+01 -0.2967067239290E+00
 0.2046439453505E+00 -0.2515732726018E+01 -0.1086211724159E+01 -0.2772581092095E+00
 0.2648793258401E+00 -0.2470329714351E+01 -0.1036561679971E+01 -0.2646747963287E+00
 0.3138954661339E+00 -0.2429795723982E+01 -0.9944731186661E+00 -0.2582396039045E+00
 0.3526982236959E+00 -0.2395309818687E+01 -0.9600274472110E+00 -0.2572092540856E+00
 0.3821605513765E+00 -0.2367790987008E+01 -0.9332463023797E+00 -0.2607864948702E+00
 0.4034055556165E+00 -0.2347693356177E+01 -0.9138152639455E+00 -0.2679854853483E+00
 0.4126897611645E+00 -0.2337230814122E+01 -0.9045342925958E+00 -0.2792836051785E+00
 0.4096871784754E+00 -0.2338627587049E+01 -0.9066019897300E+00 -0.2945109892871E+00
 0.3988494722953E+00 -0.2352184244289E+01 -0.9180673405086E+00 -0.3109849305677E+00
-0.1727745797713E+01 -0.2473465543395E+01 -0.1974569325313E+01 -0.6107563891460E+00
-0.1450786400180E+01 -0.2557447410791E+01 -0.1883869886378E+01 -0.6320733508968E+00
-0.1187956883233E+01 -0.2622943447542E+01 -0.1791123150922E+01 -0.6239664367244E+00
-0.9469901802629E+00 -0.2667803073640E+01 -0.1698952825025E+01 -0.5975507325397E+00
-0.7312501715394E+00 -0.2692900313744E+01 -0.1609350724001E+01 -0.5609023174598E+00
-0.5407870284518E+00 -0.2700223582656E+01 -0.1523274983357E+01 -0.5189145960109E+00
-0.3735389751099E+00 -0.2691113591556E+01 -0.1440386702680E+01 -0.4747806410599E+00
-0.2285766923267E+00 -0.2669137034194E+01 -0.1361925448010E+01 -0.4321839139248E+00
-0.1039081543049E+00 -0.2638478189622E+01 -0.1288921578376E+01 -0.3936934623458E+00
 0.3047419385181E-02 -0.2602691615032E+01 -0.1221832768855E+01 -0.3604434524822E+00
 0.9447486924601E-01 -0.2564622863014E+01 -0.1160969554126E+01 -0.3328556377765E+00
 0.1721094019687E+00 -0.2526556877834E+01 -0.1106590310850E+01 -0.3110284635347E+00
 0.2374042339910E+00 -0.2490357232318E+01 -0.1058887906528E+01 -0.2947823738941E+00
 0.2915978757491E+00 -0.2457487219700E+01 -0.1017967989075E+01 -0.2837084876683E+00
 0.3356635769001E+00 -0.2429105427758E+01 -0.9839176674077E+00 -0.2772999294866E+00
 0.3704601928928E+00 -0.2406136248745E+01 -0.9567677438239E+00 -0.2749536368026E+00
 0.3970729483314E+00 -0.2389187660976E+01 -0.9362939125682E+00 -0.2758742283157E+00
 0.4133243010520E+00 -0.2379788757467E+01 -0.9242382921706E+00 -0.2804034349424E+00
 0.4186083477813E+00 -0.2379547342287E+01 -0.9216413250803E+00 -0.2888894390498E+00
 0.4154825656069E+00 -0.2388533538853E+01 -0.9273339550737E+00 -0.3000135703305E+00
-0.1704428156266E+01 -0.2400977465927E+01 -0.1929540637537E+01 -0.5765513533149E+00
-0.1449929127334E+01 -0.2477767763532E+01 -0.1846017534025E+01 -0.6019710952346E+00
-0.1205581466947E+01 -0.2541462623011E+01 -0.1761110717814E+01 -0.6023479908193E+00
-0.9778309962009E+00 -0.2587486102730E+01 -0.1675699032247E+01 -0.5863515691793E+00
-0.7712826895784E+00 -0.2617121657814E+01 -0.1592550039235E+01 -0.5601288315806E+00
-0.5863971640356E+00 -0.2631658498083E+01 -0.1512486157360E+01 -0.5278123208927E+00
-0.4219626027685E+00 -0.2632084292074E+01 -0.1435402036935E+01 -0.4921092971926E+00
-0.2774413182122E+00 -0.2621175345684E+01 -0.1362349828576E+01 -0.4560243659375E+00
-0.1514395733768E+00 -0.2602176459471E+01 -0.1294199532156E+01 -0.4218773699264E+00
-0.4195981454235E-01 -0.2577897605235E+01 -0.1231332984172E+01 -0.3909258443839E+00
 0.5282361687333E-01 -0.2550677804211E+01 -0.1173991465071E+01 -0.3638134647289E+00
 0.1344260546581E+00 -0.2522480431198E+01 -0.1122385554127E+01 -0.3408743213995E+00
 0.2041047688675E+00 -0.2494995729829E+01 -0.1076718748921E+01 -0.3221992680135E+00
 0.2629541415232E+00 -0.2469595338942E+01 -0.1037121360156E+01 -0.3076551840048E+00
 0.3118531967903E+00 -0.2447379623208E+01 -0.1003697417871E+01 -0.2969747135067E+00
 0.3515561708251E+00 -0.2429222894327E+01 -0.9765033575689E+00 -0.2897639543660E+00
 0.3829774212236E+00 -0.2415747416936E+01 -0.9554018955616E+00 -0.2854074600715E+00
 0.4052305427290E+00 -0.2407865455191E+01 -0.9412384064700E+00 -0.2839853348316E+00
 0.4182669161337E+00 -0.2406499388275E+01 -0.9344692595360E+00 -0.2859564280326E+00
 0.4237187237864E+00 -0.2412025276730E+01 -0.9345040775131E+00 -0.2912750451739E+00
-0.1678182231373E+01 -0.2328815502235E+01 -0.1883288930019E+01 -0.5433221241543E+00
-0.1448151260700E+01 -0.2404036879641E+01 -0.1810528421368E+01 -0.5707694121945E+00
-0.1219169001170E+01 -0.2463723993922E+01 -0.1730959703303E+01 -0.5782086094341E+00
-0.1004625927513E+01 -0.2509401052095E+01 -0.1651592676227E+01 -0.5708608463204E+00
-0.8075734831731E+00 -0.2541196714940E+01 -0.1573921989121E+01 -0.5534594650982E+00
-0.6291224235607E+00 -0.2560465186387E+01 -0.1499106172873E+01 -0.5295479028263E+00
-0.4686884770253E+00 -0.2567976015300E+01 -0.1427232307773E+01 -0.5015583096409E+00
-0.3259353212296E+00 -0.2565744269242E+01 -0.1359089404075E+01 -0.4719135435222E+00
-0.1999364427072E+00 -0.2556260915419E+01 -0.1295412755034E+01 -0.4425577525603E+00
-0.8918704973064E-01 -0.2541707864058E+01 -0.1236520606345E+01 -0.4147053910976E+00
 0.7824044547576E-02 -0.2523921513391E+01 -0.1182565807357E+01 -0.3890875153938E+00
 0.9241934522554E-01 -0.2504504395173E+01 -0.1133679970600E+01 -0.3661606698150E+00
 0.1656851239480E+00 -0.2484950097471E+01 -0.1090054534791E+01 -0.3461907764897E+00
 0.2285719732086E+00 -0.2466536566962E+01 -0.1051843356396E+01 -0.3292677170026E+00
 0.2818566580396E+00 -0.2450313566970E+01 -0.1019174744612E+01 -0.3153575458593E+00
 0.3261191136799E+00 -0.2437160730210E+01 -0.9921895572523E+00 -0.3043252024450E+00
 0.3619240005922E+00 -0.2427690615423E+01 -0.9709103065078E+00 -0.2958328919731E+00
 0.3893089424450E+00 -0.2422112333829E+01 -0.9554175915272E+00 -0.2897681890916E+00
 0.4081032622693E+00 -0.2421278435781E+01 -0.9461923291505E+00 -0.2863591207226E+00
 0.4217387304360E+00 -0.2423980673172E+01 -0.9410537106989E+00 -0.2856928468301E+00
-0.2470162881794E+00 -0.3746058222390E+00 -0.2921623911556E+00  0.2304028625070E+00
-0.2429274977012E+00 -0.3718018459243E+00 -0.2889227907712E+00  0.1441325430773E+00
-0.2394510152170E+00 -0.3746157903333E+00 -0.2886113978766E+00  0.7241142410934E-01
-0.2325255475839E+00 -0.3797605972981E+00 -0.2877744873647E+00  0.1286156484051E-01
-0.2232951973933E+00 -0.3867369437589E+00 -0.2867151056143E+00 -0.3647537957148E-01
-0.2126830655707E+00 -0.3946182850465E+00 -0.2854316340661E+00 -0.7693162503941E-01
-0.2019999990417E+00 -0.4032785041923E+00 -0.2844808957984E+00 -0.1093928763262E+00
-0.1912187813371E+00 -0.4122839299074E+00 -0.2836462735655E+00 -0.1347255974443E+00
-0.1803458243317E+00 -0.4211275201000E+00 -0.2826924711659E+00 -0.1537482559396E+00
-0.1696720038080E+00 -0.4294488067688E+00 -0.2815867802569E+00 -0.1671890621157E+00
-0.1594768149397E+00 -0.4370357306453E+00 -0.2803608957139E+00 -0.1757080860070E+00
-0.1499623828096E+00 -0.4437522801888E+00 -0.2790458909015E+00 -0.1799155170835E+00
-0.1411605206536E+00 -0.4493584376970E+00 -0.2775439097208E+00 -0.1804033303895E+00
-0.1330766603380E+00 -0.4535409040018E+00 -0.2757102545404E+00 -0.1777417336885E+00
-0.1256585324437E+00 -0.4559534531292E+00 -0.2733576325259E+00 -0.1724932185272E+00
-0.1186229467818E+00 -0.4561847092490E+00 -0.2701595976493E+00 -0.1652811088008E+00
-0.1107752836004E+00 -0.4533549628466E+00 -0.2651412151576E+00 -0.1568970133645E+00
-0.1020041107710E+00 -0.4478369874794E+00 -0.2584253155222E+00 -0.1478266677515E+00
-0.9107282557551E-01 -0.4412967880069E+00 -0.2502137177491E+00 -0.1383217256958E+00
-0.5465028147241E-01 -0.4144116652564E+00 -0.2204591144034E+00 -0.1249441616514E+00
-0.2003982321631E+00 -0.3183894763217E+00 -0.2438302223694E+00  0.2318907468813E+00
-0.2060018602860E+00 -0.3143210488858E+00 -0.2445517666905E+00  0.1437456666765E+00
-0.2067866370780E+00 -0.3131006682205E+00 -0.2443470328706E+00  0.7204851582955E-01
-0.2040016331947E+00 -0.3152530553979E+00 -0.2440497030195E+00  0.1307452666435E-01
-0.1980017865763E+00 -0.3190762412946E+00 -0.2430266724829E+00 -0.3533702586626E-01
-0.1902690102579E+00 -0.3236939518064E+00 -0.2415625915575E+00 -0.7461336205061E-01
-0.1823998481924E+00 -0.3291754532692E+00 -0.2404403910771E+00 -0.1057604296136E+00
-0.1745698054116E+00 -0.3355878102157E+00 -0.2397740787367E+00 -0.1298890035346E+00
-0.1666913909183E+00 -0.3424572696870E+00 -0.2392998698775E+00 -0.1479252259607E+00
-0.1589622244105E+00 -0.3492701011902E+00 -0.2388691924265E+00 -0.1606231368759E+00
-0.1515913825491E+00 -0.3556762173167E+00 -0.2384157713322E+00 -0.1686772542003E+00
-0.1446871273413E+00 -0.3614298781763E+00 -0.2378749919899E+00 -0.1727584791447E+00
-0.1381690732117E+00 -0.3662333048396E+00 -0.2370691170828E+00 -0.1735286860966E+00
-0.1319079777903E+00 -0.3697556975126E+00 -0.2357819267944E+00 -0.1716099489308E+00
-0.1256581234047E+00 -0.3717018014886E+00 -0.2337591641070E+00 -0.1675963550209E+00
-0.1188120202311E+00 -0.3717657540722E+00 -0.2305715533377E+00 -0.1620495794580E+00
-0.1102530946859E+00 -0.3695482107266E+00 -0.2255066129719E+00 -0.1553332142249E+00
-0.1009500844203E+00 -0.3666082293922E+00 -0.2197524069345E+00 -0.1472209325865E+00
-0.8726753293055E-01 -0.3616648945897E+00 -0.2109982403993E+00 -0.1363942522425E+00
-0.8733617615812E-01 -0.3646164249964E+00 -0.2124177220038E+00 -0.1211169219800E+00
-0.1556649600895E+00 -0.2633873748515E+00 -0.1969545969227E+00  0.2323626730226E+00
-0.1691614622382E+00 -0.2547266104416E+00 -0.1992273936542E+00  0.1431787527253E+00
-0.1758901890432E+00 -0.2506472287421E+00 -0.2004725858506E+00  0.7171807641495E-01
-0.1771681097917E+00 -0.2498873946118E+00 -0.2007160865606E+00  0.1367309513014E-01
-0.1744948937163E+00 -0.2509528803878E+00 -0.1999604533217E+00 -0.3355940612386E-01
-0.1695575728515E+00 -0.2526371091696E+00 -0.1984315000466E+00 -0.7149671576533E-01
-0.1644748333064E+00 -0.2554601548664E+00 -0.1973694439406E+00 -0.1012486837469E+00
-0.1594938752194E+00 -0.2598156011843E+00 -0.1970754534099E+00 -0.1241525924375E+00
-0.1544502205157E+00 -0.2652326782846E+00 -0.1972509619359E+00 -0.1412529029352E+00
-0.1494542079214E+00 -0.2710583685339E+00 -0.1976409104327E+00 -0.1533349043430E+00
-0.1446222762344E+00 -0.2768178894532E+00 -0.1980768773707E+00 -0.1611233876992E+00
-0.1399659376370E+00 -0.2821979606204E+00 -0.1984170316777E+00 -0.1653281764944E+00
-0.1352971665561E+00 -0.2868666652517E+00 -0.1984170004464E+00 -0.1666330341272E+00
-0.1303945368222E+00 -0.2905092271150E+00 -0.1978247685487E+00 -0.1656340181994E+00
-0.1249478639692E+00 -0.2929235299605E+00 -0.1963995546488E+00 -0.1628221303903E+00
-0.1184452729360E+00 -0.2939592727997E+00 -0.1938301360041E+00 -0.1585105501111E+00
-0.1103679055374E+00 -0.2933393271994E+00 -0.1897423989051E+00 -0.1526839460833E+00
-0.1016531948898E+00 -0.2920243336728E+00 -0.1850284379551E+00 -0.1447801034607E+00
-0.9558013663885E-01 -0.2930030388655E+00 -0.1826340920238E+00 -0.1342019148816E+00
-0.9331753235323E-01 -0.2941760801667E+00 -0.1821219974224E+00 -0.1230082675836E+00
-0.1113000893050E+00 -0.2075002289996E+00 -0.1498361492231E+00  0.2315796736450E+00
-0.1336368396344E+00 -0.1942499404264E+00 -0.1541067862377E+00  0.1422238201180E+00
-0.1464256753713E+00 -0.1869992819440E+00 -0.1567097295407E+00  0.7160792773564E-01
-0.1520771357001E+00 -0.1838051645189E+00 -0.1578646807026E+00  0.1484958276370E-01
-0.1526556567055E+00 -0.1824862649148E+00 -0.1575167027620E+00 -0.3094498986553E-01
-0.1504378018952E+00 -0.1817250295731E+00 -0.1561165303941E+00 -0.6738095322284E-01
-0.1480233630868E+00 -0.1824251621550E+00 -0.1553108064697E+00 -0.9565607055531E-01
-0.1457437441021E+00 -0.1853064575398E+00 -0.1555935943770E+00 -0.1173339467666E+00
-0.1433395073452E+00 -0.1898612225926E+00 -0.1566043426736E+00 -0.1335664840383E+00
-0.1408335024709E+00 -0.1952973046212E+00 -0.1579814789326E+00 -0.1451583026694E+00
-0.1382478725419E+00 -0.2010296286358E+00 -0.1594604251491E+00 -0.1528468785324E+00
-0.1355047642719E+00 -0.2066868197556E+00 -0.1608300440850E+00 -0.1573517647085E+00
-0.1323488101202E+00 -0.2119063476446E+00 -0.1617999237391E+00 -0.1593337102270E+00
-0.1285414020199E+00 -0.2163684415279E+00 -0.1621076260563E+00 -0.1593126996030E+00
-0.1238324082546E+00 -0.2198887897895E+00 -0.1615489626710E+00 -0.1576508304729E+00
-0.1179492000829E+00 -0.2223061085315E+00 -0.1599199946432E+00 -0.1545043839679E+00
-0.1106524265993E+00 -0.2229963997213E+00 -0.1568149479729E+00 -0.1497627643683E+00
-0.1038474495468E+00 -0.2234030454307E+00 -0.1538077322493E+00 -0.1432414640432E+00
-0.9791451216448E-01 -0.2250296304065E+00 -0.1517837466234E+00 -0.1355621179485E+00
-0.9228217456778E-01 -0.2287597325113E+00 -0.1508896959445E+00 -0.1283437973397E+00
-0.6743792833212E-01 -0.1505930896141E+00 -0.1024745781748E+00  0.2295217719816E+00
-0.9945021910734E-01 -0.1325899989882E+00 -0.1090589022283E+00  0.1409280437541E+00
-0.1186221563805E+00 -0.1223567782785E+00 -0.1132600990024E+00  0.7184238434413E-01
-0.1286470054513E+00 -0.1170543988996E+00 -0.1154796597520E+00  0.1680685468297E-01
-0.1324021789233E+00 -0.1138609824568E+00 -0.1157436855551E+00 -0.2729091664702E-01
-0.1327486358526E+00 -0.1111975924164E+00 -0.1146547269956E+00 -0.6207017734294E-01
-0.1328414756158E+00 -0.1103806191721E+00 -0.1143143842603E+00 -0.8879960023671E-01
-0.1330741921948E+00 -0.1124202678474E+00 -0.1153823959272E+00 -0.1092641686064E+00
-0.1330931287820E+00 -0.1167564184968E+00 -0.1174292869232E+00 -0.1247054571282E+00
-0.1328293587244E+00 -0.1224510602957E+00 -0.1199817966351E+00 -0.1359259524127E+00
-0.1322124112688E+00 -0.1288071768831E+00 -0.1226792061202E+00 -0.1436558557982E+00
-0.1310927667258E+00 -0.1353859667354E+00 -0.1252450044091E+00 -0.1486025392590E+00
-0.1291871540974E+00 -0.1417703400001E+00 -0.1273500219028E+00 -0.1513825627738E+00
-0.1262846456404E+00 -0.1475860000163E+00 -0.1287192031322E+00 -0.1524388972252E+00
-0.1222272651603E+00 -0.1525927357038E+00 -0.1291654000785E+00 -0.1520562016804E+00
-0.1168670234035E+00 -0.1564989528394E+00 -0.1284820085082E+00 -0.1503583679262E+00
-0.1102880146244E+00 -0.1585971187214E+00 -0.1263760123520E+00 -0.1473306599914E+00
-0.1035076385237E+00 -0.1600707152174E+00 -0.1238818259441E+00 -0.1432719582904E+00
-0.9594553540257E-01 -0.1633955706630E+00 -0.1218903195416E+00 -0.1389854588936E+00
-0.8594255816484E-01 -0.1697542686810E+00 -0.1201775083127E+00 -0.1350746429096E+00
-0.2413925133277E-01 -0.9246389875456E-01 -0.5480348040204E-01  0.2261398326082E+00
-0.6678072177814E-01 -0.6964914181996E-01 -0.6412203572847E-01  0.1393918654718E+00
-0.9254537885264E-01 -0.5670604229383E-01 -0.7014816776092E-01  0.7259323408649E-01
-0.1068700671803E+00 -0.4976303405197E-01 -0.7361755739246E-01  0.1974632427162E-01
-0.1136143912992E+00 -0.4525220146045E-01 -0.7466729840766E-01 -0.2239318767354E-01
-0.1163208767473E+00 -0.4131074430180E-01 -0.7408686170518E-01 -0.5537697037456E-01
-0.1187138475106E+00 -0.3964050829090E-01 -0.7442654703795E-01 -0.8051041301804E-01
-0.1212465100422E+00 -0.4152244439610E-01 -0.7650140839198E-01 -0.9979079847474E-01
-0.1234651734763E+00 -0.4632308880781E-01 -0.7980048307113E-01 -0.1145259490992E+00
-0.1252030754983E+00 -0.5294816025920E-01 -0.8373108059367E-01 -0.1254937138656E+00
-0.1262966220797E+00 -0.6057569103949E-01 -0.8782998694324E-01 -0.1334019806370E+00
-0.1265387383370E+00 -0.6867816375417E-01 -0.9175194375011E-01 -0.1389360165201E+00
-0.1256415417705E+00 -0.7675613625868E-01 -0.9512690843245E-01 -0.1426659495202E+00
-0.1234321710810E+00 -0.8435179313398E-01 -0.9765846293334E-01 -0.1449764825935E+00
-0.1198035952401E+00 -0.9114340380011E-01 -0.9914508929744E-01 -0.1461211341384E+00
-0.1146797690899E+00 -0.9678340693715E-01 -0.9938769248061E-01 -0.1462472496832E+00
-0.1080962489096E+00 -0.1004866243183E+00 -0.9803395016843E-01 -0.1454418888712E+00
-0.1002725835585E+00 -0.1036207534393E+00 -0.9582986814594E-01 -0.1442312353320E+00
-0.8985656785422E-01 -0.1090651068934E+00 -0.9349318689426E-01 -0.1432137562497E+00
-0.7576256877539E-01 -0.1183455030450E+00 -0.9123079352418E-01 -0.1420326519373E+00
 0.1849037104181E-01 -0.3294673426416E-01 -0.6794490697273E-02  0.2213765950753E+00
-0.3579352462066E-01 -0.5314108861827E-02 -0.1932058768777E-01  0.1377471488164E+00
-0.6827147619010E-01  0.9942663599874E-02 -0.2741454184787E-01  0.7406241530233E-01
-0.8670435991593E-01  0.1795995301366E-01 -0.3230987116212E-01  0.2388322869664E-01
-0.9616668427214E-01  0.2314316136766E-01 -0.3432105567805E-01 -0.1605086886302E-01
-0.1009677659213E+00  0.2767312279766E-01 -0.3444848218074E-01 -0.4712398096068E-01
-0.1054208094995E+00  0.2947447884149E-01 -0.3569477531873E-01 -0.7063627929462E-01
-0.1100277167694E+00  0.2702374550615E-01 -0.3901186639476E-01 -0.8878221951044E-01
-0.1142262461538E+00  0.2104852250336E-01 -0.4379353000463E-01 -0.1029102142750E+00
-0.1177366131472E+00  0.1281606246091E-01 -0.4931265869750E-01 -0.1137541029809E+00
-0.1202961567257E+00  0.3291880955895E-02 -0.5499200947233E-01 -0.1219911752508E+00
-0.1216477207555E+00 -0.6886327836550E-02 -0.6041100268506E-01 -0.1282815917043E+00
-0.1215102380144E+00 -0.1712325823408E-01 -0.6515774307151E-01 -0.1331500525297E+00
-0.1197383523110E+00 -0.2687819348653E-01 -0.6890977635006E-01 -0.1369324210769E+00
-0.1162445347708E+00 -0.3578373192697E-01 -0.7145328516674E-01 -0.1398621581013E+00
-0.1109266349411E+00 -0.4348613762290E-01 -0.7257400292099E-01 -0.1420976020888E+00
-0.1037287083936E+00 -0.4928584820737E-01 -0.7191684142005E-01 -0.1437310325146E+00
-0.9406350148549E-01 -0.5462781360456E-01 -0.6988491791507E-01 -0.1453406766694E+00
-0.8040282222700E-01 -0.6265551405874E-01 -0.6723741788376E-01 -0.1472021545900E+00
-0.6251979453208E-01 -0.7482530868336E-01 -0.6455219834753E-01 -0.1482638662646E+00
 0.6032927219308E-01  0.2813079792068E-01  0.4157623284801E-01  0.2151638445316E+00
-0.6667603113251E-02  0.6051653065176E-01  0.2530899587891E-01  0.1361526504075E+00
-0.4586243502319E-01  0.7757352093577E-01  0.1490421034111E-01  0.7647692537272E-01
-0.6809163015312E-01  0.8599143394082E-01  0.8412907758882E-02  0.2944324802433E-01
-0.7991216765837E-01  0.9111993621682E-01  0.5267651209109E-02 -0.8066290602821E-02
-0.8649045298616E-01  0.9548160242038E-01  0.4225840223364E-02 -0.3714685208671E-01
-0.9273757773811E-01  0.9664048609242E-01  0.1834366921876E-02 -0.5904438555681E-01
-0.9919077587829E-01  0.9285798492913E-01 -0.2976411738557E-02 -0.7613161492790E-01
-0.1051599820453E+00  0.8498084251128E-01 -0.9484195556935E-02 -0.8977182120943E-01
-0.1102261743723E+00  0.7447032188083E-01 -0.1680525062839E-01 -0.1006405669441E+00
-0.1140160690018E+00  0.6245572441646E-01 -0.2423336189364E-01 -0.1093805435176E+00
-0.1162276181127E+00  0.4969930410791E-01 -0.3126830750293E-01 -0.1166226039877E+00
-0.1165941220061E+00  0.3688850751225E-01 -0.3746163871711E-01 -0.1228380500323E+00
-0.1149899074645E+00  0.2461963949174E-01 -0.4247402583946E-01 -0.1283037681123E+00
-0.1113172397909E+00  0.1326256779499E-01 -0.4608569572118E-01 -0.1332132679708E+00
-0.1054228683933E+00  0.3108797000290E-02 -0.4808761343273E-01 -0.1376865556575E+00
-0.9713290485858E-01 -0.5268484659671E-02 -0.4812865295151E-01 -0.1417290165080E+00
-0.8524154769509E-01 -0.1333280937565E-01 -0.4632994770574E-01 -0.1458679016142E+00
-0.6833635686754E-01 -0.2425055230356E-01 -0.4351584720004E-01 -0.1500968917807E+00
-0.4702793587898E-01 -0.3921774587715E-01 -0.4053547032257E-01 -0.1529308178003E+00
 0.1012360994391E+00  0.9095004694177E-01  0.9032748856992E-01  0.2074237934592E+00
 0.2040719254857E-01  0.1279378056087E+00  0.6972214895709E-01  0.1347940331043E+00
-0.2536958488774E-01  0.1461548339963E+00  0.5676906693704E-01  0.8008564347331E-01
-0.5095181561776E-01  0.1541940597111E+00  0.4852385460081E-01  0.3665901162386E-01
-0.6468398465382E-01  0.1584613686569E+00  0.4407537036967E-01  0.1751862070724E-02
-0.7267610860190E-01  0.1618359729564E+00  0.4190513614031E-01 -0.2529645497934E-01
-0.8043537324094E-01  0.1615306532888E+00  0.3811478152583E-01 -0.4562349227170E-01
-0.8851435667339E-01  0.1556209553703E+00  0.3154010130755E-01 -0.6175899866797E-01
-0.9606222602788E-01  0.1451026709680E+00  0.2304900906338E-01 -0.7505757646773E-01
-0.1024816758602E+00  0.1316576409876E+00  0.1371270357513E-01 -0.8612754467624E-01
-0.1072750729961E+00  0.1165989166655E+00  0.4382206513520E-02 -0.9557310620112E-01
-0.1101040522541E+00  0.1008186420898E+00 -0.4364142766188E-02 -0.1039833786071E+00
-0.1107286518058E+00  0.8507631921397E-01 -0.1205659628757E-01 -0.1117540605713E+00
-0.1090407618487E+00  0.6998405425101E-01 -0.1835665252436E-01 -0.1190754642800E+00
-0.1049256073612E+00  0.5586518471881E-01 -0.2305839858346E-01 -0.1260638674990E+00
-0.9817536667765E-01  0.4291116170723E-01 -0.2597417627022E-01 -0.1327477501675E+00
-0.8852818209617E-01  0.3154530256978E-01 -0.2678195330948E-01 -0.1389776211698E+00
-0.7435333730797E-01  0.2036725934257E-01 -0.2537345657938E-01 -0.1451883086878E+00
-0.5450496588439E-01  0.6361724143744E-02 -0.2262732356071E-01 -0.1511930682313E+00
-0.3021371672660E-01 -0.1126619181548E-01 -0.1949555696533E-01 -0.1553000258334E+00
 0.1410483337557E+00  0.1557043709130E+00  0.1394737708405E+00  0.1980699739002E+00
 0.4522849686623E-01  0.1970354980965E+00  0.1138640773437E+00  0.1338855713154E+00
-0.6831400206274E-02  0.2156360456774E+00  0.9813818312249E-01  0.8515690008965E-01
-0.3518219510826E-01  0.2224138232226E+00  0.8799886499052E-01  0.4576597601244E-01
-0.5029397350840E-01  0.2249414470297E+00  0.8208431234682E-01  0.1358523641112E-01
-0.5929810797451E-01  0.2264532537771E+00  0.7856291832795E-01 -0.1144062333923E-01
-0.6828156668951E-01  0.2238147506915E+00  0.7310059629552E-01 -0.3028446868622E-01
-0.7778382752822E-01  0.2149489032436E+00  0.6446758542271E-01 -0.4561150257912E-01
-0.8674239514389E-01  0.2010407431670E+00  0.5372022343459E-01 -0.5874817734164E-01
-0.9432969378547E-01  0.1840280590137E+00  0.4215823155034E-01 -0.7023094942956E-01
-0.9991233187479E-01  0.1654272388634E+00  0.3079200620656E-01 -0.8061668990984E-01
-0.1031334298195E+00  0.1462542990980E+00  0.2026680850951E-01 -0.9042687366062E-01
-0.1038000757652E+00  0.1273050297273E+00  0.1104732833417E-01 -0.9994479600137E-01
-0.1018298130093E+00  0.1091561823354E+00  0.3443393574534E-02 -0.1092358722145E+00
-0.9709752704266E-01  0.9203965034763E-01 -0.2377202040633E-02 -0.1182989748358E+00
-0.8935999037932E-01  0.7602146528233E-01 -0.6269106779682E-02 -0.1270286786918E+00
-0.7830775099797E-01  0.6137597174491E-01 -0.7957936228756E-02 -0.1350837399965E+00
-0.6207819500185E-01  0.4682827169494E-01 -0.7167463936067E-02 -0.1428026455483E+00
-0.3983140800242E-01  0.2965301064169E-01 -0.4783846747409E-02 -0.1499382697934E+00
-0.1313567166525E-01  0.9536299445157E-02 -0.1691704939154E-02 -0.1547835467831E+00
 0.1795792690994E+00  0.2225996435225E+00  0.1890240884529E+00  0.1870086376540E+00
 0.6758065395034E-01  0.2678818865859E+00  0.1576673936521E+00  0.1336724808998E+00
 0.9727771882751E-02  0.2859434776370E+00  0.1389654869218E+00  0.9197571053381E-01
-0.2065612394850E-01  0.2904806416884E+00  0.1268175230161E+00  0.5699769315821E-01
-0.3653210717007E-01  0.2903293412082E+00  0.1192846996954E+00  0.2760275140026E-01
-0.4611547195251E-01  0.2890498845036E+00  0.1141791736094E+00  0.4535766287821E-02
-0.5603993166165E-01  0.2831565085725E+00  0.1067447908773E+00 -0.1295880755694E-01
-0.6679294678268E-01  0.2704643970259E+00  0.9572558137151E-01 -0.2766259818632E-01
-0.7702645429131E-01  0.2524091263000E+00  0.8242985563502E-01 -0.4085992392872E-01
-0.8561750289265E-01  0.2312345894637E+00  0.6844003051481E-01 -0.5301224678411E-01
-0.9179341532021E-01  0.2086773769964E+00  0.5493546184849E-01 -0.6460873160977E-01
-0.9521056975207E-01  0.1858531094514E+00  0.4260199355063E-01 -0.7605965344217E-01
-0.9575313237349E-01  0.1635362810045E+00  0.3185807977575E-01 -0.8748721397764E-01
-0.9338000097231E-01  0.1422049382420E+00  0.2294772045856E-01 -0.9879197846271E-01
-0.8797280539053E-01  0.1219561648126E+00  0.1597217888786E-01 -0.1098238609662E+00
-0.7928018291262E-01  0.1027193889577E+00  0.1101642681325E-01 -0.1203211702507E+00
-0.6698592474678E-01  0.8463683548220E-01  0.8295928024607E-02 -0.1297434412751E+00
-0.4917180915362E-01  0.6661011455723E-01  0.8196003518909E-02 -0.1383516986193E+00
-0.2528272949365E-01  0.4630801804226E-01  0.9881885592783E-02 -0.1459561612604E+00
 0.3076397782285E-02  0.2392792218449E-01  0.1269203035219E-01 -0.1509921559444E+00
 0.2166144131256E+00  0.2918534355050E+00  0.2389798882502E+00  0.1741410591244E+00
 0.8723359116548E-01  0.3405282192917E+00  0.2010480504049E+00  0.1344334914229E+00
 0.2429842952743E-01  0.3569750164049E+00  0.1791985191337E+00  0.1008397706724E+00
-0.7222541857401E-02  0.3582113397205E+00  0.1649647345772E+00  0.7058000069335E-01
-0.2316540152990E-01  0.3543984268678E+00  0.1556795215140E+00  0.4395844032198E-01
-0.3287117284807E-01  0.3493469159413E+00  0.1487435988765E+00  0.2273356550295E-01
-0.4347018814865E-01  0.3392070936922E+00  0.1389963452529E+00  0.6405371173235E-02
-0.5534650919443E-01  0.3217603846973E+00  0.1252145211687E+00 -0.7911510498952E-02
-0.6676121053127E-01  0.2987955141898E+00  0.1090561224429E+00 -0.2145011860025E-01
-0.7621725030848E-01  0.2729334130667E+00  0.9245659626184E-01 -0.3458834549720E-01
-0.8281420912338E-01  0.2461344757764E+00  0.7676052513225E-01 -0.4770637491919E-01
-0.8627252562550E-01  0.2195543666264E+00  0.6264246511153E-01 -0.6103916068909E-01
-0.8659225220981E-01  0.1938558961788E+00  0.5041391253754E-01 -0.7449374585830E-01
-0.8379322515341E-01  0.1693405448963E+00  0.4020724017717E-01 -0.8777572709893E-01
-0.7778375702088E-01  0.1459330341815E+00  0.3203016018425E-01 -0.1005739724068E+00
-0.6833165056571E-01  0.1234323046986E+00  0.2589730737677E-01 -0.1124734521785E+00
-0.5514782189788E-01  0.1018857670044E+00  0.2196683414434E-01 -0.1227534854430E+00
-0.3641420918979E-01  0.8041881719115E-01  0.2068216570818E-01 -0.1316302270738E+00
-0.1180724037521E-01  0.5717226959341E-01  0.2132156367847E-01 -0.1390744817849E+00
 0.1731748198141E-01  0.3283525722540E-01  0.2357178736741E-01 -0.1437834352896E+00
 0.2519076890527E+00  0.3636929509608E+00  0.2893323000725E+00  0.1593676492721E+00
 0.1039410023198E+00  0.4149922164196E+00  0.2438986121889E+00  0.1364834986844E+00
 0.3688475107556E-01  0.4285921583386E+00  0.2187741468698E+00  0.1120530044182E+00
 0.5293665386865E-02  0.4254171435129E+00  0.2024340796695E+00  0.8672334686831E-01
-0.9935072991011E-02  0.4169432614075E+00  0.1912938480706E+00  0.6279120131255E-01
-0.1928737513202E-01  0.4070770888616E+00  0.1822611649906E+00  0.4324700845486E-01
-0.3032663768566E-01  0.3915897617696E+00  0.1697936678888E+00  0.2785029122224E-01
-0.4326504876393E-01  0.3683723138066E+00  0.1528004141825E+00  0.1361486431682E-01
-0.5582073782156E-01  0.3397440294890E+00  0.1334439467452E+00 -0.6298245112521E-03
-0.6602977572265E-01  0.3087932446411E+00  0.1140988301023E+00 -0.1514916608750E-01
-0.7290281744742E-01  0.2776640121202E+00  0.9623776125210E-01 -0.3013962386359E-01
-0.7629983610647E-01  0.2474266639873E+00  0.8042960890000E-01 -0.4557752565837E-01
-0.7638082528018E-01  0.2184974505541E+00  0.6679481370932E-01 -0.6110865695386E-01
-0.7324240775027E-01  0.1909155003935E+00  0.5530635340203E-01 -0.7623853898707E-01
-0.6683470427192E-01  0.1644136232393E+00  0.4586209179835E-01 -0.9051202052570E-01
-0.5696583909805E-01  0.1386929506476E+00  0.3841174233086E-01 -0.1033907437569E+00
-0.4339995910330E-01  0.1137674870353E+00  0.3307273804416E-01 -0.1140150683727E+00
-0.2454993585344E-01  0.8903954278108E-01  0.3031011517911E-01 -0.1225959052263E+00
-0.2554895629593E-03  0.6318015008503E-01  0.2957459037036E-01 -0.1293432623412E+00
 0.2862452299227E-01  0.3730453999861E-01  0.3098665952712E-01 -0.1332907308146E+00
 0.2851791692667E+00  0.4383525438397E+00  0.3400599042975E+00  0.1425956401464E+00
 0.1174366888534E+00  0.4912362856078E+00  0.2860762972712E+00  0.1401764117761E+00
 0.4749902995330E-01  0.5006063255725E+00  0.2576095164437E+00  0.1259145049444E+00
 0.1709006710910E-01  0.4919199200209E+00  0.2392346933443E+00  0.1056117131567E+00
 0.3451818889898E-02  0.4778122749547E+00  0.2261941235333E+00  0.8422859625992E-01
-0.5054775716525E-02  0.4619921231210E+00  0.2147605527354E+00  0.6617998463786E-01
-0.1635688549975E-01  0.4398644968479E+00  0.1990485768288E+00  0.5141843903167E-01
-0.3039553560121E-01  0.4097294590368E+00  0.1782869435625E+00  0.3685247719186E-01
-0.4411588102509E-01  0.3747394444531E+00  0.1553930744171E+00  0.2141018471127E-01
-0.5498712698010E-01  0.3385264011875E+00  0.1332634585395E+00  0.5016095822204E-02
-0.6201901404133E-01  0.3032670025206E+00  0.1133865542977E+00 -0.1222242011355E-01
-0.6531759018301E-01  0.2697121408388E+00  0.9606543856458E-01 -0.2993422708130E-01
-0.6524092417963E-01  0.2378561884586E+00  0.8112917400536E-01 -0.4749034171872E-01
-0.6196300896012E-01  0.2074074936040E+00  0.6835890760923E-01 -0.6423366147223E-01
-0.5547921903293E-01  0.1779274423263E+00  0.5755066480190E-01 -0.7961617427829E-01
-0.4565147514846E-01  0.1490870022283E+00  0.4861469760420E-01 -0.9302908197564E-01
-0.3231783003544E-01  0.1209500320884E+00  0.4165713485922E-01 -0.1035309357445E+00
-0.1422515770351E-01  0.9326034446425E-01  0.3714653768333E-01 -0.1113670743409E+00
 0.8701038556297E-02  0.6526553035734E-01  0.3476428730123E-01 -0.1170317799948E+00
 0.3629360324109E-01  0.3840527447682E-01  0.3510847243837E-01 -0.1199200785846E+00
 0.3161208511372E+00  0.5160752070904E+00  0.3911321463749E+00  0.1237541729206E+00
 0.1274273384464E+00  0.5691275008850E+00  0.3273807736554E+00  0.1459093121558E+00
 0.5614403760583E-01  0.5727498727870E+00  0.2955801371349E+00  0.1426982713388E+00
 0.2838575566966E-01  0.5575896052821E+00  0.2754084189488E+00  0.1273848914211E+00
 0.1734453286572E-01  0.5369715855474E+00  0.2605285749934E+00  0.1083998018818E+00
 0.1018968600112E-01  0.5138637349642E+00  0.2463051072290E+00  0.9167811426250E-01
-0.1309165654948E-02  0.4834443841476E+00  0.2266035521168E+00  0.7716268255379E-01
-0.1663429287356E-01  0.4450781204991E+00  0.2013685984732E+00  0.6167158997683E-01
-0.3160716111201E-01  0.4032113102262E+00  0.1746539496407E+00  0.4435188149880E-01
-0.4304871634203E-01  0.3619680052460E+00  0.1498920654047E+00  0.2548711253011E-01
-0.5015255111339E-01  0.3231636904294E+00  0.1283152351531E+00  0.5649840024305E-02
-0.5339960588439E-01  0.2868665624152E+00  0.1097294692912E+00 -0.1438769143497E-01
-0.5335565221131E-01  0.2524786263846E+00  0.9358779762410E-01 -0.3377691658613E-01
-0.5024317994783E-01  0.2193776107048E+00  0.7949318225417E-01 -0.5179039684659E-01
-0.4409342178547E-01  0.1870372008673E+00  0.6718357599805E-01 -0.6786574104665E-01
-0.3483335063150E-01  0.1551968958075E+00  0.5657086608925E-01 -0.8138680241732E-01
-0.2239341236192E-01  0.1240620878692E+00  0.4778427736724E-01 -0.9139551459352E-01
-0.5931001195538E-02  0.9379443954024E-01  0.4129581591727E-01 -0.9820386309383E-01
 0.1463556615356E-01  0.6426388709601E-01  0.3708274293324E-01 -0.1025959345532E+00
 0.3997201914797E-01  0.3711415410744E-01  0.3623050133815E-01 -0.1043050165819E+00
 0.3444400996757E+00  0.5971426950742E+00  0.4425439124100E+00  0.1028271389298E+00
 0.1335704981748E+00  0.6483490820288E+00  0.3675022017636E+00  0.1541322364076E+00
 0.6276903663705E-01  0.6446127867426E+00  0.3324694561452E+00  0.1626127060634E+00
 0.3942136451293E-01  0.6224288114691E+00  0.3110695819226E+00  0.1521065484906E+00
 0.3221959533112E-01  0.5946481207160E+00  0.2946278257949E+00  0.1354718089830E+00
 0.2688708324380E-01  0.5624326005312E+00  0.2769802506717E+00  0.1199895230002E+00
 0.1503676310032E-01  0.5214167644021E+00  0.2521331572866E+00  0.1051436369930E+00
-0.1980141198837E-02  0.4733751956702E+00  0.2215556750396E+00  0.8780480972686E-01
-0.1830206630822E-01  0.4246252842284E+00  0.1909719119381E+00  0.6767379381269E-01
-0.3018979563473E-01  0.3792294383628E+00  0.1640486316661E+00  0.4569193865031E-01
-0.3732426878671E-01  0.3378921365971E+00  0.1412668975126E+00  0.2303660269638E-01
-0.4068073666775E-01  0.2995642774766E+00  0.1216752638716E+00  0.8227009679825E-03
-0.4097383566989E-01  0.2630079470777E+00  0.1043560320970E+00 -0.2004005703443E-01
-0.3840791390582E-01  0.2274040247079E+00  0.8882817185167E-01 -0.3889086085169E-01
-0.3304325341829E-01  0.1922817368139E+00  0.7484208700609E-01 -0.5523277055256E-01
-0.2489036061721E-01  0.1575534497716E+00  0.6235165174443E-01 -0.6849687760091E-01
-0.1399045663881E-01  0.1236401910910E+00  0.5153537506180E-01 -0.7777674161627E-01
 0.3448620014007E-04  0.9121144328417E-01  0.4288558674885E-01 -0.8346968677886E-01
 0.1739781800339E-01  0.6082010638104E-01  0.3676242436744E-01 -0.8661398964825E-01
 0.3970037550433E-01  0.3419899153653E-01  0.3473270242111E-01 -0.8721799295232E-01
 0.3700211176170E+00  0.6820049254342E+00  0.4944522389799E+00  0.7993014859290E-01
 0.1354420168281E+00  0.7282134294761E+00  0.4059180587334E+00  0.1653833486036E+00
 0.6708788996652E-01  0.7154152522198E+00  0.3677764758948E+00  0.1857040367365E+00
 0.5056251172843E-01  0.6868901099847E+00  0.3466027313260E+00  0.1797030621956E+00
 0.4880870420311E-01  0.6515632307456E+00  0.3291748085910E+00  0.1657502178981E+00
 0.4560382175695E-01  0.6072339464529E+00  0.3068337502804E+00  0.1515736708193E+00
 0.3269109042036E-01  0.5520977727736E+00  0.2748507650040E+00  0.1353654876148E+00
 0.1345075585994E-01  0.4933215598852E+00  0.2381829877961E+00  0.1146883828316E+00
-0.4236104666425E-02  0.4387348285884E+00  0.2042143997254E+00  0.9056624813912E-01
-0.1637826817459E-01  0.3909315556050E+00  0.1760400446458E+00  0.6493771577231E-01
-0.2360219194501E-01  0.3483627915414E+00  0.1526374814231E+00  0.3954687619715E-01
-0.2738340416952E-01  0.3086156269726E+00  0.1321791443822E+00  0.1557996316507E-01
-0.2840677646436E-01  0.2700807132479E+00  0.1135867500002E+00 -0.6246460634527E-02
-0.2679084271548E-01  0.2320080425195E+00  0.9645208366325E-01 -0.2546515338778E-01
-0.2264540798939E-01  0.1941350135707E+00  0.8060011441879E-01 -0.4168587806111E-01
-0.1610100804648E-01  0.1566059678915E+00  0.6603733095965E-01 -0.5441966111520E-01
-0.7315261375249E-02  0.1200961851616E+00  0.5300703404516E-01 -0.6288725780801E-01
 0.3571853186532E-02  0.8588211647032E-01  0.4204336563208E-01 -0.6757363087257E-01
 0.1710179258427E-01  0.5531735139724E-01  0.3403699758498E-01 -0.6969803525990E-01
 0.3588913457088E-01  0.3012720001082E-01  0.3102767717470E-01 -0.6945135627388E-01
 0.3939007505861E+00  0.7721525796742E+00  0.5480450638323E+00  0.5558208266571E-01
 0.1320051746076E+00  0.8066474544760E+00  0.4411667345504E+00  0.1803938919284E+00
 0.6844097727971E-01  0.7838263759281E+00  0.4005656549917E+00  0.2115921933211E+00
 0.6232052828444E-01  0.7524366781162E+00  0.3829358860370E+00  0.2098424400790E+00
 0.6891895487690E-01  0.7098841337419E+00  0.3660374507224E+00  0.1999879794982E+00
 0.6632797193511E-01  0.6461805477552E+00  0.3348790034051E+00  0.1872324641246E+00
 0.5147052304799E-01  0.5728518457036E+00  0.2934315125690E+00  0.1674966410785E+00
 0.2937141477369E-01  0.5036299992317E+00  0.2505106639471E+00  0.1412280400731E+00
 0.1061925742505E-01  0.4461074762359E+00  0.2146615642762E+00  0.1119040711314E+00
-0.1554215168503E-02  0.3984336644960E+00  0.1865333407108E+00  0.8255905462556E-01
-0.9171504205824E-02  0.3557225123754E+00  0.1628789734266E+00  0.5499911742662E-01
-0.1383807883175E-01  0.3147776393823E+00  0.1414415931000E+00  0.2996032564402E-01
-0.1599958572533E-01  0.2742110115414E+00  0.1213593698258E+00  0.7740996003659E-02
-0.1568724294311E-01  0.2336126585332E+00  0.1024249450675E+00 -0.1141495988254E-01
-0.1313950011596E-01  0.1929877414321E+00  0.8452867320417E-01 -0.2720431240409E-01
-0.8615736438588E-02  0.1527309759946E+00  0.6773416241955E-01 -0.3923192950106E-01
-0.2417953770912E-02  0.1137006168485E+00  0.5230285151381E-01 -0.4694117207953E-01
 0.4754841506850E-02  0.7794413508582E-01  0.3886851889997E-01 -0.5089689256521E-01
 0.1405922926639E-01  0.4781475234432E-01  0.2908077128327E-01 -0.5239459208502E-01
 0.2925275331937E-01  0.2503026741492E-01  0.2551301968040E-01 -0.5169752005968E-01
 0.4202453334760E+00  0.8719412538201E+00  0.6073276944888E+00  0.3139029648087E-01
 0.1223694855949E+00  0.8793972974408E+00  0.4708303868326E+00  0.2007127827888E+00
 0.6097808838651E-01  0.8428623467263E+00  0.4248050034255E+00  0.2382985690281E+00
 0.8163846157832E-01  0.8302186995470E+00  0.4285728646419E+00  0.2419381794640E+00
 0.9200614815205E-01  0.7684287100029E+00  0.4044043823071E+00  0.2403838668880E+00
 0.8922556058851E-01  0.6754415966156E+00  0.3593935629744E+00  0.2277776814304E+00
 0.7048014721444E-01  0.5797131873025E+00  0.3055908664479E+00  0.2003743229239E+00
 0.4548553842958E-01  0.5040214849609E+00  0.2582683003385E+00  0.1655380124897E+00
 0.2661169414603E-01  0.4489912799318E+00  0.2235333972496E+00  0.1304402050407E+00
 0.1421125209248E-01  0.4036152545390E+00  0.1963784576187E+00  0.9825076026930E-01
 0.5571866809881E-02  0.3609440271452E+00  0.1722624697220E+00  0.6956816459144E-01
-0.4520143764162E-03  0.3185482097688E+00  0.1495052114552E+00  0.4421646389619E-01
-0.4041668007982E-02  0.2757716644387E+00  0.1277130979985E+00  0.2210774512136E-01
-0.5341018713110E-02  0.2325095287455E+00  0.1067691994444E+00  0.3346940471963E-02
-0.4657249864903E-02  0.1891842561049E+00  0.8672769271283E-01 -0.1179539787402E-01
-0.2474720971174E-02  0.1462512853588E+00  0.6757498509077E-01 -0.2300906284963E-01
 0.8286390608849E-03  0.1046549055236E+00  0.4957726582896E-01 -0.3008925666404E-01
 0.3721123804874E-02  0.6720507379508E-01  0.3333531278743E-01 -0.3369337466151E-01
 0.8711830985228E-02  0.3800064703469E-01  0.2195486461368E-01 -0.3509251815278E-01
 0.2071483939092E-01  0.1867707588312E-01  0.1851420013184E-01 -0.3445781725866E-01
 0.5168923172614E+00  0.1044587017233E+01  0.7338952853510E+00  0.2154666648354E-01
 0.4552092834235E-01  0.8645467795822E+00  0.4277318216396E+00  0.2277567739995E+00
 0.7846004180289E-01  0.9366563434754E+00  0.4771046998707E+00  0.2571379726833E+00
 0.1015270213952E+00  0.9182940133132E+00  0.4793158850972E+00  0.2794371491181E+00
 0.1217608527952E+00  0.8276184632309E+00  0.4462082774005E+00  0.2902096018235E+00
 0.1121929338572E+00  0.6859816039844E+00  0.3751420318341E+00  0.2735305245403E+00
 0.8768787335622E-01  0.5679477064897E+00  0.3081487217460E+00  0.2310239370333E+00
 0.6282465425541E-01  0.4984475832771E+00  0.2637979509712E+00  0.1849733297787E+00
 0.4406123419093E-01  0.4510473842637E+00  0.2327010500835E+00  0.1455455383151E+00
 0.3045585657562E-01  0.4079457408222E+00  0.2060487502544E+00  0.1124285022000E+00
 0.1999540457514E-01  0.3643125058122E+00  0.1806247174239E+00  0.8373591737467E-01
 0.1243030562505E-01  0.3201833247653E+00  0.1563284058869E+00  0.5862006447071E-01
 0.7365032728469E-02  0.2751655090050E+00  0.1327893542779E+00  0.3702233536931E-01
 0.4092350832627E-02  0.2288530752096E+00  0.1094843499622E+00  0.1891543813945E-01
 0.2450325442076E-02  0.1826412938659E+00  0.8699306085410E-01  0.4437116051777E-02
 0.2808902062320E-02  0.1381451153863E+00  0.6624838803280E-01 -0.5861809394934E-02
 0.2568377114826E-02  0.9306458767546E-01  0.4494749333743E-01 -0.1220347687687E-01
 0.3876027930370E-03  0.5264280299123E-01  0.2492429065539E-01 -0.1593230596771E-01
 0.1721251408085E-02  0.2514930486813E-01  0.1262916141779E-01 -0.1804110826536E-01
 0.1154954084053E-01  0.1080430735752E-01  0.1050630862643E-01 -0.1807336925499E-01
 0.4127367057583E+00 -0.2445075593955E+01 -0.9551992750295E+00 -0.2843051117971E+00
 0.4106950715720E+00 -0.2441765433221E+01 -0.9546030675540E+00 -0.2940368632747E+00
 0.4023876219408E+00 -0.2424104942411E+01 -0.9502071382111E+00 -0.3056129598142E+00
 0.3863121042048E+00 -0.2394759381495E+01 -0.9439702179320E+00 -0.3191478574364E+00
 0.3625731214645E+00 -0.2353947132443E+01 -0.9359457827858E+00 -0.3342898217343E+00
 0.3315569651781E+00 -0.2301593349568E+01 -0.9259170983147E+00 -0.3505119326323E+00
 0.2939217805162E+00 -0.2237551449411E+01 -0.9135059420637E+00 -0.3671592763089E+00
 0.2505331150121E+00 -0.2161657148905E+01 -0.8982282936512E+00 -0.3834566066162E+00
 0.2024516539871E+00 -0.2073707384824E+01 -0.8794901912626E+00 -0.3985064770628E+00
 0.1509324160914E+00 -0.1973427374116E+01 -0.8565726280990E+00 -0.4112796671818E+00
 0.9743957580525E-01 -0.1860433687538E+01 -0.8286072304127E+00 -0.4205957300580E+00
 0.4368200388422E-01 -0.1734198462643E+01 -0.7945427336012E+00 -0.4250909347295E+00
-0.8319594065338E-02 -0.1594018958428E+01 -0.7530991177618E+00 -0.4231713099187E+00
-0.5611803125991E-01 -0.1438998886721E+01 -0.7027049496689E+00 -0.4129492038715E+00
-0.9665321811923E-01 -0.1268050792651E+01 -0.6414108834353E+00 -0.3921623129685E+00
-0.1259495549589E+00 -0.1079929604256E+01 -0.5667632033933E+00 -0.3580724324251E+00
-0.1385988225377E+00 -0.8733112214154E+00 -0.4755977194517E+00 -0.3073335783463E+00
-0.1267272828117E+00 -0.6469211601220E+00 -0.3636147672566E+00 -0.2357973564821E+00
-0.7768260578301E-01 -0.3999541489589E+00 -0.2244892741593E+00 -0.1382533603493E+00
 0.3495044665054E-01 -0.1339824389858E+00 -0.4654503627953E-01 -0.9142727672888E-02
 0.4144331981471E+00 -0.2448521116446E+01 -0.9560213191757E+00 -0.2772810195137E+00
 0.4131294278025E+00 -0.2454285952612E+01 -0.9593435642272E+00 -0.2884397712387E+00
 0.4050383575743E+00 -0.2448389126259E+01 -0.9603748588459E+00 -0.3010186032446E+00
 0.3894807933508E+00 -0.2430954838237E+01 -0.9594927986628E+00 -0.3154962651404E+00
 0.3660818126226E+00 -0.2402605115720E+01 -0.9571659500281E+00 -0.3317661513467E+00
 0.3350840958924E+00 -0.2363416610581E+01 -0.9533162794857E+00 -0.3493424050153E+00
 0.2969863401189E+00 -0.2313312858603E+01 -0.9476734612841E+00 -0.3675517314415E+00
 0.2525066859882E+00 -0.2252152070258E+01 -0.9398333282232E+00 -0.3855877265124E+00
 0.2025575302022E+00 -0.2179754967840E+01 -0.9292827933326E+00 -0.4025274487455E+00
 0.1482441335172E+00 -0.2095889151457E+01 -0.9153931561099E+00 -0.4173300803158E+00
 0.9087602227827E-01 -0.2000238020005E+01 -0.8974001366555E+00 -0.4288230596916E+00
 0.3199873848668E-01 -0.1892361468785E+01 -0.8743704810225E+00 -0.4356741693636E+00
-0.2654237417763E-01 -0.1771652947440E+01 -0.8451517990166E+00 -0.4363464121640E+00
-0.8248836788181E-01 -0.1637296668880E+01 -0.8082989652279E+00 -0.4290320072910E+00
-0.1329769941924E+00 -0.1488228938216E+01 -0.7619667862994E+00 -0.4115609407074E+00
-0.1742398869486E+00 -0.1323106846882E+01 -0.7037529631153E+00 -0.3812746866858E+00
-0.2011024664949E+00 -0.1140262051447E+01 -0.6304413218338E+00 -0.3348319760875E+00
-0.2060778195235E+00 -0.9375756339852E+00 -0.5375171217857E+00 -0.2678309474061E+00
-0.1770018339630E+00 -0.7118035800995E+00 -0.4177385435498E+00 -0.1738396184882E+00
-0.8465268978997E-01 -0.4526999358670E+00 -0.2525557334182E+00 -0.4023227042040E-01
 0.4148529033414E+00 -0.2449227000475E+01 -0.9561558232276E+00 -0.2682472579731E+00
 0.4142125372700E+00 -0.2462527965226E+01 -0.9627082486976E+00 -0.2798345474750E+00
 0.4068800777282E+00 -0.2466424159085E+01 -0.9679857157825E+00 -0.2930631810236E+00
 0.3919855490559E+00 -0.2460312124864E+01 -0.9721134881641E+00 -0.3081904847917E+00
 0.3691893147649E+00 -0.2444148127721E+01 -0.9752306396156E+00 -0.3251710584864E+00
 0.3385004473601E+00 -0.2417990633584E+01 -0.9773603850462E+00 -0.3436072766320E+00
 0.3002351072582E+00 -0.2381777587373E+01 -0.9783249631727E+00 -0.3628550032414E+00
 0.2549200669266E+00 -0.2335392145341E+01 -0.9778218743746E+00 -0.3821045193181E+00
 0.2032688819917E+00 -0.2278688106673E+01 -0.9754470331261E+00 -0.4004165115672E+00
 0.1461713504274E+00 -0.2211492951872E+01 -0.9707011502169E+00 -0.4167332792160E+00
 0.8469644509840E-01 -0.2133590069242E+01 -0.9629800009050E+00 -0.4298723526008E+00
 0.2011038671664E-01 -0.2044689184318E+01 -0.9515520324593E+00 -0.4385028815035E+00
-0.4607947455800E-01 -0.1944389509990E+01 -0.9355204203646E+00 -0.4411011976768E+00
-0.1120384652835E+00 -0.1832139560138E+01 -0.9137636696304E+00 -0.4358801080685E+00
-0.1754545465394E+00 -0.1707198659692E+01 -0.8848470046843E+00 -0.4206852889991E+00
-0.2332998724200E+00 -0.1568604860398E+01 -0.8468952222766E+00 -0.3928490465658E+00
-0.2815040153078E+00 -0.1415161177107E+01 -0.7974326384124E+00 -0.3489774867460E+00
-0.3145286867161E+00 -0.1245378551511E+01 -0.7331564001070E+00 -0.2845687485289E+00
-0.3249870353403E+00 -0.1057299975497E+01 -0.6496748934456E+00 -0.1930494598432E+00
-0.3061792821289E+00 -0.8486869646183E+00 -0.5427871345945E+00 -0.6210432514171E-01
 0.4142692267157E+00 -0.2446372689015E+01 -0.9550886248583E+00 -0.2575851527536E+00
 0.4142955589446E+00 -0.2466228718756E+01 -0.9644085826653E+00 -0.2688040201499E+00
 0.4077593787528E+00 -0.2478650503897E+01 -0.9733188263490E+00 -0.2820881948602E+00
 0.3937476312946E+00 -0.2482702128597E+01 -0.9818086112420E+00 -0.2974340230561E+00
 0.3717830542188E+00 -0.2477976187827E+01 -0.9899107702851E+00 -0.3147275485903E+00
 0.3417245641656E+00 -0.2464280790878E+01 -0.9976014240244E+00 -0.3336067760512E+00
 0.3036790572787E+00 -0.2441478067667E+01 -0.1004765532334E+01 -0.3534732910955E+00
 0.2579591020510E+00 -0.2409421835648E+01 -0.1011187482226E+01 -0.3735417406576E+00
 0.2050461215119E+00 -0.2367964549610E+01 -0.1016571658627E+01 -0.3928793093911E+00
 0.1455730008678E+00 -0.2316959591537E+01 -0.1020551695026E+01 -0.4104254726530E+00
 0.8031341953459E-01 -0.2256252987201E+01 -0.1022691594209E+01 -0.4249937796923E+00
 0.1017920178419E-01 -0.2185663219714E+01 -0.1022477485833E+01 -0.4352544995700E+00
-0.6376848895807E-01 -0.2104951914618E+01 -0.1019298587096E+01 -0.4396936110353E+00
-0.1402820247904E+00 -0.2013788482768E+01 -0.1012413135985E+01 -0.4365408959363E+00
-0.2178468185664E+00 -0.1911712978836E+01 -0.1000893102240E+01 -0.4236584498595E+00
-0.2945445545955E+00 -0.1798107578348E+01 -0.9835464999888E+00 -0.3983818475023E+00
-0.3678750343843E+00 -0.1672192933958E+01 -0.9588319426890E+00 -0.3573101423948E+00
-0.4347758837203E+00 -0.1533151208825E+01 -0.9249257311506E+00 -0.2960446932948E+00
-0.4924869289466E+00 -0.1380412743499E+01 -0.8802628438169E+00 -0.2087806126256E+00
-0.5464783045001E+00 -0.1217137511171E+01 -0.8288994312631E+00 -0.8831127091588E-01
 0.4126930061268E+00 -0.2439505383104E+01 -0.9526018147629E+00 -0.2455597466432E+00
 0.4134781098102E+00 -0.2464993144458E+01 -0.9642120638391E+00 -0.2557829223258E+00
 0.4078599142249E+00 -0.2484719546747E+01 -0.9761240248097E+00 -0.2685149739229E+00
 0.3949318764893E+00 -0.2497673148370E+01 -0.9882883952772E+00 -0.2835552465995E+00
 0.3741204620630E+00 -0.2503233107355E+01 -0.1000682940749E+01 -0.3007046887800E+00
 0.3451246074357E+00 -0.2501011925093E+01 -0.1013267036729E+01 -0.3196051180609E+00
 0.3078625405760E+00 -0.2490732866064E+01 -0.1025949050377E+01 -0.3397015202644E+00
 0.2624295769388E+00 -0.2472170751603E+01 -0.1038578349458E+01 -0.3602559366021E+00
 0.2090700313681E+00 -0.2445130929636E+01 -0.1050948619520E+01 -0.3803738252069E+00
 0.1481528800631E+00 -0.2409447000384E+01 -0.1062808233855E+01 -0.3990249770946E+00
 0.8015002787092E-01 -0.2364976393678E+01 -0.1073868389205E+01 -0.4150521571515E+00
 0.5613735181656E-02 -0.2311588454330E+01 -0.1083808115251E+01 -0.4271633368069E+00
-0.7484519700148E-01 -0.2249143473989E+01 -0.1092274672595E+01 -0.4339016091623E+00
-0.1605723097657E+00 -0.2177463473933E+01 -0.1098876815551E+01 -0.4335841726150E+00
-0.2508652441102E+00 -0.2096297054105E+01 -0.1103166277363E+01 -0.4241995877737E+00
-0.3449310667209E+00 -0.2005281928761E+01 -0.1104600105075E+01 -0.4032539695519E+00
-0.4418005762065E+00 -0.1903920950001E+01 -0.1102489114521E+01 -0.3675710036835E+00
-0.5402514181095E+00 -0.1791590260001E+01 -0.1095965585932E+01 -0.3131078120641E+00
-0.6395280606220E+00 -0.1667919590424E+01 -0.1084500393241E+01 -0.2350397824704E+00
-0.7385857824181E+00 -0.1531104221392E+01 -0.1066754299085E+01 -0.1288861178134E+00
 0.4100326633874E+00 -0.2428432911256E+01 -0.9486481140920E+00 -0.2324097823124E+00
 0.4117734944134E+00 -0.2458591592861E+01 -0.9620045038304E+00 -0.2411735382774E+00
 0.4072801692878E+00 -0.2484381950640E+01 -0.9762378347595E+00 -0.2528159405187E+00
 0.3957169538031E+00 -0.2504839384436E+01 -0.9912875398834E+00 -0.2670241295688E+00
 0.3764524346836E+00 -0.2519263386121E+01 -0.1007121144621E+01 -0.2835411230358E+00
 0.3490597166108E+00 -0.2527139244451E+01 -0.1023697375488E+01 -0.3020139711126E+00
 0.3132882216021E+00 -0.2528069629415E+01 -0.1040947259032E+01 -0.3219349438341E+00
 0.2690369164987E+00 -0.2521729305380E+01 -0.1058765420089E+01 -0.3426315118384E+00
 0.2163299730811E+00 -0.2507844992565E+01 -0.1077012056426E+01 -0.3632773793720E+00
 0.1552933472795E+00 -0.2486189238109E+01 -0.1095521065911E+01 -0.3829085623595E+00
 0.8612732585187E-01 -0.2456578898039E+01 -0.1114112236102E+01 -0.4004356187526E+00
 0.9071693331261E-02 -0.2418870473921E+01 -0.1132605424005E+01 -0.4146459527850E+00
-0.7563934442114E-01 -0.2372948862364E+01 -0.1150836454270E+01 -0.4241897734340E+00
-0.1678325279503E+00 -0.2318708027082E+01 -0.1168674057901E+01 -0.4275409016463E+00
-0.2674556063043E+00 -0.2256023057466E+01 -0.1186034968964E+01 -0.4229203864236E+00
-0.3746236074560E+00 -0.2184712483917E+01 -0.1202887959894E+01 -0.4081686898852E+00
-0.4895997291336E+00 -0.2104482139174E+01 -0.1219218475012E+01 -0.3805591752134E+00
-0.6125921323702E+00 -0.2014821957831E+01 -0.1234884619262E+01 -0.3365863962004E+00
-0.7429843390430E+00 -0.1914663367755E+01 -0.1249094419027E+01 -0.2719719873573E+00
-0.8784281539439E+00 -0.1802265633433E+01 -0.1259926076872E+01 -0.1822291538673E+00
 0.4062294907525E+00 -0.2413025837850E+01 -0.9431942807434E+00 -0.2183327835918E+00
 0.4090782425338E+00 -0.2446986557788E+01 -0.9578169057401E+00 -0.2253357738447E+00
 0.4058988277523E+00 -0.2477709787807E+01 -0.9737511487560E+00 -0.2354688593367E+00
 0.3959478353604E+00 -0.2504354706572E+01 -0.9909512269562E+00 -0.2483855764304E+00
 0.3785794462504E+00 -0.2526226998983E+01 -0.1009394347224E+01 -0.2638113296492E+00
 0.3532795040845E+00 -0.2542756876975E+01 -0.1029054362648E+01 -0.2814154445032E+00
 0.3196639838230E+00 -0.2553466168821E+01 -0.1049887024286E+01 -0.3007484139294E+00
 0.2774666003022E+00 -0.2557942804708E+01 -0.1071823813352E+01 -0.3212189647649E+00
 0.2265234114374E+00 -0.2555826683500E+01 -0.1094772535093E+01 -0.3420930593150E+00
 0.1667537319920E+00 -0.2546805314183E+01 -0.1118624240792E+01 -0.3625031902245E+00
 0.9813438339029E-01 -0.2530614123072E+01 -0.1143265474751E+01 -0.3814604554776E+00
 0.2066259418319E-01 -0.2507036786676E+01 -0.1168595867508E+01 -0.3978638962527E+00
-0.6569760784683E-01 -0.2475901875791E+01 -0.1194551754280E+01 -0.4105016111833E+00
-0.1610908669732E+00 -0.2437073523686E+01 -0.1221137260513E+01 -0.4180364039148E+00
-0.2658711698333E+00 -0.2390434590208E+01 -0.1248463704053E+01 -0.4189650722514E+00
-0.3807225015212E+00 -0.2335860707827E+01 -0.1276794105155E+01 -0.4115347035887E+00
-0.5067582214695E+00 -0.2273175738564E+01 -0.1306568957902E+01 -0.3935909687156E+00
-0.6454555653983E+00 -0.2202060842608E+01 -0.1338332708368E+01 -0.3623298875946E+00
-0.7977664541647E+00 -0.2121687037441E+01 -0.1372143137575E+01 -0.3139212937696E+00
-0.9626640913566E+00 -0.2030770328093E+01 -0.1406914173573E+01 -0.2434321833674E+00
 0.4012367589912E+00 -0.2393204353365E+01 -0.9362247669812E+00 -0.2034916987535E+00
 0.4052925376758E+00 -0.2430142338650E+01 -0.9516794040440E+00 -0.2085580334037E+00
 0.4035722923065E+00 -0.2464758172185E+01 -0.9687573610859E+00 -0.2168739535830E+00
 0.3954340902120E+00 -0.2496363091333E+01 -0.9874366280222E+00 -0.2281184677930E+00
 0.3802495329954E+00 -0.2524324893531E+01 -0.1007715416896E+01 -0.2420373949442E+00
 0.3574568386844E+00 -0.2548075994363E+01 -0.1029591000558E+01 -0.2583431944656E+00
 0.3265776154453E+00 -0.2567104661285E+01 -0.1053047708874E+01 -0.2766577173713E+00
 0.2872184589954E+00 -0.2580943889051E+01 -0.1078050949392E+01 -0.2964845563121E+00
 0.2390654003122E+00 -0.2589164216390E+01 -0.1104546440755E+01 -0.3172004396965E+00
 0.1818728343047E+00 -0.2591371378900E+01 -0.1132464313087E+01 -0.3380582406272E+00
 0.1154448884088E+00 -0.2587207271891E+01 -0.1161728317290E+01 -0.3581964713739E+00
 0.3960518754626E-01 -0.2576351574638E+01 -0.1192270798909E+01 -0.3766514325618E+00
-0.4585092223509E-01 -0.2558521491447E+01 -0.1224055031326E+01 -0.3923684610433E+00
-0.1412296452764E+00 -0.2533467522883E+01 -0.1257107665846E+01 -0.4042078050038E+00
-0.2470481144955E+00 -0.2500964216145E+01 -0.1291565792125E+01 -0.4109380311207E+00
-0.3641916867686E+00 -0.2460795908305E+01 -0.1327744166317E+01 -0.4112039415222E+00
-0.4941317116016E+00 -0.2412744571821E+01 -0.1366231849743E+01 -0.4034427612024E+00
-0.6391610372412E+00 -0.2356574809744E+01 -0.1407995844512E+01 -0.3856878076437E+00
-0.8026503287005E+00 -0.2292165237945E+01 -0.1454563312634E+01 -0.3551130411181E+00
-0.9864763670010E+00 -0.2218203799644E+01 -0.1506199674503E+01 -0.3070188199000E+00
 0.3950262733529E+00 -0.2368933852871E+01 -0.9277365600203E+00 -0.1880316661294E+00
 0.4003222101019E+00 -0.2408054374774E+01 -0.9436341150024E+00 -0.1910755364371E+00
 0.4001441965676E+00 -0.2445594527478E+01 -0.9613616530897E+00 -0.1973620517003E+00
 0.3939516135927E+00 -0.2481019565182E+01 -0.9809219347590E+00 -0.2066336828078E+00
 0.3811558656927E+00 -0.2513788003083E+01 -0.1002337102031E+01 -0.2186850422997E+00
 0.3611811617396E+00 -0.2543374779658E+01 -0.1025630997820E+01 -0.2332887309687E+00
 0.3334926967137E+00 -0.2569276099859E+01 -0.1050818196813E+01 -0.2501479379687E+00
 0.2976086397830E+00 -0.2591007933560E+01 -0.1077897665341E+01 -0.2688694136099E+00
 0.2531038452024E+00 -0.2608103904462E+01 -0.1106850025045E+01 -0.2889512608687E+00
 0.1996077831562E+00 -0.2620114575688E+01 -0.1137638189605E+01 -0.3097814081659E+00
 0.1367960045413E+00 -0.2626607905594E+01 -0.1170211590527E+01 -0.3306438201187E+00
 0.6437226651086E-01 -0.2627169519163E+01 -0.1204514705692E+01 -0.3507303400968E+00
-0.1796351916646E-01 -0.2621400929925E+01 -0.1240501287927E+01 -0.3691564981132E+00
-0.1105690222212E+00 -0.2608913878848E+01 -0.1278156960261E+01 -0.3849795730916E+00
-0.2139466618980E+00 -0.2589319370834E+01 -0.1317535032042E+01 -0.3972163410111E+00
-0.3288852571583E+00 -0.2562212655810E+01 -0.1358816015649E+01 -0.4048552912448E+00
-0.4566920134446E+00 -0.2527159073820E+01 -0.1402410007457E+01 -0.4068506207522E+00
-0.5996223162536E+00 -0.2483729616543E+01 -0.1449175404739E+01 -0.4020635102399E+00
-0.7616086743910E+00 -0.2431601432477E+01 -0.1500808746421E+01 -0.3890531039184E+00
-0.9505234553304E+00 -0.2371775119994E+01 -0.1561480326442E+01 -0.3652271587800E+00
 0.3875915734888E+00 -0.2340210075036E+01 -0.9177306933997E+00 -0.1720851870875E+00
 0.3940812270018E+00 -0.2380745046913E+01 -0.9337319929898E+00 -0.1730774775599E+00
 0.3954460311134E+00 -0.2420308205281E+01 -0.9516852194450E+00 -0.1771961744742E+00
 0.3912391000221E+00 -0.2458505602029E+01 -0.9716152534787E+00 -0.1842680619948E+00
 0.3809239525346E+00 -0.2494896074025E+01 -0.9935668945804E+00 -0.1941535999228E+00
 0.3639362661611E+00 -0.2529020348444E+01 -0.1017589516092E+01 -0.2066955346841E+00
 0.3397171730543E+00 -0.2560412635265E+01 -0.1043726864592E+01 -0.2216825707213E+00
 0.3077314997164E+00 -0.2588604834077E+01 -0.1072010464431E+01 -0.2388258071766E+00
 0.2674784022281E+00 -0.2613128065393E+01 -0.1102455338891E+01 -0.2577457601866E+00
 0.2184972797069E+00 -0.2633513609256E+01 -0.1135057672009E+01 -0.2779681787484E+00
 0.1603692955459E+00 -0.2649293536896E+01 -0.1169794390468E+01 -0.2989273844033E+00
 0.9271310641131E-01 -0.2660000170624E+01 -0.1206624917120E+01 -0.3199763738483E+00
 0.1517189242137E-01 -0.2665162762553E+01 -0.1245495705803E+01 -0.3404033949072E+00
-0.7261305529813E-01 -0.2664299218668E+01 -0.1286348765501E+01 -0.3594551820175E+00
-0.1710502874190E+00 -0.2656900413120E+01 -0.1329136825882E+01 -0.3763675791359E+00
-0.2806819649004E+00 -0.2642404076740E+01 -0.1373850436086E+01 -0.3904049448516E+00
-0.4023371023412E+00 -0.2620159368049E+01 -0.1420573337480E+01 -0.4009105610509E+00
-0.5374174821856E+00 -0.2589377912094E+01 -0.1469593831584E+01 -0.4073724849279E+00
-0.6885925969253E+00 -0.2549169240132E+01 -0.1521748059557E+01 -0.4095081085005E+00
-0.8618550629340E+00 -0.2498934896607E+01 -0.1579571276978E+01 -0.4074295984700E+00
 0.3789404282280E+00 -0.2307060711531E+01 -0.9062165308539E+00 -0.1557793050064E+00
 0.3864956668804E+00 -0.2348264055424E+01 -0.9220311402768E+00 -0.1547154481867E+00
 0.3893163544293E+00 -0.2389003897992E+01 -0.9398531430906E+00 -0.1565756376490E+00
 0.3870343273842E+00 -0.2429006505603E+01 -0.9597269213286E+00 -0.1612794932695E+00
 0.3791679769114E+00 -0.2467928984622E+01 -0.9817176711341E+00 -0.1687605280806E+00
 0.3651809967469E+00 -0.2505387427128E+01 -0.1005897019728E+01 -0.1789349025194E+00
 0.3445148416480E+00 -0.2540971436869E+01 -0.1032334597136E+01 -0.1916755644666E+00
 0.3166092989299E+00 -0.2574251265973E+01 -0.1061091721819E+01 -0.2067930739781E+00
 0.2809170801088E+00 -0.2604781829522E+01 -0.1092216429454E+01 -0.2240232595852E+00
 0.2369153619993E+00 -0.2632105523185E+01 -0.1125739372902E+01 -0.2430214891863E+00
 0.1841152857258E+00 -0.2655754408074E+01 -0.1161670384557E+01 -0.2633634451661E+00
 0.1220692402229E+00 -0.2675251338995E+01 -0.1199995583379E+01 -0.2845525732337E+00
 0.5037493483258E-01 -0.2690108844023E+01 -0.1240674934173E+01 -0.3060347739980E+00
-0.3132545763614E-01 -0.2699823872777E+01 -0.1283640182038E+01 -0.3272215146312E+00
-0.1233535879101E+00 -0.2703865580552E+01 -0.1328793005807E+01 -0.3475236026799E+00
-0.2260150705512E+00 -0.2701652233537E+01 -0.1376003629431E+01 -0.3663999135257E+00
-0.3396367073740E+00 -0.2692508460813E+01 -0.1425108225433E+01 -0.3834298520184E+00
-0.4646380089334E+00 -0.2675592862802E+01 -0.1475908505972E+01 -0.3984288913145E+00
-0.6016313646592E+00 -0.2649732781329E+01 -0.1528141144738E+01 -0.4116617338874E+00
-0.7513377250435E+00 -0.2612875598731E+01 -0.1581180258164E+01 -0.4243464012228E+00
 0.3691040645545E+00 -0.2269509899956E+01 -0.8931907403734E+00 -0.1392344282054E+00
 0.3775209880310E+00 -0.2310645969869E+01 -0.9085687391593E+00 -0.1361071182275E+00
 0.3816267470837E+00 -0.2351755401570E+01 -0.9259604652601E+00 -0.1356442562185E+00
 0.3811056836426E+00 -0.2392666241160E+01 -0.9454334596350E+00 -0.1378553200732E+00
 0.3755276540705E+00 -0.2433126202570E+01 -0.9670713153418E+00 -0.1427465805147E+00
 0.3643923089296E+00 -0.2472829353999E+01 -0.9909654086690E+00 -0.1503061840500E+00
 0.3471571107489E+00 -0.2511430214627E+01 -0.1017208356243E+01 -0.1604869557510E+00
 0.3232568473015E+00 -0.2548551788614E+01 -0.1045888619764E+01 -0.1731913357754E+00
 0.2921192888855E+00 -0.2583790750724E+01 -0.1077085584332E+01 -0.1882599704532E+00
 0.2531795173879E+00 -0.2616721621078E+01 -0.1110864785917E+01 -0.2054646685902E+00
 0.2058942954056E+00 -0.2646900703330E+01 -0.1147273008815E+01 -0.2245062731715E+00
 0.1497571037546E+00 -0.2673869819070E+01 -0.1186332973189E+01 -0.2450181011775E+00
 0.8431412824317E-01 -0.2697159270259E+01 -0.1228037213633E+01 -0.2665758409624E+00
 0.9181580999977E-02 -0.2716288874562E+01 -0.1272340424747E+01 -0.2887152009057E+00
-0.7593460259660E-01 -0.2730765263157E+01 -0.1319148933558E+01 -0.3109593517914E+00
-0.1712134646062E+00 -0.2740072157235E+01 -0.1368304238795E+01 -0.3328596839117E+00
-0.2766808047901E+00 -0.2743648398497E+01 -0.1419554721944E+01 -0.3540562497489E+00
-0.3921308705712E+00 -0.2740836440458E+01 -0.1472494632449E+01 -0.3743702348739E+00
-0.5169297578641E+00 -0.2730763320732E+01 -0.1526415743068E+01 -0.3939521873337E+00
-0.6493348744611E+00 -0.2711977968181E+01 -0.1579817032035E+01 -0.4135044046619E+00
 0.3581090420735E+00 -0.2227612201392E+01 -0.8786664826511E+00 -0.1225953137358E+00
 0.3671537666090E+00 -0.2267926962966E+01 -0.8933634000220E+00 -0.1173862200036E+00
 0.3723239056842E+00 -0.2308596932018E+01 -0.9100483200685E+00 -0.1145505926368E+00
 0.3733403031084E+00 -0.2349530829229E+01 -0.9288095449210E+00 -0.1141739401354E+00
 0.3698189530332E+00 -0.2390557999856E+01 -0.9497473495979E+00 -0.1163291593400E+00
 0.3612991635972E+00 -0.2431449297983E+01 -0.9729705606936E+00 -0.1210714466103E+00
 0.3472645351408E+00 -0.2471929036761E+01 -0.9985923132286E+00 -0.1284274504125E+00
 0.3271591777921E+00 -0.2511682187945E+01 -0.1026725812168E+01 -0.1383835331322E+00
 0.3004019318966E+00 -0.2550359406057E+01 -0.1057480010173E+01 -0.1508751747091E+00
 0.2664006833785E+00 -0.2587581445505E+01 -0.1090954955432E+01 -0.1657785859871E+00
 0.2245682153131E+00 -0.2622943886152E+01 -0.1127236562435E+01 -0.1829053272225E+00
 0.1743406124695E+00 -0.2656022572036E+01 -0.1166390518038E+01 -0.2020007074122E+00
 0.1151990752402E+00 -0.2686379760601E+01 -0.1208454919054E+01 -0.2227468041372E+00
 0.4669624793559E-01 -0.2713570632584E+01 -0.1253430957605E+01 -0.2447710273363E+00
-0.3151080959428E-01 -0.2737149421993E+01 -0.1301270305546E+01 -0.2676612662676E+00
-0.1196168212469E+00 -0.2756674189861E+01 -0.1351856771792E+01 -0.2909888546398E+00
-0.2176044322939E+00 -0.2771708238707E+01 -0.1404976951807E+01 -0.3143407884477E+00
-0.3251438725325E+00 -0.2781817491267E+01 -0.1460271837282E+01 -0.3373615566785E+00
-0.4414158573023E+00 -0.2786559800956E+01 -0.1517148555533E+01 -0.3597966590775E+00
-0.5649435560652E+00 -0.2785594619537E+01 -0.1574752938539E+01 -0.3814943322832E+00
 0.3459711632597E+00 -0.2181459975282E+01 -0.8626797394626E+00 -0.1060387259466E+00
 0.3554050844376E+00 -0.2220183124333E+01 -0.8764456765279E+00 -0.9872827732812E-01
 0.3613964691197E+00 -0.2259584001267E+01 -0.8921481378465E+00 -0.9348472584517E-01
 0.3636997312008E+00 -0.2299633881577E+01 -0.9098890483690E+00 -0.9045101495188E-01
 0.3619748789184E+00 -0.2340233468855E+01 -0.9297815349119E+00 -0.8975619337946E-01
 0.3558039921905E+00 -0.2381226359866E+01 -0.9519485103931E+00 -0.9151456162552E-01
 0.3447050263406E+00 -0.2422407644365E+01 -0.9765202279947E+00 -0.9581893232784E-01
 0.3281434121309E+00 -0.2463529226126E+01 -0.1003631330032E+01 -0.1027314698828E+00
 0.3055429778171E+00 -0.2504303580277E+01 -0.1033417480535E+01 -0.1122738605679E+00
 0.2762978061254E+00 -0.2544407250366E+01 -0.1066011436089E+01 -0.1244178183034E+00
 0.2397864105485E+00 -0.2583485022344E+01 -0.1101538344750E+01 -0.1390766698670E+00
 0.1953893589036E+00 -0.2621155424074E+01 -0.1140110047738E+01 -0.1560987060679E+00
 0.1425112854453E+00 -0.2657017967060E+01 -0.1181818137362E+01 -0.1752629655744E+00
 0.8060823429796E-01 -0.2690662354819E+01 -0.1226725433533E+01 -0.1962780099224E+00
 0.9221612328183E-02 -0.2721679792039E+01 -0.1274855341231E+01 -0.2187839332293E+00
-0.7197890311566E-01 -0.2749676492382E+01 -0.1326178032520E+01 -0.2423572067830E+00
-0.1631403631158E+00 -0.2774290667575E+01 -0.1380592580923E+01 -0.2665167922575E+00
-0.2641563957251E+00 -0.2795216425927E+01 -0.1437905222529E+01 -0.2907275992945E+00
-0.3746020220812E+00 -0.2812256241537E+01 -0.1497823380101E+01 -0.3143917121635E+00
-0.4936890176272E+00 -0.2825398216461E+01 -0.1559970996065E+01 -0.3368162903945E+00
 0.3327060570748E+00 -0.2131172246984E+01 -0.8452791071132E+00 -0.8975852848957E-01
 0.3422893249564E+00 -0.2167532916417E+01 -0.8578644858108E+00 -0.8033947446011E-01
 0.3488464614570E+00 -0.2204822091530E+01 -0.8723085439216E+00 -0.7267307821854E-01
 0.3521686201760E+00 -0.2243060739776E+01 -0.8887192939578E+00 -0.6694200540732E-01
 0.3519613477290E+00 -0.2282210457678E+01 -0.9072170793748E+00 -0.6331885336519E-01
 0.3478537138141E+00 -0.2322181275598E+01 -0.9279339516846E+00 -0.6196680556016E-01
 0.3394061759792E+00 -0.2362836792081E+01 -0.9510123871556E+00 -0.6303553694678E-01
 0.3261172239372E+00 -0.2403997148418E+01 -0.9766035620291E+00 -0.6665420359757E-01
 0.3074298437020E+00 -0.2445440841813E+01 -0.1004865166563E+01 -0.7292261678136E-01
 0.2827390832904E+00 -0.2486906380250E+01 -0.1035958626944E+01 -0.8190128411916E-01
 0.2514019942715E+00 -0.2528094651903E+01 -0.1070045546373E+01 -0.9360082607301E-01
 0.2127510856739E+00 -0.2568672761683E+01 -0.1107283184916E+01 -0.1079712475313E+00
 0.1661121871013E+00 -0.2608279992477E+01 -0.1147818865615E+01 -0.1248915570671E+00
 0.1108272643274E+00 -0.2646536480112E+01 -0.1191783328396E+01 -0.1441601551413E+00
 0.4628233495072E-01 -0.2683055118894E+01 -0.1239283205310E+01 -0.1654860935228E+00
-0.2805986700423E-01 -0.2717457313570E+01 -0.1290393071597E+01 -0.1884805569544E+00
-0.1126228317511E+00 -0.2749393055325E+01 -0.1345147463514E+01 -0.2126466536069E+00
-0.2076784519296E+00 -0.2778568328960E+01 -0.1403535983458E+01 -0.2373645120969E+00
-0.3133137678873E+00 -0.2804780129861E+01 -0.1465504128225E+01 -0.2618703939174E+00
-0.4294197990218E+00 -0.2827962624896E+01 -0.1530969735358E+01 -0.2852319983766E+00
 0.3183334431120E+00 -0.2076897156775E+01 -0.8265249433252E+00 -0.7395715043475E-01
 0.3278248315365E+00 -0.2110136904491E+01 -0.8376866721641E+00 -0.6244573591642E-01
 0.3346836840119E+00 -0.2144473289899E+01 -0.8506011126095E+00 -0.5236979490682E-01
 0.3387428743107E+00 -0.2179966575511E+01 -0.8653751373694E+00 -0.4393701907811E-01
 0.3397570202882E+00 -0.2216628886602E+01 -0.8821297749303E+00 -0.3735070835010E-01
 0.3374076095381E+00 -0.2254428577763E+01 -0.9009998527806E+00 -0.3281136875301E-01
 0.3313063926944E+00 -0.2293292684237E+01 -0.9221335546862E+00 -0.3051475859094E-01
 0.3209974380004E+00 -0.2333107666542E+01 -0.9456918050160E+00 -0.3064704384562E-01
 0.3059587162227E+00 -0.2373719081493E+01 -0.9718473692122E+00 -0.3337754194309E-01
 0.2856042911887E+00 -0.2414930905436E+01 -0.1000783506158E+01 -0.3884933594254E-01
 0.2592882706147E+00 -0.2456505238090E+01 -0.1032691972094E+01 -0.4716794031189E-01
 0.2263116592171E+00 -0.2498163107410E+01 -0.1067770177943E+01 -0.5838820925347E-01
 0.1859330811015E+00 -0.2539587111421E+01 -0.1106217391444E+01 -0.7249977734478E-01
 0.1373838860473E+00 -0.2580426655641E+01 -0.1148230098797E+01 -0.8941144969737E-01
 0.7988726946289E-01 -0.2620306557565E+01 -0.1193997062380E+01 -0.1089349880525E+00
 0.1267983047950E-01 -0.2658839597690E+01 -0.1243695087434E+01 -0.1307684677582E+00
-0.6496764154893E-01 -0.2695643436664E+01 -0.1297487203469E+01 -0.1544785999702E+00
-0.1537301222410E+00 -0.2730358521392E+01 -0.1355521659070E+01 -0.1794801586359E+00
-0.2542064684968E+00 -0.2762664586904E+01 -0.1417929392442E+01 -0.2050113941071E+00
-0.3668957352600E+00 -0.2792297425534E+01 -0.1484820781807E+01 -0.2301112756548E+00
 0.3028806147578E+00 -0.2018816500790E+01 -0.8064898643898E+00 -0.5884088342480E-01
 0.3120375278067E+00 -0.2048200675397E+01 -0.8159966772978E+00 -0.4528466281586E-01
 0.3189282733979E+00 -0.2078759696507E+01 -0.8271207667636E+00 -0.3284861151967E-01
 0.3234315474804E+00 -0.2110582947010E+01 -0.8399611556486E+00 -0.2175391566959E-01
 0.3253549942150E+00 -0.2143722095264E+01 -0.8546325353254E+00 -0.1222253652698E-01
 0.3244384296830E+00 -0.2178193958269E+01 -0.8712650962257E+00 -0.4480235812339E-02
 0.3203542082662E+00 -0.2213981305618E+01 -0.8900047334981E+00  0.1243093754654E-02
 0.3127054951328E+00 -0.2251031937644E+01 -0.9110134256696E+00  0.4715730486773E-02
 0.3010232462634E+00 -0.2289256493496E+01 -0.9344696238291E+00  0.5708992770046E-02
 0.2847627640182E+00 -0.2328525488704E+01 -0.9605684781661E+00  0.4004727621655E-02
 0.2633008117081E+00 -0.2368666095610E+01 -0.9895216809241E+00 -0.5944303992950E-03
 0.2359343952739E+00 -0.2409459223784E+01 -0.1021556666809E+01 -0.8251867969307E-02
 0.2018823864914E+00 -0.2450637535765E+01 -0.1056914917478E+01 -0.1908083320880E-01
 0.1602909804421E+00 -0.2491885164986E+01 -0.1095849263956E+01 -0.3312557218915E-01
 0.1102432914331E+00 -0.2532840040010E+01 -0.1138620468943E+01 -0.5034049996864E-01
 0.5077182882900E-01 -0.2573099822185E+01 -0.1185494153870E+01 -0.7056865997427E-01
-0.1912940526587E-01 -0.2612231907177E+01 -0.1236739813711E+01 -0.9352093407498E-01
-0.1005005620089E+00 -0.2649788468656E+01 -0.1292635841134E+01 -0.1187564390024E+00
-0.1944101820956E+00 -0.2685312619189E+01 -0.1353469713171E+01 -0.1456592309883E+00
-0.3019237399643E+00 -0.2718326998261E+01 -0.1419517843365E+01 -0.1734054959801E+00
 0.2863853345116E+00 -0.1957149757869E+01 -0.7852592769864E+00 -0.4461617162384E-01
 0.2949654450769E+00 -0.1981978595519E+01 -0.7928961786967E+00 -0.2909886520737E-01
 0.3016158487217E+00 -0.2007967305257E+01 -0.8019851825375E+00 -0.1439496416542E-01
 0.3062630739420E+00 -0.2035222919614E+01 -0.8126111254049E+00 -0.7303230196267E-03
 0.3087708072003E+00 -0.2063824323282E+01 -0.8248751504661E+00  0.1166518852358E-01
 0.3089425957606E+00 -0.2093824931676E+01 -0.8388946957524E+00  0.2255249656336E-01
 0.3065205290460E+00 -0.2125252840636E+01 -0.8548041842790E+00  0.3168030882099E-01
 0.3011808817438E+00 -0.2158109021180E+01 -0.8727562233213E+00  0.3878436508351E-01
 0.2925273999046E+00 -0.2192363958240E+01 -0.8929231801531E+00  0.4358903695037E-01
 0.2800828420918E+00 -0.2227953001370E+01 -0.9154989725388E+00  0.4581150297044E-01
 0.2632794337145E+00 -0.2264770688190E+01 -0.9407008872176E+00  0.4516889725952E-01
 0.2414491266821E+00 -0.2302664313758E+01 -0.9687711354685E+00  0.4138895011058E-01
 0.2138149205050E+00 -0.2341427093024E+01 -0.9999777185474E+00  0.3422463650535E-01
 0.1794849188300E+00 -0.2380791417356E+01 -0.1034614051683E+01  0.2347310845268E-01
 0.1374509471458E+00 -0.2420423033510E+01 -0.1072996877870E+01  0.8998544281439E-02
 0.8659292242611E-01 -0.2459917438817E+01 -0.1115462519874E+01 -0.9242634526646E-02
 0.2568761901956E-01 -0.2498800537565E+01 -0.1162363068768E+01 -0.3117730679637E-01
-0.4658424850562E-01 -0.2536535696296E+01 -0.1214066370977E+01 -0.5659656072071E-01
-0.1316663302344E+00 -0.2572553077329E+01 -0.1270983118331E+01 -0.8514521031447E-01
-0.2311506680985E+00 -0.2606240480575E+01 -0.1333573836494E+01 -0.1162976836329E+00
 0.2688981529193E+00 -0.1892156921507E+01 -0.7629316193011E+00 -0.3148574116765E-01
 0.2766630805237E+00 -0.1911777503422E+01 -0.7685037768128E+00 -0.1412963762003E-01
 0.2828034872333E+00 -0.1932450298045E+01 -0.7753339991148E+00  0.2702050609145E-02
 0.2872930994730E+00 -0.1954286490544E+01 -0.7834868918163E+00  0.1878533154727E-01
 0.2900527049291E+00 -0.1977378111922E+01 -0.7930429392753E+00  0.3389165407920E-01
 0.2909534432175E+00 -0.2001801134366E+01 -0.8040984128004E+00  0.4777990939258E-01
 0.2898150947932E+00 -0.2027615662264E+01 -0.8167662646396E+00  0.6019041252713E-01
 0.2864004510124E+00 -0.2054864156025E+01 -0.8311779392479E+00  0.7084073998198E-01
 0.2804064390228E+00 -0.2083567853146E+01 -0.8474858624884E+00  0.7942336830821E-01
 0.2714521899518E+00 -0.2113721510055E+01 -0.8658665782521E+00  0.8560530981593E-01
 0.2590642083123E+00 -0.2145286459210E+01 -0.8865244556734E+00  0.8903020656196E-01
 0.2426589746911E+00 -0.2178181915603E+01 -0.9096957799215E+00  0.8932362279913E-01
 0.2215238121836E+00 -0.2212274434308E+01 -0.9356527900253E+00  0.8610253631361E-01
 0.1947977696111E+00 -0.2247365461396E+01 -0.9647068126919E+00  0.7899017389311E-01
 0.1614557181818E+00 -0.2283177090285E+01 -0.9972090423591E+00  0.6763713516791E-01
 0.1203002545064E+00 -0.2319336882110E+01 -0.1033547212352E+01  0.5174873372011E-01
 0.6996622511121E-01 -0.2355364043168E+01 -0.1074136971762E+01  0.3111605703392E-01
 0.8939877286958E-02 -0.2390661201404E+01 -0.1119409019496E+01  0.5644225691049E-02
-0.6441287548242E-01 -0.2424517346275E+01 -0.1169797201259E+01 -0.2463728494714E-01
-0.1520018981301E+00 -0.2456249533322E+01 -0.1225878169673E+01 -0.5960995157644E-01
 0.2504841738829E+00 -0.1824140080581E+01 -0.7396182742723E+00 -0.1964403091252E-01
 0.2572052038388E+00 -0.1837960073956E+01 -0.7429547870705E+00 -0.6103631212425E-03
 0.2625758871937E+00 -0.1852635360137E+01 -0.7473279503878E+00  0.1815802386629E-01
 0.2666131178249E+00 -0.1868266089283E+01 -0.7527768946759E+00  0.3644361061740E-01
 0.2692931261544E+00 -0.1884941980383E+01 -0.7593549595614E+00  0.5402661541146E-01
 0.2705562669109E+00 -0.1902745250797E+01 -0.7671288204807E+00  0.7067383040977E-01
 0.2703056429829E+00 -0.1921751724626E+01 -0.7761796564034E+00  0.8612968304806E-01
 0.2684018671620E+00 -0.1942029826877E+01 -0.7866051390707E+00  0.1001086629832E+00
 0.2646540546954E+00 -0.1963637828684E+01 -0.7985223717492E+00  0.1122887657452E+00
 0.2588068725428E+00 -0.1986619319980E+01 -0.8120718482359E+00  0.1223059038968E+00
 0.2505231686636E+00 -0.2010996736798E+01 -0.8274225749247E+00  0.1297495419566E+00
 0.2393616265897E+00 -0.2036762593548E+01 -0.8447784523277E+00  0.1341601917386E+00
 0.2247490998161E+00 -0.2063867888495E+01 -0.8643858284865E+00  0.1350299172105E+00
 0.2059480949638E+00 -0.2092206916932E+01 -0.8865416440765E+00  0.1318076791700E+00
 0.1820217855827E+00 -0.2121597477147E+01 -0.9116005727231E+00  0.1239121464650E+00
 0.1518029703780E+00 -0.2151755082700E+01 -0.9399774904071E+00  0.1107551683269E+00
 0.1138785382311E+00 -0.2182261089744E+01 -0.9721397967455E+00  0.9177819506397E-01
 0.6660487355428E-01 -0.2212528431509E+01 -0.1008584069680E+01  0.6649966835533E-01
 0.8187674894559E-02 -0.2241760863751E+01 -0.1049779396100E+01  0.3456454390365E-01
-0.6307346850866E-01 -0.2268871318061E+01 -0.1096014046908E+01 -0.4255565783059E-02
 0.2312261370063E+00 -0.1753443119516E+01 -0.7154419799651E+00 -0.9271624079061E-02
 0.2366940697888E+00 -0.1760944798355E+01 -0.7163978406092E+00  0.1124000161074E-01
 0.2410564065880E+00 -0.1769020705280E+01 -0.7181432185639E+00  0.3170091041496E-01
 0.2443647559274E+00 -0.1777746015315E+01 -0.7206891900841E+00  0.5190323318529E-01
 0.2466473194203E+00 -0.1787190972565E+01 -0.7240555151416E+00  0.7164097899010E-01
 0.2479123566811E+00 -0.1797425985613E+01 -0.7282714037507E+00  0.9069653749444E-01
 0.2481486249774E+00 -0.1808523624550E+01 -0.7333762479391E+00  0.1088292913554E+00
 0.2473221363748E+00 -0.1820558972644E+01 -0.7394213111712E+00  0.1257651093749E+00
 0.2453693840222E+00 -0.1833608501158E+01 -0.7464723831603E+00  0.1411860200303E+00
 0.2421865230191E+00 -0.1847747531468E+01 -0.7546136720568E+00  0.1547196043109E+00
 0.2376135416993E+00 -0.1863046089974E+01 -0.7639532957515E+00  0.1659278718003E+00
 0.2314119425117E+00 -0.1879562737182E+01 -0.7746308715305E+00  0.1742956943262E+00
 0.2232339586075E+00 -0.1897335665952E+01 -0.7868278004563E+00  0.1792193914997E+00
 0.2125810399152E+00 -0.1916369942327E+01 -0.8007807821026E+00  0.1799969884276E+00
 0.1987499267028E+00 -0.1936618969251E+01 -0.8167984479259E+00  0.1758233046450E+00
 0.1807674435158E+00 -0.1957956931473E+01 -0.8352790572211E+00  0.1657957649967E+00
 0.1573256950216E+00 -0.1980134966612E+01 -0.8567203554745E+00  0.1489407455792E+00
 0.1267443517931E+00 -0.2002715383333E+01 -0.8817063825873E+00  0.1242720843694E+00
 0.8698319498842E-01 -0.2025000417928E+01 -0.9108680924713E+00  0.9088930020003E-01
 0.3592694545718E-01 -0.2045831518245E+01 -0.9446551468144E+00  0.4815144830192E-01
 0.2112289691064E+00 -0.1680450239128E+01 -0.6905339951585E+00 -0.5328491014144E-03
 0.2152733542850E+00 -0.1681197067830E+01 -0.6889841436185E+00  0.2121610991512E-01
 0.2184231971062E+00 -0.1682166224369E+01 -0.6879592210687E+00  0.4306893231922E-01
 0.2207608596354E+00 -0.1683390364214E+01 -0.6874358654081E+00  0.6482795563448E-01
 0.2223604689213E+00 -0.1684903117628E+01 -0.6873950431486E+00  0.8630297147636E-01
 0.2232940057294E+00 -0.1686744120365E+01 -0.6878215521341E+00  0.1072964862381E+00
 0.2236342779123E+00 -0.1688962130345E+01 -0.6887040888968E+00  0.1275906016697E+00
 0.2234552815621E+00 -0.1691616714465E+01 -0.6900358717141E+00  0.1469344808898E+00
 0.2228299114549E+00 -0.1694779082487E+01 -0.6918161086304E+00  0.1650313884244E+00
 0.2218246457403E+00 -0.1698532274375E+01 -0.6940525836977E+00  0.1815243668638E+00
 0.2204901794370E+00 -0.1702970713663E+01 -0.6967658493188E+00  0.1959796383367E+00
 0.2188461375743E+00 -0.1708198935499E+01 -0.6999958132493E+00  0.2078668535895E+00
 0.2168567528307E+00 -0.1714329080253E+01 -0.7038119921035E+00  0.2165354462160E+00
 0.2143925271463E+00 -0.1721476430009E+01 -0.7083294325488E+00  0.2211867910252E+00
 0.2111702105032E+00 -0.1729751682304E+01 -0.7137332899362E+00  0.2208430932869E+00
 0.2066606332640E+00 -0.1739246987032E+01 -0.7203155844441E+00  0.2143170140651E+00
 0.1999524979312E+00 -0.1750009529565E+01 -0.7285268030202E+00  0.2001932822512E+00
 0.1895891992311E+00 -0.1761972989171E+01 -0.7390203793972E+00  0.1768494019512E+00
 0.1734338613772E+00 -0.1774818650980E+01 -0.7526508492045E+00  0.1425535052493E+00
 0.1483025708657E+00 -0.1788014773070E+01 -0.7706647330812E+00  0.9566877892763E-01
 0.1906129894606E+00 -0.1605580230292E+01 -0.6650346015041E+00  0.6426660029146E-02
 0.1931037785594E+00 -0.1599235295569E+01 -0.6608818113182E+00  0.2912796965022E-01
 0.1948823420141E+00 -0.1592701920444E+01 -0.6569752001956E+00  0.5201264574141E-01
 0.1960549272336E+00 -0.1585955720620E+01 -0.6532533712345E+00  0.7488951115264E-01
 0.1967342531231E+00 -0.1578977369530E+01 -0.6496542630633E+00  0.9758242947357E-01
 0.1970490950820E+00 -0.1571757964963E+01 -0.6461131672055E+00  0.1199143301912E+00
 0.1971509323428E+00 -0.1564302470751E+01 -0.6425612214219E+00  0.1416930219187E+00
 0.1972188664327E+00 -0.1556632244453E+01 -0.6389242860492E+00  0.1626977581938E+00
 0.1974634920915E+00 -0.1548787418542E+01 -0.6351222438208E+00  0.1826653328551E+00
 0.1981299000854E+00 -0.1540829683133E+01 -0.6310688964317E+00  0.2012743491363E+00
 0.1994994557380E+00 -0.1532845826847E+01 -0.6266727928317E+00  0.2181261161844E+00
 0.2018891918715E+00 -0.1524952317509E+01 -0.6218396674724E+00  0.2327202968419E+00
 0.2056462852656E+00 -0.1517301228075E+01 -0.6164778215570E+00  0.2444229106796E+00
 0.2111325298450E+00 -0.1510087958638E+01 -0.6105090499841E+00  0.2524235632365E+00
 0.2186886653344E+00 -0.1503561609993E+01 -0.6038902824577E+00  0.2556779078280E+00
 0.2285582772979E+00 -0.1498039690237E+01 -0.5966562625678E+00  0.2528309355274E+00
 0.2407324916006E+00 -0.1493928987968E+01 -0.5890023517986E+00  0.2421187981899E+00
 0.2546329514947E+00 -0.1491760358386E+01 -0.5814498797643E+00  0.2212602036786E+00
 0.2686685618633E+00 -0.1492103573329E+01 -0.5750144539306E+00  0.1874073046376E+00
 0.2799494637608E+00 -0.1495149957206E+01 -0.5711442304705E+00  0.1372270503404E+00
 0.1695193137633E+00 -0.1529283927544E+01 -0.6390893668561E+00  0.1149113100018E-01
 0.1703751747476E+00 -0.1515623525779E+01 -0.6322667233811E+00  0.3481891031392E-01
 0.1706807663595E+00 -0.1501322351610E+01 -0.6254015434812E+00  0.5831830253774E-01
 0.1705570833597E+00 -0.1486287071602E+01 -0.6183930929053E+00  0.8179694074320E-01
 0.1701465205203E+00 -0.1470432844972E+01 -0.6111345709420E+00  0.1050866643544E+00
 0.1696261829552E+00 -0.1453688592008E+01 -0.6035093307241E+00  0.1280256540349E+00
 0.1692182251002E+00 -0.1435999829321E+01 -0.5953873524736E+00  0.1504433861398E+00
 0.1691994573113E+00 -0.1417330879504E+01 -0.5866217669427E+00  0.1721473222839E+00
 0.1699118709418E+00 -0.1397667697221E+01 -0.5770452368876E+00  0.1929099141059E+00
 0.1717753254802E+00 -0.1377022168488E+01 -0.5664660147771E+00  0.2124543220842E+00
 0.1753033855780E+00 -0.1355438588984E+01 -0.5546635441941E+00  0.2304369871570E+00
 0.1811230907501E+00 -0.1333003083862E+01 -0.5413835953896E+00  0.2464246737900E+00
 0.1899990693622E+00 -0.1309857018963E+01 -0.5263332349772E+00  0.2598626080430E+00
 0.2028613472492E+00 -0.1286216131856E+01 -0.5091767474735E+00  0.2700285086665E+00
 0.2208333422472E+00 -0.1262398448097E+01 -0.4895355985078E+00  0.2759640094913E+00
 0.2452479121656E+00 -0.1238867683723E+01 -0.4670012914477E+00  0.2763688852407E+00
 0.2776153260055E+00 -0.1216307410298E+01 -0.4411852784983E+00  0.2694327815016E+00
 0.3194383307676E+00 -0.1195764688478E+01 -0.4118733870793E+00  0.2525596972844E+00
 0.3714158993688E+00 -0.1179071691454E+01 -0.3795982213172E+00  0.2219342715952E+00
 0.4323786975500E+00 -0.1168751472122E+01 -0.3460952031709E+00  0.1721687167775E+00
 0.1481108775036E+00 -0.1452038829599E+01 -0.6128461359303E+00  0.1458095721498E-01
 0.1473109574455E+00 -0.1430964435164E+01 -0.6033171329976E+00  0.3817553388789E-01
 0.1461133952407E+00 -0.1408777393866E+01 -0.5934520778486E+00  0.6182197378223E-01
 0.1446439052233E+00 -0.1385307612885E+01 -0.5831119411221E+00  0.8531593499658E-01
 0.1430657719808E+00 -0.1360398901719E+01 -0.5721465695257E+00  0.1084868531428E+00
 0.1415967145981E+00 -0.1333912895222E+01 -0.5603886034719E+00  0.1311765949746E+00
 0.1405219847734E+00 -0.1305729784303E+01 -0.5476476643899E+00  0.1532231396368E+00
 0.1402075556820E+00 -0.1275748742525E+01 -0.5337043564625E+00  0.1744479518208E+00
 0.1411162863131E+00 -0.1243889718766E+01 -0.5183035119381E+00  0.1946453659603E+00
 0.1438295045527E+00 -0.1210097622769E+01 -0.5011460142908E+00  0.2135723283697E+00
 0.1490765911633E+00 -0.1174349715505E+01 -0.4818783672184E+00  0.2309368407358E+00
 0.1577758788453E+00 -0.1136667116427E+01 -0.4600788804963E+00  0.2463831911050E+00
 0.1710916276252E+00 -0.1097131722491E+01 -0.4352388434829E+00  0.2594713143592E+00
 0.1905143998790E+00 -0.1055910497761E+01 -0.4067361649730E+00  0.2696459724946E+00
 0.2179761437457E+00 -0.1013290552299E+01 -0.3737977710718E+00  0.2761879300807E+00
 0.2560187817656E+00 -0.9697303306251E+00 -0.3354444271131E+00  0.2781317357802E+00
 0.3080408076902E+00 -0.9259420042677E+00 -0.2904135616549E+00  0.2741166228397E+00
 0.3786547622883E+00 -0.8830345716882E+00 -0.2370585098167E+00  0.2620941107425E+00
 0.4740739393040E+00 -0.8428764944834E+00 -0.1733372004947E+00  0.2386647795556E+00
 0.5994919773229E+00 -0.8108965053909E+00 -0.9936012793997E-01  0.1975048977941E+00
 0.1265699714768E+00 -0.1374341644290E+01 -0.5864526847350E+00  0.1565830045627E-01
 0.1241657962439E+00 -0.1345890989404E+01 -0.5742108393289E+00  0.3913557511552E-01
 0.1215215561194E+00 -0.1315861454603E+01 -0.5613397508636E+00  0.6242072393321E-01
 0.1187579707854E+00 -0.1284005368408E+01 -0.5476662754934E+00  0.8528510332631E-01
 0.1160534772299E+00 -0.1250100370123E+01 -0.5330020383078E+00  0.1075418488562E+00
 0.1136636262789E+00 -0.1213949799094E+01 -0.5171344999113E+00  0.1290181713143E+00
 0.1119349016427E+00 -0.1175379586087E+01 -0.4998190004210E+00  0.1495366179006E+00
 0.1113192636948E+00 -0.1134235638801E+01 -0.4807706950807E+00  0.1689029381159E+00
 0.1123935298867E+00 -0.1090383560153E+01 -0.4596553130593E+00  0.1868982953180E+00
 0.1158868981907E+00 -0.1043711518110E+01 -0.4360775702560E+00  0.2032741982910E+00
 0.1227202244854E+00 -0.9941367401277E+00 -0.4095657613131E+00  0.2177491827775E+00
 0.1340620863570E+00 -0.9416161006147E+00 -0.3795503857384E+00  0.2300068267569E+00
 0.1514096399616E+00 -0.8861613826253E+00 -0.3453333181760E+00  0.2396951370465E+00
 0.1767078496481E+00 -0.8278599260728E+00 -0.3060414751434E+00  0.2464277076416E+00
 0.2125320921629E+00 -0.7669006901640E+00 -0.2605532403997E+00  0.2497872649840E+00
 0.2623809820730E+00 -0.7036050048070E+00 -0.2073752901590E+00  0.2493318193903E+00
 0.3311875958390E+00 -0.6384468879995E+00 -0.1444118669492E+00  0.2446015534513E+00
 0.4262650626662E+00 -0.5720486156235E+00 -0.6851826971619E-01  0.2351097900634E+00
 0.5595311830277E+00 -0.5048487486069E+00  0.2570074411262E-01  0.2202642897900E+00
 0.7533843094797E+00 -0.4359946909295E+00  0.1491731203402E+00  0.1983621576720E+00
 0.1050941003172E+00 -0.1296700305650E+01 -0.5600549150859E+00  0.1473372626181E-01
 0.1012208420481E+00 -0.1261056965756E+01 -0.5451229767602E+00  0.3769769776473E-01
 0.9728687145995E-01 -0.1223401093687E+01 -0.5292736831043E+00  0.6008825500132E-01
 0.9339993941726E-01 -0.1183418247768E+01 -0.5123086036252E+00  0.8164284970253E-01
 0.8975493297596E-01 -0.1140842114242E+01 -0.4940109739419E+00  0.1021446490180E+00
 0.8665271978733E-01 -0.1095448437146E+01 -0.4741339859562E+00  0.1213851942384E+00
 0.8451139703332E-01 -0.1047046956069E+01 -0.4523917115993E+00  0.1391424186770E+00
 0.8387911333204E-01 -0.9954760353601E+00 -0.4284505522665E+00  0.1551691711638E+00
 0.8545335418785E-01 -0.9406014020121E+00 -0.4019195814580E+00  0.1691888685220E+00
 0.9010988550889E-01 -0.8823191357300E+00 -0.3723383466595E+00  0.1808966706837E+00
 0.9894451044047E-01 -0.8205625998751E+00 -0.3391605011740E+00  0.1899662363236E+00
 0.1133320195273E+00 -0.7553127776407E+00 -0.3017309555480E+00  0.1960638369264E+00
 0.1350093320780E+00 -0.6866111614487E+00 -0.2592528591466E+00  0.1988737988204E+00
 0.1661949081689E+00 -0.6145733487698E+00 -0.2107378665479E+00  0.1981426494102E+00
 0.2097657084578E+00 -0.5393994709500E+00 -0.1549278679783E+00  0.1937554467219E+00
 0.2695353921236E+00 -0.4613691615105E+00 -0.9016187138314E-01  0.1858699905301E+00
 0.3507126082087E+00 -0.3808004840156E+00 -0.1414130159337E-01  0.1751612952983E+00
 0.4608096287176E+00 -0.2978371359158E+00  0.7659707142257E-01  0.1632982189464E+00
 0.6113231128001E+00 -0.2120176891493E+00  0.1876735486399E+00  0.1539594477396E+00
 0.8265069371279E+00 -0.1170445263559E+00  0.3334473322171E+00  0.1558709048520E+00
 0.8388869104175E-01 -0.1219626569541E+01 -0.5337968015407E+00  0.1187459048386E-01
 0.7877424381171E-01 -0.1177126645679E+01 -0.5162256275681E+00  0.3393446854719E-01
 0.7381513534360E-01 -0.1132240503499E+01 -0.4974599217714E+00  0.5489918932828E-01
 0.6910171108788E-01 -0.1084616008607E+01 -0.4772917186234E+00  0.7447490513318E-01
 0.6485658761204E-01 -0.1033989614543E+01 -0.4554925215022E+00  0.9241236156119E-01
 0.6144621706629E-01 -0.9801708863091E+00 -0.4318005934489E+00  0.1084596743582E+00
 0.5938424903542E-01 -0.9230306469185E+00 -0.4059138059755E+00  0.1223402998431E+00
 0.5933830809908E-01 -0.8624964953970E+00 -0.3774843470726E+00  0.1337471758760E+00
 0.6214449281848E-01 -0.7985560083353E+00 -0.3461134114150E+00  0.1423482864287E+00
 0.6883096583308E-01 -0.7312667931983E+00 -0.3113448380720E+00  0.1478023821788E+00
 0.8065110645781E-01 -0.6607720869130E+00 -0.2726568601224E+00  0.1497864689056E+00
 0.9912647218412E-01 -0.5873202861740E+00 -0.2294510919933E+00  0.1480395304907E+00
 0.1260996577919E+00 -0.5112861247220E+00 -0.1810376389980E+00  0.1424305174364E+00
 0.1637961180066E+00 -0.4331898769668E+00 -0.1266150663902E+00  0.1330640448500E+00
 0.2148912806480E+00 -0.3537076545014E+00 -0.6524369554563E-01  0.1204466091211E+00
 0.2825657310748E+00 -0.2736633518535E+00  0.4184118223409E-02  0.1057539862488E+00
 0.3705114573217E+00 -0.1939730803623E+00  0.8297303696050E-01  0.9127755907571E-01
 0.4826402152614E+00 -0.1155884806430E+00  0.1725143148331E+00  0.8121388300060E-01
 0.6222530057289E+00 -0.3913930668371E-01  0.2740634378561E+00  0.8319424764427E-01
 0.7813628202215E+00  0.3027334292420E-01  0.3814689957109E+00  0.1118555783668E+00
 0.6315766327675E-01 -0.1143625458106E+01 -0.5078198622818E+00  0.7209526028105E-02
 0.5712604913760E-01 -0.1094753467563E+01 -0.4876848854229E+00  0.2799553387373E-01
 0.5150688696140E-01 -0.1043203623968E+01 -0.4660974652111E+00  0.4703611170582E-01
 0.4637352641278E-01 -0.9886375532127E+00 -0.4428640914727E+00  0.6403032142602E-01
 0.4199661711788E-01 -0.9308644638052E+00 -0.4177678868834E+00  0.7871531772950E-01
 0.3883561904316E-01 -0.8698140697100E+00 -0.3905598708228E+00  0.9081483681064E-01
 0.3752578168741E-01 -0.8055221478585E+00 -0.3609582911849E+00  0.1000256255805E+00
 0.3887183947512E-01 -0.7381295022921E+00 -0.3286511006904E+00  0.1060272694590E+00
 0.4384957229634E-01 -0.6678926049547E+00 -0.2933002246055E+00  0.1085088889963E+00
 0.5361269374632E-01 -0.5952026982856E+00 -0.2545473014879E+00  0.1072115163038E+00
 0.6950037803892E-01 -0.5206097604068E+00 -0.2120214091752E+00  0.1019886994991E+00
 0.9303837250321E-01 -0.4448472785091E+00 -0.1653501854034E+00  0.9289084971324E-01
 0.1259222193737E+00 -0.3688528458738E+00 -0.1141773941654E+00  0.8028178221194E-01
 0.1699619741053E+00 -0.2937780412068E+00 -0.5819355139014E-01  0.6499942890145E-01
 0.2269469924804E+00 -0.2209802476845E+00  0.2804370046976E-02  0.4857732374850E-01
 0.2983461519458E+00 -0.1519882565837E+00  0.6878821064571E-01  0.3354894524744E-01
 0.3846285997381E+00 -0.8846450554837E-01  0.1391971239161E+00  0.2386059946525E-01
 0.4837686080166E+00 -0.3219726501503E-01  0.2122385306724E+00  0.2539555464113E-01
 0.5869685467640E+00  0.1399358286017E-01  0.2824522002070E+00  0.4648373105617E-01
 0.6699988579316E+00  0.4441194422600E-01  0.3357730761624E+00  0.9655535727749E-01
 0.4309797861902E-01 -0.1069177135643E+01 -0.4822572025780E+00  0.9211568251988E-03
 0.3656626959757E-01 -0.1014538545246E+01 -0.4596469683888E+00  0.2008940226297E-01
 0.3072861607927E-01 -0.9570278750489E+00 -0.4353606506115E+00  0.3676329839197E-01
 0.2565168637219E-01 -0.8963900027728E+00 -0.4092470076703E+00  0.5068365069750E-01
 0.2167968439097E-01 -0.8325895746873E+00 -0.3811276474726E+00  0.6161694510909E-01
 0.1938936132550E-01 -0.7657694424321E+00 -0.3507986372304E+00  0.6930953015417E-01
 0.1954991561166E-01 -0.6962293092368E+00 -0.3180393141972E+00  0.7349375700408E-01
 0.2309373579234E-01 -0.6244242795709E+00 -0.2826253548591E+00  0.7392395205050E-01
 0.3109441908838E-01 -0.5509761665283E+00 -0.2443444206770E+00  0.7043211002301E-01
 0.4474355899765E-01 -0.4766895756631E+00 -0.2030146273178E+00  0.6300052645413E-01
 0.6531511245558E-01 -0.4025648484302E+00 -0.1585073755060E+00  0.5185216902819E-01
 0.9410254840977E-01 -0.3297995488201E+00 -0.1107775899119E+00  0.3756084385697E-01
 0.1323068228836E+00 -0.2597695634258E+00 -0.5990748790287E-01  0.2118268204665E-01
 0.1808393857141E+00 -0.1939806432569E+00 -0.6176391029451E-02  0.4407570512812E-02
 0.2399790617231E+00 -0.1339826465206E+00  0.4981831501880E-01 -0.1027866379123E-01
 0.3087707650459E+00 -0.8125015876489E-01  0.1069346846809E+00 -0.1945019463470E-01
 0.3839839341794E+00 -0.3704936213045E-01  0.1630592484494E+00 -0.1869699057727E-01
 0.4582809702686E+00 -0.2427403546448E-02  0.2142511758160E+00 -0.2900073620660E-02
 0.5178118654641E+00  0.2178344045860E-01  0.2536097931404E+00  0.3247870756686E-01
 0.5452567270477E+00  0.3796992580455E-01  0.2741165261453E+00  0.8782477432897E-01
 0.2391135492586E-01 -0.9966945369272E+00 -0.4572080943810E+00 -0.6782060993142E-02
 0.1736960990601E-01 -0.9369604652436E+00 -0.4322077009124E+00  0.1043718809642E-01
 0.1179053860334E-01 -0.8742719767409E+00 -0.4053662748965E+00  0.2436252434363E-01
 0.7258560366234E-02 -0.8085332825199E+00 -0.3765991184570E+00  0.3484786324371E-01
 0.4214531115671E-02 -0.7399536839086E+00 -0.3457974009356E+00  0.4175286105668E-01
 0.3364394423852E-02 -0.6689733566491E+00 -0.3128362114524E+00  0.4491245069335E-01
 0.5598580897105E-02 -0.5962261283755E+00 -0.2775949466107E+00  0.4417457756593E-01
 0.1193081098603E-01 -0.5225283055922E+00 -0.2399808218562E+00  0.3946879459578E-01
 0.2344484839610E-01 -0.4488775875851E+00 -0.1999533869117E+00  0.3088976806347E-01
 0.4123319876233E-01 -0.3764484261468E+00 -0.1575511564711E+00  0.1878964004038E-01
 0.6631126414872E-01 -0.3065717430144E+00 -0.1129224247805E+00  0.3875845285343E-02
 0.9948781143196E-01 -0.2406889202827E+00 -0.6636452099153E-01 -0.1269046347097E-01
 0.1411672810351E+00 -0.1802718789429E+00 -0.1837916097004E-01 -0.2920512276621E-01
 0.1910504702006E+00 -0.1267047847624E+00  0.3024247207923E-01 -0.4336024685244E-01
 0.2476890651809E+00 -0.8113049264179E-01  0.7828252889482E-01 -0.5224997160088E-01
 0.3078502747605E+00 -0.4427611828064E-01  0.1238798532313E+00 -0.5251628881392E-01
 0.3656982808104E+00 -0.1629143944433E-01  0.1642212150255E+00 -0.4077568983571E-01
 0.4121320021887E+00  0.3425183914472E-02  0.1953118769731E+00 -0.1459029838758E-01
 0.4360907421449E+00  0.1698228577391E-01  0.2129443225817E+00  0.2572430462519E-01
 0.4286320913987E+00  0.2836559750990E-01  0.2147889132423E+00  0.7518829946461E-01
 0.5794657671910E-02 -0.9264999581616E+00 -0.4327314901326E+00 -0.1567991162663E-01
-0.2636775913092E-03 -0.8623770403705E+00 -0.4054411364137E+00 -0.7382856604823E-03
-0.5131860082887E-02 -0.7953307825513E+00 -0.3762174410839E+00  0.1012090211338E-01
-0.8694546312823E-02 -0.7255192385283E+00 -0.3450804780001E+00  0.1695951210687E-01
-0.1039586653921E-01 -0.6534859337109E+00 -0.3120244453261E+00  0.1980462575178E-01
-0.9405140515270E-02 -0.5800294827131E+00 -0.2770342722147E+00  0.1864734349477E-01
-0.4750119195584E-02 -0.5061407420692E+00 -0.2401187041854E+00  0.1352426702719E-01
 0.4587592796561E-02 -0.4329721216026E+00 -0.2013407280281E+00  0.4619143211343E-02
 0.1958828789811E-01 -0.3618137236292E+00 -0.1608459543856E+00 -0.7637010428614E-02
 0.4109830494370E-01 -0.2940565248557E+00 -0.1188903630571E+00 -0.2247579093148E-01
 0.6970299217760E-01 -0.2311306803812E+00 -0.7587101326324E-01 -0.3871826312309E-01
 0.1055520585663E+00 -0.1744117578924E+00 -0.3236405860118E-01 -0.5472940345276E-01
 0.1481214716366E+00 -0.1250947978542E+00  0.1082253665029E-01 -0.6841825066065E-01
 0.1959010801979E+00 -0.8404334610280E-01  0.5257313489135E-01 -0.7731399395097E-01
 0.2460164487424E+00 -0.5162979209848E-01  0.9136172839092E-01 -0.7876673090588E-01
 0.2938550347644E+00 -0.2759109968492E-01  0.1251440491699E+00 -0.7034674473641E-01
 0.3329385763312E+00 -0.1091275237384E-01  0.1513521368761E+00 -0.5053755527851E-01
 0.3557179950653E+00  0.3487751123021E-03  0.1673513815590E+00 -0.1976366240983E-01
 0.3558682196320E+00  0.9122131742670E-02  0.1715454647110E+00  0.1859885633250E-01
 0.3315855855001E+00  0.1895414785140E-01  0.1647536742573E+00  0.5818492905416E-01
-0.1111265417033E-01 -0.8588857868933E+00 -0.4088992662628E+00 -0.2551708605907E-01
-0.1625308539555E-01 -0.7911153335605E+00 -0.3794631559469E+00 -0.1315912311806E-01
-0.2004417025967E-01 -0.7205528069651E+00 -0.3480805784128E+00 -0.5590785022671E-02
-0.2233983745504E-01 -0.6477289719695E+00 -0.3149323396308E+00 -0.2425601503666E-02
-0.2244935194932E-01 -0.5735965464877E+00 -0.2801415715549E+00 -0.3405320186639E-02
-0.1943416507150E-01 -0.4993310792339E+00 -0.2438196642051E+00 -0.8338370364811E-02
-0.1229577957219E-01 -0.4262365530675E+00 -0.2061101958179E+00 -0.1696062471770E-01
-0.9909531707408E-04 -0.3556970706130E+00 -0.1672241975630E+00 -0.2880541182503E-01
 0.1792424143389E-01 -0.2891311344607E+00 -0.1274672393993E+00 -0.4310408421167E-01
 0.4225888775146E-01 -0.2279298221410E+00 -0.8726533894173E-01 -0.5872284331659E-01
 0.7296062371402E-01 -0.1733667229996E+00 -0.4719086654453E-01 -0.7414145714143E-01
 0.1094738319953E+00 -0.1264824313955E+00 -0.7994041697828E-02 -0.8748454560723E-01
 0.1504151862000E+00 -0.8795278382805E-01  0.2935732904034E-01 -0.9662377618829E-01
 0.1933462254681E+00 -0.5795851173915E-01  0.6363222529120E-01 -0.9937822141245E-01
 0.2346015964736E+00 -0.3607799658734E-01  0.9330609170986E-01 -0.9384746081653E-01
 0.2693262903063E+00 -0.2122333419255E-01  0.1166083890777E+00 -0.7890705597770E-01
 0.2920222218367E+00 -0.1162048729867E-01  0.1317888148986E+00 -0.5484583925049E-01
 0.2978998137873E+00 -0.4886996705892E-02  0.1377160236790E+00 -0.2394913128837E-01
 0.2848579377231E+00  0.1659532683199E-02  0.1346632107494E+00  0.9449309879474E-02
 0.2550403749015E+00  0.1033767631699E-01  0.1247276837563E+00  0.3996193279558E-01
-0.2671439383651E-01 -0.7941076464620E+00 -0.3857863579618E+00 -0.3601898912952E-01
-0.3056387947366E-01 -0.7234173811786E+00 -0.3543711916077E+00 -0.2650882571220E-01
-0.3302878781615E-01 -0.6501494197201E+00 -0.3210937567276E+00 -0.2233259936769E-01
-0.3390823693077E-01 -0.5753428857434E+00 -0.2863480269306E+00 -0.2265644830690E-01
-0.3235244263900E-01 -0.5004139905135E+00 -0.2504002229466E+00 -0.2696535951780E-01
-0.2733798422471E-01 -0.4268759637342E+00 -0.2134805549992E+00 -0.3486984811028E-01
-0.1790507026290E-01 -0.3562363087876E+00 -0.1758464477077E+00 -0.4589080735450E-01
-0.3282400066167E-02 -0.2899439611930E+00 -0.1378163894423E+00 -0.5930860782826E-01
 0.1700474277853E-01 -0.2293486252099E+00 -0.9980162448960E-01 -0.7408309465600E-01
 0.4302071750697E-01 -0.1756326319211E+00 -0.6232759961656E-01 -0.8883682720520E-01
 0.7428294428732E-01 -0.1297205752085E+00 -0.2605568646688E-01 -0.1018981264987E+00
 0.1096131677132E+00 -0.9217208639507E-01  0.8197308198728E-02 -0.1114079560272E+00
 0.1469977955509E+00 -0.6307879996670E-01  0.3944192782455E-01 -0.1155012799637E+00
 0.1835096447226E+00 -0.4198495888660E-01  0.6651660217423E-01 -0.1125763662153E+00
 0.2153864775134E+00 -0.2785084445131E-01  0.8814174731562E-01 -0.1016569489371E+00
 0.2384167731995E+00 -0.1907446904919E-01  0.1030908826892E+00 -0.8281791471410E-01
 0.2487776759807E+00 -0.1360027158459E-01  0.1105333797858E+00 -0.5755847913835E-01
 0.2442622616280E+00 -0.9174618596715E-02  0.1104911919445E+00 -0.2887143602681E-01
 0.2253871407554E+00 -0.3805342840847E-02  0.1041434447557E+00 -0.7063685018334E-03
 0.1954595402777E+00  0.3586792907975E-02  0.9355177635997E-01  0.2321692708866E-01
-0.4096926905154E-01 -0.7323890839488E+00 -0.3634784249883E+00 -0.4690098343186E-01
-0.4323005257583E-01 -0.6594441084952E+00 -0.3302568548657E+00 -0.4045394693233E-01
-0.4424928460805E-01 -0.5841833654917E+00 -0.2953633447977E+00 -0.3962184623405E-01
-0.4371196574786E-01 -0.5083366612939E+00 -0.2594628540515E+00 -0.4302800933136E-01
-0.4056426974774E-01 -0.4337928341293E+00 -0.2229478382567E+00 -0.4994560871581E-01
-0.3374015063194E-01 -0.3623097636850E+00 -0.1861434592568E+00 -0.5985246605405E-01
-0.2237668329124E-01 -0.2954179980234E+00 -0.1493634998390E+00 -0.7211726516095E-01
-0.5934093194270E-02 -0.2344410978444E+00 -0.1129763395016E+00 -0.8584061109460E-01
 0.1573060870541E-01 -0.1804758808648E+00 -0.7743027771852E-01 -0.9981403370768E-01
 0.4226320174652E-01 -0.1343552210855E+00 -0.4328324897955E-01 -0.1125616924528E+00
 0.7271629632423E-01 -0.9656789196852E-01 -0.1121024992438E-01 -0.1224447104581E+00
 0.1054630653301E+00 -0.6717770219265E-01  0.1799412062897E-01 -0.1278214600951E+00
 0.1381634053406E+00 -0.4576073525659E-01  0.4342925482931E-01 -0.1272656083247E+00
 0.1678425579563E+00 -0.3137950653557E-01  0.6413763400508E-01 -0.1198384688105E+00
 0.1911650771013E+00 -0.2260932986787E-01  0.7922120099877E-01 -0.1053913154779E+00
 0.2049784361093E+00 -0.1763776085433E-01  0.8805011714649E-01 -0.8482766046154E-01
 0.2071023565110E+00 -0.1447095537276E-01  0.9053675830534E-01 -0.6018742065616E-01
 0.1971171074916E+00 -0.1127703470913E-01  0.8734483398624E-01 -0.3437590311416E-01
 0.1766673811930E+00 -0.6834925356604E-02  0.7982125404064E-01 -0.1046043995505E-01
 0.1489683952589E+00 -0.8423138812876E-03  0.6961925807090E-01  0.9248339194908E-02
-0.5388902143723E-01 -0.6739168716227E+00 -0.3420687688706E+00 -0.5789737798619E-01
-0.5433405813830E-01 -0.5992170433069E+00 -0.3071690169002E+00 -0.5468134235752E-01
-0.5393121215182E-01 -0.5225196067524E+00 -0.2709318841978E+00 -0.5696978256024E-01
-0.5208118433731E-01 -0.4464381458708E+00 -0.2343040846035E+00 -0.6282568003570E-01
-0.4752940257502E-01 -0.3733440772840E+00 -0.1978105350320E+00 -0.7146508313812E-01
-0.3918700762898E-01 -0.3050147981345E+00 -0.1617748482985E+00 -0.8235796344461E-01
-0.2637107230798E-01 -0.2428010146440E+00 -0.1265108805466E+00 -0.9481036422380E-01
-0.8790530621483E-02 -0.1876886815880E+00 -0.9234522950425E-01 -0.1078237945753E+00
 0.1336083720078E-01 -0.1404149365130E+00 -0.5971542652528E-01 -0.1201223804527E+00
 0.3937018326229E-01 -0.1014132109340E+00 -0.2916022293172E-01 -0.1302600835036E+00
 0.6795567846965E-01 -0.7074947144837E-01 -0.1313082696667E-02 -0.1367669942226E+00
 0.9725666476881E-01 -0.4806490777423E-01  0.2312012572881E-01 -0.1383301474989E+00
 0.1249002269848E+00 -0.3255102824301E-01  0.4340412329854E-01 -0.1340044520300E+00
 0.1481957727808E+00 -0.2296837031853E-01  0.5885687900798E-01 -0.1234376504805E+00
 0.1644989751017E+00 -0.1772420796559E-01  0.6898414037899E-01 -0.1070676331958E+00
 0.1717377141772E+00 -0.1503087422724E-01  0.7365221458968E-01 -0.8621422098764E-01
 0.1689827336931E+00 -0.1316297139538E-01  0.7323528809417E-01 -0.6296140749697E-01
 0.1568024953267E+00 -0.1079906657829E-01  0.6862161133771E-01 -0.3976209384772E-01
 0.1371186627719E+00 -0.7337219075794E-02  0.6099727838244E-01 -0.1883903948124E-01
 0.1124611053298E+00 -0.3015352661530E-02  0.5143950362360E-01 -0.1626501851264E-02
-0.6550310927404E-01 -0.6188119193563E+00 -0.3216280626405E+00 -0.6879795882038E-01
-0.6406039766749E-01 -0.5426283219248E+00 -0.2851436974851E+00 -0.6892870792706E-01
-0.6230868373500E-01 -0.4647585669773E+00 -0.2477216072065E+00 -0.7388330253756E-01
-0.5935567284627E-01 -0.3892206220286E+00 -0.2108308580565E+00 -0.8132931704295E-01
-0.5359614424287E-01 -0.3185448176308E+00 -0.1749062516370E+00 -0.9071508544223E-01
-0.4413612738233E-01 -0.2543509125586E+00 -0.1402889084164E+00 -0.1016662045898E+00
-0.3039004475738E-01 -0.1973761568157E+00 -0.1070501144678E+00 -0.1134804007648E+00
-0.1236527653837E-01 -0.1482112990475E+00 -0.7547099033394E-01 -0.1251032235588E+00
 0.9459051038248E-02 -0.1072164421805E+00 -0.4594597372034E-01 -0.1352714536111E+00
 0.3410760823732E-01 -0.7446819485466E-01 -0.1896947566204E-01 -0.1426618892280E+00
 0.6012155310697E-01 -0.4968801294612E-01  0.4903763863162E-02 -0.1460490888943E+00
 0.8561186390298E-01 -0.3221062736899E-01  0.2509858110731E-01 -0.1444731641908E+00
 0.1083975190310E+00 -0.2099080423231E-01  0.4108115585117E-01 -0.1374124478499E+00
 0.1262526949378E+00 -0.1465812278526E-01  0.5244944877866E-01 -0.1249380919738E+00
 0.1372638325262E+00 -0.1163224211437E-01  0.5904684734379E-01 -0.1078065190012E+00
 0.1402422204526E+00 -0.1031110594625E-01  0.6106762366309E-01 -0.8742820988813E-01
 0.1350584619107E+00 -0.9326933826538E-02  0.5909381804968E-01 -0.6566046899565E-01
 0.1227316186408E+00 -0.7804461826652E-02  0.5401576356564E-01 -0.4443615077714E-01
 0.1051332283462E+00 -0.5529353372178E-02  0.4681382111903E-01 -0.2535935901444E-01
 0.8427059262010E-01 -0.2950255643712E-02  0.3822055828196E-01 -0.9482890523107E-02
-0.7620986522947E-01 -0.5675166072049E+00 -0.3025514412768E+00 -0.7947734245108E-01
-0.7268518158610E-01 -0.4893503318861E+00 -0.2641566906620E+00 -0.8295493142439E-01
-0.6981003675413E-01 -0.4104041105188E+00 -0.2257006486458E+00 -0.8979668952284E-01
-0.6555879000232E-01 -0.3358793096667E+00 -0.1886759063659E+00 -0.9772912603540E-01
-0.5901640787852E-01 -0.2689773728938E+00 -0.1541570765720E+00 -0.1069774774564E+00
-0.4874892384185E-01 -0.2095420583660E+00 -0.1213967613298E+00 -0.1173350484505E+00
-0.3455731594125E-01 -0.1579017992077E+00 -0.9045578389060E-01 -0.1280018201705E+00
-0.1667372060997E-01 -0.1142923575367E+00 -0.6155405657280E-01 -0.1378913075104E+00
 0.4193539554042E-02 -0.7880944682228E-01 -0.3506947632712E-01 -0.1458140862992E+00
 0.2692235423068E-01 -0.5126677719516E-01 -0.1144187876429E-01 -0.1506274040371E+00
 0.5001899833917E-01 -0.3114873093632E-01  0.8869025656848E-02 -0.1513710819797E+00
 0.7171987764370E-01 -0.1760138578155E-01  0.2543569111070E-01 -0.1474019279620E+00
 0.9016222441929E-01 -0.9467007290744E-02  0.3792675195422E-01 -0.1385168902643E+00
 0.1036293113484E+00 -0.5364919089608E-02  0.4618426424451E-01 -0.1250404867280E+00
 0.1108449416139E+00 -0.3827586777984E-02  0.5029815664530E-01 -0.1078396471070E+00
 0.1112511466762E+00 -0.3491576722502E-02  0.5064699774977E-01 -0.8822854636520E-01
 0.1051729369734E+00 -0.3310477085815E-02  0.4787535602571E-01 -0.6775243666582E-01
 0.9376524544543E-01 -0.2730693377956E-02  0.4278623936319E-01 -0.4789922957901E-01
 0.7881158944500E-01 -0.1680006437458E-02  0.3625184392160E-01 -0.2985688829069E-01
 0.6240158647693E-01 -0.4123982054806E-03  0.2913491841368E-01 -0.1452641543833E-01
-0.8651096929507E-01 -0.5205245950974E+00 -0.2853067145408E+00 -0.9013173933502E-01
-0.8157720397697E-01 -0.4390844957610E+00 -0.2447109982561E+00 -0.9671960548831E-01
-0.7521541637466E-01 -0.3565705841142E+00 -0.2029394197150E+00 -0.1037820181201E+00
-0.7103034988382E-01 -0.2865055112612E+00 -0.1680418543120E+00 -0.1111475445903E+00
-0.6372661808169E-01 -0.2242787166905E+00 -0.1353625069996E+00 -0.1198474333396E+00
-0.5302100479830E-01 -0.1698324135674E+00 -0.1047411063662E+00 -0.1293001135073E+00
-0.3879228518825E-01 -0.1231823289262E+00 -0.7612806844069E-01 -0.1385803259514E+00
-0.2151470086926E-01 -0.8448000949601E-01 -0.4981751374532E-01 -0.1466220896673E+00
-0.2023122130441E-02 -0.5364632336460E-01 -0.2616463931631E-01 -0.1523743423376E+00
 0.1851066607302E-01 -0.3031706576200E-01 -0.5549007839749E-02 -0.1549052567790E+00
 0.3866379860593E-01 -0.1381927061250E-01  0.1167692812730E-01 -0.1535055653729E+00
 0.5688402843120E-01 -0.3194211580888E-02  0.2523421385565E-01 -0.1477861176622E+00
 0.7166221222916E-01  0.2744678738491E-02  0.3497123866610E-01 -0.1377566140051E+00
 0.8174190445068E-01  0.5311952793682E-02  0.4091531280107E-01 -0.1238627810434E+00
 0.8633344036381E-01  0.5806870197449E-02  0.4330594585395E-01 -0.1069560275848E+00
 0.8527943266754E-01  0.5341840961093E-02  0.4259199849743E-01 -0.8817860227309E-01
 0.7910956863103E-01  0.4680136706072E-02  0.3938116140855E-01 -0.6877520952927E-01
 0.6897825631947E-01  0.4162343754623E-02  0.3437608194763E-01 -0.4988696846221E-01
 0.5642173799941E-01  0.3682469794588E-02  0.2824897759153E-01 -0.3240701044682E-01
 0.4374990711445E-01  0.3190991268930E-02  0.2206222218423E-01 -0.1696764592786E-01
-0.1053754842827E+00 -0.4840625091733E+00 -0.2770358562216E+00 -0.1030744013095E+00
-0.8268054386934E-01 -0.3780240691429E+00 -0.2165311675666E+00 -0.1085737051356E+00
-0.8043906734989E-01 -0.3063162630895E+00 -0.1817750048455E+00 -0.1141354378446E+00
-0.7531645050208E-01 -0.2417687403436E+00 -0.1490300393195E+00 -0.1212125392447E+00
-0.6778320390098E-01 -0.1845975832289E+00 -0.1186189696502E+00 -0.1293890010519E+00
-0.5696743471043E-01 -0.1346868212549E+00 -0.9007750007524E-01 -0.1378231198560E+00
-0.4311905530870E-01 -0.9241029994000E-01 -0.6369879680533E-01 -0.1455977435102E+00
-0.2680663029071E-01 -0.5784002425118E-01 -0.3978392753378E-01 -0.1517881674546E+00
-0.8936999823921E-02 -0.3077428679467E-01 -0.1866430466340E-01 -0.1555364352764E+00
 0.9345236328274E-02 -0.1071556787145E-01 -0.6440558236593E-03 -0.1561272681008E+00
 0.2674876961915E-01  0.3103037110509E-02  0.1403034912736E-01 -0.1530657273107E+00
 0.4196274218716E-01  0.1167294026675E-01  0.2520877068940E-01 -0.1461458630442E+00
 0.5380863603710E-01  0.1613499526701E-01  0.3287350662955E-01 -0.1354969667703E+00
 0.6140090399836E-01  0.1767192076150E-01  0.3716422754287E-01 -0.1215905525017E+00
 0.6428592629311E-01  0.1737387973036E-01  0.3838010873369E-01 -0.1051924249063E+00
 0.6252280266972E-01  0.1609870392984E-01  0.3695210800807E-01 -0.8725467280133E-01
 0.5668569302468E-01  0.1436850656228E-01  0.3339547372117E-01 -0.6876474835399E-01
 0.4777890619960E-01  0.1232504880558E-01  0.2824885878079E-01 -0.5059258599104E-01
 0.3721558063334E-01  0.9841486248392E-02  0.2211682137832E-01 -0.3340401021460E-01
 0.2603994150750E-01  0.6015062413050E-02  0.1506585180444E-01 -0.1753395194480E-01
</DataArray>
<DataArray type="Float64" Name="S_Mises" NumberOfComponents="1" ComponentName0="S_Mises" format="ascii">
 0.6826275982407E+01
 0.6194983481952E+01
 0.5708204999190E+01
 0.5562277016251E+01
 0.5464500272536E+01
 0.5408525765176E+01
 0.5370521672673E+01
 0.5343624394643E+01
 0.5323098583742E+01
 0.5306598096988E+01
 0.5292778733142E+01
 0.5280969772334E+01
 0.5270909735567E+01
 0.5262622976742E+01
 0.5256347048459E+01
 0.5252497908278E+01
 0.5251659585673E+01
 0.5254597305844E+01
 0.5262289377638E+01
 0.5276003507394E+01
 0.5297430648086E+01
 0.5328996846648E+01
 0.5374613320117E+01
 0.5439927250559E+01
 0.5526198431203E+01
 0.5627616540763E+01
 0.5737641852283E+01
 0.5853059820840E+01
 0.5974688316486E+01
 0.6106425621922E+01
 0.6253749520782E+01
 0.6422198679585E+01
 0.6615694743602E+01
 0.6842087346094E+01
 0.7124405355598E+01
 0.7492032064861E+01
 0.8008124179193E+01
 0.8655187194679E+01
 0.1004945858222E+02
 0.1005705765542E+02
 0.1965568718451E+02
 0.5862146971088E+01
 0.6105537033925E+01
 0.5739509147406E+01
 0.5535170391119E+01
 0.5428797202075E+01
 0.5358026412469E+01
 0.5310971782505E+01
 0.5276984123065E+01
 0.5251270951948E+01
 0.5230868893386E+01
 0.5214131182519E+01
 0.5200138162366E+01
 0.5188451212700E+01
 0.5178957056703E+01
 0.5171783981434E+01
 0.5167256669411E+01
 0.5165878693987E+01
 0.5168337044536E+01
 0.5175529708384E+01
 0.5188623580465E+01
 0.5209164731460E+01
 0.5239266771589E+01
 0.5281471086557E+01
 0.5337758146039E+01
 0.5408040061416E+01
 0.5489788330587E+01
 0.5579662119489E+01
 0.5675538921364E+01
 0.5777367201970E+01
 0.5886871626294E+01
 0.6006660097085E+01
 0.6139529753357E+01
 0.6289004761500E+01
 0.6461243636685E+01
 0.6664702939263E+01
 0.6913629179304E+01
 0.7199692669747E+01
 0.7573680677825E+01
 0.7748253513994E+01
 0.6722115784794E+01
 0.1311132927175E+02
 0.5316351689273E+01
 0.5765749092156E+01
 0.5670158638403E+01
 0.5484389154013E+01
 0.5373720851142E+01
 0.5298646166547E+01
 0.5245659262942E+01
 0.5206859920876E+01
 0.5177129667704E+01
 0.5153533183281E+01
 0.5134264538767E+01
 0.5118279030170E+01
 0.5105019420552E+01
 0.5094270249701E+01
 0.5086068456700E+01
 0.5080654108828E+01
 0.5078446985754E+01
 0.5080043768613E+01
 0.5086233708087E+01
 0.5098032946542E+01
 0.5116739056639E+01
 0.5143878645445E+01
 0.5180660591420E+01
 0.5227354688076E+01
 0.5283446769862E+01
 0.5347864718007E+01
 0.5419058504153E+01
 0.5495614555920E+01
 0.5576857920855E+01
 0.5662874670059E+01
 0.5754129698245E+01
 0.5851411503758E+01
 0.5956329099896E+01
 0.6070173653587E+01
 0.6192073272048E+01
 0.6312639855747E+01
 0.6409149929820E+01
 0.6422614630871E+01
 0.5883934797042E+01
 0.5414828128667E+01
 0.1094067439764E+02
 0.4953935590914E+01
 0.5431569309715E+01
 0.5510799635314E+01
 0.5401447693098E+01
 0.5301322339501E+01
 0.5228575073844E+01
 0.5174034188017E+01
 0.5132612824703E+01
 0.5100240539566E+01
 0.5074245805160E+01
 0.5052916356605E+01
 0.5035189445439E+01
 0.5020459108298E+01
 0.5008445781258E+01
 0.4999116305191E+01
 0.4992635075186E+01
 0.4989337468633E+01
 0.4989719553782E+01
 0.4994438925131E+01
 0.5004319925245E+01
 0.5020327387770E+01
 0.5043340280332E+01
 0.5073612776298E+01
 0.5110598302566E+01
 0.5153653053114E+01
 0.5202364867746E+01
 0.5256076274699E+01
 0.5313743606147E+01
 0.5374209535345E+01
 0.5436347523709E+01
 0.5499030017641E+01
 0.5561274601305E+01
 0.5622051724463E+01
 0.5678140779776E+01
 0.5720025446254E+01
 0.5726168908970E+01
 0.5657904336953E+01
 0.5389528102606E+01
 0.4755394231444E+01
 0.5093169861383E+01
 0.9808763494626E+01
 0.4686969705530E+01
 0.5140570458577E+01
 0.5315365534596E+01
 0.5285603718920E+01
 0.5212443551984E+01
 0.5147845136090E+01
 0.5095648035556E+01
 0.5053907590397E+01
 0.5020280136560E+01
 0.4992748738403E+01
 0.4969877207225E+01
 0.4950705048353E+01
 0.4934643956713E+01
 0.4921390880937E+01
 0.4910865273049E+01
 0.4903166827878E+01
 0.4898548232542E+01
 0.4897398009839E+01
 0.4900225879257E+01
 0.4907635184797E+01
 0.4920224749534E+01
 0.4938302328323E+01
 0.4961496475577E+01
 0.4988868808539E+01
 0.5019732498134E+01
 0.5053936816476E+01
 0.5091198129692E+01
 0.5130595543974E+01
 0.5170583783214E+01
 0.5209156226878E+01
 0.5243984972183E+01
 0.5272495768450E+01
 0.5291227656523E+01
 0.5293223353905E+01
 0.5263630705468E+01
 0.5176158885182E+01
 0.4982762474340E+01
 0.4598294639374E+01
 0.4169056568361E+01
 0.5111105169586E+01
 0.9045394420629E+01
 0.4475370540429E+01
 0.4891165622170E+01
 0.5112995743436E+01
 0.5147404787686E+01
 0.5108165714590E+01
 0.5057187012011E+01
 0.5010505241127E+01
 0.4970596326390E+01
 0.4937066766097E+01
 0.4908864604376E+01
 0.4884994343003E+01
 0.4864700818412E+01
 0.4847477627851E+01
 0.4833037303618E+01
 0.4821275237811E+01
 0.4812238713820E+01
 0.4806101742360E+01
 0.4803142412192E+01
 0.4803713641720E+01
 0.4808185717715E+01
 0.4816805872218E+01
 0.4829428271459E+01
 0.4845287871454E+01
 0.4863259031107E+01
 0.4882625752140E+01
 0.4903289233104E+01
 0.4925053685003E+01
 0.4946971276526E+01
 0.4967187763494E+01
 0.4983076863409E+01
 0.4991420364853E+01
 0.4988372915017E+01
 0.4968629615285E+01
 0.4922914217308E+01
 0.4834675175034E+01
 0.4678065417598E+01
 0.4416453928494E+01
 0.4049069737490E+01
 0.3910972021696E+01
 0.5195933665014E+01
 0.8460209507382E+01
 0.4298441267465E+01
 0.4675403698991E+01
 0.4916505980700E+01
 0.4997282476464E+01
 0.4991538113519E+01
 0.4957599665954E+01
 0.4918989972440E+01
 0.4882726276567E+01
 0.4850542385779E+01
 0.4822498178967E+01
 0.4798170031990E+01
 0.4777091384883E+01
 0.4758893761267E+01
 0.4743341302392E+01
 0.4730327868386E+01
 0.4719861395966E+01
 0.4712043389078E+01
 0.4707042776473E+01
 0.4705054631898E+01
 0.4706221822598E+01
 0.4710482183516E+01
 0.4717350435177E+01
 0.4725820732929E+01
 0.4734679031636E+01
 0.4743173188382E+01
 0.4751148838566E+01
 0.4758352205405E+01
 0.4763737232115E+01
 0.4765219569433E+01
 0.4759767298494E+01
 0.4743565966495E+01
 0.4711926406053E+01
 0.4658500747201E+01
 0.4573379834005E+01
 0.4441291578056E+01
 0.4242779600735E+01
 0.3967546277460E+01
 0.3693269530126E+01
 0.3829481767826E+01
 0.5259449939236E+01
 0.7982197564854E+01
 0.4144524491096E+01
 0.4485720555504E+01
 0.4730649989805E+01
 0.4842693281889E+01
 0.4866275812131E+01
 0.4850491929378E+01
 0.4821708488111E+01
 0.4790523968795E+01
 0.4760758968294E+01
 0.4733630321512E+01
 0.4709359363964E+01
 0.4687829709151E+01
 0.4668855303421E+01
 0.4652282990760E+01
 0.4638025819050E+01
 0.4626065618810E+01
 0.4616439438416E+01
 0.4609212304264E+01
 0.4604428093742E+01
 0.4602021427452E+01
 0.4601673864342E+01
 0.4602656431063E+01
 0.4603820766676E+01
 0.4603912781818E+01
 0.4602136424961E+01
 0.4598233999745E+01
 0.4591832816519E+01
 0.4581773435899E+01
 0.4565825725721E+01
 0.4540742874344E+01
 0.4502409731450E+01
 0.4445775217288E+01
 0.4364329823396E+01
 0.4249076153976E+01
 0.4088530640780E+01
 0.3874362501505E+01
 0.3626420480151E+01
 0.3476478469256E+01
 0.3831025489348E+01
 0.5282929083349E+01
 0.7577519800053E+01
 0.4006607500106E+01
 0.4316110208883E+01
 0.4556495246665E+01
 0.4688306261637E+01
 0.4735773936443E+01
 0.4737507393991E+01
 0.4719429464633E+01
 0.4694346995787E+01
 0.4667864534657E+01
 0.4642309129768E+01
 0.4618566229929E+01
 0.4596904872401E+01
 0.4577353127310E+01
 0.4559865249081E+01
 0.4544391550504E+01
 0.4530900628720E+01
 0.4519374614464E+01
 0.4509783440695E+01
 0.4502032833793E+01
 0.4495876528006E+01
 0.4490793630583E+01
 0.4485886944561E+01
 0.4479928946962E+01
 0.4471650746493E+01
 0.4460210829604E+01
 0.4445237003201E+01
 0.4426228220990E+01
 0.4401933832315E+01
 0.4370068623168E+01
 0.4327349655272E+01
 0.4269653035101E+01
 0.4192054037312E+01
 0.4088704148670E+01
 0.3952780373855E+01
 0.3778445227220E+01
 0.3570586641887E+01
 0.3375339106531E+01
 0.3353021799589E+01
 0.3863344014451E+01
 0.5269675618126E+01
 0.7226808423817E+01
 0.3880243913658E+01
 0.4162035870190E+01
 0.4393531679131E+01
 0.4536789265696E+01
 0.4602733002869E+01
 0.4620284662684E+01
 0.4613016737378E+01
 0.4594643004256E+01
 0.4572082773946E+01
 0.4548640217309E+01
 0.4525837827574E+01
 0.4504339031435E+01
 0.4484404057836E+01
 0.4466112191782E+01
 0.4449465804980E+01
 0.4434432289045E+01
 0.4420949419029E+01
 0.4408903687014E+01
 0.4398080221558E+01
 0.4388082874630E+01
 0.4378237780281E+01
 0.4367537501422E+01
 0.4354717261609E+01
 0.4338509081132E+01
 0.4318032123135E+01
 0.4292811273161E+01
 0.4262238352719E+01
 0.4225016783646E+01
 0.4178901146638E+01
 0.4120740847341E+01
 0.4046679130937E+01
 0.3952364541822E+01
 0.3833289614295E+01
 0.3685716042252E+01
 0.3510424969351E+01
 0.3325127573828E+01
 0.3195124163358E+01
 0.3288586817472E+01
 0.3899888866119E+01
 0.5228038890747E+01
 0.6917520879678E+01
 0.3762489446548E+01
 0.4020112616435E+01
 0.4240657891409E+01
 0.4389511869248E+01
 0.4469129308013E+01
 0.4500294038439E+01
 0.4503353600198E+01
 0.4491913036939E+01
 0.4473691900558E+01
 0.4452775632467E+01
 0.4431258426047E+01
 0.4410183691723E+01
 0.4390048434658E+01
 0.4371067282333E+01
 0.4353305811297E+01
 0.4336740988181E+01
 0.4321277318900E+01
 0.4306731464807E+01
 0.4292788090532E+01
 0.4278932625450E+01
 0.4264381480976E+01
 0.4248061337017E+01
 0.4228699327652E+01
 0.4205041101607E+01
 0.4176179520135E+01
 0.4141561923326E+01
 0.4100511548040E+01
 0.4051743806939E+01
 0.3993147993028E+01
 0.3921860641760E+01
 0.3834537098108E+01
 0.3727769606014E+01
 0.3598888376536E+01
 0.3447757318169E+01
 0.3281864245317E+01
 0.3129754144531E+01
 0.3068347211955E+01
 0.3259033442441E+01
 0.3928601856778E+01
 0.5166015832973E+01
 0.6640901544095E+01
 0.3651321867035E+01
 0.3887809980010E+01
 0.4096629834740E+01
 0.4247047486380E+01
 0.4336322526523E+01
 0.4378763346491E+01
 0.4391279640971E+01
 0.4386677627162E+01
 0.4373004836362E+01
 0.4354902344617E+01
 0.4334942649175E+01
 0.4314515537298E+01
 0.4294347302104E+01
 0.4274791158309E+01
 0.4255983265551E+01
 0.4237919395124E+01
 0.4220481892540E+01
 0.4203432236117E+01
 0.4186375701364E+01
 0.4168709255341E+01
 0.4149576404060E+01
 0.4127872211011E+01
 0.4102337507635E+01
 0.4071744154859E+01
 0.4035176957809E+01
 0.3992038808216E+01
 0.3941631424430E+01
 0.3882744982371E+01
 0.3813493633370E+01
 0.3731436738711E+01
 0.3633943105139E+01
 0.3518823027280E+01
 0.3385544451952E+01
 0.3237711141457E+01
 0.3088923555330E+01
 0.2975869841355E+01
 0.2980453107400E+01
 0.3248216630870E+01
 0.3945002912153E+01
 0.5089934138953E+01
 0.6390549411585E+01
 0.3545308239941E+01
 0.3763220899706E+01
 0.3960254293929E+01
 0.4109502678321E+01
 0.4205195094865E+01
 0.4256665523663E+01
 0.4277549597244E+01
 0.4279448047120E+01
 0.4270351399919E+01
 0.4255231177687E+01
 0.4237028639911E+01
 0.4217432045515E+01
 0.4197379378120E+01
 0.4177359275537E+01
 0.4157582187195E+01
 0.4138070169686E+01
 0.4118694076579E+01
 0.4099175052277E+01
 0.4079059760113E+01
 0.4057684123667E+01
 0.4034149681676E+01
 0.4007346856204E+01
 0.3976047750316E+01
 0.3939063849730E+01
 0.3895493523484E+01
 0.3844731749746E+01
 0.3786108351681E+01
 0.3718550096799E+01
 0.3640476781509E+01
 0.3549981976784E+01
 0.3445297719671E+01
 0.3325624388531E+01
 0.3192680475656E+01
 0.3053632713672E+01
 0.2927187069779E+01
 0.2855396199217E+01
 0.2919887989882E+01
 0.3245805641957E+01
 0.3948317126900E+01
 0.5004449824821E+01
 0.6161637752684E+01
 0.3443405570106E+01
 0.3644892630240E+01
 0.3830462386371E+01
 0.3976723954409E+01
 0.4076280130839E+01
 0.4134739716510E+01
 0.4162813209579E+01
 0.4170704822522E+01
 0.4166063125298E+01
 0.4153986721192E+01
 0.4137671451917E+01
 0.4119047076398E+01
 0.4099237928386E+01
 0.4078859459535E+01
 0.4058196724343E+01
 0.4037303702858E+01
 0.4016049598699E+01
 0.3994129588802E+01
 0.3971051353967E+01
 0.3946114210309E+01
 0.3918403596044E+01
 0.3886827020931E+01
 0.3850202977950E+01
 0.3807396824641E+01
 0.3757543742949E+01
 0.3700067691847E+01
 0.3634374681175E+01
 0.3559584699270E+01
 0.3474490858119E+01
 0.3377804338732E+01
 0.3268715792883E+01
 0.3147889776836E+01
 0.3019248237107E+01
 0.2893122457667E+01
 0.2792140259661E+01
 0.2761188863891E+01
 0.2877802780398E+01
 0.3245468137911E+01
 0.3939430308559E+01
 0.4912885631765E+01
 0.5950440582251E+01
 0.3344836801847E+01
 0.3531705455907E+01
 0.3706327929556E+01
 0.3848424011255E+01
 0.3949864704946E+01
 0.4013526374767E+01
 0.4047610741264E+01
 0.4060883892034E+01
 0.4060461193769E+01
 0.4051398540990E+01
 0.4037036921639E+01
 0.4019486591000E+01
 0.4000027641364E+01
 0.3979389427981E+01
 0.3957928955551E+01
 0.3935735928844E+01
 0.3912686628902E+01
 0.3888463640100E+01
 0.3862553616978E+01
 0.3834240639919E+01
 0.3802615651443E+01
 0.3766621146052E+01
 0.3725135552239E+01
 0.3677092744252E+01
 0.3621688079691E+01
 0.3558409534637E+01
 0.3486783041794E+01
 0.3406170262295E+01
 0.3315789604020E+01
 0.3215023733500E+01
 0.3104064792841E+01
 0.2985029931448E+01
 0.2863875625192E+01
 0.2753571349914E+01
 0.2679473472016E+01
 0.2687172222963E+01
 0.2847606830647E+01
 0.3243505495948E+01
 0.3919856846692E+01
 0.4817593406536E+01
 0.5754024310643E+01
 0.3249011113508E+01
 0.3422786025322E+01
 0.3587061798553E+01
 0.3724256917757E+01
 0.3826067938952E+01
 0.3893405103854E+01
 0.3932378441335E+01
 0.3950369471315E+01
 0.3953847635118E+01
 0.3947693901087E+01
 0.3935296216622E+01
 0.3918884650596E+01
 0.3899861616180E+01
 0.3879054372564E+01
 0.3856886763664E+01
 0.3833486276307E+01
 0.3808743698131E+01
 0.3782341063865E+01
 0.3753760003296E+01
 0.3722287782393E+01
 0.3687038895063E+01
 0.3647005817208E+01
 0.3601139247309E+01
 0.3548456021318E+01
 0.3488233907475E+01
 0.3420056509492E+01
 0.3343607226734E+01
 0.3258527788494E+01
 0.3164496918870E+01
 0.3061593720228E+01
 0.2951007721479E+01
 0.2836228521033E+01
 0.2724996996235E+01
 0.2632343730576E+01
 0.2585250434926E+01
 0.2628321419988E+01
 0.2824504217697E+01
 0.3237890858969E+01
 0.3891239418819E+01
 0.4720256995551E+01
 0.5570037888984E+01
 0.3155471174375E+01
 0.3317445181081E+01
 0.3471997068066E+01
 0.3603861618921E+01
 0.3704897787532E+01
 0.3774629668192E+01
 0.3817459334831E+01
 0.3839492059539E+01
 0.3846499564245E+01
 0.3843092040889E+01
 0.3832621145220E+01
 0.3817379771397E+01
 0.3798858513603E+01
 0.3777964629840E+01
 0.3755181795733E+01
 0.3730675756927E+01
 0.3704357853630E+01
 0.3675920086845E+01
 0.3644853000170E+01
 0.3610462721606E+01
 0.3571902354234E+01
 0.3528227037875E+01
 0.3478470931912E+01
 0.3421747472340E+01
 0.3357436982003E+01
 0.3285245823351E+01
 0.3205045113265E+01
 0.3116784059968E+01
 0.3020619734536E+01
 0.2917326114753E+01
 0.2809046992776E+01
 0.2700514649082E+01
 0.2600959812124E+01
 0.2526901529587E+01
 0.2505983962396E+01
 0.2580569206266E+01
 0.2805076674824E+01
 0.3227617988032E+01
 0.3855111188702E+01
 0.4622130088505E+01
 0.5396565236220E+01
 0.3063857330819E+01
 0.3215133012011E+01
 0.3360571808032E+01
 0.3486886083479E+01
 0.3586291237541E+01
 0.3657357905523E+01
 0.3703116162580E+01
 0.3728530002344E+01
 0.3738666004948E+01
 0.3737799957087E+01
 0.3729180279279E+01
 0.3715111706763E+01
 0.3697139937026E+01
 0.3676233497482E+01
 0.3652927554806E+01
 0.3627425223209E+01
 0.3599663057652E+01
 0.3569351935779E+01
 0.3536003198302E+01
 0.3498955003696E+01
 0.3457411571934E+01
 0.3410501426728E+01
 0.3357352154701E+01
 0.3297186087192E+01
 0.3229503455475E+01
 0.3154155398094E+01
 0.3071223205943E+01
 0.2980979868361E+01
 0.2884062865724E+01
 0.2781916713341E+01
 0.2677566454531E+01
 0.2576825860317E+01
 0.2490105950890E+01
 0.2434880728747E+01
 0.2438653571660E+01
 0.2540680247723E+01
 0.2786941191027E+01
 0.3212275869614E+01
 0.3812766238527E+01
 0.4524224197211E+01
 0.5232004893408E+01
 0.2973882728649E+01
 0.3115406031726E+01
 0.3252312553736E+01
 0.3372999800289E+01
 0.3470142195026E+01
 0.3541676111359E+01
 0.3589544506613E+01
 0.3617713263371E+01
 0.3630566761754E+01
 0.3632009554976E+01
 0.3625135896753E+01
 0.3612218707285E+01
 0.3594828102694E+01
 0.3573975252124E+01
 0.3550237672310E+01
 0.3523853831705E+01
 0.3494788843898E+01
 0.3462779776951E+01
 0.3427368677543E+01
 0.3387936631241E+01
 0.3343749264200E+01
 0.3294017442631E+01
 0.3237970783578E+01
 0.3174951037763E+01
 0.3104592450204E+01
 0.3026907551080E+01
 0.2942202448620E+01
 0.2851079630311E+01
 0.2754644894203E+01
 0.2654970677012E+01
 0.2555869575157E+01
 0.2464059934831E+01
 0.2390829743290E+01
 0.2354132308102E+01
 0.2380688923547E+01
 0.2506119768556E+01
 0.2768473351268E+01
 0.3191822284620E+01
 0.3765106482374E+01
 0.4427485793488E+01
 0.5074967029728E+01
 0.2885315701441E+01
 0.3017902892990E+01
 0.3146819637095E+01
 0.3261899362720E+01
 0.3356320472384E+01
 0.3427618285901E+01
 0.3476884990923E+01
 0.3507228349801E+01
 0.3522392777246E+01
 0.3525895947665E+01
 0.3520641674925E+01
 0.3508835245041E+01
 0.3492043801320E+01
 0.3471303370391E+01
 0.3447224354281E+01
 0.3420077690167E+01
 0.3389859188211E+01
 0.3356337894632E+01
 0.3319094620328E+01
 0.3277562223378E+01
 0.3231076056545E+01
 0.3178936637696E+01
 0.3120482713319E+01
 0.3055183899999E+01
 0.2982819067100E+01
 0.2903573346693E+01
 0.2817984855380E+01
 0.2726981719942E+01
 0.2632114137328E+01
 0.2536026323919E+01
 0.2443212461942E+01
 0.2361115264251E+01
 0.2301616236154E+01
 0.2282738924042E+01
 0.2329933024635E+01
 0.2474934367835E+01
 0.2748581995787E+01
 0.3166477284403E+01
 0.3712661305039E+01
 0.4332437598096E+01
 0.4924279225030E+01
 0.2797968035583E+01
 0.2922336712180E+01
 0.3043773290895E+01
 0.3153338021311E+01
 0.3244722034447E+01
 0.3315227896661E+01
 0.3365289810587E+01
 0.3397287726070E+01
 0.3414379411966E+01
 0.3419696175237E+01
 0.3415928037797E+01
 0.3405184725777E+01
 0.3389006954742E+01
 0.3368439321568E+01
 0.3344115810483E+01
 0.3316336380760E+01
 0.3285128658387E+01
 0.3250298063996E+01
 0.3211470520916E+01
 0.3168137608693E+01
 0.3119710852786E+01
 0.3065585991503E+01
 0.3005216158110E+01
 0.2938204716911E+01
 0.2864481835155E+01
 0.2784410780411E+01
 0.2698761396553E+01
 0.2608774457172E+01
 0.2516410222695E+01
 0.2424818166593E+01
 0.2339061346125E+01
 0.2267130768099E+01
 0.2221244945607E+01
 0.2219157217946E+01
 0.2284701057677E+01
 0.2445697306581E+01
 0.2726655879773E+01
 0.3136508003699E+01
 0.3656745022503E+01
 0.4236129867003E+01
 0.4793228233139E+01
 0.2711685043066E+01
 0.2828461753140E+01
 0.2942886660800E+01
 0.3047069438381E+01
 0.3135202138076E+01
 0.3204475049690E+01
 0.3254820071636E+01
 0.3288006777202E+01
 0.3306664539331E+01
 0.3313550236954E+01
 0.3311127316770E+01
 0.3301389207857E+01
 0.3285830728066E+01
 0.3265490510033E+01
 0.3241017210511E+01
 0.3212735953133E+01
 0.3180706371525E+01
 0.3144773351356E+01
 0.3104612699893E+01
 0.3059779968543E+01
 0.3009767648676E+01
 0.2954070709402E+01
 0.2892260223992E+01
 0.2824076833228E+01
 0.2749605203421E+01
 0.2669387496424E+01
 0.2584419092596E+01
 0.2496233834862E+01
 0.2407161311411E+01
 0.2320785312586E+01
 0.2242626172663E+01
 0.2181059701060E+01
 0.2148417548948E+01
 0.2161910164787E+01
 0.2243531229336E+01
 0.2417318864016E+01
 0.2702314026083E+01
 0.3102402404369E+01
 0.3597496786742E+01
 0.4140808930480E+01
 0.4667376409912E+01
 0.2626333079761E+01
 0.2736060467936E+01
 0.2843893563071E+01
 0.2942843079025E+01
 0.3027578349416E+01
 0.3095263234463E+01
 0.3145452118309E+01
 0.3179407707698E+01
 0.3199289933862E+01
 0.3207500752456E+01
 0.3206272537999E+01
 0.3197467939819E+01
 0.3182520205059E+01
 0.3162449322732E+01
 0.3137910266059E+01
 0.3109249192144E+01
 0.3076557120834E+01
 0.3039720311574E+01
 0.2998467814554E+01
 0.2952422912470E+01
 0.2901162423395E+01
 0.2844283194262E+01
 0.2781476282345E+01
 0.2712621088878E+01
 0.2637957084694E+01
 0.2558202310623E+01
 0.2474567165538E+01
 0.2388854793091E+01
 0.2303720458463E+01
 0.2223111614384E+01
 0.2152900867362E+01
 0.2101702601242E+01
 0.2081771962090E+01
 0.2109564977406E+01
 0.2205111923637E+01
 0.2388888194701E+01
 0.2675299927854E+01
 0.3064378973106E+01
 0.3535440067917E+01
 0.4046166471073E+01
 0.4542662723019E+01
 0.2541801905392E+01
 0.2644959142912E+01
 0.2746583391085E+01
 0.2840462646988E+01
 0.2921713581434E+01
 0.2987533559012E+01
 0.3037198714642E+01
 0.3071554703489E+01
 0.3092349204038E+01
 0.3101653654070E+01
 0.3101471435172E+01
 0.3093525467062E+01
 0.3079175447258E+01
 0.3059412068330E+01
 0.3034889063125E+01
 0.3005969455762E+01
 0.2972774431093E+01
 0.2935232545861E+01
 0.2893128222490E+01
 0.2846154891157E+01
 0.2793975693590E+01
 0.2736290594868E+01
 0.2672911037605E+01
 0.2603854491343E+01
 0.2529512623136E+01
 0.2450772731688E+01
 0.2369045770415E+01
 0.2286376840537E+01
 0.2205701190156E+01
 0.2131260568006E+01
 0.2069182040029E+01
 0.2028188900134E+01
 0.2020301236758E+01
 0.2061064454741E+01
 0.2168503249792E+01
 0.2359819671897E+01
 0.2645536790202E+01
 0.3022827971685E+01
 0.3471048793382E+01
 0.3952195077995E+01
 0.4420581957132E+01
 0.2457997931605E+01
 0.2555009898337E+01
 0.2650774497983E+01
 0.2739753197014E+01
 0.2817477745445E+01
 0.2881220023944E+01
 0.2930056435277E+01
 0.2964492576755E+01
 0.2985917641107E+01
 0.2996099627451E+01
 0.2996819891173E+01
 0.2989657286814E+01
 0.2975889332986E+01
 0.2956468766950E+01
 0.2932041419145E+01
 0.2902983110339E+01
 0.2869443506255E+01
 0.2831393539323E+01
 0.2788674048061E+01
 0.2741049820567E+01
 0.2688271065145E+01
 0.2630140773330E+01
 0.2566589607875E+01
 0.2497770402478E+01
 0.2424221852945E+01
 0.2346990916215E+01
 0.2267671659302E+01
 0.2188521591031E+01
 0.2112709970202E+01
 0.2044706721424E+01
 0.1990804353944E+01
 0.1959722333895E+01
 0.1963116615085E+01
 0.2015514385322E+01
 0.2132957906355E+01
 0.2329696969311E+01
 0.2613046898447E+01
 0.2978109997148E+01
 0.3404742860420E+01
 0.3858951400214E+01
 0.4301167388387E+01
 0.2374840964783E+01
 0.2466085957930E+01
 0.2556309292380E+01
 0.2640558657092E+01
 0.2714748545241E+01
 0.2776252683664E+01
 0.2824009547868E+01
 0.2858250072648E+01
 0.2880054397072E+01
 0.2890915183469E+01
 0.2892402187189E+01
 0.2885949590951E+01
 0.2872747046341E+01
 0.2853702560200E+01
 0.2829448331107E+01
 0.2800369100265E+01
 0.2766640987627E+01
 0.2728276665581E+01
 0.2685173482895E+01
 0.2637167719451E+01
 0.2584096248173E+01
 0.2525863754895E+01
 0.2462517503884E+01
 0.2394341187476E+01
 0.2322013193442E+01
 0.2246728190184E+01
 0.2170243853458E+01
 0.2094999542193E+01
 0.2024353677574E+01
 0.1962942823398E+01
 0.1917145471920E+01
 0.1895581065929E+01
 0.1909439483201E+01
 0.1972164293672E+01
 0.2097886784087E+01
 0.2298235678934E+01
 0.2577909402956E+01
 0.2930559112575E+01
 0.3336855834055E+01
 0.3766362940227E+01
 0.4184247855837E+01
 0.2292261688570E+01
 0.2378077819562E+01
 0.2463050266525E+01
 0.2542739509347E+01
 0.2613411698273E+01
 0.2672559896903E+01
 0.2719033100498E+01
 0.2752842726232E+01
 0.2774804555540E+01
 0.2786163855018E+01
 0.2788291493493E+01
 0.2782479290731E+01
 0.2769825850998E+01
 0.2751189396556E+01
 0.2727183688755E+01
 0.2698198774546E+01
 0.2664434961505E+01
 0.2625945431933E+01
 0.2582683315912E+01
 0.2534555564962E+01
 0.2481484280301E+01
 0.2423473376410E+01
 0.2360682788765E+01
 0.2293521002466E+01
 0.2222796994505E+01
 0.2149839458885E+01
 0.2076548936878E+01
 0.2005516077385E+01
 0.1940245789854E+01
 0.1885485133661E+01
 0.1847628843478E+01
 0.1835115797995E+01
 0.1858592434062E+01
 0.1930388772767E+01
 0.2062830582876E+01
 0.2265250398749E+01
 0.2540236779276E+01
 0.2880474279819E+01
 0.3267621832784E+01
 0.3674332921664E+01
 0.4069613755701E+01
 0.2210199678629E+01
 0.2290890177799E+01
 0.2370876715858E+01
 0.2446170669996E+01
 0.2513360761602E+01
 0.2570069861042E+01
 0.2615095310038E+01
 0.2648275244641E+01
 0.2670200986911E+01
 0.2681897372343E+01
 0.2684550446988E+01
 0.2679314170885E+01
 0.2667194998684E+01
 0.2648997840486E+01
 0.2625314095593E+01
 0.2596535804212E+01
 0.2562885039786E+01
 0.2524453777811E+01
 0.2481249495101E+01
 0.2433248157724E+01
 0.2380454737043E+01
 0.2322968896668E+01
 0.2261058163406E+01
 0.2195248446231E+01
 0.2126468841810E+01
 0.2056167209186E+01
 0.1986365692535E+01
 0.1919776472670E+01
 0.1860011178406E+01
 0.1811877007857E+01
 0.1781724671165E+01
 0.1777746448856E+01
 0.1809989826002E+01
 0.1889670303437E+01
 0.2027435532440E+01
 0.2230629130264E+01
 0.2500158898033E+01
 0.2828112149846E+01
 0.3197207699153E+01
 0.3582774869883E+01
 0.3957051510115E+01
 0.2128601811715E+01
 0.2204439430886E+01
 0.2279682001701E+01
 0.2350739560834E+01
 0.2414496691250E+01
 0.2468711587115E+01
 0.2512159353047E+01
 0.2544543431345E+01
 0.2566265938882E+01
 0.2578156734309E+01
 0.2581231723627E+01
 0.2576513083257E+01
 0.2564915686790E+01
 0.2547188922088E+01
 0.2523898713807E+01
 0.2495436103619E+01
 0.2462042422184E+01
 0.2423846330282E+01
 0.2380907619698E+01
 0.2333268889196E+01
 0.2281014814487E+01
 0.2224336443792E+01
 0.2163602840302E+01
 0.2099448926865E+01
 0.2032912464375E+01
 0.1965544948731E+01
 0.1899468948794E+01
 0.1837489834062E+01
 0.1783289547525E+01
 0.1741690937296E+01
 0.1718949394031E+01
 0.1722957792087E+01
 0.1763128234453E+01
 0.1849583600627E+01
 0.1991432882781E+01
 0.2194313774912E+01
 0.2457811338727E+01
 0.2773690586290E+01
 0.3125739547339E+01
 0.3491617817416E+01
 0.3846355263669E+01
 0.2047420983339E+01
 0.2118651665841E+01
 0.2189371291402E+01
 0.2256344422716E+01
 0.2316727309693E+01
 0.2368415547446E+01
 0.2410184780361E+01
 0.2441635833240E+01
 0.2463012508737E+01
 0.2474973309115E+01
 0.2478378745359E+01
 0.2474126336488E+01
 0.2463041242128E+01
 0.2445816224500E+01
 0.2422989349231E+01
 0.2394947989455E+01
 0.2361950190966E+01
 0.2324158884573E+01
 0.2281683647883E+01
 0.2234630713018E+01
 0.2183160601088E+01
 0.2127550629334E+01
 0.2068264546628E+01
 0.2006037094689E+01
 0.1942002608956E+01
 0.1877800467266E+01
 0.1815633056720E+01
 0.1758372444834E+01
 0.1709738083086E+01
 0.1674529708837E+01
 0.1658864422677E+01
 0.1670294778567E+01
 0.1717577411275E+01
 0.1809781805461E+01
 0.1954622113198E+01
 0.2156285350372E+01
 0.2413328724210E+01
 0.2717396012830E+01
 0.3053318958240E+01
 0.3400804009453E+01
 0.3737331817854E+01
 0.1966615061069E+01
 0.2033460998880E+01
 0.2099859651007E+01
 0.2162892797856E+01
 0.2219966669157E+01
 0.2269114002090E+01
 0.2309128529027E+01
 0.2339535025148E+01
 0.2360445853569E+01
 0.2372369776863E+01
 0.2376026305623E+01
 0.2372196047406E+01
 0.2361617282282E+01
 0.2344925946946E+01
 0.2322630499506E+01
 0.2295112284465E+01
 0.2262643528112E+01
 0.2225418781824E+01
 0.2183594474056E+01
 0.2137336955787E+01
 0.2086878154845E+01
 0.2032575926187E+01
 0.1974981235903E+01
 0.1914918907368E+01
 0.1853607442200E+01
 0.1792758490206E+01
 0.1734634599045E+01
 0.1682150182504E+01
 0.1639033057757E+01
 0.1610026532657E+01
 0.1601074053221E+01
 0.1619357499540E+01
 0.1672971655725E+01
 0.1769984284741E+01
 0.1916857126621E+01
 0.2116552908038E+01
 0.2366841398953E+01
 0.2659390263464E+01
 0.2980031700524E+01
 0.3310285378876E+01
 0.3629802678698E+01
 0.1886146023934E+01
 0.1948808210845E+01
 0.2011070450455E+01
 0.2070300205076E+01
 0.2124134410735E+01
 0.2170741153560E+01
 0.2208945692290E+01
 0.2238218679484E+01
 0.2258564268890E+01
 0.2270361035169E+01
 0.2274201236189E+01
 0.2270756586515E+01
 0.2260682000727E+01
 0.2244557104483E+01
 0.2222859541251E+01
 0.2195962555915E+01
 0.2164150058540E+01
 0.2127645400924E+01
 0.2086648605267E+01
 0.2041382208700E+01
 0.1992144637916E+01
 0.1939368071710E+01
 0.1883682778423E+01
 0.1825993607132E+01
 0.1767590773604E+01
 0.1710243037363E+01
 0.1656254674003E+01
 0.1608560391041E+01
 0.1570870827619E+01
 0.1547844611453E+01
 0.1545223036032E+01
 0.1569796211964E+01
 0.1629001905934E+01
 0.1729966114335E+01
 0.1878035121139E+01
 0.2075145499619E+01
 0.2318474122388E+01
 0.2599816030800E+01
 0.2905952530639E+01
 0.3220021019446E+01
 0.3523604988636E+01
 0.1805979250797E+01
 0.1864639613943E+01
 0.1922934017799E+01
 0.1978488975619E+01
 0.2029155129047E+01
 0.2073233164529E+01
 0.2109590079305E+01
 0.2137660429454E+01
 0.2157360115015E+01
 0.2168955022893E+01
 0.2172923054286E+01
 0.2169835047431E+01
 0.2160266500587E+01
 0.2144741786189E+01
 0.2123706975099E+01
 0.2097525404517E+01
 0.2066490231756E+01
 0.2030850673248E+01
 0.1990846841964E+01
 0.1946753201401E+01
 0.1898929406219E+01
 0.1847875390407E+01
 0.1794292523440E+01
 0.1739155505624E+01
 0.1683814004031E+01
 0.1630079410658E+01
 0.1580280709558E+01
 0.1537353208365E+01
 0.1504968271274E+01
 0.1487676244497E+01
 0.1490993907188E+01
 0.1521306510619E+01
 0.1585408562034E+01
 0.1689549081529E+01
 0.1838087686087E+01
 0.2032106397741E+01
 0.2268345746609E+01
 0.2538800883117E+01
 0.2831147961023E+01
 0.3129975652374E+01
 0.3418591742560E+01
 0.1726082924306E+01
 0.1780906097568E+01
 0.1835386487234E+01
 0.1887387216092E+01
 0.1934957740869E+01
 0.1976528058588E+01
 0.2011014585796E+01
 0.2037830531631E+01
 0.2056820575149E+01
 0.2068153426056E+01
 0.2072204539934E+01
 0.2069451681540E+01
 0.2060395113393E+01
 0.2045505404981E+01
 0.2025196659256E+01
 0.1999820731885E+01
 0.1969677667166E+01
 0.1935039542449E+01
 0.1896182881837E+01
 0.1853429573299E+01
 0.1807194965714E+01
 0.1758039944923E+01
 0.1706728640761E+01
 0.1654295486510E+01
 0.1602137718029E+01
 0.1552095745141E+01
 0.1506507767675E+01
 0.1468292341752E+01
 0.1441062697644E+01
 0.1429241514204E+01
 0.1438104126968E+01
 0.1473624657474E+01
 0.1541974972936E+01
 0.1648593977029E+01
 0.1796973646896E+01
 0.1987488858463E+01
 0.2216569247394E+01
 0.2476460082825E+01
 0.2755677905963E+01
 0.3040118659407E+01
 0.3314631343897E+01
 0.1646427531405E+01
 0.1697562330962E+01
 0.1748368828281E+01
 0.1796927914585E+01
 0.1841474912423E+01
 0.1880565591500E+01
 0.1913171481001E+01
 0.1938696437350E+01
 0.1956928351943E+01
 0.1967952369819E+01
 0.1972052347918E+01
 0.1969620406920E+01
 0.1961085819520E+01
 0.1946867065116E+01
 0.1927346167626E+01
 0.1902862132721E+01
 0.1873719619245E+01
 0.1840210535223E+01
 0.1802644022075E+01
 0.1761384726488E+01
 0.1716897987959E+01
 0.1669798716297E+01
 0.1620905451636E+01
 0.1571302446350E+01
 0.1522423154107E+01
 0.1476124374994E+01
 0.1434739611498E+01
 0.1401155585832E+01
 0.1378911532477E+01
 0.1372286863885E+01
 0.1386303308583E+01
 0.1426523299456E+01
 0.1498521727882E+01
 0.1606994165804E+01
 0.1754673455091E+01
 0.1941353121534E+01
 0.2163252043124E+01
 0.2412898783047E+01
 0.2679597010274E+01
 0.2950423761509E+01
 0.3211607117988E+01
 0.1566985439313E+01
 0.1614566080348E+01
 0.1661826002703E+01
 0.1707048138997E+01
 0.1748642504347E+01
 0.1785287058383E+01
 0.1816012571886E+01
 0.1840223218742E+01
 0.1857662227209E+01
 0.1868342999518E+01
 0.1872467538286E+01
 0.1870349259833E+01
 0.1862350625998E+01
 0.1848839892433E+01
 0.1830167108077E+01
 0.1806657238302E+01
 0.1778617380456E+01
 0.1746356252525E+01
 0.1710211761350E+01
 0.1670586554058E+01
 0.1627990172134E+01
 0.1583084595883E+01
 0.1536734529547E+01
 0.1490064456934E+01
 0.1444533344524E+01
 0.1402002821222E+01
 0.1364789363647E+01
 0.1335734936337E+01
 0.1318291658991E+01
 0.1316583454176E+01
 0.1335370421243E+01
 0.1379807435775E+01
 0.1454901556293E+01
 0.1564670127567E+01
 0.1711184675779E+01
 0.1893764156026E+01
 0.2108496295309E+01
 0.2348213611957E+01
 0.2602955583197E+01
 0.2860868759133E+01
 0.3109416430952E+01
 0.1487730533751E+01
 0.1531877627340E+01
 0.1575706241457E+01
 0.1617688337209E+01
 0.1656399068646E+01
 0.1690635094549E+01
 0.1719489318091E+01
 0.1742373929855E+01
 0.1758997566492E+01
 0.1769312031871E+01
 0.1773446106990E+01
 0.1771640873060E+01
 0.1764195990700E+01
 0.1751431422480E+01
 0.1733665502858E+01
 0.1711208120483E+01
 0.1684366738299E+01
 0.1653463904528E+01
 0.1618862431492E+01
 0.1580998180057E+01
 0.1540419095931E+01
 0.1497827337614E+01
 0.1454125726543E+01
 0.1410469813043E+01
 0.1368334098763E+01
 0.1329574587211E+01
 0.1296479954241E+01
 0.1271836507727E+01
 0.1258998622081E+01
 0.1261925495460E+01
 0.1285111137156E+01
 0.1333310759179E+01
 0.1410994887989E+01
 0.1521564915231E+01
 0.1666518431360E+01
 0.1844790036162E+01
 0.2052399279795E+01
 0.2282493978203E+01
 0.2525800443772E+01
 0.2771435455886E+01
 0.3007969805086E+01
 0.1408637908420E+01
 0.1449459267290E+01
 0.1489960416460E+01
 0.1528791718131E+01
 0.1564685386714E+01
 0.1596553468511E+01
 0.1623552899880E+01
 0.1645109902011E+01
 0.1660906759634E+01
 0.1670842257706E+01
 0.1674979488809E+01
 0.1673492945831E+01
 0.1666623252253E+01
 0.1654644002068E+01
 0.1637842184005E+01
 0.1616511706992E+01
 0.1590958435622E+01
 0.1561515837184E+01
 0.1528567805702E+01
 0.1492578657398E+01
 0.1454129001828E+01
 0.1413954418605E+01
 0.1372988076507E+01
 0.1332407923047E+01
 0.1293694797204E+01
 0.1258689740637E+01
 0.1229644350616E+01
 0.1209280258600E+01
 0.1200845706151E+01
 0.1208128563039E+01
 0.1235355314698E+01
 0.1286892334333E+01
 0.1366705984227E+01
 0.1477640366017E+01
 0.1620696579321E+01
 0.1794500756285E+01
 0.1995053769060E+01
 0.2215823145859E+01
 0.2448175643865E+01
 0.2682109597855E+01
 0.2907189975912E+01
 0.1329683594828E+01
 0.1367274870119E+01
 0.1404541486546E+01
 0.1440303696774E+01
 0.1473444040181E+01
 0.1502986867749E+01
 0.1528154244461E+01
 0.1548390978050E+01
 0.1563359596939E+01
 0.1572912988762E+01
 0.1577055018174E+01
 0.1575898685277E+01
 0.1569629041431E+01
 0.1558475177188E+01
 0.1542693174829E+01
 0.1522560177901E+01
 0.1498378603275E+01
 0.1470490018874E+01
 0.1439295651465E+01
 0.1405283591908E+01
 0.1369061487493E+01
 0.1331391778390E+01
 0.1293230548693E+01
 0.1255770020608E+01
 0.1220488980280E+01
 0.1189205275646E+01
 0.1164125571433E+01
 0.1147899533764E+01
 0.1143662895829E+01
 0.1155027896485E+01
 0.1185954602073E+01
 0.1240433568254E+01
 0.1321959546640E+01
 0.1432873912725E+01
 0.1573749438240E+01
 0.1742967336546E+01
 0.1936548374829E+01
 0.2148279090508E+01
 0.2370123022964E+01
 0.2592880719609E+01
 0.2807010831956E+01
 0.1250844326767E+01
 0.1285289497853E+01
 0.1319404015104E+01
 0.1352171409756E+01
 0.1382619034422E+01
 0.1409880711046E+01
 0.1433244055526E+01
 0.1452175736853E+01
 0.1466323635017E+01
 0.1475500503167E+01
 0.1479656402516E+01
 0.1478847274696E+01
 0.1473205731074E+01
 0.1462918127130E+01
 0.1448210120892E+01
 0.1429341410750E+01
 0.1406609236885E+01
 0.1380360563331E+01
 0.1351010308736E+01
 0.1319065777450E+01
 0.1285156189805E+01
 0.1250064531099E+01
 0.1214762751169E+01
 0.1180449803180E+01
 0.1148594845406E+01
 0.1120985374131E+01
 0.1099776608916E+01
 0.1087540547916E+01
 0.1087295839511E+01
 0.1102476790628E+01
 0.1136780248580E+01
 0.1193835529707E+01
 0.1276697818859E+01
 0.1387255967037E+01
 0.1525714022705E+01
 0.1690261228497E+01
 0.1876967949242E+01
 0.2079935295138E+01
 0.2291682745096E+01
 0.2503742041441E+01
 0.2707376466409E+01
 0.1172097331771E+01
 0.1203469063434E+01
 0.1234503739401E+01
 0.1264343280979E+01
 0.1292155457499E+01
 0.1317180973745E+01
 0.1338772833514E+01
 0.1356421693081E+01
 0.1369764531348E+01
 0.1378578460815E+01
 0.1382764171157E+01
 0.1382324324081E+01
 0.1377341873577E+01
 0.1367962088645E+01
 0.1354380710159E+01
 0.1336839410656E+01
 0.1315628651371E+01
 0.1291098220265E+01
 0.1263673223152E+01
 0.1233875770797E+01
 0.1202351390755E+01
 0.1169897579471E+01
 0.1137495514975E+01
 0.1106343931472E+01
 0.1077895590634E+01
 0.1053901510642E+01
 0.1036460209077E+01
 0.1028061763865E+01
 0.1031604767858E+01
 0.1050345024394E+01
 0.1087721057637E+01
 0.1147016530843E+01
 0.1230878062643E+01
 0.1340787724686E+01
 0.1476632627862E+01
 0.1636453888672E+01
 0.1816393954778E+01
 0.2010861405543E+01
 0.2212893696063E+01
 0.2414690262542E+01
 0.2608240170683E+01
 0.1093420144775E+01
 0.1121780025566E+01
 0.1149797188298E+01
 0.1176768640345E+01
 0.1201999186734E+01
 0.1224834047956E+01
 0.1244690916492E+01
 0.1261085506568E+01
 0.1273646383362E+01
 0.1282118323735E+01
 0.1286356133384E+01
 0.1286312335354E+01
 0.1282022657953E+01
 0.1273592802620E+01
 0.1261189116080E+01
 0.1245034761095E+01
 0.1225411951235E+01
 0.1202670874307E+01
 0.1177243477580E+01
 0.1149662452318E+01
 0.1120584594191E+01
 0.1090816182627E+01
 0.1061341414061E+01
 0.1033352448205E+01
 0.1008279666532E+01
 0.9878324650569E+00
 0.9740485751069E+00
 0.9693332288004E+00
 0.9764634249939E+00
 0.9985173747846E+00
 0.1038681513090E+01
 0.1099909980096E+01
 0.1184470389580E+01
 0.1293479351477E+01
 0.1426551725341E+01
 0.1581616516821E+01
 0.1754904847306E+01
 0.1941123816560E+01
 0.2133793811247E+01
 0.2325725322357E+01
 0.2509563463399E+01
 0.1014790439505E+01
 0.1040189113279E+01
 0.1065241343339E+01
 0.1089397395495E+01
 0.1112096650507E+01
 0.1132786653158E+01
 0.1150948562789E+01
 0.1166123224910E+01
 0.1177932094947E+01
 0.1186089801712E+01
 0.1190407862485E+01
 0.1190791195827E+01
 0.1187230397521E+01
 0.1179792992859E+01
 0.1168616472630E+01
 0.1153905104551E+01
 0.1135931526534E+01
 0.1115044063289E+01
 0.1091678334369E+01
 0.1066373586323E+01
 0.1039793088685E+01
 0.1012746494350E+01
 0.9862152391401E+00
 0.9613791356236E+00
 0.9396409569501E+00
 0.9226642644976E+00
 0.9124230153630E+00
 0.9112358882221E+00
 0.9217580275985E+00
 0.9468922233589E+00
 0.9895800739119E+00
 0.1052462483575E+01
 0.1137455903990E+01
 0.1245348490457E+01
 0.1375521115406E+01
 0.1525819930464E+01
 0.1692576475977E+01
 0.1870786206655E+01
 0.2054420343207E+01
 0.2236850132022E+01
 0.2411315157883E+01
 0.9361858735342E+00
 0.9586630750143E+00
 0.9807933407062E+00
 0.1002179760749E+01
 0.1022394658397E+01
 0.1040985818783E+01
 0.1057496102765E+01
 0.1071490588747E+01
 0.1082583798593E+01
 0.1090461347869E+01
 0.1094893226176E+01
 0.1095738716242E+01
 0.1092945061356E+01
 0.1086542887925E+01
 0.1076641391221E+01
 0.1063425662793E+01
 0.1047157584867E+01
 0.1028181527173E+01
 0.1006933800805E+01
 0.9839563946789E+00
 0.9599145110289E+00
 0.9356160867354E+00
 0.9120344400698E+00
 0.8903318254799E+00
 0.8718789009756E+00
 0.8582900650501E+00
 0.8514735445163E+00
 0.8536608834410E+00
 0.8673862536492E+00
 0.8953802502198E+00
 0.9403476216346E+00
 0.1004632163721E+01
 0.1089825107885E+01
 0.1196419029728E+01
 0.1323593280107E+01
 0.1469134542485E+01
 0.1629482491143E+01
 0.1799910021270E+01
 0.1974810060886E+01
 0.2148070257146E+01
 0.2313470441973E+01
 0.8575839436548E+00
 0.8771684502456E+00
 0.8964102190846E+00
 0.9150660601462E+00
 0.9328403304262E+00
 0.9493789818725E+00
 0.9642842109503E+00
 0.9771434541210E+00
 0.9875633865515E+00
 0.9952007539829E+00
 0.9997850085616E+00
 0.1001131254208E+01
 0.9991448870149E+00
 0.9938208216619E+00
 0.9852405544111E+00
 0.9735698321920E+00
 0.9590587560134E+00
 0.9420458259974E+00
 0.9229652578716E+00
 0.9023581851138E+00
 0.8808874520770E+00
 0.8593544998283E+00
 0.8387195745360E+00
 0.8201226947942E+00
 0.8048985838483E+00
 0.7946099954394E+00
 0.7910984550595E+00
 0.7965088457457E+00
 0.8132562697231E+00
 0.8439032184845E+00
 0.8909260539646E+00
 0.9563871749366E+00
 0.1041576532789E+01
 0.1146720087600E+01
 0.1270822900638E+01
 0.1411630425519E+01
 0.1565694767153E+01
 0.1728554922630E+01
 0.1894999392602E+01
 0.2059393554298E+01
 0.2216009964798E+01
 0.7789618492060E+00
 0.7956713684406E+00
 0.8120487341923E+00
 0.8280066485258E+00
 0.8433811943217E+00
 0.8579142899004E+00
 0.8712644026278E+00
 0.8830384421907E+00
 0.8928332612526E+00
 0.9002759520860E+00
 0.9050557252447E+00
 0.9069445201635E+00
 0.9058071686409E+00
 0.9016040051689E+00
 0.8943894797184E+00
 0.8843099492751E+00
 0.8716028673857E+00
 0.8565991282684E+00
 0.8397282566472E+00
 0.8215271401045E+00
 0.8026522101468E+00
 0.7838939185924E+00
 0.7661948569693E+00
 0.7506686306729E+00
 0.7386108677032E+00
 0.7315310215526E+00
 0.7312039087417E+00
 0.7396892308303E+00
 0.7592858365328E+00
 0.7923928842915E+00
 0.8412670518294E+00
 0.9077044319928E+00
 0.9927156027448E+00
 0.1096285215162E+01
 0.1217266548426E+01
 0.1353377495579E+01
 0.1501283899902E+01
 0.1656779284310E+01
 0.1815024592803E+01
 0.1970829834958E+01
 0.2118919007747E+01
 0.7002963607721E+00
 0.7141373802034E+00
 0.7276652699384E+00
 0.7409520170700E+00
 0.7539655550182E+00
 0.7665412422204E+00
 0.7783899035339E+00
 0.7891339661435E+00
 0.7983574456255E+00
 0.8056561481217E+00
 0.8106787410085E+00
 0.8131546603126E+00
 0.8129093027514E+00
 0.8098695439025E+00
 0.8040635218201E+00
 0.7956182923325E+00
 0.7847579556342E+00
 0.7718042357224E+00
 0.7571795484458E+00
 0.7414133306231E+00
 0.7251517505490E+00
 0.7091700247272E+00
 0.6943888380802E+00
 0.6818916724326E+00
 0.6729325463183E+00
 0.6689667946281E+00
 0.6717034962426E+00
 0.6831196354583E+00
 0.7054014337409E+00
 0.7407899726236E+00
 0.7913309550131E+00
 0.8585684757495E+00
 0.9432536398719E+00
 0.1045151717750E+01
 0.1162982449814E+01
 0.1294445721982E+01
 0.1436319696504E+01
 0.1584640648224E+01
 0.1734921828133E+01
 0.1882390413293E+01
 0.2022186572333E+01
 0.6215636943604E+00
 0.6325313529389E+00
 0.6432159436117E+00
 0.6538532688632E+00
 0.6645434115255E+00
 0.6752120160215E+00
 0.6856172801147E+00
 0.6953920358930E+00
 0.7041034464478E+00
 0.7113136624780E+00
 0.7166300437456E+00
 0.7197399514527E+00
 0.7204304129664E+00
 0.7185960133037E+00
 0.7142394242775E+00
 0.7074686324120E+00
 0.6984938328791E+00
 0.6876261687599E+00
 0.6752786767649E+00
 0.6619702811108E+00
 0.6483331869625E+00
 0.6351233164913E+00
 0.6232354728251E+00
 0.6137197431974E+00
 0.6077866868029E+00
 0.6068376026399E+00
 0.6125178552417E+00
 0.6267251734788E+00
 0.6515374792715E+00
 0.6890432944928E+00
 0.7410858180454E+00
 0.8089705391801E+00
 0.8932070666081E+00
 0.9933601468840E+00
 0.1108030384660E+01
 0.1234905446905E+01
 0.1370871776148E+01
 0.1512196299014E+01
 0.1654727349376E+01
 0.1794087695375E+01
 0.1925804533625E+01
 0.5427393949691E+00
 0.5508174960100E+00
 0.5586571068943E+00
 0.5666633528144E+00
 0.5750684974387E+00
 0.5838841964740E+00
 0.5929096260200E+00
 0.6017816479043E+00
 0.6100456444174E+00
 0.6172271945480E+00
 0.6228913304526E+00
 0.6266837086908E+00
 0.6283541117880E+00
 0.6277661216593E+00
 0.6248979326357E+00
 0.6198388389383E+00
 0.6127847129355E+00
 0.6040348201901E+00
 0.5939906372161E+00
 0.5831575797330E+00
 0.5721502487539E+00
 0.5617013073430E+00
 0.5526759098712E+00
 0.5460879080754E+00
 0.5431032957426E+00
 0.5450704784994E+00
 0.5535743477566E+00
 0.5704378931503E+00
 0.5976356281491E+00
 0.6371089979803E+00
 0.6905066390113E+00
 0.7589077977513E+00
 0.8425967763050E+00
 0.9409539239516E+00
 0.1052471675522E+01
 0.1174827776372E+01
 0.1305010264220E+01
 0.1439503963845E+01
 0.1574477753705E+01
 0.1705934757527E+01
 0.1829766801357E+01
 0.4637982412711E+00
 0.4689596814258E+00
 0.4739467482732E+00
 0.4793400272776E+00
 0.4855028859090E+00
 0.4925267067593E+00
 0.5002432816283E+00
 0.5082857535751E+00
 0.5161721071669E+00
 0.5233882549494E+00
 0.5294559867298E+00
 0.5339798433544E+00
 0.5366737232199E+00
 0.5373717037797E+00
 0.5360286626906E+00
 0.5327157081940E+00
 0.5276140558901E+00
 0.5210098304482E+00
 0.5132907445200E+00
 0.5049456344630E+00
 0.4965677563418E+00
 0.4888624960652E+00
 0.4826617143622E+00
 0.4789406545348E+00
 0.4788205876508E+00
 0.4835995651629E+00
 0.4948067892597E+00
 0.5141961920668E+00
 0.5436441146345E+00
 0.5849499326941E+00
 0.6395747443046E+00
 0.7083827766818E+00
 0.7914476279577E+00
 0.8879790354029E+00
 0.9963691940020E+00
 0.1114284963251E+01
 0.1238806516032E+01
 0.1366622614249E+01
 0.1494210321267E+01
 0.1617944828829E+01
 0.1734068326964E+01
 0.3847142154512E+00
 0.3869225439140E+00
 0.3890482438143E+00
 0.3918533363314E+00
 0.3958282980011E+00
 0.4011340967689E+00
 0.4076237484564E+00
 0.4149174843273E+00
 0.4225001894364E+00
 0.4298156624647E+00
 0.4363423710514E+00
 0.4416450555476E+00
 0.4454036151469E+00
 0.4474244542754E+00
 0.4476404769847E+00
 0.4461051775273E+00
 0.4429847449543E+00
 0.4385507610766E+00
 0.4331747232561E+00
 0.4273254702466E+00
 0.4215707808262E+00
 0.4165844448008E+00
 0.4131614045413E+00
 0.4122365486839E+00
 0.4148876957714E+00
 0.4223671730017E+00
 0.4361554297664E+00
 0.4579443545899E+00
 0.4895172781258E+00
 0.5325352994240E+00
 0.5882775111534E+00
 0.6574030863884E+00
 0.7397882201371E+00
 0.8344839438510E+00
 0.9397875243485E+00
 0.1053350924829E+01
 0.1172334047947E+01
 0.1293613644287E+01
 0.1413963787236E+01
 0.1530130974354E+01
 0.1638704218924E+01
 0.3054606753476E+00
 0.3046748728487E+00
 0.3039411176754E+00
 0.3042067459692E+00
 0.3060778644923E+00
 0.3097663547981E+00
 0.3151295116954E+00
 0.3217641523819E+00
 0.3291180988623E+00
 0.3365934532471E+00
 0.3436279081641E+00
 0.3497495684821E+00
 0.3546072902663E+00
 0.3579821268819E+00
 0.3597864604058E+00
 0.3600565975380E+00
 0.3589429849799E+00
 0.3567007171150E+00
 0.3536818764808E+00
 0.3503309607467E+00
 0.3471851632538E+00
 0.3448816147981E+00
 0.3441746506273E+00
 0.3459581781862E+00
 0.3512703934086E+00
 0.3613260877448E+00
 0.3775671896783E+00
 0.4016320501580E+00
 0.4352151476002E+00
 0.4798405219099E+00
 0.5366083798961E+00
 0.6059814116554E+00
 0.6876508275370E+00
 0.7805195578206E+00
 0.8827930858952E+00
 0.9921016411072E+00
 0.1105669383856E+01
 0.1220542199572E+01
 0.1333779430261E+01
 0.1442505720249E+01
 0.1543668490127E+01
 0.2260112805283E+00
 0.2222014280921E+00
 0.2186582646862E+00
 0.2165110646243E+00
 0.2164479806394E+00
 0.2186888472487E+00
 0.2230644134121E+00
 0.2291375001046E+00
 0.2363236142456E+00
 0.2439942202157E+00
 0.2515571609516E+00
 0.2585121096352E+00
 0.2644821409365E+00
 0.2692258433413E+00
 0.2726361241831E+00
 0.2747315875075E+00
 0.2756449066809E+00
 0.2756110696750E+00
 0.2749574982070E+00
 0.2740976769698E+00
 0.2735308214875E+00
 0.2738507603867E+00
 0.2757676079935E+00
 0.2801363192869E+00
 0.2879647418042E+00
 0.3004451820883E+00
 0.3189967223905E+00
 0.3452139532492E+00
 0.3807033222392E+00
 0.4268477006137E+00
 0.4845675392825E+00
 0.5541360928600E+00
 0.6350717802879E+00
 0.7261395008719E+00
 0.8254544372845E+00
 0.9306156208390E+00
 0.1038892958880E+01
 0.1147478934542E+01
 0.1253703094481E+01
 0.1355081207212E+01
 0.1448952675820E+01
 0.1463446626821E+00
 0.1395585124044E+00
 0.1334688805071E+00
 0.1293619468862E+00
 0.1278812178284E+00
 0.1291015493626E+00
 0.1327376169486E+00
 0.1383191731103E+00
 0.1452855670784E+00
 0.1530420111199E+00
 0.1610134730300E+00
 0.1686968487607E+00
 0.1756995521891E+00
 0.1817589363267E+00
 0.1867451421488E+00
 0.1906533227593E+00
 0.1935907610735E+00
 0.1957627695930E+00
 0.1974604890267E+00
 0.1990532123029E+00
 0.2009890992389E+00
 0.2038089049103E+00
 0.2081765305411E+00
 0.2149180177682E+00
 0.2250338987548E+00
 0.2397239985859E+00
 0.2604094140321E+00
 0.2886494427779E+00
 0.3259532897449E+00
 0.3735470411926E+00
 0.4321636904003E+00
 0.5018925876963E+00
 0.5820924429505E+00
 0.6714007382624E+00
 0.7678427711499E+00
 0.8689743711317E+00
 0.9720898243533E+00
 0.1074501956013E+01
 0.1173788499177E+01
 0.1267870312924E+01
 0.1354544036745E+01
 0.6648476260844E-01
 0.5741815631934E-01
 0.5093343346676E-01
 0.4842781965137E-01
 0.4922558807277E-01
 0.5177934977615E-01
 0.5516322147522E-01
 0.5927682603203E-01
 0.6433249367955E-01
 0.7039710187481E-01
 0.7725088267609E-01
 0.8448733020462E-01
 0.9167267573241E-01
 0.9845606817743E-01
 0.1046156713304E+00
 0.1100633498749E+00
 0.1148303202638E+00
 0.1190473349338E+00
 0.1229276305568E+00
 0.1267582499687E+00
 0.1309059184163E+00
 0.1358434020453E+00
 0.1421981948298E+00
 0.1508076044687E+00
 0.1627295908775E+00
 0.1792373498041E+00
 0.2017901378348E+00
 0.2319023470297E+00
 0.2709436270737E+00
 0.3199402407106E+00
 0.3794178002171E+00
 0.4492864183056E+00
 0.5287611200237E+00
 0.6163646904192E+00
 0.7100326411192E+00
 0.8072628827908E+00
 0.9053498185177E+00
 0.1001698296267E+01
 0.1094102230399E+01
 0.1180889938896E+01
 0.1260422792452E+01
 0.1484090272553E-01
 0.3212591001549E-01
 0.4907582199604E-01
 0.6321856907849E-01
 0.7308956782347E-01
 0.7820171367327E-01
 0.7888767767549E-01
 0.7603346571376E-01
 0.7081031676503E-01
 0.6446977316483E-01
 0.5820852303430E-01
 0.5306185752834E-01
 0.4976840654796E-01
 0.4861502238602E-01
 0.4939945581002E-01
 0.5161255411597E-01
 0.5470746765653E-01
 0.5826941816529E-01
 0.6206264490669E-01
 0.6602731999814E-01
 0.7028683624685E-01
 0.7519114494132E-01
 0.8139173631859E-01
 0.8990292620607E-01
 0.1020499419147E+00
 0.1193156998460E+00
 0.1431746492003E+00
 0.1749410902533E+00
 0.2156638858823E+00
 0.2660488333964E+00
 0.3263713468416E+00
 0.3963692497318E+00
 0.4751369132198E+00
 0.5610994842970E+00
 0.6521033739932E+00
 0.7455707267657E+00
 0.8387674809987E+00
 0.9291639191246E+00
 0.1014730989726E+01
 0.1094170033785E+01
 0.1166558199250E+01
 0.9470813092693E-01
 0.1136737577789E+00
 0.1325460144405E+00
 0.1484507408060E+00
 0.1595415674182E+00
 0.1651389827148E+00
 0.1655183457856E+00
 0.1615555158261E+00
 0.1543860979446E+00
 0.1451560088788E+00
 0.1348758143338E+00
 0.1243568457648E+00
 0.1141983264689E+00
 0.1047995285188E+00
 0.9637989266187E-01
 0.8899863813413E-01
 0.8257244553885E-01
 0.7689513860208E-01
 0.7166586585281E-01
 0.6653652194008E-01
 0.6119776400237E-01
 0.5555308665267E-01
 0.5010528961541E-01
 0.4673924596055E-01
 0.4934396562291E-01
 0.6176339819367E-01
 0.8481214019557E-01
 0.1177397226065E+00
 0.1601269566799E+00
 0.2119357679210E+00
 0.2731046630758E+00
 0.3432210286522E+00
 0.4212968396632E+00
 0.5056838610506E+00
 0.5941410875997E+00
 0.6839937837322E+00
 0.7724422455578E+00
 0.8569991576937E+00
 0.9357883774645E+00
 0.1007775227443E+01
 0.1072902631109E+01
 0.1756359589762E+00
 0.1981228129512E+00
 0.2201114317624E+00
 0.2385073248102E+00
 0.2513240692973E+00
 0.2578754675520E+00
 0.2585312944070E+00
 0.2542984854920E+00
 0.2464297291731E+00
 0.2361504756220E+00
 0.2245106295554E+00
 0.2123283903123E+00
 0.2001879394614E+00
 0.1884616000205E+00
 0.1773384965693E+00
 0.1668507056319E+00
 0.1568937392330E+00
 0.1472419484090E+00
 0.1375601451301E+00
 0.1274147737374E+00
 0.1162870895233E+00
 0.1035914813872E+00
 0.8870916350691E-01
 0.7108509695448E-01
 0.5061891651358E-01
 0.2998327584672E-01
 0.2932366747297E-01
 0.6028667622283E-01
 0.1044223153025E+00
 0.1577725731148E+00
 0.2197829260928E+00
 0.2899763747439E+00
 0.3673499905646E+00
 0.4502146197414E+00
 0.5362425458723E+00
 0.6226363044264E+00
 0.7064829229393E+00
 0.7852978710147E+00
 0.8574087427299E+00
 0.9218593596190E+00
 0.9793774573070E+00
 0.2570318652741E+00
 0.2834895010541E+00
 0.3090257694045E+00
 0.3302031889057E+00
 0.3448859092882E+00
 0.3524295301419E+00
 0.3533597768578E+00
 0.3488657688522E+00
 0.3403519336723E+00
 0.3291452249998E+00
 0.3163508277555E+00
 0.3028092755228E+00
 0.2891077290081E+00
 0.2756125942687E+00
 0.2625052237503E+00
 0.2498125181421E+00
 0.2374301008188E+00
 0.2251391811777E+00
 0.2126182961177E+00
 0.1994530622792E+00
 0.1851453576752E+00
 0.1691216268248E+00
 0.1507398649152E+00
 0.1293034524792E+00
 0.1041124247392E+00
 0.7447180185143E-01
 0.3966276521905E-01
 0.3593875590557E-02
 0.4913523182326E-01
 0.1041164238903E+00
 0.1667905191403E+00
 0.2368870110814E+00
 0.3134670767453E+00
 0.3948205314305E+00
 0.4785230079347E+00
 0.5616129237737E+00
 0.6410140827030E+00
 0.7141548960997E+00
 0.7796646819009E+00
 0.8368006856622E+00
 0.8858921204745E+00
 0.3389200966459E+00
 0.3696859650725E+00
 0.3990510420482E+00
 0.4231554054554E+00
 0.4397101248233E+00
 0.4481588325472E+00
 0.4492404427895E+00
 0.4443699111616E+00
 0.4351272194712E+00
 0.4229493627823E+00
 0.4089972481630E+00
 0.3941316405850E+00
 0.3789410396002E+00
 0.3637858028145E+00
 0.3488407991376E+00
 0.3341298818104E+00
 0.3195511635900E+00
 0.3048951803891E+00
 0.2898575524729E+00
 0.2740497743055E+00
 0.2570097942490E+00
 0.2382119261010E+00
 0.2170753992532E+00
 0.1929799215345E+00
 0.1653225841114E+00
 0.1335328067516E+00
 0.9705986313644E-01
 0.5568727591250E-01
 0.1707581464004E-01
 0.5382647374137E-01
 0.1152274755515E+00
 0.1844902683298E+00
 0.2599463848991E+00
 0.3396913233177E+00
 0.4211270696097E+00
 0.5010631016302E+00
 0.5761560412393E+00
 0.6437420383059E+00
 0.7024249185072E+00
 0.7530912971731E+00
 0.7929467825264E+00
 0.4213545558863E+00
 0.4567784626990E+00
 0.4902319000763E+00
 0.5173623060357E+00
 0.5357369359691E+00
 0.5449472172558E+00
 0.5460108208171E+00
 0.5406132872878E+00
 0.5305301058489E+00
 0.5173111375937E+00
 0.5021678342165E+00
 0.4859741818968E+00
 0.4693141007377E+00
 0.4525378968897E+00
 0.4358116728751E+00
 0.4191551002310E+00
 0.4024681514764E+00
 0.3855499831076E+00
 0.3681120969124E+00
 0.3497900034807E+00
 0.3301553964141E+00
 0.3087283032278E+00
 0.2849881821284E+00
 0.2583919997270E+00
 0.2284352090337E+00
 0.1946659782467E+00
 0.1566595266321E+00
 0.1141917679610E+00
 0.6840020659319E-01
 0.3472577097618E-01
 0.6938958702451E-01
 0.1340323454228E+00
 0.2072464350627E+00
 0.2849952620459E+00
 0.3641047632175E+00
 0.4409843207985E+00
 0.5119096379725E+00
 0.5739004957879E+00
 0.6259236610875E+00
 0.6685729661417E+00
 0.7067703732042E+00
 0.5043995535589E+00
 0.5448662748412E+00
 0.5826695548216E+00
 0.6128922550777E+00
 0.6329826591915E+00
 0.6427596621046E+00
 0.6435974416778E+00
 0.6374989951867E+00
 0.6264513449049E+00
 0.6121145707202E+00
 0.5957408945839E+00
 0.5782073460196E+00
 0.5600853098475E+00
 0.5417096938874E+00
 0.5232346039646E+00
 0.5046737121942E+00
 0.4859277656190E+00
 0.4668035795856E+00
 0.4470271647884E+00
 0.4262558347336E+00
 0.4040917292253E+00
 0.3800962059181E+00
 0.3538035775512E+00
 0.3247412030438E+00
 0.2924917772307E+00
 0.2566995528501E+00
 0.2170172520350E+00
 0.1731853109374E+00
 0.1254949918552E+00
 0.7714395151719E-01
 0.5124273000102E-01
 0.8995956492073E-01
 0.1567565042772E+00
 0.2313253620353E+00
 0.3077763271374E+00
 0.3816122134071E+00
 0.4484593794927E+00
 0.5049062233364E+00
 0.5497731748452E+00
 0.5851853478522E+00
 0.6152716122982E+00
 0.5881285151570E+00
 0.6340657695467E+00
 0.6764849493814E+00
 0.7098265402493E+00
 0.7314658299263E+00
 0.7415552045753E+00
 0.7419174332638E+00
 0.7349208599856E+00
 0.7227743352108E+00
 0.7072390040138E+00
 0.6895933984763E+00
 0.6707047559514E+00
 0.6511226985438E+00
 0.6311608650338E+00
 0.6109579602411E+00
 0.5905198297481E+00
 0.5697470090790E+00
 0.5484532140993E+00
 0.5263778879154E+00
 0.5031982726496E+00
 0.4785439733146E+00
 0.4520136180037E+00
 0.4231916236250E+00
 0.3916706770504E+00
 0.3571149396545E+00
 0.3192569887263E+00
 0.2778188413118E+00
 0.2325338760343E+00
 0.1833872007444E+00
 0.1314689363291E+00
 0.8297860197416E-01
 0.6793263541104E-01
 0.1123963581302E+00
 0.1800847806696E+00
 0.2528570951705E+00
 0.3234442230873E+00
 0.3862757869756E+00
 0.4371188999505E+00
 0.4746243202443E+00
 0.5016761032935E+00
 0.5227954596931E+00
 0.6726304793820E+00
 0.7245302628046E+00
 0.7718463553680E+00
 0.8082935448196E+00
 0.8312500528049E+00
 0.8413412320830E+00
 0.8409457761764E+00
 0.8328434724438E+00
 0.8194667117115E+00
 0.8026606079652E+00
 0.7837106248173E+00
 0.7634590500113E+00
 0.7424237145031E+00
 0.7208910174509E+00
 0.6989810145576E+00
 0.6766901240086E+00
 0.6539179342162E+00
 0.6304845885561E+00
 0.6061422133758E+00
 0.5805864418700E+00
 0.5534716529858E+00
 0.5244299454284E+00
 0.4930915608582E+00
 0.4591107200153E+00
 0.4222303951428E+00
 0.3822701685103E+00
 0.3390236808550E+00
 0.2922412828792E+00
 0.2417702686405E+00
 0.1879856576931E+00
 0.1331737162724E+00
 0.8759935485436E-01
 0.8518461141786E-01
 0.1343580681717E+00
 0.2004641265901E+00
 0.2670342848857E+00
 0.3257353587071E+00
 0.3708957514050E+00
 0.4005799412515E+00
 0.4181269477452E+00
 0.4300154675659E+00
 0.7580119376416E+00
 0.8164439568624E+00
 0.8689513440866E+00
 0.9084354576149E+00
 0.9323971966222E+00
 0.9421168942554E+00
 0.9406513164360E+00
 0.9312313506492E+00
 0.9165022794058E+00
 0.8983666095484E+00
 0.8780923869523E+00
 0.8564799526559E+00
 0.8340050325819E+00
 0.8109211130020E+00
 0.7873267789230E+00
 0.7632078161748E+00
 0.7384624771048E+00
 0.7129171905581E+00
 0.6863363543066E+00
 0.6584327603997E+00
 0.6288830442932E+00
 0.5973489556370E+00
 0.5635022123775E+00
 0.5270550883305E+00
 0.4878279954224E+00
 0.4457288043731E+00
 0.4006281182722E+00
 0.3523115701389E+00
 0.3005647721030E+00
 0.2454371437515E+00
 0.1878989599449E+00
 0.1319264671979E+00
 0.9255618622695E-01
 0.1022328028987E+00
 0.1531425073780E+00
 0.2134208524950E+00
 0.2674548068485E+00
 0.3067254772430E+00
 0.3279577991898E+00
 0.3349183976878E+00
 0.3368697849162E+00
 0.8444021994481E+00
 0.9100295578375E+00
 0.9680293913251E+00
 0.1010402692854E+01
 0.1034956891581E+01
 0.1043862517347E+01
 0.1040988355357E+01
 0.1030042440489E+01
 0.1013855312785E+01
 0.9943494847818E+00
 0.9727466133678E+00
 0.9497869852139E+00
 0.9258942248792E+00
 0.9012839270443E+00
 0.8760310457781E+00
 0.8501100515069E+00
 0.8234178778876E+00
 0.7957874558014E+00
 0.7669954019480E+00
 0.7367707590615E+00
 0.7048100436525E+00
 0.6708006384721E+00
 0.6344509047097E+00
 0.5955273024023E+00
 0.5539265247072E+00
 0.5096469570124E+00
 0.4626423486885E+00
 0.4127483092425E+00
 0.3597319202031E+00
 0.3034747232750E+00
 0.2443598952261E+00
 0.1842012547261E+00
 0.1291675757587E+00
 0.9854953149537E-01
 0.1171439189985E+00
 0.1648424000268E+00
 0.2125443910532E+00
 0.2454052099712E+00
 0.2574130916863E+00
 0.2524267533699E+00
 0.2432025558046E+00
 0.9319611826590E+00
 0.1005559124148E+01
 0.1069345814996E+01
 0.1114347201073E+01
 0.1138955042616E+01
 0.1146529914634E+01
 0.1141890865703E+01
 0.1129225096097E+01
 0.1111498597750E+01
 0.1090604999879E+01
 0.1067686947360E+01
 0.1043406492356E+01
 0.1018126182317E+01
 0.9920198423594E+00
 0.9651375084650E+00
 0.9374422698415E+00
 0.9088301968371E+00
 0.8791413078945E+00
 0.8481647739622E+00
 0.8156453700599E+00
 0.7812973205026E+00
 0.7448293627413E+00
 0.7059808844007E+00
 0.6645677319209E+00
 0.6205611921572E+00
 0.5740524185371E+00
 0.5250844787274E+00
 0.4735554137250E+00
 0.4192428612993E+00
 0.3619421979163E+00
 0.3017306919508E+00
 0.2394795641670E+00
 0.1781037269326E+00
 0.1262010566356E+00
 0.1048914980193E+00
 0.1265600801552E+00
 0.1633043823370E+00
 0.1884335924423E+00
 0.1901812951985E+00
 0.1713832282054E+00
 0.1489250520516E+00
 0.1020890768017E+01
 0.1103369138717E+01
 0.1173205932826E+01
 0.1220412235727E+01
 0.1244379301899E+01
 0.1250032390245E+01
 0.1243268385348E+01
 0.1228717329280E+01
 0.1209403637915E+01
 0.1187132223338E+01
 0.1162932235299E+01
 0.1137370593181E+01
 0.1110741591418E+01
 0.1083174908762E+01
 0.1054695432370E+01
 0.1025255485171E+01
 0.9947511689747E+00
 0.9630305291374E+00
 0.9298960347240E+00
 0.8951081647097E+00
 0.8583970324412E+00
 0.8194882515988E+00
 0.7781456360049E+00
 0.7342282053861E+00
 0.6877789815055E+00
 0.6389834609754E+00
 0.5879795995077E+00
 0.5347386781248E+00
 0.4790712981118E+00
 0.4207386512664E+00
 0.3596509826133E+00
 0.2961938024222E+00
 0.2318789793657E+00
 0.1708710338585E+00
 0.1238229232376E+00
 0.1093050791699E+00
 0.1249917547549E+00
 0.1390664652277E+00
 0.1291944722600E+00
 0.9451132553790E-01
 0.5527163741250E-01
 0.1111451662593E+01
 0.1203881373715E+01
 0.1279957981950E+01
 0.1328715631272E+01
 0.1351159869839E+01
 0.1354234301390E+01
 0.1345003749823E+01
 0.1328448108116E+01
 0.1307542435903E+01
 0.1283934720543E+01
 0.1258507002653E+01
 0.1231717060338E+01
 0.1203786362535E+01
 0.1174799933533E+01
 0.1144758479483E+01
 0.1113604879171E+01
 0.1081236566568E+01
 0.1047510856236E+01
 0.1012244662169E+01
 0.9752147466840E+00
 0.9361658954341E+00
 0.8948361291487E+00
 0.8510060192922E+00
 0.8045696814359E+00
 0.7556371822159E+00
 0.7044885340788E+00
 0.6513608944284E+00
 0.5963079603212E+00
 0.5391921488333E+00
 0.4797798998525E+00
 0.4179006477999E+00
 0.3536713242337E+00
 0.2878831183760E+00
 0.2227589014891E+00
 0.1637067144269E+00
 0.1220471592423E+00
 0.1079985806342E+00
 0.1050062099928E+00
 0.8380245443658E-01
 0.4562027619390E-01
 0.5067013387847E-01
 0.1203989065952E+01
 0.1307631841378E+01
 0.1389992061648E+01
 0.1439322357681E+01
 0.1459144246914E+01
 0.1458941017585E+01
 0.1446953543707E+01
 0.1428340889160E+01
 0.1405890606155E+01
 0.1381022545247E+01
 0.1354442485003E+01
 0.1326489662791E+01
 0.1297311509498E+01
 0.1266950055489E+01
 0.1235384077696E+01
 0.1202549023770E+01
 0.1168345294827E+01
 0.1132640923477E+01
 0.1095268763353E+01
 0.1056023154967E+01
 0.1014663285270E+01
 0.9709355272908E+00
 0.9246285573716E+00
 0.8756612266049E+00
 0.8242033779535E+00
 0.7706274294525E+00
 0.7152719232236E+00
 0.6582800768517E+00
 0.5995826627870E+00
 0.5389855174412E+00
 0.4763032607048E+00
 0.4115166943254E+00
 0.3450089460161E+00
 0.2779808606082E+00
 0.2134066300879E+00
 0.1578136162832E+00
 0.1203981523733E+00
 0.9903152626739E-01
 0.7809234478813E-01
 0.9104556047178E-01
 0.1481817606917E+00
 0.1298972864932E+01
 0.1415311004268E+01
 0.1503729586629E+01
 0.1552200004361E+01
 0.1568065233092E+01
 0.1563891460997E+01
 0.1548952727894E+01
 0.1528319665223E+01
 0.1504431660672E+01
 0.1478414802885E+01
 0.1450777987064E+01
 0.1421738747441E+01
 0.1391373253194E+01
 0.1359684563135E+01
 0.1326633073907E+01
 0.1292149442832E+01
 0.1256138897379E+01
 0.1218481695428E+01
 0.1179028341097E+01
 0.1137592816359E+01
 0.1093949809758E+01
 0.1047851072901E+01
 0.9990841078666E+00
 0.9475795207056E+00
 0.8935561997944E+00
 0.8374734084044E+00
 0.7797698906728E+00
 0.7206825743365E+00
 0.6602251278605E+00
 0.5982749072190E+00
 0.5346908556729E+00
 0.4694204098166E+00
 0.4026270701905E+00
 0.3348977863939E+00
 0.2678208337155E+00
 0.2053763758955E+00
 0.1549545384223E+00
 0.1222555009363E+00
 0.1121145299223E+00
 0.1632578945015E+00
 0.2512461991937E+00
 0.1397062666866E+01
 0.1527819249939E+01
 0.1621592026748E+01
 0.1667147836827E+01
 0.1677503396579E+01
 0.1668757390500E+01
 0.1650825190875E+01
 0.1628317571690E+01
 0.1603162212425E+01
 0.1576142562756E+01
 0.1547562372593E+01
 0.1517521883792E+01
 0.1486033184552E+01
 0.1453066792411E+01
 0.1418569498742E+01
 0.1382470327774E+01
 0.1344681272693E+01
 0.1305096183389E+01
 0.1263584905685E+01
 0.1219983822173E+01
 0.1174086051250E+01
 0.1125647834588E+01
 0.1074446403599E+01
 0.1020408382577E+01
 0.9637864543224E+00
 0.9051160856187E+00
 0.8449298838560E+00
 0.7835585065669E+00
 0.7211109381574E+00
 0.6575676729372E+00
 0.5928899772830E+00
 0.5270866805406E+00
 0.4602516391212E+00
 0.3926076771510E+00
 0.3248109815980E+00
 0.2590544727310E+00
 0.2010974262433E+00
 0.1609752968929E+00
 0.1576376746921E+00
 0.2358685202920E+00
 0.3590709196294E+00
 0.1499217030180E+01
 0.1646341554867E+01
 0.1743926041488E+01
 0.1783686684552E+01
 0.1786850133360E+01
 0.1773156320672E+01
 0.1752401636351E+01
 0.1728287606759E+01
 0.1702097773807E+01
 0.1674251915287E+01
 0.1644855531451E+01
 0.1613904463520E+01
 0.1581358401557E+01
 0.1547164027908E+01
 0.1511260368166E+01
 0.1473578328359E+01
 0.1434038518095E+01
 0.1392549369346E+01
 0.1349001384717E+01
 0.1303256503868E+01
 0.1255131394943E+01
 0.1204389389208E+01
 0.1150790080142E+01
 0.1094237934932E+01
 0.1034998410332E+01
 0.9736650730853E+00
 0.9108502360584E+00
 0.8469724187663E+00
 0.7822460352038E+00
 0.7167867590730E+00
 0.6507172718217E+00
 0.5842027124353E+00
 0.5174109898836E+00
 0.4504137751430E+00
 0.3832471842065E+00
 0.3166114405933E+00
 0.2540506711054E+00
 0.2066552086217E+00
 0.2032652909892E+00
 0.3044523205871E+00
 0.4729427043948E+00
 0.1606885071083E+01
 0.1772441088046E+01
 0.1870838014069E+01
 0.1900895737752E+01
 0.1895288380467E+01
 0.1876687476422E+01
 0.1853544388015E+01
 0.1828214395937E+01
 0.1801278803493E+01
 0.1772806914435E+01
 0.1742729656264E+01
 0.1710960152201E+01
 0.1677421541807E+01
 0.1642047341816E+01
 0.1604775459556E+01
 0.1565542353826E+01
 0.1524278831393E+01
 0.1480908274507E+01
 0.1435342318730E+01
 0.1387471370302E+01
 0.1337142975319E+01
 0.1284135420597E+01
 0.1228187750314E+01
 0.1169162942201E+01
 0.1107311028513E+01
 0.1043254481960E+01
 0.9776592675883E+00
 0.9110177514394E+00
 0.8436577556446E+00
 0.7758637535547E+00
 0.7079806795104E+00
 0.6404263827067E+00
 0.5735907021957E+00
 0.5076118411929E+00
 0.4422269884696E+00
 0.3770013285979E+00
 0.3126767901620E+00
 0.2576865620476E+00
 0.2466639591953E+00
 0.3659071735688E+00
 0.5948088357315E+00
 0.1722360340332E+01
 0.1908152270662E+01
 0.2001840993103E+01
 0.2017193305364E+01
 0.2001829772952E+01
 0.1978998644378E+01
 0.1954174698861E+01
 0.1928125908447E+01
 0.1900776651483E+01
 0.1871892031060E+01
 0.1841270165691E+01
 0.1808771081509E+01
 0.1774300626274E+01
 0.1737791300431E+01
 0.1699186994222E+01
 0.1658433313756E+01
 0.1615472390543E+01
 0.1570242087466E+01
 0.1522674315712E+01
 0.1472689534589E+01
 0.1420174918852E+01
 0.1364938720049E+01
 0.1306705528917E+01
 0.1245279629936E+01
 0.1180858854370E+01
 0.1114048487715E+01
 0.1045523775479E+01
 0.9758258996869E+00
 0.9054030699037E+00
 0.8347459693487E+00
 0.7644846413197E+00
 0.6953848570884E+00
 0.6282085663510E+00
 0.5633951340623E+00
 0.5007409999446E+00
 0.4392749046046E+00
 0.3771238745707E+00
 0.3162406749104E+00
 0.2896994746273E+00
 0.4169032880632E+00
 0.7273653628391E+00
 0.1849476987600E+01
 0.2055980097880E+01
 0.2135115277402E+01
 0.2130115340198E+01
 0.2105481094849E+01
 0.2079875523977E+01
 0.2054294261663E+01
 0.2028105647368E+01
 0.2000698566855E+01
 0.1971613785387E+01
 0.1940576192416E+01
 0.1907427706400E+01
 0.1872078693817E+01
 0.1834473526665E+01
 0.1794569221639E+01
 0.1752323793047E+01
 0.1707691198154E+01
 0.1660622313774E+01
 0.1611066757890E+01
 0.1558973884345E+01
 0.1504278394711E+01
 0.1446841707058E+01
 0.1386396238344E+01
 0.1322679961622E+01
 0.1255792283443E+01
 0.1186248456731E+01
 0.1114659925019E+01
 0.1041577313649E+01
 0.9675781940763E+00
 0.8934049881550E+00
 0.8200384194814E+00
 0.7486816852680E+00
 0.6806094987067E+00
 0.6168097715423E+00
 0.5575331423169E+00
 0.5019998906041E+00
 0.4472467170765E+00
 0.3867378532185E+00
 0.3390676493246E+00
 0.4547378305945E+00
 0.8744731332873E+00
 0.1995094730950E+01
 0.2218429815650E+01
 0.2265999738472E+01
 0.2236353575928E+01
 0.2205625445159E+01
 0.2179297476169E+01
 0.2154001713838E+01
 0.2128306193832E+01
 0.2101189660936E+01
 0.2072101774357E+01
 0.2040760368234E+01
 0.2007028278498E+01
 0.1970843176288E+01
 0.1932174082410E+01
 0.1890997872769E+01
 0.1847287622399E+01
 0.1801008845795E+01
 0.1752122861325E+01
 0.1700592603514E+01
 0.1646391159370E+01
 0.1589503369036E+01
 0.1529873013430E+01
 0.1467289071585E+01
 0.1401441506973E+01
 0.1332276761914E+01
 0.1260102512746E+01
 0.1185347442024E+01
 0.1108515060595E+01
 0.1030329495810E+01
 0.9518459442241E+00
 0.8744670325432E+00
 0.7999100663880E+00
 0.7300802315452E+00
 0.6667358785740E+00
 0.6110524316185E+00
 0.5630634042890E+00
 0.5210842074451E+00
 0.4738707395527E+00
 0.4087569302499E+00
 0.4815575810911E+00
 0.1042429483453E+01
 0.2172634548280E+01
 0.2395505946741E+01
 0.2384205734366E+01
 0.2332948849965E+01
 0.2302480849090E+01
 0.2277368243478E+01
 0.2253544133937E+01
 0.2228948913237E+01
 0.2202434382915E+01
 0.2173508412148E+01
 0.2141947838320E+01
 0.2107677955130E+01
 0.2070685008501E+01
 0.2030974699099E+01
 0.1988549508492E+01
 0.1943399368848E+01
 0.1895500209206E+01
 0.1844820071455E+01
 0.1791329062456E+01
 0.1735014794272E+01
 0.1675903604852E+01
 0.1614046013561E+01
 0.1549373869676E+01
 0.1481609423601E+01
 0.1410490583629E+01
 0.1335919346157E+01
 0.1257948445077E+01
 0.1176961343692E+01
 0.1093865816725E+01
 0.1010116492983E+01
 0.9276234607440E+00
 0.8486729608139E+00
 0.7758755939873E+00
 0.7119218794979E+00
 0.6593663023455E+00
 0.6199062897203E+00
 0.5939145057998E+00
 0.5774504118173E+00
 0.5221361789954E+00
 0.5171912376059E+00
 0.1244966201157E+01
 0.2411950629480E+01
 0.2572770445446E+01
 0.2471309540255E+01
 0.2421569110907E+01
 0.2396366317927E+01
 0.2374469520004E+01
 0.2353330545049E+01
 0.2330314475785E+01
 0.2304659239654E+01
 0.2276005631995E+01
 0.2244275013305E+01
 0.2209487251559E+01
 0.2171697468634E+01
 0.2130957762669E+01
 0.2087300693636E+01
 0.2040733669189E+01
 0.1991240949349E+01
 0.1938792600442E+01
 0.1883357934263E+01
 0.1824927204321E+01
 0.1763546384485E+01
 0.1699364718306E+01
 0.1632576846095E+01
 0.1563162851211E+01
 0.1490621729142E+01
 0.1414089480974E+01
 0.1332932368185E+01
 0.1247337321633E+01
 0.1158472009485E+01
 0.1068315370039E+01
 0.9793961711406E+00
 0.8946157740135E+00
 0.8172476265156E+00
 0.7510633986168E+00
 0.7001771397648E+00
 0.6693160837584E+00
 0.6605341008447E+00
 0.6828316949613E+00
 0.7045784367212E+00
 0.6275613527943E+00
 0.1527345950809E+01
 0.2794415061640E+01
 0.2656046981866E+01
 0.2527309811877E+01
 0.2506674490458E+01
 0.2487155456381E+01
 0.2471664106270E+01
 0.2453783323482E+01
 0.2432780649718E+01
 0.2408116373161E+01
 0.2379784701628E+01
 0.2347886240113E+01
 0.2312570323156E+01
 0.2273974612119E+01
 0.2232205093939E+01
 0.2187326936717E+01
 0.2139364479823E+01
 0.2088306692340E+01
 0.2034121114030E+01
 0.1976765768591E+01
 0.1916220181615E+01
 0.1852522977301E+01
 0.1785854568380E+01
 0.1716722986263E+01
 0.1645945632824E+01
 0.1572871084327E+01
 0.1495118142233E+01
 0.1410908930734E+01
 0.1320186537668E+01
 0.1224523223217E+01
 0.1126600956133E+01
 0.1029710153537E+01
 0.9374466836994E+00
 0.8535598089082E+00
 0.7827140470122E+00
 0.7313831934677E+00
 0.7063437003174E+00
 0.7178073457384E+00
 0.7670429005561E+00
 0.9253906803220E+00
 0.9542011941363E+00
 0.2128876049008E+01
 0.5416959315111E+00
 0.7884080670945E+00
 0.1024210632879E+01
 0.1239979734268E+01
 0.1432580686874E+01
 0.1601786857113E+01
 0.1748209973316E+01
 0.1873238710614E+01
 0.1979118392067E+01
 0.2068404836213E+01
 0.2143531814562E+01
 0.2206713633869E+01
 0.2259966713970E+01
 0.2305081718274E+01
 0.2343572540664E+01
 0.2376652117301E+01
 0.2405064053954E+01
 0.2429144421406E+01
 0.2449322686203E+01
 0.2465748253628E+01
 0.5168058264100E+00
 0.7562794691466E+00
 0.9859596322432E+00
 0.1197773981453E+01
 0.1388482063064E+01
 0.1557471813526E+01
 0.1705117179904E+01
 0.1832530037872E+01
 0.1941589651510E+01
 0.2034516477108E+01
 0.2113505310339E+01
 0.2180609563705E+01
 0.2237736332388E+01
 0.2286613508131E+01
 0.2328739010542E+01
 0.2365313646504E+01
 0.2397085165494E+01
 0.2424512029205E+01
 0.2447876947902E+01
 0.2466761885265E+01
 0.4936376062993E+00
 0.7265119682577E+00
 0.9505276266405E+00
 0.1158347229396E+01
 0.1346823160466E+01
 0.1515094355494E+01
 0.1663322684376E+01
 0.1792408831511E+01
 0.1903941740214E+01
 0.1999854989356E+01
 0.2082121569680E+01
 0.2152638166253E+01
 0.2213200576023E+01
 0.2265463470199E+01
 0.2310877033817E+01
 0.2350605999460E+01
 0.2385426586447E+01
 0.2415809797517E+01
 0.2441976989788E+01
 0.2463778657983E+01
 0.4719609199312E+00
 0.6988539324849E+00
 0.9175028472669E+00
 0.1121308933058E+01
 0.1307259481103E+01
 0.1474358550986E+01
 0.1622611185771E+01
 0.1752744148866E+01
 0.1866110767334E+01
 0.1964401482564E+01
 0.2049389244514E+01
 0.2122819936094E+01
 0.2186375836608E+01
 0.2241627208663E+01
 0.2289961826431E+01
 0.2332505841984E+01
 0.2370039165248E+01
 0.2403053818705E+01
 0.2431857624118E+01
 0.2456622728463E+01
 0.4516309271441E+00
 0.6730163073278E+00
 0.8865497617232E+00
 0.1086310004325E+01
 0.1269481037566E+01
 0.1435007320131E+01
 0.1582787114503E+01
 0.1713407286214E+01
 0.1828026529414E+01
 0.1928128835386E+01
 0.2015308339647E+01
 0.2091167866008E+01
 0.2157275470552E+01
 0.2215111264163E+01
 0.2265995303569E+01
 0.2311011214157E+01
 0.2350941154878E+01
 0.2386325154394E+01
 0.2417585921004E+01
 0.2445168407558E+01
 0.4325210332458E+00
 0.6487603076994E+00
 0.8573677094283E+00
 0.1053046715828E+01
 0.1233212387114E+01
 0.1396810830181E+01
 0.1543673244172E+01
 0.1674276371388E+01
 0.1789617913003E+01
 0.1891005674016E+01
 0.1979874378684E+01
 0.2057692581218E+01
 0.2125916206058E+01
 0.2185934093862E+01
 0.2238997357536E+01
 0.2286149448091E+01
 0.2328179867163E+01
 0.2365683786787E+01
 0.2399191593380E+01
 0.2429340556433E+01
 0.4145220814106E+00
 0.6258786357941E+00
 0.8296966593478E+00
 0.1021251608916E+01
 0.1198210029454E+01
 0.1359563597894E+01
 0.1505109188920E+01
 0.1635238661273E+01
 0.1750816717423E+01
 0.1853000377563E+01
 0.1943082358203E+01
 0.2022406451545E+01
 0.2092320908356E+01
 0.2154125335059E+01
 0.2209004278145E+01
 0.2257965615408E+01
 0.2301808503346E+01
 0.2341180002614E+01
 0.2376696047018E+01
 0.2409109499084E+01
 0.3975390429523E+00
 0.6041925818919E+00
 0.8033109869816E+00
 0.9906908723273E+00
 0.1164258699716E+01
 0.1323082639194E+01
 0.1466950869308E+01
 0.1596191737346E+01
 0.1711560273092E+01
 0.1814084198228E+01
 0.1904929875373E+01
 0.1985326186484E+01
 0.2056519777672E+01
 0.2119725260721E+01
 0.2176064746890E+01
 0.2226514625124E+01
 0.2271883214953E+01
 0.2312860844048E+01
 0.2350124095428E+01
 0.2384478843482E+01
 0.3814890677035E+00
 0.5835479025609E+00
 0.7780154477855E+00
 0.9611604891547E+00
 0.1131168927944E+01
 0.1287205785454E+01
 0.1429070067894E+01
 0.1557044266146E+01
 0.1671793191074E+01
 0.1774233513667E+01
 0.1865419323349E+01
 0.1946474444266E+01
 0.2018550915145E+01
 0.2082783727692E+01
 0.2140237053367E+01
 0.2191858670347E+01
 0.2238463587166E+01
 0.2280775301607E+01
 0.2319508813880E+01
 0.2355478464772E+01
 0.3662997915291E+00
 0.5638117332188E+00
 0.7536415049688E+00
 0.9324831828418E+00
 0.1098774873144E+01
 0.1251790494264E+01
 0.1391354106152E+01
 0.1517716604623E+01
 0.1631468700725E+01
 0.1733431529410E+01
 0.1824559517351E+01
 0.1905880977664E+01
 0.1978460647984E+01
 0.2043359571996E+01
 0.2101588119466E+01
 0.2154067078407E+01
 0.2201614654384E+01
 0.2244978079913E+01
 0.2284894415146E+01
 0.2322159928120E+01
 0.3519077847244E+00
 0.5448698068891E+00
 0.7300441271654E+00
 0.9045056013971E+00
 0.1066932328733E+01
 0.1216712641982E+01
 0.1353705383976E+01
 0.1478141043342E+01
 0.1590549456116E+01
 0.1691669363226E+01
 0.1782366728737E+01
 0.1863583332468E+01
 0.1936303743949E+01
 0.2001520485574E+01
 0.2060193573871E+01
 0.2113217360902E+01
 0.2161409352178E+01
 0.2205532698622E+01
 0.2246336849599E+01
 0.2284591529654E+01
 0.3382572199482E+00
 0.5266240849864E+00
 0.7070990512518E+00
 0.8770959021531E+00
 0.1035516969713E+01
 0.1181865449632E+01
 0.1316040919972E+01
 0.1438261911625E+01
 0.1549008076235E+01
 0.1648946806063E+01
 0.1738865429941E+01
 0.1819627404432E+01
 0.1892143759709E+01
 0.1957343363197E+01
 0.2016138529474E+01
 0.2069396873764E+01
 0.2117931207270E+01
 0.2162514318084E+01
 0.2203903519348E+01
 0.2242847388814E+01
 0.3252986903360E+00
 0.5089906744154E+00
 0.6847003742277E+00
 0.8501415817119E+00
 0.1004422715044E+01
 0.1147158402688E+01
 0.1278291779489E+01
 0.1398035458194E+01
 0.1506827371458E+01
 0.1605272733452E+01
 0.1694088731034E+01
 0.1774067811364E+01
 0.1846053388216E+01
 0.1910914823606E+01
 0.1969518587263E+01
 0.2022704581429E+01
 0.2071276913137E+01
 0.2116012734939E+01
 0.2157675074959E+01
 0.2197002890711E+01
 0.3129881663411E+00
 0.4918979740483E+00
 0.6627584005084E+00
 0.8235474925999E+00
 0.9735601663342E+00
 0.1112516149716E+01
 0.1240402397222E+01
 0.1357429548744E+01
 0.1464000329949E+01
 0.1560665263686E+01
 0.1648078605598E+01
 0.1726968146902E+01
 0.1798114799723E+01
 0.1862331797886E+01
 0.1920440883477E+01
 0.1973252729182E+01
 0.2021558714545E+01
 0.2066135604956E+01
 0.2107750707618E+01
 0.2147144456922E+01
 0.3012861250286E+00
 0.4752850760755E+00
 0.6411977653587E+00
 0.7972340846528E+00
 0.9428551845829E+00
 0.1077877457866E+01
 0.1202329886403E+01
 0.1316423286332E+01
 0.1420529980401E+01
 0.1515151777360E+01
 0.1600885999334E+01
 0.1678401163799E+01
 0.1748419956500E+01
 0.1811702093903E+01
 0.1869025040648E+01
 0.1921168284327E+01
 0.1968906419101E+01
 0.2013011305131E+01
 0.2054252901076E+01
 0.2093380487281E+01
 0.2901567765212E+00
 0.4591003165982E+00
 0.6199557083636E+00
 0.7711357403100E+00
 0.9122474799150E+00
 0.1043194107116E+01
 0.1164043224640E+01
 0.1275006456085E+01
 0.1376429042783E+01
 0.1468768712296E+01
 0.1552570724621E+01
 0.1628448764672E+01
 0.1697070745246E+01
 0.1759144751354E+01
 0.1815403829974E+01
 0.1866593962930E+01
 0.1913468836781E+01
 0.1956790883523E+01
 0.1997330196349E+01
 0.2035847677640E+01
 0.2795674169038E+00
 0.4432999991588E+00
 0.5989805263155E+00
 0.7451992500766E+00
 0.8816892808125E+00
 0.1008429805878E+01
 0.1125522410913E+01
 0.1233178897462E+01
 0.1331719473525E+01
 0.1421561234084E+01
 0.1503201223557E+01
 0.1577201855235E+01
 0.1644178951113E+01
 0.1704790187320E+01
 0.1759723535196E+01
 0.1809688836223E+01
 0.1855414640349E+01
 0.1897649211844E+01
 0.1937159019700E+01
 0.1974715061171E+01
 0.2694878690825E+00
 0.4278472455695E+00
 0.5782301527439E+00
 0.7193823802858E+00
 0.8511440448776E+00
 0.9735590995764E+00
 0.1086757573731E+01
 0.1190949791598E+01
 0.1286431897178E+01
 0.1373582773127E+01
 0.1452854182621E+01
 0.1524760030775E+01
 0.1589866032401E+01
 0.1648780087024E+01
 0.1702143981252E+01
 0.1750628500430E+01
 0.1794932680334E+01
 0.1835785553063E+01
 0.1873944939174E+01
 0.1910186762849E+01
 0.2598899970826E+00
 0.4127109448550E+00
 0.5576708335216E+00
 0.6936525058368E+00
 0.8205851906692E+00
 0.9385662573214E+00
 0.1047748019154E+01
 0.1148336854279E+01
 0.1240604913927E+01
 0.1324894411935E+01
 0.1401613972662E+01
 0.1471231057311E+01
 0.1534262646785E+01
 0.1591266986838E+01
 0.1642838182353E+01
 0.1689604788465E+01
 0.1732231773350E+01
 0.1771423557435E+01
 0.1807923255454E+01
 0.1842503689589E+01
 0.2507472956314E+00
 0.3978648070699E+00
 0.5372759094249E+00
 0.6679853308867E+00
 0.7899948863782E+00
 0.9034441827898E+00
 0.1008501271901E+01
 0.1105365491682E+01
 0.1194284340275E+01
 0.1275564175925E+01
 0.1349571959657E+01
 0.1416730183257E+01
 0.1477507956523E+01
 0.1532413573410E+01
 0.1581991637954E+01
 0.1626825070284E+01
 0.1667540029606E+01
 0.1704810682685E+01
 0.1739358782568E+01
 0.1771944097597E+01
 0.2420345245217E+00
 0.3832864814769E+00
 0.5170246614044E+00
 0.6423636535941E+00
 0.7593628552054E+00
 0.8681933130700E+00
 0.9690320765190E+00
 0.1062067888453E+01
 0.1147522353836E+01
 0.1225666198304E+01
 0.1296825655139E+01
 0.1361379248699E+01
 0.1419748679598E+01
 0.1472391668729E+01
 0.1519801253957E+01
 0.1562511127774E+01
 0.1601103730091E+01
 0.1636217092553E+01
 0.1668544666653E+01
 0.1698822730209E+01
 0.2337273859277E+00
 0.3689567365842E+00
 0.4969012199195E+00
 0.6167761842001E+00
 0.7286852152982E+00
 0.8328205303580E+00
 0.9293613883325E+00
 0.1018482060574E+01
 0.1100376575258E+01
 0.1175279790488E+01
 0.1243477734469E+01
 0.1305305616451E+01
 0.1361137907076E+01
 0.1411380918120E+01
 0.1456473900304E+01
 0.1496897608283E+01
 0.1533185741003E+01
 0.1565934192531E+01
 0.1595800952792E+01
 0.1623489514424E+01
 0.2258022324252E+00
 0.3548586885475E+00
 0.4768935261151E+00
 0.5912164094418E+00
 0.6979633537150E+00
 0.7973380915870E+00
 0.8895153634958E+00
 0.9746508853408E+00
 0.1052909101329E+01
 0.1124488432585E+01
 0.1189634937016E+01
 0.1248640937964E+01
 0.1301833698497E+01
 0.1349567190108E+01
 0.1392224608037E+01
 0.1430230038752E+01
 0.1464063430814E+01
 0.1494272648206E+01
 0.1521473529020E+01
 0.1546328753929E+01
 0.2182357926063E+00
 0.3409770619157E+00
 0.4569923302274E+00
 0.5656814932186E+00
 0.6672028301040E+00
 0.7617625768560E+00
 0.8495243531740E+00
 0.9306211168667E+00
 0.1005185500386E+01
 0.1073378697043E+01
 0.1135406862710E+01
 0.1191519769538E+01
 0.1241997470901E+01
 0.1287140702056E+01
 0.1327274411040E+01
 0.1362762389788E+01
 0.1394025995711E+01
 0.1421559612761E+01
 0.1445931392189E+01
 0.1467757409588E+01
 0.2110049044072E+00
 0.3272974707452E+00
 0.4371902176460E+00
 0.5401712094583E+00
 0.6364123123445E+00
 0.7261138642882E+00
 0.8094219137536E+00
 0.8864424026103E+00
 0.9572737886648E+00
 0.1022039126736E+01
 0.1080904688308E+01
 0.1134078063634E+01
 0.1181792207128E+01
 0.1224293895371E+01
 0.1261847849234E+01
 0.1294754180748E+01
 0.1323371153073E+01
 0.1348134924612E+01
 0.1369561974994E+01
 0.1388219461945E+01
 0.2040862532490E+00
 0.3138057181761E+00
 0.4174806669827E+00
 0.5146869208790E+00
 0.6056025667935E+00
 0.6904141609641E+00
 0.7692438679739E+00
 0.8421663401669E+00
 0.9092434307164E+00
 0.9705591139532E+00
 0.1026239852239E+01
 0.1076451585527E+01
 0.1121380534118E+01
 0.1161219110732E+01
 0.1196170177375E+01
 0.1226467153627E+01
 0.1252401192980E+01
 0.1274346392346E+01
 0.1292765409867E+01
 0.1308178415745E+01
 0.1974560859103E+00
 0.3004870778719E+00
 0.3978571012233E+00
 0.4892305661025E+00
 0.5747854682487E+00
 0.6546870571976E+00
 0.7290273863489E+00
 0.7978455470463E+00
 0.8611643418361E+00
 0.9190277647752E+00
 0.9715226991571E+00
 0.1018774252449E+01
 0.1060922674623E+01
 0.1098106075281E+01
 0.1130464303204E+01
 0.1158161542444E+01
 0.1181418403049E+01
 0.1200544178462E+01
 0.1215947628298E+01
 0.1228108083134E+01
 0.1910899092511E+00
 0.2873255666438E+00
 0.3783119551916E+00
 0.4638036945880E+00
 0.5439730826358E+00
 0.6189566660627E+00
 0.6888101566281E+00
 0.7535328166038E+00
 0.8131059722194E+00
 0.8675328358233E+00
 0.9168611771028E+00
 0.9611764906086E+00
 0.1000574367778E+01
 0.1035139300990E+01
 0.1064947571189E+01
 0.1090092086421E+01
 0.1110720019155E+01
 0.1127074281032E+01
 0.1139511858920E+01
 0.1148480656170E+01
 0.1849621444941E+00
 0.2743031761662E+00
 0.3588357313326E+00
 0.4384065302750E+00
 0.5131768091394E+00
 0.5832468357512E+00
 0.6486296272769E+00
 0.7092803463444E+00
 0.7651364638635E+00
 0.8161597432785E+00
 0.8623595962830E+00
 0.9037836235644E+00
 0.9404847704839E+00
 0.9724954071245E+00
 0.9998284287383E+00
 0.1022503898310E+01
 0.1040592916989E+01
 0.1054271285652E+01
 0.1063848399709E+01
 0.1069751940102E+01
 0.1790457131123E+00
 0.2613990262414E+00
 0.3394160172065E+00
 0.4130370507356E+00
 0.4824065772269E+00
 0.5475804308955E+00
 0.6085223184924E+00
 0.6651390331317E+00
 0.7173218841802E+00
 0.7649906663808E+00
 0.8081174930590E+00
 0.8467143500570E+00
 0.8807943981907E+00
 0.9103404188703E+00
 0.9353030439552E+00
 0.9556283484843E+00
 0.9713084604650E+00
 0.9824512271604E+00
 0.9893238052655E+00
 0.9923469653030E+00
 0.1733115491441E+00
 0.2485884408093E+00
 0.3200365001890E+00
 0.3876901556457E+00
 0.4516701952034E+00
 0.5119787847488E+00
 0.5685232989784E+00
 0.6211579318294E+00
 0.6697256415734E+00
 0.7141038727229E+00
 0.7542287564692E+00
 0.7900794897658E+00
 0.8216332763642E+00
 0.8488271755539E+00
 0.8715519766624E+00
 0.8896791212535E+00
 0.9031179256272E+00
 0.9119059174911E+00
 0.9162727973793E+00
 0.9166528023761E+00
 0.1677279584769E+00
 0.2358418422568E+00
 0.3006758948459E+00
 0.3623568608304E+00
 0.4209727864420E+00
 0.4764612375906E+00
 0.5286657157057E+00
 0.5773837455204E+00
 0.6224079504109E+00
 0.6635731582914E+00
 0.7007809599004E+00
 0.7339809923388E+00
 0.7631193083859E+00
 0.7880927947582E+00
 0.8087367527938E+00
 0.8248482718757E+00
 0.8362485015366E+00
 0.8428991645307E+00
 0.8449952248260E+00
 0.8430169579556E+00
 0.1622597965553E+00
 0.2231234351723E+00
 0.2813068406092E+00
 0.3370236469641E+00
 0.3903164673271E+00
 0.4410448932581E+00
 0.4889804765090E+00
 0.5338604204418E+00
 0.5754254097629E+00
 0.6134674849204E+00
 0.6478550440174E+00
 0.6785114471933E+00
 0.7053571479716E+00
 0.7282563778612E+00
 0.7469962897916E+00
 0.7613020142907E+00
 0.7708995688168E+00
 0.7756642634703E+00
 0.7757541161083E+00
 0.7717383175042E+00
 0.1568673170837E+00
 0.2103895452521E+00
 0.2618947520994E+00
 0.3116720557492E+00
 0.3597003524079E+00
 0.4057446366735E+00
 0.4494960727241E+00
 0.4906288125744E+00
 0.5288306532096E+00
 0.5638507895248E+00
 0.5955254082496E+00
 0.6237543479755E+00
 0.6484380287985E+00
 0.6694174087409E+00
 0.6864431797653E+00
 0.6991757279513E+00
 0.7072385655122E+00
 0.7104023985489E+00
 0.7087735189516E+00
 0.7030569041580E+00
 0.1515044826072E+00
 0.1975863583986E+00
 0.2423967022087E+00
 0.2862786821276E+00
 0.3291210269932E+00
 0.3705733680887E+00
 0.4102384397230E+00
 0.4477262666861E+00
 0.4826718794361E+00
 0.5147817262538E+00
 0.5438601721197E+00
 0.5697850755405E+00
 0.5924410140934E+00
 0.6116555033171E+00
 0.6271599946249E+00
 0.6385667501690E+00
 0.6453944571631E+00
 0.6472812549206E+00
 0.6442408016551E+00
 0.6371526176280E+00
 0.1461162188166E+00
 0.1846469719192E+00
 0.2227605050452E+00
 0.2608163322645E+00
 0.2985737248429E+00
 0.3355426675355E+00
 0.3712308982775E+00
 0.4051862511630E+00
 0.4369923581639E+00
 0.4663133481242E+00
 0.4929215451466E+00
 0.5166725632788E+00
 0.5374363483265E+00
 0.5550337630247E+00
 0.5691971558329E+00
 0.5795243476792E+00
 0.5854439185833E+00
 0.5864320713910E+00
 0.5823181117560E+00
 0.5741588529351E+00
 0.1406338047817E+00
 0.1714859073399E+00
 0.2029259924547E+00
 0.2352563798808E+00
 0.2680548199807E+00
 0.3006630691186E+00
 0.3324940165274E+00
 0.3630378263968E+00
 0.3918295887012E+00
 0.4184922990145E+00
 0.4427656245102E+00
 0.4644808189419E+00
 0.4834899476775E+00
 0.4996075130325E+00
 0.5125795419871E+00
 0.5220353739773E+00
 0.5273835610218E+00
 0.5279300186136E+00
 0.5231680182916E+00
 0.5142084214928E+00
 0.1349625251815E+00
 0.1579976097585E+00
 0.1828261904705E+00
 0.2095795632696E+00
 0.2375620506267E+00
 0.2659442563498E+00
 0.2940458998571E+00
 0.3213051589018E+00
 0.3472142300502E+00
 0.3713576446494E+00
 0.3934415591345E+00
 0.4132693655082E+00
 0.4306680800921E+00
 0.4454355821677E+00
 0.4573313173421E+00
 0.4660355676392E+00
 0.4710547835242E+00
 0.4717375327677E+00
 0.4669663159436E+00
 0.4575501035681E+00
 0.1289653788847E+00
 0.1440113304573E+00
 0.1624450501274E+00
 0.1837745918705E+00
 0.2070909200788E+00
 0.2313969136234E+00
 0.2559036966615E+00
 0.2800065582131E+00
 0.3031685378981E+00
 0.3249397454073E+00
 0.3449899552948E+00
 0.3630918267379E+00
 0.3790386613062E+00
 0.3925928386050E+00
 0.4035008058069E+00
 0.4114932872457E+00
 0.4161513259732E+00
 0.4173260994049E+00
 0.4139401086850E+00
 0.4048393125380E+00
 0.1221723962841E+00
 0.1296571952484E+00
 0.1418421827085E+00
 0.1578041811964E+00
 0.1766323132624E+00
 0.1970447625270E+00
 0.2180839605392E+00
 0.2391498365557E+00
 0.2597057115183E+00
 0.2792585733142E+00
 0.2974405980044E+00
 0.3139919685383E+00
 0.3286664467608E+00
 0.3411715215215E+00
 0.3511937590304E+00
 0.3584446165510E+00
 0.3625769464564E+00
 0.3635931673778E+00
 0.3624585135782E+00
 0.3593317243017E+00
 0.3736001235656E+01
 0.3663095660736E+01
 0.2754803853528E+01
 0.2249945326299E+01
 0.1788460543819E+01
 0.1369128501323E+01
 0.1074701704709E+01
 0.9198259548842E+00
 0.8234248534558E+00
 0.7386506408747E+00
 0.6527740821708E+00
 0.5633005172750E+00
 0.4684419610649E+00
 0.3682014185050E+00
 0.2659580178906E+00
 0.1659160468150E+00
 0.6720656161002E-01
 0.4223121808659E-02
 0.7600147285999E-02
 0.4664845985352E-01
 0.3195231624703E+01
 0.3841538741820E+01
 0.3018921860848E+01
 0.2411471456057E+01
 0.1963967266401E+01
 0.1588357368931E+01
 0.1306361495058E+01
 0.1121593157808E+01
 0.9959681050613E+00
 0.8956520546198E+00
 0.8038999763346E+00
 0.7134739080008E+00
 0.6202361145229E+00
 0.5228332674677E+00
 0.4226208852867E+00
 0.3208951632230E+00
 0.2146778961375E+00
 0.1366752409683E+00
 0.1134725136401E+00
 0.1599396064944E+00
 0.2746897629191E+01
 0.3592717074916E+01
 0.3158997578104E+01
 0.2583488734152E+01
 0.2133317324786E+01
 0.1781284947516E+01
 0.1512199285159E+01
 0.1318993595567E+01
 0.1176305946491E+01
 0.1062067271589E+01
 0.9626684142453E+00
 0.8697436534447E+00
 0.7775653630206E+00
 0.6830838015236E+00
 0.5859936441468E+00
 0.4863610111780E+00
 0.3818713921588E+00
 0.2985925330986E+00
 0.2691426024481E+00
 0.3171358351409E+00
 0.2392899282678E+01
 0.3287527774274E+01
 0.3137497651035E+01
 0.2710487397127E+01
 0.2291969850369E+01
 0.1956020928781E+01
 0.1698219344317E+01
 0.1504999654515E+01
 0.1355353772810E+01
 0.1232569783351E+01
 0.1126752040925E+01
 0.1030923356993E+01
 0.9392513896751E+00
 0.8476636411255E+00
 0.7546611709856E+00
 0.6597912902775E+00
 0.5610961483923E+00
 0.4788557422248E+00
 0.4480660241043E+00
 0.4978025898486E+00
 0.2105539853697E+01
 0.2987843329090E+01
 0.3033691668118E+01
 0.2764603377772E+01
 0.2421034315744E+01
 0.2112644051740E+01
 0.1867215037487E+01
 0.1678143483079E+01
 0.1527662146242E+01
 0.1401657985630E+01
 0.1292396028342E+01
 0.1194674616977E+01
 0.1103593989366E+01
 0.1014946530966E+01
 0.9266258064637E+00
 0.8378486376282E+00
 0.7469442693198E+00
 0.6690646238983E+00
 0.6391382181605E+00
 0.6890966223377E+00
 0.1868002984015E+01
 0.2710916891734E+01
 0.2888855054243E+01
 0.2758545693673E+01
 0.2506681728697E+01
 0.2244094156176E+01
 0.2018269907274E+01
 0.1837325257205E+01
 0.1690157683048E+01
 0.1565083324534E+01
 0.1455636058121E+01
 0.1357925973728E+01
 0.1268241508001E+01
 0.1182854882522E+01
 0.1099551125623E+01
 0.1017414532911E+01
 0.9349422705858E+00
 0.8629262409739E+00
 0.8347064022254E+00
 0.8830061144230E+00
 0.1668898512570E+01
 0.2460455022989E+01
 0.2725708830113E+01
 0.2708421797727E+01
 0.2548518796209E+01
 0.2343493460221E+01
 0.2147369258111E+01
 0.1980279825796E+01
 0.1840327097420E+01
 0.1719598064436E+01
 0.1612938730637E+01
 0.1517429312284E+01
 0.1430425124559E+01
 0.1348925334352E+01
 0.1270935930892E+01
 0.1195570755794E+01
 0.1121455316066E+01
 0.1055795543817E+01
 0.1029436562196E+01
 0.1074340178659E+01
 0.1500224901851E+01
 0.2235953846104E+01
 0.2556859976713E+01
 0.2627911261920E+01
 0.2551786687756E+01
 0.2408576246110E+01
 0.2250300488698E+01
 0.2103720110519E+01
 0.1975417631492E+01
 0.1862334301020E+01
 0.1761203435155E+01
 0.1670079303118E+01
 0.1587252078371E+01
 0.1510492757092E+01
 0.1438187171402E+01
 0.1369588611750E+01
 0.1303464033034E+01
 0.1244160693402E+01
 0.1219508065475E+01
 0.1259621703792E+01
 0.1356106241579E+01
 0.2035506052525E+01
 0.2389465397167E+01
 0.2527430031743E+01
 0.2523432613512E+01
 0.2440636176279E+01
 0.2324798288786E+01
 0.2204525771936E+01
 0.2092512222634E+01
 0.1990503089910E+01
 0.1897583947839E+01
 0.1812981521950E+01
 0.1735894390022E+01
 0.1664861161525E+01
 0.1598711646392E+01
 0.1536900089953E+01
 0.1478370228678E+01
 0.1425248610931E+01
 0.1402074245691E+01
 0.1436426370927E+01
 0.1232079271305E+01
 0.1856812996357E+01
 0.2227598653237E+01
 0.2414646133420E+01
 0.2470310442124E+01
 0.2443003058155E+01
 0.2370728253389E+01
 0.2280705142022E+01
 0.2189065457285E+01
 0.2101481278773E+01
 0.2019425390211E+01
 0.1943443514424E+01
 0.1873671375870E+01
 0.1809419216479E+01
 0.1749993384358E+01
 0.1695086693471E+01
 0.1643859574824E+01
 0.1596755568751E+01
 0.1574905554561E+01
 0.1602966478948E+01
 0.1124661265217E+01
 0.1697563113521E+01
 0.2073520294022E+01
 0.2295129838328E+01
 0.2398506223479E+01
 0.2419892569587E+01
 0.2389592352082E+01
 0.2331649212082E+01
 0.2263359256486E+01
 0.2193090710454E+01
 0.2124363362487E+01
 0.2059011285745E+01
 0.1998100351132E+01
 0.1941711281083E+01
 0.1889650529328E+01
 0.1841881131101E+01
 0.1797820081591E+01
 0.1756675598758E+01
 0.1736158191412E+01
 0.1757830428304E+01
 0.1031076765621E+01
 0.1555573579585E+01
 0.1928386721435E+01
 0.2172896766295E+01
 0.2313159492020E+01
 0.2375702560741E+01
 0.2383927661138E+01
 0.2357980103417E+01
 0.2314672479392E+01
 0.2263838006600E+01
 0.2210495624802E+01
 0.2157569514983E+01
 0.2106966072075E+01
 0.2059499012929E+01
 0.2015483198993E+01
 0.1975180546363E+01
 0.1938302667404E+01
 0.1903200511678E+01
 0.1884231307222E+01
 0.1899827112245E+01
 0.9490772843473E+00
 0.1428837050120E+01
 0.1792662904711E+01
 0.2050815530300E+01
 0.2218489626239E+01
 0.2314627248281E+01
 0.2356809762766E+01
 0.2361246940800E+01
 0.2343231159203E+01
 0.2313017754276E+01
 0.2276523246609E+01
 0.2237461758260E+01
 0.2198412688324E+01
 0.2160833639948E+01
 0.2125527846085E+01
 0.2093074990729E+01
 0.2063514517404E+01
 0.2034670933516E+01
 0.2017686361522E+01
 0.2027901486411E+01
 0.8768176409107E+00
 0.1315529517375E+01
 0.1666372075279E+01
 0.1930904532434E+01
 0.2117895754670E+01
 0.2240468741240E+01
 0.2311497958250E+01
 0.2343611075582E+01
 0.2350044116006E+01
 0.2340691236802E+01
 0.2321813379026E+01
 0.2297581986823E+01
 0.2271034432370E+01
 0.2244136300833E+01
 0.2218123853010E+01
 0.2193894834879E+01
 0.2171840808012E+01
 0.2149564661138E+01
 0.2135209137709E+01
 0.2141096897220E+01
 0.8127677528487E+00
 0.1214002132002E+01
 0.1549252517845E+01
 0.1814547427296E+01
 0.2014074124745E+01
 0.2156562407499E+01
 0.2251202344698E+01
 0.2307578331999E+01
 0.2336702373976E+01
 0.2347586084801E+01
 0.2346384247519E+01
 0.2337412828829E+01
 0.2323939381553E+01
 0.2308270933789E+01
 0.2291986707490E+01
 0.2276276403648E+01
 0.2261893000448E+01
 0.2246514325764E+01
 0.2235599591482E+01
 0.2238545512144E+01
 0.7556466687542E+00
 0.1122766637669E+01
 0.1440859900779E+01
 0.1702652088053E+01
 0.1909130720586E+01
 0.2065764663590E+01
 0.2178940888191E+01
 0.2255792454092E+01
 0.2305186361327E+01
 0.2334959851621E+01
 0.2350833892238E+01
 0.2357008780241E+01
 0.2356771174162E+01
 0.2352592294903E+01
 0.2346275046564E+01
 0.2339240448916E+01
 0.2332584262593E+01
 0.2324353097473E+01
 0.2317779029135E+01
 0.2319470760018E+01
 0.7043700222653E+00
 0.1040476069593E+01
 0.1340639890846E+01
 0.1595771242058E+01
 0.1804682491849E+01
 0.1970472169747E+01
 0.2097457998065E+01
 0.2190885408363E+01
 0.2257700750048E+01
 0.2304457788342E+01
 0.2336237849517E+01
 0.2356935286382E+01
 0.2369684363113E+01
 0.2376954004786E+01
 0.2380633568394E+01
 0.2382272770546E+01
 0.2383235436685E+01
 0.2382200841762E+01
 0.2380813782734E+01
 0.2383185651113E+01
 0.6579959077738E+00
 0.9659106014069E+00
 0.1247982570410E+01
 0.1494208090825E+01
 0.1701941769580E+01
 0.1872652773282E+01
 0.2009183158298E+01
 0.2115374235845E+01
 0.2196543321461E+01
 0.2257983452563E+01
 0.2304038200794E+01
 0.2338180670592E+01
 0.2363277423551E+01
 0.2381664043444E+01
 0.2395183706119E+01
 0.2405378437874E+01
 0.2413712453140E+01
 0.2419626149375E+01
 0.2423987871925E+01
 0.2429070475092E+01
 0.6156741236955E+00
 0.8978993931551E+00
 0.1162355433514E+01
 0.1398099606539E+01
 0.1601772230666E+01
 0.1773877317678E+01
 0.1916213165077E+01
 0.2031595106057E+01
 0.2124007444743E+01
 0.2197592466040E+01
 0.2255943280676E+01
 0.2302063548141E+01
 0.2338499730635E+01
 0.2367383014339E+01
 0.2390424385407E+01
 0.2409031794375E+01
 0.2424533868306E+01
 0.2436953284812E+01
 0.2447046437586E+01
 0.2456550641506E+01
 0.5761450935014E+00
 0.8358489137142E+00
 0.1083464433744E+01
 0.1307430563972E+01
 0.1504719232532E+01
 0.1675326766210E+01
 0.1820317369318E+01
 0.1941670343561E+01
 0.2042311368905E+01
 0.2125411302847E+01
 0.2193854906297E+01
 0.2250165777084E+01
 0.2296571662102E+01
 0.2334997895032E+01
 0.2367022937993E+01
 0.2393908408668E+01
 0.2416671871036E+01
 0.2435525868365E+01
 0.2451060623911E+01
 0.2465197206890E+01
 0.1120584203536E+00
 0.1131218422711E+00
 0.1184968674213E+00
 0.1288255596376E+00
 0.1427229086721E+00
 0.1586103764830E+00
 0.1752555373242E+00
 0.1923022202956E+00
 0.2093023219038E+00
 0.2256901453635E+00
 0.2410382921581E+00
 0.2550522010643E+00
 0.2674945017258E+00
 0.2780875883152E+00
 0.2865754634451E+00
 0.2928452169507E+00
 0.2971650149977E+00
 0.2999539576183E+00
 0.3037230540823E+00
 0.3118801166494E+00
 0.1033618735833E+00
 0.9509704159642E-01
 0.9338232949464E-01
 0.9759775670793E-01
 0.1059948132050E+00
 0.1165735965948E+00
 0.1280345541763E+00
 0.1402830465005E+00
 0.1529821631621E+00
 0.1655152140405E+00
 0.1773965987021E+00
 0.1883178271671E+00
 0.1980882376929E+00
 0.2065312401300E+00
 0.2136018465906E+00
 0.2195581779682E+00
 0.2250170133164E+00
 0.2304938984165E+00
 0.2380164287829E+00
 0.2405142144443E+00
 0.9413359319419E-01
 0.7518483185789E-01
 0.6599395429362E-01
 0.6426670650544E-01
 0.6743347117695E-01
 0.7305532522308E-01
 0.7979634967842E-01
 0.8778710002792E-01
 0.9676303574499E-01
 0.1060652000687E+00
 0.1151807742653E+00
 0.1238259318781E+00
 0.1318726081666E+00
 0.1392371341597E+00
 0.1460103528455E+00
 0.1525022717263E+00
 0.1589200662195E+00
 0.1652887221472E+00
 0.1713702102156E+00
 0.1743366093303E+00
 0.8385893180736E-01
 0.5340617721658E-01
 0.3653379466508E-01
 0.2926663792192E-01
 0.2772159797890E-01
 0.2886982683815E-01
 0.3139887652776E-01
 0.3567269321433E-01
 0.4151051618446E-01
 0.4823292282360E-01
 0.5531509723785E-01
 0.6249439453020E-01
 0.6966858541318E-01
 0.7676104598180E-01
 0.8382392957510E-01
 0.9095036872678E-01
 0.9780626572952E-01
 0.1040025912459E+00
 0.1105104230334E+00
 0.1185847966205E+00
 0.7231092180014E-01
 0.2953205306611E-01
 0.7919868493150E-02
 0.1245486496934E-01
 0.1767520775926E-01
 0.2004730393863E-01
 0.2077519788166E-01
 0.1934371278846E-01
 0.1601088374571E-01
 0.1180817921903E-01
 0.8367486100854E-02
 0.8816660573570E-02
 0.1359516818929E-01
 0.2019443974332E-01
 0.2755938653134E-01
 0.3528843209502E-01
 0.4260746944615E-01
 0.4961917404052E-01
 0.5892930065465E-01
 0.7298729272924E-01
 0.5927419126488E-01
 0.4787762880175E-02
 0.3135908039736E-01
 0.4967887339562E-01
 0.5939491970140E-01
 0.6513257966685E-01
 0.6864410553801E-01
 0.6921552819659E-01
 0.6700090425451E-01
 0.6280241763621E-01
 0.5719143048009E-01
 0.5044980917695E-01
 0.4276921199925E-01
 0.3441385936881E-01
 0.2561452138884E-01
 0.1674678608742E-01
 0.9087679925637E-02
 0.6769263454865E-02
 0.1767311040144E-01
 0.3733483454017E-01
 0.4454795101351E-01
 0.2642474110844E-01
 0.6775803105831E-01
 0.9066541245281E-01
 0.1033485783247E+00
 0.1114279748646E+00
 0.1168449621228E+00
 0.1187161664547E+00
 0.1171847309014E+00
 0.1131057395621E+00
 0.1070879231985E+00
 0.9946105710878E-01
 0.9049739490044E-01
 0.8053945365205E-01
 0.6983020071467E-01
 0.5858860370835E-01
 0.4737183635554E-01
 0.3444239113401E-01
 0.1595757909901E-01
 0.1142569778544E-01
 0.2801069394475E-01
 0.5820558915449E-01
 0.1069029066554E+00
 0.1334409282909E+00
 0.1481185284482E+00
 0.1575926535990E+00
 0.1640062559922E+00
 0.1663192141322E+00
 0.1646678971452E+00
 0.1599554545151E+00
 0.1528368837245E+00
 0.1437107896208E+00
 0.1329413624868E+00
 0.1209358065602E+00
 0.1079293731619E+00
 0.9404128427375E-01
 0.7961621200942E-01
 0.6234496931750E-01
 0.3828033079570E-01
 0.7241808288680E-02
 0.1061103779093E-01
 0.9323052169232E-01
 0.1485886936309E+00
 0.1776885356149E+00
 0.1932700217487E+00
 0.2031110332587E+00
 0.2095628480824E+00
 0.2114369667451E+00
 0.2088601089872E+00
 0.2027724855195E+00
 0.1938807640688E+00
 0.1826646239394E+00
 0.1695738253535E+00
 0.1550444661010E+00
 0.1392566886941E+00
 0.1221957654262E+00
 0.1040007386214E+00
 0.8204642965746E-01
 0.5273188277460E-01
 0.1645615537869E-01
 0.1550340369465E-01
 0.1316694606962E+00
 0.1927642674449E+00
 0.2231553978996E+00
 0.2384184433035E+00
 0.2475187413463E+00
 0.2530058605775E+00
 0.2535473754200E+00
 0.2492510957330E+00
 0.2410799040260E+00
 0.2297992141690E+00
 0.2159799827982E+00
 0.2001441344959E+00
 0.1827193640034E+00
 0.1637976707016E+00
 0.1432251009154E+00
 0.1209707188378E+00
 0.9431687638193E-01
 0.6017604644322E-01
 0.1963479985782E-01
 0.3916168488694E-01
 0.1737576457571E+00
 0.2393742183784E+00
 0.2695739044247E+00
 0.2831726974197E+00
 0.2903531944829E+00
 0.2938317419032E+00
 0.2921373321252E+00
 0.2853480935548E+00
 0.2744367326485E+00
 0.2602389641310E+00
 0.2434234752220E+00
 0.2245604262052E+00
 0.2040278000070E+00
 0.1818066796898E+00
 0.1576178212561E+00
 0.1313102298521E+00
 0.1002714519627E+00
 0.6200261451001E-01
 0.1807611303464E-01
 0.6692061328719E-01
 0.2197346323207E+00
 0.2883333419833E+00
 0.3166501463527E+00
 0.3271308257853E+00
 0.3311467073094E+00
 0.3315269835468E+00
 0.3266819336730E+00
 0.3166579308524E+00
 0.3024309290203E+00
 0.2849200486688E+00
 0.2648840381447E+00
 0.2428965374231E+00
 0.2192352974882E+00
 0.1937552112624E+00
 0.1660806833381E+00
 0.1360023052186E+00
 0.1011889806506E+00
 0.5975350855028E-01
 0.1352275042649E-01
 0.9855468707874E-01
 0.2698277337135E+00
 0.3395158635056E+00
 0.3640669763775E+00
 0.3698890703912E+00
 0.3694256825182E+00
 0.3655510170231E+00
 0.3566218080348E+00
 0.3426750137533E+00
 0.3246879473307E+00
 0.3036619188011E+00
 0.2804023735660E+00
 0.2554076654925E+00
 0.2287946952799E+00
 0.2002883202139E+00
 0.1694632198818E+00
 0.1361273705936E+00
 0.9839039719966E-01
 0.5496929911376E-01
 0.7772965904068E-02
 0.1344161834449E+00
 0.3242345423264E+00
 0.3927467931908E+00
 0.4114981457808E+00
 0.4110618388276E+00
 0.4047067047453E+00
 0.3953035354300E+00
 0.3813292710927E+00
 0.3628749350886E+00
 0.3408988526117E+00
 0.3164297488523E+00
 0.2902090452131E+00
 0.2625408752859E+00
 0.2333225009049E+00
 0.2021694744190E+00
 0.1686770136873E+00
 0.1327604921318E+00
 0.9311536815859E-01
 0.4903651953299E-01
 0.2892455194821E-02
 0.1749560048967E+00
 0.3830939113823E+00
 0.4477914118551E+00
 0.4586409993331E+00
 0.4503173826916E+00
 0.4364777537379E+00
 0.4200579864534E+00
 0.4000612105816E+00
 0.3767288254857E+00
 0.3508852335783E+00
 0.3234050768449E+00
 0.2947623705779E+00
 0.2649276116961E+00
 0.2335535781706E+00
 0.2002109217274E+00
 0.1646106301762E+00
 0.1268708517719E+00
 0.8640498037398E-01
 0.4304451523099E-01
 0.3387269573542E-02
 0.2206623477119E+00
 0.4464280471103E+00
 0.5043381428448E+00
 0.5052895244570E+00
 0.4874403055484E+00
 0.4641328675719E+00
 0.4388331499076E+00
 0.4119126293293E+00
 0.3837799722543E+00
 0.3547220428576E+00
 0.3250720229383E+00
 0.2947631606244E+00
 0.2633402028125E+00
 0.2302697062396E+00
 0.1951956316732E+00
 0.1580510914510E+00
 0.1192370209062E+00
 0.7900899547271E-01
 0.3767794561446E-01
 0.5254895276374E-02
 0.2720229866206E+00
 0.5140085324679E+00
 0.5619585007626E+00
 0.5515197748025E+00
 0.5224234233342E+00
 0.4867801096916E+00
 0.4501613671700E+00
 0.4158583025470E+00
 0.3838454715403E+00
 0.3529195808809E+00
 0.3222784265428E+00
 0.2911059843232E+00
 0.2585994041037E+00
 0.2242109496464E+00
 0.1878078305004E+00
 0.1496280125311E+00
 0.1103934106524E+00
 0.7133327690058E-01
 0.3316687777119E-01
 0.5368636559309E-02
 0.3294382295450E+00
 0.5849355659257E+00
 0.6200692906270E+00
 0.5981577313856E+00
 0.5555836132008E+00
 0.5026217850947E+00
 0.4519177616741E+00
 0.4110311243398E+00
 0.3773926747243E+00
 0.3466042265866E+00
 0.3161784628217E+00
 0.2847327270559E+00
 0.2514490980409E+00
 0.2159990115685E+00
 0.1785929467655E+00
 0.1397972227667E+00
 0.1006170327574E+00
 0.6343232401613E-01
 0.2929201349537E-01
 0.4003001664594E-02
 0.3930962668607E+00
 0.6562937711283E+00
 0.6776743169967E+00
 0.6488664074380E+00
 0.5863675681851E+00
 0.5081960005632E+00
 0.4414399088248E+00
 0.3974458112617E+00
 0.3660696166751E+00
 0.3374666338236E+00
 0.3079576752999E+00
 0.2764270680150E+00
 0.2424625316174E+00
 0.2060973245270E+00
 0.1679629193434E+00
 0.1288727017294E+00
 0.8997185285881E-01
 0.5501987280142E-01
 0.2540354127643E-01
 0.2123890507146E-02
 0.4593916285686E+00
 0.7098224494324E+00
 0.7438434542127E+00
 0.7080023099100E+00
 0.6119537676157E+00
 0.4974921636106E+00
 0.4163820393989E+00
 0.3776361027653E+00
 0.3527731765179E+00
 0.3271802804413E+00
 0.2984101589705E+00
 0.2667086598608E+00
 0.2320768460715E+00
 0.1947739064533E+00
 0.1561487170789E+00
 0.1172808561130E+00
 0.7842451270227E-01
 0.4528228641047E-01
 0.2030529711336E-01
 0.9307281129434E-03
 0.2475688937813E+01
 0.2471054617159E+01
 0.2448565655517E+01
 0.2409232124793E+01
 0.2353333960811E+01
 0.2281140805460E+01
 0.2193095406568E+01
 0.2089804669778E+01
 0.1972010754517E+01
 0.1840561796846E+01
 0.1696392678634E+01
 0.1540524675705E+01
 0.1374097011037E+01
 0.1198449595352E+01
 0.1015285863036E+01
 0.8269626237250E+00
 0.6370033733153E+00
 0.4510985826381E+00
 0.2794629382486E+00
 0.1463303334573E+00
 0.2480141995567E+01
 0.2484009442643E+01
 0.2471900899823E+01
 0.2443336595497E+01
 0.2398531460108E+01
 0.2337762234902E+01
 0.2261394579854E+01
 0.2169927495958E+01
 0.2063995641410E+01
 0.1944354556099E+01
 0.1811863557377E+01
 0.1667479088410E+01
 0.1512272574865E+01
 0.1347491571167E+01
 0.1174689896028E+01
 0.9959615009612E+00
 0.8143309385795E+00
 0.6344240998061E+00
 0.4639188057916E+00
 0.3191456635914E+00
 0.2481116700611E+01
 0.2492088075452E+01
 0.2489121426912E+01
 0.2470941458864E+01
 0.2437216769790E+01
 0.2388006315170E+01
 0.2323530419022E+01
 0.2244144279172E+01
 0.2150339391574E+01
 0.2042737065812E+01
 0.1922075561380E+01
 0.1789200094757E+01
 0.1645068847602E+01
 0.1490792634150E+01
 0.1327731134745E+01
 0.1157670822394E+01
 0.9830944644731E+00
 0.8074968004876E+00
 0.6355559200570E+00
 0.4711011395746E+00
 0.2478138540892E+01
 0.2495366600891E+01
 0.2500476202515E+01
 0.2491866724767E+01
 0.2468772619765E+01
 0.2430906057453E+01
 0.2378240714679E+01
 0.2310921182805E+01
 0.2229237163275E+01
 0.2133610438806E+01
 0.2024578517088E+01
 0.1902774924424E+01
 0.1768913606313E+01
 0.1623790581994E+01
 0.1468321643729E+01
 0.1303636298499E+01
 0.1131229232845E+01
 0.9530512733921E+00
 0.7710163209865E+00
 0.5832127703616E+00
 0.2470824540616E+01
 0.2493588862279E+01
 0.2505822013866E+01
 0.2505863571998E+01
 0.2492679779173E+01
 0.2465674945485E+01
 0.2424539259006E+01
 0.2369161007287E+01
 0.2299584098900E+01
 0.2215985100966E+01
 0.2118650703103E+01
 0.2007948021776E+01
 0.1884287817553E+01
 0.1748086738882E+01
 0.1599741284761E+01
 0.1439633595820E+01
 0.1268187351901E+01
 0.1085946780630E+01
 0.8932993549214E+00
 0.6897104108945E+00
 0.2458928965977E+01
 0.2486567376702E+01
 0.2505027999605E+01
 0.2512752248328E+01
 0.2508587264053E+01
 0.2491718277702E+01
 0.2461584968982E+01
 0.2417819108193E+01
 0.2360206107513E+01
 0.2288659532382E+01
 0.2203196165291E+01
 0.2103902039831E+01
 0.1990884047889E+01
 0.1864205904817E+01
 0.1723813079028E+01
 0.1569462164912E+01
 0.1400692769254E+01
 0.1216922075309E+01
 0.1017831318268E+01
 0.8040984231792E+00
 0.2442288878204E+01
 0.2474180141238E+01
 0.2498051670141E+01
 0.2512531983469E+01
 0.2516461109284E+01
 0.2508901048409E+01
 0.2489105972205E+01
 0.2456489443380E+01
 0.2410598914553E+01
 0.2351095532766E+01
 0.2277732270266E+01
 0.2190322344177E+01
 0.2088690311060E+01
 0.1972599351898E+01
 0.1841650797563E+01
 0.1695159549053E+01
 0.1532034060853E+01
 0.1350763675512E+01
 0.1149889199683E+01
 0.9293561131335E+00
 0.2420794702058E+01
 0.2456309878405E+01
 0.2484816568474E+01
 0.2505162812495E+01
 0.2516257499341E+01
 0.2517123301378E+01
 0.2506903628913E+01
 0.2484854422326E+01
 0.2450333189995E+01
 0.2402787488498E+01
 0.2341739774926E+01
 0.2266762870413E+01
 0.2177438752899E+01
 0.2073292104902E+01
 0.1953688757220E+01
 0.1817689315124E+01
 0.1663854386029E+01
 0.1490036757958E+01
 0.1293294666495E+01
 0.1071030965683E+01
 0.2394392065810E+01
 0.2432871178618E+01
 0.2465245858895E+01
 0.2490585217729E+01
 0.2507911144897E+01
 0.2516270987982E+01
 0.2514766166030E+01
 0.2502561286664E+01
 0.2478885588970E+01
 0.2443030618712E+01
 0.2394343359948E+01
 0.2332211187966E+01
 0.2256032886402E+01
 0.2165167729306E+01
 0.2058851403267E+01
 0.1936061996736E+01
 0.1795310117303E+01
 0.1634304620675E+01
 0.1449425331461E+01
 0.1234868868570E+01
 0.2363071692238E+01
 0.2403809016521E+01
 0.2439271202688E+01
 0.2468730419095E+01
 0.2491340524599E+01
 0.2506215735127E+01
 0.2512469506020E+01
 0.2509233999463E+01
 0.2495670667671E+01
 0.2470976255850E+01
 0.2434384767028E+01
 0.2385163444343E+01
 0.2322598890025E+01
 0.2245967385672E+01
 0.2154480380696E+01
 0.2047190389187E+01
 0.1922829591716E+01
 0.1779523916565E+01
 0.1614231667459E+01
 0.1421333249245E+01
 0.2326864301028E+01
 0.2369102516992E+01
 0.2406843668436E+01
 0.2439532161179E+01
 0.2466454431342E+01
 0.2486814175335E+01
 0.2499773045177E+01
 0.2504474666906E+01
 0.2500060791422E+01
 0.2485683783679E+01
 0.2460516817401E+01
 0.2423761267658E+01
 0.2374649423121E+01
 0.2312439426934E+01
 0.2236397876072E+01
 0.2145762949382E+01
 0.2039676109250E+01
 0.1917059198362E+01
 0.1776387849657E+01
 0.1615295199135E+01
 0.2285817824904E+01
 0.2328743109577E+01
 0.2367916118539E+01
 0.2402914845910E+01
 0.2433148722484E+01
 0.2457920061730E+01
 0.2476460537379E+01
 0.2487955058911E+01
 0.2491559852703E+01
 0.2486418530130E+01
 0.2471678000891E+01
 0.2446504808994E+01
 0.2410101650176E+01
 0.2361723415334E+01
 0.2300692110100E+01
 0.2226410623223E+01
 0.2138377184128E+01
 0.2036209057776E+01
 0.1919710145598E+01
 0.1789145321511E+01
 0.2240002522273E+01
 0.2282759182144E+01
 0.2322472097076E+01
 0.2358820722069E+01
 0.2391325101171E+01
 0.2419388341497E+01
 0.2442325137350E+01
 0.2459382067087E+01
 0.2469754285878E+01
 0.2472601784860E+01
 0.2467067259252E+01
 0.2452296818986E+01
 0.2427464284733E+01
 0.2391799727478E+01
 0.2344623457563E+01
 0.2285388242640E+01
 0.2213736001042E+01
 0.2129582550749E+01
 0.2033261648744E+01
 0.1925765264911E+01
 0.2189512100345E+01
 0.2231226260051E+01
 0.2270549883659E+01
 0.2307245653786E+01
 0.2340933493866E+01
 0.2371116501470E+01
 0.2397200359366E+01
 0.2418508005990E+01
 0.2434292372280E+01
 0.2443749711112E+01
 0.2446035531038E+01
 0.2440284674625E+01
 0.2425636719842E+01
 0.2401267717962E+01
 0.2366429493403E+01
 0.2320498621093E+01
 0.2263038905085E+01
 0.2193882960390E+01
 0.2113234258188E+01
 0.2021772872455E+01
 0.2134463224258E+01
 0.2174259442997E+01
 0.2212242638165E+01
 0.2248250319477E+01
 0.2281994544478E+01
 0.2313076588914E+01
 0.2340998214102E+01
 0.2365170013212E+01
 0.2384918602516E+01
 0.2399494637159E+01
 0.2408083512143E+01
 0.2409820386384E+01
 0.2403810878633E+01
 0.2389158419596E+01
 0.2364998840773E+01
 0.2330542436401E+01
 0.2285123613938E+01
 0.2228257609289E+01
 0.2159699917565E+01
 0.2079496393998E+01
 0.2075001328168E+01
 0.2112013741118E+01
 0.2147699299431E+01
 0.2181965642249E+01
 0.2214611040830E+01
 0.2245332623259E+01
 0.2273731445759E+01
 0.2299314932447E+01
 0.2321497985056E+01
 0.2339604323412E+01
 0.2352869688901E+01
 0.2360448526014E+01
 0.2361425620012E+01
 0.2354833798379E+01
 0.2339678051623E+01
 0.2314965223751E+01
 0.2279736877574E+01
 0.2233102461074E+01
 0.2174272972598E+01
 0.2102596602153E+01
 0.2011307563461E+01
 0.2044689736449E+01
 0.2077129752078E+01
 0.2108600113555E+01
 0.2138979211821E+01
 0.2168056599992E+01
 0.2195534015720E+01
 0.2221023101387E+01
 0.2244040911445E+01
 0.2264004392361E+01
 0.2280225133164E+01
 0.2291905831249E+01
 0.2298140044381E+01
 0.2297916758386E+01
 0.2290130826097E+01
 0.2273599075443E+01
 0.2247079681649E+01
 0.2209289321151E+01
 0.2158914017973E+01
 0.2094627235035E+01
 0.1943604793069E+01
 0.1972540756294E+01
 0.2000812642610E+01
 0.2028449621179E+01
 0.2055402133810E+01
 0.2081546556737E+01
 0.2106684195568E+01
 0.2130535961705E+01
 0.2152733666214E+01
 0.2172808694451E+01
 0.2190178859123E+01
 0.2204134443703E+01
 0.2213824828504E+01
 0.2218247588490E+01
 0.2216242369745E+01
 0.2206491710312E+01
 0.2187529428087E+01
 0.2157753210524E+01
 0.2115426105297E+01
 0.2058648688642E+01
 0.1872162051838E+01
 0.1895879843646E+01
 0.1919104270546E+01
 0.1941908925324E+01
 0.1964305027849E+01
 0.1986246954642E+01
 0.2007630927552E+01
 0.2028288610587E+01
 0.2047976340863E+01
 0.2066360265120E+01
 0.2082997515723E+01
 0.2097313659544E+01
 0.2108577057636E+01
 0.2115871609096E+01
 0.2118070751396E+01
 0.2113817448361E+01
 0.2101516338722E+01
 0.2079343487706E+01
 0.2045273852451E+01
 0.1997070492416E+01
 0.1797297443860E+01
 0.1815085965870E+01
 0.1832447659831E+01
 0.1849483896904E+01
 0.1866251847946E+01
 0.1882771162976E+01
 0.1899023742375E+01
 0.1914948336953E+01
 0.1930430374200E+01
 0.1945286840554E+01
 0.1959245659122E+01
 0.1971918782447E+01
 0.1982768244591E+01
 0.1991064920938E+01
 0.1995841185932E+01
 0.1995841828857E+01
 0.1989483168920E+01
 0.1974836944190E+01
 0.1949664403055E+01
 0.1911557554730E+01
 0.1719380549382E+01
 0.1730610236899E+01
 0.1741381263342E+01
 0.1751803388176E+01
 0.1761961859945E+01
 0.1771924827483E+01
 0.1781745450333E+01
 0.1791459398838E+01
 0.1801078021248E+01
 0.1810576788705E+01
 0.1819878016288E+01
 0.1828826217787E+01
 0.1837153778138E+01
 0.1844434010954E+01
 0.1850018489502E+01
 0.1852956833437E+01
 0.1851902786471E+01
 0.1845024773133E+01
 0.1829955301604E+01
 0.1803863761746E+01
 0.1638835080272E+01
 0.1642980245079E+01
 0.1646544381791E+01
 0.1649627009108E+01
 0.1652321372943E+01
 0.1654724070689E+01
 0.1656940322690E+01
 0.1659085745470E+01
 0.1661285093329E+01
 0.1663667822767E+01
 0.1666359603837E+01
 0.1669467996094E+01
 0.1673059240620E+01
 0.1677121234831E+01
 0.1681504929034E+01
 0.1685832521057E+01
 0.1689356783158E+01
 0.1690760593130E+01
 0.1687919985969E+01
 0.1677621361633E+01
 0.1556128041397E+01
 0.1552784274420E+01
 0.1548661238391E+01
 0.1543829687410E+01
 0.1538370359076E+01
 0.1532386913907E+01
 0.1526014666241E+01
 0.1519427028112E+01
 0.1512840920591E+01
 0.1506521782987E+01
 0.1500788181253E+01
 0.1496015255753E+01
 0.1492635084419E+01
 0.1491129952179E+01
 0.1492010494903E+01
 0.1495762625214E+01
 0.1502731276027E+01
 0.1512876277329E+01
 0.1525315048790E+01
 0.1537713402054E+01
 0.1471772198224E+01
 0.1460675336129E+01
 0.1448547329681E+01
 0.1435411943088E+01
 0.1421318810490E+01
 0.1406359512615E+01
 0.1390678975847E+01
 0.1374485696972E+01
 0.1358063298573E+01
 0.1341785234698E+01
 0.1326134115315E+01
 0.1311726991163E+01
 0.1299347870279E+01
 0.1289988409249E+01
 0.1284896408305E+01
 0.1285627426110E+01
 0.1294081483192E+01
 0.1312467635906E+01
 0.1342980232211E+01
 0.1386795365435E+01
 0.1386322299925E+01
 0.1367368970297E+01
 0.1347107610025E+01
 0.1325499550254E+01
 0.1302550662683E+01
 0.1278329344376E+01
 0.1252978480685E+01
 0.1226727226128E+01
 0.1199906548021E+01
 0.1172971540399E+01
 0.1146533452823E+01
 0.1121405103575E+01
 0.1098664937380E+01
 0.1079747789306E+01
 0.1066575140412E+01
 0.1061745784399E+01
 0.1068821223069E+01
 0.1092759781797E+01
 0.1140566196059E+01
 0.1221448720503E+01
 0.1300366486650E+01
 0.1273634000050E+01
 0.1245325757684E+01
 0.1215331543564E+01
 0.1183612988772E+01
 0.1150220684132E+01
 0.1115303441202E+01
 0.1079118614214E+01
 0.1042048638194E+01
 0.1004627362782E+01
 0.9675797329818E+00
 0.9318796062952E+00
 0.8988331849312E+00
 0.8702005005554E+00
 0.8483766990156E+00
 0.8366731177256E+00
 0.8397786861065E+00
 0.8645760682303E+00
 0.9217815198309E+00
 0.1030076437708E+01
 0.1214515788438E+01
 0.1180280185877E+01
 0.1144248157513E+01
 0.1106240407123E+01
 0.1066194693938E+01
 0.1024176869935E+01
 0.9803836275433E+00
 0.9351489511671E+00
 0.8889597417533E+00
 0.8424835232823E+00
 0.7966107292010E+00
 0.7525149587412E+00
 0.7117366188973E+00
 0.6762989296162E+00
 0.6488714372749E+00
 0.6330080726740E+00
 0.6335095641141E+00
 0.6570255620206E+00
 0.7131346699374E+00
 0.8174166785911E+00
 0.1129391400931E+01
 0.1088141086189E+01
 0.1044957363198E+01
 0.9996132126913E+00
 0.9520727540485E+00
 0.9024878348818E+00
 0.8511906763399E+00
 0.7986958811181E+00
 0.7457158213969E+00
 0.6931899141935E+00
 0.6423271363503E+00
 0.5946607132999E+00
 0.5521132207950E+00
 0.5170682008678E+00
 0.4924387320046E+00
 0.4817085901752E+00
 0.4888866373549E+00
 0.5181982571762E+00
 0.5730496162119E+00
 0.6509181439800E+00
 0.1045607381484E+01
 0.9980424937927E+00
 0.9485138076496E+00
 0.8967915179242E+00
 0.8429442980302E+00
 0.7873084944097E+00
 0.7304643695982E+00
 0.6732298114442E+00
 0.6166710483900E+00
 0.5621254730786E+00
 0.5112295290222E+00
 0.4659421881932E+00
 0.4285497493379E+00
 0.4016278111996E+00
 0.3879164103298E+00
 0.3900257532535E+00
 0.4098069747602E+00
 0.4470448653374E+00
 0.4965382884576E+00
 0.5421979200449E+00
 0.9637502280274E+00
 0.9107561614962E+00
 0.8558734670915E+00
 0.7989386860951E+00
 0.7402187464978E+00
 0.6803360458489E+00
 0.6202153090483E+00
 0.5610571484006E+00
 0.5043291329357E+00
 0.4517602296353E+00
 0.4053222261398E+00
 0.3671780750526E+00
 0.3395696417562E+00
 0.3246039063409E+00
 0.3238759502359E+00
 0.3378369870589E+00
 0.3647740460852E+00
 0.3992194590938E+00
 0.4298781171631E+00
 0.4396715388295E+00
 0.8843522863310E+00
 0.8269344000094E+00
 0.7677887552477E+00
 0.7069052873602E+00
 0.6448464391767E+00
 0.5826038709377E+00
 0.5214965890138E+00
 0.4631085718384E+00
 0.4092422954380E+00
 0.3618626634124E+00
 0.3230065871857E+00
 0.2946321445113E+00
 0.2783769502460E+00
 0.2751908935144E+00
 0.2848099257212E+00
 0.3050528998624E+00
 0.3309788307742E+00
 0.3541699683593E+00
 0.3632129834101E+00
 0.3469119655062E+00
 0.8078631483860E+00
 0.7470604539610E+00
 0.6847535463556E+00
 0.6211790341436E+00
 0.5572883374367E+00
 0.4944914506985E+00
 0.4344874291309E+00
 0.3791556932659E+00
 0.3304633523254E+00
 0.2903517849659E+00
 0.2605746091227E+00
 0.2424645775929E+00
 0.2366132385155E+00
 0.2424622079849E+00
 0.2578351625997E+00
 0.2784950984384E+00
 0.2979406530918E+00
 0.3079440973081E+00
 0.3004904878201E+00
 0.2709509220462E+00
 0.7346568389650E+00
 0.6714873693210E+00
 0.6070649867253E+00
 0.5419758022247E+00
 0.4776422994279E+00
 0.4158942074939E+00
 0.3587245496635E+00
 0.3081418047839E+00
 0.2660421973401E+00
 0.2340565755192E+00
 0.2133470050206E+00
 0.2043447553480E+00
 0.2064412222602E+00
 0.2176741832605E+00
 0.2344910489449E+00
 0.2517334161288E+00
 0.2630968143733E+00
 0.2623683676103E+00
 0.2454075905580E+00
 0.2120682460554E+00
 0.6650381020056E+00
 0.6004549276395E+00
 0.5348349885632E+00
 0.4692522535536E+00
 0.4056681717049E+00
 0.3462782509733E+00
 0.2932183551990E+00
 0.2484119995209E+00
 0.2134433587035E+00
 0.1894011423968E+00
 0.1766800582213E+00
 0.1747519394853E+00
 0.1819490866884E+00
 0.1953302037759E+00
 0.2107248175992E+00
 0.2230910236233E+00
 0.2273354747961E+00
 0.2195960582009E+00
 0.1985977959347E+00
 0.1662739332809E+00
 0.5992364267926E+00
 0.5340732140341E+00
 0.4679765417616E+00
 0.4027174725824E+00
 0.3408431326814E+00
 0.2847975824314E+00
 0.2366528338807E+00
 0.1980242171907E+00
 0.1699916669083E+00
 0.1529809900262E+00
 0.1466061537359E+00
 0.1495157020194E+00
 0.1593070982395E+00
 0.1725799327402E+00
 0.1852031121343E+00
 0.1928731843496E+00
 0.1919751170804E+00
 0.1805607148844E+00
 0.1589993117613E+00
 0.1298159606280E+00
 0.5374036030473E+00
 0.4722896535107E+00
 0.4061777673402E+00
 0.3418504486183E+00
 0.2824461413118E+00
 0.2304450868581E+00
 0.1876076976326E+00
 0.1550424296441E+00
 0.1332282624177E+00
 0.1219362024376E+00
 0.1201222127048E+00
 0.1258608256409E+00
 0.1363849290328E+00
 0.1482800951760E+00
 0.1578713238240E+00
 0.1618146487282E+00
 0.1578120566746E+00
 0.1452132844039E+00
 0.1251630346880E+00
 0.1000594313347E+00
 0.4796190549509E+00
 0.4148514284711E+00
 0.3488903141523E+00
 0.2859882203200E+00
 0.2297237246419E+00
 0.1822714376914E+00
 0.1447755535900E+00
 0.1177446929949E+00
 0.1010864921532E+00
 0.9403719924676E-01
 0.9509838889523E-01
 0.1020498462038E+00
 0.1120842521883E+00
 0.1220782614887E+00
 0.1290028517147E+00
 0.1304412586323E+00
 0.1250982991620E+00
 0.1131001266800E+00
 0.9588317935829E-01
 0.7557485677692E-01
 0.4259221542215E+00
 0.3612363231391E+00
 0.2953147260022E+00
 0.2344140030338E+00
 0.1820975756525E+00
 0.1394663647468E+00
 0.1069753832747E+00
 0.8463146938379E-01
 0.7191754021930E-01
 0.6771771253316E-01
 0.7029559506201E-01
 0.7737151934121E-01
 0.8631540074097E-01
 0.9443779436213E-01
 0.9936120480082E-01
 0.9942268525324E-01
 0.9399907823938E-01
 0.8361254821108E-01
 0.6974616196746E-01
 0.5443028474620E-01
 0.3763077377914E+00
 0.3100041572680E+00
 0.2440048013028E+00
 0.1869149742260E+00
 0.1393103895884E+00
 0.1013823268573E+00
 0.7324528525099E-01
 0.5462219292022E-01
 0.4473818679735E-01
 0.4228753952514E-01
 0.4545778196853E-01
 0.5205420760332E-01
 0.5972606268712E-01
 0.6624178190474E-01
 0.6979281647005E-01
 0.6928134611978E-01
 0.6450677403385E-01
 0.5617509665532E-01
 0.4570912460941E-01
 0.3515326932488E-01
 0.3284289734076E+00
 0.2561481452643E+00
 0.1959591855314E+00
 0.1444654364156E+00
 0.1014471580353E+00
 0.6755209474704E-01
 0.4288066562930E-01
 0.2699541084248E-01
 0.1894913228755E-01
 0.1737321469627E-01
 0.2049737829077E-01
 0.2628104227914E-01
 0.3269373498714E-01
 0.3794463390386E-01
 0.4070081788532E-01
 0.4027357589624E-01
 0.3670969943056E-01
 0.3075684054339E-01
 0.2374865708824E-01
 0.1736869621136E-01
</DataArray>
<DataArray type="Float64" Name="S_Hyd" NumberOfComponents="1" ComponentName0="S_Hyd" format="ascii">
 0.3690635152955E+01
 0.2601296477713E+01
 0.2511166454889E+01
 0.2424377526012E+01
 0.2386034345154E+01
 0.2360497344956E+01
 0.2344088023072E+01
 0.2332265719078E+01
 0.2323303973463E+01
 0.2316090039223E+01
 0.2310054500354E+01
 0.2304898385538E+01
 0.2300508002006E+01
 0.2296893352298E+01
 0.2294158111190E+01
 0.2292483960601E+01
 0.2292125979370E+01
 0.2293419020825E+01
 0.2296790712960E+01
 0.2302796336378E+01
 0.2312177534749E+01
 0.2325997271397E+01
 0.2346119927690E+01
 0.2375582448978E+01
 0.2415101417632E+01
 0.2461692931571E+01
 0.2512328988063E+01
 0.2565779151570E+01
 0.2622767818132E+01
 0.2685453614024E+01
 0.2756766015396E+01
 0.2839767974274E+01
 0.2936214358806E+01
 0.3049423840454E+01
 0.3189448628311E+01
 0.3375469144068E+01
 0.3620290865440E+01
 0.4016160015400E+01
 0.4392618248363E+01
 0.6454753733610E+01
 0.1836964794820E+01
 0.3309667574773E+01
 0.2774014037945E+01
 0.2507371344224E+01
 0.2427924470345E+01
 0.2372490098057E+01
 0.2340821874457E+01
 0.2319135682311E+01
 0.2303863921210E+01
 0.2292360346673E+01
 0.2283312559836E+01
 0.2275934594916E+01
 0.2269802938914E+01
 0.2264710669902E+01
 0.2260600779158E+01
 0.2257525549347E+01
 0.2255625920826E+01
 0.2255123552682E+01
 0.2256323204537E+01
 0.2259625941271E+01
 0.2265559035147E+01
 0.2274832030425E+01
 0.2288474346058E+01
 0.2308143954750E+01
 0.2335643918825E+01
 0.2371140500712E+01
 0.2412721522688E+01
 0.2458178332930E+01
 0.2506485419706E+01
 0.2558057588037E+01
 0.2614396523178E+01
 0.2677571450797E+01
 0.2749482126764E+01
 0.2831625411522E+01
 0.2926812671325E+01
 0.3042147995365E+01
 0.3184962487515E+01
 0.3376934557501E+01
 0.3587798194177E+01
 0.4003612026076E+01
 0.4042066243981E+01
-0.1670242603307E+00
 0.3107804701220E+01
 0.2771987060543E+01
 0.2528336678714E+01
 0.2418050893206E+01
 0.2358183014295E+01
 0.2319193834657E+01
 0.2293365138032E+01
 0.2274850748067E+01
 0.2261028496788E+01
 0.2250253552815E+01
 0.2241600266064E+01
 0.2234526582931E+01
 0.2228744577222E+01
 0.2224134957075E+01
 0.2220701532194E+01
 0.2218545549819E+01
 0.2217854403674E+01
 0.2218901215689E+01
 0.2222055529649E+01
 0.2227808733591E+01
 0.2236823954261E+01
 0.2250049967303E+01
 0.2268776777307E+01
 0.2294095578710E+01
 0.2325927292481E+01
 0.2362903447019E+01
 0.2403395358331E+01
 0.2446524065929E+01
 0.2492435557541E+01
 0.2542064305021E+01
 0.2596671059369E+01
 0.2657323569936E+01
 0.2724882197824E+01
 0.2801111612872E+01
 0.2888547314237E+01
 0.2991579351890E+01
 0.3104076164961E+01
 0.3225106536710E+01
 0.3292700784936E+01
 0.2508014348719E+01
-0.8084469058427E+00
 0.2967195866784E+01
 0.2729179418991E+01
 0.2525548654142E+01
 0.2406875464009E+01
 0.2339567836046E+01
 0.2296144241353E+01
 0.2266433224488E+01
 0.2245159268186E+01
 0.2229217515003E+01
 0.2216856289309E+01
 0.2207006250222E+01
 0.2199035498278E+01
 0.2192583724181E+01
 0.2187476161181E+01
 0.2183671389338E+01
 0.2181232362986E+01
 0.2180311990710E+01
 0.2181149976781E+01
 0.2184080226114E+01
 0.2189550729300E+01
 0.2198164353089E+01
 0.2210735252448E+01
 0.2228216252203E+01
 0.2251252164545E+01
 0.2279633284542E+01
 0.2312305016116E+01
 0.2348008949738E+01
 0.2385955033655E+01
 0.2426048755797E+01
 0.2468717460470E+01
 0.2514529361312E+01
 0.2563803480929E+01
 0.2616628237702E+01
 0.2673016354170E+01
 0.2732663167025E+01
 0.2791770971382E+01
 0.2837962333720E+01
 0.2839458119404E+01
 0.2617250870780E+01
 0.1569897295125E+01
-0.9597640432662E+00
 0.2855460502959E+01
 0.2674324155484E+01
 0.2504946128871E+01
 0.2389727897102E+01
 0.2318016445935E+01
 0.2271039092958E+01
 0.2238344449829E+01
 0.2214666303321E+01
 0.2196867832686E+01
 0.2183067248383E+01
 0.2172113714424E+01
 0.2163299365484E+01
 0.2156205084722E+01
 0.2150607085855E+01
 0.2146422664862E+01
 0.2143678203840E+01
 0.2142492253339E+01
 0.2143069617955E+01
 0.2145704971142E+01
 0.2150796748137E+01
 0.2158871620497E+01
 0.2170591263651E+01
 0.2186631072214E+01
 0.2207337590490E+01
 0.2232420147064E+01
 0.2261011542393E+01
 0.2292079424637E+01
 0.2324868402043E+01
 0.2359060933316E+01
 0.2394637367111E+01
 0.2431559318868E+01
 0.2469454528998E+01
 0.2507470615807E+01
 0.2544034518389E+01
 0.2575555890977E+01
 0.2592987332652E+01
 0.2575534748502E+01
 0.2462411994028E+01
 0.2062790970399E+01
 0.9929162650233E+00
-0.9664580966781E+00
 0.2760168832684E+01
 0.2615703934908E+01
 0.2473287235837E+01
 0.2365988250515E+01
 0.2293305478791E+01
 0.2243918571300E+01
 0.2208963212989E+01
 0.2183319681612E+01
 0.2163919821891E+01
 0.2148844590361E+01
 0.2136888535692E+01
 0.2127292062055E+01
 0.2119588616526E+01
 0.2113512951474E+01
 0.2108945184850E+01
 0.2105877211310E+01
 0.2104393662714E+01
 0.2104663345855E+01
 0.2106938930219E+01
 0.2111563674819E+01
 0.2118978275627E+01
 0.2129694942025E+01
 0.2144166273317E+01
 0.2162528644862E+01
 0.2184432753691E+01
 0.2209120644797E+01
 0.2235689469454E+01
 0.2263375131741E+01
 0.2291651112916E+01
 0.2320103148753E+01
 0.2348158349880E+01
 0.2374779418161E+01
 0.2398189837576E+01
 0.2415247866431E+01
 0.2419629949320E+01
 0.2398219557205E+01
 0.2322096716484E+01
 0.2119190354233E+01
 0.1629588082501E+01
 0.6255327957159E+00
-0.9278371387703E+00
 0.2675353530817E+01
 0.2556198621291E+01
 0.2434826664754E+01
 0.2336612090740E+01
 0.2265330281598E+01
 0.2214792680250E+01
 0.2178246475742E+01
 0.2151068741650E+01
 0.2130333505294E+01
 0.2114153066095E+01
 0.2101302838741E+01
 0.2090991408415E+01
 0.2082717422368E+01
 0.2076181519346E+01
 0.2071231067612E+01
 0.2067825787553E+01
 0.2066017150092E+01
 0.2065937348048E+01
 0.2067794991151E+01
 0.2071874233415E+01
 0.2078526661152E+01
 0.2088126973457E+01
 0.2100948784184E+01
 0.2116973207383E+01
 0.2135802257988E+01
 0.2156736145043E+01
 0.2178936881419E+01
 0.2201600880507E+01
 0.2224005792746E+01
 0.2245389479089E+01
 0.2264702691853E+01
 0.2280293380254E+01
 0.2289514662783E+01
 0.2287836738892E+01
 0.2266812415251E+01
 0.2210131681630E+01
 0.2084273164047E+01
 0.1819515932816E+01
 0.1295145023417E+01
 0.3832894648223E+00
-0.8781553420714E+00
 0.2597705064174E+01
 0.2496903873083E+01
 0.2392107311013E+01
 0.2302789573473E+01
 0.2234287349323E+01
 0.2183688137693E+01
 0.2146191175607E+01
 0.2117886073374E+01
 0.2096080296980E+01
 0.2078966492554E+01
 0.2065334255878E+01
 0.2054379396037E+01
 0.2045577700658E+01
 0.2038603096657E+01
 0.2033274682558E+01
 0.2029522525212E+01
 0.2027365994743E+01
 0.2026900544253E+01
 0.2028289512451E+01
 0.2031756206731E+01
 0.2037564733443E+01
 0.2045967009964E+01
 0.2057091507712E+01
 0.2070799678176E+01
 0.2086649208426E+01
 0.2103964305567E+01
 0.2121928878475E+01
 0.2139680082824E+01
 0.2156313833798E+01
 0.2170761735339E+01
 0.2181554372803E+01
 0.2186489295945E+01
 0.2182150763996E+01
 0.2162884876298E+01
 0.2118682290245E+01
 0.2031255011740E+01
 0.1866369786992E+01
 0.1563396354312E+01
 0.1036365351285E+01
 0.2183577109417E+00
-0.8287998165352E+00
 0.2525205188446E+01
 0.2438233542637E+01
 0.2346670412897E+01
 0.2265555213180E+01
 0.2200529706692E+01
 0.2150692352336E+01
 0.2112819393551E+01
 0.2083765558724E+01
 0.2061143648666E+01
 0.2043266810621E+01
 0.2028966079027E+01
 0.2017442050980E+01
 0.2008158742836E+01
 0.2000770494877E+01
 0.1995072599739E+01
 0.1990968122619E+01
 0.1988445678378E+01
 0.1987564346195E+01
 0.1988441928794E+01
 0.1991241159566E+01
 0.1996143159923E+01
 0.2003291758582E+01
 0.2012696254772E+01
 0.2024122435091E+01
 0.2037085708636E+01
 0.2050911476856E+01
 0.2064777615689E+01
 0.2077751179461E+01
 0.2088761857249E+01
 0.2096474213738E+01
 0.2099055452494E+01
 0.2093830008565E+01
 0.2076749788229E+01
 0.2041323344560E+01
 0.1976553112807E+01
 0.1863500524646E+01
 0.1670022463734E+01
 0.1346626608536E+01
 0.8345247993886E+00
 0.1029448070521E+00
-0.7831216062411E+00
 0.2456540017437E+01
 0.2380317875670E+01
 0.2299473567849E+01
 0.2225722970141E+01
 0.2164449358115E+01
 0.2115944663637E+01
 0.2078177695905E+01
 0.2048717971789E+01
 0.2025518572132E+01
 0.2007043578054E+01
 0.1992187008393E+01
 0.1980169331367E+01
 0.1970452846894E+01
 0.1962678963474E+01
 0.1956623507494E+01
 0.1952165269973E+01
 0.1949263708580E+01
 0.1947942380008E+01
 0.1948274206621E+01
 0.1950363188437E+01
 0.1954313447875E+01
 0.1960174259213E+01
 0.1967855827503E+01
 0.1977045156374E+01
 0.1987216758231E+01
 0.1997682421272E+01
 0.2007596711888E+01
 0.2015952632273E+01
 0.2021530819654E+01
 0.2022767098115E+01
 0.2017523467389E+01
 0.2002738519525E+01
 0.1973884565352E+01
 0.1923922072110E+01
 0.1841432830001E+01
 0.1707955455101E+01
 0.1494978040087E+01
 0.1163750557645E+01
 0.6755111079899E+00
 0.2038153206384E-01
-0.7416467429788E+00
 0.2390812594822E+01
 0.2323165122179E+01
 0.2251126174548E+01
 0.2183911462573E+01
 0.2126417371421E+01
 0.2079612614261E+01
 0.2042333761121E+01
 0.2012768096093E+01
 0.1989210212033E+01
 0.1970293426417E+01
 0.1954990806423E+01
 0.1942554948442E+01
 0.1932455198386E+01
 0.1924326091670E+01
 0.1917928108750E+01
 0.1913118514276E+01
 0.1909829422596E+01
 0.1908050171755E+01
 0.1907810256775E+01
 0.1909157879559E+01
 0.1912126764997E+01
 0.1916683679395E+01
 0.1922655500196E+01
 0.1929662908906E+01
 0.1937141030034E+01
 0.1944379028734E+01
 0.1950498532072E+01
 0.1954419766188E+01
 0.1954793082202E+01
 0.1949863532775E+01
 0.1937247180558E+01
 0.1913588893585E+01
 0.1874037173767E+01
 0.1811282379478E+01
 0.1713988521879E+01
 0.1564962706434E+01
 0.1339906532168E+01
 0.1009400105157E+01
 0.5489419310551E+00
-0.3965947671235E-01
-0.7039965875712E+00
 0.2327387908854E+01
 0.2266732243890E+01
 0.2202024123939E+01
 0.2140585689146E+01
 0.2086760456096E+01
 0.2041871489560E+01
 0.2005369955438E+01
 0.1975952105132E+01
 0.1952232280286E+01
 0.1933019316632E+01
 0.1917375891207E+01
 0.1904596120510E+01
 0.1894163707696E+01
 0.1885711675373E+01
 0.1878988986973E+01
 0.1873834096616E+01
 0.1870153762977E+01
 0.1867904801165E+01
 0.1867075362253E+01
 0.1867661479779E+01
 0.1869633182595E+01
 0.1872885309700E+01
 0.1877174051888E+01
 0.1882063459783E+01
 0.1886951259986E+01
 0.1891099258140E+01
 0.1893592041415E+01
 0.1893282226583E+01
 0.1888709916694E+01
 0.1877967030997E+01
 0.1858482816122E+01
 0.1826700331228E+01
 0.1777593778991E+01
 0.1703833128879E+01
 0.1594560063896E+01
 0.1434309657295E+01
 0.1202978965102E+01
 0.8788043614154E+00
 0.4472136660045E+00
-0.8378563612375E-01
-0.6695799641766E+00
 0.2265803123016E+01
 0.2210957182118E+01
 0.2152429026195E+01
 0.2096094814256E+01
 0.2045755897462E+01
 0.2002891009502E+01
 0.1967376473285E+01
 0.1938314700782E+01
 0.1914605506748E+01
 0.1895229690014E+01
 0.1879344869457E+01
 0.1866293287333E+01
 0.1855578817030E+01
 0.1846837563401E+01
 0.1839810456441E+01
 0.1834319777637E+01
 0.1830249044332E+01
 0.1827524558538E+01
 0.1826095670160E+01
 0.1825910264576E+01
 0.1826881193731E+01
 0.1828840642523E+01
 0.1831484494201E+01
 0.1834328112683E+01
 0.1836734412856E+01
 0.1837936272119E+01
 0.1836981132160E+01
 0.1832661974219E+01
 0.1823429499313E+01
 0.1807259382547E+01
 0.1781451411966E+01
 0.1742334373238E+01
 0.1684844021316E+01
 0.1601837745505E+01
 0.1483210213058E+01
 0.1315420280247E+01
 0.1082220226680E+01
 0.7679165910148E+00
 0.3647317349556E+00
-0.1163568439241E+00
-0.6378259971418E+00
 0.2205712671075E+01
 0.2155773757018E+01
 0.2102516146991E+01
 0.2050701942882E+01
 0.2003634537283E+01
 0.1962828096504E+01
 0.1928445623458E+01
 0.1899906216346E+01
 0.1876356105158E+01
 0.1856937589470E+01
 0.1840904028089E+01
 0.1827649796571E+01
 0.1816703286403E+01
 0.1807707488980E+01
 0.1800398402861E+01
 0.1794584657802E+01
 0.1790128721529E+01
 0.1786928623392E+01
 0.1784897760896E+01
 0.1783940064905E+01
 0.1783917406869E+01
 0.1784607477450E+01
 0.1785654588055E+01
 0.1786532246412E+01
 0.1786571724798E+01
 0.1784977741403E+01
 0.1780763338823E+01
 0.1772671752895E+01
 0.1759085397498E+01
 0.1737899203279E+01
 0.1706337508301E+01
 0.1660694709363E+01
 0.1595984843057E+01
 0.1505411984553E+01
 0.1379788722174E+01
 0.1207510073955E+01
 0.9757034643092E+00
 0.6733809960546E+00
 0.2973412050286E+00
-0.1403343885016E+00
-0.6082461145983E+00
 0.2146853213335E+01
 0.2101118374518E+01
 0.2052404161697E+01
 0.2004606444095E+01
 0.1960586656471E+01
 0.1921823750084E+01
 0.1888667715390E+01
 0.1860779998609E+01
 0.1837514291483E+01
 0.1818159785649E+01
 0.1802062804351E+01
 0.1788671567415E+01
 0.1777541960134E+01
 0.1768326885259E+01
 0.1760760111848E+01
 0.1754638990128E+01
 0.1749807159160E+01
 0.1746136766282E+01
 0.1743508283827E+01
 0.1741785906888E+01
 0.1740786342115E+01
 0.1740240017855E+01
 0.1739747203188E+01
 0.1738745654774E+01
 0.1736538674389E+01
 0.1732305287577E+01
 0.1725028863246E+01
 0.1713413957935E+01
 0.1695795526499E+01
 0.1670021171281E+01
 0.1633289094430E+01
 0.1581929179810E+01
 0.1511128275922E+01
 0.1414548184648E+01
 0.1283994746699E+01
 0.1109697291460E+01
 0.8816456758930E+00
 0.5924428767629E+00
 0.2419192563235E+00
-0.1577841376408E+00
-0.5804350463606E+00
 0.2089020485617E+01
 0.2046932780393E+01
 0.2002174043674E+01
 0.1957960378613E+01
 0.1916768393827E+01
 0.1880002394784E+01
 0.1848128423469E+01
 0.1820990263393E+01
 0.1798112927924E+01
 0.1778915941822E+01
 0.1762833261130E+01
 0.1749366748876E+01
 0.1738101527452E+01
 0.1728702697153E+01
 0.1720904097418E+01
 0.1714493998623E+01
 0.1709299417349E+01
 0.1705169088077E+01
 0.1701953662794E+01
 0.1699481746822E+01
 0.1697530304138E+01
 0.1695788964399E+01
 0.1693820583093E+01
 0.1691032777811E+01
 0.1686704943640E+01
 0.1679994073412E+01
 0.1669859887081E+01
 0.1654979887433E+01
 0.1633661589456E+01
 0.1603735968720E+01
 0.1562418703244E+01
 0.1506133630651E+01
 0.1430312075492E+01
 0.1329141513118E+01
 0.1195429989285E+01
 0.1021076953554E+01
 0.7984462017316E+00
 0.5228479097924E+00
 0.1960859809774E+00
-0.1701844711936E+00
-0.5540508437116E+00
 0.2032053559472E+01
 0.1993164898702E+01
 0.1951881288068E+01
 0.1910880517340E+01
 0.1872307703398E+01
 0.1837472577284E+01
 0.1806907300598E+01
 0.1780590467776E+01
 0.1758186341914E+01
 0.1739227835261E+01
 0.1723229575185E+01
 0.1709745373560E+01
 0.1698390273157E+01
 0.1688843182729E+01
 0.1680839922060E+01
 0.1674161693075E+01
 0.1668621043569E+01
 0.1664045782264E+01
 0.1660259846380E+01
 0.1657060262299E+01
 0.1654189289952E+01
 0.1651301585337E+01
 0.1647928528933E+01
 0.1643452850718E+01
 0.1637134372357E+01
 0.1628112504724E+01
 0.1615330107202E+01
 0.1597449305600E+01
 0.1572768932712E+01
 0.1539130825364E+01
 0.1493805417504E+01
 0.1433357100798E+01
 0.1353511720169E+01
 0.1249014891001E+01
 0.1113640333602E+01
 0.9407667958697E+00
 0.7246943001558E+00
 0.4627495846728E+00
 0.1579970660512E+00
-0.1786219868806E+00
-0.5287903037817E+00
 0.1975823879049E+01
 0.1939768763566E+01
 0.1901563958418E+01
 0.1863457141246E+01
 0.1827309510172E+01
 0.1794328317328E+01
 0.1765077109372E+01
 0.1739632161119E+01
 0.1717769350231E+01
 0.1699118658065E+01
 0.1683267554087E+01
 0.1669819018780E+01
 0.1658417827448E+01
 0.1648757711874E+01
 0.1640578015662E+01
 0.1633654687485E+01
 0.1627787877153E+01
 0.1622786923894E+01
 0.1618452099624E+01
 0.1614552689189E+01
 0.1610800923661E+01
 0.1606821773365E+01
 0.1602120535211E+01
 0.1596060011833E+01
 0.1587884932925E+01
 0.1576722045317E+01
 0.1561504476467E+01
 0.1540890293493E+01
 0.1513186783423E+01
 0.1476270583692E+01
 0.1427497590461E+01
 0.1363607807438E+01
 0.1280652607741E+01
 0.1173940660239E+01
 0.1038147039451E+01
 0.8679328419979E+00
 0.6591618441551E+00
 0.4106319331177E+00
 0.1261940531963E+00
-0.1839333988450E+00
-0.5043418193211E+00
 0.1920227465307E+01
 0.1886704045539E+01
 0.1851248065105E+01
 0.1815760511434E+01
 0.1781860016841E+01
 0.1750650707730E+01
 0.1722703699125E+01
 0.1698164239841E+01
 0.1676896494846E+01
 0.1658612416082E+01
 0.1642964198464E+01
 0.1629600489552E+01
 0.1618194928007E+01
 0.1608456574593E+01
 0.1600129505570E+01
 0.1592986034490E+01
 0.1586815878292E+01
 0.1581412294460E+01
 0.1576554842142E+01
 0.1571988706432E+01
 0.1567400424284E+01
 0.1562390108691E+01
 0.1556441912664E+01
 0.1548903410576E+01
 0.1539008756483E+01
 0.1525877158235E+01
 0.1508439147929E+01
 0.1485359375567E+01
 0.1454968839670E+01
 0.1415199209573E+01
 0.1363516069295E+01
 0.1296859501763E+01
 0.1211621456632E+01
 0.1103658855942E+01
 0.9684676617814E+00
 0.8018060825203E+00
 0.6007770912607E+00
 0.3652735088194E+00
 0.9946157034805E-01
-0.1867756625081E+00
-0.4804347967187E+00
 0.1865179290850E+01
 0.1833935398172E+01
 0.1800951225985E+01
 0.1767845641861E+01
 0.1736030232100E+01
 0.1706509532659E+01
 0.1679846219070E+01
 0.1656232512384E+01
 0.1635601467996E+01
 0.1617733423883E+01
 0.1602337309310E+01
 0.1589103521620E+01
 0.1577733190541E+01
 0.1567950793462E+01
 0.1559506050841E+01
 0.1552169067356E+01
 0.1545720970880E+01
 0.1539941228587E+01
 0.1534591514119E+01
 0.1529396347256E+01
 0.1524020587499E+01
 0.1518043916982E+01
 0.1510933894932E+01
 0.1502027311985E+01
 0.1490552196169E+01
 0.1475625341694E+01
 0.1456181573627E+01
 0.1430901855359E+01
 0.1398154120450E+01
 0.1355941593806E+01
 0.1301857673920E+01
 0.1233057674375E+01
 0.1146276594897E+01
 0.1037891086715E+01
 0.9041322113186E+00
 0.7416818300144E+00
 0.5486290536676E+00
 0.3256099824849E+00
 0.7705670352071E-01
-0.1884655427393E+00
-0.4553290837324E+00
 0.1810611849509E+01
 0.1781439034163E+01
 0.1750695986837E+01
 0.1719770063504E+01
 0.1689896084085E+01
 0.1661984910425E+01
 0.1636580424109E+01
 0.1613905162389E+01
 0.1593945171428E+01
 0.1576537223478E+01
 0.1561439400292E+01
 0.1548379762069E+01
 0.1537085215588E+01
 0.1527295417428E+01
 0.1518766397214E+01
 0.1511267311886E+01
 0.1504572438080E+01
 0.1498449660728E+01
 0.1492645491858E+01
 0.1486867057083E+01
 0.1480761311480E+01
 0.1473891631270E+01
 0.1465713237331E+01
 0.1455556369914E+01
 0.1442647270916E+01
 0.1426105308522E+01
 0.1404876049606E+01
 0.1377665393632E+01
 0.1342889238988E+01
 0.1298635129080E+01
 0.1242636520962E+01
 0.1172270731834E+01
 0.1084607770856E+01
 0.9765061158700E+00
 0.8448430615545E+00
 0.6870719982438E+00
 0.5020402662530E+00
 0.2909367748611E+00
 0.5807748602180E-01
-0.1882767743406E+00
-0.4361994010487E+00
 0.1756463719469E+01
 0.1729186302393E+01
 0.1700488136219E+01
 0.1671566734753E+01
 0.1643505286911E+01
 0.1617127950764E+01
 0.1592953291234E+01
 0.1571221592156E+01
 0.1551958944577E+01
 0.1535048197470E+01
 0.1520289584842E+01
 0.1507444768136E+01
 0.1496264519965E+01
 0.1486503198707E+01
 0.1477923598128E+01
 0.1470295023487E+01
 0.1463386503831E+01
 0.1456956418966E+01
 0.1450738680869E+01
 0.1444426067991E+01
 0.1437651107242E+01
 0.1429964644045E+01
 0.1420813464134E+01
 0.1409525182056E+01
 0.1395328327225E+01
 0.1377349502951E+01
 0.1354550843446E+01
 0.1325670582904E+01
 0.1289181459495E+01
 0.1243264674835E+01
 0.1185801032827E+01
 0.1114390171463E+01
 0.1026422262558E+01
 0.9191951066297E+00
 0.7901487644955E+00
 0.6373712674988E+00
 0.4603045601983E+00
 0.2604652764035E+00
 0.4213656646358E-01
-0.1875253107033E+00
-0.4183509136921E+00
 0.1702685117512E+01
 0.1677147629501E+01
 0.1650322957252E+01
 0.1623250072455E+01
 0.1596882148212E+01
 0.1571963768615E+01
 0.1548984360161E+01
 0.1528192499989E+01
 0.1509643819663E+01
 0.1493258336348E+01
 0.1478872066757E+01
 0.1466276339387E+01
 0.1455243770410E+01
 0.1445542753208E+01
 0.1436943107134E+01
 0.1429215205594E+01
 0.1422124267985E+01
 0.1415421069737E+01
 0.1408829271491E+01
 0.1402030081572E+01
 0.1394644743061E+01
 0.1386214971778E+01
 0.1376182644430E+01
 0.1363876327601E+01
 0.1348530581298E+01
 0.1329283488702E+01
 0.1305118894758E+01
 0.1274813596026E+01
 0.1236904160708E+01
 0.1189672012300E+01
 0.1131148886246E+01
 0.1059152833489E+01
 0.9713757673419E+00
 0.8655126449056E+00
 0.7394897259782E+00
 0.5919192105937E+00
 0.4226896200523E+00
 0.2335521951306E+00
 0.2854567580392E-01
-0.1858734563212E+00
-0.4019578925511E+00
 0.1649233815728E+01
 0.1625302087286E+01
 0.1600202765032E+01
 0.1574841816809E+01
 0.1550060358414E+01
 0.1526530508401E+01
 0.1504710618429E+01
 0.1484850566906E+01
 0.1467027088267E+01
 0.1451189802350E+01
 0.1437204815600E+01
 0.1424889414436E+01
 0.1414036019074E+01
 0.1404426274153E+01
 0.1395837144944E+01
 0.1388040856391E+01
 0.1380800125708E+01
 0.1373859886850E+01
 0.1366935734050E+01
 0.1359699877280E+01
 0.1351765169230E+01
 0.1342667312629E+01
 0.1331846504715E+01
 0.1318635546295E+01
 0.1302278452528E+01
 0.1281928601768E+01
 0.1256595993126E+01
 0.1225101049688E+01
 0.1186049347269E+01
 0.1137826504502E+01
 0.1078615451539E+01
 0.1006445103516E+01
 0.9192880119849E+00
 0.8151943010953E+00
 0.6925079207864E+00
 0.5502676804752E+00
 0.3887041917268E+00
 0.2096868506492E+00
 0.1702237918338E-01
-0.1836429417225E+00
-0.3858952103778E+00
 0.1596073644518E+01
 0.1573631016318E+01
 0.1550128370053E+01
 0.1526359348437E+01
 0.1503068122448E+01
 0.1480861076650E+01
 0.1460164863296E+01
 0.1441225551751E+01
 0.1424134247081E+01
 0.1408863799927E+01
 0.1395305382678E+01
 0.1383298809898E+01
 0.1372654313406E+01
 0.1363165939646E+01
 0.1354617811931E+01
 0.1346784670737E+01
 0.1339427914167E+01
 0.1332288260418E+01
 0.1325075259165E+01
 0.1317454493751E+01
 0.1309033080162E+01
 0.1299343553272E+01
 0.1287827370934E+01
 0.1273824545528E+01
 0.1256591625452E+01
 0.1235300633833E+01
 0.1208991451660E+01
 0.1176532077263E+01
 0.1136600628742E+01
 0.1087688676888E+01
 0.1028127955379E+01
 0.9561481331846E+00
 0.8699798743091E+00
 0.7679884040098E+00
 0.6488735836478E+00
 0.5120208746814E+00
 0.3579133481253E+00
 0.1884736408784E+00
 0.7244882148368E-02
-0.1808053431907E+00
-0.3701140824084E+00
 0.1543173321393E+01
 0.1522117735472E+01
 0.1500099448414E+01
 0.1477816582401E+01
 0.1455929101196E+01
 0.1434983890811E+01
 0.1415376151513E+01
 0.1397344473588E+01
 0.1380988995345E+01
 0.1366300471253E+01
 0.1353190753411E+01
 0.1341519062877E+01
 0.1331111543854E+01
 0.1321773770663E+01
 0.1313296957374E+01
 0.1305458921105E+01
 0.1298020807080E+01
 0.1290720609258E+01
 0.1283263694338E+01
 0.1275311196697E+01
 0.1266466919577E+01
 0.1256262815123E+01
 0.1244144258476E+01
 0.1229461141146E+01
 0.1211485260190E+01
 0.1189410151245E+01
 0.1162308598896E+01
 0.1129099083950E+01
 0.1088534347975E+01
 0.1039211820566E+01
 0.9796076081053E+00
 0.9081403150842E+00
 0.8232758718279E+00
 0.7236569992403E+00
 0.6082853117495E+00
 0.4768253782542E+00
 0.3299442842161E+00
 0.1695681739558E+00
-0.1022120786242E-02
-0.1774071089589E+00
-0.3546437915745E+00
 0.1490505555943E+01
 0.1470747252850E+01
 0.1450114844034E+01
 0.1429224656599E+01
 0.1408663194017E+01
 0.1388923532234E+01
 0.1370370231788E+01
 0.1353231828879E+01
 0.1337613293196E+01
 0.1323518859598E+01
 0.1310877265788E+01
 0.1299564335693E+01
 0.1289420351128E+01
 0.1280261548034E+01
 0.1271886109054E+01
 0.1264075401651E+01
 0.1256591275985E+01
 0.1249170363768E+01
 0.1241515554378E+01
 0.1233285523424E+01
 0.1224082965028E+01
 0.1213441583610E+01
 0.1200813051259E+01
 0.1185559495901E+01
 0.1166970310304E+01
 0.1144262928660E+01
 0.1116545384031E+01
 0.1082788597149E+01
 0.1041820756537E+01
 0.9923435546593E+00
 0.9329715301603E+00
 0.8622994126374E+00
 0.7790059338617E+00
 0.6819767436215E+00
 0.5704678988453E+00
 0.4443672231961E+00
 0.3044723339340E+00
 0.1526794327612E+00
-0.7976202466050E-02
-0.1735245898658E+00
-0.3395226318459E+00
 0.1438046334276E+01
 0.1419506007409E+01
 0.1400172784006E+01
 0.1380592463657E+01
 0.1361287168187E+01
 0.1342701295899E+01
 0.1325169928799E+01
 0.1308909802186E+01
 0.1294027435400E+01
 0.1280536894634E+01
 0.1268380548721E+01
 0.1257448335604E+01
 0.1247593043675E+01
 0.1238640736067E+01
 0.1230396407303E+01
 0.1222645375620E+01
 0.1215151054277E+01
 0.1207649950989E+01
 0.1199844033013E+01
 0.1191391326988E+01
 0.1181895410289E+01
 0.1170893834065E+01
 0.1157846677421E+01
 0.1142130355621E+01
 0.1123053839010E+01
 0.1099860377751E+01
 0.1071694964786E+01
 0.1037582070292E+01
 0.9964250892954E+00
 0.9470271951454E+00
 0.8881343640514E+00
 0.8185041954161E+00
 0.7370066645438E+00
 0.6427389745241E+00
 0.5351707045140E+00
 0.4143669301361E+00
 0.2812144702727E+00
 0.1375586287335E+00
-0.1379040846950E-01
-0.1692413580802E+00
-0.3247780861794E+00
 0.1385774343705E+01
 0.1368381643003E+01
 0.1350271027042E+01
 0.1331927059011E+01
 0.1313815159387E+01
 0.1296335641893E+01
 0.1279795468678E+01
 0.1264398450093E+01
 0.1250250116101E+01
 0.1237371374211E+01
 0.1225715454881E+01
 0.1215184223772E+01
 0.1205641498625E+01
 0.1196922384576E+01
 0.1188838513337E+01
 0.1181179493641E+01
 0.1173711069099E+01
 0.1166170744434E+01
 0.1158260975740E+01
 0.1149640777530E+01
 0.1139916400580E+01
 0.1128631106321E+01
 0.1115255230154E+01
 0.1099181227182E+01
 0.1079739272547E+01
 0.1056199904099E+01
 0.1027746205528E+01
 0.9934565643056E+00
 0.9523084620827E+00
 0.9032028673010E+00
 0.8450095213071E+00
 0.7766356152628E+00
 0.6971220470768E+00
 0.6057494032959E+00
 0.5021656357954E+00
 0.3865753601559E+00
 0.2599230405311E+00
 0.1239904488287E+00
-0.1861779419752E-01
-0.1646370953007E+00
-0.3104267870736E+00
 0.1333670504281E+01
 0.1317362820776E+01
 0.1300406978473E+01
 0.1283233995878E+01
 0.1266259098113E+01
 0.1249842599557E+01
 0.1234264793375E+01
 0.1219715905864E+01
 0.1206298536132E+01
 0.1194038000850E+01
 0.1182896053778E+01
 0.1172784586790E+01
 0.1163577126717E+01
 0.1155117096590E+01
 0.1147222585668E+01
 0.1139687783207E+01
 0.1132281447958E+01
 0.1124743092312E+01
 0.1116776934689E+01
 0.1108044449152E+01
 0.1098156156960E+01
 0.1086662672505E+01
 0.1073046186310E+01
 0.1056716658849E+01
 0.1037026758940E+01
 0.1013275368130E+01
 0.9846842697508E+00
 0.9503855004266E+00
 0.9094287997296E+00
 0.8608085862817E+00
 0.8035103220498E+00
 0.7365777993218E+00
 0.6592039496943E+00
 0.5708276721616E+00
 0.4712452632788E+00
 0.3607701118104E+00
 0.2403803814270E+00
 0.1117869868925E+00
-0.2259358417244E-01
-0.1597835918592E+00
-0.2964769132849E+00
 0.1281717582255E+01
 0.1266439051834E+01
 0.1250577762971E+01
 0.1234517577712E+01
 0.1218629043238E+01
 0.1203236090745E+01
 0.1188593815304E+01
 0.1174878543991E+01
 0.1162188482964E+01
 0.1150551396116E+01
 0.1139935602436E+01
 0.1130261382389E+01
 0.1121410806757E+01
 0.1113234960808E+01
 0.1105558216802E+01
 0.1098179594286E+01
 0.1090871477481E+01
 0.1083376293790E+01
 0.1075401167095E+01
 0.1066611345572E+01
 0.1056623034352E+01
 0.1044995633158E+01
 0.1031224547779E+01
 0.1014738436988E+01
 0.9949134345104E+00
 0.9710774405816E+00
 0.9424910861862E+00
 0.9083392546540E+00
 0.8677415599641E+00
 0.8197810749408E+00
 0.7635508077862E+00
 0.6982186686967E+00
 0.6231122600837E+00
 0.5378066376508E+00
 0.4422209077499E+00
 0.3367522212125E+00
 0.2223943141871E+00
 0.1007833423697E+00
-0.2583696313445E-01
-0.1547438100728E+00
-0.2829307749761E+00
 0.1229899872604E+01
 0.1215600557687E+01
 0.1200780281307E+01
 0.1185781066869E+01
 0.1170933466222E+01
 0.1156528215682E+01
 0.1142796654704E+01
 0.1129901147424E+01
 0.1117934428561E+01
 0.1106925142411E+01
 0.1096846548367E+01
 0.1087625919498E+01
 0.1079152855215E+01
 0.1071285519705E+01
 0.1063854406246E+01
 0.1056663582192E+01
 0.1049489600521E+01
 0.1042078614726E+01
 0.1034141674245E+01
 0.1025348967105E+01
 0.1015323621636E+01
 0.1003635056067E+01
 0.9897930259778E+00
 0.9732458254262E+00
 0.9533937303415E+00
 0.9295939910482E+00
 0.9011458343059E+00
 0.8672857485602E+00
 0.8272004198900E+00
 0.7800565015048E+00
 0.7250464306493E+00
 0.6614504074047E+00
 0.5887148882010E+00
 0.5065316193130E+00
 0.4149208841588E+00
 0.3143433098955E+00
 0.2057945125975E+00
 0.9083426251030E-01
-0.2845280251534E-01
-0.1495722995986E+00
-0.2697868330891E+00
 0.1178202932606E+01
 0.1164838149200E+01
 0.1151011249350E+01
 0.1137026851136E+01
 0.1123179485777E+01
 0.1109729496023E+01
 0.1096885848233E+01
 0.1084797060889E+01
 0.1073549625068E+01
 0.1063171829980E+01
 0.1053640541349E+01
 0.1044888848147E+01
 0.1036813005367E+01
 0.1029277746383E+01
 0.1022119541445E+01
 0.1015147697644E+01
 0.1008143419811E+01
 0.1000857309228E+01
 0.9930052453563E+00
 0.9842633814330E+00
 0.9742628441375E+00
 0.9625841158246E+00
 0.9487522248708E+00
 0.9322357999278E+00
 0.9124596681348E+00
 0.8888104561431E+00
 0.8606253937679E+00
 0.8271909808139E+00
 0.7877578721600E+00
 0.7415710910739E+00
 0.6879145841942E+00
 0.6261697597646E+00
 0.5558876259186E+00
 0.4768595983923E+00
 0.3891888653240E+00
 0.2933831045485E+00
 0.1904295163191E+00
 0.8181142107162E-01
-0.3053334793517E-01
-0.1443161097057E+00
-0.2570411522545E+00
 0.1126613359395E+01
 0.1114143120064E+01
 0.1101267221538E+01
 0.1088256572608E+01
 0.1075373055831E+01
 0.1062849073418E+01
 0.1050872521650E+01
 0.1039578318253E+01
 0.1029046182597E+01
 0.1019303090852E+01
 0.1010328433913E+01
 0.1002060137682E+01
 0.9944003730960E+00
 0.9872200058721E+00
 0.9803613607669E+00
 0.9736391564842E+00
 0.9668396788098E+00
 0.9597186158361E+00
 0.9519974732905E+00
 0.9433592631582E+00
 0.9334440315320E+00
 0.9218441950203E+00
 0.9081007811423E+00
 0.8917032341472E+00
 0.8721010996686E+00
 0.8487101399757E+00
 0.8209047101194E+00
 0.7880194533672E+00
 0.7493656893835E+00
 0.7042615777235E+00
 0.6520749540526E+00
 0.5922781472130E+00
 0.5245138634135E+00
 0.4486583642804E+00
 0.3648823464721E+00
 0.2737272620268E+00
 0.1761642225807E+00
 0.7360113127344E-01
-0.3215980831875E-01
-0.1390158068919E+00
-0.2446883764724E+00
 0.1075118602651E+01
 0.1063507158979E+01
 0.1051544613139E+01
 0.1039471241775E+01
 0.1027519134751E+01
 0.1015894894284E+01
 0.1004766558985E+01
 0.9942557781559E+00
 0.9844351658250E+00
 0.9753296597147E+00
 0.9669203144330E+00
 0.9591490913209E+00
 0.9519234615822E+00
 0.9451200572789E+00
 0.9385869590824E+00
 0.9321444536356E+00
 0.9255842884358E+00
 0.9186678011312E+00
 0.9111228190936E+00
 0.9026399833634E+00
 0.8928690366558E+00
 0.8814150368201E+00
 0.8678355555460E+00
 0.8516411352480E+00
 0.8323059922920E+00
 0.8092745538288E+00
 0.7819571886693E+00
 0.7497346101438E+00
 0.7119753816956E+00
 0.6680656301831E+00
 0.6174498292698E+00
 0.5596817502329E+00
 0.4944843050902E+00
 0.4218057354643E+00
 0.3418713021152E+00
 0.2552455263700E+00
 0.1628777995762E+00
 0.6610241714165E-01
-0.3340380219636E-01
-0.1337064582786E+00
-0.2327224192304E+00
 0.1023706804896E+01
 0.1012922270345E+01
 0.1001839710952E+01
 0.9906713242318E+00
 0.9796218190982E+00
 0.9688738582072E+00
 0.9585767390994E+00
 0.9488392324888E+00
 0.9397266683518E+00
 0.9312614157579E+00
 0.9234255224483E+00
 0.9161643426398E+00
 0.9093901465462E+00
 0.9029850344858E+00
 0.8968027695764E+00
 0.8906693508417E+00
 0.8843823249593E+00
 0.8777091717327E+00
 0.8703846419014E+00
 0.8621076612183E+00
 0.8525383126648E+00
 0.8412948516840E+00
 0.8279517733970E+00
 0.8120408224625E+00
 0.7930606493211E+00
 0.7704836801777E+00
 0.7437549991258E+00
 0.7122991700805E+00
 0.6755385309762E+00
 0.6329221388923E+00
 0.5839642686461E+00
 0.5282914568696E+00
 0.4656965915304E+00
 0.3961887609993E+00
 0.3200369311676E+00
 0.2378200919302E+00
 0.1504618805756E+00
 0.5922534079460E-01
-0.3432865240387E-01
-0.1284185011365E+00
-0.2211369063730E+00
 0.9723666665011E+00
 0.9623807082338E+00
 0.9521486843027E+00
 0.9418568178849E+00
 0.9316844637211E+00
 0.9217919541743E+00
 0.9123108653946E+00
 0.9033375148850E+00
 0.8949298936856E+00
 0.8871074364928E+00
 0.8798526798043E+00
 0.8731138703750E+00
 0.8668076813550E+00
 0.8608214476742E+00
 0.8550145670168E+00
 0.8492188862877E+00
 0.8432380500773E+00
 0.8368461085936E+00
 0.8297852510578E+00
 0.8217632374315E+00
 0.8124510113082E+00
 0.8014804439550E+00
 0.7884431829267E+00
 0.7728921203445E+00
 0.7543499402818E+00
 0.7323162395031E+00
 0.7062693734781E+00
 0.6756754417163E+00
 0.6400070943001E+00
 0.5987714626076E+00
 0.5515462248883E+00
 0.4980227821575E+00
 0.4380549271793E+00
 0.3717029879692E+00
 0.2992705486627E+00
 0.2213441926931E+00
 0.1388190249929E+00
 0.5288956798709E-01
-0.3499052152300E-01
-0.1231784976380E+00
-0.2099254863321E+00
 0.9210873292077E+00
 0.9118749190717E+00
 0.9024675931706E+00
 0.8930273181654E+00
 0.8837097851530E+00
 0.8746543799146E+00
 0.8659758816562E+00
 0.8577585998913E+00
 0.8500532314754E+00
 0.8428760505410E+00
 0.8362097233014E+00
 0.8300050161789E+00
 0.8241827056852E+00
 0.8186351884480E+00
 0.8132274743175E+00
 0.8077973869884E+00
 0.8021549330329E+00
 0.7960811024259E+00
 0.7893259581995E+00
 0.7816065462045E+00
 0.7726050778437E+00
 0.7619673326957E+00
 0.7493022047404E+00
 0.7341835389113E+00
 0.7161575123856E+00
 0.6947499309249E+00
 0.6694708684910E+00
 0.6398255919692E+00
 0.6053336515500E+00
 0.5655556125792E+00
 0.5201266077037E+00
 0.4687957413245E+00
 0.4114696950684E+00
 0.3482517692814E+00
 0.2794725850900E+00
 0.2057208627907E+00
 0.1278613843942E+00
 0.4702312488897E-01
-0.3543940278084E-01
-0.1180097787173E+00
-0.1990820433411E+00
 0.8698582762659E+00
 0.8613974913712E+00
 0.8527923934551E+00
 0.8441820719687E+00
 0.8356999487408E+00
 0.8274656435499E+00
 0.8195779714830E+00
 0.8121096883617E+00
 0.8051043228231E+00
 0.7985748818087E+00
 0.7925039301670E+00
 0.7868444957671E+00
 0.7815212474398E+00
 0.7764315275678E+00
 0.7714459607299E+00
 0.7664084715805E+00
 0.7611356617100E+00
 0.7554157764603E+00
 0.7490071147906E+00
 0.7416363704491E+00
 0.7329973266572E+00
 0.7227498501813E+00
 0.7105200552219E+00
 0.6959024231430E+00
 0.6784659656644E+00
 0.6577616295497E+00
 0.6333295768825E+00
 0.6047118552132E+00
 0.5714715862097E+00
 0.5332183667799E+00
 0.4896392815892E+00
 0.4405346743612E+00
 0.3858570549400E+00
 0.3257456023895E+00
 0.2605516735172E+00
 0.1908618368185E+00
 0.1175095371860E+00
 0.4156131832418E-01
-0.3571997737257E-01
-0.1129329844628E+00
-0.1886008339033E+00
 0.8186692461289E+00
 0.8109411145650E+00
 0.8031189452594E+00
 0.7953200298514E+00
 0.7876566517110E+00
 0.7802296616184E+00
 0.7731226566639E+00
 0.7663972955613E+00
 0.7600901323249E+00
 0.7542109040403E+00
 0.7487419568921E+00
 0.7436384256983E+00
 0.7388287419510E+00
 0.7342151311570E+00
 0.7296738593500E+00
 0.7250550730157E+00
 0.7201821739910E+00
 0.7148509295992E+00
 0.7088281699150E+00
 0.7018505168098E+00
 0.6936235358334E+00
 0.6838212579760E+00
 0.6720868854851E+00
 0.6580351151363E+00
 0.6412570368352E+00
 0.6213275875302E+00
 0.5978153363138E+00
 0.5702967340853E+00
 0.5383752530305E+00
 0.5017053696154E+00
 0.4600210541207E+00
 0.4131680755701E+00
 0.3611385722908E+00
 0.3041015354492E+00
 0.2424238454745E+00
 0.1766865939554E+00
 0.1076914828416E+00
 0.3644580478438E-01
-0.3587235501109E-01
-0.1079665256365E+00
-0.1784765973959E+00
 0.7675101572952E+00
 0.7604985430119E+00
 0.7534430199235E+00
 0.7464398912570E+00
 0.7395811954710E+00
 0.7329498447075E+00
 0.7266148833287E+00
 0.7206273282805E+00
 0.7150170107262E+00
 0.7097904874287E+00
 0.7049298711147E+00
 0.7003923436621E+00
 0.6961100446619E+00
 0.6919900699541E+00
 0.6879143769291E+00
 0.6837394525608E+00
 0.6792956791941E+00
 0.6743865681876E+00
 0.6687877149647E+00
 0.6622458755546E+00
 0.6544785242050E+00
 0.6451738426550E+00
 0.6339918965982E+00
 0.6205670885171E+00
 0.6045117507179E+00
 0.5854235973604E+00
 0.5628978950270E+00
 0.5365431518636E+00
 0.5060000940723E+00
 0.4709641806895E+00
 0.4312116202850E+00
 0.3866283947919E+00
 0.3372408446116E+00
 0.2832426048330E+00
 0.2250117960601E+00
 0.1631215042902E+00
 0.9834175699426E-01
 0.3162377920853E-01
-0.3593271249334E-01
-0.1031269718956E+00
-0.1687046292756E+00
 0.7163710427031E+00
 0.7100625661258E+00
 0.7037603089500E+00
 0.6975401479039E+00
 0.6914745536605E+00
 0.6856291780346E+00
 0.6800591036362E+00
 0.6748051589804E+00
 0.6698907564725E+00
 0.6653194459369E+00
 0.6610731857335E+00
 0.6571112321111E+00
 0.6533694478648E+00
 0.6497598329861E+00
 0.6461701081718E+00
 0.6424632180977E+00
 0.6384766833868E+00
 0.6340219409948E+00
 0.6288835306060E+00
 0.6228184815049E+00
 0.6155562278427E+00
 0.6067990089453E+00
 0.5962234497079E+00
 0.5834830746846E+00
 0.5682105598620E+00
 0.5500251393298E+00
 0.5285470575324E+00
 0.5034145814457E+00
 0.4743027297227E+00
 0.4409443003608E+00
 0.4031534907046E+00
 0.3608518364962E+00
 0.3140951468616E+00
 0.2630973191742E+00
 0.2082442245625E+00
 0.1500990747143E+00
 0.8940065817348E-01
 0.2704727143743E-01
-0.3593384385393E-01
-0.9842938163896E-01
-0.1592808401649E+00
 0.6652419920769E+00
 0.6596259840250E+00
 0.6540664353129E+00
 0.6486191266415E+00
 0.6433374376247E+00
 0.6382702985637E+00
 0.6334593541885E+00
 0.6289356976185E+00
 0.6247166762795E+00
 0.6208030850379E+00
 0.6171768946713E+00
 0.6137995444994E+00
 0.6106107006900E+00
 0.6075273448347E+00
 0.6044430536994E+00
 0.6012273459117E+00
 0.5977250177693E+00
 0.5937555765964E+00
 0.5891126352055E+00
 0.5835635751812E+00
 0.5768497751714E+00
 0.5686873695122E+00
 0.5587691704002E+00
 0.5467671804397E+00
 0.5323334723246E+00
 0.5151075136924E+00
 0.4947328117565E+00
 0.4708751533934E+00
 0.4432410282701E+00
 0.4115971765333E+00
 0.3757919083493E+00
 0.3357781602493E+00
 0.2916370969648E+00
 0.2435991863212E+00
 0.1920552416466E+00
 0.1375572807241E+00
 0.8081357028171E-01
 0.2267253533733E-01
-0.3590563396492E-01
-0.9388758331381E-01
-0.1502018059030E+00
 0.6141131007651E+00
 0.6091815877555E+00
 0.6043569668610E+00
 0.5996750318964E+00
 0.5951703594649E+00
 0.5908755684580E+00
 0.5868193303408E+00
 0.5830234595765E+00
 0.5794996424152E+00
 0.5762462469304E+00
 0.5732455068431E+00
 0.5704612302891E+00
 0.5678370282041E+00
 0.5652949821110E+00
 0.5627346370779E+00
 0.5600322011639E+00
 0.5570398651253E+00
 0.5535853179627E+00
 0.5494713293369E+00
 0.5444756586135E+00
 0.5383515550193E+00
 0.5308288256069E+00
 0.5216160415052E+00
 0.5104029913312E+00
 0.4968601622299E+00
 0.4806459527008E+00
 0.4614254335572E+00
 0.4388897398974E+00
 0.4127741518690E+00
 0.3828761912823E+00
 0.3490747525351E+00
 0.3113504805712E+00
 0.2698063372532E+00
 0.2246862758275E+00
 0.1763838318890E+00
 0.1254389698367E+00
 0.7253036557924E-01
 0.1845951720055E-01
-0.3587546539950E-01
-0.8951441414450E-01
-0.1414648105123E+00
 0.5629744239160E+00
 0.5587221437328E+00
 0.5546274323323E+00
 0.5507059888519E+00
 0.5469736940779E+00
 0.5434471461859E+00
 0.5401424573820E+00
 0.5370726302105E+00
 0.5342441467664E+00
 0.5316533529415E+00
 0.5292830777864E+00
 0.5270997580391E+00
 0.5250511488662E+00
 0.5230645883703E+00
 0.5210457201553E+00
 0.5188775563179E+00
 0.5164197836401E+00
 0.5135083535864E+00
 0.5099552357433E+00
 0.5055485452497E+00
 0.5000532771151E+00
 0.4932126382158E+00
 0.4847504841797E+00
 0.4743736608461E+00
 0.4617700636772E+00
 0.4466157136760E+00
 0.4285955705403E+00
 0.4074240174548E+00
 0.3828625825108E+00
 0.3547366314630E+00
 0.3229524342612E+00
 0.2875150691813E+00
 0.2485462326377E+00
 0.2063008144412E+00
 0.1611733652885E+00
 0.1136913269849E+00
 0.6450487709669E-01
 0.1437139329300E-01
-0.3586856619619E-01
-0.8532192132275E-01
-0.1330678851636E+00
 0.5118159353486E+00
 0.5082403838385E+00
 0.5048733431936E+00
 0.5017100921872E+00
 0.4987477462052E+00
 0.4959870621345E+00
 0.4934319660089E+00
 0.4910871338932E+00
 0.4889543599974E+00
 0.4870284519234E+00
 0.4852932483447E+00
 0.4837181466263E+00
 0.4822553011027E+00
 0.4808374989685E+00
 0.4793766289494E+00
 0.4777626204929E+00
 0.4758627417719E+00
 0.4735212595236E+00
 0.4705593497904E+00
 0.4667754196307E+00
 0.4619460413126E+00
 0.4558275065851E+00
 0.4481584447326E+00
 0.4386620035160E+00
 0.4270424666984E+00
 0.4129921724727E+00
 0.3962143251973E+00
 0.3764445288566E+00
 0.3534681489232E+00
 0.3271356640691E+00
 0.2973778027260E+00
 0.2642211774646E+00
 0.2278036000452E+00
 0.1883888245976E+00
 0.1463711624579E+00
 0.1022654015164E+00
 0.5669443649438E-01
 0.1037417108579E-01
-0.3590830383945E-01
-0.8132153197921E-01
-0.1250098511041E+00
 0.4606274890142E+00
 0.4577289974799E+00
 0.4550902164566E+00
 0.4526854540339E+00
 0.4504928144068E+00
 0.4484972886273E+00
 0.4466909598263E+00
 0.4450706930981E+00
 0.4436341792548E+00
 0.4423752561389E+00
 0.4412792700930E+00
 0.4403189826133E+00
 0.4394512554505E+00
 0.4386145508180E+00
 0.4377271636214E+00
 0.4366860519010E+00
 0.4353661350026E+00
 0.4336200219003E+00
 0.4312780687509E+00
 0.4281488740400E+00
 0.4240203817176E+00
 0.4186616193873E+00
 0.4118254517193E+00
 0.4032505559359E+00
 0.3926565789983E+00
 0.3797508811243E+00
 0.3642533015366E+00
 0.3459187093762E+00
 0.3245540202834E+00
 0.3000322833687E+00
 0.2723060311756E+00
 0.2414208482742E+00
 0.2075284389537E+00
 0.1708997763086E+00
 0.1319280846555E+00
 0.9111566886604E-01
 0.4905945485539E-01
 0.6436339663610E-02
-0.3601642960366E-01
-0.7752418490015E-01
-0.1172903562604E+00
 0.4093987836370E+00
 0.4071806294809E+00
 0.4052736053483E+00
 0.4036302607518E+00
 0.4022092637818E+00
 0.4009798179830E+00
 0.3999224900537E+00
 0.3990268941345E+00
 0.3982872824490E+00
 0.3976971841397E+00
 0.3972440385423E+00
 0.3969044463804E+00
 0.3966403364816E+00
 0.3963961028528E+00
 0.3960966199063E+00
 0.3956459822710E+00
 0.3949268148602E+00
 0.3938000717111E+00
 0.3921052331295E+00
 0.3896609566570E+00
 0.3862663214960E+00
 0.3817027154888E+00
 0.3757366813596E+00
 0.3681216447663E+00
 0.3585915934770E+00
 0.3468676304817E+00
 0.3326846566779E+00
 0.3158149190218E+00
 0.2960847085792E+00
 0.2733872709769E+00
 0.2476945216525E+00
 0.2190687538634E+00
 0.1876736956619E+00
 0.1537862794211E+00
 0.1177981685930E+00
 0.8019963913812E-01
 0.4156305206769E-01
 0.2528571164397E-02
-0.3621327216434E-01
-0.7394042791691E-01
-0.1099099123484E+00
 0.3581193282651E+00
 0.3565878820644E+00
 0.3554191361307E+00
 0.3545428366049E+00
 0.3538976048656E+00
 0.3534367450664E+00
 0.3531296327539E+00
 0.3529592537165E+00
 0.3529171822745E+00
 0.3529974029314E+00
 0.3531901256891E+00
 0.3534763379696E+00
 0.3538234449137E+00
 0.3541820571021E+00
 0.3544838114272E+00
 0.3546400422234E+00
 0.3545411187256E+00
 0.3540563199925E+00
 0.3530341676945E+00
 0.3513032184860E+00
 0.3486734252697E+00
 0.3449381408887E+00
 0.3398770175728E+00
 0.3332574478034E+00
 0.3248267475073E+00
 0.3143185038333E+00
 0.3014811435399E+00
 0.2861024672452E+00
 0.2680260663281E+00
 0.2471631558551E+00
 0.2235028157405E+00
 0.1971220468436E+00
 0.1681950476209E+00
 0.1370038016006E+00
 0.1039382898898E+00
 0.6947749495627E-01
 0.3417071770208E-01
-0.1376537821465E-02
-0.3651788087208E-01
-0.7058046842734E-01
-0.1028699349020E+00
 0.3067784081140E+00
 0.3059433191164E+00
 0.3055225490674E+00
 0.3054217114170E+00
 0.3055585744523E+00
 0.3058703483728E+00
 0.3063155607814E+00
 0.3068712767715E+00
 0.3075272687360E+00
 0.3082788567329E+00
 0.3091197979239E+00
 0.3100360874766E+00
 0.3110010636426E+00
 0.3119718630623E+00
 0.3128870745744E+00
 0.3136653683125E+00
 0.3142048802243E+00
 0.3143831723061E+00
 0.3140577003571E+00
 0.3130667364889E+00
 0.3112308259060E+00
 0.3083548781311E+00
 0.3042310825561E+00
 0.2986400238485E+00
 0.2913413497176E+00
 0.2820798975244E+00
 0.2706161211942E+00
 0.2567516075092E+00
 0.2403452581381E+00
 0.2213241539587E+00
 0.1996924922935E+00
 0.1755402062925E+00
 0.1490506908665E+00
 0.1205103957019E+00
 0.9030783875575E-01
 0.5891174103590E-01
 0.2684998607903E-01
-0.5304695161060E-02
-0.3694811133832E-01
-0.6745415713122E-01
-0.9617275569626E-01
 0.2553650504053E+00
 0.2552394787914E+00
 0.2555797541496E+00
 0.2562657071432E+00
 0.2571932366954E+00
 0.2582831908905E+00
 0.2594836343103E+00
 0.2607665319286E+00
 0.2621208692944E+00
 0.2635443142322E+00
 0.2650350540537E+00
 0.2665847876127E+00
 0.2681732881462E+00
 0.2697645485721E+00
 0.2713043018157E+00
 0.2727186401577E+00
 0.2739134710669E+00
 0.2747745757194E+00
 0.2751682142675E+00
 0.2749421703042E+00
 0.2739272849055E+00
 0.2719396089840E+00
 0.2687833000318E+00
 0.2642513745266E+00
 0.2581148381256E+00
 0.2501285727591E+00
 0.2400635969888E+00
 0.2277335652650E+00
 0.2130107685060E+00
 0.1958361480160E+00
 0.1762271097435E+00
 0.1542849324867E+00
 0.1302011784748E+00
 0.1042664774960E+00
 0.7686843993488E-01
 0.4846688485365E-01
 0.1957013016521E-01
-0.9280114326276E-02
-0.3752064625058E-01
-0.6457088178536E-01
-0.8982162337104E-01
 0.2038679868443E+00
 0.2044688863041E+00
 0.2055868899973E+00
 0.2070740272127E+00
 0.2088030832789E+00
 0.2106782140699E+00
 0.2126374778336E+00
 0.2146487074214E+00
 0.2167012845931E+00
 0.2187963878915E+00
 0.2209376328773E+00
 0.2231231939685E+00
 0.2253398230326E+00
 0.2275587153235E+00
 0.2297329380501E+00
 0.2317960788907E+00
 0.2336618023329E+00
 0.2352240232243E+00
 0.2363576552253E+00
 0.2369197720484E+00
 0.2367512035482E+00
 0.2356787255135E+00
 0.2335179046058E+00
 0.2300734502358E+00
 0.2251267810470E+00
 0.2184416498455E+00
 0.2097982122478E+00
 0.1990205124828E+00
 0.1859923612241E+00
 0.1706666259699E+00
 0.1530721156103E+00
 0.1333200178052E+00
 0.1116092431690E+00
 0.8823459345930E-01
 0.6358366427379E-01
 0.3810910064923E-01
 0.1230182644809E-01
-0.1332572484365E-01
-0.3825094460936E-01
-0.6193930426687E-01
-0.8382061965547E-01
 0.1522756137933E+00
 0.1536240756753E+00
 0.1555404010474E+00
 0.1578463692543E+00
 0.1603901574868E+00
 0.1630588532280E+00
 0.1657810751993E+00
 0.1685216822934E+00
 0.1712718381889E+00
 0.1740375674387E+00
 0.1768290362344E+00
 0.1796517426477E+00
 0.1824999980454E+00
 0.1853525558280E+00
 0.1881700001830E+00
 0.1908934702995E+00
 0.1934443516358E+00
 0.1957245849300E+00
 0.1976175664580E+00
 0.1989894237636E+00
 0.1996906616222E+00
 0.1995583683383E+00
 0.1984189776407E+00
 0.1960881818501E+00
 0.1923569031873E+00
 0.1869966276258E+00
 0.1797952541279E+00
 0.1705855706239E+00
 0.1592610709719E+00
 0.1457846565795E+00
 0.1301947986478E+00
 0.1126112649429E+00
 0.9323966903496E-01
 0.7237923545600E-01
 0.5041878073762E-01
 0.2780591261150E-01
 0.5016795548321E-02
-0.1746341602542E-01
-0.3915311349821E-01
-0.5956686127498E-01
-0.7817441804713E-01
 0.1005759462742E+00
 0.1026976176992E+00
 0.1054371305576E+00
 0.1085830576499E+00
 0.1119571962567E+00
 0.1154291654642E+00
 0.1189188707650E+00
 0.1223895984236E+00
 0.1258359237756E+00
 0.1292702494423E+00
 0.1327105481004E+00
 0.1361705646470E+00
 0.1396527817445E+00
 0.1431438689091E+00
 0.1466120958517E+00
 0.1500061874887E+00
 0.1532551899131E+00
 0.1562689387593E+00
 0.1589391225564E+00
 0.1611406734245E+00
 0.1627334538380E+00
 0.1635644614127E+00
 0.1634704782797E+00
 0.1622775061717E+00
 0.1597851043915E+00
 0.1557713952153E+00
 0.1500306606652E+00
 0.1424028093398E+00
 0.1327891950595E+00
 0.1211608713586E+00
 0.1075642544264E+00
 0.9212642526135E-01
 0.7505918734695E-01
 0.5666667768818E-01
 0.3734052827544E-01
 0.1752588552858E-01
-0.2312616750697E-02
-0.2171439888145E-01
-0.4023973134383E-01
-0.5745886332989E-01
-0.7288770772760E-01
 0.4875656370947E-01
 0.5168215191233E-01
 0.5527442795879E-01
 0.5928519291654E-01
 0.6350778422284E-01
 0.6779396032080E-01
 0.7205586323838E-01
 0.7625691685623E-01
 0.8039703097145E-01
 0.8449674211792E-01
 0.8858322721787E-01
 0.9267947290441E-01
 0.9679676722535E-01
 0.1009300465152E+00
 0.1050554125482E+00
 0.1091291827976E+00
 0.1130879761741E+00
 0.1168493676839E+00
 0.1203131284392E+00
 0.1233627343711E+00
 0.1258670879378E+00
 0.1276827066356E+00
 0.1286562323649E+00
 0.1286233474974E+00
 0.1273914332568E+00
 0.1247441984063E+00
 0.1204809819131E+00
 0.1144472048594E+00
 0.1065502509320E+00
 0.9676742080444E-01
 0.8515133533836E-01
 0.7183513129882E-01
 0.5703637484106E-01
 0.4106481538125E-01
 0.2431688443046E-01
 0.7238329186987E-02
-0.9713925678101E-02
-0.2609982653858E-01
-0.4152174540855E-01
-0.5561690233668E-01
-0.6796385750116E-01
-0.3195454273010E-02
 0.5704341268910E-03
 0.5050291289440E-02
 0.9954845731117E-02
 0.1504655207927E-01
 0.2015896891618E-01
 0.2519773131128E-01
 0.3012850160029E-01
 0.3495879758083E-01
 0.3971929843843E-01
 0.4444793159240E-01
 0.4917798546690E-01
 0.5393019821325E-01
 0.5870810481512E-01
 0.6349575446401E-01
 0.6825703042596E-01
 0.7293600552932E-01
 0.7745781245066E-01
 0.8173007565128E-01
 0.8564454349105E-01
 0.8907884243830E-01
 0.9189863834245E-01
 0.9395998082750E-01
 0.9510765772264E-01
 0.9515611817233E-01
 0.9389366271868E-01
 0.9112339788252E-01
 0.8669465678415E-01
 0.8051899566696E-01
 0.7257799772164E-01
 0.6292867458394E-01
 0.5170890743562E-01
 0.3914163191758E-01
 0.2554307995159E-01
 0.1131687002493E-01
-0.3086929713938E-02
-0.1721491081177E-01
-0.3064189923007E-01
-0.4300877401891E-01
-0.5403625760710E-01
-0.6340151476940E-01
-0.5529360952078E-01
-0.5064461210671E-01
-0.4523647056631E-01
-0.3940472754735E-01
-0.3342061377140E-01
-0.2746899245442E-01
-0.2164906318940E-01
-0.1599033220821E-01
-0.1047498230122E-01
-0.5059899747904E-02
 0.3052913120287E-03
 0.5665295153917E-02
 0.1105093990824E-01
 0.1647465805630E-01
 0.2192851982376E-01
 0.2738390706355E-01
 0.3279219265014E-01
 0.3808585717895E-01
 0.4318012904443E-01
 0.4797474735532E-01
 0.5235574988349E-01
 0.5619760075664E-01
 0.5936534838588E-01
 0.6171237420740E-01
 0.6305951413217E-01
 0.6319873146744E-01
 0.6193565273120E-01
 0.5912192524404E-01
 0.5467137310279E-01
 0.4856780011677E-01
 0.4087066174813E-01
 0.3172115410350E-01
 0.2134712923184E-01
 0.1007236446794E-01
-0.1689695996292E-02
-0.1347986961131E-01
-0.2484367937625E-01
-0.3536542727836E-01
-0.4471153962349E-01
-0.5270052803113E-01
-0.5918889269367E-01
-0.1075520877889E+00
-0.1019698236263E+00
-0.9558602761179E-01
-0.8878881143828E-01
-0.8188630906369E-01
-0.7508182053888E-01
-0.6847714751989E-01
-0.6209375376999E-01
-0.5590033626902E-01
-0.4983874188607E-01
-0.4384429901809E-01
-0.3785973674330E-01
-0.3184352204895E-01
-0.2577407599817E-01
-0.1965128737463E-01
-0.1349639075711E-01
-0.7350906107186E-02
-0.1275244707624E-02
 0.4653155229857E-02
 0.1034173126332E-01
 0.1568462367251E-01
 0.2056476899918E-01
 0.2485585496865E-01
 0.2841941881820E-01
 0.3108208887221E-01
 0.3263864167075E-01
 0.3289602655228E-01
 0.3170660730765E-01
 0.2898450524259E-01
 0.2471354462100E-01
 0.1895348509499E-01
 0.1184719106423E-01
 0.3626881166582E-02
-0.5375114947635E-02
-0.1473201424872E-01
-0.2397141333240E-01
-0.3262752260449E-01
-0.4029912051995E-01
-0.4664876302640E-01
-0.5157810071615E-01
-0.5527326876928E-01
-0.1599858958673E+00
-0.1534116993600E+00
-0.1459972671207E+00
-0.1381908956817E+00
-0.1303412984972E+00
-0.1226698957471E+00
-0.1152781018631E+00
-0.1081753559727E+00
-0.1013130996681E+00
-0.9461519609199E-01
-0.8800069189605E-01
-0.8139858734411E-01
-0.7475608027745E-01
-0.6804226615693E-01
-0.6124903968086E-01
-0.5439042239924E-01
-0.4750106300424E-01
-0.4063453646899E-01
-0.3386124047486E-01
-0.2726634295654E-01
-0.2094790645071E-01
-0.1501482198872E-01
-0.9585066565358E-02
-0.4789299139856E-02
-0.7955898508000E-03
 0.2192898834289E-02
 0.3983305169728E-02
 0.4427113243831E-02
 0.3436687980764E-02
 0.9934964885026E-03
-0.2844805554838E-02
-0.7935624976605E-02
-0.1404322757113E-01
-0.2082553114770E-01
-0.2783931421074E-01
-0.3459073710098E-01
-0.4060264186353E-01
-0.4545141202241E-01
-0.4889589541854E-01
-0.5058142311558E-01
-0.5156768965955E-01
-0.2126110703702E+00
-0.2049762424540E+00
-0.1964675032097E+00
-0.1876022632945E+00
-0.1787741671445E+00
-0.1702218456199E+00
-0.1620423465896E+00
-0.1542281353823E+00
-0.1467089499053E+00
-0.1393873662051E+00
-0.1321640474848E+00
-0.1249531272947E+00
-0.1176900527342E+00
-0.1103345072992E+00
-0.1028705196131E+00
-0.9530513201499E-01
-0.8766640452806E-01
-0.8000138137064E-01
-0.7237373620603E-01
-0.6486155980024E-01
-0.5755542110476E-01
-0.5055631261844E-01
-0.4397411939209E-01
-0.3793194985560E-01
-0.3259294014523E-01
-0.2815882386405E-01
-0.2482332597200E-01
-0.2273743047385E-01
-0.2199267799258E-01
-0.2261255569546E-01
-0.2454425612200E-01
-0.2764783578452E-01
-0.3168521913399E-01
-0.3630380682533E-01
-0.4103932759254E-01
-0.4537179083004E-01
-0.4879206908851E-01
-0.5089061998190E-01
-0.5132775547411E-01
-0.5027381206631E-01
-0.4647544443884E-01
-0.2654462177752E+00
-0.2566751619246E+00
-0.2470019168309E+00
-0.2370251804163E+00
-0.2271881634243E+00
-0.2177450385049E+00
-0.2087831804115E+00
-0.2002719470499E+00
-0.1921141459129E+00
-0.1841873953851E+00
-0.1763717907022E+00
-0.1685655233485E+00
-0.1606919178136E+00
-0.1527012646485E+00
-0.1445699359384E+00
-0.1362982835624E+00
-0.1279080938005E+00
-0.1194402013996E+00
-0.1109518760877E+00
-0.1025144407323E+00
-0.9421124929204E-01
-0.8613561546861E-01
-0.7838947836829E-01
-0.7108850197286E-01
-0.6439107634431E-01
-0.5849796329460E-01
-0.5360467584709E-01
-0.4986622019515E-01
-0.4738029014327E-01
-0.4617818120593E-01
-0.4621510851419E-01
-0.4735669392863E-01
-0.4936433486997E-01
-0.5187413381979E-01
-0.5439712543333E-01
-0.5637550382767E-01
-0.5726827212123E-01
-0.5661543115753E-01
-0.5420413708835E-01
-0.4970417781753E-01
-0.4428443916797E-01
-0.3185100780190E+00
-0.3085134319655E+00
-0.2975933793895E+00
-0.2864449350472E+00
-0.2755660334618E+00
-0.2652235207990E+00
-0.2554880375600E+00
-0.2462982225583E+00
-0.2375238348972E+00
-0.2290135067682E+00
-0.2206245591658E+00
-0.2122382945459E+00
-0.2037657049505E+00
-0.1951478496546E+00
-0.1863537617471E+00
-0.1773774664918E+00
-0.1682348418094E+00
-0.1589608682614E+00
-0.1496067569533E+00
-0.1402373912589E+00
-0.1309291955223E+00
-0.1217680046174E+00
-0.1128478902696E+00
-0.1042770511288E+00
-0.9620914276597E-01
-0.8884422502677E-01
-0.8238038383766E-01
-0.7697816781453E-01
-0.7274379292582E-01
-0.6971953428673E-01
-0.6787233522292E-01
-0.6707706459566E-01
-0.6709717447181E-01
-0.6755766440831E-01
-0.6793978114434E-01
-0.6764045487433E-01
-0.6605965830689E-01
-0.6272169930641E-01
-0.5731421233134E-01
-0.4999146073727E-01
-0.3995635829664E-01
-0.3718215805109E+00
-0.3604884877164E+00
-0.3482212629154E+00
-0.3358288173248E+00
-0.3238695315512E+00
-0.3126181304444E+00
-0.3021190781277E+00
-0.2922708424808E+00
-0.2829030350013E+00
-0.2738309813088E+00
-0.2648871135941E+00
-0.2559351280971E+00
-0.2468737098639E+00
-0.2376350404645E+00
-0.2281812732167E+00
-0.2185005709407E+00
-0.2086033399011E+00
-0.1985191172033E+00
-0.1882934500707E+00
-0.1779851590794E+00
-0.1676640674384E+00
-0.1574087502274E+00
-0.1473054577234E+00
-0.1374547940280E+00
-0.1280055115814E+00
-0.1191570332313E+00
-0.1111106396809E+00
-0.1040338890121E+00
-0.9804400046810E-01
-0.9319772216659E-01
-0.8947801675446E-01
-0.8677353224115E-01
-0.8485353164271E-01
-0.8333284665165E-01
-0.8165942138088E-01
-0.7917091546110E-01
-0.7519899458002E-01
-0.6919069424983E-01
-0.6088933779385E-01
-0.5028059802106E-01
-0.3736272878787E-01
-0.4254035425051E+00
-0.4126028660693E+00
-0.3988707397926E+00
-0.3851526785567E+00
-0.3720731624229E+00
-0.3599073373261E+00
-0.3486608957463E+00
-0.3381804670323E+00
-0.3282473785866E+00
-0.3186391411297E+00
-0.3091614004985E+00
-0.2996598473948E+00
-0.2900211661829E+00
-0.2801692217761E+00
-0.2700598861176E+00
-0.2596760108544E+00
-0.2490230194657E+00
-0.2381254490207E+00
-0.2270236041403E+00
-0.2157706476093E+00
-0.2044301560956E+00
-0.1930736661472E+00
-0.1817795927151E+00
-0.1706406595038E+00
-0.1598002967822E+00
-0.1494570638785E+00
-0.1398158121938E+00
-0.1310524613325E+00
-0.1232977964770E+00
-0.1166268657647E+00
-0.1110435840302E+00
-0.1064559534181E+00
-0.1026441472765E+00
-0.9921553198061E-01
-0.9558102530689E-01
-0.9100781316926E-01
-0.8472882736397E-01
-0.7610919687740E-01
-0.6484483155023E-01
-0.5104598291568E-01
-0.3516572632229E-01
-0.4792819930489E+00
-0.4648572657526E+00
-0.4495215389203E+00
-0.4343858477933E+00
-0.4201460411949E+00
-0.4070662161392E+00
-0.3950965328246E+00
-0.3840174523951E+00
-0.3735528555607E+00
-0.3634379311006E+00
-0.3534500413883E+00
-0.3434169086065E+00
-0.3332138660650E+00
-0.3227572591129E+00
-0.3119974264486E+00
-0.3009125482623E+00
-0.2895036030568E+00
-0.2777905995484E+00
-0.2658090455651E+00
-0.2536068840882E+00
-0.2412418401460E+00
-0.2287786554424E+00
-0.2162878493766E+00
-0.2038538116959E+00
-0.1916139348512E+00
-0.1797653256675E+00
-0.1685164628978E+00
-0.1580528097210E+00
-0.1485213339801E+00
-0.1400195443186E+00
-0.1325779354817E+00
-0.1261305966670E+00
-0.1204755046071E+00
-0.1152172349479E+00
-0.1097283107785E+00
-0.1031908394746E+00
-0.9471254119084E-01
-0.8352777998998E-01
-0.6927471983456E-01
-0.5222183446758E-01
-0.3324587875857E-01
-0.5334871803661E+00
-0.5172499685585E+00
-0.5001461974188E+00
-0.4834894367533E+00
-0.4680508515706E+00
-0.4540661263940E+00
-0.4414076000328E+00
-0.4297721196760E+00
-0.4188160659079E+00
-0.4082281030914E+00
-0.3977564512535E+00
-0.3872114701984E+00
-0.3764581967825E+00
-0.3654065146021E+00
-0.3540021338977E+00
-0.3422192899497E+00
-0.3300550972218E+00
-0.3175255289318E+00
-0.3046617619984E+00
-0.2915069945825E+00
-0.2781135529243E+00
-0.2645396789405E+00
-0.2508479141046E+00
-0.2371136865735E+00
-0.2234672855241E+00
-0.2101033251240E+00
-0.1972335560802E+00
-0.1850539275434E+00
-0.1737302214365E+00
-0.1633868891780E+00
-0.1540873428621E+00
-0.1457997762786E+00
-0.1383489158857E+00
-0.1313442451762E+00
-0.1241210619079E+00
-0.1157632923470E+00
-0.1052172468594E+00
-0.9153122464705E-01
-0.7424412921394E-01
-0.5378174089056E-01
-0.3149097327878E-01
-0.5880550675968E+00
-0.5697759358200E+00
-0.5507076774992E+00
-0.5324141134873E+00
-0.5157426432822E+00
-0.5008744788933E+00
-0.4875745540979E+00
-0.4754351435635E+00
-0.4640345358721E+00
-0.4530114268921E+00
-0.4420849654166E+00
-0.4310494626773E+00
-0.4197611741489E+00
-0.4081248584688E+00
-0.3960826610186E+00
-0.3836056805141E+00
-0.3706877827615E+00
-0.3573414092329E+00
-0.3435938839184E+00
-0.3294841741548E+00
-0.3150597390922E+00
-0.3003727074195E+00
-0.2854775778619E+00
-0.2704400176523E+00
-0.2553817362671E+00
-0.2404932525209E+00
-0.2259887041695E+00
-0.2120751425441E+00
-0.1989397609619E+00
-0.1867387297208E+00
-0.1755754160934E+00
-0.1654614570388E+00
-0.1562596479577E+00
-0.1475958069476E+00
-0.1387738938048E+00
-0.1287686305406E+00
-0.1163230490776E+00
-0.1002250350467E+00
-0.7983478168427E-01
-0.5571280067995E-01
-0.2979238980337E-01
-0.6430295306471E+00
-0.6224254550918E+00
-0.6011560051631E+00
-0.5810971859191E+00
-0.5631674846290E+00
-0.5474546921529E+00
-0.5335772108810E+00
-0.5209980920577E+00
-0.5092071051613E+00
-0.4977909304088E+00
-0.4864409785273E+00
-0.4749376640770E+00
-0.4631304797827E+00
-0.4509206844219E+00
-0.4382480772464E+00
-0.4250815017669E+00
-0.4114122133045E+00
-0.3972496223612E+00
-0.3826176772321E+00
-0.3675516653476E+00
-0.3520948124281E+00
-0.3362936660770E+00
-0.3201946970493E+00
-0.3038528578599E+00
-0.2873793210788E+00
-0.2709582036754E+00
-0.2548044664399E+00
-0.2391364475783E+00
-0.2241652587538E+00
-0.2100838216068E+00
-0.1970431473040E+00
-0.1851089474875E+00
-0.1741959146392E+00
-0.1639622229837E+00
-0.1536931614713E+00
-0.1422489160501E+00
-0.1281234719251E+00
-0.1097440446373E+00
-0.8616292398381E-01
-0.5801980915128E-01
-0.2800713238816E-01
-0.6984656456462E+00
-0.6751820657282E+00
-0.6514234246509E+00
-0.6294587592655E+00
-0.6102610414058E+00
-0.5937664952230E+00
-0.5793955808953E+00
-0.5664541303891E+00
-0.5543343722177E+00
-0.5425711545349E+00
-0.5308310830672E+00
-0.5188837697190E+00
-0.5065744913414E+00
-0.4938029182401E+00
-0.4805078669619E+00
-0.4666568675129E+00
-0.4522392112365E+00
-0.4372617578296E+00
-0.4217455371516E+00
-0.4057227351495E+00
-0.3892331025271E+00
-0.3723183543637E+00
-0.3550171220041E+00
-0.3373725768499E+00
-0.3194828378407E+00
-0.3015224280509E+00
-0.2837046956058E+00
-0.2662588919195E+00
-0.2494224059586E+00
-0.2334301576558E+00
-0.2184890601331E+00
-0.2047306925809E+00
-0.1921379378433E+00
-0.1804225328498E+00
-0.1688730421151E+00
-0.1562407821750E+00
-0.1407256698152E+00
-0.1202637863030E+00
-0.9340046076311E-01
-0.6073292932166E-01
-0.2593660923085E-01
-0.7544347285920E+00
-0.7280192760221E+00
-0.7014172552264E+00
-0.6773966692394E+00
-0.6569472743830E+00
-0.6397668328237E+00
-0.6250111284075E+00
-0.6117988869621E+00
-0.5994191777858E+00
-0.5873584092779E+00
-0.5752631980283E+00
-0.5628964489401E+00
-0.5501022996305E+00
-0.5367810140202E+00
-0.5228719162364E+00
-0.5083422083541E+00
-0.4931798558095E+00
-0.4773896060071E+00
-0.4609899806180E+00
-0.4440106486573E+00
-0.4264887862374E+00
-0.4084623305786E+00
-0.3899625762009E+00
-0.3710198166360E+00
-0.3517159538962E+00
-0.3322116013606E+00
-0.3127149352599E+00
-0.2934650365865E+00
-0.2747277325895E+00
-0.2567853700806E+00
-0.2399094808925E+00
-0.2243102347351E+00
-0.2100571624378E+00
-0.1969420590208E+00
-0.1842903653725E+00
-0.1707685352940E+00
-0.1542483055660E+00
-0.1320138246770E+00
-0.1018045456176E+00
-0.6392828947384E-01
-0.2330145176493E-01
-0.8110322977362E+00
-0.7808951772896E+00
-0.7510090993802E+00
-0.7247798577198E+00
-0.7031376995044E+00
-0.6854117704140E+00
-0.6704085459961E+00
-0.6570314526700E+00
-0.6444671075113E+00
-0.6321610280901E+00
-0.6197466904882E+00
-0.6069853953041E+00
-0.5937237217164E+00
-0.5798649488331E+00
-0.5653505001447E+00
-0.5501482592386E+00
-0.5342454769893E+00
-0.5176451620724E+00
-0.5003636556093E+00
-0.4824286608117E+00
-0.4638758236539E+00
-0.4447407723784E+00
-0.4250484873745E+00
-0.4048154056743E+00
-0.3841033096980E+00
-0.3630531444278E+00
-0.3418628954677E+00
-0.3207794991109E+00
-0.3000991561131E+00
-0.2801572468910E+00
-0.2612989692134E+00
-0.2438264054085E+00
-0.2279157993515E+00
-0.2134701576093E+00
-0.1998983612451E+00
-0.1858333173419E+00
-0.1688141073396E+00
-0.1452916664158E+00
-0.1117621529841E+00
-0.6776963483464E-01
-0.1971122570746E-01
-0.8683911227204E+00
-0.8337432239354E+00
-0.8000180705313E+00
-0.7714399305031E+00
-0.7487321424534E+00
-0.7306599387698E+00
-0.7155780367548E+00
-0.7021554204978E+00
-0.6894869774923E+00
-0.6769896016223E+00
-0.6642924749245E+00
-0.6511613587888E+00
-0.6374492998610E+00
-0.6230652059229E+00
-0.6079542607171E+00
-0.5920860394183E+00
-0.5754476441807E+00
-0.5580406302277E+00
-0.5398793600964E+00
-0.5209900238911E+00
-0.5014078956629E+00
-0.4811682975094E+00
-0.4602917381702E+00
-0.4387801958096E+00
-0.4166705994612E+00
-0.3940765851257E+00
-0.3711790108412E+00
-0.3482295885759E+00
-0.3255566180887E+00
-0.3035543551450E+00
-0.2826509170928E+00
-0.2632537809988E+00
-0.2456668164221E+00
-0.2299386578391E+00
-0.2156200719871E+00
-0.2013973326474E+00
-0.1845323268400E+00
-0.1604732989545E+00
-0.1238567923873E+00
-0.7258870288194E-01
-0.1462887802404E-01
-0.9267036088599E+00
-0.8864556401095E+00
-0.8481838921995E+00
-0.8171611440523E+00
-0.7936228886394E+00
-0.7754781188037E+00
-0.7605178766151E+00
-0.7471798394301E+00
-0.7344912888420E+00
-0.7218571798940E+00
-0.7089130864402E+00
-0.6954361622516E+00
-0.6812902902991E+00
-0.6663927518421E+00
-0.6506941817005E+00
-0.6341668313275E+00
-0.6167981561859E+00
-0.5985884347965E+00
-0.5795500816245E+00
-0.5597080313697E+00
-0.5390983673932E+00
-0.5177587522061E+00
-0.4957083161575E+00
-0.4729347949974E+00
-0.4494446242451E+00
-0.4253139856717E+00
-0.4006971122507E+00
-0.3758460540785E+00
-0.3511228187625E+00
-0.3269867714304E+00
-0.3039583338655E+00
-0.2825634554277E+00
-0.2632544278996E+00
-0.2462614801122E+00
-0.2313431203146E+00
-0.2173634001333E+00
-0.2014639400204E+00
-0.1780099391464E+00
-0.1389651814373E+00
-0.7903823195722E-01
-0.7337303746482E-02
-0.9862624967195E+00
-0.9388516462171E+00
-0.8951222417695E+00
-0.8616709288983E+00
-0.8377058660802E+00
-0.8198491383173E+00
-0.8052366171427E+00
-0.7921200042949E+00
-0.7794966478715E+00
-0.7667794133905E+00
-0.7536227202454E+00
-0.7398226970810E+00
-0.7252586376143E+00
-0.7098590044537E+00
-0.6935815570912E+00
-0.6764021552819E+00
-0.6583090284161E+00
-0.6393012324578E+00
-0.6193890548239E+00
-0.5985961107818E+00
-0.5769603031343E+00
-0.5545249706531E+00
-0.5313128188962E+00
-0.5072991367399E+00
-0.4824532953047E+00
-0.4568004549111E+00
-0.4304552423727E+00
-0.4036639623585E+00
-0.3768240464095E+00
-0.3504668994186E+00
-0.3252147974373E+00
-0.3017241994823E+00
-0.2806150776738E+00
-0.2623354624689E+00
-0.2469184207877E+00
-0.2335537926984E+00
-0.2195607305503E+00
-0.1983868463413E+00
-0.1583873461455E+00
-0.8838323859330E-01
 0.3064812166881E-02
-0.1047540679019E+01
-0.9906115620109E+00
-0.9402480896912E+00
-0.9046391673110E+00
-0.8809049910609E+00
-0.8637803230249E+00
-0.8497539586851E+00
-0.8369982720907E+00
-0.8245240839372E+00
-0.8117745929057E+00
-0.7984372318890E+00
-0.7843348814289E+00
-0.7693669229300E+00
-0.7534757792517E+00
-0.7366279403680E+00
-0.7188037263338E+00
-0.6999924625095E+00
-0.6801919064841E+00
-0.6594098155814E+00
-0.6376679659663E+00
-0.6150065666090E+00
-0.5914785144136E+00
-0.5671177375780E+00
-0.5418917786098E+00
-0.5157255447316E+00
-0.4885747689617E+00
-0.4604966471889E+00
-0.4317237138802E+00
-0.4026910796919E+00
-0.3740103408229E+00
-0.3464154970165E+00
-0.3207040350354E+00
-0.2976791545974E+00
-0.2780414991536E+00
-0.2621645795523E+00
-0.2497000845505E+00
-0.2385740778934E+00
-0.2219927959606E+00
-0.1839909335794E+00
-0.1030580049846E+00
 0.1755515330351E-01
-0.1111364127739E+01
-0.1041124840046E+01
-0.9826416079483E+00
-0.9457136734876E+00
-0.9232161003754E+00
-0.9073055086485E+00
-0.8941005462916E+00
-0.8818453589274E+00
-0.8695989663020E+00
-0.8568636611888E+00
-0.8433740919121E+00
-0.8289875855742E+00
-0.8136282980340E+00
-0.7972552232644E+00
-0.7798450864169E+00
-0.7613834048167E+00
-0.7418608111067E+00
-0.7212735521728E+00
-0.6996262480473E+00
-0.6769377876396E+00
-0.6532501039767E+00
-0.6286294761718E+00
-0.6031324437636E+00
-0.5767287876760E+00
-0.5492911239584E+00
-0.5206801894103E+00
-0.4908710233622E+00
-0.4600722452605E+00
-0.4287601661768E+00
-0.3976367858838E+00
-0.3675583641338E+00
-0.3394719696033E+00
-0.3143742366063E+00
-0.2932453944066E+00
-0.2768732707548E+00
-0.2654652678313E+00
-0.2579581056787E+00
-0.2488031091478E+00
-0.2182662765796E+00
-0.1277377554438E+00
 0.3673087179545E-01
-0.1179339345254E+01
-0.1089085519290E+01
-0.1020825570658E+01
-0.9846767872616E+00
-0.9647564258746E+00
-0.9504670683455E+00
-0.9383231218201E+00
-0.9267005502851E+00
-0.9147504884433E+00
-0.9020703681589E+00
-0.8884521783593E+00
-0.8737965649773E+00
-0.8580563837013E+00
-0.8412097369317E+00
-0.8232448795222E+00
-0.8041531350713E+00
-0.7839265311804E+00
-0.7625594500906E+00
-0.7400525898167E+00
-0.7164204880980E+00
-0.6917045292897E+00
-0.6659865227055E+00
-0.6393617322184E+00
-0.6118219128964E+00
-0.5831802529502E+00
-0.5531656129401E+00
-0.5216361075821E+00
-0.4887644198417E+00
-0.4550741330748E+00
-0.4213707215263E+00
-0.3886454160957E+00
-0.3579995960491E+00
-0.3306291515385E+00
-0.3078040323151E+00
-0.2907989193620E+00
-0.2805047577783E+00
-0.2768885899980E+00
-0.2777427030005E+00
-0.2639074113668E+00
-0.1713915220830E+00
 0.5928416191737E-01
-0.1255111877841E+01
-0.1131185706039E+01
-0.1052550389455E+01
-0.1021943531434E+01
-0.1005685355841E+01
-0.9932989630408E+00
-0.9825032102056E+00
-0.9716029546364E+00
-0.9600145324641E+00
-0.9474201096466E+00
-0.9336919189927E+00
-0.9187782594794E+00
-0.9026651960690E+00
-0.8853518884643E+00
-0.8668392704354E+00
-0.8471248932049E+00
-0.8262021412043E+00
-0.8040630598512E+00
-0.7807034112395E+00
-0.7561318316151E+00
-0.7303851675150E+00
-0.7035576876218E+00
-0.6758037177696E+00
-0.6471754584962E+00
-0.6174231851329E+00
-0.5860873549085E+00
-0.5528597134882E+00
-0.5178646760627E+00
-0.4816835494723E+00
-0.4452424006494E+00
-0.4096826648286E+00
-0.3762662150860E+00
-0.3463709185524E+00
-0.3215884113208E+00
-0.3036400528082E+00
-0.2944487891811E+00
-0.2946940587977E+00
-0.3058643295568E+00
-0.3215527032353E+00
-0.2511571857963E+00
 0.7729084784484E-01
-0.1349040436746E+01
-0.1156680205494E+01
-0.1076171844591E+01
-0.1059426084623E+01
-0.1045559262984E+01
-0.1036093703243E+01
-0.1026666431432E+01
-0.1016617958429E+01
-0.1005425654375E+01
-0.9929417060829E+00
-0.9791145348874E+00
-0.9639497738236E+00
-0.9474689839428E+00
-0.9296943159781E+00
-0.9106401858961E+00
-0.8903106159360E+00
-0.8687001506193E+00
-0.8457979676355E+00
-0.8215936601225E+00
-0.7960881220732E+00
-0.7693102719213E+00
-0.7413533062367E+00
-0.7124466773496E+00
-0.6827802880515E+00
-0.6520501566103E+00
-0.6195119376668E+00
-0.5846222522194E+00
-0.5474488147262E+00
-0.5086481509686E+00
-0.4692883031175E+00
-0.4306813353902E+00
-0.3942556233588E+00
-0.3615515858464E+00
-0.3344210637248E+00
-0.3152541442710E+00
-0.3063989559889E+00
-0.3117544307606E+00
-0.3292509566376E+00
-0.3820479107400E+00
-0.3969093480397E+00
 0.5771900070150E-01
-0.1501671680523E+01
-0.1116498772866E+01
-0.1110767435853E+01
-0.1092540740899E+01
-0.1085849718522E+01
-0.1078683109212E+01
-0.1070972636983E+01
-0.1061786677061E+01
-0.1051029117913E+01
-0.1038663845372E+01
-0.1024742560416E+01
-0.1009328479170E+01
-0.9924821156642E+00
-0.9742495965335E+00
-0.9546593854125E+00
-0.9337221612961E+00
-0.9114328921727E+00
-0.8877778760826E+00
-0.8627385380098E+00
-0.8363064152228E+00
-0.8084990706217E+00
-0.7793960344600E+00
-0.7492644667380E+00
-0.7185997704147E+00
-0.6870952860531E+00
-0.6535192907570E+00
-0.6170199947702E+00
-0.5776062445095E+00
-0.5360373139796E+00
-0.4935540860997E+00
-0.4516532530350E+00
-0.4119650391268E+00
-0.3761262617435E+00
-0.3462147854131E+00
-0.3251604539196E+00
-0.3167279985277E+00
-0.3238690825299E+00
-0.3582657595034E+00
-0.4028491435661E+00
-0.6474903996520E+00
-0.1111530870334E+00
 0.1936603885648E+01
 0.1857404026261E+01
 0.1778050477996E+01
 0.1698763176823E+01
 0.1621275860961E+01
 0.1546167425452E+01
 0.1474166060460E+01
 0.1406016341274E+01
 0.1342248706556E+01
 0.1283186555504E+01
 0.1229034043105E+01
 0.1179957883402E+01
 0.1136099626108E+01
 0.1097586158156E+01
 0.1064525192467E+01
 0.1037004895210E+01
 0.1015430185118E+01
 0.1000173791021E+01
 0.9911415745540E+00
 0.9905864647313E+00
 0.1895121643195E+01
 0.1819416860931E+01
 0.1742697027635E+01
 0.1666678231207E+01
 0.1592170214991E+01
 0.1520028319812E+01
 0.1450940917532E+01
 0.1385551838647E+01
 0.1324343480082E+01
 0.1267640319499E+01
 0.1215668502557E+01
 0.1168605533569E+01
 0.1126608958278E+01
 0.1089825704867E+01
 0.1058399274998E+01
 0.1032537771072E+01
 0.1012535009208E+01
 0.9986954790932E+00
 0.9917337267448E+00
 0.9921075758261E+00
 0.1855059745621E+01
 0.1781817570107E+01
 0.1707969196028E+01
 0.1634748851659E+01
 0.1563117327538E+01
 0.1493784908814E+01
 0.1427438964948E+01
 0.1364662561327E+01
 0.1305901108699E+01
 0.1251471809825E+01
 0.1201606869559E+01
 0.1156494448952E+01
 0.1116305202508E+01
 0.1081207151495E+01
 0.1051385126962E+01
 0.1027060179332E+01
 0.1008515682229E+01
 0.9961562806752E+00
 0.9903868075717E+00
 0.9916237572222E+00
 0.1815806766093E+01
 0.1744866710584E+01
 0.1673566668578E+01
 0.1603019553970E+01
 0.1534066072488E+01
 0.1467403253438E+01
 0.1403653892279E+01
 0.1343360618859E+01
 0.1286939199368E+01
 0.1234696107644E+01
 0.1186863995926E+01
 0.1143637090152E+01
 0.1105197302505E+01
 0.1071731252145E+01
 0.1043441891337E+01
 0.1020562072023E+01
 0.1003386976907E+01
 0.9922505664392E+00
 0.9874898674306E+00
 0.9894087985964E+00
 0.1777245817745E+01
 0.1708397304515E+01
 0.1639466998402E+01
 0.1571411080394E+01
 0.1504994845504E+01
 0.1440857933695E+01
 0.1379577719794E+01
 0.1321651459850E+01
 0.1267469702477E+01
 0.1217326895034E+01
 0.1171452738858E+01
 0.1130044271768E+01
 0.1093291265888E+01
 0.1061391268592E+01
 0.1034557941330E+01
 0.1013031597757E+01
 0.9970885704892E+00
 0.9870247590636E+00
 0.9831180251904E+00
 0.9856208090162E+00
 0.1739226093737E+01
 0.1672313065933E+01
 0.1605590752323E+01
 0.1539881312023E+01
 0.1475866260942E+01
 0.1414130805660E+01
 0.1355202144331E+01
 0.1299537362360E+01
 0.1247501258649E+01
 0.1199375482948E+01
 0.1155384525729E+01
 0.1115725386162E+01
 0.1080591513881E+01
 0.1050186037697E+01
 0.1024727516669E+01
 0.1004453606091E+01
 0.9896240005409E+00
 0.9805033364824E+00
 0.9773364405748E+00
 0.9803320331733E+00
 0.1701618225654E+01
 0.1636516175143E+01
 0.1571871134005E+01
 0.1508381760256E+01
 0.1446649464374E+01
 0.1387202417115E+01
 0.1330519583688E+01
 0.1277019028785E+01
 0.1227040481694E+01
 0.1180851533142E+01
 0.1138669693102E+01
 0.1100689320394E+01
 0.1067103998146E+01
 0.1038118052501E+01
 0.1013949475624E+01
 0.9948301030037E+00
 0.9810043255490E+00
 0.9727155694783E+00
 0.9701863169066E+00
 0.9736010027140E+00
 0.1664303687586E+01
 0.1600918117618E+01
 0.1538243829430E+01
 0.1476867695671E+01
 0.1417314102402E+01
 0.1360054923042E+01
 0.1305522117656E+01
 0.1254096493716E+01
 0.1206092808096E+01
 0.1161763703942E+01
 0.1121318093096E+01
 0.1084945494265E+01
 0.1052836671315E+01
 0.1025193513519E+01
 0.1002230104201E+01
 0.9841707514884E+00
 0.9712472273726E+00
 0.9636879689606E+00
 0.9617024749579E+00
 0.9654648123821E+00
 0.1627175678532E+01
 0.1565437633142E+01
 0.1504649393083E+01
 0.1445296876544E+01
 0.1387831795246E+01
 0.1332671277233E+01
 0.1280202122754E+01
 0.1230769385584E+01
 0.1184663112680E+01
 0.1142120221056E+01
 0.1103339699081E+01
 0.1068504385384E+01
 0.1037799825822E+01
 0.1011422795668E+01
 0.9895811864947E+00
 0.9724910695949E+00
 0.9603735495177E+00
 0.9534467108178E+00
 0.9519138809833E+00
 0.9559482110411E+00
 0.1590138390664E+01
 0.1530000965302E+01
 0.1471033103371E+01
 0.1413630164659E+01
 0.1358176065935E+01
 0.1305035579296E+01
 0.1254552397165E+01
 0.1207037357403E+01
 0.1162756135772E+01
 0.1121929370688E+01
 0.1084745059580E+01
 0.1051377886195E+01
 0.1022006318836E+01
 0.9968200213745E+00
 0.9760191020367E+00
 0.9598108757844E+00
 0.9484070128195E+00
 0.9420181093555E+00
 0.9408457835455E+00
 0.9450705746009E+00
 0.1553106583037E+01
 0.1494541639449E+01
 0.1437345107171E+01
 0.1381831620997E+01
 0.1328322547693E+01
 0.1277133200726E+01
 0.1228566416469E+01
 0.1182900373258E+01
 0.1140376848572E+01
 0.1101199862292E+01
 0.1065545621949E+01
 0.1033579522136E+01
 0.1005471534332E+01
 0.9814027016493E+00
 0.9615641046502E+00
 0.9461537319281E+00
 0.9353742540802E+00
 0.9294299311708E+00
 0.9285227573145E+00
 0.9328458125071E+00
 0.1516004958536E+01
 0.1459000220743E+01
 0.1403540354146E+01
 0.1349868559049E+01
 0.1298249045972E+01
 0.1248950902278E+01
 0.1202238489875E+01
 0.1158358926698E+01
 0.1117530695970E+01
 0.1079941070511E+01
 0.1045753921104E+01
 0.1015124518870E+01
 0.9882132648978E+00
 0.9651913968285E+00
 0.9462398952195E+00
 0.9315466927991E+00
 0.9213051788992E+00
 0.9157131374212E+00
 0.9149723076162E+00
 0.9192894608230E+00
 0.1478767674218E+01
 0.1423324075053E+01
 0.1369578563588E+01
 0.1317711599298E+01
 0.1267935640721E+01
 0.1220476968807E+01
 0.1175563936454E+01
 0.1133414242308E+01
 0.1094223805873E+01
 0.1058163219273E+01
 0.1025383698452E+01
 0.9960298105341E+00
 0.9702515766834E+00
 0.9482094622404E+00
 0.9300733539296E+00
 0.9160202239442E+00
 0.9062333770547E+00
 0.9009029909476E+00
 0.9002285089720E+00
 0.9044246486642E+00
 0.1441337656697E+01
 0.1387466994185E+01
 0.1335424032750E+01
 0.1285334589567E+01
 0.1237364668112E+01
 0.1191701241031E+01
 0.1148539157637E+01
 0.1108068374067E+01
 0.1070463090039E+01
 0.1035877457671E+01
 0.1004449920599E+01
 0.9763139725618E+00
 0.9516086482787E+00
 0.9304828258063E+00
 0.9130943419709E+00
 0.8996081663452E+00
 0.8901963318424E+00
 0.8850397100965E+00
 0.8843322299376E+00
 0.8882892225903E+00
 0.1403666049825E+01
 0.1351388880186E+01
 0.1301045500438E+01
 0.1252714570522E+01
 0.1206520746415E+01
 0.1162615182915E+01
 0.1121161733460E+01
 0.1082324312225E+01
 0.1046256340232E+01
 0.1013095921912E+01
 0.9829687842325E+00
 0.9559971539958E+00
 0.9323086338228E+00
 0.9120398143552E+00
 0.8953355564472E+00
 0.8823476905086E+00
 0.8732355540532E+00
 0.8681686313281E+00
 0.8673318100811E+00
 0.8709349364157E+00
 0.1365711576255E+01
 0.1315055346222E+01
 0.1266415917259E+01
 0.1219831654939E+01
 0.1175390722946E+01
 0.1133211874984E+01
 0.1093430445384E+01
 0.1056186016236E+01
 0.1021612250489E+01
 0.9898317267700E+00
 0.9609576597563E+00
 0.9351009646943E+00
 0.9123775004946E+00
 0.8929109682731E+00
 0.8768323640196E+00
 0.8642792010988E+00
 0.8553965730243E+00
 0.8503403739590E+00
 0.8492831718103E+00
 0.8524242941619E+00
 0.1327439915823E+01
 0.1278437320680E+01
 0.1231512206652E+01
 0.1186668893175E+01
 0.1143963605681E+01
 0.1103485989098E+01
 0.1065345275746E+01
 0.1029658419523E+01
 0.9965404080698E+00
 0.9660989256308E+00
 0.9384350075716E+00
 0.9136483428007E+00
 0.8918428538629E+00
 0.8731288441764E+00
 0.8576226099114E+00
 0.8454461766530E+00
 0.8367288267699E+00
 0.8316107272651E+00
 0.8302491539027E+00
 0.8328287328899E+00
 0.1288823135663E+01
 0.1241510662767E+01
 0.1196315033460E+01
 0.1153212142189E+01
 0.1112230497591E+01
 0.1073433763904E+01
 0.1036907404712E+01
 0.1002747428659E+01
 0.9710512769059E+00
 0.9419124630570E+00
 0.9154202890083E+00
 0.8916634198922E+00
 0.8707337617210E+00
 0.8527278103642E+00
 0.8377464026145E+00
 0.8258949544511E+00
 0.8172854231263E+00
 0.8120402473591E+00
 0.8102987540218E+00
 0.8122273539912E+00
 0.1249839045239E+01
 0.1204255724317E+01
 0.1160808507429E+01
 0.1119449871407E+01
 0.1080184470163E+01
 0.1043052921969E+01
 0.1008119150834E+01
 0.9754598684192E+00
 0.9451561300030E+00
 0.9172880803061E+00
 0.8919338346924E+00
 0.8691713471222E+00
 0.8490805388900E+00
 0.8317437968441E+00
 0.8172458365457E+00
 0.8056744292589E+00
 0.7971227655604E+00
 0.7916936987039E+00
 0.7895062935847E+00
 0.7907058225948E+00
 0.1210470635002E+01
 0.1166656954888E+01
 0.1124979925125E+01
 0.1085372998175E+01
 0.1047820461412E+01
 0.1012342606286E+01
 0.9789839261830E+00
 0.9478034372753E+00
 0.9188669890884E+00
 0.8922422256716E+00
 0.8679967153857E+00
 0.8461981201101E+00
 0.8269145237801E+00
 0.8102140237180E+00
 0.7961646747338E+00
 0.7848356799591E+00
 0.7763001290187E+00
 0.7706394603364E+00
 0.7679504718027E+00
 0.7683552680799E+00
 0.1170705485459E+01
 0.1128702483115E+01
 0.1088819480319E+01
 0.1050974692065E+01
 0.1015135143309E+01
 0.9813032874316E+00
 0.9495061633485E+00
 0.9197866363182E+00
 0.8921965395593E+00
 0.8667919418976E+00
 0.8436305907750E+00
 0.8227703805600E+00
 0.8042678263980E+00
 0.7881766912259E+00
 0.7745479735100E+00
 0.7634315316114E+00
 0.7548791268373E+00
 0.7489490745382E+00
 0.7457134868216E+00
 0.7452704589677E+00
 0.1130535192472E+01
 0.1090383703537E+01
 0.1052319975874E+01
 0.1016250176674E+01
 0.9821267849652E+00
 0.9499366650624E+00
 0.9196912358399E+00
 0.8914186911163E+00
 0.8651580382230E+00
 0.8409547461029E+00
 0.8188575495684E+00
 0.7989152058529E+00
 0.7811730579238E+00
 0.7656706393312E+00
 0.7524416652905E+00
 0.7415160419189E+00
 0.7329231422109E+00
 0.7266964597125E+00
 0.7228811643067E+00
 0.7215468031791E+00
 0.1089954810160E+01
 0.1051694873441E+01
 0.1015476540567E+01
 0.9811965335422E+00
 0.9487951158379E+00
 0.9182455681198E+00
 0.8895453763056E+00
 0.8627094709912E+00
 0.8377652183452E+00
 0.8147485066831E+00
 0.7936999452397E+00
 0.7746598911395E+00
 0.7576630464250E+00
 0.7427349847726E+00
 0.7298921013682E+00
 0.7191439498064E+00
 0.7104966222512E+00
 0.7039572298040E+00
 0.6995412924600E+00
 0.6972855124271E+00
 0.1048962299724E+01
 0.1012632711819E+01
 0.9782863452437E+00
 0.9458125035001E+00
 0.9151411854529E+00
 0.8862338510387E+00
 0.8590755907188E+00
 0.8336694047101E+00
 0.8100321918462E+00
 0.7881913178592E+00
 0.7681802289942E+00
 0.7500317264524E+00
 0.7337705433550E+00
 0.7194087403856E+00
 0.7069455704087E+00
 0.6963700710444E+00
 0.6876643955417E+00
 0.6808077818698E+00
 0.6757833762950E+00
 0.6725908836670E+00
 0.1007557978901E+01
 0.9731959993482E+00
 0.9407483178182E+00
 0.9100982858155E+00
 0.8811672201914E+00
 0.8539062866468E+00
 0.8282895693487E+00
 0.8043093936744E+00
 0.7819733502079E+00
 0.7613013741155E+00
 0.7423207829396E+00
 0.7250577728892E+00
 0.7095279259123E+00
 0.6957304261732E+00
 0.6836477969968E+00
 0.6732486776904E+00
 0.6644909184012E+00
 0.6573246382024E+00
 0.6516979367363E+00
 0.6475688065720E+00
 0.9657440053650E+00
 0.9333852066049E+00
 0.9028628840461E+00
 0.8740553600651E+00
 0.8468764996677E+00
 0.8212684758186E+00
 0.7971956122690E+00
 0.7746407385036E+00
 0.7536032787528E+00
 0.7340968584896E+00
 0.7161437670128E+00
 0.6997646508789E+00
 0.6849669085047E+00
 0.6717376850795E+00
 0.6600434426387E+00
 0.6498328573611E+00
 0.6410395056765E+00
 0.6335835646269E+00
 0.6273756474834E+00
 0.6223266476478E+00
 0.9235238432497E+00
 0.8932021066914E+00
 0.8646316961113E+00
 0.8376862975962E+00
 0.8122732239809E+00
 0.7883267485163E+00
 0.7658025470025E+00
 0.7446750596110E+00
 0.7249366683621E+00
 0.7065958327151E+00
 0.6896709714771E+00
 0.6741783353839E+00
 0.6601182598303E+00
 0.6474669032193E+00
 0.6361756110929E+00
 0.6261738789722E+00
 0.6173715034315E+00
 0.6096585123323E+00
 0.6029062553996E+00
 0.5969733621065E+00
 0.8809017319443E+00
 0.8526494069848E+00
 0.8260573799261E+00
 0.8009945927619E+00
 0.7773623986667E+00
 0.7550880794413E+00
 0.7341196577899E+00
 0.7144242284458E+00
 0.6959882400785E+00
 0.6788161450994E+00
 0.6629236920134E+00
 0.6483239751046E+00
 0.6350115403256E+00
 0.6229528445618E+00
 0.6120853676187E+00
 0.6023205842310E+00
 0.5935454841924E+00
 0.5856204788351E+00
 0.5783771849910E+00
 0.5716188038797E+00
 0.8378822028399E+00
 0.8117304104631E+00
 0.7871433204598E+00
 0.7639845309494E+00
 0.7421497530304E+00
 0.7215600304162E+00
 0.7021566347139E+00
 0.6839003144167E+00
 0.6667726864907E+00
 0.6507753614842E+00
 0.6359226359207E+00
 0.6222257460308E+00
 0.6096748673723E+00
 0.5982282982285E+00
 0.5878112597105E+00
 0.5783187877749E+00
 0.5696165418247E+00
 0.5615364703540E+00
 0.5538716914574E+00
 0.5463712069178E+00
 0.7944695097463E+00
 0.7704486387177E+00
 0.7478934179466E+00
 0.7266610401667E+00
 0.7066416447526E+00
 0.6877506762313E+00
 0.6699235013098E+00
 0.6531155087108E+00
 0.6373045957099E+00
 0.6224906937897E+00
 0.6086878458137E+00
 0.5959067373873E+00
 0.5841347097075E+00
 0.5733237314020E+00
 0.5633888111330E+00
 0.5542106477124E+00
 0.5456355842818E+00
 0.5374688349395E+00
 0.5294669055958E+00
 0.5213305466601E+00
 0.7506671404777E+00
 0.7288075282870E+00
 0.7083119407126E+00
 0.6890296438092E+00
 0.6708450591896E+00
 0.6536686075286E+00
 0.6374306002038E+00
 0.6220820910893E+00
 0.6075984151782E+00
 0.5939789796973E+00
 0.5812387009673E+00
 0.5693889399712E+00
 0.5584157848050E+00
 0.5482670004963E+00
 0.5388500040644E+00
 0.5300339612706E+00
 0.5216485576091E+00
 0.5134743844284E+00
 0.5052332612530E+00
 0.4965784281245E+00
 0.7064771930850E+00
 0.6868100523546E+00
 0.6684033441882E+00
 0.6510964111993E+00
 0.6347676057751E+00
 0.6193229178306E+00
 0.6046885417611E+00
 0.5908123489684E+00
 0.5776683650450E+00
 0.5652566327729E+00
 0.5535939326928E+00
 0.5426933146328E+00
 0.5325410647810E+00
 0.5230831262562E+00
 0.5142226908363E+00
 0.5058212728333E+00
 0.4976954425173E+00
 0.4896033302307E+00
 0.4812331014228E+00
 0.4721832736705E+00
 0.6618996657233E+00
 0.6444583371047E+00
 0.6281721669983E+00
 0.6128680071077E+00
 0.5984176118723E+00
 0.5847232322880E+00
 0.5717081649175E+00
 0.5593184739720E+00
 0.5475283203564E+00
 0.5363395555618E+00
 0.5257716589917E+00
 0.5158399692659E+00
 0.5065320167476E+00
 0.4977942433290E+00
 0.4895299731908E+00
 0.4815986520687E+00
 0.4738089231363E+00
 0.4658985343070E+00
 0.4575207679873E+00
 0.4482125659084E+00
 0.6169316262984E+00
 0.6017533010297E+00
 0.5876230416303E+00
 0.5743520012413E+00
 0.5618043602111E+00
 0.5498798664734E+00
 0.5385005261787E+00
 0.5276124985435E+00
 0.5171916897184E+00
 0.5072430497836E+00
 0.4977893988369E+00
 0.4888485246851E+00
 0.4804092027040E+00
 0.4724201708249E+00
 0.4647896804344E+00
 0.4573840448816E+00
 0.4500123619902E+00
 0.4423948086569E+00
 0.4341461163598E+00
 0.4247307956966E+00
 0.5715658479652E+00
 0.5586938206908E+00
 0.5467609873907E+00
 0.5355571498954E+00
 0.5249385691792E+00
 0.5148037651789E+00
 0.5050768537301E+00
 0.4957060590572E+00
 0.4866711992324E+00
 0.4779815279239E+00
 0.4696639130273E+00
 0.4617381920080E+00
 0.4541934939595E+00
 0.4469796012172E+00
 0.4400151002000E+00
 0.4331843015230E+00
 0.4263159001343E+00
 0.4191172154119E+00
 0.4111561345604E+00
 0.4018023656674E+00
 0.5257877226130E+00
 0.5152768340284E+00
 0.5055911679719E+00
 0.4964955733286E+00
 0.4878323085003E+00
 0.4795071040957E+00
 0.4714481599838E+00
 0.4636104829812E+00
 0.4559786652113E+00
 0.4485682546958E+00
 0.4414108285583E+00
 0.4345278226564E+00
 0.4279063173717E+00
 0.4214948666433E+00
 0.4152161462706E+00
 0.4089952683729E+00
 0.4027048035100E+00
 0.3960751448667E+00
 0.3886003703714E+00
 0.3794984521839E+00
 0.4795739816386E+00
 0.4714900593980E+00
 0.4641268318747E+00
 0.4571802367793E+00
 0.4505029729077E+00
 0.4440004810493E+00
 0.4376261783361E+00
 0.4313362817501E+00
 0.4251247898321E+00
 0.4190148461048E+00
 0.4130440258788E+00
 0.4072349356023E+00
 0.4015703220285E+00
 0.3959905509232E+00
 0.3904202104641E+00
 0.3847912953943E+00
 0.3791361955815E+00
 0.3732247284358E+00
 0.3665368942980E+00
 0.3579468779237E+00
 0.4328491347192E+00
 0.4273418833440E+00
 0.4223655713970E+00
 0.4176557561134E+00
 0.4129546336369E+00
 0.4082994613890E+00
 0.4036215793703E+00
 0.3988938510424E+00
 0.3941184840459E+00
 0.3893310211022E+00
 0.3845751266228E+00
 0.3798744503209E+00
 0.3752068041092E+00
 0.3704981626166E+00
 0.3656551592965E+00
 0.3606336410595E+00
 0.3554220613802E+00
 0.3504744302447E+00
 0.3449590354354E+00
 0.3374067774694E+00
 0.3856032865983E+00
 0.3826473854449E+00
 0.3805217705703E+00
 0.3778754203373E+00
 0.3752162850658E+00
 0.3724129883811E+00
 0.3694509956485E+00
 0.3662900871932E+00
 0.3629667463568E+00
 0.3595252201180E+00
 0.3560127612187E+00
 0.3524578257574E+00
 0.3488322349385E+00
 0.3450484708805E+00
 0.3409747639719E+00
 0.3365384622441E+00
 0.3318567878410E+00
 0.3267670149102E+00
 0.3240606789476E+00
 0.3184597450897E+00
 0.3358599751647E+00
 0.3387001540925E+00
 0.3382460133877E+00
 0.3379238818791E+00
 0.3372546109441E+00
 0.3363987580205E+00
 0.3351164388028E+00
 0.3335263366756E+00
 0.3316788548969E+00
 0.3296018895415E+00
 0.3273641642234E+00
 0.3249910600839E+00
 0.3224572335698E+00
 0.3196576958125E+00
 0.3164409631276E+00
 0.3126046111197E+00
 0.3083228786483E+00
 0.3039255955031E+00
 0.2976154643293E+00
 0.3048483822110E+00
 0.6989903110676E+01
 0.1814443412319E+01
 0.1676973080077E+01
 0.1497705830727E+01
 0.1315354910973E+01
 0.1057127026448E+01
 0.8022766406982E+00
 0.6426289606649E+00
 0.5480995992271E+00
 0.4741893446884E+00
 0.4055095033166E+00
 0.3396148891999E+00
 0.2769771373303E+00
 0.2148254902773E+00
 0.1535017879909E+00
 0.9474849254479E-01
 0.4618232879270E-01
-0.2293081699510E-01
-0.7408096401094E-01
-0.4793579720377E-01
 0.4586338494715E+01
 0.2974431819640E+01
 0.1754310195871E+01
 0.1541888159802E+01
 0.1337289479452E+01
 0.1121536898721E+01
 0.9039546981280E+00
 0.7291717849260E+00
 0.6127809307073E+00
 0.5303182796279E+00
 0.4610218258958E+00
 0.3975568500317E+00
 0.3379255048928E+00
 0.2811770095822E+00
 0.2268843345559E+00
 0.1770516590509E+00
 0.1272838003147E+00
 0.7765462348778E-01
 0.5493840865841E-01
 0.1052586274937E+00
 0.3874428464970E+01
 0.2889661167116E+01
 0.2089913205579E+01
 0.1607442145370E+01
 0.1382649967743E+01
 0.1176706851700E+01
 0.9818768501142E+00
 0.8124144318234E+00
 0.6843171322733E+00
 0.5913687177460E+00
 0.5182718252707E+00
 0.4552517301588E+00
 0.3982658835988E+00
 0.3456840669467E+00
 0.2973605931767E+00
 0.2531991265296E+00
 0.2108303564597E+00
 0.1754476774642E+00
 0.1743428766860E+00
 0.2449531777805E+00
 0.3476190954443E+01
 0.2784025977113E+01
 0.2190425392731E+01
 0.1736938705781E+01
 0.1442510453879E+01
 0.1233548627250E+01
 0.1049305108996E+01
 0.8873719039993E+00
 0.7562003399826E+00
 0.6558457414057E+00
 0.5777711817937E+00
 0.5135229226532E+00
 0.4579154765557E+00
 0.4085864798297E+00
 0.3648159110116E+00
 0.3264550993701E+00
 0.2913358992379E+00
 0.2689797002634E+00
 0.2841929367413E+00
 0.3650324133118E+00
 0.3216894362466E+01
 0.2682790089009E+01
 0.2218997696362E+01
 0.1820787706334E+01
 0.1519448858065E+01
 0.1294054588645E+01
 0.1112876266266E+01
 0.9560913863537E+00
 0.8252451931408E+00
 0.7210233426686E+00
 0.6388043937828E+00
 0.5725005260351E+00
 0.5171536025724E+00
 0.4699614318460E+00
 0.4298575901882E+00
 0.3964987217502E+00
 0.3681442177569E+00
 0.3565406004224E+00
 0.3829939626091E+00
 0.4674555078698E+00
 0.3026764550227E+01
 0.2595009119738E+01
 0.2215307914708E+01
 0.1871077962826E+01
 0.1585570941268E+01
 0.1357626646740E+01
 0.1174834683362E+01
 0.1020765502547E+01
 0.8909579755875E+00
 0.7850512680140E+00
 0.7000685824674E+00
 0.6317618441446E+00
 0.5759744459339E+00
 0.5299960260975E+00
 0.4925968155032E+00
 0.4633217069380E+00
 0.4406725392103E+00
 0.4373188402264E+00
 0.4707814106945E+00
 0.5545631994411E+00
 0.2877252846675E+01
 0.2518170967205E+01
 0.2197502083489E+01
 0.1898445061951E+01
 0.1636709567628E+01
 0.1416216479638E+01
 0.1234822235794E+01
 0.1082301029215E+01
 0.9535573963197E+00
 0.8470703150599E+00
 0.7604592075297E+00
 0.6905891826721E+00
 0.6341079148508E+00
 0.5886642048734E+00
 0.5530865151297E+00
 0.5268669926679E+00
 0.5086491562491E+00
 0.5111215644367E+00
 0.5482535916369E+00
 0.6285392991397E+00
 0.2753934203859E+01
 0.2449694022238E+01
 0.2173053212138E+01
 0.1910958062615E+01
 0.1673963123904E+01
 0.1466421149046E+01
 0.1290226161866E+01
 0.1140379254498E+01
 0.1013024662316E+01
 0.9066499764695E+00
 0.8192175047908E+00
 0.7482785435271E+00
 0.6911117710790E+00
 0.6457746700336E+00
 0.6112689687957E+00
 0.5871010367492E+00
 0.5720026185660E+00
 0.5781382199966E+00
 0.6163512933464E+00
 0.6913131180776E+00
 0.2648765613731E+01
 0.2387523957783E+01
 0.2145363102337E+01
 0.1913654263124E+01
 0.1699843748533E+01
 0.1507444501189E+01
 0.1339309602664E+01
 0.1193896221799E+01
 0.1068906134647E+01
 0.9633689849120E+00
 0.8757786288919E+00
 0.8042294060085E+00
 0.7465052845408E+00
 0.7010302776403E+00
 0.6670060573005E+00
 0.6439910852129E+00
 0.6307932726939E+00
 0.6387470937910E+00
 0.6760669986288E+00
 0.7445529135316E+00
 0.2556858859620E+01
 0.2330189517903E+01
 0.2116026574637E+01
 0.1909647442659E+01
 0.1716706946272E+01
 0.1539776666225E+01
 0.1381346125677E+01
 0.1241924182262E+01
 0.1120492840114E+01
 0.1016687298329E+01
 0.9296144900903E+00
 0.8579125851290E+00
 0.7998237878468E+00
 0.7540941494825E+00
 0.7201110906613E+00
 0.6974987540910E+00
 0.6851456461013E+00
 0.6934005299835E+00
 0.7283485470948E+00
 0.7896819173311E+00
 0.2475044886842E+01
 0.2276647771521E+01
 0.2085819185004E+01
 0.1900870435139E+01
 0.1726432628256E+01
 0.1564348714126E+01
 0.1416318251983E+01
 0.1283952503501E+01
 0.1167152565093E+01
 0.1066011643445E+01
 0.9801818745148E+00
 0.9088226199127E+00
 0.8506223115757E+00
 0.8046227204629E+00
 0.7703771049913E+00
 0.7475783784803E+00
 0.7352064944935E+00
 0.7425564328663E+00
 0.7740535720787E+00
 0.8279008627459E+00
 0.2401155417891E+01
 0.2226153080520E+01
 0.2055127859884E+01
 0.1888548417073E+01
 0.1730436327840E+01
 0.1582150089933E+01
 0.1444583423039E+01
 0.1319850572684E+01
 0.1208471642081E+01
 0.1110822869292E+01
 0.1026954183681E+01
 0.9564675435225E+00
 0.8984693023768E+00
 0.8522764483390E+00
 0.8175915676300E+00
 0.7941781947743E+00
 0.7811213384394E+00
 0.7866424668627E+00
 0.8139313808299E+00
 0.8602120873635E+00
 0.2333637145552E+01
 0.2178160928138E+01
 0.2024150444702E+01
 0.1873479774812E+01
 0.1729766075733E+01
 0.1594077434138E+01
 0.1466652987401E+01
 0.1349744233098E+01
 0.1244267572550E+01
 0.1150747984765E+01
 0.1069478783465E+01
 0.1000391488505E+01
 0.9429530681842E+00
 0.8967254222328E+00
 0.8615430639541E+00
 0.8372411920640E+00
 0.8230232754558E+00
 0.8260410768690E+00
 0.8486212574200E+00
 0.8874425599273E+00
 0.2271331364171E+01
 0.2132262053694E+01
 0.1992990457099E+01
 0.1856202457934E+01
 0.1725199512314E+01
 0.1600893044427E+01
 0.1483068801514E+01
 0.1373902068215E+01
 0.1274541134455E+01
 0.1185574415189E+01
 0.1107414311653E+01
 0.1040205793671E+01
 0.9836996528563E+00
 0.9376591304984E+00
 0.9020271206659E+00
 0.8767070114902E+00
 0.8610297418749E+00
 0.8610881293965E+00
 0.8786611089205E+00
 0.9102649272230E+00
 0.2213341563166E+01
 0.2088137745182E+01
 0.1961703501092E+01
 0.1837092716716E+01
 0.1717321487238E+01
 0.1603228233730E+01
 0.1494344362357E+01
 0.1392655222431E+01
 0.1299416245683E+01
 0.1215228957365E+01
 0.1140539954245E+01
 0.1075609382548E+01
 0.1020391312200E+01
 0.9747991174861E+00
 0.9388537722680E+00
 0.9125163336898E+00
 0.8952453968236E+00
 0.8920816750470E+00
 0.9045045263859E+00
 0.9292171768058E+00
 0.2158948321374E+01
 0.2045530760621E+01
 0.1930319649053E+01
 0.1816426235450E+01
 0.1706579850999E+01
 0.1601602367719E+01
 0.1500941926239E+01
 0.1406349364816E+01
 0.1319088851172E+01
 0.1239744015818E+01
 0.1168744394235E+01
 0.1106393331390E+01
 0.1052776762352E+01
 0.1007908168615E+01
 0.9718543539381E+00
 0.9446157577472E+00
 0.9257695662597E+00
 0.9192994368859E+00
 0.9265487347213E+00
 0.9447245569414E+00
 0.2107555117694E+01
 0.2004217396983E+01
 0.1898865366069E+01
 0.1794410967936E+01
 0.1693328796999E+01
 0.1596440549485E+01
 0.1503268884615E+01
 0.1415319510942E+01
 0.1333791063910E+01
 0.1259225074229E+01
 0.1192005855887E+01
 0.1132433501609E+01
 0.1080670689494E+01
 0.1036791125505E+01
 0.1000879680734E+01
 0.9729589126703E+00
 0.9527010215019E+00
 0.9430251151845E+00
 0.9451807994345E+00
 0.9571340375008E+00
 0.2058593555474E+01
 0.1964034565783E+01
 0.1867341160566E+01
 0.1771248692976E+01
 0.1677833736428E+01
 0.1588095198155E+01
 0.1501679756449E+01
 0.1419879724844E+01
 0.1343769307434E+01
 0.1273825654834E+01
 0.1210372515965E+01
 0.1153679262239E+01
 0.1103946968285E+01
 0.1061285777675E+01
 0.1025786506089E+01
 0.9974812665588E+00
 0.9761362084042E+00
 0.9635675828617E+00
 0.9608601065288E+00
 0.9667949761067E+00
 0.2011648753243E+01
 0.1924571474964E+01
 0.1836051602591E+01
 0.1747005377059E+01
 0.1660318128876E+01
 0.1576847273160E+01
 0.1496482977259E+01
 0.1420322164157E+01
 0.1349271855001E+01
 0.1283730134650E+01
 0.1223948550803E+01
 0.1170146643556E+01
 0.1122536569961E+01
 0.1081254185858E+01
 0.1046407948096E+01
 0.1018056693690E+01
 0.9960572970913E+00
 0.9812911063108E+00
 0.9742339105590E+00
 0.9742702101521E+00
 0.1963428887876E+01
 0.1887572187236E+01
 0.1804617566132E+01
 0.1721873218612E+01
 0.1640897395745E+01
 0.1562897927607E+01
 0.1487965600033E+01
 0.1416922998182E+01
 0.1350536704387E+01
 0.1289138506711E+01
 0.1232887758733E+01
 0.1181921673516E+01
 0.1136439836105E+01
 0.1096602650050E+01
 0.1062543884514E+01
 0.1034410391261E+01
 0.1012225640446E+01
 0.9960736609704E+00
 0.9864558342207E+00
 0.9810985511448E+00
 0.3045948338580E+00
 0.3012173781322E+00
 0.3008927344756E+00
 0.3000202107489E+00
 0.2989157489222E+00
 0.2975776615611E+00
 0.2965864663442E+00
 0.2957163282700E+00
 0.2947219385325E+00
 0.2935691969446E+00
 0.2922911470996E+00
 0.2909201846333E+00
 0.2893542893571E+00
 0.2874426062934E+00
 0.2849898726996E+00
 0.2816557512267E+00
 0.2764238205349E+00
 0.2694221379242E+00
 0.2608611104439E+00
 0.2298403537107E+00
 0.2542059769514E+00
 0.2549582252874E+00
 0.2547447793897E+00
 0.2544347972041E+00
 0.2533682334513E+00
 0.2518418512073E+00
 0.2506718975129E+00
 0.2499772314547E+00
 0.2494828434943E+00
 0.2490338393424E+00
 0.2485611237327E+00
 0.2479973325025E+00
 0.2471571650447E+00
 0.2458152006991E+00
 0.2437063630001E+00
 0.2403831092137E+00
 0.2351026394615E+00
 0.2291035735823E+00
 0.2199768893065E+00
 0.2214567743861E+00
 0.2053356439546E+00
 0.2077051554446E+00
 0.2090033345453E+00
 0.2092571969880E+00
 0.2084694091419E+00
 0.2068753940225E+00
 0.2057681440378E+00
 0.2054616432712E+00
 0.2056446202454E+00
 0.2060511622960E+00
 0.2065056810194E+00
 0.2068603099784E+00
 0.2068602774181E+00
 0.2062428441620E+00
 0.2047569828595E+00
 0.2020782272466E+00
 0.1978165438806E+00
 0.1929019888392E+00
 0.1904057558427E+00
 0.1898718699808E+00
 0.1562121558425E+00
 0.1606645220995E+00
 0.1633782289520E+00
 0.1645823269739E+00
 0.1642195414608E+00
 0.1627597872875E+00
 0.1619197772372E+00
 0.1622145986730E+00
 0.1632683575372E+00
 0.1647040953415E+00
 0.1662459754423E+00
 0.1676738760375E+00
 0.1686850271679E+00
 0.1690058232014E+00
 0.1684233869050E+00
 0.1667251010859E+00
 0.1634879247645E+00
 0.1603527424089E+00
 0.1582426297315E+00
 0.1573105343412E+00
 0.1068351987070E+00
 0.1136997067746E+00
 0.1180796778871E+00
 0.1203936880343E+00
 0.1206689489784E+00
 0.1195336517549E+00
 0.1191788263494E+00
 0.1202922853231E+00
 0.1224262780673E+00
 0.1250874052184E+00
 0.1278995980907E+00
 0.1305745792901E+00
 0.1327691720001E+00
 0.1341966162630E+00
 0.1346618003142E+00
 0.1339493282504E+00
 0.1317537152326E+00
 0.1291533932284E+00
 0.1270771418691E+00
 0.1252914450529E+00
 0.5713554349645E-01
 0.6685063310886E-01
 0.7313319630246E-01
 0.7675021954158E-01
 0.7784463038911E-01
 0.7723949425144E-01
 0.7759363427983E-01
 0.7975678761010E-01
 0.8319624845175E-01
 0.8729410545040E-01
 0.9156743335414E-01
 0.9565628194708E-01
 0.9917486215388E-01
 0.1018141423828E+00
 0.1033640294459E+00
 0.1036169561692E+00
 0.1022056077988E+00
 0.9990773504793E-01
 0.9747162054730E-01
 0.9511295511485E-01
 0.7083617973209E-02
 0.2014274039009E-01
 0.2858111814603E-01
 0.3368475935480E-01
 0.3578152619418E-01
 0.3591437510146E-01
 0.3721370199224E-01
 0.4067194588599E-01
 0.4565708455169E-01
 0.5141106979461E-01
 0.5733209508071E-01
 0.6298168375905E-01
 0.6793041310665E-01
 0.7184210738253E-01
 0.7449385062152E-01
 0.7566225849499E-01
 0.7497713267367E-01
 0.7285874433504E-01
 0.7009858472317E-01
 0.6729910052099E-01
-0.4334543432059E-01
-0.2638597447247E-01
-0.1553843208456E-01
-0.8770903848862E-02
-0.5491806589185E-02
-0.4405663219194E-02
-0.1912425092065E-02
 0.3103067562573E-02
 0.9887778363652E-02
 0.1752036770663E-01
 0.2526456882632E-01
 0.3259887383590E-01
 0.3905575107033E-01
 0.4428143127074E-01
 0.4804678923902E-01
 0.5013389494190E-01
 0.5017668082325E-01
 0.4830143492549E-01
 0.4536758545705E-01
 0.4226038402623E-01
-0.9417121165028E-01
-0.7268904903813E-01
-0.5918477201520E-01
-0.5058869956473E-01
-0.4595091812426E-01
-0.4368833349826E-01
-0.3973668719123E-01
-0.3288223333482E-01
-0.2402981800116E-01
-0.1429622290087E-01
-0.4568683394319E-02
 0.4549850976855E-02
 0.1256964295979E-01
 0.1913778670736E-01
 0.2403960707529E-01
 0.2707946041354E-01
 0.2792161094529E-01
 0.2645317818159E-01
 0.2359018843379E-01
 0.2032515516914E-01
-0.1454088251697E+00
-0.1187093574355E+00
-0.1023142761979E+00
-0.9174349770160E-01
-0.8557726195604E-01
-0.8190602137685E-01
-0.7621126009917E-01
-0.6721088704603E-01
-0.5600619048589E-01
-0.4395219892619E-01
-0.3210230439839E-01
-0.2112922592935E-01
-0.1151742743209E-01
-0.3589920966879E-02
 0.2478359578554E-02
 0.6535877292222E-02
 0.8296571827274E-02
 0.7472462414325E-02
 0.4987414702713E-02
 0.1763692386416E-02
-0.1970676670249E+00
-0.1643766447295E+00
-0.1448789121472E+00
-0.1322140135853E+00
-0.1243606445778E+00
-0.1190378620535E+00
-0.1112871225961E+00
-0.9979901053824E-01
-0.8593750921458E-01
-0.7135237236196E-01
-0.5727314117490E-01
-0.4441484441666E-01
-0.3321374280224E-01
-0.2392421924276E-01
-0.1665184610330E-01
-0.1148521095278E-01
-0.8648946253343E-02
-0.8544769640840E-02
-0.1030239138046E-01
-0.1323211677299E-01
-0.2491492456269E+00
-0.2096032869540E+00
-0.1868239883553E+00
-0.1719845108134E+00
-0.1623041822840E+00
-0.1550731139899E+00
-0.1449110835988E+00
-0.1305427988905E+00
-0.1136968087005E+00
-0.9639091967334E-01
-0.8002693059510E-01
-0.6530810203747E-01
-0.5255918550217E-01
-0.4191818664001E-01
-0.3339314578163E-01
-0.2699932050322E-01
-0.2290159308362E-01
-0.2156225790318E-01
-0.2222886429889E-01
-0.2457484219141E-01
-0.3016443133620E+00
-0.2542772769761E+00
-0.2280836854280E+00
-0.2110482961897E+00
-0.1994340121624E+00
-0.1900169595734E+00
-0.1770189306576E+00
-0.1593025597417E+00
-0.1391224128042E+00
-0.1189540996736E+00
-0.1003329853083E+00
-0.8385214559362E-01
-0.6963714632774E-01
-0.5765981534841E-01
-0.4781367025525E-01
-0.4004628462680E-01
-0.3448008865872E-01
-0.3159990736892E-01
-0.3083308363081E-01
-0.3230524083933E-01
-0.3545305391346E+00
-0.2982497572441E+00
-0.2685716239898E+00
-0.2494148934915E+00
-0.2358194057926E+00
-0.2238993000466E+00
-0.2075187293923E+00
-0.1858736223327E+00
-0.1620055459484E+00
-0.1389342442489E+00
-0.1182115142590E+00
-0.1001533297401E+00
-0.8458147942813E-01
-0.7126779741769E-01
-0.5999962936508E-01
-0.5068340822800E-01
-0.4342977897071E-01
-0.3872724148135E-01
-0.3624361873829E-01
-0.3660245005210E-01
-0.4077760682008E+00
-0.3413118709956E+00
-0.3081580158426E+00
-0.2871279266335E+00
-0.2716148978022E+00
-0.2567861760648E+00
-0.2362462568698E+00
-0.2099374753663E+00
-0.1820860329183E+00
-0.1562704514362E+00
-0.1337754581564E+00
-0.1143988086073E+00
-0.9757025726581E-01
-0.8287587100372E-01
-0.7004245169329E-01
-0.5897813708843E-01
-0.4981765095818E-01
-0.4305308475399E-01
-0.3866073206094E-01
-0.3777222486452E-01
-0.4613755690533E+00
-0.3831405939891E+00
-0.3466170931749E+00
-0.3243065859682E+00
-0.3071651806140E+00
-0.2887666448156E+00
-0.2628622282630E+00
-0.2309835765037E+00
-0.1990983766194E+00
-0.1710294247981E+00
-0.1472782551077E+00
-0.1268529348935E+00
-0.1087967145016E+00
-0.9260809421792E-01
-0.7802685680056E-01
-0.6500491363295E-01
-0.5372836983798E-01
-0.4471050541106E-01
-0.3832678291729E-01
-0.3621068982065E-01
-0.5154927606770E+00
-0.4231911683458E+00
-0.3834265393604E+00
-0.3613517843464E+00
-0.3431822478465E+00
-0.3198905061634E+00
-0.2865465427326E+00
-0.2483184345137E+00
-0.2129043745491E+00
-0.1835311106921E+00
-0.1591326936732E+00
-0.1378037890617E+00
-0.1184202289279E+00
-0.1005564278224E+00
-0.8402990666670E-01
-0.6884743026821E-01
-0.5526265261051E-01
-0.4383244509631E-01
-0.3548538052216E-01
-0.3234800391880E-01
-0.5713661313642E+00
-0.4599397878780E+00
-0.4176110027332E+00
-0.3992310308126E+00
-0.3816135131138E+00
-0.3491291743651E+00
-0.3059179604402E+00
-0.2611706926508E+00
-0.2237960993124E+00
-0.1944709300128E+00
-0.1698099938654E+00
-0.1474603845502E+00
-0.1265235985473E+00
-0.1067834535525E+00
-0.8812563817343E-01
-0.7061646732520E-01
-0.5452850486380E-01
-0.4052249849755E-01
-0.3031825096466E-01
-0.2659868013823E-01
-0.6331714272617E+00
-0.4908657232894E+00
-0.4428818128461E+00
-0.4468100085891E+00
-0.4216130801540E+00
-0.3746869067262E+00
-0.3185947336549E+00
-0.2692584412430E+00
-0.2330454571092E+00
-0.2047349880834E+00
-0.1795927878924E+00
-0.1558671356159E+00
-0.1331476981431E+00
-0.1113125698256E+00
-0.9041823298428E-01
-0.7045051649278E-01
-0.5168693680448E-01
-0.3475383679579E-01
-0.2288911421120E-01
-0.1930203846863E-01
-0.7651248732818E+00
-0.4459331765214E+00
-0.4974070283830E+00
-0.4997123066019E+00
-0.4651958644755E+00
-0.3911055232252E+00
-0.3212614338640E+00
-0.2750233961679E+00
-0.2426032228460E+00
-0.2148167825507E+00
-0.1883108759371E+00
-0.1629806787591E+00
-0.1384399653371E+00
-0.1141432586681E+00
-0.9069489338736E-01
-0.6906746849379E-01
-0.4686015270924E-01
-0.2598489881322E-01
-0.1316657256467E-01
-0.1095338560816E-01
 0.9958460544086E+00
 0.9952244764011E+00
 0.9906414862272E+00
 0.9841391650740E+00
 0.9757732645879E+00
 0.9653178275682E+00
 0.9523785369863E+00
 0.9364507758479E+00
 0.9169153073665E+00
 0.8930225287079E+00
 0.8638671140484E+00
 0.8283530641199E+00
 0.7851458900851E+00
 0.7326072892167E+00
 0.6687049647353E+00
 0.5908807875359E+00
 0.4958359211349E+00
 0.3790877367301E+00
 0.2340420096337E+00
 0.4852567620494E-01
 0.9967030791582E+00
 0.1000166696346E+01
 0.1001241875844E+01
 0.1000322281183E+01
 0.9978964177085E+00
 0.9938829313914E+00
 0.9879999932562E+00
 0.9798262374978E+00
 0.9688267436566E+00
 0.9543460580166E+00
 0.9355873781275E+00
 0.9115777371069E+00
 0.8811157068780E+00
 0.8426946673299E+00
 0.7943909062360E+00
 0.7336998989818E+00
 0.6572686132586E+00
 0.5603901917648E+00
 0.4355146525374E+00
 0.2633027863584E+00
 0.9968433067871E+00
 0.1003674558885E+01
 0.1009176599046E+01
 0.1013480021324E+01
 0.1016729817524E+01
 0.1018950190423E+01
 0.1019955814429E+01
 0.1019431317596E+01
 0.1016955419269E+01
 0.1012007583887E+01
 0.1003957875016E+01
 0.9920436100203E+00
 0.9753298016374E+00
 0.9526472316839E+00
 0.9225000703051E+00
 0.8829333183650E+00
 0.8313659436091E+00
 0.7643545461112E+00
 0.6773206347609E+00
 0.5658844604472E+00
 0.9957306957193E+00
 0.1005447247492E+01
 0.1014736650498E+01
 0.1023587702848E+01
 0.1032034634631E+01
 0.1040052550246E+01
 0.1047521514241E+01
 0.1054216738607E+01
 0.1059830028908E+01
 0.1063979428565E+01
 0.1066210387292E+01
 0.1065987167921E+01
 0.1062672996891E+01
 0.1055494547848E+01
 0.1043484299881E+01
 0.1025399544311E+01
 0.9996333036772E+00
 0.9642842745655E+00
 0.9177208387543E+00
 0.8641717489781E+00
 0.9931380639132E+00
 0.1005242366162E+01
 0.1017661219111E+01
 0.1030343222386E+01
 0.1043265195347E+01
 0.1056384784796E+01
 0.1069606458621E+01
 0.1082773174707E+01
 0.1095669839263E+01
 0.1108034118059E+01
 0.1119564918337E+01
 0.1129927611467E+01
 0.1138754447862E+01
 0.1145637533083E+01
 0.1150109525193E+01
 0.1151604366852E+01
 0.1149403546909E+01
 0.1142602421348E+01
 0.1130649348096E+01
 0.1112148100965E+01
 0.9890161206535E+00
 0.1002940867426E+01
 0.1017779872037E+01
 0.1033469990172E+01
 0.1049977365353E+01
 0.1067258967776E+01
 0.1085242888948E+01
 0.1103819269657E+01
 0.1122842358636E+01
 0.1142138985580E+01
 0.1161521269430E+01
 0.1180801401532E+01
 0.1199808220352E+01
 0.1218404870978E+01
 0.1236504544245E+01
 0.1254074683756E+01
 0.1271100114440E+01
 0.1287432903155E+01
 0.1302247375275E+01
 0.1313539954750E+01
 0.9833302092802E+00
 0.9985750736648E+00
 0.1015187369604E+01
 0.1033119366056E+01
 0.1052347299985E+01
 0.1072843911846E+01
 0.1094563069762E+01
 0.1117433339253E+01
 0.1141358602385E+01
 0.1166225274328E+01
 0.1191915071478E+01
 0.1218323353334E+01
 0.1245383745972E+01
 0.1273100550391E+01
 0.1301589821365E+01
 0.1331125771501E+01
 0.1362167639312E+01
 0.1395283038791E+01
 0.1430532209727E+01
 0.1466782864341E+01
 0.9760641204518E+00
 0.9921764016727E+00
 0.1009981080322E+01
 0.1029455209714E+01
 0.1050596925810E+01
 0.1073403385412E+01
 0.1097858251571E+01
 0.1123925459816E+01
 0.1151548418944E+01
 0.1180654285894E+01
 0.1211163566924E+01
 0.1243005728667E+01
 0.1276142481669E+01
 0.1310601611335E+01
 0.1346526040922E+01
 0.1384243920464E+01
 0.1424369377722E+01
 0.1467910563832E+01
 0.1516459626427E+01
 0.1570293280382E+01
 0.9672147131793E+00
 0.9837887598915E+00
 0.1002270661333E+01
 0.1022663295449E+01
 0.1044989746474E+01
 0.1069274871913E+01
 0.1095533866653E+01
 0.1123765653040E+01
 0.1153950028102E+01
 0.1186048327379E+01
 0.1220007830526E+01
 0.1255770652781E+01
 0.1293288579006E+01
 0.1332546620443E+01
 0.1373600354925E+01
 0.1416637976206E+01
 0.1462087031574E+01
 0.1510842445845E+01
 0.1564672951096E+01
 0.1627926300589E+01
 0.9567830649825E+00
 0.9734652709669E+00
 0.9921824645375E+00
 0.1012960585162E+01
 0.1035846338690E+01
 0.1060891199458E+01
 0.1088140775601E+01
 0.1117627932930E+01
 0.1149368334019E+01
 0.1183358000520E+01
 0.1219572877273E+01
 0.1257970660444E+01
 0.1298495525312E+01
 0.1341087013156E+01
 0.1385695842140E+01
 0.1432312159242E+01
 0.1481023269290E+01
 0.1532129741955E+01
 0.1586503298871E+01
 0.1646787078839E+01
 0.9447789380523E+00
 0.9612665096068E+00
 0.9798468955510E+00
 0.1000566366516E+01
 0.1023492892948E+01
 0.1048701150037E+01
 0.1076263730786E+01
 0.1106244562954E+01
 0.1138693726289E+01
 0.1173643178029E+01
 0.1211103168968E+01
 0.1251059227384E+01
 0.1293469614454E+01
 0.1338263170817E+01
 0.1385337391423E+01
 0.1434556977840E+01
 0.1485751131207E+01
 0.1538713125902E+01
 0.1593168430242E+01
 0.1648464527313E+01
 0.9311988585917E+00
 0.9472312403323E+00
 0.9653630399156E+00
 0.9856646723840E+00
 0.1008223287947E+01
 0.1033134151246E+01
 0.1060493820040E+01
 0.1090394520359E+01
 0.1122919015390E+01
 0.1158135629869E+01
 0.1196093138913E+01
 0.1236815229502E+01
 0.1280294118550E+01
 0.1326482572770E+01
 0.1375282933104E+01
 0.1426529953545E+01
 0.1479961308410E+01
 0.1535153981159E+01
 0.1591369607221E+01
 0.1647043291559E+01
 0.9160565473232E+00
 0.9313788654598E+00
 0.9487737821340E+00
 0.9683333570140E+00
 0.9901621321403E+00
 0.1014373565027E+01
 0.1041085604950E+01
 0.1070416274107E+01
 0.1102479161445E+01
 0.1137378572519E+01
 0.1175204077758E+01
 0.1216024159202E+01
 0.1259878534805E+01
 0.1306768447418E+01
 0.1356643512378E+01
 0.1409382594300E+01
 0.1464763207603E+01
 0.1522411067027E+01
 0.1581708071264E+01
 0.1641763704714E+01
 0.8993895171618E+00
 0.9137412388078E+00
 0.9301118899980E+00
 0.9486077329151E+00
 0.9693467082828E+00
 0.9924569593562E+00
 0.1018074282006E+01
 0.1046339048009E+01
 0.1077392694332E+01
 0.1111373626777E+01
 0.1148412318849E+01
 0.1188625370969E+01
 0.1232108272992E+01
 0.1278926518018E+01
 0.1329104506980E+01
 0.1382611142673E+01
 0.1439341203871E+01
 0.1499092681394E+01
 0.1561560547906E+01
 0.1626352743384E+01
 0.8812484323406E+00
 0.8943693590906E+00
 0.9094280579981E+00
 0.9265371378525E+00
 0.9458220631078E+00
 0.9674205044894E+00
 0.9914810010857E+00
 0.1018161162170E+01
 0.1047625388225E+01
 0.1080041974634E+01
 0.1115579401335E+01
 0.1154401620308E+01
 0.1196662223663E+01
 0.1242497514727E+01
 0.1292018663084E+01
 0.1345303417391E+01
 0.1402387783530E+01
 0.1463260921449E+01
 0.1527866008658E+01
 0.1596117386425E+01
 0.8616962189960E+00
 0.8733329150397E+00
 0.8867969061656E+00
 0.9021996128567E+00
 0.9196672137482E+00
 0.9393402736686E+00
 0.9613732820763E+00
 0.9859340111859E+00
 0.1013202578161E+01
 0.1043370040135E+01
 0.1076636313190E+01
 0.1113207208712E+01
 0.1153290473921E+01
 0.1197090956130E+01
 0.1244805450161E+01
 0.1296618284881E+01
 0.1352699427227E+01
 0.1413203434234E+01
 0.1478266815947E+01
 0.1548004647534E+01
 0.8408085834741E+00
 0.8507199416294E+00
 0.8623173966244E+00
 0.8757041850595E+00
 0.8909998787915E+00
 0.9083402082707E+00
 0.9278772769501E+00
 0.9497799560603E+00
 0.9742342903539E+00
 0.1001443734284E+01
 0.1031628988275E+01
 0.1065027165106E+01
 0.1101890022251E+01
 0.1142481149500E+01
 0.1187072405840E+01
 0.1235940715742E+01
 0.1289367042051E+01
 0.1347641623933E+01
 0.1411064171485E+01
 0.1479922860530E+01
 0.8186745667813E+00
 0.8266364430462E+00
 0.8361122130243E+00
 0.8471903236924E+00
 0.8599762221826E+00
 0.8745923438892E+00
 0.8911788319562E+00
 0.9098947875858E+00
 0.9309199128296E+00
 0.9544563772724E+00
 0.9807307138978E+00
 0.1009995440848E+01
 0.1042529963689E+01
 0.1078640183403E+01
 0.1118656321411E+01
 0.1162929012088E+01
 0.1211825329104E+01
 0.1265728771926E+01
 0.1325067508631E+01
 0.1390321661722E+01
 0.7953967959629E+00
 0.8012060665703E+00
 0.8083269366421E+00
 0.8168267609625E+00
 0.8267894487561E+00
 0.8383153679830E+00
 0.8515222773701E+00
 0.8665472147536E+00
 0.8835490922039E+00
 0.9027119661183E+00
 0.9242489021904E+00
 0.9484062402779E+00
 0.9754678040499E+00
 0.1005758168159E+01
 0.1039643471487E+01
 0.1077527946652E+01
 0.1119844929940E+01
 0.1167043447871E+01
 0.1219575807672E+01
 0.1278043200375E+01
 0.7710913936569E+00
 0.7745698857291E+00
 0.7791291411103E+00
 0.7848099553779E+00
 0.7916679379300E+00
 0.7997726014556E+00
 0.8092085793487E+00
 0.8200776995951E+00
 0.8325020485792E+00
 0.8466280985578E+00
 0.8626320476865E+00
 0.8807264730953E+00
 0.9011682057217E+00
 0.9242668220150E+00
 0.9503920880958E+00
 0.9799765342429E+00
 0.1013507449420E+01
 0.1051502542545E+01
 0.1094450861652E+01
 0.1142652944493E+01
 0.7458863208250E+00
 0.7468828563919E+00
 0.7487025057520E+00
 0.7513568164905E+00
 0.7548663894288E+00
 0.7592616775608E+00
 0.7645837491706E+00
 0.7708860491469E+00
 0.7782371667653E+00
 0.7867248935017E+00
 0.7964619480088E+00
 0.8075938887337E+00
 0.8203098359337E+00
 0.8348565615049E+00
 0.8515558301580E+00
 0.8708228483926E+00
 0.8931765423550E+00
 0.9192258047089E+00
 0.9496284384703E+00
 0.9848532398675E+00
 0.7199184217266E+00
 0.7183026190544E+00
 0.7172340827773E+00
 0.7166884566621E+00
 0.7166458972851E+00
 0.7170905555898E+00
 0.7180106471100E+00
 0.7193991015390E+00
 0.7212550932209E+00
 0.7235867374440E+00
 0.7264154611815E+00
 0.7297828703914E+00
 0.7337614398420E+00
 0.7384711118038E+00
 0.7441049205790E+00
 0.7509673127375E+00
 0.7595279448847E+00
 0.7704680564456E+00
 0.7846785462692E+00
 0.8034589784284E+00
 0.6933339474452E+00
 0.6890044427759E+00
 0.6849315928750E+00
 0.6810513882068E+00
 0.6772991264899E+00
 0.6736073456957E+00
 0.6699042532766E+00
 0.6661125546900E+00
 0.6621487234237E+00
 0.6579228931597E+00
 0.6533397213135E+00
 0.6483009310366E+00
 0.6427109214556E+00
 0.6364881595923E+00
 0.6295877423720E+00
 0.6220458918355E+00
 0.6140662827219E+00
 0.6061924288853E+00
 0.5994831551322E+00
 0.5954482413051E+00
 0.6662846602123E+00
 0.6591716914708E+00
 0.6520143762437E+00
 0.6447076937158E+00
 0.6371402984644E+00
 0.6291905799256E+00
 0.6207229855648E+00
 0.6115843963785E+00
 0.6016003543889E+00
 0.5905709525951E+00
 0.5782662492001E+00
 0.5644211961672E+00
 0.5487303948592E+00
 0.5308438440266E+00
 0.5103669014525E+00
 0.4868736876685E+00
 0.4599591209301E+00
 0.4293999149299E+00
 0.3957513378008E+00
 0.3608226592476E+00
 0.6389246960085E+00
 0.6289902035721E+00
 0.6187053588246E+00
 0.6079252162613E+00
 0.5964932330879E+00
 0.5842349280319E+00
 0.5709518213065E+00
 0.5564151811018E+00
 0.5403589814636E+00
 0.5224713775025E+00
 0.5023838305201E+00
 0.4796567060259E+00
 0.4537596461162E+00
 0.4240440876184E+00
 0.3897040598749E+00
 0.3497186586575E+00
 0.3027715860775E+00
 0.2471461064056E+00
 0.1807132518914E+00
 0.1035882186693E+00
 0.6114081191829E+00
 0.5986453441630E+00
 0.5852265497824E+00
 0.5709712243719E+00
 0.5556829770670E+00
 0.5391402242420E+00
 0.5210878949551E+00
 0.5012290233958E+00
 0.4792151144419E+00
 0.4546340633917E+00
 0.4269940923185E+00
 0.3957014666654E+00
 0.3600283536132E+00
 0.3190645171894E+00
 0.2716406128002E+00
 0.2161997709643E+00
 0.1505570530366E+00
 0.7143394089120E-01
-0.2679439284450E-01
-0.1555209129634E+00
 0.5838870401396E+00
 0.5683197001561E+00
 0.5517959684438E+00
 0.5341089706585E+00
 0.5150327184025E+00
 0.4943099011051E+00
 0.4716424235450E+00
 0.4466824914315E+00
 0.4190225430941E+00
 0.3881825322936E+00
 0.3535928635362E+00
 0.3145705712205E+00
 0.2702848961724E+00
 0.2197054357163E+00
 0.1615205434901E+00
 0.9399854692334E-01
 0.1474305913342E-01
-0.7985652140812E-01
-0.1956596574302E+00
-0.3476365809963E+00
 0.5565115600133E+00
 0.5381926764783E+00
 0.5186284299756E+00
 0.4976020053809E+00
 0.4748751828110E+00
 0.4501750875639E+00
 0.4231867346195E+00
 0.3935475114568E+00
 0.3608416423106E+00
 0.3245935551457E+00
 0.2842592801925E+00
 0.2392149686611E+00
 0.1887413686427E+00
 0.1320029417835E+00
 0.6802002313302E-01
-0.4362165814911E-02
-0.8650380463999E-01
-0.1798553498172E+00
-0.2857257123004E+00
-0.3977017196189E+00
 0.5294292190370E+00
 0.5084374346160E+00
 0.4859314007394E+00
 0.4617093727575E+00
 0.4355452445236E+00
 0.4071794404965E+00
 0.3763182191186E+00
 0.3426362545025E+00
 0.3057810857546E+00
 0.2653791020091E+00
 0.2210435971810E+00
 0.1723863638031E+00
 0.1190360068885E+00
 0.6066987283057E-01
-0.2923704947636E-02
-0.7171536866926E-01
-0.1451204060353E+00
-0.2212699578913E+00
-0.2944714432770E+00
-0.3500612927733E+00
 0.5027787865340E+00
 0.4792064146790E+00
 0.4538866365270E+00
 0.4266617746903E+00
 0.3973458459230E+00
 0.3657262394457E+00
 0.3315729026074E+00
 0.2946519662126E+00
 0.2547420560390E+00
 0.2116535479944E+00
 0.1652523704935E+00
 0.1154915301074E+00
 0.6245674281501E-01
 0.6439216190751E-02
-0.5193824340708E-01
-0.1114850969873E+00
-0.1699979401661E+00
-0.2233682475127E+00
-0.2644016996877E+00
-0.2857810596658E+00
 0.4766637587941E+00
 0.4505995187500E+00
 0.4226159043447E+00
 0.3926246135369E+00
 0.3605121845762E+00
 0.3261483912259E+00
 0.2894074980297E+00
 0.2501927721541E+00
 0.2084620420336E+00
 0.1642554612852E+00
 0.1177276345487E+00
 0.6918854328077E-01
 0.1916125295927E-01
-0.3152938583913E-01
-0.8161370047797E-01
-0.1291513365704E+00
-0.1712093521305E+00
-0.2036230210254E+00
-0.2220057835002E+00
-0.2239288673836E+00
 0.4511455968741E+00
 0.4226939514585E+00
 0.3922266945727E+00
 0.3597647542804E+00
 0.3253020818588E+00
 0.2888229651477E+00
 0.2503365218167E+00
 0.2099084189447E+00
 0.1676904633722E+00
 0.1239495276563E+00
 0.7909956715560E-01
 0.3374125264243E-01
-0.1128307014424E-01
-0.5481028966215E-01
-0.9524946167828E-01
-0.1304693280831E+00
-0.1577926536111E+00
-0.1744727172456E+00
-0.1788452720285E+00
-0.1717644692030E+00
 0.4262992357755E+00
 0.3956105249677E+00
 0.3628925185459E+00
 0.3283337163518E+00
 0.2920624899973E+00
 0.2541949695035E+00
 0.2148808428192E+00
 0.1743401211644E+00
 0.1328913774754E+00
 0.9097875777708E-01
 0.4919898861003E-01
 0.8334213699350E-02
-0.3060657713742E-01
-0.6633997967337E-01
-0.9727656386536E-01
-0.1215704483971E+00
-0.1373968498122E+00
-0.1435762802534E+00
-0.1403935603852E+00
-0.1300352449916E+00
 0.4022027994201E+00
 0.3694508174200E+00
 0.3347573214213E+00
 0.2985330498682E+00
 0.2610555520330E+00
 0.2225648343194E+00
 0.1833292755861E+00
 0.1436809169005E+00
 0.1040485023070E+00
 0.6497983801024E-01
 0.2716443912936E-01
-0.8546129838951E-02
-0.4112030780292E-01
-0.6934709600343E-01
-0.9189246012590E-01
-0.1074777289465E+00
-0.1152369280606E+00
-0.1151929449919E+00
-0.1085750808901E+00
-0.9753270318187E-01
 0.3789455926629E+00
 0.3443103386456E+00
 0.3079319982992E+00
 0.2705038270311E+00
 0.2324349807112E+00
 0.1940644578579E+00
 0.1557193937179E+00
 0.1177838435134E+00
 0.8072518329264E-01
 0.4512508943952E-01
 0.1168728185623E-01
-0.1875982792214E-01
-0.4527730830443E-01
-0.6686689514195E-01
-0.8259231607739E-01
-0.9179693080047E-01
-0.9438938648119E-01
-0.9106163558958E-01
-0.8321790329234E-01
-0.7258177981617E-01
 0.3566248873102E+00
 0.3202400394485E+00
 0.2824609010340E+00
 0.2442744716039E+00
 0.2062280049637E+00
 0.1686588846873E+00
 0.1318943224995E+00
 0.9627481390459E-01
 0.6225650861250E-01
 0.3040108353446E-01
 0.1368958558462E-02
-0.2410396090780E-01
-0.4525110734677E-01
-0.6136142715675E-01
-0.7191963583835E-01
-0.7678635151322E-01
-0.7635168346396E-01
-0.7154168002872E-01
-0.6359290735950E-01
-0.5362841876394E-01
 0.3353143637569E+00
 0.2972774723591E+00
 0.2582629526396E+00
 0.2198023843105E+00
 0.1823490711702E+00
 0.1462586494524E+00
 0.1116054386803E+00
 0.7868252197327E-01
 0.4790112162088E-01
 0.1977668742646E-01
-0.5112434674671E-02
-0.2616660588043E-01
-0.4282929021661E-01
-0.5468134031040E-01
-0.6155947925187E-01
-0.6366624605647E-01
-0.6160844871128E-01
-0.5631430679326E-01
-0.4880589869767E-01
-0.3984696508612E-01
 0.3154259712371E+00
 0.2753974013781E+00
 0.2353049319729E+00
 0.1967046686783E+00
 0.1607169524481E+00
 0.1265625811792E+00
 0.9430496634653E-01
 0.6417337823982E-01
 0.3656179453179E-01
 0.1192876724292E-01
-0.9246431019902E-02
-0.2651806099095E-01
-0.3954065636092E-01
-0.4814955216778E-01
-0.5243850382707E-01
-0.5280218923448E-01
-0.4991260530442E-01
-0.4460693047689E-01
-0.3779447564305E-01
-0.3037470222838E-01
 0.2974474263111E+00
 0.2551242326647E+00
 0.2115751400680E+00
 0.1751925718190E+00
 0.1411226139239E+00
 0.1091981749107E+00
 0.7936756085170E-01
 0.5193740803686E-01
 0.2727802827045E-01
 0.5785135842912E-02
-0.1217381870691E-01
-0.2630801023532E-01
-0.3645937654458E-01
-0.4265639001514E-01
-0.4514875213840E-01
-0.4440442404202E-01
-0.4105695558188E-01
-0.3583889400724E-01
-0.2945106179518E-01
-0.2300104018920E-01
 0.2888246165592E+00
 0.2257452601929E+00
 0.1895101117616E+00
 0.1553717433884E+00
 0.1236665855934E+00
 0.9391058534686E-01
 0.6640938401801E-01
 0.4147686069189E-01
 0.1945853042733E-01
 0.6714624556119E-03
-0.1462738528567E-01
-0.2628148438110E-01
-0.3427237931122E-01
-0.3874568410091E-01
-0.4001330491905E-01
-0.3852453820254E-01
-0.3481655776938E-01
-0.2945093792866E-01
-0.2305796275335E-01
-0.1570695190833E-01
</DataArray>
<DataArray type="Float64" Name="S_Oct" NumberOfComponents="1" ComponentName0="S_Oct" format="ascii">
 0.3217937358274E+01
 0.2920343219618E+01
 0.2690873642220E+01
 0.2622082531353E+01
 0.2575990132337E+01
 0.2549603496519E+01
 0.2531688195504E+01
 0.2519008697044E+01
 0.2509332736992E+01
 0.2501554332941E+01
 0.2495039822350E+01
 0.2489473024839E+01
 0.2484730678028E+01
 0.2480824262455E+01
 0.2477865761490E+01
 0.2476051259408E+01
 0.2475656070342E+01
 0.2477040924911E+01
 0.2480667002329E+01
 0.2487131905095E+01
 0.2497232756085E+01
 0.2512113204791E+01
 0.2533617016607E+01
 0.2564406298688E+01
 0.2605074923257E+01
 0.2652883878594E+01
 0.2704750307846E+01
 0.2759158860005E+01
 0.2816495082709E+01
 0.2878596644048E+01
 0.2948045795991E+01
 0.3027453490975E+01
 0.3118668410308E+01
 0.3225390906596E+01
 0.3358476892577E+01
 0.3531777785287E+01
 0.3775065941127E+01
 0.4080094371864E+01
 0.4737360207161E+01
 0.4740942444623E+01
 0.9265779798030E+01
 0.2763442583712E+01
 0.2878177759650E+01
 0.2705630559208E+01
 0.2609304345722E+01
 0.2559159543516E+01
 0.2525797873356E+01
 0.2503616108066E+01
 0.2487594171755E+01
 0.2475472866647E+01
 0.2465855244007E+01
 0.2457965011437E+01
 0.2451368638478E+01
 0.2445859357570E+01
 0.2441383769512E+01
 0.2438002349403E+01
 0.2435868154048E+01
 0.2435218570204E+01
 0.2436377447766E+01
 0.2439768102021E+01
 0.2445940612514E+01
 0.2455623803955E+01
 0.2469814041757E+01
 0.2489709346630E+01
 0.2516243320932E+01
 0.2549374533571E+01
 0.2587911037225E+01
 0.2630277947613E+01
 0.2675474705456E+01
 0.2723477017279E+01
 0.2775097897951E+01
 0.2831566724621E+01
 0.2894202081263E+01
 0.2964665275847E+01
 0.3045859460266E+01
 0.3141771095298E+01
 0.3259116050197E+01
 0.3393967672825E+01
 0.3570267310555E+01
 0.3652561734732E+01
 0.3168835770232E+01
 0.6180739892283E+01
 0.2506152220438E+01
 0.2718000187789E+01
 0.2672938415745E+01
 0.2585365840979E+01
 0.2533196302697E+01
 0.2497805756982E+01
 0.2472827491080E+01
 0.2454537305827E+01
 0.2440522330077E+01
 0.2429398840645E+01
 0.2420315514512E+01
 0.2412779873492E+01
 0.2406529233574E+01
 0.2401462025840E+01
 0.2397595663541E+01
 0.2395043315477E+01
 0.2394002867682E+01
 0.2394755598340E+01
 0.2397673563792E+01
 0.2403235778142E+01
 0.2412053923008E+01
 0.2424847647863E+01
 0.2442186823479E+01
 0.2464198631737E+01
 0.2490640692672E+01
 0.2521007604647E+01
 0.2554568677289E+01
 0.2590657546186E+01
 0.2628956035700E+01
 0.2669504720139E+01
 0.2712522752971E+01
 0.2758381835880E+01
 0.2807840465010E+01
 0.2861507302287E+01
 0.2918971333513E+01
 0.2975806966125E+01
 0.3021302251345E+01
 0.3027649572291E+01
 0.2773713463365E+01
 0.2552574459160E+01
 0.5157483371550E+01
 0.2335307633265E+01
 0.2560466327589E+01
 0.2597815861261E+01
 0.2546266861343E+01
 0.2499067317011E+01
 0.2464773927105E+01
 0.2439063106959E+01
 0.2419536889035E+01
 0.2404276447473E+01
 0.2392022412157E+01
 0.2381967613683E+01
 0.2373611067619E+01
 0.2366667120098E+01
 0.2361003983422E+01
 0.2356606026227E+01
 0.2353550745102E+01
 0.2351996238466E+01
 0.2352176355132E+01
 0.2354401088122E+01
 0.2359059036245E+01
 0.2366605026446E+01
 0.2377453408036E+01
 0.2391723999490E+01
 0.2409159143777E+01
 0.2429455347827E+01
 0.2452418317460E+01
 0.2477738117516E+01
 0.2504922758262E+01
 0.2533426670640E+01
 0.2562718799267E+01
 0.2592267610282E+01
 0.2621609988416E+01
 0.2650260599033E+01
 0.2676701233274E+01
 0.2696445854404E+01
 0.2699341910502E+01
 0.2667161682643E+01
 0.2540647912499E+01
 0.2241714338846E+01
 0.2400943297813E+01
 0.4623895454737E+01
 0.2209458707997E+01
 0.2423288153618E+01
 0.2505687342665E+01
 0.2491657488209E+01
 0.2457169454773E+01
 0.2426717469485E+01
 0.2402111520321E+01
 0.2382434885773E+01
 0.2366582752012E+01
 0.2353604326457E+01
 0.2342822583262E+01
 0.2333784740897E+01
 0.2326213469689E+01
 0.2319965909853E+01
 0.2315004090711E+01
 0.2311375008854E+01
 0.2309197782133E+01
 0.2308655561951E+01
 0.2309988632379E+01
 0.2313481412506E+01
 0.2319416190238E+01
 0.2327938042604E+01
 0.2338871868476E+01
 0.2351775309978E+01
 0.2366324592782E+01
 0.2382448663079E+01
 0.2400013814580E+01
 0.2418585933780E+01
 0.2437436570536E+01
 0.2455619794857E+01
 0.2472038222847E+01
 0.2485478341099E+01
 0.2494308637820E+01
 0.2495249418588E+01
 0.2481299310332E+01
 0.2440064698807E+01
 0.2348896756432E+01
 0.2167656880930E+01
 0.1965312113759E+01
 0.2409398083181E+01
 0.4264039822223E+01
 0.2109709904973E+01
 0.2305717586229E+01
 0.2410289308241E+01
 0.2426509887257E+01
 0.2408012410807E+01
 0.2383980819947E+01
 0.2361974822115E+01
 0.2343161579287E+01
 0.2327355592985E+01
 0.2314060966454E+01
 0.2302808417330E+01
 0.2293241958095E+01
 0.2285122868203E+01
 0.2278315634077E+01
 0.2272770943082E+01
 0.2268511084820E+01
 0.2265618088730E+01
 0.2264223047110E+01
 0.2264492327293E+01
 0.2266600484134E+01
 0.2270664063936E+01
 0.2276614320002E+01
 0.2284090607137E+01
 0.2292562293042E+01
 0.2301691852890E+01
 0.2311432711231E+01
 0.2321692572249E+01
 0.2332024623978E+01
 0.2341554767329E+01
 0.2349044960860E+01
 0.2352978125160E+01
 0.2351541543530E+01
 0.2342234462782E+01
 0.2320684017505E+01
 0.2279087734067E+01
 0.2205261186412E+01
 0.2081936347757E+01
 0.1908749779251E+01
 0.1843649891715E+01
 0.2449386619418E+01
 0.3988181008619E+01
 0.2026304645838E+01
 0.2204006440227E+01
 0.2317663145798E+01
 0.2355741551075E+01
 0.2353033632413E+01
 0.2337034894803E+01
 0.2318834110734E+01
 0.2301739240559E+01
 0.2286567608945E+01
 0.2273347443072E+01
 0.2261879044604E+01
 0.2251942475066E+01
 0.2243364033026E+01
 0.2236032533602E+01
 0.2229897941981E+01
 0.2224963999565E+01
 0.2221278555775E+01
 0.2218921244386E+01
 0.2217984024046E+01
 0.2218534243018E+01
 0.2220542596415E+01
 0.2223780321298E+01
 0.2227773257951E+01
 0.2231949100008E+01
 0.2235953283898E+01
 0.2239713041451E+01
 0.2243108741144E+01
 0.2245647267080E+01
 0.2246346047593E+01
 0.2243775822423E+01
 0.2236138441276E+01
 0.2221223409448E+01
 0.2196038312339E+01
 0.2155911929044E+01
 0.2093644928047E+01
 0.2000065484507E+01
 0.1870319251642E+01
 0.1741023953001E+01
 0.1805235017640E+01
 0.2479328478230E+01
 0.3762844017919E+01
 0.1953747581632E+01
 0.2114588948870E+01
 0.2230049791474E+01
 0.2282867505887E+01
 0.2293984417254E+01
 0.2286543823569E+01
 0.2272975179232E+01
 0.2258274655848E+01
 0.2244243300050E+01
 0.2231454733314E+01
 0.2220013294202E+01
 0.2209864117592E+01
 0.2200919496952E+01
 0.2193107233843E+01
 0.2186386338646E+01
 0.2180748246183E+01
 0.2176210421227E+01
 0.2172803517516E+01
 0.2170548219047E+01
 0.2169413705678E+01
 0.2169249862857E+01
 0.2169713049251E+01
 0.2170261922323E+01
 0.2170305298677E+01
 0.2169467916024E+01
 0.2167628295135E+01
 0.2164610748424E+01
 0.2159868710923E+01
 0.2152350888249E+01
 0.2140526718715E+01
 0.2122456301859E+01
 0.2095758535850E+01
 0.2057364808972E+01
 0.2003033708169E+01
 0.1927351827456E+01
 0.1826391998393E+01
 0.1709511008632E+01
 0.1638827666840E+01
 0.1805962734944E+01
 0.2490396652909E+01
 0.3572077090128E+01
 0.1888732888585E+01
 0.2034633864700E+01
 0.2147952458241E+01
 0.2210088766589E+01
 0.2232465243084E+01
 0.2233282402808E+01
 0.2224760385182E+01
 0.2212936395976E+01
 0.2200452444077E+01
 0.2188405510682E+01
 0.2177213000362E+01
 0.2167001738496E+01
 0.2157784957471E+01
 0.2149541092615E+01
 0.2142246721152E+01
 0.2135887039633E+01
 0.2130453624406E+01
 0.2125932301732E+01
 0.2122278630599E+01
 0.2119376520220E+01
 0.2116980419396E+01
 0.2114667385424E+01
 0.2111858758421E+01
 0.2107956377295E+01
 0.2102563548756E+01
 0.2095504819297E+01
 0.2086543993427E+01
 0.2075091508776E+01
 0.2060070105129E+01
 0.2039932190539E+01
 0.2012733742956E+01
 0.1976153224589E+01
 0.1927433619860E+01
 0.1863358537929E+01
 0.1781176161673E+01
 0.1683190684862E+01
 0.1591150114021E+01
 0.1580629634637E+01
 0.1821197833783E+01
 0.2484148909487E+01
 0.3406750161878E+01
 0.1829164522670E+01
 0.1962002524902E+01
 0.2071130695781E+01
 0.2138662969726E+01
 0.2169749145547E+01
 0.2178023077330E+01
 0.2174596944485E+01
 0.2165935483627E+01
 0.2155300489069E+01
 0.2144249561891E+01
 0.2133500412285E+01
 0.2123365782594E+01
 0.2113968345918E+01
 0.2105345477566E+01
 0.2097498295573E+01
 0.2090411428197E+01
 0.2084055542319E+01
 0.2078377129791E+01
 0.2073274899244E+01
 0.2068562104706E+01
 0.2063921082722E+01
 0.2058876922895E+01
 0.2052833403889E+01
 0.2045192794339E+01
 0.2035539863767E+01
 0.2023650641071E+01
 0.2009238428160E+01
 0.1991692012229E+01
 0.1969952892464E+01
 0.1942535864445E+01
 0.1907622836514E+01
 0.1863162512829E+01
 0.1807030053680E+01
 0.1737463204670E+01
 0.1654830200450E+01
 0.1567480170510E+01
 0.1506195975096E+01
 0.1550254692770E+01
 0.1838425242071E+01
 0.2464521167969E+01
 0.3260950615347E+01
 0.1773654534531E+01
 0.1895099261476E+01
 0.1999065301139E+01
 0.2069235739229E+01
 0.2106767759797E+01
 0.2121458954609E+01
 0.2122901245854E+01
 0.2117508112613E+01
 0.2108918586549E+01
 0.2099058563213E+01
 0.2088915254832E+01
 0.2078980529797E+01
 0.2069488678589E+01
 0.2060540877574E+01
 0.2052168039831E+01
 0.2044359307328E+01
 0.2037069663721E+01
 0.2030212682343E+01
 0.2023639712675E+01
 0.2017108183797E+01
 0.2010248708510E+01
 0.2002555318867E+01
 0.1993427980121E+01
 0.1982275385410E+01
 0.1968669905427E+01
 0.1952351013792E+01
 0.1932999681302E+01
 0.1910010347678E+01
 0.1882388016101E+01
 0.1848782836438E+01
 0.1807618123189E+01
 0.1757287444742E+01
 0.1696532250522E+01
 0.1625288386375E+01
 0.1547085641865E+01
 0.1475380252697E+01
 0.1446432747072E+01
 0.1536323098176E+01
 0.1851960675673E+01
 0.2435283218141E+01
 0.3130551010014E+01
 0.1721249634984E+01
 0.1832731200553E+01
 0.1931169824104E+01
 0.2002077385094E+01
 0.2044162042611E+01
 0.2064168837010E+01
 0.2070069074811E+01
 0.2067899664697E+01
 0.2061454249302E+01
 0.2052920652856E+01
 0.2043511562191E+01
 0.2033882129305E+01
 0.2024374732059E+01
 0.2015155877465E+01
 0.2006289751792E+01
 0.1997774361609E+01
 0.1989554244060E+01
 0.1981516958944E+01
 0.1973476431352E+01
 0.1965148388831E+01
 0.1956129076242E+01
 0.1945897621518E+01
 0.1933860446910E+01
 0.1919438602105E+01
 0.1902200660103E+01
 0.1881865141366E+01
 0.1858102872768E+01
 0.1830343537768E+01
 0.1797698138778E+01
 0.1759016147674E+01
 0.1713057208060E+01
 0.1658789082923E+01
 0.1595960959989E+01
 0.1526271669098E+01
 0.1456132528360E+01
 0.1402838496501E+01
 0.1404999068834E+01
 0.1531224004301E+01
 0.1859692207323E+01
 0.2399417963631E+01
 0.3012533882960E+01
 0.1671274331906E+01
 0.1773999344857E+01
 0.1866881777640E+01
 0.1937238140763E+01
 0.1982347978528E+01
 0.2006611371350E+01
 0.2016456218049E+01
 0.2017351155903E+01
 0.2013062955288E+01
 0.2005935214173E+01
 0.1997354455575E+01
 0.1988116532385E+01
 0.1978663614321E+01
 0.1969226047456E+01
 0.1959903038604E+01
 0.1950704985341E+01
 0.1941571007455E+01
 0.1932369651157E+01
 0.1922887211494E+01
 0.1912810639838E+01
 0.1901716397490E+01
 0.1889081424392E+01
 0.1874326884380E+01
 0.1856892506447E+01
 0.1836353257682E+01
 0.1812423928059E+01
 0.1784788593187E+01
 0.1752941326419E+01
 0.1716137212638E+01
 0.1673477552583E+01
 0.1624128920524E+01
 0.1567714371206E+01
 0.1505044009665E+01
 0.1439496266060E+01
 0.1379889217895E+01
 0.1346046676960E+01
 0.1376448398634E+01
 0.1530087453227E+01
 0.1861254543138E+01
 0.2359120271493E+01
 0.2904623892092E+01
 0.1623236952665E+01
 0.1718218863693E+01
 0.1805697285655E+01
 0.1874645650047E+01
 0.1921576881688E+01
 0.1949134994657E+01
 0.1962368966204E+01
 0.1966089108222E+01
 0.1963900991166E+01
 0.1958208119676E+01
 0.1950517027982E+01
 0.1941737413165E+01
 0.1932399291239E+01
 0.1922792788896E+01
 0.1913052282115E+01
 0.1903203217333E+01
 0.1893183936548E+01
 0.1882850744786E+01
 0.1871971560553E+01
 0.1860216078297E+01
 0.1847153169459E+01
 0.1832267829200E+01
 0.1815003089769E+01
 0.1794824075581E+01
 0.1771323107496E+01
 0.1744228637169E+01
 0.1713260654954E+01
 0.1678004319374E+01
 0.1637890697964E+01
 0.1592312235626E+01
 0.1540887401946E+01
 0.1483929471752E+01
 0.1423287268362E+01
 0.1363831005747E+01
 0.1316227541087E+01
 0.1301636913196E+01
 0.1356609240625E+01
 0.1529928352295E+01
 0.1857065256796E+01
 0.2315956496943E+01
 0.2805064591171E+01
 0.1576771189699E+01
 0.1664861918017E+01
 0.1747179741527E+01
 0.1814164476826E+01
 0.1861984078424E+01
 0.1891994477379E+01
 0.1908062001834E+01
 0.1914319025112E+01
 0.1914119763239E+01
 0.1909847587749E+01
 0.1903077455461E+01
 0.1894804150256E+01
 0.1885631113428E+01
 0.1875902166338E+01
 0.1865785602617E+01
 0.1855323709497E+01
 0.1844458165303E+01
 0.1833039338875E+01
 0.1820825236841E+01
 0.1807478371458E+01
 0.1792570208921E+01
 0.1775602236356E+01
 0.1756045739885E+01
 0.1733398143008E+01
 0.1707280133662E+01
 0.1677450341454E+01
 0.1643685288919E+01
 0.1605684060230E+01
 0.1563078209327E+01
 0.1515576722423E+01
 0.1463270176174E+01
 0.1407156604381E+01
 0.1350043916699E+01
 0.1298045982670E+01
 0.1263115908048E+01
 0.1266745134049E+01
 0.1342374733402E+01
 0.1529003154000E+01
 0.1847838238384E+01
 0.2271035311174E+01
 0.2712473072778E+01
 0.1531598527008E+01
 0.1613516806037E+01
 0.1690957148194E+01
 0.1755631547618E+01
 0.1803625723275E+01
 0.1835368767228E+01
 0.1853740974706E+01
 0.1862222027573E+01
 0.1863861649713E+01
 0.1860960751672E+01
 0.1855116427167E+01
 0.1847379940750E+01
 0.1838412396327E+01
 0.1828603767621E+01
 0.1818153856570E+01
 0.1807122761041E+01
 0.1795458997833E+01
 0.1783012676680E+01
 0.1769539435518E+01
 0.1754703288305E+01
 0.1738086803465E+01
 0.1719215029583E+01
 0.1697593321180E+01
 0.1672758210277E+01
 0.1644369233560E+01
 0.1612230099935E+01
 0.1576191562432E+01
 0.1536084730619E+01
 0.1491758153585E+01
 0.1443249120541E+01
 0.1391118380795E+01
 0.1337010946811E+01
 0.1284575903167E+01
 0.1240898734870E+01
 0.1218698742401E+01
 0.1239002599474E+01
 0.1331484057216E+01
 0.1526356388746E+01
 0.1834347853511E+01
 0.2225150486998E+01
 0.2625741041844E+01
 0.1487503376826E+01
 0.1563858655838E+01
 0.1636715114059E+01
 0.1698876659465E+01
 0.1746505566111E+01
 0.1779377489898E+01
 0.1799567588375E+01
 0.1809953914408E+01
 0.1813257283806E+01
 0.1811650961891E+01
 0.1806714934336E+01
 0.1799530081813E+01
 0.1790799077158E+01
 0.1780949605895E+01
 0.1770209674901E+01
 0.1758657417421E+01
 0.1746251038829E+01
 0.1732845347005E+01
 0.1718200181899E+01
 0.1701988449112E+01
 0.1683810917610E+01
 0.1663222176031E+01
 0.1639766922743E+01
 0.1613027227466E+01
 0.1582710971587E+01
 0.1548679733038E+01
 0.1510872755733E+01
 0.1469266096198E+01
 0.1423933798451E+01
 0.1375240719116E+01
 0.1324197451509E+01
 0.1273034814039E+01
 0.1226104213831E+01
 0.1191192804641E+01
 0.1181332168903E+01
 0.1216491990048E+01
 0.1322325825678E+01
 0.1521513710945E+01
 0.1817316842506E+01
 0.2178893019406E+01
 0.2543965249098E+01
 0.1444316196807E+01
 0.1515628236807E+01
 0.1584188742749E+01
 0.1643733863235E+01
 0.1690593902250E+01
 0.1724095050814E+01
 0.1745665700054E+01
 0.1757645899010E+01
 0.1762424056460E+01
 0.1762015797583E+01
 0.1757952442497E+01
 0.1751320453812E+01
 0.1742848480311E+01
 0.1732993090197E+01
 0.1722006563458E+01
 0.1709984649052E+01
 0.1696897438702E+01
 0.1682608638821E+01
 0.1666887893211E+01
 0.1649423206787E+01
 0.1629839445245E+01
 0.1607725790724E+01
 0.1582670983613E+01
 0.1554308427392E+01
 0.1522402528821E+01
 0.1486883113939E+01
 0.1447788503640E+01
 0.1405247386332E+01
 0.1359560273148E+01
 0.1311408115133E+01
 0.1262216931384E+01
 0.1214727359845E+01
 0.1173847202498E+01
 0.1147813783118E+01
 0.1149592318324E+01
 0.1197688154661E+01
 0.1313776676629E+01
 0.1514281366964E+01
 0.1797355241561E+01
 0.2132739739637E+01
 0.2466390759553E+01
 0.1401901762587E+01
 0.1468616487455E+01
 0.1533154840857E+01
 0.1590047354483E+01
 0.1635840718523E+01
 0.1669562130072E+01
 0.1692127507998E+01
 0.1705406387279E+01
 0.1711465584525E+01
 0.1712145723772E+01
 0.1708905450211E+01
 0.1702816228700E+01
 0.1694618219076E+01
 0.1684788091046E+01
 0.1673598088610E+01
 0.1661160626873E+01
 0.1647459260223E+01
 0.1632370041358E+01
 0.1615677089011E+01
 0.1597088644120E+01
 0.1576258519536E+01
 0.1552814714021E+01
 0.1526394065568E+01
 0.1496686272492E+01
 0.1463518916240E+01
 0.1426897903596E+01
 0.1386967535362E+01
 0.1344011826864E+01
 0.1298552056301E+01
 0.1251565179711E+01
 0.1204848472281E+01
 0.1161568992779E+01
 0.1127047949428E+01
 0.1109748612580E+01
 0.1122267521157E+01
 0.1181396188541E+01
 0.1305070853477E+01
 0.1504639454531E+01
 0.1774888217051E+01
 0.2087136818788E+01
 0.2392362400679E+01
 0.1360150865568E+01
 0.1422653067064E+01
 0.1483425003041E+01
 0.1537674105952E+01
 0.1582184643905E+01
 0.1615794755520E+01
 0.1639019302992E+01
 0.1653323299543E+01
 0.1660471879195E+01
 0.1662123289568E+01
 0.1659646401645E+01
 0.1654080797223E+01
 0.1646165234742E+01
 0.1636388101839E+01
 0.1625037144789E+01
 0.1612240084601E+01
 0.1597994946168E+01
 0.1582192856832E+01
 0.1564636208956E+01
 0.1545057649274E+01
 0.1523143860075E+01
 0.1498565102318E+01
 0.1471009658109E+01
 0.1440227502307E+01
 0.1406114392932E+01
 0.1368757602079E+01
 0.1328410800347E+01
 0.1285511510895E+01
 0.1240790503574E+01
 0.1195494273940E+01
 0.1151741399812E+01
 0.1113040409677E+01
 0.1084992298849E+01
 0.1076093448579E+01
 0.1098340960953E+01
 0.1166695249658E+01
 0.1295693978579E+01
 0.1492691706850E+01
 0.1750165323361E+01
 0.2042330669788E+01
 0.2321327488317E+01
 0.1318974781003E+01
 0.1377602737395E+01
 0.1434848489591E+01
 0.1486497798828E+01
 0.1529576635749E+01
 0.1562813417939E+01
 0.1586412830483E+01
 0.1601496792497E+01
 0.1609553890496E+01
 0.1612060236738E+01
 0.1610283919715E+01
 0.1605219473860E+01
 0.1597593199458E+01
 0.1587897524197E+01
 0.1576431311111E+01
 0.1563335962354E+01
 0.1548624500944E+01
 0.1532205201286E+01
 0.1513901721947E+01
 0.1493474391226E+01
 0.1470645799564E+01
 0.1445131095268E+01
 0.1416672482887E+01
 0.1385082986562E+01
 0.1350329686816E+01
 0.1312583829625E+01
 0.1272208322871E+01
 0.1229788072835E+01
 0.1186247155143E+01
 0.1143070245828E+01
 0.1102644092971E+01
 0.1068735693306E+01
 0.1047104909143E+01
 0.1046120744886E+01
 0.1077018407245E+01
 0.1152912766809E+01
 0.1285357908367E+01
 0.1478564052441E+01
 0.1723806134988E+01
 0.1996930769963E+01
 0.2259549458285E+01
 0.1278300588263E+01
 0.1333349657315E+01
 0.1387290076077E+01
 0.1436402308417E+01
 0.1477948461483E+01
 0.1510604025186E+01
 0.1534336896130E+01
 0.1549981259165E+01
 0.1558776612580E+01
 0.1562022561568E+01
 0.1560880386040E+01
 0.1556289797475E+01
 0.1548955459765E+01
 0.1539366989030E+01
 0.1527830164996E+01
 0.1514498252415E+01
 0.1499399362846E+01
 0.1482460374692E+01
 0.1463528462035E+01
 0.1442394109797E+01
 0.1418818076116E+01
 0.1392562287149E+01
 0.1363424544894E+01
 0.1331282586245E+01
 0.1296176323283E+01
 0.1258361333557E+01
 0.1218306843868E+01
 0.1176735914705E+01
 0.1134746724472E+01
 0.1094028688138E+01
 0.1057184116238E+01
 0.1028161403195E+01
 0.1012773745121E+01
 0.1019134225225E+01
 0.1057610764045E+01
 0.1139535040691E+01
 0.1273883048493E+01
 0.1462486518732E+01
 0.1695876248801E+01
 0.1951996049560E+01
 0.2200222339866E+01
 0.1238065286903E+01
 0.1289791273743E+01
 0.1340624282280E+01
 0.1387269531431E+01
 0.1427214120964E+01
 0.1459121081764E+01
 0.1482780348503E+01
 0.1498787166847E+01
 0.1508159738144E+01
 0.1512030355148E+01
 0.1511451369301E+01
 0.1507300841915E+01
 0.1500254412174E+01
 0.1490792907508E+01
 0.1479225085257E+01
 0.1465714125443E+01
 0.1450302935233E+01
 0.1432937896816E+01
 0.1413491283227E+01
 0.1391785508225E+01
 0.1367621081937E+01
 0.1340807956185E+01
 0.1311200493971E+01
 0.1278741844490E+01
 0.1243544895377E+01
 0.1205948134326E+01
 0.1166522148836E+01
 0.1126116948976E+01
 0.1085984238758E+01
 0.1047984865244E+01
 0.1014887201690E+01
 0.9907521075837E+00
 0.9813567141852E+00
 0.9944584672518E+00
 0.1039499729653E+01
 0.1126132694646E+01
 0.1261148480462E+01
 0.1444562101339E+01
 0.1666622431002E+01
 0.1907381166337E+01
 0.2141431744060E+01
 0.1198216909157E+01
 0.1246845697276E+01
 0.1294751827287E+01
 0.1339006932928E+01
 0.1377308990744E+01
 0.1408336825733E+01
 0.1431749204623E+01
 0.1447944773081E+01
 0.1457747394648E+01
 0.1462133554457E+01
 0.1462047655644E+01
 0.1458301890355E+01
 0.1451537226146E+01
 0.1442220679973E+01
 0.1430660424456E+01
 0.1417027590806E+01
 0.1401379306109E+01
 0.1383681891692E+01
 0.1363833723310E+01
 0.1341690282563E+01
 0.1317092772938E+01
 0.1289899756619E+01
 0.1260022346799E+01
 0.1227468778701E+01
 0.1192423685944E+01
 0.1155305345149E+01
 0.1116778886135E+01
 0.1077808378861E+01
 0.1039777512554E+01
 0.1004685866742E+01
 0.9754217680094E+00
 0.9560974165415E+00
 0.9523791363675E+00
 0.9715951016066E+00
 0.1022242235302E+01
 0.1112429661584E+01
 0.1247118002820E+01
 0.1424974771426E+01
 0.1636268093086E+01
 0.1863082626815E+01
 0.2083882319119E+01
 0.1158711337054E+01
 0.1204443216742E+01
 0.1249587081947E+01
 0.1291532042924E+01
 0.1328171746431E+01
 0.1358220144681E+01
 0.1381241849762E+01
 0.1397475202534E+01
 0.1407575074727E+01
 0.1412374909121E+01
 0.1412714444695E+01
 0.1409337960620E+01
 0.1402847684943E+01
 0.1393692742318E+01
 0.1382177580132E+01
 0.1368479361994E+01
 0.1352668641003E+01
 0.1334731714576E+01
 0.1314593553269E+01
 0.1292143277129E+01
 0.1267263133221E+01
 0.1239860250864E+01
 0.1209901944168E+01
 0.1177460259626E+01
 0.1142789140879E+01
 0.1106382128159E+01
 0.1068990671865E+01
 0.1031678971861E+01
 0.9959410310733E+00
 0.9638839921712E+00
 0.9384741724598E+00
 0.9238219676933E+00
 0.9254220471909E+00
 0.9501225929602E+00
 0.1005485999713E+01
 0.1098229683406E+01
 0.1231802120967E+01
 0.1403894516068E+01
 0.1605011176533E+01
 0.1819127135574E+01
 0.2027589751564E+01
 0.1119510766958E+01
 0.1162524069228E+01
 0.1205055756968E+01
 0.1244771288367E+01
 0.1279744737037E+01
 0.1308738065937E+01
 0.1331250867622E+01
 0.1347392005798E+01
 0.1357670662904E+01
 0.1362790486711E+01
 0.1363491466987E+01
 0.1360449683949E+01
 0.1354225944734E+01
 0.1345248287871E+01
 0.1333814734629E+01
 0.1320106653749E+01
 0.1304207068973E+01
 0.1286121954124E+01
 0.1265802918945E+01
 0.1243172785033E+01
 0.1218154653548E+01
 0.1190703592960E+01
 0.1160841883858E+01
 0.1128703260092E+01
 0.1094607516725E+01
 0.1059117825842E+01
 0.1023062763739E+01
 0.9875922552449E+00
 0.9542894752885E+00
 0.9253401210043E+00
 0.9037510424770E+00
 0.8935854840049E+00
 0.9001184045580E+00
 0.9296871637796E+00
 0.9889533141266E+00
 0.1083398688893E+01
 0.1215238146743E+01
 0.1381478814113E+01
 0.1573008925402E+01
 0.1775480516963E+01
 0.1972473355352E+01
 0.1080582522828E+01
 0.1121036634934E+01
 0.1161093030575E+01
 0.1198658899900E+01
 0.1231974089254E+01
 0.1259856817485E+01
 0.1281764495755E+01
 0.1297702506172E+01
 0.1308055411793E+01
 0.1313410236920E+01
 0.1314413215316E+01
 0.1311673316658E+01
 0.1305708427965E+01
 0.1296923119089E+01
 0.1285606719907E+01
 0.1271943100314E+01
 0.1256026686207E+01
 0.1237882547964E+01
 0.1217488590893E+01
 0.1194800951519E+01
 0.1169782908006E+01
 0.1142436305656E+01
 0.1112836538778E+01
 0.1081176169092E+01
 0.1047836552011E+01
 0.1013444039893E+01
 0.9788945564881E+00
 0.9454093453984E+00
 0.9146406367831E+00
 0.8888262158920E+00
 0.8709805895593E+00
 0.8650818833499E+00
 0.8761488757248E+00
 0.9099939943665E+00
 0.9724276623938E+00
 0.1067849278694E+01
 0.1197479101630E+01
 0.1357868597529E+01
 0.1540371704210E+01
 0.1732097150164E+01
 0.1918434322311E+01
 0.1041898120357E+01
 0.1079935986450E+01
 0.1117642002094E+01
 0.1153135912462E+01
 0.1184809625398E+01
 0.1211542551244E+01
 0.1232767751451E+01
 0.1248408922623E+01
 0.1258744816651E+01
 0.1264258545620E+01
 0.1265509217002E+01
 0.1263040812775E+01
 0.1257327780211E+01
 0.1248749557571E+01
 0.1237584933159E+01
 0.1224018716501E+01
 0.1208155594023E+01
 0.1190038923388E+01
 0.1169672229201E+01
 0.1147044181757E+01
 0.1122157124580E+01
 0.1095058039546E+01
 0.1065873040001E+01
 0.1034850041813E+01
 0.1002427025350E+01
 0.9692865179124E+00
 0.9363817674053E+00
 0.9049913081249E+00
 0.8768176782226E+00
 0.8541270126212E+00
 0.8399130647920E+00
 0.8380377128110E+00
 0.8532373865632E+00
 0.8907991238449E+00
 0.9557422756047E+00
 0.1051528656215E+01
 0.1178586207228E+01
 0.1333184852741E+01
 0.1507178163288E+01
 0.1688936270639E+01
 0.1865371970871E+01
 0.1003432517007E+01
 0.1039182713530E+01
 0.1074652401568E+01
 0.1108149256180E+01
 0.1138204655690E+01
 0.1163761802695E+01
 0.1184243275974E+01
 0.1199509276885E+01
 0.1209749365141E+01
 0.1215354739861E+01
 0.1216804303727E+01
 0.1214579915325E+01
 0.1209112850201E+01
 0.1200756373181E+01
 0.1189777263707E+01
 0.1176359860591E+01
 0.1160617928197E+01
 0.1142612117798E+01
 0.1122370615512E+01
 0.1099913502588E+01
 0.1075280695541E+01
 0.1048562255364E+01
 0.1019932160115E+01
 0.9896897152939E+00
 0.9583241260787E+00
 0.9265667746497E+00
 0.8954182495639E+00
 0.8662010146842E+00
 0.8406507545829E+00
 0.8210409816620E+00
 0.8103205153571E+00
 0.8122100923222E+00
 0.8311466204553E+00
 0.8719020709165E+00
 0.9387704637949E+00
 0.1034409433528E+01
 0.1158623376327E+01
 0.1307530281653E+01
 0.1473487753431E+01
 0.1645964424004E+01
 0.1813189259862E+01
 0.9651635075084E+00
 0.9987419732590E+00
 0.1032079524457E+01
 0.1063650961330E+01
 0.1092115727229E+01
 0.1116481796178E+01
 0.1136172001404E+01
 0.1150998169915E+01
 0.1161075231383E+01
 0.1166713606754E+01
 0.1168318944795E+01
 0.1166314340028E+01
 0.1161088776434E+01
 0.1152968825253E+01
 0.1142208133056E+01
 0.1128989309288E+01
 0.1113433997905E+01
 0.1095619005224E+01
 0.1075595986627E+01
 0.1053415020415E+01
 0.1029151776966E+01
 0.1002936984880E+01
 0.9749892574724E+00
 0.9456549553107E+00
 0.9154688092499E+00
 0.8852036294129E+00
 0.8558976310354E+00
 0.8289047197290E+00
 0.8059782617352E+00
 0.7893808749444E+00
 0.7819961882293E+00
 0.7873845096699E+00
 0.8096737564837E+00
 0.8531393247398E+00
 0.9214177005995E+00
 0.1016482662281E+01
 0.1137654070747E+01
 0.1280992765228E+01
 0.1439348360331E+01
 0.1603154384381E+01
 0.1761795114632E+01
 0.9270712304436E+00
 0.9585827077241E+00
 0.9898833325114E+00
 0.1019597442896E+01
 0.1046502323846E+01
 0.1069670598775E+01
 0.1088533627671E+01
 0.1102867387404E+01
 0.1112724846455E+01
 0.1118345837801E+01
 0.1120069541989E+01
 0.1118263940950E+01
 0.1113277063246E+01
 0.1105408692310E+01
 0.1094898517594E+01
 0.1081926306620E+01
 0.1066620388091E+01
 0.1049072474405E+01
 0.1029356306644E+01
 0.1007550303412E+01
 0.9837637965340E+00
 0.9581654804555E+00
 0.9310150830823E+00
 0.9027014298817E+00
 0.8737989280249E+00
 0.8451144569695E+00
 0.8177145919101E+00
 0.7929732006819E+00
 0.7726475931525E+00
 0.7589737860881E+00
 0.7547535468097E+00
 0.7633724460600E+00
 0.7886464016638E+00
 0.8343785935561E+00
 0.9036151151996E+00
 0.9977526093426E+00
 0.1115739735462E+01
 0.1253648592745E+01
 0.1404800415727E+01
 0.1560483492711E+01
 0.1711105392318E+01
 0.8891377625546E+00
 0.9186770007471E+00
 0.9480277019735E+00
 0.9759488760674E+00
 0.1001326563988E+01
 0.1023297193255E+01
 0.1041306985527E+01
 0.1055106404027E+01
 0.1064697406852E+01
 0.1070258455806E+01
 0.1072068743928E+01
 0.1070444920499E+01
 0.1065695715214E+01
 0.1058094366227E+01
 0.1047866036829E+01
 0.1035186676346E+01
 0.1020190121266E+01
 0.1002981660636E+01
 0.9836555858254E+00
 0.9623168018434E+00
 0.9391059883833E+00
 0.9142268764821E+00
 0.8879765774849E+00
 0.8607816413375E+00
 0.8332502815856E+00
 0.8062162994644E+00
 0.7807659409064E+00
 0.7582826403021E+00
 0.7405156097183E+00
 0.7296609473210E+00
 0.7284251248159E+00
 0.7400090310405E+00
 0.7679188628343E+00
 0.8155138471127E+00
 0.8853142463092E+00
 0.9782329698195E+00
 0.1092939182631E+01
 0.1225565030144E+01
 0.1369879160147E+01
 0.1517932465609E+01
 0.1661043321125E+01
 0.8513467832806E+00
 0.8789995436589E+00
 0.9064797891731E+00
 0.9326686474418E+00
 0.9565529012192E+00
 0.9773314864128E+00
 0.9944703004002E+00
 0.1007702790361E+01
 0.1016989311192E+01
 0.1022455203184E+01
 0.1024325751122E+01
 0.1022870050730E+01
 0.1018359394490E+01
 0.1011040973939E+01
 0.1001125068897E+01
 0.9887829581634E+00
 0.9741528374203E+00
 0.9573521884208E+00
 0.9384942015044E+00
 0.9177082600050E+00
 0.8951639067545E+00
 0.8710968128962E+00
 0.8458376071709E+00
 0.8198457677097E+00
 0.7937575336714E+00
 0.7684268034327E+00
 0.7449514706046E+00
 0.7247152524758E+00
 0.7094488467254E+00
 0.7012973071293E+00
 0.7028612683201E+00
 0.7171507666148E+00
 0.7473687634436E+00
 0.7964610751311E+00
 0.8664828448320E+00
 0.9579441426234E+00
 0.1069308439669E+01
 0.1196802213690E+01
 0.1334615947854E+01
 0.1475484672495E+01
 0.1611539602182E+01
 0.8136832937780E+00
 0.8395271854980E+00
 0.8652094874811E+00
 0.8897228661491E+00
 0.9121478265852E+00
 0.9317442622886E+00
 0.9480013671209E+00
 0.9606425252168E+00
 0.9695945175815E+00
 0.9749368747322E+00
 0.9768465881288E+00
 0.9755488782365E+00
 0.9712795710693E+00
 0.9642604952107E+00
 0.9546868606642E+00
 0.9427245337822E+00
 0.9285149568034E+00
 0.9121863882198E+00
 0.8938691827445E+00
 0.8737150798209E+00
 0.8519198767884E+00
 0.8287479777680E+00
 0.8045595970183E+00
 0.7798423710651E+00
 0.7552549632088E+00
 0.7316649509602E+00
 0.7101745722886E+00
 0.6921596477449E+00
 0.6793234704127E+00
 0.6737509110981E+00
 0.6779287868208E+00
 0.6946733254823E+00
 0.7268939731885E+00
 0.7771546537203E+00
 0.8471015008893E+00
 0.9369112329013E+00
 0.1044900763868E+01
 0.1167414478602E+01
 0.1299039022715E+01
 0.1433125679786E+01
 0.1562532200269E+01
 0.7761333814591E+00
 0.8002385571401E+00
 0.8241889696617E+00
 0.8470799424710E+00
 0.8680795986397E+00
 0.8865071214774E+00
 0.9018776851923E+00
 0.9139102650082E+00
 0.9225048719701E+00
 0.9277016438343E+00
 0.9296343920453E+00
 0.9284879640642E+00
 0.9244647209809E+00
 0.9177619358750E+00
 0.9085596965483E+00
 0.8970178118066E+00
 0.8832798992069E+00
 0.8674835655114E+00
 0.8497745413831E+00
 0.8303247229187E+00
 0.8093534732609E+00
 0.7871506636736E+00
 0.7641021576762E+00
 0.7407190767395E+00
 0.7176771574032E+00
 0.6958517036218E+00
 0.6763427390179E+00
 0.6605110774928E+00
 0.6500251301803E+00
 0.6469022314577E+00
 0.6535096468538E+00
 0.6724695323773E+00
 0.7064099170272E+00
 0.7575443146450E+00
 0.8271609992420E+00
 0.9151626379427E+00
 0.1019766792739E+01
 0.1137451394539E+01
 0.1263174144541E+01
 0.1390843099425E+01
 0.1513966114424E+01
 0.7386840201058E+00
 0.7611137493919E+00
 0.7833922904423E+00
 0.8047102099309E+00
 0.8243179817963E+00
 0.8415923902314E+00
 0.8560765362006E+00
 0.8674895445798E+00
 0.8757103720093E+00
 0.8807453363611E+00
 0.8826896625824E+00
 0.8816910965436E+00
 0.8779205043934E+00
 0.8715514835118E+00
 0.8627490485506E+00
 0.8516663896552E+00
 0.8384482739045E+00
 0.8232402323519E+00
 0.8062015558104E+00
 0.7875220539558E+00
 0.7674419269472E+00
 0.7462732352937E+00
 0.7244236044840E+00
 0.7024231212687E+00
 0.6809595490421E+00
 0.6609104680858E+00
 0.6433678759508E+00
 0.6296714875679E+00
 0.6214486477693E+00
 0.6206433922971E+00
 0.6294996535045E+00
 0.6504474630455E+00
 0.6858471709426E+00
 0.7375925716817E+00
 0.8066601920708E+00
 0.8927289844628E+00
 0.9939546856800E+00
 0.1106958512460E+01
 0.1227045029337E+01
 0.1348626466445E+01
 0.1465792962573E+01
 0.7013228993289E+00
 0.7221340388267E+00
 0.7427950456617E+00
 0.7625855953912E+00
 0.7808340091938E+00
 0.7969730265782E+00
 0.8105750380001E+00
 0.8213629474419E+00
 0.8291994049048E+00
 0.8340616905141E+00
 0.8360105122143E+00
 0.8351595167788E+00
 0.8316499655774E+00
 0.8256326904127E+00
 0.8172577555868E+00
 0.8066712440101E+00
 0.7940180951043E+00
 0.7794503595592E+00
 0.7631390687441E+00
 0.7452896894410E+00
 0.7261605257348E+00
 0.7060825783157E+00
 0.6854814412907E+00
 0.6649018463079E+00
 0.6450388801094E+00
 0.6267674711404E+00
 0.6111665115439E+00
 0.5995494794497E+00
 0.5934976421187E+00
 0.5948773834612E+00
 0.6058071997743E+00
 0.6285287194962E+00
 0.6651493690110E+00
 0.7172725797167E+00
 0.7856043225245E+00
 0.8696423629568E+00
 0.9675102989634E+00
 0.1075977980003E+01
 0.1190673747810E+01
 0.1306467202985E+01
 0.1417970564521E+01
 0.6640382781868E+00
 0.6832816513029E+00
 0.7023740761191E+00
 0.7206793272749E+00
 0.7375997649124E+00
 0.7526225227405E+00
 0.7653501767470E+00
 0.7755122450060E+00
 0.7829589551038E+00
 0.7876425938112E+00
 0.7895929032569E+00
 0.7888921401765E+00
 0.7856537355676E+00
 0.7800066628748E+00
 0.7720862098822E+00
 0.7620309265879E+00
 0.7499849989427E+00
 0.7361056249352E+00
 0.7205737739435E+00
 0.7036083267337E+00
 0.6854829852752E+00
 0.6665445051229E+00
 0.6472327862574E+00
 0.6281031184619E+00
 0.6098535759258E+00
 0.5933520340095E+00
 0.5796599058457E+00
 0.5700601808073E+00
 0.5660840946522E+00
 0.5695172663134E+00
 0.5823520801319E+00
 0.6066468641761E+00
 0.6442713795569E+00
 0.6965663486435E+00
 0.7640036943224E+00
 0.8459357690755E+00
 0.9404773659558E+00
 0.1044549048232E+01
 0.1154081066209E+01
 0.1264358589686E+01
 0.1370462497443E+01
 0.6268188578234E+00
 0.6445395549381E+00
 0.6621072063962E+00
 0.6789656739714E+00
 0.6945881816740E+00
 0.7085148041463E+00
 0.7203788193050E+00
 0.7299185070049E+00
 0.7369747816190E+00
 0.7414782937133E+00
 0.7434308651036E+00
 0.7428857645482E+00
 0.7399302260956E+00
 0.7346722440672E+00
 0.7272325368077E+00
 0.7177417510391E+00
 0.7063424474404E+00
 0.6931956426754E+00
 0.6784904768553E+00
 0.6624570382188E+00
 0.6453817744451E+00
 0.6276241032770E+00
 0.6096347270790E+00
 0.5919756647884E+00
 0.5753440228796E+00
 0.5605967430882E+00
 0.5487740571421E+00
 0.5411250296303E+00
 0.5391278593550E+00
 0.5444853720428E+00
 0.5590643608702E+00
 0.5847459918160E+00
 0.6231777065891E+00
 0.6754632401821E+00
 0.7418725997787E+00
 0.8216426820389E+00
 0.9128976586250E+00
 0.1012708475186E+01
 0.1117286707856E+01
 0.1222295693095E+01
 0.1323237596093E+01
 0.5896536704437E+00
 0.6058912798130E+00
 0.6219730174700E+00
 0.6374197154435E+00
 0.6517728633584E+00
 0.6646241409634E+00
 0.6756377271718E+00
 0.6845622073353E+00
 0.6912315904895E+00
 0.6955576076225E+00
 0.6975167173635E+00
 0.6971352908510E+00
 0.6944758416834E+00
 0.6896262186764E+00
 0.6826927980439E+00
 0.6737980027814E+00
 0.6630819532538E+00
 0.6507082098758E+00
 0.6368723671734E+00
 0.6218135707109E+00
 0.6058284377964E+00
 0.5892860712406E+00
 0.5726446525895E+00
 0.5564693737857E+00
 0.5414528026815E+00
 0.5284375731061E+00
 0.5184396653034E+00
 0.5126715308310E+00
 0.5125561741828E+00
 0.5197125431692E+00
 0.5358833483264E+00
 0.5627794657847E+00
 0.6018411234940E+00
 0.6539587343556E+00
 0.7192284877372E+00
 0.7967967844314E+00
 0.8848111766524E+00
 0.9804909010807E+00
 0.1080309606257E+01
 0.1180275317230E+01
 0.1276269505749E+01
 0.5525319810039E+00
 0.5673207571348E+00
 0.5819506436873E+00
 0.5960171384851E+00
 0.6091279242298E+00
 0.6209250657233E+00
 0.6311035660307E+00
 0.6394233182175E+00
 0.6457131924967E+00
 0.6498681186932E+00
 0.6518412814714E+00
 0.6516339355711E+00
 0.6492851858789E+00
 0.6448635128578E+00
 0.6384611896410E+00
 0.6301921417547E+00
 0.6201932939385E+00
 0.6086295378181E+00
 0.5957012701965E+00
 0.5816546164481E+00
 0.5667938811811E+00
 0.5514950078251E+00
 0.5362205281386E+00
 0.5215355308457E+00
 0.5081248543655E+00
 0.4968139365851E+00
 0.4885920281791E+00
 0.4846329631385E+00
 0.4863031512380E+00
 0.4951373928896E+00
 0.5127566239296E+00
 0.5407087780615E+00
 0.5802414832722E+00
 0.6320533948383E+00
 0.6960912963219E+00
 0.7714317611862E+00
 0.8562563218196E+00
 0.9479291572571E+00
 0.1043168092354E+01
 0.1138295906072E+01
 0.1229536207769E+01
 0.5154431993710E+00
 0.5288121753848E+00
 0.5420195925567E+00
 0.5547340569836E+00
 0.5666278506134E+00
 0.5773923074252E+00
 0.5867529250220E+00
 0.5944814089001E+00
 0.6004026630058E+00
 0.6043963739977E+00
 0.6063940966246E+00
 0.6063734500349E+00
 0.6043512767155E+00
 0.6003774048022E+00
 0.5945302508924E+00
 0.5869150149223E+00
 0.5776647336436E+00
 0.5669444871718E+00
 0.5549578974028E+00
 0.5419560774063E+00
 0.5282486436304E+00
 0.5142156798424E+00
 0.5003211406910E+00
 0.4871270156544E+00
 0.4753075930246E+00
 0.4656686898120E+00
 0.4591709017755E+00
 0.4569480662095E+00
 0.4603092729292E+00
 0.4707056045618E+00
 0.4896391609326E+00
 0.5185025370803E+00
 0.5583646963911E+00
 0.6097520138362E+00
 0.6724829324680E+00
 0.7455811761871E+00
 0.8272700785781E+00
 0.9150545425416E+00
 0.1005880049058E+01
 0.1096357431077E+01
 0.1183019561858E+01
 0.4783768008380E+00
 0.4903498504775E+00
 0.5021595849833E+00
 0.5135468571744E+00
 0.5242473886056E+00
 0.5340007493903E+00
 0.5425623556968E+00
 0.5497157600222E+00
 0.5552825147428E+00
 0.5591280945910E+00
 0.5611636479607E+00
 0.5613443530309E+00
 0.5596657766121E+00
 0.5561597504311E+00
 0.5508910882686E+00
 0.5439560828490E+00
 0.5354832569174E+00
 0.5256368123155E+00
 0.5146221020712E+00
 0.5026933294448E+00
 0.4901631626936E+00
 0.4774132758516E+00
 0.4649063222036E+00
 0.4531984707271E+00
 0.4429509950267E+00
 0.4349481054565E+00
 0.4301203343159E+00
 0.4295607172149E+00
 0.4345209012854E+00
 0.4463692747933E+00
 0.4664925205268E+00
 0.4961355727200E+00
 0.5362018553413E+00
 0.5870629083616E+00
 0.6484268722460E+00
 0.7192784131339E+00
 0.7978882025601E+00
 0.8818970752505E+00
 0.9684630373927E+00
 0.1054461264567E+01
 0.1136704866478E+01
 0.4413222530847E+00
 0.4519181074772E+00
 0.4623504147706E+00
 0.4724320698622E+00
 0.4819614640008E+00
 0.4907254210536E+00
 0.4985084435625E+00
 0.5051055075204E+00
 0.5103348967921E+00
 0.5140484091331E+00
 0.5161376166028E+00
 0.5165361844423E+00
 0.5152192428993E+00
 0.5122012294012E+00
 0.5075336190922E+00
 0.5013036649658E+00
 0.4936348194867E+00
 0.4846894201030E+00
 0.4746731458366E+00
 0.4638414927129E+00
 0.4525080400719E+00
 0.4410536530119E+00
 0.4299371581660E+00
 0.4197064475353E+00
 0.4110076555022E+00
 0.4046018168146E+00
 0.4013884782189E+00
 0.4024195996765E+00
 0.4088898012422E+00
 0.4220862977806E+00
 0.4432841199536E+00
 0.4735881437103E+00
 0.5137484827286E+00
 0.5639973393741E+00
 0.6239478559311E+00
 0.6925566649776E+00
 0.7681454128746E+00
 0.8484857210438E+00
 0.9309343904054E+00
 0.1012610030195E+01
 0.1090580425063E+01
 0.4042689479967E+00
 0.4135011729410E+00
 0.4225718297598E+00
 0.4313662775753E+00
 0.4397451489391E+00
 0.4475415439987E+00
 0.4545679363694E+00
 0.4606298417340E+00
 0.4655418449881E+00
 0.4691421345222E+00
 0.4713031728550E+00
 0.4719377991388E+00
 0.4710014166641E+00
 0.4684916281877E+00
 0.4644468514161E+00
 0.4589452202011E+00
 0.4521046332889E+00
 0.4440846611675E+00
 0.4350899950937E+00
 0.4253757278354E+00
 0.4152543272172E+00
 0.4051035961812E+00
 0.3953761991122E+00
 0.3866095459293E+00
 0.3794328312044E+00
 0.3745827441159E+00
 0.3729273881058E+00
 0.3754778707346E+00
 0.3833726821091E+00
 0.3978197923037E+00
 0.4199865695294E+00
 0.4508452378917E+00
 0.4910038863064E+00
 0.5405690333766E+00
 0.5990716604854E+00
 0.6654489642757E+00
 0.7380755914146E+00
 0.8148486049635E+00
 0.8933112805689E+00
 0.9708074315842E+00
 0.1044637115524E+01
 0.3672061372394E+00
 0.3750830801469E+00
 0.3828034444009E+00
 0.3903260773601E+00
 0.3975737077534E+00
 0.4044246747103E+00
 0.4107179782031E+00
 0.4162683136810E+00
 0.4208856356671E+00
 0.4243941537728E+00
 0.4266473604482E+00
 0.4275377469117E+00
 0.4270015942622E+00
 0.4250202039999E+00
 0.4216192440872E+00
 0.4168677078688E+00
 0.4108775320201E+00
 0.4038047015714E+00
 0.3958516964195E+00
 0.3872716077978E+00
 0.3783738804861E+00
 0.3695311370450E+00
 0.3611877193822E+00
 0.3538685861152E+00
 0.3481845021407E+00
 0.3448470306588E+00
 0.3446928282009E+00
 0.3486928473938E+00
 0.3579307759142E+00
 0.3735375878976E+00
 0.3965770914249E+00
 0.4278959727834E+00
 0.4679706229937E+00
 0.5167938065035E+00
 0.5738249539358E+00
 0.6379882697526E+00
 0.7077120174048E+00
 0.7810132445768E+00
 0.8556107983944E+00
 0.9290580939091E+00
 0.9988679994419E+00
 0.3301228703615E+00
 0.3366475894937E+00
 0.3430246978716E+00
 0.3492881305360E+00
 0.3554227711563E+00
 0.3613510069555E+00
 0.3669365194640E+00
 0.3720013191498E+00
 0.3763493090751E+00
 0.3797899504277E+00
 0.3821576234206E+00
 0.3833247829737E+00
 0.3832091203101E+00
 0.3817761642466E+00
 0.3790391791892E+00
 0.3750580598296E+00
 0.3699384480127E+00
 0.3638320058852E+00
 0.3569378621879E+00
 0.3495055958305E+00
 0.3418398134683E+00
 0.3343059556659E+00
 0.3273380374579E+00
 0.3214468170745E+00
 0.3172234445219E+00
 0.3153539712468E+00
 0.3166440647599E+00
 0.3220256843962E+00
 0.3325294248379E+00
 0.3492117420514E+00
 0.3730369896350E+00
 0.4047330608770E+00
 0.4446540300882E+00
 0.4926892446598E+00
 0.5482351844432E+00
 0.6102075652610E+00
 0.6770875982330E+00
 0.7470067654020E+00
 0.8178499930007E+00
 0.8873673507198E+00
 0.9532678920806E+00
 0.2930079354810E+00
 0.2981781393175E+00
 0.3032149036634E+00
 0.3082293868761E+00
 0.3132687684550E+00
 0.3182979968450E+00
 0.3232030853785E+00
 0.3278109494420E+00
 0.3319175477600E+00
 0.3353164761925E+00
 0.3378226423564E+00
 0.3392886669087E+00
 0.3396141535877E+00
 0.3387494092938E+00
 0.3366956935316E+00
 0.3335039116369E+00
 0.3292731505639E+00
 0.3241500845676E+00
 0.3183294210208E+00
 0.3120557831450E+00
 0.3056271953130E+00
 0.2994000026538E+00
 0.2937960194071E+00
 0.2893102614420E+00
 0.2865133918355E+00
 0.2860659892704E+00
 0.2887436860262E+00
 0.2954410800714E+00
 0.3071377131934E+00
 0.3248181240446E+00
 0.3493512049207E+00
 0.3813523693562E+00
 0.4210618492016E+00
 0.4682744640148E+00
 0.5223305325026E+00
 0.5821400104206E+00
 0.6462351527009E+00
 0.7128561716788E+00
 0.7800459531723E+00
 0.8457410502952E+00
 0.9078329633106E+00
 0.2558498043998E+00
 0.2596578577499E+00
 0.2633534857620E+00
 0.2671276662833E+00
 0.2710898894571E+00
 0.2752456498363E+00
 0.2795002781263E+00
 0.2836825893512E+00
 0.2875782746673E+00
 0.2909636898651E+00
 0.2936337891369E+00
 0.2954215333830E+00
 0.2962089689545E+00
 0.2959317877496E+00
 0.2945797104775E+00
 0.2921948308374E+00
 0.2888694839494E+00
 0.2847447449528E+00
 0.2800098716912E+00
 0.2749031194197E+00
 0.2697142138343E+00
 0.2647885356157E+00
 0.2605339224456E+00
 0.2574283086160E+00
 0.2560213488696E+00
 0.2569486877144E+00
 0.2609574501264E+00
 0.2689070016616E+00
 0.2817281368953E+00
 0.3003360618846E+00
 0.3255079512662E+00
 0.3577525667235E+00
 0.3972039295541E+00
 0.4435699336068E+00
 0.4961399058456E+00
 0.5538191249326E+00
 0.6151877382319E+00
 0.6785886762529E+00
 0.7422159309813E+00
 0.8041853568729E+00
 0.8625603421528E+00
 0.2186365876701E+00
 0.2210697138929E+00
 0.2234206397502E+00
 0.2259630558548E+00
 0.2288682552746E+00
 0.2321793161766E+00
 0.2358169444549E+00
 0.2396082020890E+00
 0.2433258648247E+00
 0.2467275895121E+00
 0.2495879457043E+00
 0.2517205121685E+00
 0.2529904193156E+00
 0.2533194505070E+00
 0.2526863348659E+00
 0.2511245931391E+00
 0.2487196511795E+00
 0.2456063894498E+00
 0.2419675774469E+00
 0.2380336548396E+00
 0.2340842852186E+00
 0.2304519906903E+00
 0.2275289141631E+00
 0.2257747897383E+00
 0.2257181896664E+00
 0.2279710212704E+00
 0.2332541573751E+00
 0.2423944095138E+00
 0.2562762933401E+00
 0.2757480427084E+00
 0.3014984258490E+00
 0.3339348433783E+00
 0.3730919897886E+00
 0.4185973316566E+00
 0.4696929424295E+00
 0.5252789691258E+00
 0.5839789920427E+00
 0.6442320785721E+00
 0.7043775004577E+00
 0.7627065067006E+00
 0.8174476486915E+00
 0.1813560203763E+00
 0.1823970363970E+00
 0.1833991009399E+00
 0.1847214342337E+00
 0.1865952491347E+00
 0.1890964266603E+00
 0.1921556778041E+00
 0.1955939778671E+00
 0.1991684993354E+00
 0.2026170463927E+00
 0.2056937663263E+00
 0.2081934757702E+00
 0.2099652777569E+00
 0.2109179104579E+00
 0.2110197445396E+00
 0.2102959974347E+00
 0.2088250114129E+00
 0.2067348113678E+00
 0.2042005228353E+00
 0.2014431585234E+00
 0.1987303719149E+00
 0.1963797905703E+00
 0.1947661539171E+00
 0.1943301726849E+00
 0.1955799354072E+00
 0.1991057947867E+00
 0.2056056413594E+00
 0.2158770390244E+00
 0.2307606579138E+00
 0.2510395476293E+00
 0.2773166782374E+00
 0.3099027869055E+00
 0.3487395114006E+00
 0.3933795036589E+00
 0.4430200875609E+00
 0.4965543879439E+00
 0.5526435700794E+00
 0.6098153200739E+00
 0.6665489215378E+00
 0.7213106587128E+00
 0.7724925770401E+00
 0.1439955432827E+00
 0.1436251124323E+00
 0.1432792169265E+00
 0.1434044353050E+00
 0.1442864890357E+00
 0.1460252600408E+00
 0.1485534764479E+00
 0.1516810760613E+00
 0.1551477596778E+00
 0.1586716755293E+00
 0.1619877493785E+00
 0.1648735277272E+00
 0.1671634797370E+00
 0.1687543929745E+00
 0.1696049639547E+00
 0.1697323078200E+00
 0.1692073458258E+00
 0.1681503306174E+00
 0.1667272354949E+00
 0.1651475986690E+00
 0.1636646555094E+00
 0.1625787523535E+00
 0.1622454862474E+00
 0.1630862492016E+00
 0.1655904514728E+00
 0.1703307512427E+00
 0.1779868801167E+00
 0.1893311641390E+00
 0.2051623880955E+00
 0.2261989912870E+00
 0.2529596161774E+00
 0.2856623769697E+00
 0.3241617088266E+00
 0.3679404481225E+00
 0.4161526516141E+00
 0.4676811987021E+00
 0.5212175460498E+00
 0.5753691106943E+00
 0.6287496531632E+00
 0.6800037177921E+00
 0.7276923048486E+00
 0.1065427393908E+00
 0.1047467577288E+00
 0.1030764944814E+00
 0.1020642946652E+00
 0.1020345565895E+00
 0.1030909112396E+00
 0.1051535729101E+00
 0.1080164534321E+00
 0.1114040201251E+00
 0.1150199784566E+00
 0.1185851829100E+00
 0.1218637771613E+00
 0.1246780769060E+00
 0.1269142796649E+00
 0.1285219014708E+00
 0.1295097123551E+00
 0.1299402551424E+00
 0.1299243042249E+00
 0.1296162076802E+00
 0.1292108840619E+00
 0.1289436658249E+00
 0.1290944864684E+00
 0.1299980970959E+00
 0.1320575273496E+00
 0.1357478811149E+00
 0.1416312170863E+00
 0.1503764970524E+00
 0.1627354182018E+00
 0.1794652671837E+00
 0.2012179357586E+00
 0.2284273286464E+00
 0.2612222593077E+00
 0.2993757082545E+00
 0.3423054434360E+00
 0.3891229534429E+00
 0.4386964107823E+00
 0.4897388374338E+00
 0.5409267572554E+00
 0.5910013064682E+00
 0.6387914071189E+00
 0.6830428417936E+00
 0.6898753558200E-01
 0.6578851366230E-01
 0.6291783365596E-01
 0.6098180658048E-01
 0.6028378420856E-01
 0.6085905401067E-01
 0.6257311270861E-01
 0.6520428351626E-01
 0.6848827312643E-01
 0.7214469591287E-01
 0.7590247909459E-01
 0.7952445714901E-01
 0.8282556320288E-01
 0.8568198427855E-01
 0.8803250424472E-01
 0.8987483825257E-01
 0.9125955995341E-01
 0.9228345458873E-01
 0.9308376720479E-01
 0.9383458415757E-01
 0.9474717001095E-01
 0.9607643915220E-01
 0.9813535761967E-01
 0.1013133251754E+00
 0.1060819972042E+00
 0.1130069766755E+00
 0.1227581750313E+00
 0.1360706522493E+00
 0.1536558543524E+00
 0.1760917639463E+00
 0.2037239173764E+00
 0.2365944347915E+00
 0.2744010091252E+00
 0.3165013432793E+00
 0.3619645535768E+00
 0.4096384470030E+00
 0.4582475378151E+00
 0.5065250796635E+00
 0.5533292049644E+00
 0.5976797972893E+00
 0.6385381825323E+00
 0.3134121765734E-01
 0.2706717846442E-01
 0.2401025079564E-01
 0.2282909311571E-01
 0.2320516475610E-01
 0.2440901956810E-01
 0.2600419198482E-01
 0.2794336376964E-01
 0.3032662835430E-01
 0.3318551207437E-01
 0.3641641532861E-01
 0.3982770940802E-01
 0.4321491377327E-01
 0.4641263563815E-01
 0.4931630041075E-01
 0.5188436070445E-01
 0.5413153209622E-01
 0.5611945187592E-01
 0.5794864077460E-01
 0.5975441208281E-01
 0.6170964173972E-01
 0.6403719384380E-01
 0.6703287189111E-01
 0.7109138651620E-01
 0.7671146480611E-01
 0.8449329699226E-01
 0.9512478322638E-01
 0.1093198147719E+00
 0.1277240506821E+00
 0.1508212758539E+00
 0.1788592662909E+00
 0.2117956487193E+00
 0.2492603823977E+00
 0.2905571015196E+00
 0.3347125969328E+00
 0.3805473724144E+00
 0.4267859973466E+00
 0.4722051053288E+00
 0.5157647376175E+00
 0.5566768557521E+00
 0.5941690024697E+00
 0.6996068637434E-02
 0.1514429921583E-01
 0.2313456435047E-01
 0.2980151926154E-01
 0.3445475269465E-01
 0.3686464135919E-01
 0.3718800789093E-01
 0.3584251946888E-01
 0.3338030344168E-01
 0.3039134252427E-01
 0.2743976090694E-01
 0.2501359952043E-01
 0.2346105183927E-01
 0.2291734133113E-01
 0.2328712679346E-01
 0.2433039133984E-01
 0.2578934757432E-01
 0.2746846714698E-01
 0.2925661138126E-01
 0.3112557714284E-01
 0.3313353235886E-01
 0.3544544564879E-01
 0.3836843245562E-01
 0.4238064584589E-01
 0.4810680396503E-01
 0.5624596030877E-01
 0.6749317689570E-01
 0.8246802081752E-01
 0.1016649307763E+00
 0.1254166228142E+00
 0.1538529283578E+00
 0.1868502562261E+00
 0.2239816888865E+00
 0.2645048335111E+00
 0.3074044785235E+00
 0.3514654111668E+00
 0.3953987824353E+00
 0.4380120720312E+00
 0.4783487759437E+00
 0.5157967004405E+00
 0.5499208088922E+00
 0.4464584107462E-01
 0.5358632331230E-01
 0.6248279042007E-01
 0.6998035033071E-01
 0.7520861613505E-01
 0.7784726301059E-01
 0.7802609647719E-01
 0.7615800051914E-01
 0.7277830451839E-01
 0.6842719880547E-01
 0.6358106862231E-01
 0.5862237928486E-01
 0.5383360736423E-01
 0.4940297152053E-01
 0.4543391711416E-01
 0.4195436036067E-01
 0.3892502411979E-01
 0.3624871596387E-01
 0.3378361314942E-01
 0.3136561724026E-01
 0.2884890261302E-01
 0.2618797619197E-01
 0.2361986004025E-01
 0.2203309184417E-01
 0.2326096846840E-01
 0.2911554512791E-01
 0.3998082630615E-01
 0.5550303751336E-01
 0.7548457127943E-01
 0.9990747911526E-01
 0.1287427728231E+00
 0.1617959445372E+00
 0.1986012348122E+00
 0.2383816581903E+00
 0.2800807946822E+00
 0.3224377618443E+00
 0.3641327666059E+00
 0.4039932772509E+00
 0.4411348716405E+00
 0.4750697981580E+00
 0.5057711506733E+00
 0.8279558507486E-01
 0.9339598969702E-01
 0.1037615240106E+00
 0.1124334311573E+00
 0.1184753024503E+00
 0.1215636612051E+00
 0.1218728209494E+00
 0.1198774556912E+00
 0.1161680883895E+00
 0.1113224017952E+00
 0.1058353257381E+00
 0.1000925630855E+00
 0.9436949966996E-01
 0.8884165024519E-01
 0.8359816899307E-01
 0.7865417693204E-01
 0.7396041795824E-01
 0.6941052013008E-01
 0.6484647429501E-01
 0.6006390035537E-01
 0.5481825971092E-01
 0.4883349264136E-01
 0.4181790071275E-01
 0.3350983606521E-01
 0.2386198608204E-01
 0.1413425178227E-01
 0.1382330941293E-01
 0.2841941171491E-01
 0.4922515150505E-01
 0.7437470422314E-01
 0.1036066649528E+00
 0.1366961739768E+00
 0.1731704462647E+00
 0.2122332070723E+00
 0.2527871603647E+00
 0.2935135687152E+00
 0.3330392437352E+00
 0.3701929665639E+00
 0.4041863574886E+00
 0.4345686696579E+00
 0.4616829609353E+00
 0.1211659832776E+00
 0.1336382323937E+00
 0.1456761447382E+00
 0.1556592760298E+00
 0.1625807767956E+00
 0.1661368737692E+00
 0.1665753962765E+00
 0.1644569005862E+00
 0.1604434401931E+00
 0.1551605470617E+00
 0.1491292103599E+00
 0.1427456614189E+00
 0.1362866904501E+00
 0.1299250229252E+00
 0.1237461492072E+00
 0.1177627504024E+00
 0.1119256228979E+00
 0.1061316278143E+00
 0.1002292259928E+00
 0.9402307524403E-01
 0.8727835861157E-01
 0.7972469944873E-01
 0.7105945378446E-01
 0.6095423205258E-01
 0.4907906769257E-01
 0.3510634406422E-01
 0.1869720683133E-01
 0.1694169200549E-02
 0.2316257041160E-01
 0.4908095291048E-01
 0.7862580474780E-01
 0.1116696079404E+00
 0.1477697970969E+00
 0.1861201834175E+00
 0.2255779092429E+00
 0.2647468712016E+00
 0.3021769364769E+00
 0.3366558465664E+00
 0.3675374557492E+00
 0.3944716262222E+00
 0.4176135505248E+00
 0.1597684657458E+00
 0.1742716352082E+00
 0.1881144652479E+00
 0.1994773711289E+00
 0.2072813406793E+00
 0.2112640996952E+00
 0.2117739756531E+00
 0.2094779850251E+00
 0.2051209383779E+00
 0.1993802416812E+00
 0.1928031517751E+00
 0.1857954371586E+00
 0.1786345191808E+00
 0.1714902720463E+00
 0.1644451297498E+00
 0.1575103368168E+00
 0.1506378631404E+00
 0.1437289664028E+00
 0.1366401606211E+00
 0.1291883025294E+00
 0.1211555788966E+00
 0.1122941788704E+00
 0.1023303245605E+00
 0.9097160743324E-01
 0.7793381353897E-01
 0.6294796877663E-01
 0.4575445826988E-01
 0.2625123361569E-01
 0.8049616217505E-02
 0.2537404305992E-01
 0.5431875289429E-01
 0.8696954653261E-01
 0.1225399010047E+00
 0.1601320254855E+00
 0.1985212044415E+00
 0.2362034113101E+00
 0.2716025625213E+00
 0.3034629070806E+00
 0.3311262821006E+00
 0.3550106420558E+00
 0.3737986980297E+00
 0.1986284425007E+00
 0.2153274323163E+00
 0.2310975339319E+00
 0.2438869299521E+00
 0.2525488135706E+00
 0.2568905818069E+00
 0.2573919693340E+00
 0.2548475476272E+00
 0.2500942903129E+00
 0.2438628089172E+00
 0.2367241872455E+00
 0.2290904263339E+00
 0.2212367887587E+00
 0.2133284104231E+00
 0.2054435928068E+00
 0.1975916091615E+00
 0.1897253060804E+00
 0.1817500050278E+00
 0.1735297066424E+00
 0.1648925889683E+00
 0.1556367464332E+00
 0.1455359178378E+00
 0.1343447174273E+00
 0.1218071568076E+00
 0.1076853902464E+00
 0.9176642218970E-01
 0.7385000907934E-01
 0.5383051565392E-01
 0.3224416661107E-01
 0.1636988542613E-01
 0.3271056501918E-01
 0.6318345356452E-01
 0.9769690640637E-01
 0.1343480549325E+00
 0.1716406314223E+00
 0.2078820024224E+00
 0.2413165175767E+00
 0.2705392881987E+00
 0.2950632435067E+00
 0.3151683187178E+00
 0.3331747490896E+00
 0.2377762298326E+00
 0.2568524251867E+00
 0.2746730622702E+00
 0.2889201798014E+00
 0.2983908871252E+00
 0.3029998104982E+00
 0.3033947435765E+00
 0.3005199083308E+00
 0.2953119960438E+00
 0.2885535758796E+00
 0.2808349509270E+00
 0.2725695568682E+00
 0.2640267470908E+00
 0.2553643986548E+00
 0.2466551577432E+00
 0.2379054694527E+00
 0.2290685454907E+00
 0.2200533177381E+00
 0.2107306263976E+00
 0.2009389275070E+00
 0.1904906679711E+00
 0.1791790698053E+00
 0.1667846059297E+00
 0.1530844712020E+00
 0.1378819460808E+00
 0.1210093296986E+00
 0.1023029136989E+00
 0.8164033851048E-01
 0.5915890649718E-01
 0.3636600749689E-01
 0.2415605458015E-01
 0.4240734559203E-01
 0.7389572477968E-01
 0.1090478214371E+00
 0.1450871520050E+00
 0.1798937225892E+00
 0.2114057788840E+00
 0.2380150762563E+00
 0.2591655600317E+00
 0.2758590184782E+00
 0.2900418195518E+00
 0.2772464408511E+00
 0.2989014702432E+00
 0.3188980633855E+00
 0.3346154400510E+00
 0.3448162990314E+00
 0.3495724758529E+00
 0.3497432320943E+00
 0.3464450158208E+00
 0.3407190891301E+00
 0.3333956637718E+00
 0.3250774455494E+00
 0.3161732540715E+00
 0.3069421836832E+00
 0.2975320851233E+00
 0.2880083444709E+00
 0.2783737173600E+00
 0.2685813157870E+00
 0.2585433245688E+00
 0.2481369160077E+00
 0.2372099405813E+00
 0.2255877924178E+00
 0.2130812629861E+00
 0.1994944445377E+00
 0.1846353278229E+00
 0.1683455969952E+00
 0.1504991877797E+00
 0.1309650577553E+00
 0.1096175203996E+00
 0.8644955548614E-01
 0.6197505092911E-01
 0.3911648809954E-01
 0.3202375144201E-01
 0.5298415134304E-01
 0.8489277973332E-01
 0.1191979777775E+00
 0.1524730689871E+00
 0.1820921522524E+00
 0.2060598255599E+00
 0.2237400502405E+00
 0.2364923830654E+00
 0.2464481431484E+00
 0.3170810488025E+00
 0.3415468413360E+00
 0.3638518612766E+00
 0.3810332311542E+00
 0.3918550328000E+00
 0.3966120603318E+00
 0.3964256406297E+00
 0.3926061780213E+00
 0.3863003125385E+00
 0.3783778392557E+00
 0.3694447315308E+00
 0.3598980476142E+00
 0.3499818953592E+00
 0.3398312846240E+00
 0.3295028102096E+00
 0.3189947836323E+00
 0.3082598704158E+00
 0.2972132853344E+00
 0.2857381796276E+00
 0.2736910734075E+00
 0.2609090393472E+00
 0.2472186471132E+00
 0.2324455909525E+00
 0.2164268689588E+00
 0.1990413170857E+00
 0.1802038855993E+00
 0.1598172958102E+00
 0.1377638619110E+00
 0.1139715976300E+00
 0.8861728888040E-01
 0.6277869190133E-01
 0.4129473189672E-01
 0.4015641092420E-01
 0.6333700074087E-01
 0.9449969553102E-01
 0.1258811691013E+00
 0.1535531206760E+00
 0.1748419339545E+00
 0.1888351952442E+00
 0.1971069334317E+00
 0.2027112354206E+00
 0.3573302542178E+00
 0.3848753722375E+00
 0.4096275919499E+00
 0.4282405815665E+00
 0.4395362536606E+00
 0.4441181630656E+00
 0.4434272830560E+00
 0.4389866685984E+00
 0.4320433178272E+00
 0.4234940810688E+00
 0.4139367208815E+00
 0.4037485216489E+00
 0.3931537427216E+00
 0.3822718786741E+00
 0.3711494029241E+00
 0.3597796148478E+00
 0.3481145501418E+00
 0.3360723865787E+00
 0.3235420602034E+00
 0.3103881798893E+00
 0.2964583101287E+00
 0.2815929981771E+00
 0.2656374903905E+00
 0.2484561513449E+00
 0.2299643224106E+00
 0.2101185734283E+00
 0.1888579061095E+00
 0.1660812668905E+00
 0.1416875923599E+00
 0.1157001791345E+00
 0.8857641916997E-01
 0.6219073304907E-01
 0.4363140461456E-01
 0.4819300545957E-01
 0.7219207030326E-01
 0.1006075546972E+00
 0.1260794050557E+00
 0.1445917766141E+00
 0.1546007891667E+00
 0.1578820467661E+00
 0.1588019395274E+00
 0.3980550141857E+00
 0.4289920476181E+00
 0.4563334313292E+00
 0.4763083972309E+00
 0.4878833575153E+00
 0.4920815097616E+00
 0.4907266168062E+00
 0.4855666630532E+00
 0.4779359778750E+00
 0.4687408423724E+00
 0.4585571511258E+00
 0.4477338786183E+00
 0.4364707233824E+00
 0.4248693177250E+00
 0.4129649953331E+00
 0.4007457214503E+00
 0.3881629101364E+00
 0.3751378042536E+00
 0.3615650999042E+00
 0.3473170666082E+00
 0.3322506408767E+00
 0.3162184535253E+00
 0.2990830247001E+00
 0.2807342626069E+00
 0.2611234679330E+00
 0.2402498795431E+00
 0.2180916946811E+00
 0.1945714189257E+00
 0.1695792534566E+00
 0.1430593564976E+00
 0.1151923593096E+00
 0.8683330421326E-01
 0.6089017915227E-01
 0.4645669466875E-01
 0.5522217299909E-01
 0.7770745259068E-01
 0.1001943868113E+00
 0.1156851254061E+00
 0.1213456951317E+00
 0.1189951127072E+00
 0.1146467842742E+00
 0.4393307147072E+00
 0.4740251170461E+00
 0.5040944514780E+00
 0.5253083083165E+00
 0.5369085560671E+00
 0.5404793849807E+00
 0.5382925163424E+00
 0.5323218152910E+00
 0.5239654638322E+00
 0.5141161273405E+00
 0.5033124537753E+00
 0.4918665375193E+00
 0.4799492850802E+00
 0.4676426384026E+00
 0.4549701846754E+00
 0.4419145239839E+00
 0.4284266634204E+00
 0.4144311869556E+00
 0.3998287088215E+00
 0.3844989148085E+00
 0.3683070889668E+00
 0.3511159288142E+00
 0.3328025804985E+00
 0.3132802331994E+00
 0.2925353514104E+00
 0.2706109052694E+00
 0.2475271970693E+00
 0.2232361628750E+00
 0.1976329801259E+00
 0.1706211883628E+00
 0.1422372122470E+00
 0.1128917491854E+00
 0.8395890204578E-01
 0.5949174862664E-01
 0.4944632635884E-01
 0.5966099393682E-01
 0.7698242409863E-01
 0.8882844734620E-01
 0.8965232232647E-01
 0.8079082856379E-01
 0.7020394279619E-01
 0.4812525232769E+00
 0.5201332000924E+00
 0.5530545805529E+00
 0.5753078451503E+00
 0.5866060284938E+00
 0.5892709198967E+00
 0.5860823374098E+00
 0.5792229037971E+00
 0.5701183423742E+00
 0.5596194968580E+00
 0.5482115130938E+00
 0.5361616394402E+00
 0.5236086076249E+00
 0.5106135487980E+00
 0.4971881948767E+00
 0.4833100706754E+00
 0.4689301981169E+00
 0.4539769450952E+00
 0.4383571946345E+00
 0.4219580354411E+00
 0.4046522417264E+00
 0.3863104665388E+00
 0.3668213706465E+00
 0.3461184953113E+00
 0.3242221211867E+00
 0.3012196922145E+00
 0.2771762413408E+00
 0.2520782303099E+00
 0.2258363757112E+00
 0.1983381022785E+00
 0.1695410991109E+00
 0.1396270974921E+00
 0.1093087991494E+00
 0.8054937783312E-01
 0.5837068579176E-01
 0.5152690846612E-01
 0.5892167825306E-01
 0.6555656039878E-01
 0.6090285828456E-01
 0.4455306612452E-01
 0.2605529974778E-01
 0.5239433383871E+00
 0.5675151220656E+00
 0.6033779791140E+00
 0.6263625554274E+00
 0.6369428709536E+00
 0.6383921718853E+00
 0.6340408481474E+00
 0.6262364438023E+00
 0.6163814154106E+00
 0.6052526316644E+00
 0.5932658904976E+00
 0.5806369905786E+00
 0.5674703333654E+00
 0.5538059996927E+00
 0.5396443224421E+00
 0.5249583744159E+00
 0.5096998055249E+00
 0.4938013532072E+00
 0.4771767098930E+00
 0.4597206403289E+00
 0.4413128353180E+00
 0.4218297966479E+00
 0.4011680847147E+00
 0.3792777851203E+00
 0.3562107837744E+00
 0.3320990798102E+00
 0.3070544703000E+00
 0.2811022682791E+00
 0.2541776165350E+00
 0.2261704137751E+00
 0.1970002546144E+00
 0.1667222611179E+00
 0.1357094034618E+00
 0.1050095532084E+00
 0.7717208526471E-01
 0.5753358261650E-01
 0.5091101914997E-01
 0.4950040210173E-01
 0.3950485587479E-01
 0.2150560443754E-01
 0.2388613017940E-01
 0.5675658886728E+00
 0.6164235615560E+00
 0.6552485417247E+00
 0.6785030662866E+00
 0.6878471944813E+00
 0.6877513912571E+00
 0.6821004418782E+00
 0.6733263523808E+00
 0.6627431874790E+00
 0.6510202711436E+00
 0.6384903105818E+00
 0.6253132238221E+00
 0.6115585104515E+00
 0.5972459837739E+00
 0.5823656391394E+00
 0.5668870462780E+00
 0.5507632538263E+00
 0.5339320517599E+00
 0.5163146465259E+00
 0.4978140893116E+00
 0.4783168597569E+00
 0.4577033969615E+00
 0.4358740819974E+00
 0.4127906609030E+00
 0.3885331984185E+00
 0.3632772540895E+00
 0.3371824182025E+00
 0.3103162041746E+00
 0.2826459778257E+00
 0.2540802095627E+00
 0.2245315103638E+00
 0.1939908300860E+00
 0.1626387768653E+00
 0.1310414343841E+00
 0.1006008501902E+00
 0.7439405215829E-01
 0.5675623332364E-01
 0.4668390918328E-01
 0.3681308437230E-01
 0.4291928880435E-01
 0.6985355188884E-01
 0.6123416809137E+00
 0.6671840057370E+00
 0.7088649251842E+00
 0.7317140992275E+00
 0.7391930397748E+00
 0.7372255047403E+00
 0.7301833184209E+00
 0.7204567994001E+00
 0.7091958860620E+00
 0.6969314216842E+00
 0.6839033017662E+00
 0.6702140729275E+00
 0.6558996416634E+00
 0.6409614499114E+00
 0.6253808284708E+00
 0.6091250888887E+00
 0.5921495549658E+00
 0.5743977797257E+00
 0.5557992901339E+00
 0.5362663964510E+00
 0.5156928858385E+00
 0.4939617328812E+00
 0.4709727650988E+00
 0.4466932698696E+00
 0.4212264321639E+00
 0.3947887507641E+00
 0.3675870516399E+00
 0.3397330235975E+00
 0.3112331100133E+00
 0.2820294959389E+00
 0.2520556865898E+00
 0.2212869033391E+00
 0.1898002210806E+00
 0.1578723305090E+00
 0.1262519517755E+00
 0.9681535206082E-01
 0.7304626992936E-01
 0.5763179583296E-01
 0.5285129625175E-01
 0.7696050952286E-01
 0.1184385941315E+00
 0.6585816569889E+00
 0.7202209013728E+00
 0.7644258122877E+00
 0.7859010271073E+00
 0.7907826847896E+00
 0.7866597779852E+00
 0.7782064580142E+00
 0.7675962645780E+00
 0.7557379144985E+00
 0.7430007294943E+00
 0.7295278986464E+00
 0.7153666764186E+00
 0.7005227612434E+00
 0.6849822549540E+00
 0.6687200747633E+00
 0.6517027623720E+00
 0.6338888309707E+00
 0.6152282409167E+00
 0.5956596369434E+00
 0.5751058890644E+00
 0.5534694723569E+00
 0.5306354780435E+00
 0.5064988920044E+00
 0.4810251245998E+00
 0.4543332916447E+00
 0.4266758146013E+00
 0.3983037670012E+00
 0.3693730222999E+00
 0.3399349562392E+00
 0.3099803737486E+00
 0.2794910156229E+00
 0.2484710440556E+00
 0.2169647033832E+00
 0.1850770339063E+00
 0.1531173651279E+00
 0.1221194495765E+00
 0.9479823585053E-01
 0.7588448269101E-01
 0.7431111249684E-01
 0.1111894867779E+00
 0.1692676547979E+00
 0.7067376856738E+00
 0.7760928517306E+00
 0.8220946198828E+00
 0.8408379667725E+00
 0.8423292308418E+00
 0.8358739056339E+00
 0.8260900536176E+00
 0.8147225910531E+00
 0.8023765854009E+00
 0.7892499218094E+00
 0.7753923335741E+00
 0.7608018602283E+00
 0.7454594994849E+00
 0.7293401171609E+00
 0.7124149696458E+00
 0.6946514857279E+00
 0.6760122404186E+00
 0.6564540681345E+00
 0.6359253513090E+00
 0.6143610076735E+00
 0.5916746137630E+00
 0.5677546028655E+00
 0.5424876462604E+00
 0.5158287093480E+00
 0.4879029296419E+00
 0.4589901171888E+00
 0.4293789190415E+00
 0.3992666271917E+00
 0.3687543173659E+00
 0.3378965186702E+00
 0.3067510636935E+00
 0.2753957997004E+00
 0.2439098797381E+00
 0.2123270898290E+00
 0.1806644552154E+00
 0.1492520644298E+00
 0.1197606348691E+00
 0.9741819958931E-01
 0.9582017709220E-01
 0.1435202002901E+00
 0.2229473289268E+00
 0.7574928869002E+00
 0.8355367417408E+00
 0.8819214974997E+00
 0.8960908443285E+00
 0.8934475107548E+00
 0.8846789604973E+00
 0.8737692039972E+00
 0.8618285312200E+00
 0.8491309711718E+00
 0.8357091939543E+00
 0.8215306384793E+00
 0.8065543506410E+00
 0.7907440980800E+00
 0.7740685402852E+00
 0.7564984064894E+00
 0.7380037430833E+00
 0.7185519320649E+00
 0.6981068554793E+00
 0.6766268579322E+00
 0.6540602764284E+00
 0.6303352435093E+00
 0.6053472425774E+00
 0.5789732578781E+00
 0.5511486964948E+00
 0.5219914247626E+00
 0.4917948791316E+00
 0.4608729985344E+00
 0.4294578865494E+00
 0.3977040800113E+00
 0.3657456809436E+00
 0.3337452929539E+00
 0.3018998920418E+00
 0.2703932500988E+00
 0.2392905167454E+00
 0.2084678015804E+00
 0.1777201306453E+00
 0.1473972524288E+00
 0.1214746102963E+00
 0.1162785054809E+00
 0.1724902958102E+00
 0.2803955741703E+00
 0.8119284508636E+00
 0.8995116067475E+00
 0.9436768940536E+00
 0.9509140434578E+00
 0.9436716048239E+00
 0.9329089075992E+00
 0.9212067874588E+00
 0.9089272698962E+00
 0.8960347065231E+00
 0.8824183658745E+00
 0.8679830801044E+00
 0.8526628648994E+00
 0.8364133364681E+00
 0.8192026752143E+00
 0.8010044307457E+00
 0.7817929615352E+00
 0.7615409881151E+00
 0.7402192187678E+00
 0.7177955561189E+00
 0.6942325043268E+00
 0.6694768770608E+00
 0.6434382832336E+00
 0.6159868936739E+00
 0.5870304472010E+00
 0.5566622023663E+00
 0.5251674934892E+00
 0.4928646343554E+00
 0.4600087406174E+00
 0.4268111002907E+00
 0.3935030236631E+00
 0.3603815159934E+00
 0.3278075653211E+00
 0.2961403581775E+00
 0.2655870131886E+00
 0.2360515711193E+00
 0.2070761759007E+00
 0.1777778993709E+00
 0.1490772838108E+00
 0.1365656420101E+00
 0.1965300947256E+00
 0.3428833203092E+00
 0.8718518130534E+00
 0.9691983127971E+00
 0.1006502994177E+01
 0.1004146001176E+01
 0.9925333065517E+00
 0.9804627246852E+00
 0.9684036019830E+00
 0.9560581708112E+00
 0.9431383491557E+00
 0.9294276516853E+00
 0.9147963900444E+00
 0.8991700438789E+00
 0.8825063595418E+00
 0.8647791137413E+00
 0.8459680439530E+00
 0.8260533579318E+00
 0.8050133509249E+00
 0.7828248660397E+00
 0.7594641529654E+00
 0.7349073368753E+00
 0.7091236357949E+00
 0.6820477215761E+00
 0.6535534543632E+00
 0.6235173134684E+00
 0.5919861595897E+00
 0.5592028852842E+00
 0.5254557277987E+00
 0.4910042544077E+00
 0.4561207349064E+00
 0.4211551503135E+00
 0.3865698181659E+00
 0.3529319310688E+00
 0.3208423945836E+00
 0.2907669147731E+00
 0.2628236437790E+00
 0.2366450178674E+00
 0.2108341243388E+00
 0.1823099723682E+00
 0.1598380227456E+00
 0.2143654691170E+00
 0.4122305883419E+00
 0.9404966755761E+00
 0.1045777844155E+01
 0.1068202520827E+01
 0.1054227185780E+01
 0.1039741806019E+01
 0.1027330682415E+01
 0.1015406145695E+01
 0.1003293161400E+01
 0.9905103052046E+00
 0.9767981439712E+00
 0.9620236634367E+00
 0.9461222038396E+00
 0.9290643830722E+00
 0.9108355974032E+00
 0.8914249460293E+00
 0.8708197364003E+00
 0.8490037118924E+00
 0.8259586378098E+00
 0.8016670413201E+00
 0.7761162355172E+00
 0.7492990739762E+00
 0.7211890547671E+00
 0.6916867016522E+00
 0.6606458620112E+00
 0.6280412885112E+00
 0.5940180211686E+00
 0.5587781428782E+00
 0.5225590109296E+00
 0.4857019822291E+00
 0.4487044812038E+00
 0.4122277124236E+00
 0.3770812215216E+00
 0.3441631216906E+00
 0.3143023073334E+00
 0.2880528787053E+00
 0.2654306342738E+00
 0.2456414511024E+00
 0.2233848088957E+00
 0.1926898648245E+00
 0.2270084207475E+00
 0.4914059711055E+00
 0.1024189748086E+01
 0.1129252332876E+01
 0.1123925361676E+01
 0.1099762634648E+01
 0.1085399881296E+01
 0.1073561685482E+01
 0.1062330892540E+01
 0.1050736594312E+01
 0.1038237524852E+01
 0.1024601691464E+01
 0.1009723894283E+01
 0.9935689164200E+00
 0.9761302741417E+00
 0.9574106547677E+00
 0.9374112281201E+00
 0.9161272481774E+00
 0.8935473677798E+00
 0.8696565217297E+00
 0.8444406182661E+00
 0.8178938176593E+00
 0.7900285357375E+00
 0.7608685875573E+00
 0.7303818465608E+00
 0.6984373803321E+00
 0.6649116376560E+00
 0.6297584191907E+00
 0.5930025839315E+00
 0.5548248982126E+00
 0.5156532911431E+00
 0.4761734813179E+00
 0.4372858929865E+00
 0.4000682704008E+00
 0.3657512625770E+00
 0.3356031924454E+00
 0.3108282557829E+00
 0.2922266274409E+00
 0.2799739829974E+00
 0.2722127346633E+00
 0.2461373552470E+00
 0.2438062875209E+00
 0.5868826954575E+00
 0.1137004430662E+01
 0.1212815618941E+01
 0.1164986489550E+01
 0.1141538626289E+01
 0.1129657915742E+01
 0.1119335666210E+01
 0.1109370657852E+01
 0.1098520778750E+01
 0.1086426784455E+01
 0.1072919344268E+01
 0.1057961387170E+01
 0.1041562279015E+01
 0.1023748004504E+01
 0.1004543122937E+01
 0.9839629832301E+00
 0.9620110773861E+00
 0.9386799855072E+00
 0.9139555967248E+00
 0.8878234444792E+00
 0.8602789342315E+00
 0.8313437382711E+00
 0.8010882106823E+00
 0.7696041057881E+00
 0.7368820347935E+00
 0.7026858219067E+00
 0.6666081741344E+00
 0.6283503442712E+00
 0.5880004523690E+00
 0.5461089424813E+00
 0.5036086950669E+00
 0.4616917827211E+00
 0.4217259202409E+00
 0.3852542257452E+00
 0.3540546815086E+00
 0.3300666690396E+00
 0.3155186277219E+00
 0.3113787612748E+00
 0.3218899479441E+00
 0.3321414603223E+00
 0.2958352587810E+00
 0.7199977860231E+00
 0.1317299893024E+01
 0.1252072554685E+01
 0.1191385270758E+01
 0.1181657686954E+01
 0.1172456326048E+01
 0.1165153633572E+01
 0.1156724551731E+01
 0.1146823796370E+01
 0.1135196944899E+01
 0.1121841266857E+01
 0.1106804187892E+01
 0.1090156104983E+01
 0.1071961912317E+01
 0.1052271572616E+01
 0.1031115806416E+01
 0.1008506087408E+01
 0.9844372155670E+00
 0.9588938889903E+00
 0.9318563198585E+00
 0.9033148564443E+00
 0.8732877063688E+00
 0.8418599170094E+00
 0.8092709766702E+00
 0.7759062122893E+00
 0.7414585397732E+00
 0.7048054513653E+00
 0.6651088483723E+00
 0.6223419021443E+00
 0.5772457832380E+00
 0.5310847838484E+00
 0.4854100214819E+00
 0.4419166046965E+00
 0.4023719526849E+00
 0.3689749402482E+00
 0.3447773438312E+00
 0.3329736135619E+00
 0.3383776278381E+00
 0.3615874909628E+00
 0.4362333502017E+00
 0.4498147566600E+00
 0.1003561793706E+01
 0.2553579110084E+00
 0.3716591270564E+00
 0.4828175225815E+00
 0.5845320524232E+00
 0.6753250121906E+00
 0.7550895657868E+00
 0.8241140847132E+00
 0.8830531967044E+00
 0.9329653572010E+00
 0.9750553906167E+00
 0.1010470587844E+01
 0.1040254783097E+01
 0.1065358525803E+01
 0.1086625942787E+01
 0.1104770690471E+01
 0.1120364552443E+01
 0.1133758067826E+01
 0.1145109661905E+01
 0.1154621787152E+01
 0.1162364873893E+01
 0.2436246029408E+00
 0.3565135607372E+00
 0.4647858279569E+00
 0.5646360697427E+00
 0.6545367215656E+00
 0.7341992539009E+00
 0.8037999470850E+00
 0.8638629443381E+00
 0.9152741392428E+00
 0.9590802649327E+00
 0.9963159580095E+00
 0.1027949206411E+01
 0.1054879023426E+01
 0.1077919945035E+01
 0.1097778097312E+01
 0.1115019546051E+01
 0.1129996783735E+01
 0.1142925931280E+01
 0.1153940259581E+01
 0.1162842704429E+01
 0.2327029992419E+00
 0.3424810262455E+00
 0.4480830203351E+00
 0.5460501205831E+00
 0.6348985265499E+00
 0.7142223286047E+00
 0.7840978329490E+00
 0.8449496262802E+00
 0.8975267436595E+00
 0.9427406829087E+00
 0.9815215207835E+00
 0.1014763363199E+01
 0.1043312756954E+01
 0.1067949721539E+01
 0.1089357880733E+01
 0.1108086294744E+01
 0.1124500876866E+01
 0.1138823659921E+01
 0.1151158992654E+01
 0.1161436397602E+01
 0.2224845112923E+00
 0.3294429031460E+00
 0.4325149900402E+00
 0.5285901002469E+00
 0.6162480292388E+00
 0.6950192862015E+00
 0.7649062484585E+00
 0.8262515155654E+00
 0.8796930520182E+00
 0.9260277395291E+00
 0.9660913547243E+00
 0.1000706914700E+01
 0.1030667453525E+01
 0.1056713200092E+01
 0.1079498357419E+01
 0.1099553798683E+01
 0.1117247176950E+01
 0.1132810433842E+01
 0.1146388677930E+01
 0.1158063060075E+01
 0.2129008607848E+00
 0.3172629298404E+00
 0.4179235655825E+00
 0.5120914470195E+00
 0.5984391001669E+00
 0.6764689380782E+00
 0.7461330012265E+00
 0.8077079406776E+00
 0.8617399700916E+00
 0.9089286496686E+00
 0.9500254620976E+00
 0.9857859857692E+00
 0.1016949409410E+01
 0.1044213463981E+01
 0.1068200430194E+01
 0.1089421133952E+01
 0.1108244288523E+01
 0.1124924465859E+01
 0.1139660932562E+01
 0.1152663441418E+01
 0.2038923704093E+00
 0.3058285419593E+00
 0.4041670142048E+00
 0.4964109824454E+00
 0.5813418943808E+00
 0.6584629400370E+00
 0.7276945459268E+00
 0.7892614505261E+00
 0.8436339746784E+00
 0.8914286235726E+00
 0.9333217327099E+00
 0.9700055851845E+00
 0.1002166510358E+01
 0.1030459213998E+01
 0.1055473476381E+01
 0.1077701185034E+01
 0.1097514514595E+01
 0.1115194031853E+01
 0.1130989763363E+01
 0.1145202120844E+01
 0.1954075831447E+00
 0.2950420183799E+00
 0.3911227561018E+00
 0.4814226253082E+00
 0.5648416247418E+00
 0.6409044263504E+00
 0.7095152759409E+00
 0.7708588974965E+00
 0.8253429156697E+00
 0.8735127550107E+00
 0.9159778079260E+00
 0.9533715441352E+00
 0.9863295351448E+00
 0.1015464421297E+01
 0.1041334603164E+01
 0.1064415198894E+01
 0.1085082934473E+01
 0.1103642837218E+01
 0.1120385261110E+01
 0.1135665108949E+01
 0.1874017020386E+00
 0.2848191145323E+00
 0.3786844308642E+00
 0.4670161559215E+00
 0.5488368144166E+00
 0.6237071374963E+00
 0.6915272715700E+00
 0.7524520010344E+00
 0.8068372503420E+00
 0.8551674921402E+00
 0.8979925550408E+00
 0.9358917395534E+00
 0.9694527202907E+00
 0.9992480707390E+00
 0.1025806759218E+01
 0.1049589059891E+01
 0.1070976018238E+01
 0.1090293057845E+01
 0.1107859123005E+01
 0.1124054106548E+01
 0.1798356711478E+00
 0.2750871193653E+00
 0.3667599993313E+00
 0.4530953997932E+00
 0.5332381464113E+00
 0.6067946264514E+00
 0.6736700905325E+00
 0.7339977061330E+00
 0.7880908681001E+00
 0.8363816992815E+00
 0.8793671021975E+00
 0.9175768526314E+00
 0.9515540268463E+00
 0.9818336650640E+00
 0.1008917422522E+01
 0.1033252086137E+01
 0.1055221854616E+01
 0.1075167788086E+01
 0.1093426940878E+01
 0.1110383196919E+01
 0.1726753776917E+00
 0.2657833999144E+00
 0.3552700124980E+00
 0.4395767879533E+00
 0.5179674425316E+00
 0.5900996980791E+00
 0.6558906156610E+00
 0.7154584686988E+00
 0.7690817210506E+00
 0.8171474594456E+00
 0.8601056049317E+00
 0.8984409089604E+00
 0.9326552936667E+00
 0.9632489398405E+00
 0.9906981403568E+00
 0.1015436958848E+01
 0.1037851101117E+01
 0.1058292815948E+01
 0.1077109556830E+01
 0.1094676688115E+01
 0.1658909206206E+00
 0.2568540902101E+00
 0.3441461019227E+00
 0.4263880295794E+00
 0.5029567231429E+00
 0.5735638399339E+00
 0.6381428378257E+00
 0.6968023701981E+00
 0.7497922041549E+00
 0.7974605855084E+00
 0.8402157336340E+00
 0.8785016077963E+00
 0.9127823385224E+00
 0.9435258053553E+00
 0.9711845644276E+00
 0.9961802173431E+00
 0.1018898139897E+01
 0.1039698084883E+01
 0.1058933346121E+01
 0.1076966775240E+01
 0.1594559826738E+00
 0.2482529744200E+00
 0.3333296894071E+00
 0.4134669734423E+00
 0.4881473808788E+00
 0.5571367159232E+00
 0.6203876392206E+00
 0.6780031672214E+00
 0.7302094098790E+00
 0.7773209789219E+00
 0.8197090247216E+00
 0.8577805846045E+00
 0.8919651223132E+00
 0.9227005101512E+00
 0.9504168173348E+00
 0.9755230416032E+00
 0.9984023458313E+00
 0.1019419025820E+01
 0.1038930082408E+01
 0.1057288398531E+01
 0.1533472732318E+00
 0.2399405049599E+00
 0.3227708517983E+00
 0.4007605849314E+00
 0.4734894086568E+00
 0.5407756570907E+00
 0.6025925237410E+00
 0.6590402352188E+00
 0.7103252349572E+00
 0.7567328236516E+00
 0.7986010864307E+00
 0.8363035864667E+00
 0.8702379128268E+00
 0.9008138866943E+00
 0.9284399658180E+00
 0.9535120839105E+00
 0.9764093006630E+00
 0.9974979693015E+00
 0.1017137784734E+01
 0.1035677094872E+01
 0.1475440365673E+00
 0.2318829287343E+00
 0.3124273061919E+00
 0.3882240110977E+00
 0.4589406636720E+00
 0.5244451424291E+00
 0.5847312976505E+00
 0.6398984259331E+00
 0.6901363739777E+00
 0.7357046607432E+00
 0.7769117052981E+00
 0.8141005917119E+00
 0.8476394454905E+00
 0.8779116287362E+00
 0.9053045143831E+00
 0.9302002571996E+00
 0.9529719170809E+00
 0.9739856647438E+00
 0.9936032122718E+00
 0.1012173603784E+01
 0.1420276413901E+00
 0.2240515335265E+00
 0.3022635253112E+00
 0.3758197516340E+00
 0.4444661964637E+00
 0.5081163064967E+00
 0.5667837439324E+00
 0.6205678884514E+00
 0.6696442546802E+00
 0.7142493975321E+00
 0.7546648973570E+00
 0.7912058963158E+00
 0.8242130717353E+00
 0.8540445573923E+00
 0.8810668536332E+00
 0.9056474144320E+00
 0.9281513869787E+00
 0.9489426296421E+00
 0.9683841044152E+00
 0.9868290254402E+00
 0.1367812161903E+00
 0.2164219647410E+00
 0.2922499236128E+00
 0.3635168741256E+00
 0.4300375861122E+00
 0.4917664181572E+00
 0.5487352384914E+00
 0.6010438074363E+00
 0.6488548733162E+00
 0.6923842109729E+00
 0.7318888584339E+00
 0.7676581095432E+00
 0.8000068214110E+00
 0.8292687885141E+00
 0.8557895725109E+00
 0.8799208326066E+00
 0.9020178600512E+00
 0.9224400687352E+00
 0.9415504840713E+00
 0.9597077988814E+00
 0.1317893441943E+00
 0.2089736236701E+00
 0.2823621279709E+00
 0.3512902953762E+00
 0.4156323129080E+00
 0.4753783693911E+00
 0.5305763527561E+00
 0.5813261072077E+00
 0.6277785802450E+00
 0.6701303923285E+00
 0.7086158524432E+00
 0.7435000847578E+00
 0.7750733905440E+00
 0.8036458013030E+00
 0.8295416298336E+00
 0.8530954986205E+00
 0.8746508494023E+00
 0.8945604173387E+00
 0.9131855193779E+00
 0.9308896071100E+00
 0.1270377997838E+00
 0.2016891257694E+00
 0.2725803080612E+00
 0.3391201062441E+00
 0.4012331505997E+00
 0.4589401607975E+00
 0.5123024332605E+00
 0.5614191157945E+00
 0.6064298120195E+00
 0.6475131289329E+00
 0.6848820297377E+00
 0.7187787716287E+00
 0.7494700351259E+00
 0.7772423868134E+00
 0.8023983677995E+00
 0.8252541893283E+00
 0.8461393800251E+00
 0.8653976089167E+00
 0.8833861160400E+00
 0.9004706755620E+00
 0.1225133195331E+00
 0.1945538051846E+00
 0.2628885520354E+00
 0.3269909271095E+00
 0.3868275685757E+00
 0.4424443767632E+00
 0.4939131528789E+00
 0.5413311844981E+00
 0.5848267649405E+00
 0.6245612153571E+00
 0.6607271631169E+00
 0.6935449715447E+00
 0.7232583477754E+00
 0.7501304513809E+00
 0.7744413460892E+00
 0.7964873356326E+00
 0.8165818890151E+00
 0.8350570732105E+00
 0.8522631958644E+00
 0.8685645688463E+00
 0.1182034087368E+00
 0.1875552687164E+00
 0.2532742926150E+00
 0.3148913048021E+00
 0.3724071608405E+00
 0.4258876720495E+00
 0.4754120587977E+00
 0.5210742899054E+00
 0.5629910371154E+00
 0.6013067190900E+00
 0.6361943229150E+00
 0.6678530131286E+00
 0.6965039302095E+00
 0.7223866862270E+00
 0.7457580099849E+00
 0.7668926926682E+00
 0.7860859085562E+00
 0.8036554629107E+00
 0.8199415933801E+00
 0.8353024581962E+00
 0.1140961690470E+00
 0.1806829801263E+00
 0.2437277627465E+00
 0.3028131302961E+00
 0.3579670828646E+00
 0.4092702527017E+00
 0.4568061016626E+00
 0.5006636040036E+00
 0.5409472253072E+00
 0.5777845868613E+00
 0.6113294765101E+00
 0.6417603323480E+00
 0.6692759459494E+00
 0.6940920890141E+00
 0.7164411818191E+00
 0.7365748094190E+00
 0.7547675366205E+00
 0.7713201344251E+00
 0.7865594990019E+00
 0.8008327150432E+00
 0.1101801463590E+00
 0.1739278736021E+00
 0.2342414814566E+00
 0.2907510815482E+00
 0.3435055047251E+00
 0.3925953630184E+00
 0.4381051599086E+00
 0.4801170476990E+00
 0.5187224921493E+00
 0.5540322064304E+00
 0.5861810255318E+00
 0.6153269686087E+00
 0.6416465628158E+00
 0.6653313453601E+00
 0.6865883810174E+00
 0.7056442997059E+00
 0.7227506895212E+00
 0.7381884576204E+00
 0.7522677834289E+00
 0.7653202965562E+00
 0.1064441931699E+00
 0.1672819900233E+00
 0.2248097641466E+00
 0.2787020881767E+00
 0.3290230802877E+00
 0.3758687809730E+00
 0.4193215636650E+00
 0.4594548335426E+00
 0.4963461103483E+00
 0.5300889306978E+00
 0.5607992874005E+00
 0.5886149830011E+00
 0.6136902907894E+00
 0.6361920745284E+00
 0.6563009741851E+00
 0.6742169060387E+00
 0.6901661200104E+00
 0.7044068816587E+00
 0.7172294998441E+00
 0.7289463652312E+00
 0.1028773392330E+00
 0.1607381284731E+00
 0.2154282504360E+00
 0.2666648132311E+00
 0.3145224303956E+00
 0.3590983224994E+00
 0.4004696206083E+00
 0.4386990016346E+00
 0.4738489891155E+00
 0.5059955703069E+00
 0.5352359280184E+00
 0.5616878059719E+00
 0.5854832225937E+00
 0.6067639458434E+00
 0.6256831576947E+00
 0.6424123513098E+00
 0.6571501564785E+00
 0.6701296280293E+00
 0.6816185950314E+00
 0.6919074783043E+00
 0.9946866584661E-01
 0.1542895073527E+00
 0.2060934450439E+00
 0.2546391501398E+00
 0.3000076411263E+00
 0.3422933582345E+00
 0.3815651493708E+00
 0.4178729560114E+00
 0.4512631916113E+00
 0.4817938647687E+00
 0.5095433566127E+00
 0.5346095261269E+00
 0.5571021890759E+00
 0.5771376770549E+00
 0.5948407806795E+00
 0.6103529741178E+00
 0.6238431442429E+00
 0.6355168980983E+00
 0.6456177065155E+00
 0.6544129302111E+00
 0.9620718241290E-01
 0.1479294341983E+00
 0.1968022737585E+00
 0.2426257412944E+00
 0.2854837877891E+00
 0.3254643566966E+00
 0.3626250369537E+00
 0.3970010200127E+00
 0.4286214637393E+00
 0.4575259540125E+00
 0.4837741057612E+00
 0.5074441438303E+00
 0.5286238533102E+00
 0.5474039384278E+00
 0.5638800292499E+00
 0.5781621608216E+00
 0.5903875842151E+00
 0.6007326504057E+00
 0.6094154585336E+00
 0.6166812191835E+00
 0.9308169155583E-01
 0.1416509669481E+00
 0.1875516361455E+00
 0.2306255005699E+00
 0.2709564682174E+00
 0.3086224384663E+00
 0.3436668057053E+00
 0.3761079977706E+00
 0.4059567638856E+00
 0.4332338430475E+00
 0.4579801924338E+00
 0.4802547882699E+00
 0.5001237450268E+00
 0.5176521681956E+00
 0.5329059831233E+00
 0.5459625869142E+00
 0.5569259761428E+00
 0.5659419531363E+00
 0.5732032090247E+00
 0.5789357024094E+00
 0.9008064709854E-01
 0.1354465710547E+00
 0.1783379659466E+00
 0.2186391583883E+00
 0.2564313703431E+00
 0.2917789705557E+00
 0.3247082218013E+00
 0.3552187763114E+00
 0.3833018311864E+00
 0.4089589007418E+00
 0.4322125038241E+00
 0.4531029429509E+00
 0.4716752803581E+00
 0.4879693461351E+00
 0.5020210994640E+00
 0.5138743376174E+00
 0.5235984383630E+00
 0.5313079113457E+00
 0.5371710417899E+00
 0.5413989733597E+00
 0.8719199108972E-01
 0.1293077573121E+00
 0.1691567859715E+00
 0.2066668203159E+00
 0.2419138677934E+00
 0.2749451951102E+00
 0.3057669386173E+00
 0.3343579617750E+00
 0.3606887880873E+00
 0.3847413926691E+00
 0.4065202122353E+00
 0.4260476859652E+00
 0.4433487725412E+00
 0.4584387313670E+00
 0.4713236413226E+00
 0.4820129601897E+00
 0.4905402053715E+00
 0.4969882501966E+00
 0.5015029450590E+00
 0.5042859006891E+00
 0.8440295858938E-01
 0.1232246827006E+00
 0.1600022449400E+00
 0.1947075329710E+00
 0.2274086413641E+00
 0.2581318906209E+00
 0.2868601719396E+00
 0.3135495471729E+00
 0.3381487790649E+00
 0.3606200584949E+00
 0.3809502395583E+00
 0.3991449724355E+00
 0.4152104611945E+00
 0.4291385889143E+00
 0.4409060832301E+00
 0.4504875236716E+00
 0.4578791993458E+00
 0.4631319499401E+00
 0.4663717143283E+00
 0.4677968456371E+00
 0.8169984777183E-01
 0.1171857148139E+00
 0.1508666530073E+00
 0.1827588920376E+00
 0.2129193719255E+00
 0.2413491136797E+00
 0.2680044533135E+00
 0.2928166571896E+00
 0.3157116951274E+00
 0.3366317939160E+00
 0.3555468455102E+00
 0.3724470432599E+00
 0.3873216409104E+00
 0.4001409679264E+00
 0.4108535419030E+00
 0.4193987598123E+00
 0.4257338729481E+00
 0.4298765720414E+00
 0.4319351389624E+00
 0.4321142750359E+00
 0.7906771788905E-01
 0.1111769106315E+00
 0.1417399761233E+00
 0.1708166623351E+00
 0.1984484746588E+00
 0.2246059813819E+00
 0.2492154083709E+00
 0.2721813078696E+00
 0.2934059216000E+00
 0.3128113866942E+00
 0.3303513125813E+00
 0.3460019579632E+00
 0.3597378918760E+00
 0.3715105062518E+00
 0.3812421613969E+00
 0.3888372043289E+00
 0.3942113241291E+00
 0.3973464767307E+00
 0.3983345690298E+00
 0.3974020050838E+00
 0.7649000163879E-01
 0.1051813960346E+00
 0.1326093163926E+00
 0.1588744707924E+00
 0.1839969472372E+00
 0.2079105565537E+00
 0.2305076072049E+00
 0.2516642156677E+00
 0.2712581395402E+00
 0.2891913457498E+00
 0.3054017965671E+00
 0.3198533636154E+00
 0.3325085483261E+00
 0.3433033488187E+00
 0.3521374280219E+00
 0.3588812112240E+00
 0.3634055418161E+00
 0.3656516404160E+00
 0.3656939973557E+00
 0.3638009317391E+00
 0.7394796243763E-01
 0.9917858275903E-01
 0.1234583701111E+00
 0.1469236160844E+00
 0.1695643722552E+00
 0.1912698560146E+00
 0.2118944807600E+00
 0.2312846402779E+00
 0.2492931606559E+00
 0.2658018112336E+00
 0.2807333696948E+00
 0.2940406194987E+00
 0.3056766182285E+00
 0.3155663927767E+00
 0.3235924182075E+00
 0.3295945989836E+00
 0.3333954570602E+00
 0.3348869022567E+00
 0.3341190410508E+00
 0.3314242029934E+00
 0.7141989802116E-01
 0.9314310259575E-01
 0.1142669012460E+00
 0.1349530649610E+00
 0.1551491400120E+00
 0.1746899610018E+00
 0.1933882550877E+00
 0.2110601861927E+00
 0.2275337060249E+00
 0.2426704329767E+00
 0.2563781438154E+00
 0.2685992604890E+00
 0.2792793723457E+00
 0.2883371694304E+00
 0.2956460567255E+00
 0.3010232528565E+00
 0.3042418648001E+00
 0.3051313097928E+00
 0.3036980263783E+00
 0.3003566243837E+00
 0.6887984611103E-01
 0.8704341731310E-01
 0.1050103091320E+00
 0.1229499981256E+00
 0.1407490036804E+00
 0.1581763303945E+00
 0.1749999237053E+00
 0.1910066305606E+00
 0.2060001731896E+00
 0.2198222204109E+00
 0.2323654447774E+00
 0.2435617820983E+00
 0.2533499242385E+00
 0.2616454250815E+00
 0.2683221124810E+00
 0.2731903974045E+00
 0.2759809098898E+00
 0.2764467295906E+00
 0.2745073904203E+00
 0.2706610789258E+00
 0.6629541135014E-01
 0.8083923197196E-01
 0.9566023022914E-01
 0.1109009210208E+00
 0.1263622539587E+00
 0.1417339300174E+00
 0.1567391825270E+00
 0.1711376725816E+00
 0.1847102394935E+00
 0.1972791616717E+00
 0.2087217170450E+00
 0.2189583578699E+00
 0.2279193470922E+00
 0.2355172402647E+00
 0.2416323133577E+00
 0.2460898353057E+00
 0.2486109948565E+00
 0.2488685974357E+00
 0.2466237689560E+00
 0.2424001745205E+00
 0.6362194450792E-01
 0.7448078751435E-01
 0.8618509270677E-01
 0.9879675359070E-01
 0.1119878246338E+00
 0.1253673247217E+00
 0.1386145665127E+00
 0.1514647044598E+00
 0.1636783577286E+00
 0.1750596725180E+00
 0.1854701296431E+00
 0.1948170472050E+00
 0.2030188799158E+00
 0.2099803471550E+00
 0.2155880504944E+00
 0.2196912734346E+00
 0.2220573544935E+00
 0.2223792055735E+00
 0.2201300323930E+00
 0.2156911873104E+00
 0.6079486263176E-01
 0.6788759222271E-01
 0.7657733101017E-01
 0.8663217341429E-01
 0.9762359593992E-01
 0.1090815511792E+00
 0.1206341594934E+00
 0.1319963573928E+00
 0.1429150193268E+00
 0.1531780649697E+00
 0.1626298245535E+00
 0.1711631285865E+00
 0.1786805384943E+00
 0.1850700389486E+00
 0.1902121040002E+00
 0.1939797958828E+00
 0.1961756163969E+00
 0.1967294099036E+00
 0.1951332385709E+00
 0.1908430821243E+00
 0.5759261992420E-01
 0.6112098799319E-01
 0.6686504616764E-01
 0.7438960441571E-01
 0.8326527098969E-01
 0.9288779185341E-01
 0.1028057649102E+00
 0.1127363140988E+00
 0.1224264464850E+00
 0.1316437539300E+00
 0.1402148425661E+00
 0.1480172334610E+00
 0.1549348488354E+00
 0.1608297976104E+00
 0.1655543256805E+00
 0.1689724126953E+00
 0.1709204116942E+00
 0.1713994628306E+00
 0.1708645818999E+00
 0.1693905992995E+00
 0.1761167872169E+01
 0.1726799854561E+01
 0.1298626990446E+01
 0.1060634398350E+01
 0.8430883856126E+00
 0.6454133650674E+00
 0.5066192421019E+00
 0.4336101134734E+00
 0.3881661984508E+00
 0.3482032513935E+00
 0.3077206533905E+00
 0.2655424104073E+00
 0.2208256581742E+00
 0.1735718132449E+00
 0.1253738119742E+00
 0.7821357454034E-01
 0.3168147696978E-01
 0.1990798712453E-02
 0.3582743789298E-02
 0.2199029486289E-01
 0.1506246632859E+01
 0.1810918729688E+01
 0.1423133413118E+01
 0.1136778546144E+01
 0.9258230480669E+00
 0.7487588443457E+00
 0.6158247145579E+00
 0.5287240850790E+00
 0.4695038672896E+00
 0.4222144276036E+00
 0.3789620831079E+00
 0.3363348256980E+00
 0.2923821083440E+00
 0.2464659659042E+00
 0.1992253959048E+00
 0.1512714306433E+00
 0.1012001307531E+00
 0.6442932647265E-01
 0.5349145591547E-01
 0.7539625355501E-01
 0.1294899960551E+01
 0.1693623071038E+01
 0.1489165739486E+01
 0.1217868268692E+01
 0.1005655431186E+01
 0.8397057770762E+00
 0.7128575793608E+00
 0.6217795438448E+00
 0.5545159410093E+00
 0.5006633132115E+00
 0.4538062424980E+00
 0.4100010901632E+00
 0.3665478273384E+00
 0.3220087921173E+00
 0.2762400530056E+00
 0.2292727794058E+00
 0.1800159006244E+00
 0.1407578699771E+00
 0.1268750395315E+00
 0.1494992663902E+00
 0.1128023539652E+01
 0.1549755455019E+01
 0.1479030576669E+01
 0.1277736012553E+01
 0.1080444948981E+01
 0.9220771085893E+00
 0.8005482762056E+00
 0.7094636409272E+00
 0.6389198957737E+00
 0.5810389680623E+00
 0.5311560059027E+00
 0.4859819310756E+00
 0.4427673512521E+00
 0.3995924725368E+00
 0.3557506876680E+00
 0.3110285970154E+00
 0.2645032609506E+00
 0.2257347616915E+00
 0.2112203493756E+00
 0.2346663913161E+00
 0.9925610057382E+00
 0.1408482852748E+01
 0.1430095967037E+01
 0.1303246530476E+01
 0.1141286521432E+01
 0.9959099568124E+00
 0.8802136099604E+00
 0.7910844244592E+00
 0.7201468419799E+00
 0.6607479110291E+00
 0.6092413304130E+00
 0.5631750153172E+00
 0.5202391957049E+00
 0.4784503830585E+00
 0.4368155942486E+00
 0.3949656355165E+00
 0.3521129053363E+00
 0.3154000884070E+00
 0.3012926454512E+00
 0.3248432630318E+00
 0.8805850515160E+00
 0.1277938478252E+01
 0.1361819332480E+01
 0.1300390910806E+01
 0.1181661099092E+01
 0.1057876130302E+01
 0.9514215584656E+00
 0.8661234324102E+00
 0.7967479726386E+00
 0.7377873546001E+00
 0.6861934184246E+00
 0.6401324429150E+00
 0.5978547803263E+00
 0.5576031390605E+00
 0.5183333714598E+00
 0.4796138103329E+00
 0.4407360130328E+00
 0.4067873311043E+00
 0.3934843715423E+00
 0.4162530742251E+00
 0.7867263035670E+00
 0.1159869621040E+01
 0.1284911464875E+01
 0.1276762279657E+01
 0.1201383281854E+01
 0.1104733411593E+01
 0.1012279576081E+01
 0.9335128623115E+00
 0.8675385134580E+00
 0.8106263015184E+00
 0.7603466093812E+00
 0.7153230377916E+00
 0.6743088703700E+00
 0.6358895008229E+00
 0.5991249434585E+00
 0.5635974592066E+00
 0.5286591058585E+00
 0.4977067923865E+00
 0.4852810492866E+00
 0.5064488170874E+00
 0.7072128009357E+00
 0.1054038751334E+01
 0.1205315352052E+01
 0.1238809249107E+01
 0.1202923780702E+01
 0.1135413731086E+01
 0.1060801823511E+01
 0.9917031705775E+00
 0.9312208019355E+00
 0.8779128087249E+00
 0.8302392613649E+00
 0.7872829335693E+00
 0.7482378053789E+00
 0.7120531143152E+00
 0.6779679343427E+00
 0.6456302632027E+00
 0.6144588378609E+00
 0.5865029754603E+00
 0.5748816152062E+00
 0.5937913656540E+00
 0.6392746129531E+00
 0.9595467552579E+00
 0.1126404790498E+01
 0.1191441942947E+01
 0.1189557541921E+01
 0.1150526927104E+01
 0.1095920423261E+01
 0.1039223415091E+01
 0.9864197215600E+00
 0.9383321552323E+00
 0.8945296515918E+00
 0.8546476855579E+00
 0.8183084630720E+00
 0.7848230780324E+00
 0.7536398975504E+00
 0.7245016504081E+00
 0.6969104092015E+00
 0.6718686384440E+00
 0.6609441379033E+00
 0.6771378850383E+00
 0.5808077384662E+00
 0.8753100407462E+00
 0.1050100075644E+01
 0.1138275103405E+01
 0.1164515510175E+01
 0.1151642685921E+01
 0.1117572016214E+01
 0.1075134714541E+01
 0.1031935352871E+01
 0.9906477751714E+00
 0.9519662583455E+00
 0.9161480586014E+00
 0.8832571570617E+00
 0.8529683986543E+00
 0.8249547927406E+00
 0.7990715304352E+00
 0.7749228351176E+00
 0.7527177937077E+00
 0.7424175982392E+00
 0.7556456448527E+00
 0.5301704047819E+00
 0.8002389260417E+00
 0.9774668405538E+00
 0.1081934581590E+01
 0.1130666676893E+01
 0.1140748297132E+01
 0.1126464637619E+01
 0.1099149979474E+01
 0.1066957785682E+01
 0.1033832875413E+01
 0.1001434492879E+01
 0.9706272284598E+00
 0.9419135385180E+00
 0.9153314759733E+00
 0.8907898022405E+00
 0.8682710919608E+00
 0.8475005140309E+00
 0.8281048188178E+00
 0.8184328202399E+00
 0.8286492106867E+00
 0.4860542485964E+00
 0.7333044178394E+00
 0.9090502183178E+00
 0.1024313358843E+01
 0.1090433841849E+01
 0.1119916927188E+01
 0.1123794276699E+01
 0.1111562480686E+01
 0.1091147070936E+01
 0.1067183470650E+01
 0.1042037630720E+01
 0.1017088023284E+01
 0.9932333315293E+00
 0.9708571452593E+00
 0.9501078915837E+00
 0.9311090389340E+00
 0.9137246400756E+00
 0.8971773251767E+00
 0.8882351564404E+00
 0.8955870894336E+00
 0.4473993224214E+00
 0.6735602449003E+00
 0.8450693975352E+00
 0.9667637122917E+00
 0.1045806039137E+01
 0.1091125748786E+01
 0.1111010776812E+01
 0.1113102482597E+01
 0.1104609761707E+01
 0.1090367026036E+01
 0.1073163350137E+01
 0.1054749587941E+01
 0.1036341679840E+01
 0.1018626746549E+01
 0.1001983435712E+01
 0.9866850129842E+00
 0.9727500722221E+00
 0.9591530763815E+00
 0.9511464723599E+00
 0.9559619284131E+00
 0.4133357998346E+00
 0.6201465617248E+00
 0.7855353296067E+00
 0.9102371258054E+00
 0.9983856333158E+00
 0.1056167093312E+01
 0.1089650587318E+01
 0.1104788856005E+01
 0.1107821420344E+01
 0.1103412430804E+01
 0.1094513323306E+01
 0.1083090535477E+01
 0.1070575898291E+01
 0.1057895997484E+01
 0.1045633611983E+01
 0.1034211943302E+01
 0.1023815575335E+01
 0.1013314498993E+01
 0.1006547240350E+01
 0.1009322756801E+01
 0.3831423930461E+00
 0.5722860932757E+00
 0.7303246407591E+00
 0.8553858604170E+00
 0.9494436476129E+00
 0.1016613268263E+01
 0.1061226962506E+01
 0.1087802857784E+01
 0.1101532062836E+01
 0.1106662693321E+01
 0.1106096141793E+01
 0.1101866974465E+01
 0.1095515530508E+01
 0.1088129353399E+01
 0.1080452895504E+01
 0.1073046987250E+01
 0.1066266585957E+01
 0.1059017009187E+01
 0.1053871754103E+01
 0.1055260474421E+01
 0.3562152557714E+00
 0.5292772687903E+00
 0.6792278710539E+00
 0.8026378916425E+00
 0.8999728524655E+00
 0.9738108013066E+00
 0.1027162585230E+01
 0.1063390760825E+01
 0.1086675271995E+01
 0.1100710629920E+01
 0.1108193724430E+01
 0.1111104594550E+01
 0.1110992585970E+01
 0.1109022643395E+01
 0.1106044663969E+01
 0.1102728522836E+01
 0.1099590766512E+01
 0.1095710558063E+01
 0.1092611512529E+01
 0.1093409002115E+01
 0.3320432128055E+00
 0.4904851229809E+00
 0.6319837052975E+00
 0.7522537776545E+00
 0.8507354852500E+00
 0.9288894889115E+00
 0.9887511824574E+00
 0.1032793286038E+01
 0.1064290340166E+01
 0.1086331819396E+01
 0.1101313083905E+01
 0.1111069949213E+01
 0.1117079921619E+01
 0.1120506863569E+01
 0.1122241426488E+01
 0.1123014153793E+01
 0.1123467958962E+01
 0.1122980246239E+01
 0.1122326380342E+01
 0.1123444489819E+01
 0.3101822455866E+00
 0.4553346241832E+00
 0.5883046255598E+00
 0.7043764490173E+00
 0.8023030443029E+00
 0.8827769831968E+00
 0.9471380239189E+00
 0.9971969779424E+00
 0.1035460451850E+01
 0.1064423607409E+01
 0.1086134023929E+01
 0.1102228938543E+01
 0.1114059661345E+01
 0.1122727197085E+01
 0.1129100427189E+01
 0.1133906269827E+01
 0.1137834962300E+01
 0.1140622705440E+01
 0.1142678841168E+01
 0.1145074803278E+01
 0.2902315652441E+00
 0.4232738331488E+00
 0.5479396061246E+00
 0.6590704750387E+00
 0.7550826708137E+00
 0.8362137868822E+00
 0.9033115488165E+00
 0.9577031174123E+00
 0.1001266711645E+01
 0.1035955023348E+01
 0.1063461861159E+01
 0.1085203163742E+01
 0.1102379344890E+01
 0.1115995055403E+01
 0.1126856861890E+01
 0.1135628478598E+01
 0.1142936226331E+01
 0.1148790795417E+01
 0.1153548753263E+01
 0.1158029077958E+01
 0.2715974017081E+00
 0.3940229566232E+00
 0.5107500321834E+00
 0.6163286784766E+00
 0.7093314487366E+00
 0.7897566113934E+00
 0.8581058371710E+00
 0.9153121778405E+00
 0.9627548121647E+00
 0.1001928496703E+01
 0.1034193120788E+01
 0.1060738319846E+01
 0.1082614263836E+01
 0.1100728563756E+01
 0.1115825313786E+01
 0.1128499246206E+01
 0.1139230045275E+01
 0.1148117904851E+01
 0.1155441058844E+01
 0.1162105107969E+01
 0.5282484594738E-01
 0.5332614784679E-01
 0.5585995900198E-01
 0.6072895120662E-01
 0.6728022436848E-01
 0.7476964851846E-01
 0.8261625258827E-01
 0.9065213600549E-01
 0.9866606075750E-01
 0.1063913548223E+00
 0.1136265406071E+00
 0.1202327606194E+00
 0.1260981174003E+00
 0.1310917463077E+00
 0.1350929690158E+00
 0.1380485591626E+00
 0.1400849314908E+00
 0.1413996516504E+00
 0.1431764207628E+00
 0.1470216969334E+00
 0.4872525448461E-01
 0.4482917532241E-01
 0.4402085228577E-01
 0.4600802373118E-01
 0.4996643412522E-01
 0.5495332043966E-01
 0.6035606765615E-01
 0.6613006231066E-01
 0.7211648331501E-01
 0.7802462015840E-01
 0.8362555860111E-01
 0.8877387507211E-01
 0.9337969076398E-01
 0.9735976028186E-01
 0.1006928761321E+00
 0.1035007176709E+00
 0.1060740373322E+00
 0.1086558657283E+00
 0.1122020205508E+00
 0.1133794880036E+00
 0.4437500139005E-01
 0.3544246963272E-01
 0.3110984839889E-01
 0.3029561598301E-01
 0.3178844316545E-01
 0.3443861057802E-01
 0.3761635998103E-01
 0.4138323582030E-01
 0.4561453249565E-01
 0.4999961481097E-01
 0.5429673769689E-01
 0.5837210407852E-01
 0.6216534365824E-01
 0.6563701450485E-01
 0.6882994041369E-01
 0.7189026032270E-01
 0.7491563766027E-01
 0.7791785085598E-01
 0.8078469182456E-01
 0.8218306577770E-01
 0.3953147956270E-01
 0.2517591337806E-01
 0.1722219596677E-01
 0.1379642542475E-01
 0.1306808661081E-01
 0.1360936688596E-01
 0.1480157234295E-01
 0.1681626885003E-01
 0.1956824498973E-01
 0.2273721787001E-01
 0.2607578690592E-01
 0.2946014010564E-01
 0.3284208612089E-01
 0.3618550409647E-01
 0.3951497935217E-01
 0.4287441498541E-01
 0.4610631582658E-01
 0.4902729168729E-01
 0.5209511301249E-01
 0.5590140922401E-01
 0.3408769543916E-01
 0.1392154332360E-01
 0.3733461811741E-02
 0.5871279652389E-02
 0.8332172843637E-02
 0.9450389706343E-02
 0.9793522201740E-02
 0.9118713657364E-02
 0.7547602979588E-02
 0.5566429066160E-02
 0.3944470775599E-02
 0.4156213652661E-02
 0.6408823745348E-02
 0.9519750189842E-02
 0.1299161940110E-01
 0.1663512642122E-01
 0.2008535371638E-01
 0.2339070296062E-01
 0.2777953873566E-01
 0.3440653975286E-01
 0.2794212172850E-01
 0.2256973066190E-02
 0.1478281226716E-01
 0.2341884550650E-01
 0.2799903365926E-01
 0.3070379250573E-01
 0.3235914167627E-01
 0.3262851290081E-01
 0.3158452916266E-01
 0.2960534359032E-01
 0.2696029887882E-01
 0.2378226811906E-01
 0.2016159988712E-01
 0.1622284888432E-01
 0.1207480118060E-01
 0.7894510670331E-02
 0.4283973400447E-02
 0.3191061395049E-02
 0.8331184139680E-02
 0.1759980978522E-01
 0.2100010549974E-01
 0.1245674241925E-01
 0.3194144216078E-01
 0.4274008530964E-01
 0.4871898703959E-01
 0.5252765109377E-01
 0.5508124337636E-01
 0.5596333755774E-01
 0.5524141191458E-01
 0.5331855695697E-01
 0.5048173111788E-01
 0.4688639196373E-01
 0.4266088107588E-01
 0.3796666255361E-01
 0.3291827230464E-01
 0.2761893265495E-01
 0.2233129781618E-01
 0.1623629888742E-01
 0.7522474928154E-02
 0.5386125589250E-02
 0.1320436775605E-01
 0.2743837786273E-01
 0.5039451348305E-01
 0.6290465685488E-01
 0.6982374392339E-01
 0.7428988935000E-01
 0.7731329051273E-01
 0.7840362943635E-01
 0.7762519114341E-01
 0.7540372438360E-01
 0.7204799793132E-01
 0.6774591591368E-01
 0.6266915927639E-01
 0.5700968593801E-01
 0.5087839443465E-01
 0.4433148654764E-01
 0.3753144226950E-01
 0.2938970038485E-01
 0.1804552099447E-01
 0.3413821165986E-02
 0.5002091184927E-02
 0.4394928940147E-01
 0.7004538191604E-01
 0.8376317898161E-01
 0.9110836198572E-01
 0.9574745930071E-01
 0.9878887397590E-01
 0.9967234198597E-01
 0.9845759958948E-01
 0.9558786636594E-01
 0.9139626867646E-01
 0.8610892951363E-01
 0.7993786787948E-01
 0.7308866224363E-01
 0.6564623260077E-01
 0.5760363624345E-01
 0.4902641835175E-01
 0.3867705785529E-01
 0.2485804792977E-01
 0.7757506040356E-02
 0.7308374589307E-02
 0.6206957902231E-01
 0.9086994712051E-01
 0.1051964634088E+00
 0.1123915320132E+00
 0.1166814536512E+00
 0.1192681064629E+00
 0.1195233790077E+00
 0.1174980933406E+00
 0.1136461566297E+00
 0.1083283884335E+00
 0.1018139402914E+00
 0.9434884981119E-01
 0.8613473422729E-01
 0.7721496246379E-01
 0.6751696006225E-01
 0.5702614374349E-01
 0.4446140191333E-01
 0.2836726033666E-01
 0.9255933417804E-02
 0.1846099529750E-01
 0.8191013973188E-01
 0.1128420887044E+00
 0.1270783572331E+00
 0.1334888897282E+00
 0.1368738085054E+00
 0.1385136114851E+00
 0.1377148590557E+00
 0.1345143813008E+00
 0.1293707164416E+00
 0.1226778241773E+00
 0.1147509266863E+00
 0.1058588001039E+00
 0.9617962729033E-01
 0.8570449071578E-01
 0.7430175349736E-01
 0.6190023597837E-01
 0.4726841576150E-01
 0.2922831278088E-01
 0.8521161402858E-02
 0.3154667963769E-01
 0.1035838990504E+00
 0.1359216409057E+00
 0.1492703104998E+00
 0.1542109501653E+00
 0.1561040548707E+00
 0.1562833188082E+00
 0.1539993403942E+00
 0.1492739801482E+00
 0.1425673071672E+00
 0.1343125990065E+00
 0.1248675330668E+00
 0.1145025258258E+00
 0.1033485103529E+00
 0.9133708251591E-01
 0.7829118494165E-01
 0.6411210151803E-01
 0.4770094293293E-01
 0.2816807406373E-01
 0.6374685684577E-02
 0.4645912503407E-01
 0.1271980135073E+00
 0.1600493129368E+00
 0.1716228185351E+00
 0.1743673799736E+00
 0.1741489368354E+00
 0.1723224020044E+00
 0.1681131325203E+00
 0.1615385506455E+00
 0.1530593662181E+00
 0.1431476013149E+00
 0.1321829465395E+00
 0.1204003281579E+00
 0.1078548536879E+00
 0.9441681961049E-01
 0.7988572796008E-01
 0.6417105790124E-01
 0.4638167804234E-01
 0.2591277610694E-01
 0.3664211267132E-02
 0.6336439654339E-01
 0.1528456290493E+00
 0.1851426138363E+00
 0.1939820862182E+00
 0.1937764091480E+00
 0.1907805702114E+00
 0.1863478736864E+00
 0.1797603423030E+00
 0.1710608848825E+00
 0.1607012602536E+00
 0.1491664141217E+00
 0.1368058558879E+00
 0.1237629555022E+00
 0.1099892817289E+00
 0.9530360420707E-01
 0.7951510680570E-01
 0.6258389617337E-01
 0.4389500550508E-01
 0.2311603699171E-01
 0.1363516455024E-02
 0.8247505164783E-01
 0.1805922017131E+00
 0.2110908959199E+00
 0.2162054405058E+00
 0.2122816499916E+00
 0.2057575863367E+00
 0.1980172338085E+00
 0.1885906632613E+00
 0.1775916714462E+00
 0.1654088853876E+00
 0.1524546152714E+00
 0.1389523140495E+00
 0.1248880738359E+00
 0.1100982125965E+00
 0.9438033361403E-01
 0.7759819523532E-01
 0.5980749308189E-01
 0.4073169836716E-01
 0.2029137907515E-01
 0.1596774190106E-02
 0.1040212282797E+00
 0.2104481996157E+00
 0.2377472805444E+00
 0.2381957661374E+00
 0.2297815636513E+00
 0.2187943320211E+00
 0.2068679307394E+00
 0.1941774756367E+00
 0.1809156139097E+00
 0.1672175746273E+00
 0.1532404211958E+00
 0.1389526864810E+00
 0.1241397621118E+00
 0.1085501805225E+00
 0.9201610320940E-01
 0.7450599902596E-01
 0.5620887070084E-01
 0.3724519764899E-01
 0.1776155389678E-01
 0.2477181389566E-02
 0.1282328656520E+00
 0.2423059459305E+00
 0.2649097777564E+00
 0.2599889151475E+00
 0.2462727635268E+00
 0.2294703443398E+00
 0.2122081035694E+00
 0.1960374838291E+00
 0.1809464905693E+00
 0.1663678859029E+00
 0.1519235072257E+00
 0.1372286770393E+00
 0.1219049281683E+00
 0.1056940552742E+00
 0.8853346033785E-01
 0.7053532154412E-01
 0.5203995284708E-01
 0.3362682921377E-01
 0.1563501612186E-01
 0.2530799544542E-02
 0.1552986707289E+00
 0.2757412701488E+00
 0.2923034668053E+00
 0.2819742587213E+00
 0.2619046269403E+00
 0.2369381817417E+00
 0.2130360758789E+00
 0.1937619301996E+00
 0.1779046129784E+00
 0.1633907993382E+00
 0.1490479567509E+00
 0.1342242947513E+00
 0.1185342415653E+00
 0.1018229105398E+00
 0.8418952248664E-01
 0.6590104280627E-01
 0.4743132411041E-01
 0.2990228430549E-01
 0.1380838758479E-01
 0.1887033081424E-02
 0.1853073573042E+00
 0.3093798506769E+00
 0.3194587366562E+00
 0.3058785578557E+00
 0.2764163224877E+00
 0.2395658921134E+00
 0.2080967686776E+00
 0.1873577521982E+00
 0.1725668722249E+00
 0.1590832968006E+00
 0.1451726403487E+00
 0.1303089695313E+00
 0.1142979335269E+00
 0.9715521050499E-01
 0.7917847950372E-01
 0.6075117420180E-01
 0.4241313818159E-01
 0.2593661677194E-01
 0.1197534420181E-01
 0.1001211586734E-02
 0.2165592905208E+00
 0.3346135116214E+00
 0.3506511670767E+00
 0.3337554896221E+00
 0.2884777725691E+00
 0.2345200549841E+00
 0.1962843757488E+00
 0.1780193660575E+00
 0.1662988702243E+00
 0.1542342633137E+00
 0.1406718979887E+00
 0.1257276679925E+00
 0.1094020744090E+00
 0.9181730003424E-01
 0.7360921114669E-01
 0.5528672577391E-01
 0.3696966982868E-01
 0.2134627452565E-01
 0.9572008855242E-02
 0.4387494400688E-03
 0.1167050957357E+01
 0.1164866317650E+01
 0.1154264919464E+01
 0.1135722915263E+01
 0.1109372268057E+01
 0.1075340088255E+01
 0.1033835089182E+01
 0.9851433689038E+00
 0.9296147847278E+00
 0.8676491518286E+00
 0.7996871777447E+00
 0.7262102965174E+00
 0.6477555430085E+00
 0.5649545571892E+00
 0.4786103457305E+00
 0.3898339193492E+00
 0.3002862699400E+00
 0.2126499111780E+00
 0.1317400924840E+00
 0.6898078072064E-01
 0.1169150148914E+01
 0.1170973280949E+01
 0.1165265259124E+01
 0.1151799916931E+01
 0.1130678573554E+01
 0.1102031686067E+01
 0.1066031628236E+01
 0.1022913631383E+01
 0.9729768762538E+00
 0.9165775277656E+00
 0.8541206720041E+00
 0.7860571806010E+00
 0.7128921284595E+00
 0.6352136183760E+00
 0.5537541275153E+00
 0.4695007540869E+00
 0.3838792858664E+00
 0.2990703887474E+00
 0.2186934223301E+00
 0.1504467086078E+00
 0.1169609629278E+01
 0.1174781584977E+01
 0.1173383093444E+01
 0.1164812974319E+01
 0.1148915003427E+01
 0.1125716972649E+01
 0.1095322743722E+01
 0.1057899758509E+01
 0.1013679710423E+01
 0.9629554876114E+00
 0.9060751089364E+00
 0.8434370132683E+00
 0.7754928917719E+00
 0.7027663873001E+00
 0.6258984593138E+00
 0.5457312592643E+00
 0.4634351749173E+00
 0.3806576422742E+00
 0.2996039339304E+00
 0.2220792069453E+00
 0.1168205711323E+01
 0.1176327096691E+01
 0.1178735785996E+01
 0.1174677239264E+01
 0.1163790573762E+01
 0.1145940105102E+01
 0.1121113424429E+01
 0.1089378692766E+01
 0.1050872476683E+01
 0.1005793606460E+01
 0.9543954656519E+00
 0.8969767014212E+00
 0.8338738709046E+00
 0.7654622211698E+00
 0.6921734608290E+00
 0.6145400445798E+00
 0.5332665744141E+00
 0.4492726788227E+00
 0.3634605793167E+00
 0.2749291365315E+00
 0.1164757858528E+01
 0.1175489062673E+01
 0.1181255825634E+01
 0.1181275416326E+01
 0.1175060516786E+01
 0.1162330316103E+01
 0.1142938767531E+01
 0.1116833209317E+01
 0.1084034340160E+01
 0.1044625394601E+01
 0.9987415194199E+00
 0.9465557749787E+00
 0.8882617956658E+00
 0.8240559914439E+00
 0.7541252737325E+00
 0.6786497853524E+00
 0.5978292508962E+00
 0.5119202217272E+00
 0.4211053543296E+00
 0.3251326057323E+00
 0.1159150230866E+01
 0.1172179102629E+01
 0.1180881523722E+01
 0.1184522769490E+01
 0.1182559377073E+01
 0.1174607260647E+01
 0.1160402282690E+01
 0.1139770858057E+01
 0.1112611829080E+01
 0.1078884450116E+01
 0.1038596632507E+01
 0.9917889328778E+00
 0.9385117405455E+00
 0.8787950912161E+00
 0.8126132784527E+00
 0.7398515597498E+00
 0.6602929036656E+00
 0.5736625677510E+00
 0.4798102848344E+00
 0.3790556318476E+00
 0.1151306018263E+01
 0.1166339703831E+01
 0.1177592850474E+01
 0.1184418935639E+01
 0.1186271143311E+01
 0.1182707296437E+01
 0.1173375808025E+01
 0.1158000228885E+01
 0.1136367226134E+01
 0.1108317062958E+01
 0.1073733289355E+01
 0.1032527855035E+01
 0.9846180551660E+00
 0.9298922521942E+00
 0.8681625116894E+00
 0.7991058748857E+00
 0.7222077822922E+00
 0.6367561031564E+00
 0.5420629671394E+00
 0.4381026731559E+00
 0.1141173566457E+01
 0.1157915581144E+01
 0.1171353763715E+01
 0.1180945075128E+01
 0.1186175160664E+01
 0.1186583303658E+01
 0.1181765703857E+01
 0.1171371608192E+01
 0.1155098143208E+01
 0.1132684884578E+01
 0.1103906716416E+01
 0.1068562264674E+01
 0.1026454471862E+01
 0.9773592711712E+00
 0.9209777123723E+00
 0.8568669605431E+00
 0.7843484795120E+00
 0.7024100638463E+00
 0.6096649525005E+00
 0.5048888391300E+00
 0.1128727244369E+01
 0.1146866472103E+01
 0.1162128042745E+01
 0.1174073131053E+01
 0.1182240651446E+01
 0.1186181519270E+01
 0.1185472139399E+01
 0.1179718704090E+01
 0.1168557873164E+01
 0.1151655678092E+01
 0.1128704284206E+01
 0.1099414897447E+01
 0.1063504101703E+01
 0.1020669855866E+01
 0.9705518591370E+00
 0.9126683777928E+00
 0.8463173055186E+00
 0.7704185865358E+00
 0.6832656537999E+00
 0.5821227672279E+00
 0.1113962678674E+01
 0.1133166437506E+01
 0.1149883472383E+01
 0.1163770680176E+01
 0.1174429186126E+01
 0.1181441427617E+01
 0.1184389483488E+01
 0.1182864251070E+01
 0.1176470435146E+01
 0.1164829377775E+01
 0.1147579984522E+01
 0.1124376830489E+01
 0.1094883616742E+01
 0.1058759179155E+01
 0.1015631791416E+01
 0.9650548043828E+00
 0.9064305622455E+00
 0.8388756191245E+00
 0.7609561056440E+00
 0.6700229192445E+00
 0.1096894350772E+01
 0.1116805636727E+01
 0.1134596986138E+01
 0.1150006489395E+01
 0.1162697769260E+01
 0.1172295444620E+01
 0.1178404314448E+01
 0.1180620680186E+01
 0.1178539959329E+01
 0.1171762572883E+01
 0.1159898751205E+01
 0.1142572018892E+01
 0.1119420473353E+01
 0.1090094399912E+01
 0.1054248069068E+01
 0.1011522354884E+01
 0.9615125388498E+00
 0.9037103727316E+00
 0.8373972630064E+00
 0.7614574592844E+00
 0.1077544856364E+01
 0.1097780029615E+01
 0.1116246363133E+01
 0.1132744921438E+01
 0.1146997307536E+01
 0.1158674628843E+01
 0.1167414692881E+01
 0.1172833262296E+01
 0.1174532578386E+01
 0.1172108935682E+01
 0.1165160183560E+01
 0.1153293427097E+01
 0.1136132813459E+01
 0.1113327094847E+01
 0.1084556661649E+01
 0.1049540032925E+01
 0.1008040671754E+01
 0.9598781551111E+00
 0.9049600412434E+00
 0.8434111929124E+00
 0.1055947315583E+01
 0.1076102998340E+01
 0.1094823845973E+01
 0.1111958752119E+01
 0.1127281463373E+01
 0.1140510601731E+01
 0.1151323110988E+01
 0.1159363824777E+01
 0.1164253335606E+01
 0.1165595659499E+01
 0.1162986659107E+01
 0.1156023806791E+01
 0.1144317637882E+01
 0.1127505204360E+01
 0.1105266097448E+01
 0.1077342349343E+01
 0.1043565158729E+01
 0.1003894841821E+01
 0.9584887331689E+00
 0.9078144518614E+00
 0.1032145902429E+01
 0.1051810145896E+01
 0.1070347479839E+01
 0.1087646031770E+01
 0.1103526631880E+01
 0.1117755038115E+01
 0.1130051086647E+01
 0.1140095607593E+01
 0.1147536429220E+01
 0.1151994661500E+01
 0.1153072207347E+01
 0.1150361227635E+01
 0.1143456115530E+01
 0.1131968457877E+01
 0.1115545561323E+01
 0.1093893540473E+01
 0.1066806770583E+01
 0.1034206345614E+01
 0.9961881828005E+00
 0.9530728720879E+00
 0.1006195613378E+01
 0.1024955730801E+01
 0.1042861180718E+01
 0.1059835364471E+01
 0.1075742544688E+01
 0.1090394760950E+01
 0.1103557141291E+01
 0.1114951836668E+01
 0.1124261410945E+01
 0.1131132619571E+01
 0.1135181454066E+01
 0.1136000224436E+01
 0.1133167315314E+01
 0.1126260079884E+01
 0.1114871145206E+01
 0.1098628240415E+01
 0.1077217602177E+01
 0.1050410710506E+01
 0.1018092304692E+01
 0.9802840010994E+00
 0.9781650067457E+00
 0.9956128255359E+00
 0.1012435159052E+01
 0.1028588467967E+01
 0.1043977656441E+01
 0.1058459949284E+01
 0.1071847282596E+01
 0.1083907453878E+01
 0.1094364645163E+01
 0.1102900054919E+01
 0.1109153408180E+01
 0.1112726106258E+01
 0.1113186712785E+01
 0.1110079298267E+01
 0.1102934810731E+01
 0.1091285071950E+01
 0.1074678270302E+01
 0.1052694595540E+01
 0.1024962108717E+01
 0.9911735436548E+00
 0.9481394781169E+00
 0.9638759853771E+00
 0.9791683553991E+00
 0.9940036260703E+00
 0.1008324470330E+01
 0.1022031682567E+01
 0.1034984660561E+01
 0.1047000330775E+01
 0.1057851030495E+01
 0.1067261905650E+01
 0.1074908436195E+01
 0.1080414770078E+01
 0.1083353606332E+01
 0.1083248348304E+01
 0.1079578024625E+01
 0.1071784882630E+01
 0.1059283520507E+01
 0.1041468973726E+01
 0.1017721828072E+01
 0.9874167479677E+00
 0.9162240860838E+00
 0.9298646299614E+00
 0.9431921249823E+00
 0.9562203216207E+00
 0.9689258579216E+00
 0.9812504570828E+00
 0.9931004536697E+00
 0.1004344284055E+01
 0.1014808382312E+01
 0.1024271841378E+01
 0.1032460215532E+01
 0.1039038941193E+01
 0.1043607032396E+01
 0.1045691941448E+01
 0.1044746672266E+01
 0.1040150167329E+01
 0.1031211261763E+01
 0.1017174618192E+01
 0.9972214294365E+00
 0.9704562985466E+00
 0.8825456548900E+00
 0.8937263291714E+00
 0.9046744290045E+00
 0.9154246463624E+00
 0.9259822703408E+00
 0.9363257938254E+00
 0.9464062953278E+00
 0.9561444204998E+00
 0.9654253055561E+00
 0.9740915705605E+00
 0.9819344457083E+00
 0.9886831406257E+00
 0.9939927574058E+00
 0.9974314419412E+00
 0.9984681275632E+00
 0.9964631012841E+00
 0.9906643025896E+00
 0.9802119203822E+00
 0.9641513403011E+00
 0.9414280584631E+00
 0.8472541402420E+00
 0.8556397299355E+00
 0.8638241109573E+00
 0.8718550701306E+00
 0.8797595580566E+00
 0.8875468378420E+00
 0.8952083772451E+00
 0.9027153031211E+00
 0.9100136054702E+00
 0.9170170108725E+00
 0.9235972610503E+00
 0.9295714286782E+00
 0.9346859141809E+00
 0.9385970049187E+00
 0.9408485578291E+00
 0.9408488609073E+00
 0.9378513598666E+00
 0.9309470633165E+00
 0.9190806136257E+00
 0.9011168730521E+00
 0.8105237639388E+00
 0.8158174894017E+00
 0.8208949999601E+00
 0.8258080367233E+00
 0.8305967862396E+00
 0.8352933741776E+00
 0.8399228601858E+00
 0.8445020594258E+00
 0.8490363215139E+00
 0.8535140834350E+00
 0.8578987241664E+00
 0.8621169468059E+00
 0.8660425964027E+00
 0.8694745310643E+00
 0.8721070794982E+00
 0.8734922281130E+00
 0.8729953456077E+00
 0.8697530190262E+00
 0.8626492020218E+00
 0.8503495321780E+00
 0.7725542656710E+00
 0.7745083151008E+00
 0.7761884652592E+00
 0.7776416297124E+00
 0.7789117650051E+00
 0.7800444075845E+00
 0.7810891587972E+00
 0.7821005207947E+00
 0.7831373033179E+00
 0.7842605327468E+00
 0.7855294505125E+00
 0.7869947606747E+00
 0.7886876895793E+00
 0.7906025320140E+00
 0.7926690252792E+00
 0.7947090717226E+00
 0.7963704248096E+00
 0.7970321871768E+00
 0.7956931121194E+00
 0.7908382940493E+00
 0.7335657936441E+00
 0.7319895267747E+00
 0.7300459089516E+00
 0.7277682939765E+00
 0.7251947419194E+00
 0.7223741188169E+00
 0.7193702124593E+00
 0.7162647700643E+00
 0.7131600492044E+00
 0.7101811791704E+00
 0.7074783333924E+00
 0.7052283547343E+00
 0.7036349266865E+00
 0.7029254005442E+00
 0.7033404923651E+00
 0.7051092635563E+00
 0.7083943170530E+00
 0.7131767165306E+00
 0.7190404096301E+00
 0.7248850494094E+00
 0.6938000678173E+00
 0.6885689568592E+00
 0.6828517597914E+00
 0.6766596791689E+00
 0.6700161127502E+00
 0.6629642321040E+00
 0.6555723561835E+00
 0.6479387713152E+00
 0.6401971784676E+00
 0.6325236255673E+00
 0.6251456171349E+00
 0.6183540336780E+00
 0.6125184601296E+00
 0.6081063678880E+00
 0.6057059756233E+00
 0.6060505807213E+00
 0.6100358614489E+00
 0.6187031769579E+00
 0.6330869527972E+00
 0.6537416046779E+00
 0.6535185994582E+00
 0.6445839141875E+00
 0.6350326173576E+00
 0.6248464802962E+00
 0.6140282709482E+00
 0.6026102319986E+00
 0.5906597202487E+00
 0.5782847601743E+00
 0.5656413712639E+00
 0.5529440869032E+00
 0.5404810528991E+00
 0.5286354354635E+00
 0.5179156183154E+00
 0.5089979891931E+00
 0.5027883429533E+00
 0.5005117626965E+00
 0.5038471564722E+00
 0.5151319012779E+00
 0.5376680610835E+00
 0.5757964487596E+00
 0.6129986404920E+00
 0.6003968254565E+00
 0.5870521920297E+00
 0.5729127838962E+00
 0.5579605137740E+00
 0.5422192304070E+00
 0.5257590842364E+00
 0.5087013932103E+00
 0.4912264389286E+00
 0.4735858805256E+00
 0.4561214603534E+00
 0.4392922592405E+00
 0.4237140268136E+00
 0.4102164499564E+00
 0.3999286112497E+00
 0.3944114901202E+00
 0.3958754690945E+00
 0.4075650671315E+00
 0.4345319756299E+00
 0.4855826894958E+00
 0.5725282332419E+00
 0.5563894154225E+00
 0.5394037543583E+00
 0.5214867289993E+00
 0.5026089987657E+00
 0.4828016065770E+00
 0.4621572741334E+00
 0.4408334431932E+00
 0.4190596410637E+00
 0.3971505415672E+00
 0.3755258990560E+00
 0.3547389535135E+00
 0.3355158597607E+00
 0.3188103728272E+00
 0.3058809289436E+00
 0.2984028671557E+00
 0.2986392724877E+00
 0.3097248202118E+00
 0.3361749073413E+00
 0.3853339176578E+00
 0.5324002121414E+00
 0.5129546272878E+00
 0.4925976250456E+00
 0.4712221875051E+00
 0.4488114003804E+00
 0.4254368453222E+00
 0.4012551328818E+00
 0.3765088490963E+00
 0.3515338094319E+00
 0.3267728593175E+00
 0.3027959159023E+00
 0.2803257485864E+00
 0.2602686682713E+00
 0.2437482874464E+00
 0.2321378444795E+00
 0.2270796071125E+00
 0.2304633710034E+00
 0.2442810010989E+00
 0.2701381797199E+00
 0.3068457557371E+00
 0.4929040466042E+00
 0.4704817435154E+00
 0.4471336969587E+00
 0.4227515757565E+00
 0.3973677528665E+00
 0.3711407835219E+00
 0.3443442061054E+00
 0.3173635766461E+00
 0.2907015200520E+00
 0.2649884892611E+00
 0.2409959111429E+00
 0.2196472539415E+00
 0.2020202892218E+00
 0.1893291658749E+00
 0.1828655495185E+00
 0.1838599033086E+00
 0.1931848605537E+00
 0.2107389705165E+00
 0.2340703939248E+00
 0.2555945506727E+00
 0.4543162144055E+00
 0.4293345718676E+00
 0.4034626216120E+00
 0.3766233084601E+00
 0.3489424634734E+00
 0.3207134876703E+00
 0.2923723005492E+00
 0.2644848761782E+00
 0.2377430332325E+00
 0.2129618145637E+00
 0.1910707297794E+00
 0.1730894045151E+00
 0.1600746642473E+00
 0.1530197489155E+00
 0.1526765871167E+00
 0.1592578829900E+00
 0.1719561343918E+00
 0.1881938578046E+00
 0.2026464878198E+00
 0.2072631510674E+00
 0.4168876657483E+00
 0.3898206145621E+00
 0.3619390902363E+00
 0.3332383482327E+00
 0.3039835266439E+00
 0.2746420985904E+00
 0.2458358496382E+00
 0.2183114743817E+00
 0.1929186681684E+00
 0.1705836954381E+00
 0.1522667654446E+00
 0.1388909248930E+00
 0.1312281528300E+00
 0.1297262312832E+00
 0.1342606865511E+00
 0.1438033160756E+00
 0.1560249171131E+00
 0.1669573242130E+00
 0.1712202423895E+00
 0.1635358688561E+00
 0.3808303403296E+00
 0.3521676753014E+00
 0.3227959173797E+00
 0.2928266049159E+00
 0.2627082416518E+00
 0.2331055053518E+00
 0.2048193383192E+00
 0.1787357078892E+00
 0.1557819182420E+00
 0.1368731440527E+00
 0.1228360487438E+00
 0.1142988980090E+00
 0.1115405503152E+00
 0.1142977809651E+00
 0.1215446612684E+00
 0.1312838484220E+00
 0.1404505707949E+00
 0.1451662396220E+00
 0.1416525744131E+00
 0.1277274895651E+00
 0.3463205551181E+00
 0.3165421815520E+00
 0.2861731791563E+00
 0.2554898433281E+00
 0.2251627392714E+00
 0.1960544095834E+00
 0.1691043744301E+00
 0.1452594398199E+00
 0.1254134945473E+00
 0.1103353278206E+00
 0.1005727426639E+00
 0.9632904147096E-01
 0.9731732545107E-01
 0.1026125940485E+00
 0.1105401405576E+00
 0.1186682703973E+00
 0.1240250277013E+00
 0.1236816346041E+00
 0.1156862476255E+00
 0.9996992990672E-01
 0.3135019677837E+00
 0.2830571674205E+00
 0.2521236314859E+00
 0.2212076337165E+00
 0.1912338100827E+00
 0.1632371329604E+00
 0.1382244582197E+00
 0.1171025395929E+00
 0.1006181642256E+00
 0.8928455476883E-01
 0.8328777817912E-01
 0.8237885429035E-01
 0.8577162201872E-01
 0.9207954110699E-01
 0.9933663165915E-01
 0.1051661170839E+00
 0.1071669705550E+00
 0.1035185745838E+00
 0.9361989882276E-01
 0.7838228383833E-01
 0.2824827606127E+00
 0.2517645275291E+00
 0.2206062574106E+00
 0.1898428371769E+00
 0.1606749936266E+00
 0.1342548678685E+00
 0.1115592157494E+00
 0.9334951120980E-01
 0.8013484027739E-01
 0.7211593029343E-01
 0.6911080364690E-01
 0.7048237786121E-01
 0.7509808630422E-01
 0.8135496049154E-01
 0.8730558432466E-01
 0.9092129104176E-01
 0.9049793807110E-01
 0.8511713727374E-01
 0.7495299436695E-01
 0.6119583071087E-01
 0.2533344879659E+00
 0.2226394777878E+00
 0.1914740357690E+00
 0.1611498469131E+00
 0.1331463878944E+00
 0.1086328557390E+00
 0.8843911679923E-01
 0.7308770224866E-01
 0.6280440520084E-01
 0.5748127707715E-01
 0.5662615411645E-01
 0.5933136219763E-01
 0.6429247211381E-01
 0.6989990720930E-01
 0.7442125575391E-01
 0.7628015694067E-01
 0.7439331695172E-01
 0.6845419874690E-01
 0.5900242038785E-01
 0.4716846827894E-01
 0.2260945907614E+00
 0.1955628388379E+00
 0.1644684713516E+00
 0.1348161399518E+00
 0.1082928023292E+00
 0.8592357973883E-01
 0.6824785046236E-01
 0.5550538057697E-01
 0.4765262939193E-01
 0.4432956084745E-01
 0.4482981044516E-01
 0.4810675884648E-01
 0.5283702319107E-01
 0.5754824435609E-01
 0.6081252749322E-01
 0.6149059901696E-01
 0.5897190376823E-01
 0.5331591101899E-01
 0.4519976421731E-01
 0.3562632914278E-01
 0.2007816290051E+00
 0.1702884358017E+00
 0.1392126968936E+00
 0.1105038207669E+00
 0.8584162038765E-01
 0.6574507483995E-01
 0.5042867928903E-01
 0.3989565726871E-01
 0.3390225358355E-01
 0.3192243582576E-01
 0.3313766130393E-01
 0.3647328399792E-01
 0.4068947012318E-01
 0.4451840319584E-01
 0.4683932113435E-01
 0.4686830329756E-01
 0.4431159043223E-01
 0.3941533322156E-01
 0.3287865605929E-01
 0.2565868229730E-01
 0.1773931688035E+00
 0.1461373612002E+00
 0.1150249664289E+00
 0.8811256385369E-01
 0.6567154744515E-01
 0.4779208720883E-01
 0.3452815859394E-01
 0.2574914867811E-01
 0.2108978350826E-01
 0.1993453730528E-01
 0.2142900392510E-01
 0.2453858879040E-01
 0.2815513595975E-01
 0.3122667545515E-01
 0.3290064920272E-01
 0.3265953976735E-01
 0.3040878490120E-01
 0.2648119451919E-01
 0.2154748798228E-01
 0.1657141008033E-01
 0.1548229028231E+00
 0.1207493936698E+00
 0.9237604595005E-01
 0.6810165982434E-01
 0.4782264891922E-01
 0.3184436285266E-01
 0.2021413963218E-01
 0.1272575871176E-01
 0.8932706625421E-02
 0.8189811948493E-02
 0.9662556790634E-02
 0.1238900214149E-01
 0.1541197447448E-01
 0.1788727196204E-01
 0.1918654955103E-01
 0.1898514574591E-01
 0.1730511826845E-01
 0.1449891367740E-01
 0.1119522431411E-01
 0.8187681914282E-02
</DataArray>
<DataArray type="Float64" Name="OI" NumberOfComponents="1" ComponentName0="OI" format="ascii">
 0.3217937358274E+01
 0.2920343219618E+01
 0.2690873642220E+01
 0.2622082531353E+01
 0.2575990132337E+01
 0.2549603496519E+01
 0.2531688195504E+01
 0.2519008697044E+01
 0.2509332736992E+01
 0.2501554332941E+01
 0.2495039822350E+01
 0.2489473024839E+01
 0.2484730678028E+01
 0.2480824262455E+01
 0.2477865761490E+01
 0.2476051259408E+01
 0.2475656070342E+01
 0.2477040924911E+01
 0.2480667002329E+01
 0.2487131905095E+01
 0.2497232756085E+01
 0.2512113204791E+01
 0.2533617016607E+01
 0.2564406298688E+01
 0.2605074923257E+01
 0.2652883878594E+01
 0.2704750307846E+01
 0.2759158860005E+01
 0.2816495082709E+01
 0.2878596644048E+01
 0.2948045795991E+01
 0.3027453490975E+01
 0.3118668410308E+01
 0.3225390906596E+01
 0.3358476892577E+01
 0.3531777785287E+01
 0.3775065941127E+01
 0.4080094371864E+01
 0.4737360207161E+01
 0.4740942444623E+01
 0.9265779798030E+01
 0.2763442583712E+01
 0.2878177759650E+01
 0.2705630559208E+01
 0.2609304345722E+01
 0.2559159543516E+01
 0.2525797873356E+01
 0.2503616108066E+01
 0.2487594171755E+01
 0.2475472866647E+01
 0.2465855244007E+01
 0.2457965011437E+01
 0.2451368638478E+01
 0.2445859357570E+01
 0.2441383769512E+01
 0.2438002349403E+01
 0.2435868154048E+01
 0.2435218570204E+01
 0.2436377447766E+01
 0.2439768102021E+01
 0.2445940612514E+01
 0.2455623803955E+01
 0.2469814041757E+01
 0.2489709346630E+01
 0.2516243320932E+01
 0.2549374533571E+01
 0.2587911037225E+01
 0.2630277947613E+01
 0.2675474705456E+01
 0.2723477017279E+01
 0.2775097897951E+01
 0.2831566724621E+01
 0.2894202081263E+01
 0.2964665275847E+01
 0.3045859460266E+01
 0.3141771095298E+01
 0.3259116050197E+01
 0.3393967672825E+01
 0.3570267310555E+01
 0.3652561734732E+01
 0.3168835770232E+01
 0.6180739892283E+01
 0.2506152220438E+01
 0.2718000187789E+01
 0.2672938415745E+01
 0.2585365840979E+01
 0.2533196302697E+01
 0.2497805756982E+01
 0.2472827491080E+01
 0.2454537305827E+01
 0.2440522330077E+01
 0.2429398840645E+01
 0.2420315514512E+01
 0.2412779873492E+01
 0.2406529233574E+01
 0.2401462025840E+01
 0.2397595663541E+01
 0.2395043315477E+01
 0.2394002867682E+01
 0.2394755598340E+01
 0.2397673563792E+01
 0.2403235778142E+01
 0.2412053923008E+01
 0.2424847647863E+01
 0.2442186823479E+01
 0.2464198631737E+01
 0.2490640692672E+01
 0.2521007604647E+01
 0.2554568677289E+01
 0.2590657546186E+01
 0.2628956035700E+01
 0.2669504720139E+01
 0.2712522752971E+01
 0.2758381835880E+01
 0.2807840465010E+01
 0.2861507302287E+01
 0.2918971333513E+01
 0.2975806966125E+01
 0.3021302251345E+01
 0.3027649572291E+01
 0.2773713463365E+01
 0.2552574459160E+01
 0.5157483371550E+01
 0.2335307633265E+01
 0.2560466327589E+01
 0.2597815861261E+01
 0.2546266861343E+01
 0.2499067317011E+01
 0.2464773927105E+01
 0.2439063106959E+01
 0.2419536889035E+01
 0.2404276447473E+01
 0.2392022412157E+01
 0.2381967613683E+01
 0.2373611067619E+01
 0.2366667120098E+01
 0.2361003983422E+01
 0.2356606026227E+01
 0.2353550745102E+01
 0.2351996238466E+01
 0.2352176355132E+01
 0.2354401088122E+01
 0.2359059036245E+01
 0.2366605026446E+01
 0.2377453408036E+01
 0.2391723999490E+01
 0.2409159143777E+01
 0.2429455347827E+01
 0.2452418317460E+01
 0.2477738117516E+01
 0.2504922758262E+01
 0.2533426670640E+01
 0.2562718799267E+01
 0.2592267610282E+01
 0.2621609988416E+01
 0.2650260599033E+01
 0.2676701233274E+01
 0.2696445854404E+01
 0.2699341910502E+01
 0.2667161682643E+01
 0.2540647912499E+01
 0.2241714338846E+01
 0.2400943297813E+01
 0.4623895454737E+01
 0.2209458707997E+01
 0.2423288153618E+01
 0.2505687342665E+01
 0.2491657488209E+01
 0.2457169454773E+01
 0.2426717469485E+01
 0.2402111520321E+01
 0.2382434885773E+01
 0.2366582752012E+01
 0.2353604326457E+01
 0.2342822583262E+01
 0.2333784740897E+01
 0.2326213469689E+01
 0.2319965909853E+01
 0.2315004090711E+01
 0.2311375008854E+01
 0.2309197782133E+01
 0.2308655561951E+01
 0.2309988632379E+01
 0.2313481412506E+01
 0.2319416190238E+01
 0.2327938042604E+01
 0.2338871868476E+01
 0.2351775309978E+01
 0.2366324592782E+01
 0.2382448663079E+01
 0.2400013814580E+01
 0.2418585933780E+01
 0.2437436570536E+01
 0.2455619794857E+01
 0.2472038222847E+01
 0.2485478341099E+01
 0.2494308637820E+01
 0.2495249418588E+01
 0.2481299310332E+01
 0.2440064698807E+01
 0.2348896756432E+01
 0.2167656880930E+01
 0.1965312113759E+01
 0.2409398083181E+01
 0.4264039822223E+01
 0.2109709904973E+01
 0.2305717586229E+01
 0.2410289308241E+01
 0.2426509887257E+01
 0.2408012410807E+01
 0.2383980819947E+01
 0.2361974822115E+01
 0.2343161579287E+01
 0.2327355592985E+01
 0.2314060966454E+01
 0.2302808417330E+01
 0.2293241958095E+01
 0.2285122868203E+01
 0.2278315634077E+01
 0.2272770943082E+01
 0.2268511084820E+01
 0.2265618088730E+01
 0.2264223047110E+01
 0.2264492327293E+01
 0.2266600484134E+01
 0.2270664063936E+01
 0.2276614320002E+01
 0.2284090607137E+01
 0.2292562293042E+01
 0.2301691852890E+01
 0.2311432711231E+01
 0.2321692572249E+01
 0.2332024623978E+01
 0.2341554767329E+01
 0.2349044960860E+01
 0.2352978125160E+01
 0.2351541543530E+01
 0.2342234462782E+01
 0.2320684017505E+01
 0.2279087734067E+01
 0.2205261186412E+01
 0.2081936347757E+01
 0.1908749779251E+01
 0.1843649891715E+01
 0.2449386619418E+01
 0.3988181008619E+01
 0.2026304645838E+01
 0.2204006440227E+01
 0.2317663145798E+01
 0.2355741551075E+01
 0.2353033632413E+01
 0.2337034894803E+01
 0.2318834110734E+01
 0.2301739240559E+01
 0.2286567608945E+01
 0.2273347443072E+01
 0.2261879044604E+01
 0.2251942475066E+01
 0.2243364033026E+01
 0.2236032533602E+01
 0.2229897941981E+01
 0.2224963999565E+01
 0.2221278555775E+01
 0.2218921244386E+01
 0.2217984024046E+01
 0.2218534243018E+01
 0.2220542596415E+01
 0.2223780321298E+01
 0.2227773257951E+01
 0.2231949100008E+01
 0.2235953283898E+01
 0.2239713041451E+01
 0.2243108741144E+01
 0.2245647267080E+01
 0.2246346047593E+01
 0.2243775822423E+01
 0.2236138441276E+01
 0.2221223409448E+01
 0.2196038312339E+01
 0.2155911929044E+01
 0.2093644928047E+01
 0.2000065484507E+01
 0.1870319251642E+01
 0.1741023953001E+01
 0.1805235017640E+01
 0.2479328478230E+01
 0.3762844017919E+01
 0.1953747581632E+01
 0.2114588948870E+01
 0.2230049791474E+01
 0.2282867505887E+01
 0.2293984417254E+01
 0.2286543823569E+01
 0.2272975179232E+01
 0.2258274655848E+01
 0.2244243300050E+01
 0.2231454733314E+01
 0.2220013294202E+01
 0.2209864117592E+01
 0.2200919496952E+01
 0.2193107233843E+01
 0.2186386338646E+01
 0.2180748246183E+01
 0.2176210421227E+01
 0.2172803517516E+01
 0.2170548219047E+01
 0.2169413705678E+01
 0.2169249862857E+01
 0.2169713049251E+01
 0.2170261922323E+01
 0.2170305298677E+01
 0.2169467916024E+01
 0.2167628295135E+01
 0.2164610748424E+01
 0.2159868710923E+01
 0.2152350888249E+01
 0.2140526718715E+01
 0.2122456301859E+01
 0.2095758535850E+01
 0.2057364808972E+01
 0.2003033708169E+01
 0.1927351827456E+01
 0.1826391998393E+01
 0.1709511008632E+01
 0.1638827666840E+01
 0.1805962734944E+01
 0.2490396652909E+01
 0.3572077090128E+01
 0.1888732888585E+01
 0.2034633864700E+01
 0.2147952458241E+01
 0.2210088766589E+01
 0.2232465243084E+01
 0.2233282402808E+01
 0.2224760385182E+01
 0.2212936395976E+01
 0.2200452444077E+01
 0.2188405510682E+01
 0.2177213000362E+01
 0.2167001738496E+01
 0.2157784957471E+01
 0.2149541092615E+01
 0.2142246721152E+01
 0.2135887039633E+01
 0.2130453624406E+01
 0.2125932301732E+01
 0.2122278630599E+01
 0.2119376520220E+01
 0.2116980419396E+01
 0.2114667385424E+01
 0.2111858758421E+01
 0.2107956377295E+01
 0.2102563548756E+01
 0.2095504819297E+01
 0.2086543993427E+01
 0.2075091508776E+01
 0.2060070105129E+01
 0.2039932190539E+01
 0.2012733742956E+01
 0.1976153224589E+01
 0.1927433619860E+01
 0.1863358537929E+01
 0.1781176161673E+01
 0.1683190684862E+01
 0.1591150114021E+01
 0.1580629634637E+01
 0.1821197833783E+01
 0.2484148909487E+01
 0.3406750161878E+01
 0.1829164522670E+01
 0.1962002524902E+01
 0.2071130695781E+01
 0.2138662969726E+01
 0.2169749145547E+01
 0.2178023077330E+01
 0.2174596944485E+01
 0.2165935483627E+01
 0.2155300489069E+01
 0.2144249561891E+01
 0.2133500412285E+01
 0.2123365782594E+01
 0.2113968345918E+01
 0.2105345477566E+01
 0.2097498295573E+01
 0.2090411428197E+01
 0.2084055542319E+01
 0.2078377129791E+01
 0.2073274899244E+01
 0.2068562104706E+01
 0.2063921082722E+01
 0.2058876922895E+01
 0.2052833403889E+01
 0.2045192794339E+01
 0.2035539863767E+01
 0.2023650641071E+01
 0.2009238428160E+01
 0.1991692012229E+01
 0.1969952892464E+01
 0.1942535864445E+01
 0.1907622836514E+01
 0.1863162512829E+01
 0.1807030053680E+01
 0.1737463204670E+01
 0.1654830200450E+01
 0.1567480170510E+01
 0.1506195975096E+01
 0.1550254692770E+01
 0.1838425242071E+01
 0.2464521167969E+01
 0.3260950615347E+01
 0.1773654534531E+01
 0.1895099261476E+01
 0.1999065301139E+01
 0.2069235739229E+01
 0.2106767759797E+01
 0.2121458954609E+01
 0.2122901245854E+01
 0.2117508112613E+01
 0.2108918586549E+01
 0.2099058563213E+01
 0.2088915254832E+01
 0.2078980529797E+01
 0.2069488678589E+01
 0.2060540877574E+01
 0.2052168039831E+01
 0.2044359307328E+01
 0.2037069663721E+01
 0.2030212682343E+01
 0.2023639712675E+01
 0.2017108183797E+01
 0.2010248708510E+01
 0.2002555318867E+01
 0.1993427980121E+01
 0.1982275385410E+01
 0.1968669905427E+01
 0.1952351013792E+01
 0.1932999681302E+01
 0.1910010347678E+01
 0.1882388016101E+01
 0.1848782836438E+01
 0.1807618123189E+01
 0.1757287444742E+01
 0.1696532250522E+01
 0.1625288386375E+01
 0.1547085641865E+01
 0.1475380252697E+01
 0.1446432747072E+01
 0.1536323098176E+01
 0.1851960675673E+01
 0.2435283218141E+01
 0.3130551010014E+01
 0.1721249634984E+01
 0.1832731200553E+01
 0.1931169824104E+01
 0.2002077385094E+01
 0.2044162042611E+01
 0.2064168837010E+01
 0.2070069074811E+01
 0.2067899664697E+01
 0.2061454249302E+01
 0.2052920652856E+01
 0.2043511562191E+01
 0.2033882129305E+01
 0.2024374732059E+01
 0.2015155877465E+01
 0.2006289751792E+01
 0.1997774361609E+01
 0.1989554244060E+01
 0.1981516958944E+01
 0.1973476431352E+01
 0.1965148388831E+01
 0.1956129076242E+01
 0.1945897621518E+01
 0.1933860446910E+01
 0.1919438602105E+01
 0.1902200660103E+01
 0.1881865141366E+01
 0.1858102872768E+01
 0.1830343537768E+01
 0.1797698138778E+01
 0.1759016147674E+01
 0.1713057208060E+01
 0.1658789082923E+01
 0.1595960959989E+01
 0.1526271669098E+01
 0.1456132528360E+01
 0.1402838496501E+01
 0.1404999068834E+01
 0.1531224004301E+01
 0.1859692207323E+01
 0.2399417963631E+01
 0.3012533882960E+01
 0.1671274331906E+01
 0.1773999344857E+01
 0.1866881777640E+01
 0.1937238140763E+01
 0.1982347978528E+01
 0.2006611371350E+01
 0.2016456218049E+01
 0.2017351155903E+01
 0.2013062955288E+01
 0.2005935214173E+01
 0.1997354455575E+01
 0.1988116532385E+01
 0.1978663614321E+01
 0.1969226047456E+01
 0.1959903038604E+01
 0.1950704985341E+01
 0.1941571007455E+01
 0.1932369651157E+01
 0.1922887211494E+01
 0.1912810639838E+01
 0.1901716397490E+01
 0.1889081424392E+01
 0.1874326884380E+01
 0.1856892506447E+01
 0.1836353257682E+01
 0.1812423928059E+01
 0.1784788593187E+01
 0.1752941326419E+01
 0.1716137212638E+01
 0.1673477552583E+01
 0.1624128920524E+01
 0.1567714371206E+01
 0.1505044009665E+01
 0.1439496266060E+01
 0.1379889217895E+01
 0.1346046676960E+01
 0.1376448398634E+01
 0.1530087453227E+01
 0.1861254543138E+01
 0.2359120271493E+01
 0.2904623892092E+01
 0.1623236952665E+01
 0.1718218863693E+01
 0.1805697285655E+01
 0.1874645650047E+01
 0.1921576881688E+01
 0.1949134994657E+01
 0.1962368966204E+01
 0.1966089108222E+01
 0.1963900991166E+01
 0.1958208119676E+01
 0.1950517027982E+01
 0.1941737413165E+01
 0.1932399291239E+01
 0.1922792788896E+01
 0.1913052282115E+01
 0.1903203217333E+01
 0.1893183936548E+01
 0.1882850744786E+01
 0.1871971560553E+01
 0.1860216078297E+01
 0.1847153169459E+01
 0.1832267829200E+01
 0.1815003089769E+01
 0.1794824075581E+01
 0.1771323107496E+01
 0.1744228637169E+01
 0.1713260654954E+01
 0.1678004319374E+01
 0.1637890697964E+01
 0.1592312235626E+01
 0.1540887401946E+01
 0.1483929471752E+01
 0.1423287268362E+01
 0.1363831005747E+01
 0.1316227541087E+01
 0.1301636913196E+01
 0.1356609240625E+01
 0.1529928352295E+01
 0.1857065256796E+01
 0.2315956496943E+01
 0.2805064591171E+01
 0.1576771189699E+01
 0.1664861918017E+01
 0.1747179741527E+01
 0.1814164476826E+01
 0.1861984078424E+01
 0.1891994477379E+01
 0.1908062001834E+01
 0.1914319025112E+01
 0.1914119763239E+01
 0.1909847587749E+01
 0.1903077455461E+01
 0.1894804150256E+01
 0.1885631113428E+01
 0.1875902166338E+01
 0.1865785602617E+01
 0.1855323709497E+01
 0.1844458165303E+01
 0.1833039338875E+01
 0.1820825236841E+01
 0.1807478371458E+01
 0.1792570208921E+01
 0.1775602236356E+01
 0.1756045739885E+01
 0.1733398143008E+01
 0.1707280133662E+01
 0.1677450341454E+01
 0.1643685288919E+01
 0.1605684060230E+01
 0.1563078209327E+01
 0.1515576722423E+01
 0.1463270176174E+01
 0.1407156604381E+01
 0.1350043916699E+01
 0.1298045982670E+01
 0.1263115908048E+01
 0.1266745134049E+01
 0.1342374733402E+01
 0.1529003154000E+01
 0.1847838238384E+01
 0.2271035311174E+01
 0.2712473072778E+01
 0.1531598527008E+01
 0.1613516806037E+01
 0.1690957148194E+01
 0.1755631547618E+01
 0.1803625723275E+01
 0.1835368767228E+01
 0.1853740974706E+01
 0.1862222027573E+01
 0.1863861649713E+01
 0.1860960751672E+01
 0.1855116427167E+01
 0.1847379940750E+01
 0.1838412396327E+01
 0.1828603767621E+01
 0.1818153856570E+01
 0.1807122761041E+01
 0.1795458997833E+01
 0.1783012676680E+01
 0.1769539435518E+01
 0.1754703288305E+01
 0.1738086803465E+01
 0.1719215029583E+01
 0.1697593321180E+01
 0.1672758210277E+01
 0.1644369233560E+01
 0.1612230099935E+01
 0.1576191562432E+01
 0.1536084730619E+01
 0.1491758153585E+01
 0.1443249120541E+01
 0.1391118380795E+01
 0.1337010946811E+01
 0.1284575903167E+01
 0.1240898734870E+01
 0.1218698742401E+01
 0.1239002599474E+01
 0.1331484057216E+01
 0.1526356388746E+01
 0.1834347853511E+01
 0.2225150486998E+01
 0.2625741041844E+01
 0.1487503376826E+01
 0.1563858655838E+01
 0.1636715114059E+01
 0.1698876659465E+01
 0.1746505566111E+01
 0.1779377489898E+01
 0.1799567588375E+01
 0.1809953914408E+01
 0.1813257283806E+01
 0.1811650961891E+01
 0.1806714934336E+01
 0.1799530081813E+01
 0.1790799077158E+01
 0.1780949605895E+01
 0.1770209674901E+01
 0.1758657417421E+01
 0.1746251038829E+01
 0.1732845347005E+01
 0.1718200181899E+01
 0.1701988449112E+01
 0.1683810917610E+01
 0.1663222176031E+01
 0.1639766922743E+01
 0.1613027227466E+01
 0.1582710971587E+01
 0.1548679733038E+01
 0.1510872755733E+01
 0.1469266096198E+01
 0.1423933798451E+01
 0.1375240719116E+01
 0.1324197451509E+01
 0.1273034814039E+01
 0.1226104213831E+01
 0.1191192804641E+01
 0.1181332168903E+01
 0.1216491990048E+01
 0.1322325825678E+01
 0.1521513710945E+01
 0.1817316842506E+01
 0.2178893019406E+01
 0.2543965249098E+01
 0.1444316196807E+01
 0.1515628236807E+01
 0.1584188742749E+01
 0.1643733863235E+01
 0.1690593902250E+01
 0.1724095050814E+01
 0.1745665700054E+01
 0.1757645899010E+01
 0.1762424056460E+01
 0.1762015797583E+01
 0.1757952442497E+01
 0.1751320453812E+01
 0.1742848480311E+01
 0.1732993090197E+01
 0.1722006563458E+01
 0.1709984649052E+01
 0.1696897438702E+01
 0.1682608638821E+01
 0.1666887893211E+01
 0.1649423206787E+01
 0.1629839445245E+01
 0.1607725790724E+01
 0.1582670983613E+01
 0.1554308427392E+01
 0.1522402528821E+01
 0.1486883113939E+01
 0.1447788503640E+01
 0.1405247386332E+01
 0.1359560273148E+01
 0.1311408115133E+01
 0.1262216931384E+01
 0.1214727359845E+01
 0.1173847202498E+01
 0.1147813783118E+01
 0.1149592318324E+01
 0.1197688154661E+01
 0.1313776676629E+01
 0.1514281366964E+01
 0.1797355241561E+01
 0.2132739739637E+01
 0.2466390759553E+01
 0.1401901762587E+01
 0.1468616487455E+01
 0.1533154840857E+01
 0.1590047354483E+01
 0.1635840718523E+01
 0.1669562130072E+01
 0.1692127507998E+01
 0.1705406387279E+01
 0.1711465584525E+01
 0.1712145723772E+01
 0.1708905450211E+01
 0.1702816228700E+01
 0.1694618219076E+01
 0.1684788091046E+01
 0.1673598088610E+01
 0.1661160626873E+01
 0.1647459260223E+01
 0.1632370041358E+01
 0.1615677089011E+01
 0.1597088644120E+01
 0.1576258519536E+01
 0.1552814714021E+01
 0.1526394065568E+01
 0.1496686272492E+01
 0.1463518916240E+01
 0.1426897903596E+01
 0.1386967535362E+01
 0.1344011826864E+01
 0.1298552056301E+01
 0.1251565179711E+01
 0.1204848472281E+01
 0.1161568992779E+01
 0.1127047949428E+01
 0.1109748612580E+01
 0.1122267521157E+01
 0.1181396188541E+01
 0.1305070853477E+01
 0.1504639454531E+01
 0.1774888217051E+01
 0.2087136818788E+01
 0.2392362400679E+01
 0.1360150865568E+01
 0.1422653067064E+01
 0.1483425003041E+01
 0.1537674105952E+01
 0.1582184643905E+01
 0.1615794755520E+01
 0.1639019302992E+01
 0.1653323299543E+01
 0.1660471879195E+01
 0.1662123289568E+01
 0.1659646401645E+01
 0.1654080797223E+01
 0.1646165234742E+01
 0.1636388101839E+01
 0.1625037144789E+01
 0.1612240084601E+01
 0.1597994946168E+01
 0.1582192856832E+01
 0.1564636208956E+01
 0.1545057649274E+01
 0.1523143860075E+01
 0.1498565102318E+01
 0.1471009658109E+01
 0.1440227502307E+01
 0.1406114392932E+01
 0.1368757602079E+01
 0.1328410800347E+01
 0.1285511510895E+01
 0.1240790503574E+01
 0.1195494273940E+01
 0.1151741399812E+01
 0.1113040409677E+01
 0.1084992298849E+01
 0.1076093448579E+01
 0.1098340960953E+01
 0.1166695249658E+01
 0.1295693978579E+01
 0.1492691706850E+01
 0.1750165323361E+01
 0.2042330669788E+01
 0.2321327488317E+01
 0.1318974781003E+01
 0.1377602737395E+01
 0.1434848489591E+01
 0.1486497798828E+01
 0.1529576635749E+01
 0.1562813417939E+01
 0.1586412830483E+01
 0.1601496792497E+01
 0.1609553890496E+01
 0.1612060236738E+01
 0.1610283919715E+01
 0.1605219473860E+01
 0.1597593199458E+01
 0.1587897524197E+01
 0.1576431311111E+01
 0.1563335962354E+01
 0.1548624500944E+01
 0.1532205201286E+01
 0.1513901721947E+01
 0.1493474391226E+01
 0.1470645799564E+01
 0.1445131095268E+01
 0.1416672482887E+01
 0.1385082986562E+01
 0.1350329686816E+01
 0.1312583829625E+01
 0.1272208322871E+01
 0.1229788072835E+01
 0.1186247155143E+01
 0.1143070245828E+01
 0.1102644092971E+01
 0.1068735693306E+01
 0.1047104909143E+01
 0.1046120744886E+01
 0.1077018407245E+01
 0.1152912766809E+01
 0.1285357908367E+01
 0.1478564052441E+01
 0.1723806134988E+01
 0.1996930769963E+01
 0.2259549458285E+01
 0.1278300588263E+01
 0.1333349657315E+01
 0.1387290076077E+01
 0.1436402308417E+01
 0.1477948461483E+01
 0.1510604025186E+01
 0.1534336896130E+01
 0.1549981259165E+01
 0.1558776612580E+01
 0.1562022561568E+01
 0.1560880386040E+01
 0.1556289797475E+01
 0.1548955459765E+01
 0.1539366989030E+01
 0.1527830164996E+01
 0.1514498252415E+01
 0.1499399362846E+01
 0.1482460374692E+01
 0.1463528462035E+01
 0.1442394109797E+01
 0.1418818076116E+01
 0.1392562287149E+01
 0.1363424544894E+01
 0.1331282586245E+01
 0.1296176323283E+01
 0.1258361333557E+01
 0.1218306843868E+01
 0.1176735914705E+01
 0.1134746724472E+01
 0.1094028688138E+01
 0.1057184116238E+01
 0.1028161403195E+01
 0.1012773745121E+01
 0.1019134225225E+01
 0.1057610764045E+01
 0.1139535040691E+01
 0.1273883048493E+01
 0.1462486518732E+01
 0.1695876248801E+01
 0.1951996049560E+01
 0.2200222339866E+01
 0.1238065286903E+01
 0.1289791273743E+01
 0.1340624282280E+01
 0.1387269531431E+01
 0.1427214120964E+01
 0.1459121081764E+01
 0.1482780348503E+01
 0.1498787166847E+01
 0.1508159738144E+01
 0.1512030355148E+01
 0.1511451369301E+01
 0.1507300841915E+01
 0.1500254412174E+01
 0.1490792907508E+01
 0.1479225085257E+01
 0.1465714125443E+01
 0.1450302935233E+01
 0.1432937896816E+01
 0.1413491283227E+01
 0.1391785508225E+01
 0.1367621081937E+01
 0.1340807956185E+01
 0.1311200493971E+01
 0.1278741844490E+01
 0.1243544895377E+01
 0.1205948134326E+01
 0.1166522148836E+01
 0.1126116948976E+01
 0.1085984238758E+01
 0.1047984865244E+01
 0.1014887201690E+01
 0.9907521075837E+00
 0.9813567141852E+00
 0.9944584672518E+00
 0.1039499729653E+01
 0.1126132694646E+01
 0.1261148480462E+01
 0.1444562101339E+01
 0.1666622431002E+01
 0.1907381166337E+01
 0.2141431744060E+01
 0.1198216909157E+01
 0.1246845697276E+01
 0.1294751827287E+01
 0.1339006932928E+01
 0.1377308990744E+01
 0.1408336825733E+01
 0.1431749204623E+01
 0.1447944773081E+01
 0.1457747394648E+01
 0.1462133554457E+01
 0.1462047655644E+01
 0.1458301890355E+01
 0.1451537226146E+01
 0.1442220679973E+01
 0.1430660424456E+01
 0.1417027590806E+01
 0.1401379306109E+01
 0.1383681891692E+01
 0.1363833723310E+01
 0.1341690282563E+01
 0.1317092772938E+01
 0.1289899756619E+01
 0.1260022346799E+01
 0.1227468778701E+01
 0.1192423685944E+01
 0.1155305345149E+01
 0.1116778886135E+01
 0.1077808378861E+01
 0.1039777512554E+01
 0.1004685866742E+01
 0.9754217680094E+00
 0.9560974165415E+00
 0.9523791363675E+00
 0.9715951016066E+00
 0.1022242235302E+01
 0.1112429661584E+01
 0.1247118002820E+01
 0.1424974771426E+01
 0.1636268093086E+01
 0.1863082626815E+01
 0.2083882319119E+01
 0.1158711337054E+01
 0.1204443216742E+01
 0.1249587081947E+01
 0.1291532042924E+01
 0.1328171746431E+01
 0.1358220144681E+01
 0.1381241849762E+01
 0.1397475202534E+01
 0.1407575074727E+01
 0.1412374909121E+01
 0.1412714444695E+01
 0.1409337960620E+01
 0.1402847684943E+01
 0.1393692742318E+01
 0.1382177580132E+01
 0.1368479361994E+01
 0.1352668641003E+01
 0.1334731714576E+01
 0.1314593553269E+01
 0.1292143277129E+01
 0.1267263133221E+01
 0.1239860250864E+01
 0.1209901944168E+01
 0.1177460259626E+01
 0.1142789140879E+01
 0.1106382128159E+01
 0.1068990671865E+01
 0.1031678971861E+01
 0.9959410310733E+00
 0.9638839921712E+00
 0.9384741724598E+00
 0.9238219676933E+00
 0.9254220471909E+00
 0.9501225929602E+00
 0.1005485999713E+01
 0.1098229683406E+01
 0.1231802120967E+01
 0.1403894516068E+01
 0.1605011176533E+01
 0.1819127135574E+01
 0.2027589751564E+01
 0.1119510766958E+01
 0.1162524069228E+01
 0.1205055756968E+01
 0.1244771288367E+01
 0.1279744737037E+01
 0.1308738065937E+01
 0.1331250867622E+01
 0.1347392005798E+01
 0.1357670662904E+01
 0.1362790486711E+01
 0.1363491466987E+01
 0.1360449683949E+01
 0.1354225944734E+01
 0.1345248287871E+01
 0.1333814734629E+01
 0.1320106653749E+01
 0.1304207068973E+01
 0.1286121954124E+01
 0.1265802918945E+01
 0.1243172785033E+01
 0.1218154653548E+01
 0.1190703592960E+01
 0.1160841883858E+01
 0.1128703260092E+01
 0.1094607516725E+01
 0.1059117825842E+01
 0.1023062763739E+01
 0.9875922552449E+00
 0.9542894752885E+00
 0.9253401210043E+00
 0.9037510424770E+00
 0.8935854840049E+00
 0.9001184045580E+00
 0.9296871637796E+00
 0.9889533141266E+00
 0.1083398688893E+01
 0.1215238146743E+01
 0.1381478814113E+01
 0.1573008925402E+01
 0.1775480516963E+01
 0.1972473355352E+01
 0.1080582522828E+01
 0.1121036634934E+01
 0.1161093030575E+01
 0.1198658899900E+01
 0.1231974089254E+01
 0.1259856817485E+01
 0.1281764495755E+01
 0.1297702506172E+01
 0.1308055411793E+01
 0.1313410236920E+01
 0.1314413215316E+01
 0.1311673316658E+01
 0.1305708427965E+01
 0.1296923119089E+01
 0.1285606719907E+01
 0.1271943100314E+01
 0.1256026686207E+01
 0.1237882547964E+01
 0.1217488590893E+01
 0.1194800951519E+01
 0.1169782908006E+01
 0.1142436305656E+01
 0.1112836538778E+01
 0.1081176169092E+01
 0.1047836552011E+01
 0.1013444039893E+01
 0.9788945564881E+00
 0.9454093453984E+00
 0.9146406367831E+00
 0.8888262158920E+00
 0.8709805895593E+00
 0.8650818833499E+00
 0.8761488757248E+00
 0.9099939943665E+00
 0.9724276623938E+00
 0.1067849278694E+01
 0.1197479101630E+01
 0.1357868597529E+01
 0.1540371704210E+01
 0.1732097150164E+01
 0.1918434322311E+01
 0.1041898120357E+01
 0.1079935986450E+01
 0.1117642002094E+01
 0.1153135912462E+01
 0.1184809625398E+01
 0.1211542551244E+01
 0.1232767751451E+01
 0.1248408922623E+01
 0.1258744816651E+01
 0.1264258545620E+01
 0.1265509217002E+01
 0.1263040812775E+01
 0.1257327780211E+01
 0.1248749557571E+01
 0.1237584933159E+01
 0.1224018716501E+01
 0.1208155594023E+01
 0.1190038923388E+01
 0.1169672229201E+01
 0.1147044181757E+01
 0.1122157124580E+01
 0.1095058039546E+01
 0.1065873040001E+01
 0.1034850041813E+01
 0.1002427025350E+01
 0.9692865179124E+00
 0.9363817674053E+00
 0.9049913081249E+00
 0.8768176782226E+00
 0.8541270126212E+00
 0.8399130647920E+00
 0.8380377128110E+00
 0.8532373865632E+00
 0.8907991238449E+00
 0.9557422756047E+00
 0.1051528656215E+01
 0.1178586207228E+01
 0.1333184852741E+01
 0.1507178163288E+01
 0.1688936270639E+01
 0.1865371970871E+01
 0.1003432517007E+01
 0.1039182713530E+01
 0.1074652401568E+01
 0.1108149256180E+01
 0.1138204655690E+01
 0.1163761802695E+01
 0.1184243275974E+01
 0.1199509276885E+01
 0.1209749365141E+01
 0.1215354739861E+01
 0.1216804303727E+01
 0.1214579915325E+01
 0.1209112850201E+01
 0.1200756373181E+01
 0.1189777263707E+01
 0.1176359860591E+01
 0.1160617928197E+01
 0.1142612117798E+01
 0.1122370615512E+01
 0.1099913502588E+01
 0.1075280695541E+01
 0.1048562255364E+01
 0.1019932160115E+01
 0.9896897152939E+00
 0.9583241260787E+00
 0.9265667746497E+00
 0.8954182495639E+00
 0.8662010146842E+00
 0.8406507545829E+00
 0.8210409816620E+00
 0.8103205153571E+00
 0.8122100923222E+00
 0.8311466204553E+00
 0.8719020709165E+00
 0.9387704637949E+00
 0.1034409433528E+01
 0.1158623376327E+01
 0.1307530281653E+01
 0.1473487753431E+01
 0.1645964424004E+01
 0.1813189259862E+01
 0.9651635075084E+00
 0.9987419732590E+00
 0.1032079524457E+01
 0.1063650961330E+01
 0.1092115727229E+01
 0.1116481796178E+01
 0.1136172001404E+01
 0.1150998169915E+01
 0.1161075231383E+01
 0.1166713606754E+01
 0.1168318944795E+01
 0.1166314340028E+01
 0.1161088776434E+01
 0.1152968825253E+01
 0.1142208133056E+01
 0.1128989309288E+01
 0.1113433997905E+01
 0.1095619005224E+01
 0.1075595986627E+01
 0.1053415020415E+01
 0.1029151776966E+01
 0.1002936984880E+01
 0.9749892574724E+00
 0.9456549553107E+00
 0.9154688092499E+00
 0.8852036294129E+00
 0.8558976310354E+00
 0.8289047197290E+00
 0.8059782617352E+00
 0.7893808749444E+00
 0.7819961882293E+00
 0.7873845096699E+00
 0.8096737564837E+00
 0.8531393247398E+00
 0.9214177005995E+00
 0.1016482662281E+01
 0.1137654070747E+01
 0.1280992765228E+01
 0.1439348360331E+01
 0.1603154384381E+01
 0.1761795114632E+01
 0.9270712304436E+00
 0.9585827077241E+00
 0.9898833325114E+00
 0.1019597442896E+01
 0.1046502323846E+01
 0.1069670598775E+01
 0.1088533627671E+01
 0.1102867387404E+01
 0.1112724846455E+01
 0.1118345837801E+01
 0.1120069541989E+01
 0.1118263940950E+01
 0.1113277063246E+01
 0.1105408692310E+01
 0.1094898517594E+01
 0.1081926306620E+01
 0.1066620388091E+01
 0.1049072474405E+01
 0.1029356306644E+01
 0.1007550303412E+01
 0.9837637965340E+00
 0.9581654804555E+00
 0.9310150830823E+00
 0.9027014298817E+00
 0.8737989280249E+00
 0.8451144569695E+00
 0.8177145919101E+00
 0.7929732006819E+00
 0.7726475931525E+00
 0.7589737860881E+00
 0.7547535468097E+00
 0.7633724460600E+00
 0.7886464016638E+00
 0.8343785935561E+00
 0.9036151151996E+00
 0.9977526093426E+00
 0.1115739735462E+01
 0.1253648592745E+01
 0.1404800415727E+01
 0.1560483492711E+01
 0.1711105392318E+01
 0.8891377625546E+00
 0.9186770007471E+00
 0.9480277019735E+00
 0.9759488760674E+00
 0.1001326563988E+01
 0.1023297193255E+01
 0.1041306985527E+01
 0.1055106404027E+01
 0.1064697406852E+01
 0.1070258455806E+01
 0.1072068743928E+01
 0.1070444920499E+01
 0.1065695715214E+01
 0.1058094366227E+01
 0.1047866036829E+01
 0.1035186676346E+01
 0.1020190121266E+01
 0.1002981660636E+01
 0.9836555858254E+00
 0.9623168018434E+00
 0.9391059883833E+00
 0.9142268764821E+00
 0.8879765774849E+00
 0.8607816413375E+00
 0.8332502815856E+00
 0.8062162994644E+00
 0.7807659409064E+00
 0.7582826403021E+00
 0.7405156097183E+00
 0.7296609473210E+00
 0.7284251248159E+00
 0.7400090310405E+00
 0.7679188628343E+00
 0.8155138471127E+00
 0.8853142463092E+00
 0.9782329698195E+00
 0.1092939182631E+01
 0.1225565030144E+01
 0.1369879160147E+01
 0.1517932465609E+01
 0.1661043321125E+01
 0.8513467832806E+00
 0.8789995436589E+00
 0.9064797891731E+00
 0.9326686474418E+00
 0.9565529012192E+00
 0.9773314864128E+00
 0.9944703004002E+00
 0.1007702790361E+01
 0.1016989311192E+01
 0.1022455203184E+01
 0.1024325751122E+01
 0.1022870050730E+01
 0.1018359394490E+01
 0.1011040973939E+01
 0.1001125068897E+01
 0.9887829581634E+00
 0.9741528374203E+00
 0.9573521884208E+00
 0.9384942015044E+00
 0.9177082600050E+00
 0.8951639067545E+00
 0.8710968128962E+00
 0.8458376071709E+00
 0.8198457677097E+00
 0.7937575336714E+00
 0.7684268034327E+00
 0.7449514706046E+00
 0.7247152524758E+00
 0.7094488467254E+00
 0.7012973071293E+00
 0.7028612683201E+00
 0.7171507666148E+00
 0.7473687634436E+00
 0.7964610751311E+00
 0.8664828448320E+00
 0.9579441426234E+00
 0.1069308439669E+01
 0.1196802213690E+01
 0.1334615947854E+01
 0.1475484672495E+01
 0.1611539602182E+01
 0.8136832937780E+00
 0.8395271854980E+00
 0.8652094874811E+00
 0.8897228661491E+00
 0.9121478265852E+00
 0.9317442622886E+00
 0.9480013671209E+00
 0.9606425252168E+00
 0.9695945175815E+00
 0.9749368747322E+00
 0.9768465881288E+00
 0.9755488782365E+00
 0.9712795710693E+00
 0.9642604952107E+00
 0.9546868606642E+00
 0.9427245337822E+00
 0.9285149568034E+00
 0.9121863882198E+00
 0.8938691827445E+00
 0.8737150798209E+00
 0.8519198767884E+00
 0.8287479777680E+00
 0.8045595970183E+00
 0.7798423710651E+00
 0.7552549632088E+00
 0.7316649509602E+00
 0.7101745722886E+00
 0.6921596477449E+00
 0.6793234704127E+00
 0.6737509110981E+00
 0.6779287868208E+00
 0.6946733254823E+00
 0.7268939731885E+00
 0.7771546537203E+00
 0.8471015008893E+00
 0.9369112329013E+00
 0.1044900763868E+01
 0.1167414478602E+01
 0.1299039022715E+01
 0.1433125679786E+01
 0.1562532200269E+01
 0.7761333814591E+00
 0.8002385571401E+00
 0.8241889696617E+00
 0.8470799424710E+00
 0.8680795986397E+00
 0.8865071214774E+00
 0.9018776851923E+00
 0.9139102650082E+00
 0.9225048719701E+00
 0.9277016438343E+00
 0.9296343920453E+00
 0.9284879640642E+00
 0.9244647209809E+00
 0.9177619358750E+00
 0.9085596965483E+00
 0.8970178118066E+00
 0.8832798992069E+00
 0.8674835655114E+00
 0.8497745413831E+00
 0.8303247229187E+00
 0.8093534732609E+00
 0.7871506636736E+00
 0.7641021576762E+00
 0.7407190767395E+00
 0.7176771574032E+00
 0.6958517036218E+00
 0.6763427390179E+00
 0.6605110774928E+00
 0.6500251301803E+00
 0.6469022314577E+00
 0.6535096468538E+00
 0.6724695323773E+00
 0.7064099170272E+00
 0.7575443146450E+00
 0.8271609992420E+00
 0.9151626379427E+00
 0.1019766792739E+01
 0.1137451394539E+01
 0.1263174144541E+01
 0.1390843099425E+01
 0.1513966114424E+01
 0.7386840201058E+00
 0.7611137493919E+00
 0.7833922904423E+00
 0.8047102099309E+00
 0.8243179817963E+00
 0.8415923902314E+00
 0.8560765362006E+00
 0.8674895445798E+00
 0.8757103720093E+00
 0.8807453363611E+00
 0.8826896625824E+00
 0.8816910965436E+00
 0.8779205043934E+00
 0.8715514835118E+00
 0.8627490485506E+00
 0.8516663896552E+00
 0.8384482739045E+00
 0.8232402323519E+00
 0.8062015558104E+00
 0.7875220539558E+00
 0.7674419269472E+00
 0.7462732352937E+00
 0.7244236044840E+00
 0.7024231212687E+00
 0.6809595490421E+00
 0.6609104680858E+00
 0.6433678759508E+00
 0.6296714875679E+00
 0.6214486477693E+00
 0.6206433922971E+00
 0.6294996535045E+00
 0.6504474630455E+00
 0.6858471709426E+00
 0.7375925716817E+00
 0.8066601920708E+00
 0.8927289844628E+00
 0.9939546856800E+00
 0.1106958512460E+01
 0.1227045029337E+01
 0.1348626466445E+01
 0.1465792962573E+01
 0.7013228993289E+00
 0.7221340388267E+00
 0.7427950456617E+00
 0.7625855953912E+00
 0.7808340091938E+00
 0.7969730265782E+00
 0.8105750380001E+00
 0.8213629474419E+00
 0.8291994049048E+00
 0.8340616905141E+00
 0.8360105122143E+00
 0.8351595167788E+00
 0.8316499655774E+00
 0.8256326904127E+00
 0.8172577555868E+00
 0.8066712440101E+00
 0.7940180951043E+00
 0.7794503595592E+00
 0.7631390687441E+00
 0.7452896894410E+00
 0.7261605257348E+00
 0.7060825783157E+00
 0.6854814412907E+00
 0.6649018463079E+00
 0.6450388801094E+00
 0.6267674711404E+00
 0.6111665115439E+00
 0.5995494794497E+00
 0.5934976421187E+00
 0.5948773834612E+00
 0.6058071997743E+00
 0.6285287194962E+00
 0.6651493690110E+00
 0.7172725797167E+00
 0.7856043225245E+00
 0.8696423629568E+00
 0.9675102989634E+00
 0.1075977980003E+01
 0.1190673747810E+01
 0.1306467202985E+01
 0.1417970564521E+01
 0.6640382781868E+00
 0.6832816513029E+00
 0.7023740761191E+00
 0.7206793272749E+00
 0.7375997649124E+00
 0.7526225227405E+00
 0.7653501767470E+00
 0.7755122450060E+00
 0.7829589551038E+00
 0.7876425938112E+00
 0.7895929032569E+00
 0.7888921401765E+00
 0.7856537355676E+00
 0.7800066628748E+00
 0.7720862098822E+00
 0.7620309265879E+00
 0.7499849989427E+00
 0.7361056249352E+00
 0.7205737739435E+00
 0.7036083267337E+00
 0.6854829852752E+00
 0.6665445051229E+00
 0.6472327862574E+00
 0.6281031184619E+00
 0.6098535759258E+00
 0.5933520340095E+00
 0.5796599058457E+00
 0.5700601808073E+00
 0.5660840946522E+00
 0.5695172663134E+00
 0.5823520801319E+00
 0.6066468641761E+00
 0.6442713795569E+00
 0.6965663486435E+00
 0.7640036943224E+00
 0.8459357690755E+00
 0.9404773659558E+00
 0.1044549048232E+01
 0.1154081066209E+01
 0.1264358589686E+01
 0.1370462497443E+01
 0.6268188578234E+00
 0.6445395549381E+00
 0.6621072063962E+00
 0.6789656739714E+00
 0.6945881816740E+00
 0.7085148041463E+00
 0.7203788193050E+00
 0.7299185070049E+00
 0.7369747816190E+00
 0.7414782937133E+00
 0.7434308651036E+00
 0.7428857645482E+00
 0.7399302260956E+00
 0.7346722440672E+00
 0.7272325368077E+00
 0.7177417510391E+00
 0.7063424474404E+00
 0.6931956426754E+00
 0.6784904768553E+00
 0.6624570382188E+00
 0.6453817744451E+00
 0.6276241032770E+00
 0.6096347270790E+00
 0.5919756647884E+00
 0.5753440228796E+00
 0.5605967430882E+00
 0.5487740571421E+00
 0.5411250296303E+00
 0.5391278593550E+00
 0.5444853720428E+00
 0.5590643608702E+00
 0.5847459918160E+00
 0.6231777065891E+00
 0.6754632401821E+00
 0.7418725997787E+00
 0.8216426820389E+00
 0.9128976586250E+00
 0.1012708475186E+01
 0.1117286707856E+01
 0.1222295693095E+01
 0.1323237596093E+01
 0.5896536704437E+00
 0.6058912798130E+00
 0.6219730174700E+00
 0.6374197154435E+00
 0.6517728633584E+00
 0.6646241409634E+00
 0.6756377271718E+00
 0.6845622073353E+00
 0.6912315904895E+00
 0.6955576076225E+00
 0.6975167173635E+00
 0.6971352908510E+00
 0.6944758416834E+00
 0.6896262186764E+00
 0.6826927980439E+00
 0.6737980027814E+00
 0.6630819532538E+00
 0.6507082098758E+00
 0.6368723671734E+00
 0.6218135707109E+00
 0.6058284377964E+00
 0.5892860712406E+00
 0.5726446525895E+00
 0.5564693737857E+00
 0.5414528026815E+00
 0.5284375731061E+00
 0.5184396653034E+00
 0.5126715308310E+00
 0.5125561741828E+00
 0.5197125431692E+00
 0.5358833483264E+00
 0.5627794657847E+00
 0.6018411234940E+00
 0.6539587343556E+00
 0.7192284877372E+00
 0.7967967844314E+00
 0.8848111766524E+00
 0.9804909010807E+00
 0.1080309606257E+01
 0.1180275317230E+01
 0.1276269505749E+01
 0.5525319810039E+00
 0.5673207571348E+00
 0.5819506436873E+00
 0.5960171384851E+00
 0.6091279242298E+00
 0.6209250657233E+00
 0.6311035660307E+00
 0.6394233182175E+00
 0.6457131924967E+00
 0.6498681186932E+00
 0.6518412814714E+00
 0.6516339355711E+00
 0.6492851858789E+00
 0.6448635128578E+00
 0.6384611896410E+00
 0.6301921417547E+00
 0.6201932939385E+00
 0.6086295378181E+00
 0.5957012701965E+00
 0.5816546164481E+00
 0.5667938811811E+00
 0.5514950078251E+00
 0.5362205281386E+00
 0.5215355308457E+00
 0.5081248543655E+00
 0.4968139365851E+00
 0.4885920281791E+00
 0.4846329631385E+00
 0.4863031512380E+00
 0.4951373928896E+00
 0.5127566239296E+00
 0.5407087780615E+00
 0.5802414832722E+00
 0.6320533948383E+00
 0.6960912963219E+00
 0.7714317611862E+00
 0.8562563218196E+00
 0.9479291572571E+00
 0.1043168092354E+01
 0.1138295906072E+01
 0.1229536207769E+01
 0.5154431993710E+00
 0.5288121753848E+00
 0.5420195925567E+00
 0.5547340569836E+00
 0.5666278506134E+00
 0.5773923074252E+00
 0.5867529250220E+00
 0.5944814089001E+00
 0.6004026630058E+00
 0.6043963739977E+00
 0.6063940966246E+00
 0.6063734500349E+00
 0.6043512767155E+00
 0.6003774048022E+00
 0.5945302508924E+00
 0.5869150149223E+00
 0.5776647336436E+00
 0.5669444871718E+00
 0.5549578974028E+00
 0.5419560774063E+00
 0.5282486436304E+00
 0.5142156798424E+00
 0.5003211406910E+00
 0.4871270156544E+00
 0.4753075930246E+00
 0.4656686898120E+00
 0.4591709017755E+00
 0.4569480662095E+00
 0.4603092729292E+00
 0.4707056045618E+00
 0.4896391609326E+00
 0.5185025370803E+00
 0.5583646963911E+00
 0.6097520138362E+00
 0.6724829324680E+00
 0.7455811761871E+00
 0.8272700785781E+00
 0.9150545425416E+00
 0.1005880049058E+01
 0.1096357431077E+01
 0.1183019561858E+01
 0.4783768008380E+00
 0.4903498504775E+00
 0.5021595849833E+00
 0.5135468571744E+00
 0.5242473886056E+00
 0.5340007493903E+00
 0.5425623556968E+00
 0.5497157600222E+00
 0.5552825147428E+00
 0.5591280945910E+00
 0.5611636479607E+00
 0.5613443530309E+00
 0.5596657766121E+00
 0.5561597504311E+00
 0.5508910882686E+00
 0.5439560828490E+00
 0.5354832569174E+00
 0.5256368123155E+00
 0.5146221020712E+00
 0.5026933294448E+00
 0.4901631626936E+00
 0.4774132758516E+00
 0.4649063222036E+00
 0.4531984707271E+00
 0.4429509950267E+00
 0.4349481054565E+00
 0.4301203343159E+00
 0.4295607172149E+00
 0.4345209012854E+00
 0.4463692747933E+00
 0.4664925205268E+00
 0.4961355727200E+00
 0.5362018553413E+00
 0.5870629083616E+00
 0.6484268722460E+00
 0.7192784131339E+00
 0.7978882025601E+00
 0.8818970752505E+00
 0.9684630373927E+00
 0.1054461264567E+01
 0.1136704866478E+01
 0.4413222530847E+00
 0.4519181074772E+00
 0.4623504147706E+00
 0.4724320698622E+00
 0.4819614640008E+00
 0.4907254210536E+00
 0.4985084435625E+00
 0.5051055075204E+00
 0.5103348967921E+00
 0.5140484091331E+00
 0.5161376166028E+00
 0.5165361844423E+00
 0.5152192428993E+00
 0.5122012294012E+00
 0.5075336190922E+00
 0.5013036649658E+00
 0.4936348194867E+00
 0.4846894201030E+00
 0.4746731458366E+00
 0.4638414927129E+00
 0.4525080400719E+00
 0.4410536530119E+00
 0.4299371581660E+00
 0.4197064475353E+00
 0.4110076555022E+00
 0.4046018168146E+00
 0.4013884782189E+00
 0.4024195996765E+00
 0.4088898012422E+00
 0.4220862977806E+00
 0.4432841199536E+00
 0.4735881437103E+00
 0.5137484827286E+00
 0.5639973393741E+00
 0.6239478559311E+00
 0.6925566649776E+00
 0.7681454128746E+00
 0.8484857210438E+00
 0.9309343904054E+00
 0.1012610030195E+01
 0.1090580425063E+01
 0.4042689479967E+00
 0.4135011729410E+00
 0.4225718297598E+00
 0.4313662775753E+00
 0.4397451489391E+00
 0.4475415439987E+00
 0.4545679363694E+00
 0.4606298417340E+00
 0.4655418449881E+00
 0.4691421345222E+00
 0.4713031728550E+00
 0.4719377991388E+00
 0.4710014166641E+00
 0.4684916281877E+00
 0.4644468514161E+00
 0.4589452202011E+00
 0.4521046332889E+00
 0.4440846611675E+00
 0.4350899950937E+00
 0.4253757278354E+00
 0.4152543272172E+00
 0.4051035961812E+00
 0.3953761991122E+00
 0.3866095459293E+00
 0.3794328312044E+00
 0.3745827441159E+00
 0.3729273881058E+00
 0.3754778707346E+00
 0.3833726821091E+00
 0.3978197923037E+00
 0.4199865695294E+00
 0.4508452378917E+00
 0.4910038863064E+00
 0.5405690333766E+00
 0.5990716604854E+00
 0.6654489642757E+00
 0.7380755914146E+00
 0.8148486049635E+00
 0.8933112805689E+00
 0.9708074315842E+00
 0.1044637115524E+01
 0.3672061372394E+00
 0.3750830801469E+00
 0.3828034444009E+00
 0.3903260773601E+00
 0.3975737077534E+00
 0.4044246747103E+00
 0.4107179782031E+00
 0.4162683136810E+00
 0.4208856356671E+00
 0.4243941537728E+00
 0.4266473604482E+00
 0.4275377469117E+00
 0.4270015942622E+00
 0.4250202039999E+00
 0.4216192440872E+00
 0.4168677078688E+00
 0.4108775320201E+00
 0.4038047015714E+00
 0.3958516964195E+00
 0.3872716077978E+00
 0.3783738804861E+00
 0.3695311370450E+00
 0.3611877193822E+00
 0.3538685861152E+00
 0.3481845021407E+00
 0.3448470306588E+00
 0.3446928282009E+00
 0.3486928473938E+00
 0.3579307759142E+00
 0.3735375878976E+00
 0.3965770914249E+00
 0.4278959727834E+00
 0.4679706229937E+00
 0.5167938065035E+00
 0.5738249539358E+00
 0.6379882697526E+00
 0.7077120174048E+00
 0.7810132445768E+00
 0.8556107983944E+00
 0.9290580939091E+00
 0.9988679994419E+00
 0.3301228703615E+00
 0.3366475894937E+00
 0.3430246978716E+00
 0.3492881305360E+00
 0.3554227711563E+00
 0.3613510069555E+00
 0.3669365194640E+00
 0.3720013191498E+00
 0.3763493090751E+00
 0.3797899504277E+00
 0.3821576234206E+00
 0.3833247829737E+00
 0.3832091203101E+00
 0.3817761642466E+00
 0.3790391791892E+00
 0.3750580598296E+00
 0.3699384480127E+00
 0.3638320058852E+00
 0.3569378621879E+00
 0.3495055958305E+00
 0.3418398134683E+00
 0.3343059556659E+00
 0.3273380374579E+00
 0.3214468170745E+00
 0.3172234445219E+00
 0.3153539712468E+00
 0.3166440647599E+00
 0.3220256843962E+00
 0.3325294248379E+00
 0.3492117420514E+00
 0.3730369896350E+00
 0.4047330608770E+00
 0.4446540300882E+00
 0.4926892446598E+00
 0.5482351844432E+00
 0.6102075652610E+00
 0.6770875982330E+00
 0.7470067654020E+00
 0.8178499930007E+00
 0.8873673507198E+00
 0.9532678920806E+00
 0.2930079354810E+00
 0.2981781393175E+00
 0.3032149036634E+00
 0.3082293868761E+00
 0.3132687684550E+00
 0.3182979968450E+00
 0.3232030853785E+00
 0.3278109494420E+00
 0.3319175477600E+00
 0.3353164761925E+00
 0.3378226423564E+00
 0.3392886669087E+00
 0.3396141535877E+00
 0.3387494092938E+00
 0.3366956935316E+00
 0.3335039116369E+00
 0.3292731505639E+00
 0.3241500845676E+00
 0.3183294210208E+00
 0.3120557831450E+00
 0.3056271953130E+00
 0.2994000026538E+00
 0.2937960194071E+00
 0.2893102614420E+00
 0.2865133918355E+00
 0.2860659892704E+00
 0.2887436860262E+00
 0.2954410800714E+00
 0.3071377131934E+00
 0.3248181240446E+00
 0.3493512049207E+00
 0.3813523693562E+00
 0.4210618492016E+00
 0.4682744640148E+00
 0.5223305325026E+00
 0.5821400104206E+00
 0.6462351527009E+00
 0.7128561716788E+00
 0.7800459531723E+00
 0.8457410502952E+00
 0.9078329633106E+00
 0.2558498043998E+00
 0.2596578577499E+00
 0.2633534857620E+00
 0.2671276662833E+00
 0.2710898894571E+00
 0.2752456498363E+00
 0.2795002781263E+00
 0.2836825893512E+00
 0.2875782746673E+00
 0.2909636898651E+00
 0.2936337891369E+00
 0.2954215333830E+00
 0.2962089689545E+00
 0.2959317877496E+00
 0.2945797104775E+00
 0.2921948308374E+00
 0.2888694839494E+00
 0.2847447449528E+00
 0.2800098716912E+00
 0.2749031194197E+00
 0.2697142138343E+00
 0.2647885356157E+00
 0.2605339224456E+00
 0.2574283086160E+00
 0.2560213488696E+00
 0.2569486877144E+00
 0.2609574501264E+00
 0.2689070016616E+00
 0.2817281368953E+00
 0.3003360618846E+00
 0.3255079512662E+00
 0.3577525667235E+00
 0.3972039295541E+00
 0.4435699336068E+00
 0.4961399058456E+00
 0.5538191249326E+00
 0.6151877382319E+00
 0.6785886762529E+00
 0.7422159309813E+00
 0.8041853568729E+00
 0.8625603421528E+00
 0.2186365876701E+00
 0.2210697138929E+00
 0.2234206397502E+00
 0.2259630558548E+00
 0.2288682552746E+00
 0.2321793161766E+00
 0.2358169444549E+00
 0.2396082020890E+00
 0.2433258648247E+00
 0.2467275895121E+00
 0.2495879457043E+00
 0.2517205121685E+00
 0.2529904193156E+00
 0.2533194505070E+00
 0.2526863348659E+00
 0.2511245931391E+00
 0.2487196511795E+00
 0.2456063894498E+00
 0.2419675774469E+00
 0.2380336548396E+00
 0.2340842852186E+00
 0.2304519906903E+00
 0.2275289141631E+00
 0.2257747897383E+00
 0.2257181896664E+00
 0.2279710212704E+00
 0.2332541573751E+00
 0.2423944095138E+00
 0.2562762933401E+00
 0.2757480427084E+00
 0.3014984258490E+00
 0.3339348433783E+00
 0.3730919897886E+00
 0.4185973316566E+00
 0.4696929424295E+00
 0.5252789691258E+00
 0.5839789920427E+00
 0.6442320785721E+00
 0.7043775004577E+00
 0.7627065067006E+00
 0.8174476486915E+00
 0.1813560203763E+00
 0.1823970363970E+00
 0.1833991009399E+00
 0.1847214342337E+00
 0.1865952491347E+00
 0.1890964266603E+00
 0.1921556778041E+00
 0.1955939778671E+00
 0.1991684993354E+00
 0.2026170463927E+00
 0.2056937663263E+00
 0.2081934757702E+00
 0.2099652777569E+00
 0.2109179104579E+00
 0.2110197445396E+00
 0.2102959974347E+00
 0.2088250114129E+00
 0.2067348113678E+00
 0.2042005228353E+00
 0.2014431585234E+00
 0.1987303719149E+00
 0.1963797905703E+00
 0.1947661539171E+00
 0.1943301726849E+00
 0.1955799354072E+00
 0.1991057947867E+00
 0.2056056413594E+00
 0.2158770390244E+00
 0.2307606579138E+00
 0.2510395476293E+00
 0.2773166782374E+00
 0.3099027869055E+00
 0.3487395114006E+00
 0.3933795036589E+00
 0.4430200875609E+00
 0.4965543879439E+00
 0.5526435700794E+00
 0.6098153200739E+00
 0.6665489215378E+00
 0.7213106587128E+00
 0.7724925770401E+00
 0.1439955432827E+00
 0.1436251124323E+00
 0.1432792169265E+00
 0.1434044353050E+00
 0.1442864890357E+00
 0.1460252600408E+00
 0.1485534764479E+00
 0.1516810760613E+00
 0.1551477596778E+00
 0.1586716755293E+00
 0.1619877493785E+00
 0.1648735277272E+00
 0.1671634797370E+00
 0.1687543929745E+00
 0.1696049639547E+00
 0.1697323078200E+00
 0.1692073458258E+00
 0.1681503306174E+00
 0.1667272354949E+00
 0.1651475986690E+00
 0.1636646555094E+00
 0.1625787523535E+00
 0.1622454862474E+00
 0.1630862492016E+00
 0.1655904514728E+00
 0.1703307512427E+00
 0.1779868801167E+00
 0.1893311641390E+00
 0.2051623880955E+00
 0.2261989912870E+00
 0.2529596161774E+00
 0.2856623769697E+00
 0.3241617088266E+00
 0.3679404481225E+00
 0.4161526516141E+00
 0.4676811987021E+00
 0.5212175460498E+00
 0.5753691106943E+00
 0.6287496531632E+00
 0.6800037177921E+00
 0.7276923048486E+00
 0.1065427393908E+00
 0.1047467577288E+00
 0.1030764944814E+00
 0.1020642946652E+00
 0.1020345565895E+00
 0.1030909112396E+00
 0.1051535729101E+00
 0.1080164534321E+00
 0.1114040201251E+00
 0.1150199784566E+00
 0.1185851829100E+00
 0.1218637771613E+00
 0.1246780769060E+00
 0.1269142796649E+00
 0.1285219014708E+00
 0.1295097123551E+00
 0.1299402551424E+00
 0.1299243042249E+00
 0.1296162076802E+00
 0.1292108840619E+00
 0.1289436658249E+00
 0.1290944864684E+00
 0.1299980970959E+00
 0.1320575273496E+00
 0.1357478811149E+00
 0.1416312170863E+00
 0.1503764970524E+00
 0.1627354182018E+00
 0.1794652671837E+00
 0.2012179357586E+00
 0.2284273286464E+00
 0.2612222593077E+00
 0.2993757082545E+00
 0.3423054434360E+00
 0.3891229534429E+00
 0.4386964107823E+00
 0.4897388374338E+00
 0.5409267572554E+00
 0.5910013064682E+00
 0.6387914071189E+00
 0.6830428417936E+00
 0.6898753558200E-01
 0.6578851366230E-01
 0.6291783365596E-01
 0.6098180658048E-01
 0.6028378420856E-01
 0.6085905401067E-01
 0.6257311270861E-01
 0.6520428351626E-01
 0.6848827312643E-01
 0.7214469591287E-01
 0.7590247909459E-01
 0.7952445714901E-01
 0.8282556320288E-01
 0.8568198427855E-01
 0.8803250424472E-01
 0.8987483825257E-01
 0.9125955995341E-01
 0.9228345458873E-01
 0.9308376720479E-01
 0.9383458415757E-01
 0.9474717001095E-01
 0.9607643915220E-01
 0.9813535761967E-01
 0.1013133251754E+00
 0.1060819972042E+00
 0.1130069766755E+00
 0.1227581750313E+00
 0.1360706522493E+00
 0.1536558543524E+00
 0.1760917639463E+00
 0.2037239173764E+00
 0.2365944347915E+00
 0.2744010091252E+00
 0.3165013432793E+00
 0.3619645535768E+00
 0.4096384470030E+00
 0.4582475378151E+00
 0.5065250796635E+00
 0.5533292049644E+00
 0.5976797972893E+00
 0.6385381825323E+00
 0.3134121765734E-01
 0.2706717846442E-01
 0.2401025079564E-01
 0.2282909311571E-01
 0.2320516475610E-01
 0.2440901956810E-01
 0.2600419198482E-01
 0.2794336376964E-01
 0.3032662835430E-01
 0.3318551207437E-01
 0.3641641532861E-01
 0.3982770940802E-01
 0.4321491377327E-01
 0.4641263563815E-01
 0.4931630041075E-01
 0.5188436070445E-01
 0.5413153209622E-01
 0.5611945187592E-01
 0.5794864077460E-01
 0.5975441208281E-01
 0.6170964173972E-01
 0.6403719384380E-01
 0.6703287189111E-01
 0.7109138651620E-01
 0.7671146480611E-01
 0.8449329699226E-01
 0.9512478322638E-01
 0.1093198147719E+00
 0.1277240506821E+00
 0.1508212758539E+00
 0.1788592662909E+00
 0.2117956487193E+00
 0.2492603823977E+00
 0.2905571015196E+00
 0.3347125969328E+00
 0.3805473724144E+00
 0.4267859973466E+00
 0.4722051053288E+00
 0.5157647376175E+00
 0.5566768557521E+00
 0.5941690024697E+00
 0.6996068637434E-02
 0.1514429921583E-01
 0.2313456435047E-01
 0.2980151926154E-01
 0.3445475269465E-01
 0.3686464135919E-01
 0.3718800789093E-01
 0.3584251946888E-01
 0.3338030344168E-01
 0.3039134252427E-01
 0.2743976090694E-01
 0.2501359952043E-01
 0.2346105183927E-01
 0.2291734133113E-01
 0.2328712679346E-01
 0.2433039133984E-01
 0.2578934757432E-01
 0.2746846714698E-01
 0.2925661138126E-01
 0.3112557714284E-01
 0.3313353235886E-01
 0.3544544564879E-01
 0.3836843245562E-01
 0.4238064584589E-01
 0.4810680396503E-01
 0.5624596030877E-01
 0.6749317689570E-01
 0.8246802081752E-01
 0.1016649307763E+00
 0.1254166228142E+00
 0.1538529283578E+00
 0.1868502562261E+00
 0.2239816888865E+00
 0.2645048335111E+00
 0.3074044785235E+00
 0.3514654111668E+00
 0.3953987824353E+00
 0.4380120720312E+00
 0.4783487759437E+00
 0.5157967004405E+00
 0.5499208088922E+00
 0.4464584107462E-01
 0.5358632331230E-01
 0.6248279042007E-01
 0.6998035033071E-01
 0.7520861613505E-01
 0.7784726301059E-01
 0.7802609647719E-01
 0.7615800051914E-01
 0.7277830451839E-01
 0.6842719880547E-01
 0.6358106862231E-01
 0.5862237928486E-01
 0.5383360736423E-01
 0.4940297152053E-01
 0.4543391711416E-01
 0.4195436036067E-01
 0.3892502411979E-01
 0.3624871596387E-01
 0.3378361314942E-01
 0.3136561724026E-01
 0.2884890261302E-01
 0.2618797619197E-01
 0.2361986004025E-01
 0.2203309184417E-01
 0.2326096846840E-01
 0.2911554512791E-01
 0.3998082630615E-01
 0.5550303751336E-01
 0.7548457127943E-01
 0.9990747911526E-01
 0.1287427728231E+00
 0.1617959445372E+00
 0.1986012348122E+00
 0.2383816581903E+00
 0.2800807946822E+00
 0.3224377618443E+00
 0.3641327666059E+00
 0.4039932772509E+00
 0.4411348716405E+00
 0.4750697981580E+00
 0.5057711506733E+00
 0.8279558507486E-01
 0.9339598969702E-01
 0.1037615240106E+00
 0.1124334311573E+00
 0.1184753024503E+00
 0.1215636612051E+00
 0.1218728209494E+00
 0.1198774556912E+00
 0.1161680883895E+00
 0.1113224017952E+00
 0.1058353257381E+00
 0.1000925630855E+00
 0.9436949966996E-01
 0.8884165024519E-01
 0.8359816899307E-01
 0.7865417693204E-01
 0.7396041795824E-01
 0.6941052013008E-01
 0.6484647429501E-01
 0.6006390035537E-01
 0.5481825971092E-01
 0.4883349264136E-01
 0.4181790071275E-01
 0.3350983606521E-01
 0.2386198608204E-01
 0.1413425178227E-01
 0.1382330941293E-01
 0.2841941171491E-01
 0.4922515150505E-01
 0.7437470422314E-01
 0.1036066649528E+00
 0.1366961739768E+00
 0.1731704462647E+00
 0.2122332070723E+00
 0.2527871603647E+00
 0.2935135687152E+00
 0.3330392437352E+00
 0.3701929665639E+00
 0.4041863574886E+00
 0.4345686696579E+00
 0.4616829609353E+00
 0.1211659832776E+00
 0.1336382323937E+00
 0.1456761447382E+00
 0.1556592760298E+00
 0.1625807767956E+00
 0.1661368737692E+00
 0.1665753962765E+00
 0.1644569005862E+00
 0.1604434401931E+00
 0.1551605470617E+00
 0.1491292103599E+00
 0.1427456614189E+00
 0.1362866904501E+00
 0.1299250229252E+00
 0.1237461492072E+00
 0.1177627504024E+00
 0.1119256228979E+00
 0.1061316278143E+00
 0.1002292259928E+00
 0.9402307524403E-01
 0.8727835861157E-01
 0.7972469944873E-01
 0.7105945378446E-01
 0.6095423205258E-01
 0.4907906769257E-01
 0.3510634406422E-01
 0.1869720683133E-01
 0.1694169200549E-02
 0.2316257041160E-01
 0.4908095291048E-01
 0.7862580474780E-01
 0.1116696079404E+00
 0.1477697970969E+00
 0.1861201834175E+00
 0.2255779092429E+00
 0.2647468712016E+00
 0.3021769364769E+00
 0.3366558465664E+00
 0.3675374557492E+00
 0.3944716262222E+00
 0.4176135505248E+00
 0.1597684657458E+00
 0.1742716352082E+00
 0.1881144652479E+00
 0.1994773711289E+00
 0.2072813406793E+00
 0.2112640996952E+00
 0.2117739756531E+00
 0.2094779850251E+00
 0.2051209383779E+00
 0.1993802416812E+00
 0.1928031517751E+00
 0.1857954371586E+00
 0.1786345191808E+00
 0.1714902720463E+00
 0.1644451297498E+00
 0.1575103368168E+00
 0.1506378631404E+00
 0.1437289664028E+00
 0.1366401606211E+00
 0.1291883025294E+00
 0.1211555788966E+00
 0.1122941788704E+00
 0.1023303245605E+00
 0.9097160743324E-01
 0.7793381353897E-01
 0.6294796877663E-01
 0.4575445826988E-01
 0.2625123361569E-01
 0.8049616217505E-02
 0.2537404305992E-01
 0.5431875289429E-01
 0.8696954653261E-01
 0.1225399010047E+00
 0.1601320254855E+00
 0.1985212044415E+00
 0.2362034113101E+00
 0.2716025625213E+00
 0.3034629070806E+00
 0.3311262821006E+00
 0.3550106420558E+00
 0.3737986980297E+00
 0.1986284425007E+00
 0.2153274323163E+00
 0.2310975339319E+00
 0.2438869299521E+00
 0.2525488135706E+00
 0.2568905818069E+00
 0.2573919693340E+00
 0.2548475476272E+00
 0.2500942903129E+00
 0.2438628089172E+00
 0.2367241872455E+00
 0.2290904263339E+00
 0.2212367887587E+00
 0.2133284104231E+00
 0.2054435928068E+00
 0.1975916091615E+00
 0.1897253060804E+00
 0.1817500050278E+00
 0.1735297066424E+00
 0.1648925889683E+00
 0.1556367464332E+00
 0.1455359178378E+00
 0.1343447174273E+00
 0.1218071568076E+00
 0.1076853902464E+00
 0.9176642218970E-01
 0.7385000907934E-01
 0.5383051565392E-01
 0.3224416661107E-01
 0.1636988542613E-01
 0.3271056501918E-01
 0.6318345356452E-01
 0.9769690640637E-01
 0.1343480549325E+00
 0.1716406314223E+00
 0.2078820024224E+00
 0.2413165175767E+00
 0.2705392881987E+00
 0.2950632435067E+00
 0.3151683187178E+00
 0.3331747490896E+00
 0.2377762298326E+00
 0.2568524251867E+00
 0.2746730622702E+00
 0.2889201798014E+00
 0.2983908871252E+00
 0.3029998104982E+00
 0.3033947435765E+00
 0.3005199083308E+00
 0.2953119960438E+00
 0.2885535758796E+00
 0.2808349509270E+00
 0.2725695568682E+00
 0.2640267470908E+00
 0.2553643986548E+00
 0.2466551577432E+00
 0.2379054694527E+00
 0.2290685454907E+00
 0.2200533177381E+00
 0.2107306263976E+00
 0.2009389275070E+00
 0.1904906679711E+00
 0.1791790698053E+00
 0.1667846059297E+00
 0.1530844712020E+00
 0.1378819460808E+00
 0.1210093296986E+00
 0.1023029136989E+00
 0.8164033851048E-01
 0.5915890649718E-01
 0.3636600749689E-01
 0.2415605458015E-01
 0.4240734559203E-01
 0.7389572477968E-01
 0.1090478214371E+00
 0.1450871520050E+00
 0.1798937225892E+00
 0.2114057788840E+00
 0.2380150762563E+00
 0.2591655600317E+00
 0.2758590184782E+00
 0.2900418195518E+00
 0.2772464408511E+00
 0.2989014702432E+00
 0.3188980633855E+00
 0.3346154400510E+00
 0.3448162990314E+00
 0.3495724758529E+00
 0.3497432320943E+00
 0.3464450158208E+00
 0.3407190891301E+00
 0.3333956637718E+00
 0.3250774455494E+00
 0.3161732540715E+00
 0.3069421836832E+00
 0.2975320851233E+00
 0.2880083444709E+00
 0.2783737173600E+00
 0.2685813157870E+00
 0.2585433245688E+00
 0.2481369160077E+00
 0.2372099405813E+00
 0.2255877924178E+00
 0.2130812629861E+00
 0.1994944445377E+00
 0.1846353278229E+00
 0.1683455969952E+00
 0.1504991877797E+00
 0.1309650577553E+00
 0.1096175203996E+00
 0.8644955548614E-01
 0.6197505092911E-01
 0.3911648809954E-01
 0.3202375144201E-01
 0.5298415134304E-01
 0.8489277973332E-01
 0.1191979777775E+00
 0.1524730689871E+00
 0.1820921522524E+00
 0.2060598255599E+00
 0.2237400502405E+00
 0.2364923830654E+00
 0.2464481431484E+00
 0.3170810488025E+00
 0.3415468413360E+00
 0.3638518612766E+00
 0.3810332311542E+00
 0.3918550328000E+00
 0.3966120603318E+00
 0.3964256406297E+00
 0.3926061780213E+00
 0.3863003125385E+00
 0.3783778392557E+00
 0.3694447315308E+00
 0.3598980476142E+00
 0.3499818953592E+00
 0.3398312846240E+00
 0.3295028102096E+00
 0.3189947836323E+00
 0.3082598704158E+00
 0.2972132853344E+00
 0.2857381796276E+00
 0.2736910734075E+00
 0.2609090393472E+00
 0.2472186471132E+00
 0.2324455909525E+00
 0.2164268689588E+00
 0.1990413170857E+00
 0.1802038855993E+00
 0.1598172958102E+00
 0.1377638619110E+00
 0.1139715976300E+00
 0.8861728888040E-01
 0.6277869190133E-01
 0.4129473189672E-01
 0.4015641092420E-01
 0.6333700074087E-01
 0.9449969553102E-01
 0.1258811691013E+00
 0.1535531206760E+00
 0.1748419339545E+00
 0.1888351952442E+00
 0.1971069334317E+00
 0.2027112354206E+00
 0.3573302542178E+00
 0.3848753722375E+00
 0.4096275919499E+00
 0.4282405815665E+00
 0.4395362536606E+00
 0.4441181630656E+00
 0.4434272830560E+00
 0.4389866685984E+00
 0.4320433178272E+00
 0.4234940810688E+00
 0.4139367208815E+00
 0.4037485216489E+00
 0.3931537427216E+00
 0.3822718786741E+00
 0.3711494029241E+00
 0.3597796148478E+00
 0.3481145501418E+00
 0.3360723865787E+00
 0.3235420602034E+00
 0.3103881798893E+00
 0.2964583101287E+00
 0.2815929981771E+00
 0.2656374903905E+00
 0.2484561513449E+00
 0.2299643224106E+00
 0.2101185734283E+00
 0.1888579061095E+00
 0.1660812668905E+00
 0.1416875923599E+00
 0.1157001791345E+00
 0.8857641916997E-01
 0.6219073304907E-01
 0.4363140461456E-01
 0.4819300545957E-01
 0.7219207030326E-01
 0.1006075546972E+00
 0.1260794050557E+00
 0.1445917766141E+00
 0.1546007891667E+00
 0.1578820467661E+00
 0.1588019395274E+00
 0.3980550141857E+00
 0.4289920476181E+00
 0.4563334313292E+00
 0.4763083972309E+00
 0.4878833575153E+00
 0.4920815097616E+00
 0.4907266168062E+00
 0.4855666630532E+00
 0.4779359778750E+00
 0.4687408423724E+00
 0.4585571511258E+00
 0.4477338786183E+00
 0.4364707233824E+00
 0.4248693177250E+00
 0.4129649953331E+00
 0.4007457214503E+00
 0.3881629101364E+00
 0.3751378042536E+00
 0.3615650999042E+00
 0.3473170666082E+00
 0.3322506408767E+00
 0.3162184535253E+00
 0.2990830247001E+00
 0.2807342626069E+00
 0.2611234679330E+00
 0.2402498795431E+00
 0.2180916946811E+00
 0.1945714189257E+00
 0.1695792534566E+00
 0.1430593564976E+00
 0.1151923593096E+00
 0.8683330421326E-01
 0.6089017915227E-01
 0.4645669466875E-01
 0.5522217299909E-01
 0.7770745259068E-01
 0.1001943868113E+00
 0.1156851254061E+00
 0.1213456951317E+00
 0.1189951127072E+00
 0.1146467842742E+00
 0.4393307147072E+00
 0.4740251170461E+00
 0.5040944514780E+00
 0.5253083083165E+00
 0.5369085560671E+00
 0.5404793849807E+00
 0.5382925163424E+00
 0.5323218152910E+00
 0.5239654638322E+00
 0.5141161273405E+00
 0.5033124537753E+00
 0.4918665375193E+00
 0.4799492850802E+00
 0.4676426384026E+00
 0.4549701846754E+00
 0.4419145239839E+00
 0.4284266634204E+00
 0.4144311869556E+00
 0.3998287088215E+00
 0.3844989148085E+00
 0.3683070889668E+00
 0.3511159288142E+00
 0.3328025804985E+00
 0.3132802331994E+00
 0.2925353514104E+00
 0.2706109052694E+00
 0.2475271970693E+00
 0.2232361628750E+00
 0.1976329801259E+00
 0.1706211883628E+00
 0.1422372122470E+00
 0.1128917491854E+00
 0.8395890204578E-01
 0.5949174862664E-01
 0.4944632635884E-01
 0.5966099393682E-01
 0.7698242409863E-01
 0.8882844734620E-01
 0.8965232232647E-01
 0.8079082856379E-01
 0.7020394279619E-01
 0.4812525232769E+00
 0.5201332000924E+00
 0.5530545805529E+00
 0.5753078451503E+00
 0.5866060284938E+00
 0.5892709198967E+00
 0.5860823374098E+00
 0.5792229037971E+00
 0.5701183423742E+00
 0.5596194968580E+00
 0.5482115130938E+00
 0.5361616394402E+00
 0.5236086076249E+00
 0.5106135487980E+00
 0.4971881948767E+00
 0.4833100706754E+00
 0.4689301981169E+00
 0.4539769450952E+00
 0.4383571946345E+00
 0.4219580354411E+00
 0.4046522417264E+00
 0.3863104665388E+00
 0.3668213706465E+00
 0.3461184953113E+00
 0.3242221211867E+00
 0.3012196922145E+00
 0.2771762413408E+00
 0.2520782303099E+00
 0.2258363757112E+00
 0.1983381022785E+00
 0.1695410991109E+00
 0.1396270974921E+00
 0.1093087991494E+00
 0.8054937783312E-01
 0.5837068579176E-01
 0.5152690846612E-01
 0.5892167825306E-01
 0.6555656039878E-01
 0.6090285828456E-01
 0.4455306612452E-01
 0.2605529974778E-01
 0.5239433383871E+00
 0.5675151220656E+00
 0.6033779791140E+00
 0.6263625554274E+00
 0.6369428709536E+00
 0.6383921718853E+00
 0.6340408481474E+00
 0.6262364438023E+00
 0.6163814154106E+00
 0.6052526316644E+00
 0.5932658904976E+00
 0.5806369905786E+00
 0.5674703333654E+00
 0.5538059996927E+00
 0.5396443224421E+00
 0.5249583744159E+00
 0.5096998055249E+00
 0.4938013532072E+00
 0.4771767098930E+00
 0.4597206403289E+00
 0.4413128353180E+00
 0.4218297966479E+00
 0.4011680847147E+00
 0.3792777851203E+00
 0.3562107837744E+00
 0.3320990798102E+00
 0.3070544703000E+00
 0.2811022682791E+00
 0.2541776165350E+00
 0.2261704137751E+00
 0.1970002546144E+00
 0.1667222611179E+00
 0.1357094034618E+00
 0.1050095532084E+00
 0.7717208526471E-01
 0.5753358261650E-01
 0.5091101914997E-01
 0.4950040210173E-01
 0.3950485587479E-01
 0.2150560443754E-01
 0.2388613017940E-01
 0.5675658886728E+00
 0.6164235615560E+00
 0.6552485417247E+00
 0.6785030662866E+00
 0.6878471944813E+00
 0.6877513912571E+00
 0.6821004418782E+00
 0.6733263523808E+00
 0.6627431874790E+00
 0.6510202711436E+00
 0.6384903105818E+00
 0.6253132238221E+00
 0.6115585104515E+00
 0.5972459837739E+00
 0.5823656391394E+00
 0.5668870462780E+00
 0.5507632538263E+00
 0.5339320517599E+00
 0.5163146465259E+00
 0.4978140893116E+00
 0.4783168597569E+00
 0.4577033969615E+00
 0.4358740819974E+00
 0.4127906609030E+00
 0.3885331984185E+00
 0.3632772540895E+00
 0.3371824182025E+00
 0.3103162041746E+00
 0.2826459778257E+00
 0.2540802095627E+00
 0.2245315103638E+00
 0.1939908300860E+00
 0.1626387768653E+00
 0.1310414343841E+00
 0.1006008501902E+00
 0.7439405215829E-01
 0.5675623332364E-01
 0.4668390918328E-01
 0.3681308437230E-01
 0.4291928880435E-01
 0.6985355188884E-01
 0.6123416809137E+00
 0.6671840057370E+00
 0.7088649251842E+00
 0.7317140992275E+00
 0.7391930397748E+00
 0.7372255047403E+00
 0.7301833184209E+00
 0.7204567994001E+00
 0.7091958860620E+00
 0.6969314216842E+00
 0.6839033017662E+00
 0.6702140729275E+00
 0.6558996416634E+00
 0.6409614499114E+00
 0.6253808284708E+00
 0.6091250888887E+00
 0.5921495549658E+00
 0.5743977797257E+00
 0.5557992901339E+00
 0.5362663964510E+00
 0.5156928858385E+00
 0.4939617328812E+00
 0.4709727650988E+00
 0.4466932698696E+00
 0.4212264321639E+00
 0.3947887507641E+00
 0.3675870516399E+00
 0.3397330235975E+00
 0.3112331100133E+00
 0.2820294959389E+00
 0.2520556865898E+00
 0.2212869033391E+00
 0.1898002210806E+00
 0.1578723305090E+00
 0.1262519517755E+00
 0.9681535206082E-01
 0.7304626992936E-01
 0.5763179583296E-01
 0.5285129625175E-01
 0.7696050952286E-01
 0.1184385941315E+00
 0.6585816569889E+00
 0.7202209013728E+00
 0.7644258122877E+00
 0.7859010271073E+00
 0.7907826847896E+00
 0.7866597779852E+00
 0.7782064580142E+00
 0.7675962645780E+00
 0.7557379144985E+00
 0.7430007294943E+00
 0.7295278986464E+00
 0.7153666764186E+00
 0.7005227612434E+00
 0.6849822549540E+00
 0.6687200747633E+00
 0.6517027623720E+00
 0.6338888309707E+00
 0.6152282409167E+00
 0.5956596369434E+00
 0.5751058890644E+00
 0.5534694723569E+00
 0.5306354780435E+00
 0.5064988920044E+00
 0.4810251245998E+00
 0.4543332916447E+00
 0.4266758146013E+00
 0.3983037670012E+00
 0.3693730222999E+00
 0.3399349562392E+00
 0.3099803737486E+00
 0.2794910156229E+00
 0.2484710440556E+00
 0.2169647033832E+00
 0.1850770339063E+00
 0.1531173651279E+00
 0.1221194495765E+00
 0.9479823585053E-01
 0.7588448269101E-01
 0.7431111249684E-01
 0.1111894867779E+00
 0.1692676547979E+00
 0.7067376856738E+00
 0.7760928517306E+00
 0.8220946198828E+00
 0.8408379667725E+00
 0.8423292308418E+00
 0.8358739056339E+00
 0.8260900536176E+00
 0.8147225910531E+00
 0.8023765854009E+00
 0.7892499218094E+00
 0.7753923335741E+00
 0.7608018602283E+00
 0.7454594994849E+00
 0.7293401171609E+00
 0.7124149696458E+00
 0.6946514857279E+00
 0.6760122404186E+00
 0.6564540681345E+00
 0.6359253513090E+00
 0.6143610076735E+00
 0.5916746137630E+00
 0.5677546028655E+00
 0.5424876462604E+00
 0.5158287093480E+00
 0.4879029296419E+00
 0.4589901171888E+00
 0.4293789190415E+00
 0.3992666271917E+00
 0.3687543173659E+00
 0.3378965186702E+00
 0.3067510636935E+00
 0.2753957997004E+00
 0.2439098797381E+00
 0.2123270898290E+00
 0.1806644552154E+00
 0.1492520644298E+00
 0.1197606348691E+00
 0.9741819958931E-01
 0.9582017709220E-01
 0.1435202002901E+00
 0.2229473289268E+00
 0.7574928869002E+00
 0.8355367417408E+00
 0.8819214974997E+00
 0.8960908443285E+00
 0.8934475107548E+00
 0.8846789604973E+00
 0.8737692039972E+00
 0.8618285312200E+00
 0.8491309711718E+00
 0.8357091939543E+00
 0.8215306384793E+00
 0.8065543506410E+00
 0.7907440980800E+00
 0.7740685402852E+00
 0.7564984064894E+00
 0.7380037430833E+00
 0.7185519320649E+00
 0.6981068554793E+00
 0.6766268579322E+00
 0.6540602764284E+00
 0.6303352435093E+00
 0.6053472425774E+00
 0.5789732578781E+00
 0.5511486964948E+00
 0.5219914247626E+00
 0.4917948791316E+00
 0.4608729985344E+00
 0.4294578865494E+00
 0.3977040800113E+00
 0.3657456809436E+00
 0.3337452929539E+00
 0.3018998920418E+00
 0.2703932500988E+00
 0.2392905167454E+00
 0.2084678015804E+00
 0.1777201306453E+00
 0.1473972524288E+00
 0.1214746102963E+00
 0.1162785054809E+00
 0.1724902958102E+00
 0.2803955741703E+00
 0.8119284508636E+00
 0.8995116067475E+00
 0.9436768940536E+00
 0.9509140434578E+00
 0.9436716048239E+00
 0.9329089075992E+00
 0.9212067874588E+00
 0.9089272698962E+00
 0.8960347065231E+00
 0.8824183658745E+00
 0.8679830801044E+00
 0.8526628648994E+00
 0.8364133364681E+00
 0.8192026752143E+00
 0.8010044307457E+00
 0.7817929615352E+00
 0.7615409881151E+00
 0.7402192187678E+00
 0.7177955561189E+00
 0.6942325043268E+00
 0.6694768770608E+00
 0.6434382832336E+00
 0.6159868936739E+00
 0.5870304472010E+00
 0.5566622023663E+00
 0.5251674934892E+00
 0.4928646343554E+00
 0.4600087406174E+00
 0.4268111002907E+00
 0.3935030236631E+00
 0.3603815159934E+00
 0.3278075653211E+00
 0.2961403581775E+00
 0.2655870131886E+00
 0.2360515711193E+00
 0.2070761759007E+00
 0.1777778993709E+00
 0.1490772838108E+00
 0.1365656420101E+00
 0.1965300947256E+00
 0.3428833203092E+00
 0.8718518130534E+00
 0.9691983127971E+00
 0.1006502994177E+01
 0.1004146001176E+01
 0.9925333065517E+00
 0.9804627246852E+00
 0.9684036019830E+00
 0.9560581708112E+00
 0.9431383491557E+00
 0.9294276516853E+00
 0.9147963900444E+00
 0.8991700438789E+00
 0.8825063595418E+00
 0.8647791137413E+00
 0.8459680439530E+00
 0.8260533579318E+00
 0.8050133509249E+00
 0.7828248660397E+00
 0.7594641529654E+00
 0.7349073368753E+00
 0.7091236357949E+00
 0.6820477215761E+00
 0.6535534543632E+00
 0.6235173134684E+00
 0.5919861595897E+00
 0.5592028852842E+00
 0.5254557277987E+00
 0.4910042544077E+00
 0.4561207349064E+00
 0.4211551503135E+00
 0.3865698181659E+00
 0.3529319310688E+00
 0.3208423945836E+00
 0.2907669147731E+00
 0.2628236437790E+00
 0.2366450178674E+00
 0.2108341243388E+00
 0.1823099723682E+00
 0.1598380227456E+00
 0.2143654691170E+00
 0.4122305883419E+00
 0.9404966755761E+00
 0.1045777844155E+01
 0.1068202520827E+01
 0.1054227185780E+01
 0.1039741806019E+01
 0.1027330682415E+01
 0.1015406145695E+01
 0.1003293161400E+01
 0.9905103052046E+00
 0.9767981439712E+00
 0.9620236634367E+00
 0.9461222038396E+00
 0.9290643830722E+00
 0.9108355974032E+00
 0.8914249460293E+00
 0.8708197364003E+00
 0.8490037118924E+00
 0.8259586378098E+00
 0.8016670413201E+00
 0.7761162355172E+00
 0.7492990739762E+00
 0.7211890547671E+00
 0.6916867016522E+00
 0.6606458620112E+00
 0.6280412885112E+00
 0.5940180211686E+00
 0.5587781428782E+00
 0.5225590109296E+00
 0.4857019822291E+00
 0.4487044812038E+00
 0.4122277124236E+00
 0.3770812215216E+00
 0.3441631216906E+00
 0.3143023073334E+00
 0.2880528787053E+00
 0.2654306342738E+00
 0.2456414511024E+00
 0.2233848088957E+00
 0.1926898648245E+00
 0.2270084207475E+00
 0.4914059711055E+00
 0.1024189748086E+01
 0.1129252332876E+01
 0.1123925361676E+01
 0.1099762634648E+01
 0.1085399881296E+01
 0.1073561685482E+01
 0.1062330892540E+01
 0.1050736594312E+01
 0.1038237524852E+01
 0.1024601691464E+01
 0.1009723894283E+01
 0.9935689164200E+00
 0.9761302741417E+00
 0.9574106547677E+00
 0.9374112281201E+00
 0.9161272481774E+00
 0.8935473677798E+00
 0.8696565217297E+00
 0.8444406182661E+00
 0.8178938176593E+00
 0.7900285357375E+00
 0.7608685875573E+00
 0.7303818465608E+00
 0.6984373803321E+00
 0.6649116376560E+00
 0.6297584191907E+00
 0.5930025839315E+00
 0.5548248982126E+00
 0.5156532911431E+00
 0.4761734813179E+00
 0.4372858929865E+00
 0.4000682704008E+00
 0.3657512625770E+00
 0.3356031924454E+00
 0.3108282557829E+00
 0.2922266274409E+00
 0.2799739829974E+00
 0.2722127346633E+00
 0.2461373552470E+00
 0.2438062875209E+00
 0.5868826954575E+00
 0.1137004430662E+01
 0.1212815618941E+01
 0.1164986489550E+01
 0.1141538626289E+01
 0.1129657915742E+01
 0.1119335666210E+01
 0.1109370657852E+01
 0.1098520778750E+01
 0.1086426784455E+01
 0.1072919344268E+01
 0.1057961387170E+01
 0.1041562279015E+01
 0.1023748004504E+01
 0.1004543122937E+01
 0.9839629832301E+00
 0.9620110773861E+00
 0.9386799855072E+00
 0.9139555967248E+00
 0.8878234444792E+00
 0.8602789342315E+00
 0.8313437382711E+00
 0.8010882106823E+00
 0.7696041057881E+00
 0.7368820347935E+00
 0.7026858219067E+00
 0.6666081741344E+00
 0.6283503442712E+00
 0.5880004523690E+00
 0.5461089424813E+00
 0.5036086950669E+00
 0.4616917827211E+00
 0.4217259202409E+00
 0.3852542257452E+00
 0.3540546815086E+00
 0.3300666690396E+00
 0.3155186277219E+00
 0.3113787612748E+00
 0.3218899479441E+00
 0.3321414603223E+00
 0.2958352587810E+00
 0.7199977860231E+00
 0.1317299893024E+01
 0.1252072554685E+01
 0.1191385270758E+01
 0.1181657686954E+01
 0.1172456326048E+01
 0.1165153633572E+01
 0.1156724551731E+01
 0.1146823796370E+01
 0.1135196944899E+01
 0.1121841266857E+01
 0.1106804187892E+01
 0.1090156104983E+01
 0.1071961912317E+01
 0.1052271572616E+01
 0.1031115806416E+01
 0.1008506087408E+01
 0.9844372155670E+00
 0.9588938889903E+00
 0.9318563198585E+00
 0.9033148564443E+00
 0.8732877063688E+00
 0.8418599170094E+00
 0.8092709766702E+00
 0.7759062122893E+00
 0.7414585397732E+00
 0.7048054513653E+00
 0.6651088483723E+00
 0.6223419021443E+00
 0.5772457832380E+00
 0.5310847838484E+00
 0.4854100214819E+00
 0.4419166046965E+00
 0.4023719526849E+00
 0.3689749402482E+00
 0.3447773438312E+00
 0.3329736135619E+00
 0.3383776278381E+00
 0.3615874909628E+00
 0.4362333502017E+00
 0.4498147566600E+00
 0.1003561793706E+01
 0.2553579110084E+00
 0.3716591270564E+00
 0.4828175225815E+00
 0.5845320524232E+00
 0.6753250121906E+00
 0.7550895657868E+00
 0.8241140847132E+00
 0.8830531967044E+00
 0.9329653572010E+00
 0.9750553906167E+00
 0.1010470587844E+01
 0.1040254783097E+01
 0.1065358525803E+01
 0.1086625942787E+01
 0.1104770690471E+01
 0.1120364552443E+01
 0.1133758067826E+01
 0.1145109661905E+01
 0.1154621787152E+01
 0.1162364873893E+01
 0.2436246029408E+00
 0.3565135607372E+00
 0.4647858279569E+00
 0.5646360697427E+00
 0.6545367215656E+00
 0.7341992539009E+00
 0.8037999470850E+00
 0.8638629443381E+00
 0.9152741392428E+00
 0.9590802649327E+00
 0.9963159580095E+00
 0.1027949206411E+01
 0.1054879023426E+01
 0.1077919945035E+01
 0.1097778097312E+01
 0.1115019546051E+01
 0.1129996783735E+01
 0.1142925931280E+01
 0.1153940259581E+01
 0.1162842704429E+01
 0.2327029992419E+00
 0.3424810262455E+00
 0.4480830203351E+00
 0.5460501205831E+00
 0.6348985265499E+00
 0.7142223286047E+00
 0.7840978329490E+00
 0.8449496262802E+00
 0.8975267436595E+00
 0.9427406829087E+00
 0.9815215207835E+00
 0.1014763363199E+01
 0.1043312756954E+01
 0.1067949721539E+01
 0.1089357880733E+01
 0.1108086294744E+01
 0.1124500876866E+01
 0.1138823659921E+01
 0.1151158992654E+01
 0.1161436397602E+01
 0.2224845112923E+00
 0.3294429031460E+00
 0.4325149900402E+00
 0.5285901002469E+00
 0.6162480292388E+00
 0.6950192862015E+00
 0.7649062484585E+00
 0.8262515155654E+00
 0.8796930520182E+00
 0.9260277395291E+00
 0.9660913547243E+00
 0.1000706914700E+01
 0.1030667453525E+01
 0.1056713200092E+01
 0.1079498357419E+01
 0.1099553798683E+01
 0.1117247176950E+01
 0.1132810433842E+01
 0.1146388677930E+01
 0.1158063060075E+01
 0.2129008607848E+00
 0.3172629298404E+00
 0.4179235655825E+00
 0.5120914470195E+00
 0.5984391001669E+00
 0.6764689380782E+00
 0.7461330012265E+00
 0.8077079406776E+00
 0.8617399700916E+00
 0.9089286496686E+00
 0.9500254620976E+00
 0.9857859857692E+00
 0.1016949409410E+01
 0.1044213463981E+01
 0.1068200430194E+01
 0.1089421133952E+01
 0.1108244288523E+01
 0.1124924465859E+01
 0.1139660932562E+01
 0.1152663441418E+01
 0.2038923704093E+00
 0.3058285419593E+00
 0.4041670142048E+00
 0.4964109824454E+00
 0.5813418943808E+00
 0.6584629400370E+00
 0.7276945459268E+00
 0.7892614505261E+00
 0.8436339746784E+00
 0.8914286235726E+00
 0.9333217327099E+00
 0.9700055851845E+00
 0.1002166510358E+01
 0.1030459213998E+01
 0.1055473476381E+01
 0.1077701185034E+01
 0.1097514514595E+01
 0.1115194031853E+01
 0.1130989763363E+01
 0.1145202120844E+01
 0.1954075831447E+00
 0.2950420183799E+00
 0.3911227561018E+00
 0.4814226253082E+00
 0.5648416247418E+00
 0.6409044263504E+00
 0.7095152759409E+00
 0.7708588974965E+00
 0.8253429156697E+00
 0.8735127550107E+00
 0.9159778079260E+00
 0.9533715441352E+00
 0.9863295351448E+00
 0.1015464421297E+01
 0.1041334603164E+01
 0.1064415198894E+01
 0.1085082934473E+01
 0.1103642837218E+01
 0.1120385261110E+01
 0.1135665108949E+01
 0.1874017020386E+00
 0.2848191145323E+00
 0.3786844308642E+00
 0.4670161559215E+00
 0.5488368144166E+00
 0.6237071374963E+00
 0.6915272715700E+00
 0.7524520010344E+00
 0.8068372503420E+00
 0.8551674921402E+00
 0.8979925550408E+00
 0.9358917395534E+00
 0.9694527202907E+00
 0.9992480707390E+00
 0.1025806759218E+01
 0.1049589059891E+01
 0.1070976018238E+01
 0.1090293057845E+01
 0.1107859123005E+01
 0.1124054106548E+01
 0.1798356711478E+00
 0.2750871193653E+00
 0.3667599993313E+00
 0.4530953997932E+00
 0.5332381464113E+00
 0.6067946264514E+00
 0.6736700905325E+00
 0.7339977061330E+00
 0.7880908681001E+00
 0.8363816992815E+00
 0.8793671021975E+00
 0.9175768526314E+00
 0.9515540268463E+00
 0.9818336650640E+00
 0.1008917422522E+01
 0.1033252086137E+01
 0.1055221854616E+01
 0.1075167788086E+01
 0.1093426940878E+01
 0.1110383196919E+01
 0.1726753776917E+00
 0.2657833999144E+00
 0.3552700124980E+00
 0.4395767879533E+00
 0.5179674425316E+00
 0.5900996980791E+00
 0.6558906156610E+00
 0.7154584686988E+00
 0.7690817210506E+00
 0.8171474594456E+00
 0.8601056049317E+00
 0.8984409089604E+00
 0.9326552936667E+00
 0.9632489398405E+00
 0.9906981403568E+00
 0.1015436958848E+01
 0.1037851101117E+01
 0.1058292815948E+01
 0.1077109556830E+01
 0.1094676688115E+01
 0.1658909206206E+00
 0.2568540902101E+00
 0.3441461019227E+00
 0.4263880295794E+00
 0.5029567231429E+00
 0.5735638399339E+00
 0.6381428378257E+00
 0.6968023701981E+00
 0.7497922041549E+00
 0.7974605855084E+00
 0.8402157336340E+00
 0.8785016077963E+00
 0.9127823385224E+00
 0.9435258053553E+00
 0.9711845644276E+00
 0.9961802173431E+00
 0.1018898139897E+01
 0.1039698084883E+01
 0.1058933346121E+01
 0.1076966775240E+01
 0.1594559826738E+00
 0.2482529744200E+00
 0.3333296894071E+00
 0.4134669734423E+00
 0.4881473808788E+00
 0.5571367159232E+00
 0.6203876392206E+00
 0.6780031672214E+00
 0.7302094098790E+00
 0.7773209789219E+00
 0.8197090247216E+00
 0.8577805846045E+00
 0.8919651223132E+00
 0.9227005101512E+00
 0.9504168173348E+00
 0.9755230416032E+00
 0.9984023458313E+00
 0.1019419025820E+01
 0.1038930082408E+01
 0.1057288398531E+01
 0.1533472732318E+00
 0.2399405049599E+00
 0.3227708517983E+00
 0.4007605849314E+00
 0.4734894086568E+00
 0.5407756570907E+00
 0.6025925237410E+00
 0.6590402352188E+00
 0.7103252349572E+00
 0.7567328236516E+00
 0.7986010864307E+00
 0.8363035864667E+00
 0.8702379128268E+00
 0.9008138866943E+00
 0.9284399658180E+00
 0.9535120839105E+00
 0.9764093006630E+00
 0.9974979693015E+00
 0.1017137784734E+01
 0.1035677094872E+01
 0.1475440365673E+00
 0.2318829287343E+00
 0.3124273061919E+00
 0.3882240110977E+00
 0.4589406636720E+00
 0.5244451424291E+00
 0.5847312976505E+00
 0.6398984259331E+00
 0.6901363739777E+00
 0.7357046607432E+00
 0.7769117052981E+00
 0.8141005917119E+00
 0.8476394454905E+00
 0.8779116287362E+00
 0.9053045143831E+00
 0.9302002571996E+00
 0.9529719170809E+00
 0.9739856647438E+00
 0.9936032122718E+00
 0.1012173603784E+01
 0.1420276413901E+00
 0.2240515335265E+00
 0.3022635253112E+00
 0.3758197516340E+00
 0.4444661964637E+00
 0.5081163064967E+00
 0.5667837439324E+00
 0.6205678884514E+00
 0.6696442546802E+00
 0.7142493975321E+00
 0.7546648973570E+00
 0.7912058963158E+00
 0.8242130717353E+00
 0.8540445573923E+00
 0.8810668536332E+00
 0.9056474144320E+00
 0.9281513869787E+00
 0.9489426296421E+00
 0.9683841044152E+00
 0.9868290254402E+00
 0.1367812161903E+00
 0.2164219647410E+00
 0.2922499236128E+00
 0.3635168741256E+00
 0.4300375861122E+00
 0.4917664181572E+00
 0.5487352384914E+00
 0.6010438074363E+00
 0.6488548733162E+00
 0.6923842109729E+00
 0.7318888584339E+00
 0.7676581095432E+00
 0.8000068214110E+00
 0.8292687885141E+00
 0.8557895725109E+00
 0.8799208326066E+00
 0.9020178600512E+00
 0.9224400687352E+00
 0.9415504840713E+00
 0.9597077988814E+00
 0.1317893441943E+00
 0.2089736236701E+00
 0.2823621279709E+00
 0.3512902953762E+00
 0.4156323129080E+00
 0.4753783693911E+00
 0.5305763527561E+00
 0.5813261072077E+00
 0.6277785802450E+00
 0.6701303923285E+00
 0.7086158524432E+00
 0.7435000847578E+00
 0.7750733905440E+00
 0.8036458013030E+00
 0.8295416298336E+00
 0.8530954986205E+00
 0.8746508494023E+00
 0.8945604173387E+00
 0.9131855193779E+00
 0.9308896071100E+00
 0.1270377997838E+00
 0.2016891257694E+00
 0.2725803080612E+00
 0.3391201062441E+00
 0.4012331505997E+00
 0.4589401607975E+00
 0.5123024332605E+00
 0.5614191157945E+00
 0.6064298120195E+00
 0.6475131289329E+00
 0.6848820297377E+00
 0.7187787716287E+00
 0.7494700351259E+00
 0.7772423868134E+00
 0.8023983677995E+00
 0.8252541893283E+00
 0.8461393800251E+00
 0.8653976089167E+00
 0.8833861160400E+00
 0.9004706755620E+00
 0.1225133195331E+00
 0.1945538051846E+00
 0.2628885520354E+00
 0.3269909271095E+00
 0.3868275685757E+00
 0.4424443767632E+00
 0.4939131528789E+00
 0.5413311844981E+00
 0.5848267649405E+00
 0.6245612153571E+00
 0.6607271631169E+00
 0.6935449715447E+00
 0.7232583477754E+00
 0.7501304513809E+00
 0.7744413460892E+00
 0.7964873356326E+00
 0.8165818890151E+00
 0.8350570732105E+00
 0.8522631958644E+00
 0.8685645688463E+00
 0.1182034087368E+00
 0.1875552687164E+00
 0.2532742926150E+00
 0.3148913048021E+00
 0.3724071608405E+00
 0.4258876720495E+00
 0.4754120587977E+00
 0.5210742899054E+00
 0.5629910371154E+00
 0.6013067190900E+00
 0.6361943229150E+00
 0.6678530131286E+00
 0.6965039302095E+00
 0.7223866862270E+00
 0.7457580099849E+00
 0.7668926926682E+00
 0.7860859085562E+00
 0.8036554629107E+00
 0.8199415933801E+00
 0.8353024581962E+00
 0.1140961690470E+00
 0.1806829801263E+00
 0.2437277627465E+00
 0.3028131302961E+00
 0.3579670828646E+00
 0.4092702527017E+00
 0.4568061016626E+00
 0.5006636040036E+00
 0.5409472253072E+00
 0.5777845868613E+00
 0.6113294765101E+00
 0.6417603323480E+00
 0.6692759459494E+00
 0.6940920890141E+00
 0.7164411818191E+00
 0.7365748094190E+00
 0.7547675366205E+00
 0.7713201344251E+00
 0.7865594990019E+00
 0.8008327150432E+00
 0.1101801463590E+00
 0.1739278736021E+00
 0.2342414814566E+00
 0.2907510815482E+00
 0.3435055047251E+00
 0.3925953630184E+00
 0.4381051599086E+00
 0.4801170476990E+00
 0.5187224921493E+00
 0.5540322064304E+00
 0.5861810255318E+00
 0.6153269686087E+00
 0.6416465628158E+00
 0.6653313453601E+00
 0.6865883810174E+00
 0.7056442997059E+00
 0.7227506895212E+00
 0.7381884576204E+00
 0.7522677834289E+00
 0.7653202965562E+00
 0.1064441931699E+00
 0.1672819900233E+00
 0.2248097641466E+00
 0.2787020881767E+00
 0.3290230802877E+00
 0.3758687809730E+00
 0.4193215636650E+00
 0.4594548335426E+00
 0.4963461103483E+00
 0.5300889306978E+00
 0.5607992874005E+00
 0.5886149830011E+00
 0.6136902907894E+00
 0.6361920745284E+00
 0.6563009741851E+00
 0.6742169060387E+00
 0.6901661200104E+00
 0.7044068816587E+00
 0.7172294998441E+00
 0.7289463652312E+00
 0.1028773392330E+00
 0.1607381284731E+00
 0.2154282504360E+00
 0.2666648132311E+00
 0.3145224303956E+00
 0.3590983224994E+00
 0.4004696206083E+00
 0.4386990016346E+00
 0.4738489891155E+00
 0.5059955703069E+00
 0.5352359280184E+00
 0.5616878059719E+00
 0.5854832225937E+00
 0.6067639458434E+00
 0.6256831576947E+00
 0.6424123513098E+00
 0.6571501564785E+00
 0.6701296280293E+00
 0.6816185950314E+00
 0.6919074783043E+00
 0.9946866584661E-01
 0.1542895073527E+00
 0.2060934450439E+00
 0.2546391501398E+00
 0.3000076411263E+00
 0.3422933582345E+00
 0.3815651493708E+00
 0.4178729560114E+00
 0.4512631916113E+00
 0.4817938647687E+00
 0.5095433566127E+00
 0.5346095261269E+00
 0.5571021890759E+00
 0.5771376770549E+00
 0.5948407806795E+00
 0.6103529741178E+00
 0.6238431442429E+00
 0.6355168980983E+00
 0.6456177065155E+00
 0.6544129302111E+00
 0.9620718241290E-01
 0.1479294341983E+00
 0.1968022737585E+00
 0.2426257412944E+00
 0.2854837877891E+00
 0.3254643566966E+00
 0.3626250369537E+00
 0.3970010200127E+00
 0.4286214637393E+00
 0.4575259540125E+00
 0.4837741057612E+00
 0.5074441438303E+00
 0.5286238533102E+00
 0.5474039384278E+00
 0.5638800292499E+00
 0.5781621608216E+00
 0.5903875842151E+00
 0.6007326504057E+00
 0.6094154585336E+00
 0.6166812191835E+00
 0.9308169155583E-01
 0.1416509669481E+00
 0.1875516361455E+00
 0.2306255005699E+00
 0.2709564682174E+00
 0.3086224384663E+00
 0.3436668057053E+00
 0.3761079977706E+00
 0.4059567638856E+00
 0.4332338430475E+00
 0.4579801924338E+00
 0.4802547882699E+00
 0.5001237450268E+00
 0.5176521681956E+00
 0.5329059831233E+00
 0.5459625869142E+00
 0.5569259761428E+00
 0.5659419531363E+00
 0.5732032090247E+00
 0.5789357024094E+00
 0.9008064709854E-01
 0.1354465710547E+00
 0.1783379659466E+00
 0.2186391583883E+00
 0.2564313703431E+00
 0.2917789705557E+00
 0.3247082218013E+00
 0.3552187763114E+00
 0.3833018311864E+00
 0.4089589007418E+00
 0.4322125038241E+00
 0.4531029429509E+00
 0.4716752803581E+00
 0.4879693461351E+00
 0.5020210994640E+00
 0.5138743376174E+00
 0.5235984383630E+00
 0.5313079113457E+00
 0.5371710417899E+00
 0.5413989733597E+00
 0.8719199108972E-01
 0.1293077573121E+00
 0.1691567859715E+00
 0.2066668203159E+00
 0.2419138677934E+00
 0.2749451951102E+00
 0.3057669386173E+00
 0.3343579617750E+00
 0.3606887880873E+00
 0.3847413926691E+00
 0.4065202122353E+00
 0.4260476859652E+00
 0.4433487725412E+00
 0.4584387313670E+00
 0.4713236413226E+00
 0.4820129601897E+00
 0.4905402053715E+00
 0.4969882501966E+00
 0.5015029450590E+00
 0.5042859006891E+00
 0.8440295858938E-01
 0.1232246827006E+00
 0.1600022449400E+00
 0.1947075329710E+00
 0.2274086413641E+00
 0.2581318906209E+00
 0.2868601719396E+00
 0.3135495471729E+00
 0.3381487790649E+00
 0.3606200584949E+00
 0.3809502395583E+00
 0.3991449724355E+00
 0.4152104611945E+00
 0.4291385889143E+00
 0.4409060832301E+00
 0.4504875236716E+00
 0.4578791993458E+00
 0.4631319499401E+00
 0.4663717143283E+00
 0.4677968456371E+00
 0.8169984777183E-01
 0.1171857148139E+00
 0.1508666530073E+00
 0.1827588920376E+00
 0.2129193719255E+00
 0.2413491136797E+00
 0.2680044533135E+00
 0.2928166571896E+00
 0.3157116951274E+00
 0.3366317939160E+00
 0.3555468455102E+00
 0.3724470432599E+00
 0.3873216409104E+00
 0.4001409679264E+00
 0.4108535419030E+00
 0.4193987598123E+00
 0.4257338729481E+00
 0.4298765720414E+00
 0.4319351389624E+00
 0.4321142750359E+00
 0.7906771788905E-01
 0.1111769106315E+00
 0.1417399761233E+00
 0.1708166623351E+00
 0.1984484746588E+00
 0.2246059813819E+00
 0.2492154083709E+00
 0.2721813078696E+00
 0.2934059216000E+00
 0.3128113866942E+00
 0.3303513125813E+00
 0.3460019579632E+00
 0.3597378918760E+00
 0.3715105062518E+00
 0.3812421613969E+00
 0.3888372043289E+00
 0.3942113241291E+00
 0.3973464767307E+00
 0.3983345690298E+00
 0.3974020050838E+00
 0.7649000163879E-01
 0.1051813960346E+00
 0.1326093163926E+00
 0.1588744707924E+00
 0.1839969472372E+00
 0.2079105565537E+00
 0.2305076072049E+00
 0.2516642156677E+00
 0.2712581395402E+00
 0.2891913457498E+00
 0.3054017965671E+00
 0.3198533636154E+00
 0.3325085483261E+00
 0.3433033488187E+00
 0.3521374280219E+00
 0.3588812112240E+00
 0.3634055418161E+00
 0.3656516404160E+00
 0.3656939973557E+00
 0.3638009317391E+00
 0.7394796243763E-01
 0.9917858275903E-01
 0.1234583701111E+00
 0.1469236160844E+00
 0.1695643722552E+00
 0.1912698560146E+00
 0.2118944807600E+00
 0.2312846402779E+00
 0.2492931606559E+00
 0.2658018112336E+00
 0.2807333696948E+00
 0.2940406194987E+00
 0.3056766182285E+00
 0.3155663927767E+00
 0.3235924182075E+00
 0.3295945989836E+00
 0.3333954570602E+00
 0.3348869022567E+00
 0.3341190410508E+00
 0.3314242029934E+00
 0.7141989802116E-01
 0.9314310259575E-01
 0.1142669012460E+00
 0.1349530649610E+00
 0.1551491400120E+00
 0.1746899610018E+00
 0.1933882550877E+00
 0.2110601861927E+00
 0.2275337060249E+00
 0.2426704329767E+00
 0.2563781438154E+00
 0.2685992604890E+00
 0.2792793723457E+00
 0.2883371694304E+00
 0.2956460567255E+00
 0.3010232528565E+00
 0.3042418648001E+00
 0.3051313097928E+00
 0.3036980263783E+00
 0.3003566243837E+00
 0.6887984611103E-01
 0.8704341731310E-01
 0.1050103091320E+00
 0.1229499981256E+00
 0.1407490036804E+00
 0.1581763303945E+00
 0.1749999237053E+00
 0.1910066305606E+00
 0.2060001731896E+00
 0.2198222204109E+00
 0.2323654447774E+00
 0.2435617820983E+00
 0.2533499242385E+00
 0.2616454250815E+00
 0.2683221124810E+00
 0.2731903974045E+00
 0.2759809098898E+00
 0.2764467295906E+00
 0.2745073904203E+00
 0.2706610789258E+00
 0.6629541135014E-01
 0.8083923197196E-01
 0.9566023022914E-01
 0.1109009210208E+00
 0.1263622539587E+00
 0.1417339300174E+00
 0.1567391825270E+00
 0.1711376725816E+00
 0.1847102394935E+00
 0.1972791616717E+00
 0.2087217170450E+00
 0.2189583578699E+00
 0.2279193470922E+00
 0.2355172402647E+00
 0.2416323133577E+00
 0.2460898353057E+00
 0.2486109948565E+00
 0.2488685974357E+00
 0.2466237689560E+00
 0.2424001745205E+00
 0.6362194450792E-01
 0.7448078751435E-01
 0.8618509270677E-01
 0.9879675359070E-01
 0.1119878246338E+00
 0.1253673247217E+00
 0.1386145665127E+00
 0.1514647044598E+00
 0.1636783577286E+00
 0.1750596725180E+00
 0.1854701296431E+00
 0.1948170472050E+00
 0.2030188799158E+00
 0.2099803471550E+00
 0.2155880504944E+00
 0.2196912734346E+00
 0.2220573544935E+00
 0.2223792055735E+00
 0.2201300323930E+00
 0.2156911873104E+00
 0.6079486263176E-01
 0.6788759222271E-01
 0.7657733101017E-01
 0.8663217341429E-01
 0.9762359593992E-01
 0.1090815511792E+00
 0.1206341594934E+00
 0.1319963573928E+00
 0.1429150193268E+00
 0.1531780649697E+00
 0.1626298245535E+00
 0.1711631285865E+00
 0.1786805384943E+00
 0.1850700389486E+00
 0.1902121040002E+00
 0.1939797958828E+00
 0.1961756163969E+00
 0.1967294099036E+00
 0.1951332385709E+00
 0.1908430821243E+00
 0.5759261992420E-01
 0.6112098799319E-01
 0.6686504616764E-01
 0.7438960441571E-01
 0.8326527098969E-01
 0.9288779185341E-01
 0.1028057649102E+00
 0.1127363140988E+00
 0.1224264464850E+00
 0.1316437539300E+00
 0.1402148425661E+00
 0.1480172334610E+00
 0.1549348488354E+00
 0.1608297976104E+00
 0.1655543256805E+00
 0.1689724126953E+00
 0.1709204116942E+00
 0.1713994628306E+00
 0.1708645818999E+00
 0.1693905992995E+00
 0.1761167872169E+01
 0.1726799854561E+01
 0.1298626990446E+01
 0.1060634398350E+01
 0.8430883856126E+00
 0.6454133650674E+00
 0.5066192421019E+00
 0.4336101134734E+00
 0.3881661984508E+00
 0.3482032513935E+00
 0.3077206533905E+00
 0.2655424104073E+00
 0.2208256581742E+00
 0.1735718132449E+00
 0.1253738119742E+00
 0.7821357454034E-01
 0.3168147696978E-01
 0.1990798712453E-02
 0.3582743789298E-02
 0.2199029486289E-01
 0.1506246632859E+01
 0.1810918729688E+01
 0.1423133413118E+01
 0.1136778546144E+01
 0.9258230480669E+00
 0.7487588443457E+00
 0.6158247145579E+00
 0.5287240850790E+00
 0.4695038672896E+00
 0.4222144276036E+00
 0.3789620831079E+00
 0.3363348256980E+00
 0.2923821083440E+00
 0.2464659659042E+00
 0.1992253959048E+00
 0.1512714306433E+00
 0.1012001307531E+00
 0.6442932647265E-01
 0.5349145591547E-01
 0.7539625355501E-01
 0.1294899960551E+01
 0.1693623071038E+01
 0.1489165739486E+01
 0.1217868268692E+01
 0.1005655431186E+01
 0.8397057770762E+00
 0.7128575793608E+00
 0.6217795438448E+00
 0.5545159410093E+00
 0.5006633132115E+00
 0.4538062424980E+00
 0.4100010901632E+00
 0.3665478273384E+00
 0.3220087921173E+00
 0.2762400530056E+00
 0.2292727794058E+00
 0.1800159006244E+00
 0.1407578699771E+00
 0.1268750395315E+00
 0.1494992663902E+00
 0.1128023539652E+01
 0.1549755455019E+01
 0.1479030576669E+01
 0.1277736012553E+01
 0.1080444948981E+01
 0.9220771085893E+00
 0.8005482762056E+00
 0.7094636409272E+00
 0.6389198957737E+00
 0.5810389680623E+00
 0.5311560059027E+00
 0.4859819310756E+00
 0.4427673512521E+00
 0.3995924725368E+00
 0.3557506876680E+00
 0.3110285970154E+00
 0.2645032609506E+00
 0.2257347616915E+00
 0.2112203493756E+00
 0.2346663913161E+00
 0.9925610057382E+00
 0.1408482852748E+01
 0.1430095967037E+01
 0.1303246530476E+01
 0.1141286521432E+01
 0.9959099568124E+00
 0.8802136099604E+00
 0.7910844244592E+00
 0.7201468419799E+00
 0.6607479110291E+00
 0.6092413304130E+00
 0.5631750153172E+00
 0.5202391957049E+00
 0.4784503830585E+00
 0.4368155942486E+00
 0.3949656355165E+00
 0.3521129053363E+00
 0.3154000884070E+00
 0.3012926454512E+00
 0.3248432630318E+00
 0.8805850515160E+00
 0.1277938478252E+01
 0.1361819332480E+01
 0.1300390910806E+01
 0.1181661099092E+01
 0.1057876130302E+01
 0.9514215584656E+00
 0.8661234324102E+00
 0.7967479726386E+00
 0.7377873546001E+00
 0.6861934184246E+00
 0.6401324429150E+00
 0.5978547803263E+00
 0.5576031390605E+00
 0.5183333714598E+00
 0.4796138103329E+00
 0.4407360130328E+00
 0.4067873311043E+00
 0.3934843715423E+00
 0.4162530742251E+00
 0.7867263035670E+00
 0.1159869621040E+01
 0.1284911464875E+01
 0.1276762279657E+01
 0.1201383281854E+01
 0.1104733411593E+01
 0.1012279576081E+01
 0.9335128623115E+00
 0.8675385134580E+00
 0.8106263015184E+00
 0.7603466093812E+00
 0.7153230377916E+00
 0.6743088703700E+00
 0.6358895008229E+00
 0.5991249434585E+00
 0.5635974592066E+00
 0.5286591058585E+00
 0.4977067923865E+00
 0.4852810492866E+00
 0.5064488170874E+00
 0.7072128009357E+00
 0.1054038751334E+01
 0.1205315352052E+01
 0.1238809249107E+01
 0.1202923780702E+01
 0.1135413731086E+01
 0.1060801823511E+01
 0.9917031705775E+00
 0.9312208019355E+00
 0.8779128087249E+00
 0.8302392613649E+00
 0.7872829335693E+00
 0.7482378053789E+00
 0.7120531143152E+00
 0.6779679343427E+00
 0.6456302632027E+00
 0.6144588378609E+00
 0.5865029754603E+00
 0.5748816152062E+00
 0.5937913656540E+00
 0.6392746129531E+00
 0.9595467552579E+00
 0.1126404790498E+01
 0.1191441942947E+01
 0.1189557541921E+01
 0.1150526927104E+01
 0.1095920423261E+01
 0.1039223415091E+01
 0.9864197215600E+00
 0.9383321552323E+00
 0.8945296515918E+00
 0.8546476855579E+00
 0.8183084630720E+00
 0.7848230780324E+00
 0.7536398975504E+00
 0.7245016504081E+00
 0.6969104092015E+00
 0.6718686384440E+00
 0.6609441379033E+00
 0.6771378850383E+00
 0.5808077384662E+00
 0.8753100407462E+00
 0.1050100075644E+01
 0.1138275103405E+01
 0.1164515510175E+01
 0.1151642685921E+01
 0.1117572016214E+01
 0.1075134714541E+01
 0.1031935352871E+01
 0.9906477751714E+00
 0.9519662583455E+00
 0.9161480586014E+00
 0.8832571570617E+00
 0.8529683986543E+00
 0.8249547927406E+00
 0.7990715304352E+00
 0.7749228351176E+00
 0.7527177937077E+00
 0.7424175982392E+00
 0.7556456448527E+00
 0.5301704047819E+00
 0.8002389260417E+00
 0.9774668405538E+00
 0.1081934581590E+01
 0.1130666676893E+01
 0.1140748297132E+01
 0.1126464637619E+01
 0.1099149979474E+01
 0.1066957785682E+01
 0.1033832875413E+01
 0.1001434492879E+01
 0.9706272284598E+00
 0.9419135385180E+00
 0.9153314759733E+00
 0.8907898022405E+00
 0.8682710919608E+00
 0.8475005140309E+00
 0.8281048188178E+00
 0.8184328202399E+00
 0.8286492106867E+00
 0.4860542485964E+00
 0.7333044178394E+00
 0.9090502183178E+00
 0.1024313358843E+01
 0.1090433841849E+01
 0.1119916927188E+01
 0.1123794276699E+01
 0.1111562480686E+01
 0.1091147070936E+01
 0.1067183470650E+01
 0.1042037630720E+01
 0.1017088023284E+01
 0.9932333315293E+00
 0.9708571452593E+00
 0.9501078915837E+00
 0.9311090389340E+00
 0.9137246400756E+00
 0.8971773251767E+00
 0.8882351564404E+00
 0.8955870894336E+00
 0.4473993224214E+00
 0.6735602449003E+00
 0.8450693975352E+00
 0.9667637122917E+00
 0.1045806039137E+01
 0.1091125748786E+01
 0.1111010776812E+01
 0.1113102482597E+01
 0.1104609761707E+01
 0.1090367026036E+01
 0.1073163350137E+01
 0.1054749587941E+01
 0.1036341679840E+01
 0.1018626746549E+01
 0.1001983435712E+01
 0.9866850129842E+00
 0.9727500722221E+00
 0.9591530763815E+00
 0.9511464723599E+00
 0.9559619284131E+00
 0.4133357998346E+00
 0.6201465617248E+00
 0.7855353296067E+00
 0.9102371258054E+00
 0.9983856333158E+00
 0.1056167093312E+01
 0.1089650587318E+01
 0.1104788856005E+01
 0.1107821420344E+01
 0.1103412430804E+01
 0.1094513323306E+01
 0.1083090535477E+01
 0.1070575898291E+01
 0.1057895997484E+01
 0.1045633611983E+01
 0.1034211943302E+01
 0.1023815575335E+01
 0.1013314498993E+01
 0.1006547240350E+01
 0.1009322756801E+01
 0.3831423930461E+00
 0.5722860932757E+00
 0.7303246407591E+00
 0.8553858604170E+00
 0.9494436476129E+00
 0.1016613268263E+01
 0.1061226962506E+01
 0.1087802857784E+01
 0.1101532062836E+01
 0.1106662693321E+01
 0.1106096141793E+01
 0.1101866974465E+01
 0.1095515530508E+01
 0.1088129353399E+01
 0.1080452895504E+01
 0.1073046987250E+01
 0.1066266585957E+01
 0.1059017009187E+01
 0.1053871754103E+01
 0.1055260474421E+01
 0.3562152557714E+00
 0.5292772687903E+00
 0.6792278710539E+00
 0.8026378916425E+00
 0.8999728524655E+00
 0.9738108013066E+00
 0.1027162585230E+01
 0.1063390760825E+01
 0.1086675271995E+01
 0.1100710629920E+01
 0.1108193724430E+01
 0.1111104594550E+01
 0.1110992585970E+01
 0.1109022643395E+01
 0.1106044663969E+01
 0.1102728522836E+01
 0.1099590766512E+01
 0.1095710558063E+01
 0.1092611512529E+01
 0.1093409002115E+01
 0.3320432128055E+00
 0.4904851229809E+00
 0.6319837052975E+00
 0.7522537776545E+00
 0.8507354852500E+00
 0.9288894889115E+00
 0.9887511824574E+00
 0.1032793286038E+01
 0.1064290340166E+01
 0.1086331819396E+01
 0.1101313083905E+01
 0.1111069949213E+01
 0.1117079921619E+01
 0.1120506863569E+01
 0.1122241426488E+01
 0.1123014153793E+01
 0.1123467958962E+01
 0.1122980246239E+01
 0.1122326380342E+01
 0.1123444489819E+01
 0.3101822455866E+00
 0.4553346241832E+00
 0.5883046255598E+00
 0.7043764490173E+00
 0.8023030443029E+00
 0.8827769831968E+00
 0.9471380239189E+00
 0.9971969779424E+00
 0.1035460451850E+01
 0.1064423607409E+01
 0.1086134023929E+01
 0.1102228938543E+01
 0.1114059661345E+01
 0.1122727197085E+01
 0.1129100427189E+01
 0.1133906269827E+01
 0.1137834962300E+01
 0.1140622705440E+01
 0.1142678841168E+01
 0.1145074803278E+01
 0.2902315652441E+00
 0.4232738331488E+00
 0.5479396061246E+00
 0.6590704750387E+00
 0.7550826708137E+00
 0.8362137868822E+00
 0.9033115488165E+00
 0.9577031174123E+00
 0.1001266711645E+01
 0.1035955023348E+01
 0.1063461861159E+01
 0.1085203163742E+01
 0.1102379344890E+01
 0.1115995055403E+01
 0.1126856861890E+01
 0.1135628478598E+01
 0.1142936226331E+01
 0.1148790795417E+01
 0.1153548753263E+01
 0.1158029077958E+01
 0.2715974017081E+00
 0.3940229566232E+00
 0.5107500321834E+00
 0.6163286784766E+00
 0.7093314487366E+00
 0.7897566113934E+00
 0.8581058371710E+00
 0.9153121778405E+00
 0.9627548121647E+00
 0.1001928496703E+01
 0.1034193120788E+01
 0.1060738319846E+01
 0.1082614263836E+01
 0.1100728563756E+01
 0.1115825313786E+01
 0.1128499246206E+01
 0.1139230045275E+01
 0.1148117904851E+01
 0.1155441058844E+01
 0.1162105107969E+01
 0.5282484594738E-01
 0.5332614784679E-01
 0.5585995900198E-01
 0.6072895120662E-01
 0.6728022436848E-01
 0.7476964851846E-01
 0.8261625258827E-01
 0.9065213600549E-01
 0.9866606075750E-01
 0.1063913548223E+00
 0.1136265406071E+00
 0.1202327606194E+00
 0.1260981174003E+00
 0.1310917463077E+00
 0.1350929690158E+00
 0.1380485591626E+00
 0.1400849314908E+00
 0.1413996516504E+00
 0.1431764207628E+00
 0.1470216969334E+00
 0.4872525448461E-01
 0.4482917532241E-01
 0.4402085228577E-01
 0.4600802373118E-01
 0.4996643412522E-01
 0.5495332043966E-01
 0.6035606765615E-01
 0.6613006231066E-01
 0.7211648331501E-01
 0.7802462015840E-01
 0.8362555860111E-01
 0.8877387507211E-01
 0.9337969076398E-01
 0.9735976028186E-01
 0.1006928761321E+00
 0.1035007176709E+00
 0.1060740373322E+00
 0.1086558657283E+00
 0.1122020205508E+00
 0.1133794880036E+00
 0.4437500139005E-01
 0.3544246963272E-01
 0.3110984839889E-01
 0.3029561598301E-01
 0.3178844316545E-01
 0.3443861057802E-01
 0.3761635998103E-01
 0.4138323582030E-01
 0.4561453249565E-01
 0.4999961481097E-01
 0.5429673769689E-01
 0.5837210407852E-01
 0.6216534365824E-01
 0.6563701450485E-01
 0.6882994041369E-01
 0.7189026032270E-01
 0.7491563766027E-01
 0.7791785085598E-01
 0.8078469182456E-01
 0.8218306577770E-01
 0.3953147956270E-01
 0.2517591337806E-01
 0.1722219596677E-01
 0.1379642542475E-01
 0.1306808661081E-01
 0.1360936688596E-01
 0.1480157234295E-01
 0.1681626885003E-01
 0.1956824498973E-01
 0.2273721787001E-01
 0.2607578690592E-01
 0.2946014010564E-01
 0.3284208612089E-01
 0.3618550409647E-01
 0.3951497935217E-01
 0.4287441498541E-01
 0.4610631582658E-01
 0.4902729168729E-01
 0.5209511301249E-01
 0.5590140922401E-01
 0.3408769543916E-01
 0.1392154332360E-01
 0.3733461811741E-02
 0.5871279652389E-02
 0.8332172843637E-02
 0.9450389706343E-02
 0.9793522201740E-02
 0.9118713657364E-02
 0.7547602979588E-02
 0.5566429066160E-02
 0.3944470775599E-02
 0.4156213652661E-02
 0.6408823745348E-02
 0.9519750189842E-02
 0.1299161940110E-01
 0.1663512642122E-01
 0.2008535371638E-01
 0.2339070296062E-01
 0.2777953873566E-01
 0.3440653975286E-01
 0.2794212172850E-01
 0.2256973066190E-02
 0.1478281226716E-01
 0.2341884550650E-01
 0.2799903365926E-01
 0.3070379250573E-01
 0.3235914167627E-01
 0.3262851290081E-01
 0.3158452916266E-01
 0.2960534359032E-01
 0.2696029887882E-01
 0.2378226811906E-01
 0.2016159988712E-01
 0.1622284888432E-01
 0.1207480118060E-01
 0.7894510670331E-02
 0.4283973400447E-02
 0.3191061395049E-02
 0.8331184139680E-02
 0.1759980978522E-01
 0.2100010549974E-01
 0.1245674241925E-01
 0.3194144216078E-01
 0.4274008530964E-01
 0.4871898703959E-01
 0.5252765109377E-01
 0.5508124337636E-01
 0.5596333755774E-01
 0.5524141191458E-01
 0.5331855695697E-01
 0.5048173111788E-01
 0.4688639196373E-01
 0.4266088107588E-01
 0.3796666255361E-01
 0.3291827230464E-01
 0.2761893265495E-01
 0.2233129781618E-01
 0.1623629888742E-01
 0.7522474928154E-02
 0.5386125589250E-02
 0.1320436775605E-01
 0.2743837786273E-01
 0.5039451348305E-01
 0.6290465685488E-01
 0.6982374392339E-01
 0.7428988935000E-01
 0.7731329051273E-01
 0.7840362943635E-01
 0.7762519114341E-01
 0.7540372438360E-01
 0.7204799793132E-01
 0.6774591591368E-01
 0.6266915927639E-01
 0.5700968593801E-01
 0.5087839443465E-01
 0.4433148654764E-01
 0.3753144226950E-01
 0.2938970038485E-01
 0.1804552099447E-01
 0.3413821165986E-02
 0.5002091184927E-02
 0.4394928940147E-01
 0.7004538191604E-01
 0.8376317898161E-01
 0.9110836198572E-01
 0.9574745930071E-01
 0.9878887397590E-01
 0.9967234198597E-01
 0.9845759958948E-01
 0.9558786636594E-01
 0.9139626867646E-01
 0.8610892951363E-01
 0.7993786787948E-01
 0.7308866224363E-01
 0.6564623260077E-01
 0.5760363624345E-01
 0.4902641835175E-01
 0.3867705785529E-01
 0.2485804792977E-01
 0.7757506040356E-02
 0.7308374589307E-02
 0.6206957902231E-01
 0.9086994712051E-01
 0.1051964634088E+00
 0.1123915320132E+00
 0.1166814536512E+00
 0.1192681064629E+00
 0.1195233790077E+00
 0.1174980933406E+00
 0.1136461566297E+00
 0.1083283884335E+00
 0.1018139402914E+00
 0.9434884981119E-01
 0.8613473422729E-01
 0.7721496246379E-01
 0.6751696006225E-01
 0.5702614374349E-01
 0.4446140191333E-01
 0.2836726033666E-01
 0.9255933417804E-02
 0.1846099529750E-01
 0.8191013973188E-01
 0.1128420887044E+00
 0.1270783572331E+00
 0.1334888897282E+00
 0.1368738085054E+00
 0.1385136114851E+00
 0.1377148590557E+00
 0.1345143813008E+00
 0.1293707164416E+00
 0.1226778241773E+00
 0.1147509266863E+00
 0.1058588001039E+00
 0.9617962729033E-01
 0.8570449071578E-01
 0.7430175349736E-01
 0.6190023597837E-01
 0.4726841576150E-01
 0.2922831278088E-01
 0.8521161402858E-02
 0.3154667963769E-01
 0.1035838990504E+00
 0.1359216409057E+00
 0.1492703104998E+00
 0.1542109501653E+00
 0.1561040548707E+00
 0.1562833188082E+00
 0.1539993403942E+00
 0.1492739801482E+00
 0.1425673071672E+00
 0.1343125990065E+00
 0.1248675330668E+00
 0.1145025258258E+00
 0.1033485103529E+00
 0.9133708251591E-01
 0.7829118494165E-01
 0.6411210151803E-01
 0.4770094293293E-01
 0.2816807406373E-01
 0.6374685684577E-02
 0.4645912503407E-01
 0.1271980135073E+00
 0.1600493129368E+00
 0.1716228185351E+00
 0.1743673799736E+00
 0.1741489368354E+00
 0.1723224020044E+00
 0.1681131325203E+00
 0.1615385506455E+00
 0.1530593662181E+00
 0.1431476013149E+00
 0.1321829465395E+00
 0.1204003281579E+00
 0.1078548536879E+00
 0.9441681961049E-01
 0.7988572796008E-01
 0.6417105790124E-01
 0.4638167804234E-01
 0.2591277610694E-01
 0.3664211267132E-02
 0.6336439654339E-01
 0.1528456290493E+00
 0.1851426138363E+00
 0.1939820862182E+00
 0.1937764091480E+00
 0.1907805702114E+00
 0.1863478736864E+00
 0.1797603423030E+00
 0.1710608848825E+00
 0.1607012602536E+00
 0.1491664141217E+00
 0.1368058558879E+00
 0.1237629555022E+00
 0.1099892817289E+00
 0.9530360420707E-01
 0.7951510680570E-01
 0.6258389617337E-01
 0.4389500550508E-01
 0.2311603699171E-01
 0.1363516455024E-02
 0.8247505164783E-01
 0.1805922017131E+00
 0.2110908959199E+00
 0.2162054405058E+00
 0.2122816499916E+00
 0.2057575863367E+00
 0.1980172338085E+00
 0.1885906632613E+00
 0.1775916714462E+00
 0.1654088853876E+00
 0.1524546152714E+00
 0.1389523140495E+00
 0.1248880738359E+00
 0.1100982125965E+00
 0.9438033361403E-01
 0.7759819523532E-01
 0.5980749308189E-01
 0.4073169836716E-01
 0.2029137907515E-01
 0.1596774190106E-02
 0.1040212282797E+00
 0.2104481996157E+00
 0.2377472805444E+00
 0.2381957661374E+00
 0.2297815636513E+00
 0.2187943320211E+00
 0.2068679307394E+00
 0.1941774756367E+00
 0.1809156139097E+00
 0.1672175746273E+00
 0.1532404211958E+00
 0.1389526864810E+00
 0.1241397621118E+00
 0.1085501805225E+00
 0.9201610320940E-01
 0.7450599902596E-01
 0.5620887070084E-01
 0.3724519764899E-01
 0.1776155389678E-01
 0.2477181389566E-02
 0.1282328656520E+00
 0.2423059459305E+00
 0.2649097777564E+00
 0.2599889151475E+00
 0.2462727635268E+00
 0.2294703443398E+00
 0.2122081035694E+00
 0.1960374838291E+00
 0.1809464905693E+00
 0.1663678859029E+00
 0.1519235072257E+00
 0.1372286770393E+00
 0.1219049281683E+00
 0.1056940552742E+00
 0.8853346033785E-01
 0.7053532154412E-01
 0.5203995284708E-01
 0.3362682921377E-01
 0.1563501612186E-01
 0.2530799544542E-02
 0.1552986707289E+00
 0.2757412701488E+00
 0.2923034668053E+00
 0.2819742587213E+00
 0.2619046269403E+00
 0.2369381817417E+00
 0.2130360758789E+00
 0.1937619301996E+00
 0.1779046129784E+00
 0.1633907993382E+00
 0.1490479567509E+00
 0.1342242947513E+00
 0.1185342415653E+00
 0.1018229105398E+00
 0.8418952248664E-01
 0.6590104280627E-01
 0.4743132411041E-01
 0.2990228430549E-01
 0.1380838758479E-01
 0.1887033081424E-02
 0.1853073573042E+00
 0.3093798506769E+00
 0.3194587366562E+00
 0.3058785578557E+00
 0.2764163224877E+00
 0.2395658921134E+00
 0.2080967686776E+00
 0.1873577521982E+00
 0.1725668722249E+00
 0.1590832968006E+00
 0.1451726403487E+00
 0.1303089695313E+00
 0.1142979335269E+00
 0.9715521050499E-01
 0.7917847950372E-01
 0.6075117420180E-01
 0.4241313818159E-01
 0.2593661677194E-01
 0.1197534420181E-01
 0.1001211586734E-02
 0.2165592905208E+00
 0.3346135116214E+00
 0.3506511670767E+00
 0.3337554896221E+00
 0.2884777725691E+00
 0.2345200549841E+00
 0.1962843757488E+00
 0.1780193660575E+00
 0.1662988702243E+00
 0.1542342633137E+00
 0.1406718979887E+00
 0.1257276679925E+00
 0.1094020744090E+00
 0.9181730003424E-01
 0.7360921114669E-01
 0.5528672577391E-01
 0.3696966982868E-01
 0.2134627452565E-01
 0.9572008855242E-02
 0.4387494400688E-03
 0.1167050957357E+01
 0.1164866317650E+01
 0.1154264919464E+01
 0.1135722915263E+01
 0.1109372268057E+01
 0.1075340088255E+01
 0.1033835089182E+01
 0.9851433689038E+00
 0.9296147847278E+00
 0.8676491518286E+00
 0.7996871777447E+00
 0.7262102965174E+00
 0.6477555430085E+00
 0.5649545571892E+00
 0.4786103457305E+00
 0.3898339193492E+00
 0.3002862699400E+00
 0.2126499111780E+00
 0.1317400924840E+00
 0.6898078072064E-01
 0.1169150148914E+01
 0.1170973280949E+01
 0.1165265259124E+01
 0.1151799916931E+01
 0.1130678573554E+01
 0.1102031686067E+01
 0.1066031628236E+01
 0.1022913631383E+01
 0.9729768762538E+00
 0.9165775277656E+00
 0.8541206720041E+00
 0.7860571806010E+00
 0.7128921284595E+00
 0.6352136183760E+00
 0.5537541275153E+00
 0.4695007540869E+00
 0.3838792858664E+00
 0.2990703887474E+00
 0.2186934223301E+00
 0.1504467086078E+00
 0.1169609629278E+01
 0.1174781584977E+01
 0.1173383093444E+01
 0.1164812974319E+01
 0.1148915003427E+01
 0.1125716972649E+01
 0.1095322743722E+01
 0.1057899758509E+01
 0.1013679710423E+01
 0.9629554876114E+00
 0.9060751089364E+00
 0.8434370132683E+00
 0.7754928917719E+00
 0.7027663873001E+00
 0.6258984593138E+00
 0.5457312592643E+00
 0.4634351749173E+00
 0.3806576422742E+00
 0.2996039339304E+00
 0.2220792069453E+00
 0.1168205711323E+01
 0.1176327096691E+01
 0.1178735785996E+01
 0.1174677239264E+01
 0.1163790573762E+01
 0.1145940105102E+01
 0.1121113424429E+01
 0.1089378692766E+01
 0.1050872476683E+01
 0.1005793606460E+01
 0.9543954656519E+00
 0.8969767014212E+00
 0.8338738709046E+00
 0.7654622211698E+00
 0.6921734608290E+00
 0.6145400445798E+00
 0.5332665744141E+00
 0.4492726788227E+00
 0.3634605793167E+00
 0.2749291365315E+00
 0.1164757858528E+01
 0.1175489062673E+01
 0.1181255825634E+01
 0.1181275416326E+01
 0.1175060516786E+01
 0.1162330316103E+01
 0.1142938767531E+01
 0.1116833209317E+01
 0.1084034340160E+01
 0.1044625394601E+01
 0.9987415194199E+00
 0.9465557749787E+00
 0.8882617956658E+00
 0.8240559914439E+00
 0.7541252737325E+00
 0.6786497853524E+00
 0.5978292508962E+00
 0.5119202217272E+00
 0.4211053543296E+00
 0.3251326057323E+00
 0.1159150230866E+01
 0.1172179102629E+01
 0.1180881523722E+01
 0.1184522769490E+01
 0.1182559377073E+01
 0.1174607260647E+01
 0.1160402282690E+01
 0.1139770858057E+01
 0.1112611829080E+01
 0.1078884450116E+01
 0.1038596632507E+01
 0.9917889328778E+00
 0.9385117405455E+00
 0.8787950912161E+00
 0.8126132784527E+00
 0.7398515597498E+00
 0.6602929036656E+00
 0.5736625677510E+00
 0.4798102848344E+00
 0.3790556318476E+00
 0.1151306018263E+01
 0.1166339703831E+01
 0.1177592850474E+01
 0.1184418935639E+01
 0.1186271143311E+01
 0.1182707296437E+01
 0.1173375808025E+01
 0.1158000228885E+01
 0.1136367226134E+01
 0.1108317062958E+01
 0.1073733289355E+01
 0.1032527855035E+01
 0.9846180551660E+00
 0.9298922521942E+00
 0.8681625116894E+00
 0.7991058748857E+00
 0.7222077822922E+00
 0.6367561031564E+00
 0.5420629671394E+00
 0.4381026731559E+00
 0.1141173566457E+01
 0.1157915581144E+01
 0.1171353763715E+01
 0.1180945075128E+01
 0.1186175160664E+01
 0.1186583303658E+01
 0.1181765703857E+01
 0.1171371608192E+01
 0.1155098143208E+01
 0.1132684884578E+01
 0.1103906716416E+01
 0.1068562264674E+01
 0.1026454471862E+01
 0.9773592711712E+00
 0.9209777123723E+00
 0.8568669605431E+00
 0.7843484795120E+00
 0.7024100638463E+00
 0.6096649525005E+00
 0.5048888391300E+00
 0.1128727244369E+01
 0.1146866472103E+01
 0.1162128042745E+01
 0.1174073131053E+01
 0.1182240651446E+01
 0.1186181519270E+01
 0.1185472139399E+01
 0.1179718704090E+01
 0.1168557873164E+01
 0.1151655678092E+01
 0.1128704284206E+01
 0.1099414897447E+01
 0.1063504101703E+01
 0.1020669855866E+01
 0.9705518591370E+00
 0.9126683777928E+00
 0.8463173055186E+00
 0.7704185865358E+00
 0.6832656537999E+00
 0.5821227672279E+00
 0.1113962678674E+01
 0.1133166437506E+01
 0.1149883472383E+01
 0.1163770680176E+01
 0.1174429186126E+01
 0.1181441427617E+01
 0.1184389483488E+01
 0.1182864251070E+01
 0.1176470435146E+01
 0.1164829377775E+01
 0.1147579984522E+01
 0.1124376830489E+01
 0.1094883616742E+01
 0.1058759179155E+01
 0.1015631791416E+01
 0.9650548043828E+00
 0.9064305622455E+00
 0.8388756191245E+00
 0.7609561056440E+00
 0.6700229192445E+00
 0.1096894350772E+01
 0.1116805636727E+01
 0.1134596986138E+01
 0.1150006489395E+01
 0.1162697769260E+01
 0.1172295444620E+01
 0.1178404314448E+01
 0.1180620680186E+01
 0.1178539959329E+01
 0.1171762572883E+01
 0.1159898751205E+01
 0.1142572018892E+01
 0.1119420473353E+01
 0.1090094399912E+01
 0.1054248069068E+01
 0.1011522354884E+01
 0.9615125388498E+00
 0.9037103727316E+00
 0.8373972630064E+00
 0.7614574592844E+00
 0.1077544856364E+01
 0.1097780029615E+01
 0.1116246363133E+01
 0.1132744921438E+01
 0.1146997307536E+01
 0.1158674628843E+01
 0.1167414692881E+01
 0.1172833262296E+01
 0.1174532578386E+01
 0.1172108935682E+01
 0.1165160183560E+01
 0.1153293427097E+01
 0.1136132813459E+01
 0.1113327094847E+01
 0.1084556661649E+01
 0.1049540032925E+01
 0.1008040671754E+01
 0.9598781551111E+00
 0.9049600412434E+00
 0.8434111929124E+00
 0.1055947315583E+01
 0.1076102998340E+01
 0.1094823845973E+01
 0.1111958752119E+01
 0.1127281463373E+01
 0.1140510601731E+01
 0.1151323110988E+01
 0.1159363824777E+01
 0.1164253335606E+01
 0.1165595659499E+01
 0.1162986659107E+01
 0.1156023806791E+01
 0.1144317637882E+01
 0.1127505204360E+01
 0.1105266097448E+01
 0.1077342349343E+01
 0.1043565158729E+01
 0.1003894841821E+01
 0.9584887331689E+00
 0.9078144518614E+00
 0.1032145902429E+01
 0.1051810145896E+01
 0.1070347479839E+01
 0.1087646031770E+01
 0.1103526631880E+01
 0.1117755038115E+01
 0.1130051086647E+01
 0.1140095607593E+01
 0.1147536429220E+01
 0.1151994661500E+01
 0.1153072207347E+01
 0.1150361227635E+01
 0.1143456115530E+01
 0.1131968457877E+01
 0.1115545561323E+01
 0.1093893540473E+01
 0.1066806770583E+01
 0.1034206345614E+01
 0.9961881828005E+00
 0.9530728720879E+00
 0.1006195613378E+01
 0.1024955730801E+01
 0.1042861180718E+01
 0.1059835364471E+01
 0.1075742544688E+01
 0.1090394760950E+01
 0.1103557141291E+01
 0.1114951836668E+01
 0.1124261410945E+01
 0.1131132619571E+01
 0.1135181454066E+01
 0.1136000224436E+01
 0.1133167315314E+01
 0.1126260079884E+01
 0.1114871145206E+01
 0.1098628240415E+01
 0.1077217602177E+01
 0.1050410710506E+01
 0.1018092304692E+01
 0.9802840010994E+00
 0.9781650067457E+00
 0.9956128255359E+00
 0.1012435159052E+01
 0.1028588467967E+01
 0.1043977656441E+01
 0.1058459949284E+01
 0.1071847282596E+01
 0.1083907453878E+01
 0.1094364645163E+01
 0.1102900054919E+01
 0.1109153408180E+01
 0.1112726106258E+01
 0.1113186712785E+01
 0.1110079298267E+01
 0.1102934810731E+01
 0.1091285071950E+01
 0.1074678270302E+01
 0.1052694595540E+01
 0.1024962108717E+01
 0.9911735436548E+00
 0.9481394781169E+00
 0.9638759853771E+00
 0.9791683553991E+00
 0.9940036260703E+00
 0.1008324470330E+01
 0.1022031682567E+01
 0.1034984660561E+01
 0.1047000330775E+01
 0.1057851030495E+01
 0.1067261905650E+01
 0.1074908436195E+01
 0.1080414770078E+01
 0.1083353606332E+01
 0.1083248348304E+01
 0.1079578024625E+01
 0.1071784882630E+01
 0.1059283520507E+01
 0.1041468973726E+01
 0.1017721828072E+01
 0.9874167479677E+00
 0.9162240860838E+00
 0.9298646299614E+00
 0.9431921249823E+00
 0.9562203216207E+00
 0.9689258579216E+00
 0.9812504570828E+00
 0.9931004536697E+00
 0.1004344284055E+01
 0.1014808382312E+01
 0.1024271841378E+01
 0.1032460215532E+01
 0.1039038941193E+01
 0.1043607032396E+01
 0.1045691941448E+01
 0.1044746672266E+01
 0.1040150167329E+01
 0.1031211261763E+01
 0.1017174618192E+01
 0.9972214294365E+00
 0.9704562985466E+00
 0.8825456548900E+00
 0.8937263291714E+00
 0.9046744290045E+00
 0.9154246463624E+00
 0.9259822703408E+00
 0.9363257938254E+00
 0.9464062953278E+00
 0.9561444204998E+00
 0.9654253055561E+00
 0.9740915705605E+00
 0.9819344457083E+00
 0.9886831406257E+00
 0.9939927574058E+00
 0.9974314419412E+00
 0.9984681275632E+00
 0.9964631012841E+00
 0.9906643025896E+00
 0.9802119203822E+00
 0.9641513403011E+00
 0.9414280584631E+00
 0.8472541402420E+00
 0.8556397299355E+00
 0.8638241109573E+00
 0.8718550701306E+00
 0.8797595580566E+00
 0.8875468378420E+00
 0.8952083772451E+00
 0.9027153031211E+00
 0.9100136054702E+00
 0.9170170108725E+00
 0.9235972610503E+00
 0.9295714286782E+00
 0.9346859141809E+00
 0.9385970049187E+00
 0.9408485578291E+00
 0.9408488609073E+00
 0.9378513598666E+00
 0.9309470633165E+00
 0.9190806136257E+00
 0.9011168730521E+00
 0.8105237639388E+00
 0.8158174894017E+00
 0.8208949999601E+00
 0.8258080367233E+00
 0.8305967862396E+00
 0.8352933741776E+00
 0.8399228601858E+00
 0.8445020594258E+00
 0.8490363215139E+00
 0.8535140834350E+00
 0.8578987241664E+00
 0.8621169468059E+00
 0.8660425964027E+00
 0.8694745310643E+00
 0.8721070794982E+00
 0.8734922281130E+00
 0.8729953456077E+00
 0.8697530190262E+00
 0.8626492020218E+00
 0.8503495321780E+00
 0.7725542656710E+00
 0.7745083151008E+00
 0.7761884652592E+00
 0.7776416297124E+00
 0.7789117650051E+00
 0.7800444075845E+00
 0.7810891587972E+00
 0.7821005207947E+00
 0.7831373033179E+00
 0.7842605327468E+00
 0.7855294505125E+00
 0.7869947606747E+00
 0.7886876895793E+00
 0.7906025320140E+00
 0.7926690252792E+00
 0.7947090717226E+00
 0.7963704248096E+00
 0.7970321871768E+00
 0.7956931121194E+00
 0.7908382940493E+00
 0.7335657936441E+00
 0.7319895267747E+00
 0.7300459089516E+00
 0.7277682939765E+00
 0.7251947419194E+00
 0.7223741188169E+00
 0.7193702124593E+00
 0.7162647700643E+00
 0.7131600492044E+00
 0.7101811791704E+00
 0.7074783333924E+00
 0.7052283547343E+00
 0.7036349266865E+00
 0.7029254005442E+00
 0.7033404923651E+00
 0.7051092635563E+00
 0.7083943170530E+00
 0.7131767165306E+00
 0.7190404096301E+00
 0.7248850494094E+00
 0.6938000678173E+00
 0.6885689568592E+00
 0.6828517597914E+00
 0.6766596791689E+00
 0.6700161127502E+00
 0.6629642321040E+00
 0.6555723561835E+00
 0.6479387713152E+00
 0.6401971784676E+00
 0.6325236255673E+00
 0.6251456171349E+00
 0.6183540336780E+00
 0.6125184601296E+00
 0.6081063678880E+00
 0.6057059756233E+00
 0.6060505807213E+00
 0.6100358614489E+00
 0.6187031769579E+00
 0.6330869527972E+00
 0.6537416046779E+00
 0.6535185994582E+00
 0.6445839141875E+00
 0.6350326173576E+00
 0.6248464802962E+00
 0.6140282709482E+00
 0.6026102319986E+00
 0.5906597202487E+00
 0.5782847601743E+00
 0.5656413712639E+00
 0.5529440869032E+00
 0.5404810528991E+00
 0.5286354354635E+00
 0.5179156183154E+00
 0.5089979891931E+00
 0.5027883429533E+00
 0.5005117626965E+00
 0.5038471564722E+00
 0.5151319012779E+00
 0.5376680610835E+00
 0.5757964487596E+00
 0.6129986404920E+00
 0.6003968254565E+00
 0.5870521920297E+00
 0.5729127838962E+00
 0.5579605137740E+00
 0.5422192304070E+00
 0.5257590842364E+00
 0.5087013932103E+00
 0.4912264389286E+00
 0.4735858805256E+00
 0.4561214603534E+00
 0.4392922592405E+00
 0.4237140268136E+00
 0.4102164499564E+00
 0.3999286112497E+00
 0.3944114901202E+00
 0.3958754690945E+00
 0.4075650671315E+00
 0.4345319756299E+00
 0.4855826894958E+00
 0.5725282332419E+00
 0.5563894154225E+00
 0.5394037543583E+00
 0.5214867289993E+00
 0.5026089987657E+00
 0.4828016065770E+00
 0.4621572741334E+00
 0.4408334431932E+00
 0.4190596410637E+00
 0.3971505415672E+00
 0.3755258990560E+00
 0.3547389535135E+00
 0.3355158597607E+00
 0.3188103728272E+00
 0.3058809289436E+00
 0.2984028671557E+00
 0.2986392724877E+00
 0.3097248202118E+00
 0.3361749073413E+00
 0.3853339176578E+00
 0.5324002121414E+00
 0.5129546272878E+00
 0.4925976250456E+00
 0.4712221875051E+00
 0.4488114003804E+00
 0.4254368453222E+00
 0.4012551328818E+00
 0.3765088490963E+00
 0.3515338094319E+00
 0.3267728593175E+00
 0.3027959159023E+00
 0.2803257485864E+00
 0.2602686682713E+00
 0.2437482874464E+00
 0.2321378444795E+00
 0.2270796071125E+00
 0.2304633710034E+00
 0.2442810010989E+00
 0.2701381797199E+00
 0.3068457557371E+00
 0.4929040466042E+00
 0.4704817435154E+00
 0.4471336969587E+00
 0.4227515757565E+00
 0.3973677528665E+00
 0.3711407835219E+00
 0.3443442061054E+00
 0.3173635766461E+00
 0.2907015200520E+00
 0.2649884892611E+00
 0.2409959111429E+00
 0.2196472539415E+00
 0.2020202892218E+00
 0.1893291658749E+00
 0.1828655495185E+00
 0.1838599033086E+00
 0.1931848605537E+00
 0.2107389705165E+00
 0.2340703939248E+00
 0.2555945506727E+00
 0.4543162144055E+00
 0.4293345718676E+00
 0.4034626216120E+00
 0.3766233084601E+00
 0.3489424634734E+00
 0.3207134876703E+00
 0.2923723005492E+00
 0.2644848761782E+00
 0.2377430332325E+00
 0.2129618145637E+00
 0.1910707297794E+00
 0.1730894045151E+00
 0.1600746642473E+00
 0.1530197489155E+00
 0.1526765871167E+00
 0.1592578829900E+00
 0.1719561343918E+00
 0.1881938578046E+00
 0.2026464878198E+00
 0.2072631510674E+00
 0.4168876657483E+00
 0.3898206145621E+00
 0.3619390902363E+00
 0.3332383482327E+00
 0.3039835266439E+00
 0.2746420985904E+00
 0.2458358496382E+00
 0.2183114743817E+00
 0.1929186681684E+00
 0.1705836954381E+00
 0.1522667654446E+00
 0.1388909248930E+00
 0.1312281528300E+00
 0.1297262312832E+00
 0.1342606865511E+00
 0.1438033160756E+00
 0.1560249171131E+00
 0.1669573242130E+00
 0.1712202423895E+00
 0.1635358688561E+00
 0.3808303403296E+00
 0.3521676753014E+00
 0.3227959173797E+00
 0.2928266049159E+00
 0.2627082416518E+00
 0.2331055053518E+00
 0.2048193383192E+00
 0.1787357078892E+00
 0.1557819182420E+00
 0.1368731440527E+00
 0.1228360487438E+00
 0.1142988980090E+00
 0.1115405503152E+00
 0.1142977809651E+00
 0.1215446612684E+00
 0.1312838484220E+00
 0.1404505707949E+00
 0.1451662396220E+00
 0.1416525744131E+00
 0.1277274895651E+00
 0.3463205551181E+00
 0.3165421815520E+00
 0.2861731791563E+00
 0.2554898433281E+00
 0.2251627392714E+00
 0.1960544095834E+00
 0.1691043744301E+00
 0.1452594398199E+00
 0.1254134945473E+00
 0.1103353278206E+00
 0.1005727426639E+00
 0.9632904147096E-01
 0.9731732545107E-01
 0.1026125940485E+00
 0.1105401405576E+00
 0.1186682703973E+00
 0.1240250277013E+00
 0.1236816346041E+00
 0.1156862476255E+00
 0.9996992990672E-01
 0.3135019677837E+00
 0.2830571674205E+00
 0.2521236314859E+00
 0.2212076337165E+00
 0.1912338100827E+00
 0.1632371329604E+00
 0.1382244582197E+00
 0.1171025395929E+00
 0.1006181642256E+00
 0.8928455476883E-01
 0.8328777817912E-01
 0.8237885429035E-01
 0.8577162201872E-01
 0.9207954110699E-01
 0.9933663165915E-01
 0.1051661170839E+00
 0.1071669705550E+00
 0.1035185745838E+00
 0.9361989882276E-01
 0.7838228383833E-01
 0.2824827606127E+00
 0.2517645275291E+00
 0.2206062574106E+00
 0.1898428371769E+00
 0.1606749936266E+00
 0.1342548678685E+00
 0.1115592157494E+00
 0.9334951120980E-01
 0.8013484027739E-01
 0.7211593029343E-01
 0.6911080364690E-01
 0.7048237786121E-01
 0.7509808630422E-01
 0.8135496049154E-01
 0.8730558432466E-01
 0.9092129104176E-01
 0.9049793807110E-01
 0.8511713727374E-01
 0.7495299436695E-01
 0.6119583071087E-01
 0.2533344879659E+00
 0.2226394777878E+00
 0.1914740357690E+00
 0.1611498469131E+00
 0.1331463878944E+00
 0.1086328557390E+00
 0.8843911679923E-01
 0.7308770224866E-01
 0.6280440520084E-01
 0.5748127707715E-01
 0.5662615411645E-01
 0.5933136219763E-01
 0.6429247211381E-01
 0.6989990720930E-01
 0.7442125575391E-01
 0.7628015694067E-01
 0.7439331695172E-01
 0.6845419874690E-01
 0.5900242038785E-01
 0.4716846827894E-01
 0.2260945907614E+00
 0.1955628388379E+00
 0.1644684713516E+00
 0.1348161399518E+00
 0.1082928023292E+00
 0.8592357973883E-01
 0.6824785046236E-01
 0.5550538057697E-01
 0.4765262939193E-01
 0.4432956084745E-01
 0.4482981044516E-01
 0.4810675884648E-01
 0.5283702319107E-01
 0.5754824435609E-01
 0.6081252749322E-01
 0.6149059901696E-01
 0.5897190376823E-01
 0.5331591101899E-01
 0.4519976421731E-01
 0.3562632914278E-01
 0.2007816290051E+00
 0.1702884358017E+00
 0.1392126968936E+00
 0.1105038207669E+00
 0.8584162038765E-01
 0.6574507483995E-01
 0.5042867928903E-01
 0.3989565726871E-01
 0.3390225358355E-01
 0.3192243582576E-01
 0.3313766130393E-01
 0.3647328399792E-01
 0.4068947012318E-01
 0.4451840319584E-01
 0.4683932113435E-01
 0.4686830329756E-01
 0.4431159043223E-01
 0.3941533322156E-01
 0.3287865605929E-01
 0.2565868229730E-01
 0.1773931688035E+00
 0.1461373612002E+00
 0.1150249664289E+00
 0.8811256385369E-01
 0.6567154744515E-01
 0.4779208720883E-01
 0.3452815859394E-01
 0.2574914867811E-01
 0.2108978350826E-01
 0.1993453730528E-01
 0.2142900392510E-01
 0.2453858879040E-01
 0.2815513595975E-01
 0.3122667545515E-01
 0.3290064920272E-01
 0.3265953976735E-01
 0.3040878490120E-01
 0.2648119451919E-01
 0.2154748798228E-01
 0.1657141008033E-01
 0.1548229028231E+00
 0.1207493936698E+00
 0.9237604595005E-01
 0.6810165982434E-01
 0.4782264891922E-01
 0.3184436285266E-01
 0.2021413963218E-01
 0.1272575871176E-01
 0.8932706625421E-02
 0.8189811948493E-02
 0.9662556790634E-02
 0.1238900214149E-01
 0.1541197447448E-01
 0.1788727196204E-01
 0.1918654955103E-01
 0.1898514574591E-01
 0.1730511826845E-01
 0.1449891367740E-01
 0.1119522431411E-01
 0.8187681914282E-02
</DataArray>
<DataArray type="Float64" Name="CK" NumberOfComponents="1" ComponentName0="CK" format="ascii">
 0.0000000000000E+00
 0.0000000000000E+00
 0.0000000000000E+00
 0.0000000000000E+00
 0.0000000000000E+00
 0.0000000000000E+00
 0.0000000000000E+00
 0.0000000000000E+00
 0.0000000000000E+00
 0.0000000000000E+00
 0.0000000000000E+00
 0.0000000000000E+00
 0.0000000000000E+00
 0.0000000000000E+00
 0.0000000000000E+00
 0.0000000000000E+00
 0.0000000000000E+00
 0.0000000000000E+00
 0.0000000000000E+00
 0.0000000000000E+00
 0.0000000000000E+00
 0.0000000000000E+00
 0.0000000000000E+00
 0.0000000000000E+00
 0.0000000000000E+00
 0.0000000000000E+00
 0.0000000000000E+00
 0.0000000000000E+00
 0.0000000000000E+00
 0.0000000000000E+00
 0.0000000000000E+00
 0.0000000000000E+00
 0.0000000000000E+00
 0.0000000000000E+00
 0.0000000000000E+00
 0.0000000000000E+00
 0.0000000000000E+00
 0.0000000000000E+00
 0.0000000000000E+00
 0.0000000000000E+00
 0.0000000000000E+00
 0.0000000000000E+00
 0.0000000000000E+00
 0.0000000000000E+00
 0.0000000000000E+00
 0.0000000000000E+00
 0.0000000000000E+00
 0.0000000000000E+00
 0.0000000000000E+00
 0.0000000000000E+00
 0.0000000000000E+00
 0.0000000000000E+00
 0.0000000000000E+00
 0.0000000000000E+00
 0.0000000000000E+00
 0.0000000000000E+00
 0.0000000000000E+00
 0.0000000000000E+00
 0.0000000000000E+00
 0.0000000000000E+00
 0.0000000000000E+00
 0.0000000000000E+00
 0.0000000000000E+00
 0.0000000000000E+00
 0.0000000000000E+00
 0.0000000000000E+00
 0.0000000000000E+00
 0.0000000000000E+00
 0.0000000000000E+00
 0.0000000000000E+00
 0.0000000000000E+00
 0.0000000000000E+00
 0.0000000000000E+00
 0.0000000000000E+00
 0.0000000000000E+00
 0.0000000000000E+00
 0.0000000000000E+00
 0.0000000000000E+00
 0.0000000000000E+00
 0.0000000000000E+00
 0.0000000000000E+00
 0.0000000000000E+00
 0.0000000000000E+00
 0.0000000000000E+00
 0.0000000000000E+00
 0.0000000000000E+00
 0.0000000000000E+00
 0.0000000000000E+00
 0.0000000000000E+00
 0.0000000000000E+00
 0.0000000000000E+00
 0.0000000000000E+00
 0.0000000000000E+00
 0.0000000000000E+00
 0.0000000000000E+00
 0.0000000000000E+00
 0.0000000000000E+00
 0.0000000000000E+00
 0.0000000000000E+00
 0.0000000000000E+00
 0.0000000000000E+00
 0.0000000000000E+00
 0.0000000000000E+00
 0.0000000000000E+00
 0.0000000000000E+00
 0.0000000000000E+00
 0.0000000000000E+00
 0.0000000000000E+00
 0.0000000000000E+00
 0.0000000000000E+00
 0.0000000000000E+00
 0.0000000000000E+00
 0.0000000000000E+00
 0.0000000000000E+00
 0.0000000000000E+00
 0.0000000000000E+00
 0.0000000000000E+00
 0.0000000000000E+00
 0.0000000000000E+00
 0.0000000000000E+00
 0.0000000000000E+00
 0.0000000000000E+00
 0.0000000000000E+00
 0.0000000000000E+00
 0.0000000000000E+00
 0.0000000000000E+00
 0.0000000000000E+00
 0.0000000000000E+00
 0.0000000000000E+00
 0.0000000000000E+00
 0.0000000000000E+00
 0.0000000000000E+00
 0.0000000000000E+00
 0.0000000000000E+00
 0.0000000000000E+00
 0.0000000000000E+00
 0.0000000000000E+00
 0.0000000000000E+00
 0.0000000000000E+00
 0.0000000000000E+00
 0.0000000000000E+00
 0.0000000000000E+00
 0.0000000000000E+00
 0.0000000000000E+00
 0.0000000000000E+00
 0.0000000000000E+00
 0.0000000000000E+00
 0.0000000000000E+00
 0.0000000000000E+00
 0.0000000000000E+00
 0.0000000000000E+00
 0.0000000000000E+00
 0.0000000000000E+00
 0.0000000000000E+00
 0.0000000000000E+00
 0.0000000000000E+00
 0.0000000000000E+00
 0.0000000000000E+00
 0.0000000000000E+00
 0.0000000000000E+00
 0.0000000000000E+00
 0.0000000000000E+00
 0.0000000000000E+00
 0.0000000000000E+00
 0.0000000000000E+00
 0.0000000000000E+00
 0.0000000000000E+00
 0.0000000000000E+00
 0.0000000000000E+00
 0.0000000000000E+00
 0.0000000000000E+00
 0.0000000000000E+00
 0.0000000000000E+00
 0.0000000000000E+00
 0.0000000000000E+00
 0.0000000000000E+00
 0.0000000000000E+00
 0.0000000000000E+00
 0.0000000000000E+00
 0.0000000000000E+00
 0.0000000000000E+00
 0.0000000000000E+00
 0.0000000000000E+00
 0.0000000000000E+00
 0.0000000000000E+00
 0.0000000000000E+00
 0.0000000000000E+00
 0.0000000000000E+00
 0.0000000000000E+00
 0.0000000000000E+00
 0.0000000000000E+00
 0.0000000000000E+00
 0.0000000000000E+00
 0.0000000000000E+00
 0.0000000000000E+00
 0.0000000000000E+00
 0.0000000000000E+00
 0.0000000000000E+00
 0.0000000000000E+00
 0.0000000000000E+00
 0.0000000000000E+00
 0.0000000000000E+00
 0.0000000000000E+00
 0.0000000000000E+00
 0.0000000000000E+00
 0.0000000000000E+00
 0.0000000000000E+00
 0.0000000000000E+00
 0.0000000000000E+00
 0.0000000000000E+00
 0.0000000000000E+00
 0.0000000000000E+00
 0.0000000000000E+00
 0.0000000000000E+00
 0.0000000000000E+00
 0.0000000000000E+00
 0.0000000000000E+00
 0.0000000000000E+00
 0.0000000000000E+00
 0.0000000000000E+00
 0.0000000000000E+00
 0.0000000000000E+00
 0.0000000000000E+00
 0.0000000000000E+00
 0.0000000000000E+00
 0.0000000000000E+00
 0.0000000000000E+00
 0.0000000000000E+00
 0.0000000000000E+00
 0.0000000000000E+00
 0.0000000000000E+00
 0.0000000000000E+00
 0.0000000000000E+00
 0.0000000000000E+00
 0.0000000000000E+00
 0.0000000000000E+00
 0.0000000000000E+00
 0.0000000000000E+00
 0.0000000000000E+00
 0.0000000000000E+00
 0.0000000000000E+00
 0.0000000000000E+00
 0.0000000000000E+00
 0.0000000000000E+00
 0.0000000000000E+00
 0.0000000000000E+00
 0.0000000000000E+00
 0.0000000000000E+00
 0.0000000000000E+00
 0.0000000000000E+00
 0.0000000000000E+00
 0.0000000000000E+00
 0.0000000000000E+00
 0.0000000000000E+00
 0.0000000000000E+00
 0.0000000000000E+00
 0.0000000000000E+00
 0.0000000000000E+00
 0.0000000000000E+00
 0.0000000000000E+00
 0.0000000000000E+00
 0.0000000000000E+00
 0.0000000000000E+00
 0.0000000000000E+00
 0.0000000000000E+00
 0.0000000000000E+00
 0.0000000000000E+00
 0.0000000000000E+00
 0.0000000000000E+00
 0.0000000000000E+00
 0.0000000000000E+00
 0.0000000000000E+00
 0.0000000000000E+00
 0.0000000000000E+00
 0.0000000000000E+00
 0.0000000000000E+00
 0.0000000000000E+00
 0.0000000000000E+00
 0.0000000000000E+00
 0.0000000000000E+00
 0.0000000000000E+00
 0.0000000000000E+00
 0.0000000000000E+00
 0.0000000000000E+00
 0.0000000000000E+00
 0.0000000000000E+00
 0.0000000000000E+00
 0.0000000000000E+00
 0.0000000000000E+00
 0.0000000000000E+00
 0.0000000000000E+00
 0.0000000000000E+00
 0.0000000000000E+00
 0.0000000000000E+00
 0.0000000000000E+00
 0.0000000000000E+00
 0.0000000000000E+00
 0.0000000000000E+00
 0.0000000000000E+00
 0.0000000000000E+00
 0.0000000000000E+00
 0.0000000000000E+00
 0.0000000000000E+00
 0.0000000000000E+00
 0.0000000000000E+00
 0.0000000000000E+00
 0.0000000000000E+00
 0.0000000000000E+00
 0.0000000000000E+00
 0.0000000000000E+00
 0.0000000000000E+00
 0.0000000000000E+00
 0.0000000000000E+00
 0.0000000000000E+00
 0.0000000000000E+00
 0.0000000000000E+00
 0.0000000000000E+00
 0.0000000000000E+00
 0.0000000000000E+00
 0.0000000000000E+00
 0.0000000000000E+00
 0.0000000000000E+00
 0.0000000000000E+00
 0.0000000000000E+00
 0.0000000000000E+00
 0.0000000000000E+00
 0.0000000000000E+00
 0.0000000000000E+00
 0.0000000000000E+00
 0.0000000000000E+00
 0.0000000000000E+00
 0.0000000000000E+00
 0.0000000000000E+00
 0.0000000000000E+00
 0.0000000000000E+00
 0.0000000000000E+00
 0.0000000000000E+00
 0.0000000000000E+00
 0.0000000000000E+00
 0.0000000000000E+00
 0.0000000000000E+00
 0.0000000000000E+00
 0.0000000000000E+00
 0.0000000000000E+00
 0.0000000000000E+00
 0.0000000000000E+00
 0.0000000000000E+00
 0.0000000000000E+00
 0.0000000000000E+00
 0.0000000000000E+00
 0.0000000000000E+00
 0.0000000000000E+00
 0.0000000000000E+00
 0.0000000000000E+00
 0.0000000000000E+00
 0.0000000000000E+00
 0.0000000000000E+00
 0.0000000000000E+00
 0.0000000000000E+00
 0.0000000000000E+00
 0.0000000000000E+00
 0.0000000000000E+00
 0.0000000000000E+00
 0.0000000000000E+00
 0.0000000000000E+00
 0.0000000000000E+00
 0.0000000000000E+00
 0.0000000000000E+00
 0.0000000000000E+00
 0.0000000000000E+00
 0.0000000000000E+00
 0.0000000000000E+00
 0.0000000000000E+00
 0.0000000000000E+00
 0.0000000000000E+00
 0.0000000000000E+00
 0.0000000000000E+00
 0.0000000000000E+00
 0.0000000000000E+00
 0.0000000000000E+00
 0.0000000000000E+00
 0.0000000000000E+00
 0.0000000000000E+00
 0.0000000000000E+00
 0.0000000000000E+00
 0.0000000000000E+00
 0.0000000000000E+00
 0.0000000000000E+00
 0.0000000000000E+00
 0.0000000000000E+00
 0.0000000000000E+00
 0.0000000000000E+00
 0.0000000000000E+00
 0.0000000000000E+00
 0.0000000000000E+00
 0.0000000000000E+00
 0.0000000000000E+00
 0.0000000000000E+00
 0.0000000000000E+00
 0.0000000000000E+00
 0.0000000000000E+00
 0.0000000000000E+00
 0.0000000000000E+00
 0.0000000000000E+00
 0.0000000000000E+00
 0.0000000000000E+00
 0.0000000000000E+00
 0.0000000000000E+00
 0.0000000000000E+00
 0.0000000000000E+00
 0.0000000000000E+00
 0.0000000000000E+00
 0.0000000000000E+00
 0.0000000000000E+00
 0.0000000000000E+00
 0.0000000000000E+00
 0.0000000000000E+00
 0.0000000000000E+00
 0.0000000000000E+00
 0.0000000000000E+00
 0.0000000000000E+00
 0.0000000000000E+00
 0.0000000000000E+00
 0.0000000000000E+00
 0.0000000000000E+00
 0.0000000000000E+00
 0.0000000000000E+00
 0.0000000000000E+00
 0.0000000000000E+00
 0.0000000000000E+00
 0.0000000000000E+00
 0.0000000000000E+00
 0.0000000000000E+00
 0.0000000000000E+00
 0.0000000000000E+00
 0.0000000000000E+00
 0.0000000000000E+00
 0.0000000000000E+00
 0.0000000000000E+00
 0.0000000000000E+00
 0.0000000000000E+00
 0.0000000000000E+00
 0.0000000000000E+00
 0.0000000000000E+00
 0.0000000000000E+00
 0.0000000000000E+00
 0.0000000000000E+00
 0.0000000000000E+00
 0.0000000000000E+00
 0.0000000000000E+00
 0.0000000000000E+00
 0.0000000000000E+00
 0.0000000000000E+00
 0.0000000000000E+00
 0.0000000000000E+00
 0.0000000000000E+00
 0.0000000000000E+00
 0.0000000000000E+00
 0.0000000000000E+00
 0.0000000000000E+00
 0.0000000000000E+00
 0.0000000000000E+00
 0.0000000000000E+00
 0.0000000000000E+00
 0.0000000000000E+00
 0.0000000000000E+00
 0.0000000000000E+00
 0.0000000000000E+00
 0.0000000000000E+00
 0.0000000000000E+00
 0.0000000000000E+00
 0.0000000000000E+00
 0.0000000000000E+00
 0.0000000000000E+00
 0.0000000000000E+00
 0.0000000000000E+00
 0.0000000000000E+00
 0.0000000000000E+00
 0.0000000000000E+00
 0.0000000000000E+00
 0.0000000000000E+00
 0.0000000000000E+00
 0.0000000000000E+00
 0.0000000000000E+00
 0.0000000000000E+00
 0.0000000000000E+00
 0.0000000000000E+00
 0.0000000000000E+00
 0.0000000000000E+00
 0.0000000000000E+00
 0.0000000000000E+00
 0.0000000000000E+00
 0.0000000000000E+00
 0.0000000000000E+00
 0.0000000000000E+00
 0.0000000000000E+00
 0.0000000000000E+00
 0.0000000000000E+00
 0.0000000000000E+00
 0.0000000000000E+00
 0.0000000000000E+00
 0.0000000000000E+00
 0.0000000000000E+00
 0.0000000000000E+00
 0.0000000000000E+00
 0.0000000000000E+00
 0.0000000000000E+00
 0.0000000000000E+00
 0.0000000000000E+00
 0.0000000000000E+00
 0.0000000000000E+00
 0.0000000000000E+00
 0.0000000000000E+00
 0.0000000000000E+00
 0.0000000000000E+00
 0.0000000000000E+00
 0.0000000000000E+00
 0.0000000000000E+00
 0.0000000000000E+00
 0.0000000000000E+00
 0.0000000000000E+00
 0.0000000000000E+00
 0.0000000000000E+00
 0.0000000000000E+00
 0.0000000000000E+00
 0.0000000000000E+00
 0.0000000000000E+00
 0.0000000000000E+00
 0.0000000000000E+00
 0.0000000000000E+00
 0.0000000000000E+00
 0.0000000000000E+00
 0.0000000000000E+00
 0.0000000000000E+00
 0.0000000000000E+00
 0.0000000000000E+00
 0.0000000000000E+00
 0.0000000000000E+00
 0.0000000000000E+00
 0.0000000000000E+00
 0.0000000000000E+00
 0.0000000000000E+00
 0.0000000000000E+00
 0.0000000000000E+00
 0.0000000000000E+00
 0.0000000000000E+00
 0.0000000000000E+00
 0.0000000000000E+00
 0.0000000000000E+00
 0.0000000000000E+00
 0.0000000000000E+00
 0.0000000000000E+00
 0.0000000000000E+00
 0.0000000000000E+00
 0.0000000000000E+00
 0.0000000000000E+00
 0.0000000000000E+00
 0.0000000000000E+00
 0.0000000000000E+00
 0.0000000000000E+00
 0.0000000000000E+00
 0.0000000000000E+00
 0.0000000000000E+00
 0.0000000000000E+00
 0.0000000000000E+00
 0.0000000000000E+00
 0.0000000000000E+00
 0.0000000000000E+00
 0.0000000000000E+00
 0.0000000000000E+00
 0.0000000000000E+00
 0.0000000000000E+00
 0.0000000000000E+00
 0.0000000000000E+00
 0.0000000000000E+00
 0.0000000000000E+00
 0.0000000000000E+00
 0.0000000000000E+00
 0.0000000000000E+00
 0.0000000000000E+00
 0.0000000000000E+00
 0.0000000000000E+00
 0.0000000000000E+00
 0.0000000000000E+00
 0.0000000000000E+00
 0.0000000000000E+00
 0.0000000000000E+00
 0.0000000000000E+00
 0.0000000000000E+00
 0.0000000000000E+00
 0.0000000000000E+00
 0.0000000000000E+00
 0.0000000000000E+00
 0.0000000000000E+00
 0.0000000000000E+00
 0.0000000000000E+00
 0.0000000000000E+00
 0.0000000000000E+00
 0.0000000000000E+00
 0.0000000000000E+00
 0.0000000000000E+00
 0.0000000000000E+00
 0.0000000000000E+00
 0.0000000000000E+00
 0.0000000000000E+00
 0.0000000000000E+00
 0.0000000000000E+00
 0.0000000000000E+00
 0.0000000000000E+00
 0.0000000000000E+00
 0.0000000000000E+00
 0.0000000000000E+00
 0.0000000000000E+00
 0.0000000000000E+00
 0.0000000000000E+00
 0.0000000000000E+00
 0.0000000000000E+00
 0.0000000000000E+00
 0.0000000000000E+00
 0.0000000000000E+00
 0.0000000000000E+00
 0.0000000000000E+00
 0.0000000000000E+00
 0.0000000000000E+00
 0.0000000000000E+00
 0.0000000000000E+00
 0.0000000000000E+00
 0.0000000000000E+00
 0.0000000000000E+00
 0.0000000000000E+00
 0.0000000000000E+00
 0.0000000000000E+00
 0.0000000000000E+00
 0.0000000000000E+00
 0.0000000000000E+00
 0.0000000000000E+00
 0.0000000000000E+00
 0.0000000000000E+00
 0.0000000000000E+00
 0.0000000000000E+00
 0.0000000000000E+00
 0.0000000000000E+00
 0.0000000000000E+00
 0.0000000000000E+00
 0.0000000000000E+00
 0.0000000000000E+00
 0.0000000000000E+00
 0.0000000000000E+00
 0.0000000000000E+00
 0.0000000000000E+00
 0.0000000000000E+00
 0.0000000000000E+00
 0.0000000000000E+00
 0.0000000000000E+00
 0.0000000000000E+00
 0.0000000000000E+00
 0.0000000000000E+00
 0.0000000000000E+00
 0.0000000000000E+00
 0.0000000000000E+00
 0.0000000000000E+00
 0.0000000000000E+00
 0.0000000000000E+00
 0.0000000000000E+00
 0.0000000000000E+00
 0.0000000000000E+00
 0.0000000000000E+00
 0.0000000000000E+00
 0.0000000000000E+00
 0.0000000000000E+00
 0.0000000000000E+00
 0.0000000000000E+00
 0.0000000000000E+00
 0.0000000000000E+00
 0.0000000000000E+00
 0.0000000000000E+00
 0.0000000000000E+00
 0.0000000000000E+00
 0.0000000000000E+00
 0.0000000000000E+00
 0.0000000000000E+00
 0.0000000000000E+00
 0.0000000000000E+00
 0.0000000000000E+00
 0.0000000000000E+00
 0.0000000000000E+00
 0.0000000000000E+00
 0.0000000000000E+00
 0.0000000000000E+00
 0.0000000000000E+00
 0.0000000000000E+00
 0.0000000000000E+00
 0.0000000000000E+00
 0.0000000000000E+00
 0.0000000000000E+00
 0.0000000000000E+00
 0.0000000000000E+00
 0.0000000000000E+00
 0.0000000000000E+00
 0.0000000000000E+00
 0.0000000000000E+00
 0.0000000000000E+00
 0.0000000000000E+00
 0.0000000000000E+00
 0.0000000000000E+00
 0.0000000000000E+00
 0.0000000000000E+00
 0.0000000000000E+00
 0.0000000000000E+00
 0.0000000000000E+00
 0.0000000000000E+00
 0.0000000000000E+00
 0.0000000000000E+00
 0.0000000000000E+00
 0.0000000000000E+00
 0.0000000000000E+00
 0.0000000000000E+00
 0.0000000000000E+00
 0.0000000000000E+00
 0.0000000000000E+00
 0.0000000000000E+00
 0.0000000000000E+00
 0.0000000000000E+00
 0.0000000000000E+00
 0.0000000000000E+00
 0.0000000000000E+00
 0.0000000000000E+00
 0.0000000000000E+00
 0.0000000000000E+00
 0.0000000000000E+00
 0.0000000000000E+00
 0.0000000000000E+00
 0.0000000000000E+00
 0.0000000000000E+00
 0.0000000000000E+00
 0.0000000000000E+00
 0.0000000000000E+00
 0.0000000000000E+00
 0.0000000000000E+00
 0.0000000000000E+00
 0.0000000000000E+00
 0.0000000000000E+00
 0.0000000000000E+00
 0.0000000000000E+00
 0.0000000000000E+00
 0.0000000000000E+00
 0.0000000000000E+00
 0.0000000000000E+00
 0.0000000000000E+00
 0.0000000000000E+00
 0.0000000000000E+00
 0.0000000000000E+00
 0.0000000000000E+00
 0.0000000000000E+00
 0.0000000000000E+00
 0.0000000000000E+00
 0.0000000000000E+00
 0.0000000000000E+00
 0.0000000000000E+00
 0.0000000000000E+00
 0.0000000000000E+00
 0.0000000000000E+00
 0.0000000000000E+00
 0.0000000000000E+00
 0.0000000000000E+00
 0.0000000000000E+00
 0.0000000000000E+00
 0.0000000000000E+00
 0.0000000000000E+00
 0.0000000000000E+00
 0.0000000000000E+00
 0.0000000000000E+00
 0.0000000000000E+00
 0.0000000000000E+00
 0.0000000000000E+00
 0.0000000000000E+00
 0.0000000000000E+00
 0.0000000000000E+00
 0.0000000000000E+00
 0.0000000000000E+00
 0.0000000000000E+00
 0.0000000000000E+00
 0.0000000000000E+00
 0.0000000000000E+00
 0.0000000000000E+00
 0.0000000000000E+00
 0.0000000000000E+00
 0.0000000000000E+00
 0.0000000000000E+00
 0.0000000000000E+00
 0.0000000000000E+00
 0.0000000000000E+00
 0.0000000000000E+00
 0.0000000000000E+00
 0.0000000000000E+00
 0.0000000000000E+00
 0.0000000000000E+00
 0.0000000000000E+00
 0.0000000000000E+00
 0.0000000000000E+00
 0.0000000000000E+00
 0.0000000000000E+00
 0.0000000000000E+00
 0.0000000000000E+00
 0.0000000000000E+00
 0.0000000000000E+00
 0.0000000000000E+00
 0.0000000000000E+00
 0.0000000000000E+00
 0.0000000000000E+00
 0.0000000000000E+00
 0.0000000000000E+00
 0.0000000000000E+00
 0.0000000000000E+00
 0.0000000000000E+00
 0.0000000000000E+00
 0.0000000000000E+00
 0.0000000000000E+00
 0.0000000000000E+00
 0.0000000000000E+00
 0.0000000000000E+00
 0.0000000000000E+00
 0.0000000000000E+00
 0.0000000000000E+00
 0.0000000000000E+00
 0.0000000000000E+00
 0.0000000000000E+00
 0.0000000000000E+00
 0.0000000000000E+00
 0.0000000000000E+00
 0.0000000000000E+00
 0.0000000000000E+00
 0.0000000000000E+00
 0.0000000000000E+00
 0.0000000000000E+00
 0.0000000000000E+00
 0.0000000000000E+00
 0.0000000000000E+00
 0.0000000000000E+00
 0.0000000000000E+00
 0.0000000000000E+00
 0.0000000000000E+00
 0.0000000000000E+00
 0.0000000000000E+00
 0.0000000000000E+00
 0.0000000000000E+00
 0.0000000000000E+00
 0.0000000000000E+00
 0.0000000000000E+00
 0.0000000000000E+00
 0.0000000000000E+00
 0.0000000000000E+00
 0.0000000000000E+00
 0.0000000000000E+00
 0.0000000000000E+00
 0.0000000000000E+00
 0.0000000000000E+00
 0.0000000000000E+00
 0.0000000000000E+00
 0.0000000000000E+00
 0.0000000000000E+00
 0.0000000000000E+00
 0.0000000000000E+00
 0.0000000000000E+00
 0.0000000000000E+00
 0.0000000000000E+00
 0.0000000000000E+00
 0.0000000000000E+00
 0.0000000000000E+00
 0.0000000000000E+00
 0.0000000000000E+00
 0.0000000000000E+00
 0.0000000000000E+00
 0.0000000000000E+00
 0.0000000000000E+00
 0.0000000000000E+00
 0.0000000000000E+00
 0.0000000000000E+00
 0.0000000000000E+00
 0.0000000000000E+00
 0.0000000000000E+00
 0.0000000000000E+00
 0.0000000000000E+00
 0.0000000000000E+00
 0.0000000000000E+00
 0.0000000000000E+00
 0.0000000000000E+00
 0.0000000000000E+00
 0.0000000000000E+00
 0.0000000000000E+00
 0.0000000000000E+00
 0.0000000000000E+00
 0.0000000000000E+00
 0.0000000000000E+00
 0.0000000000000E+00
 0.0000000000000E+00
 0.0000000000000E+00
 0.0000000000000E+00
 0.0000000000000E+00
 0.0000000000000E+00
 0.0000000000000E+00
 0.0000000000000E+00
 0.0000000000000E+00
 0.0000000000000E+00
 0.0000000000000E+00
 0.0000000000000E+00
 0.0000000000000E+00
 0.0000000000000E+00
 0.0000000000000E+00
 0.0000000000000E+00
 0.0000000000000E+00
 0.0000000000000E+00
 0.0000000000000E+00
 0.0000000000000E+00
 0.0000000000000E+00
 0.0000000000000E+00
 0.0000000000000E+00
 0.0000000000000E+00
 0.0000000000000E+00
 0.0000000000000E+00
 0.0000000000000E+00
 0.0000000000000E+00
 0.0000000000000E+00
 0.0000000000000E+00
 0.0000000000000E+00
 0.0000000000000E+00
 0.0000000000000E+00
 0.0000000000000E+00
 0.0000000000000E+00
 0.0000000000000E+00
 0.0000000000000E+00
 0.0000000000000E+00
 0.0000000000000E+00
 0.0000000000000E+00
 0.0000000000000E+00
 0.0000000000000E+00
 0.0000000000000E+00
 0.0000000000000E+00
 0.0000000000000E+00
 0.0000000000000E+00
 0.0000000000000E+00
 0.0000000000000E+00
 0.0000000000000E+00
 0.0000000000000E+00
 0.0000000000000E+00
 0.0000000000000E+00
 0.0000000000000E+00
 0.0000000000000E+00
 0.0000000000000E+00
 0.0000000000000E+00
 0.0000000000000E+00
 0.0000000000000E+00
 0.0000000000000E+00
 0.0000000000000E+00
 0.0000000000000E+00
 0.0000000000000E+00
 0.0000000000000E+00
 0.0000000000000E+00
 0.0000000000000E+00
 0.0000000000000E+00
 0.0000000000000E+00
 0.0000000000000E+00
 0.0000000000000E+00
 0.0000000000000E+00
 0.0000000000000E+00
 0.0000000000000E+00
 0.0000000000000E+00
 0.0000000000000E+00
 0.0000000000000E+00
 0.0000000000000E+00
 0.0000000000000E+00
 0.0000000000000E+00
 0.0000000000000E+00
 0.0000000000000E+00
 0.0000000000000E+00
 0.0000000000000E+00
 0.0000000000000E+00
 0.0000000000000E+00
 0.0000000000000E+00
 0.0000000000000E+00
 0.0000000000000E+00
 0.0000000000000E+00
 0.0000000000000E+00
 0.0000000000000E+00
 0.0000000000000E+00
 0.0000000000000E+00
 0.0000000000000E+00
 0.0000000000000E+00
 0.0000000000000E+00
 0.0000000000000E+00
 0.0000000000000E+00
 0.0000000000000E+00
 0.0000000000000E+00
 0.0000000000000E+00
 0.0000000000000E+00
 0.0000000000000E+00
 0.0000000000000E+00
 0.0000000000000E+00
 0.0000000000000E+00
 0.0000000000000E+00
 0.0000000000000E+00
 0.0000000000000E+00
 0.0000000000000E+00
 0.0000000000000E+00
 0.0000000000000E+00
 0.0000000000000E+00
 0.0000000000000E+00
 0.0000000000000E+00
 0.0000000000000E+00
 0.0000000000000E+00
 0.0000000000000E+00
 0.0000000000000E+00
 0.0000000000000E+00
 0.0000000000000E+00
 0.0000000000000E+00
 0.0000000000000E+00
 0.0000000000000E+00
 0.0000000000000E+00
 0.0000000000000E+00
 0.0000000000000E+00
 0.0000000000000E+00
 0.0000000000000E+00
 0.0000000000000E+00
 0.0000000000000E+00
 0.0000000000000E+00
 0.0000000000000E+00
 0.0000000000000E+00
 0.0000000000000E+00
 0.0000000000000E+00
 0.0000000000000E+00
 0.0000000000000E+00
 0.0000000000000E+00
 0.0000000000000E+00
 0.0000000000000E+00
 0.0000000000000E+00
 0.0000000000000E+00
 0.0000000000000E+00
 0.0000000000000E+00
 0.0000000000000E+00
 0.0000000000000E+00
 0.0000000000000E+00
 0.0000000000000E+00
 0.0000000000000E+00
 0.0000000000000E+00
 0.0000000000000E+00
 0.0000000000000E+00
 0.0000000000000E+00
 0.0000000000000E+00
 0.0000000000000E+00
 0.0000000000000E+00
 0.0000000000000E+00
 0.0000000000000E+00
 0.0000000000000E+00
 0.0000000000000E+00
 0.0000000000000E+00
 0.0000000000000E+00
 0.0000000000000E+00
 0.0000000000000E+00
 0.0000000000000E+00
 0.0000000000000E+00
 0.0000000000000E+00
 0.0000000000000E+00
 0.0000000000000E+00
 0.0000000000000E+00
 0.0000000000000E+00
 0.0000000000000E+00
 0.0000000000000E+00
 0.0000000000000E+00
 0.0000000000000E+00
 0.0000000000000E+00
 0.0000000000000E+00
 0.0000000000000E+00
 0.0000000000000E+00
 0.0000000000000E+00
 0.0000000000000E+00
 0.0000000000000E+00
 0.0000000000000E+00
 0.0000000000000E+00
 0.0000000000000E+00
 0.0000000000000E+00
 0.0000000000000E+00
 0.0000000000000E+00
 0.0000000000000E+00
 0.0000000000000E+00
 0.0000000000000E+00
 0.0000000000000E+00
 0.0000000000000E+00
 0.0000000000000E+00
 0.0000000000000E+00
 0.0000000000000E+00
 0.0000000000000E+00
 0.0000000000000E+00
 0.0000000000000E+00
 0.0000000000000E+00
 0.0000000000000E+00
 0.0000000000000E+00
 0.0000000000000E+00
 0.0000000000000E+00
 0.0000000000000E+00
 0.0000000000000E+00
 0.0000000000000E+00
 0.0000000000000E+00
 0.0000000000000E+00
 0.0000000000000E+00
 0.0000000000000E+00
 0.0000000000000E+00
 0.0000000000000E+00
 0.0000000000000E+00
 0.0000000000000E+00
 0.0000000000000E+00
 0.0000000000000E+00
 0.0000000000000E+00
 0.0000000000000E+00
 0.0000000000000E+00
 0.0000000000000E+00
 0.0000000000000E+00
 0.0000000000000E+00
 0.0000000000000E+00
 0.0000000000000E+00
 0.0000000000000E+00
 0.0000000000000E+00
 0.0000000000000E+00
 0.0000000000000E+00
 0.0000000000000E+00
 0.0000000000000E+00
 0.0000000000000E+00
 0.0000000000000E+00
 0.0000000000000E+00
 0.0000000000000E+00
 0.0000000000000E+00
 0.0000000000000E+00
 0.0000000000000E+00
 0.0000000000000E+00
 0.0000000000000E+00
 0.0000000000000E+00
 0.0000000000000E+00
 0.0000000000000E+00
 0.0000000000000E+00
 0.0000000000000E+00
 0.0000000000000E+00
 0.0000000000000E+00
 0.0000000000000E+00
 0.0000000000000E+00
 0.0000000000000E+00
 0.0000000000000E+00
 0.0000000000000E+00
 0.0000000000000E+00
 0.0000000000000E+00
 0.0000000000000E+00
 0.0000000000000E+00
 0.0000000000000E+00
 0.0000000000000E+00
 0.0000000000000E+00
 0.0000000000000E+00
 0.0000000000000E+00
 0.0000000000000E+00
 0.0000000000000E+00
 0.0000000000000E+00
 0.0000000000000E+00
 0.0000000000000E+00
 0.0000000000000E+00
 0.0000000000000E+00
 0.0000000000000E+00
 0.0000000000000E+00
 0.0000000000000E+00
 0.0000000000000E+00
 0.0000000000000E+00
 0.0000000000000E+00
 0.0000000000000E+00
 0.0000000000000E+00
 0.0000000000000E+00
 0.0000000000000E+00
 0.0000000000000E+00
 0.0000000000000E+00
 0.0000000000000E+00
 0.0000000000000E+00
 0.0000000000000E+00
 0.0000000000000E+00
 0.0000000000000E+00
 0.0000000000000E+00
 0.0000000000000E+00
 0.0000000000000E+00
 0.0000000000000E+00
 0.0000000000000E+00
 0.0000000000000E+00
 0.0000000000000E+00
 0.0000000000000E+00
 0.0000000000000E+00
 0.0000000000000E+00
 0.0000000000000E+00
 0.0000000000000E+00
 0.0000000000000E+00
 0.0000000000000E+00
 0.0000000000000E+00
 0.0000000000000E+00
 0.0000000000000E+00
 0.0000000000000E+00
 0.0000000000000E+00
 0.0000000000000E+00
 0.0000000000000E+00
 0.0000000000000E+00
 0.0000000000000E+00
 0.0000000000000E+00
 0.0000000000000E+00
 0.0000000000000E+00
 0.0000000000000E+00
 0.0000000000000E+00
 0.0000000000000E+00
 0.0000000000000E+00
 0.0000000000000E+00
 0.0000000000000E+00
 0.0000000000000E+00
 0.0000000000000E+00
 0.0000000000000E+00
 0.0000000000000E+00
 0.0000000000000E+00
 0.0000000000000E+00
 0.0000000000000E+00
 0.0000000000000E+00
 0.0000000000000E+00
 0.0000000000000E+00
 0.0000000000000E+00
 0.0000000000000E+00
 0.0000000000000E+00
 0.0000000000000E+00
 0.0000000000000E+00
 0.0000000000000E+00
 0.0000000000000E+00
 0.0000000000000E+00
 0.0000000000000E+00
 0.0000000000000E+00
 0.0000000000000E+00
 0.0000000000000E+00
 0.0000000000000E+00
 0.0000000000000E+00
 0.0000000000000E+00
 0.0000000000000E+00
 0.0000000000000E+00
 0.0000000000000E+00
 0.0000000000000E+00
 0.0000000000000E+00
 0.0000000000000E+00
 0.0000000000000E+00
 0.0000000000000E+00
 0.0000000000000E+00
 0.0000000000000E+00
 0.0000000000000E+00
 0.0000000000000E+00
 0.0000000000000E+00
 0.0000000000000E+00
 0.0000000000000E+00
 0.0000000000000E+00
 0.0000000000000E+00
 0.0000000000000E+00
 0.0000000000000E+00
 0.0000000000000E+00
 0.0000000000000E+00
 0.0000000000000E+00
 0.0000000000000E+00
 0.0000000000000E+00
 0.0000000000000E+00
 0.0000000000000E+00
 0.0000000000000E+00
 0.0000000000000E+00
 0.0000000000000E+00
 0.0000000000000E+00
 0.0000000000000E+00
 0.0000000000000E+00
 0.0000000000000E+00
 0.0000000000000E+00
 0.0000000000000E+00
 0.0000000000000E+00
 0.0000000000000E+00
 0.0000000000000E+00
 0.0000000000000E+00
 0.0000000000000E+00
 0.0000000000000E+00
 0.0000000000000E+00
 0.0000000000000E+00
 0.0000000000000E+00
 0.0000000000000E+00
 0.0000000000000E+00
 0.0000000000000E+00
 0.0000000000000E+00
 0.0000000000000E+00
 0.0000000000000E+00
 0.0000000000000E+00
 0.0000000000000E+00
 0.0000000000000E+00
 0.0000000000000E+00
 0.0000000000000E+00
 0.0000000000000E+00
 0.0000000000000E+00
 0.0000000000000E+00
 0.0000000000000E+00
 0.0000000000000E+00
 0.0000000000000E+00
 0.0000000000000E+00
 0.0000000000000E+00
 0.0000000000000E+00
 0.0000000000000E+00
 0.0000000000000E+00
 0.0000000000000E+00
 0.0000000000000E+00
 0.0000000000000E+00
 0.0000000000000E+00
 0.0000000000000E+00
 0.0000000000000E+00
 0.0000000000000E+00
 0.0000000000000E+00
 0.0000000000000E+00
 0.0000000000000E+00
 0.0000000000000E+00
 0.0000000000000E+00
 0.0000000000000E+00
 0.0000000000000E+00
 0.0000000000000E+00
 0.0000000000000E+00
 0.0000000000000E+00
 0.0000000000000E+00
 0.0000000000000E+00
 0.0000000000000E+00
 0.0000000000000E+00
 0.0000000000000E+00
 0.0000000000000E+00
 0.0000000000000E+00
 0.0000000000000E+00
 0.0000000000000E+00
 0.0000000000000E+00
 0.0000000000000E+00
 0.0000000000000E+00
 0.0000000000000E+00
 0.0000000000000E+00
 0.0000000000000E+00
 0.0000000000000E+00
 0.0000000000000E+00
 0.0000000000000E+00
 0.0000000000000E+00
 0.0000000000000E+00
 0.0000000000000E+00
 0.0000000000000E+00
 0.0000000000000E+00
 0.0000000000000E+00
 0.0000000000000E+00
 0.0000000000000E+00
 0.0000000000000E+00
 0.0000000000000E+00
 0.0000000000000E+00
 0.0000000000000E+00
 0.0000000000000E+00
 0.0000000000000E+00
 0.0000000000000E+00
 0.0000000000000E+00
 0.0000000000000E+00
 0.0000000000000E+00
 0.0000000000000E+00
 0.0000000000000E+00
 0.0000000000000E+00
 0.0000000000000E+00
 0.0000000000000E+00
 0.0000000000000E+00
 0.0000000000000E+00
 0.0000000000000E+00
 0.0000000000000E+00
 0.0000000000000E+00
 0.0000000000000E+00
 0.0000000000000E+00
 0.0000000000000E+00
 0.0000000000000E+00
 0.0000000000000E+00
 0.0000000000000E+00
 0.0000000000000E+00
 0.0000000000000E+00
 0.0000000000000E+00
 0.0000000000000E+00
 0.0000000000000E+00
 0.0000000000000E+00
 0.0000000000000E+00
 0.0000000000000E+00
 0.0000000000000E+00
 0.0000000000000E+00
 0.0000000000000E+00
 0.0000000000000E+00
 0.0000000000000E+00
 0.0000000000000E+00
 0.0000000000000E+00
 0.0000000000000E+00
 0.0000000000000E+00
 0.0000000000000E+00
 0.0000000000000E+00
 0.0000000000000E+00
 0.0000000000000E+00
 0.0000000000000E+00
 0.0000000000000E+00
 0.0000000000000E+00
 0.0000000000000E+00
 0.0000000000000E+00
 0.0000000000000E+00
 0.0000000000000E+00
 0.0000000000000E+00
 0.0000000000000E+00
 0.0000000000000E+00
 0.0000000000000E+00
 0.0000000000000E+00
 0.0000000000000E+00
 0.0000000000000E+00
 0.0000000000000E+00
 0.0000000000000E+00
 0.0000000000000E+00
 0.0000000000000E+00
 0.0000000000000E+00
 0.0000000000000E+00
 0.0000000000000E+00
 0.0000000000000E+00
 0.0000000000000E+00
 0.0000000000000E+00
 0.0000000000000E+00
 0.0000000000000E+00
 0.0000000000000E+00
 0.0000000000000E+00
 0.0000000000000E+00
 0.0000000000000E+00
 0.0000000000000E+00
 0.0000000000000E+00
 0.0000000000000E+00
 0.0000000000000E+00
 0.0000000000000E+00
 0.0000000000000E+00
 0.0000000000000E+00
 0.0000000000000E+00
 0.0000000000000E+00
 0.0000000000000E+00
 0.0000000000000E+00
 0.0000000000000E+00
 0.0000000000000E+00
 0.0000000000000E+00
 0.0000000000000E+00
 0.0000000000000E+00
 0.0000000000000E+00
 0.0000000000000E+00
 0.0000000000000E+00
 0.0000000000000E+00
 0.0000000000000E+00
 0.0000000000000E+00
 0.0000000000000E+00
 0.0000000000000E+00
 0.0000000000000E+00
 0.0000000000000E+00
 0.0000000000000E+00
 0.0000000000000E+00
 0.0000000000000E+00
 0.0000000000000E+00
 0.0000000000000E+00
 0.0000000000000E+00
 0.0000000000000E+00
 0.0000000000000E+00
 0.0000000000000E+00
 0.0000000000000E+00
 0.0000000000000E+00
 0.0000000000000E+00
 0.0000000000000E+00
 0.0000000000000E+00
 0.0000000000000E+00
 0.0000000000000E+00
 0.0000000000000E+00
 0.0000000000000E+00
 0.0000000000000E+00
 0.0000000000000E+00
 0.0000000000000E+00
 0.0000000000000E+00
 0.0000000000000E+00
 0.0000000000000E+00
 0.0000000000000E+00
 0.0000000000000E+00
 0.0000000000000E+00
 0.0000000000000E+00
 0.0000000000000E+00
 0.0000000000000E+00
 0.0000000000000E+00
 0.0000000000000E+00
 0.0000000000000E+00
 0.0000000000000E+00
 0.0000000000000E+00
 0.0000000000000E+00
 0.0000000000000E+00
 0.0000000000000E+00
 0.0000000000000E+00
 0.0000000000000E+00
 0.0000000000000E+00
 0.0000000000000E+00
 0.0000000000000E+00
 0.0000000000000E+00
 0.0000000000000E+00
 0.0000000000000E+00
 0.0000000000000E+00
 0.0000000000000E+00
 0.0000000000000E+00
 0.0000000000000E+00
 0.0000000000000E+00
 0.0000000000000E+00
 0.0000000000000E+00
 0.0000000000000E+00
 0.0000000000000E+00
 0.0000000000000E+00
 0.0000000000000E+00
 0.0000000000000E+00
 0.0000000000000E+00
 0.0000000000000E+00
 0.0000000000000E+00
 0.0000000000000E+00
 0.0000000000000E+00
 0.0000000000000E+00
 0.0000000000000E+00
 0.0000000000000E+00
 0.0000000000000E+00
 0.0000000000000E+00
 0.0000000000000E+00
 0.0000000000000E+00
 0.0000000000000E+00
 0.0000000000000E+00
 0.0000000000000E+00
 0.0000000000000E+00
 0.0000000000000E+00
 0.0000000000000E+00
 0.0000000000000E+00
 0.0000000000000E+00
 0.0000000000000E+00
 0.0000000000000E+00
 0.0000000000000E+00
 0.0000000000000E+00
 0.0000000000000E+00
 0.0000000000000E+00
 0.0000000000000E+00
 0.0000000000000E+00
 0.0000000000000E+00
 0.0000000000000E+00
 0.0000000000000E+00
 0.0000000000000E+00
 0.0000000000000E+00
 0.0000000000000E+00
 0.0000000000000E+00
 0.0000000000000E+00
 0.0000000000000E+00
 0.0000000000000E+00
 0.0000000000000E+00
 0.0000000000000E+00
 0.0000000000000E+00
 0.0000000000000E+00
 0.0000000000000E+00
 0.0000000000000E+00
 0.0000000000000E+00
 0.0000000000000E+00
 0.0000000000000E+00
 0.0000000000000E+00
 0.0000000000000E+00
 0.0000000000000E+00
 0.0000000000000E+00
 0.0000000000000E+00
 0.0000000000000E+00
 0.0000000000000E+00
 0.0000000000000E+00
 0.0000000000000E+00
 0.0000000000000E+00
 0.0000000000000E+00
 0.0000000000000E+00
 0.0000000000000E+00
 0.0000000000000E+00
 0.0000000000000E+00
 0.0000000000000E+00
 0.0000000000000E+00
 0.0000000000000E+00
 0.0000000000000E+00
 0.0000000000000E+00
 0.0000000000000E+00
 0.0000000000000E+00
 0.0000000000000E+00
 0.0000000000000E+00
 0.0000000000000E+00
 0.0000000000000E+00
 0.0000000000000E+00
 0.0000000000000E+00
 0.0000000000000E+00
 0.0000000000000E+00
 0.0000000000000E+00
 0.0000000000000E+00
 0.0000000000000E+00
 0.0000000000000E+00
 0.0000000000000E+00
 0.0000000000000E+00
 0.0000000000000E+00
 0.0000000000000E+00
 0.0000000000000E+00
 0.0000000000000E+00
 0.0000000000000E+00
 0.0000000000000E+00
 0.0000000000000E+00
 0.0000000000000E+00
 0.0000000000000E+00
 0.0000000000000E+00
 0.0000000000000E+00
 0.0000000000000E+00
 0.0000000000000E+00
 0.0000000000000E+00
 0.0000000000000E+00
 0.0000000000000E+00
 0.0000000000000E+00
 0.0000000000000E+00
 0.0000000000000E+00
 0.0000000000000E+00
 0.0000000000000E+00
 0.0000000000000E+00
 0.0000000000000E+00
 0.0000000000000E+00
 0.0000000000000E+00
 0.0000000000000E+00
 0.0000000000000E+00
 0.0000000000000E+00
 0.0000000000000E+00
 0.0000000000000E+00
 0.0000000000000E+00
 0.0000000000000E+00
 0.0000000000000E+00
 0.0000000000000E+00
 0.0000000000000E+00
 0.0000000000000E+00
 0.0000000000000E+00
 0.0000000000000E+00
 0.0000000000000E+00
 0.0000000000000E+00
 0.0000000000000E+00
 0.0000000000000E+00
 0.0000000000000E+00
 0.0000000000000E+00
 0.0000000000000E+00
 0.0000000000000E+00
 0.0000000000000E+00
 0.0000000000000E+00
 0.0000000000000E+00
 0.0000000000000E+00
 0.0000000000000E+00
 0.0000000000000E+00
 0.0000000000000E+00
 0.0000000000000E+00
 0.0000000000000E+00
 0.0000000000000E+00
 0.0000000000000E+00
 0.0000000000000E+00
 0.0000000000000E+00
 0.0000000000000E+00
 0.0000000000000E+00
 0.0000000000000E+00
 0.0000000000000E+00
 0.0000000000000E+00
 0.0000000000000E+00
 0.0000000000000E+00
 0.0000000000000E+00
 0.0000000000000E+00
 0.0000000000000E+00
 0.0000000000000E+00
 0.0000000000000E+00
 0.0000000000000E+00
 0.0000000000000E+00
 0.0000000000000E+00
 0.0000000000000E+00
 0.0000000000000E+00
 0.0000000000000E+00
 0.0000000000000E+00
 0.0000000000000E+00
 0.0000000000000E+00
 0.0000000000000E+00
 0.0000000000000E+00
 0.0000000000000E+00
 0.0000000000000E+00
 0.0000000000000E+00
 0.0000000000000E+00
 0.0000000000000E+00
 0.0000000000000E+00
 0.0000000000000E+00
 0.0000000000000E+00
 0.0000000000000E+00
 0.0000000000000E+00
 0.0000000000000E+00
 0.0000000000000E+00
 0.0000000000000E+00
 0.0000000000000E+00
 0.0000000000000E+00
 0.0000000000000E+00
 0.0000000000000E+00
 0.0000000000000E+00
 0.0000000000000E+00
 0.0000000000000E+00
 0.0000000000000E+00
 0.0000000000000E+00
 0.0000000000000E+00
 0.0000000000000E+00
 0.0000000000000E+00
 0.0000000000000E+00
 0.0000000000000E+00
 0.0000000000000E+00
 0.0000000000000E+00
 0.0000000000000E+00
 0.0000000000000E+00
 0.0000000000000E+00
 0.0000000000000E+00
 0.0000000000000E+00
 0.0000000000000E+00
 0.0000000000000E+00
 0.0000000000000E+00
 0.0000000000000E+00
 0.0000000000000E+00
 0.0000000000000E+00
 0.0000000000000E+00
 0.0000000000000E+00
 0.0000000000000E+00
 0.0000000000000E+00
 0.0000000000000E+00
 0.0000000000000E+00
 0.0000000000000E+00
 0.0000000000000E+00
 0.0000000000000E+00
 0.0000000000000E+00
 0.0000000000000E+00
 0.0000000000000E+00
 0.0000000000000E+00
 0.0000000000000E+00
 0.0000000000000E+00
 0.0000000000000E+00
 0.0000000000000E+00
 0.0000000000000E+00
 0.0000000000000E+00
 0.0000000000000E+00
 0.0000000000000E+00
 0.0000000000000E+00
 0.0000000000000E+00
 0.0000000000000E+00
 0.0000000000000E+00
 0.0000000000000E+00
 0.0000000000000E+00
 0.0000000000000E+00
 0.0000000000000E+00
 0.0000000000000E+00
 0.0000000000000E+00
 0.0000000000000E+00
 0.0000000000000E+00
 0.0000000000000E+00
 0.0000000000000E+00
 0.0000000000000E+00
 0.0000000000000E+00
 0.0000000000000E+00
 0.0000000000000E+00
 0.0000000000000E+00
 0.0000000000000E+00
 0.0000000000000E+00
 0.0000000000000E+00
 0.0000000000000E+00
 0.0000000000000E+00
 0.0000000000000E+00
 0.0000000000000E+00
 0.0000000000000E+00
 0.0000000000000E+00
 0.0000000000000E+00
 0.0000000000000E+00
 0.0000000000000E+00
 0.0000000000000E+00
 0.0000000000000E+00
 0.0000000000000E+00
 0.0000000000000E+00
 0.0000000000000E+00
 0.0000000000000E+00
 0.0000000000000E+00
 0.0000000000000E+00
 0.0000000000000E+00
 0.0000000000000E+00
 0.0000000000000E+00
 0.0000000000000E+00
 0.0000000000000E+00
 0.0000000000000E+00
 0.0000000000000E+00
 0.0000000000000E+00
 0.0000000000000E+00
 0.0000000000000E+00
 0.0000000000000E+00
 0.0000000000000E+00
 0.0000000000000E+00
 0.0000000000000E+00
 0.0000000000000E+00
 0.0000000000000E+00
 0.0000000000000E+00
 0.0000000000000E+00
 0.0000000000000E+00
 0.0000000000000E+00
 0.0000000000000E+00
 0.0000000000000E+00
 0.0000000000000E+00
 0.0000000000000E+00
 0.0000000000000E+00
 0.0000000000000E+00
 0.0000000000000E+00
 0.0000000000000E+00
 0.0000000000000E+00
 0.0000000000000E+00
 0.0000000000000E+00
 0.0000000000000E+00
 0.0000000000000E+00
 0.0000000000000E+00
 0.0000000000000E+00
 0.0000000000000E+00
 0.0000000000000E+00
 0.0000000000000E+00
 0.0000000000000E+00
 0.0000000000000E+00
 0.0000000000000E+00
 0.0000000000000E+00
 0.0000000000000E+00
 0.0000000000000E+00
 0.0000000000000E+00
 0.0000000000000E+00
 0.0000000000000E+00
 0.0000000000000E+00
 0.0000000000000E+00
 0.0000000000000E+00
 0.0000000000000E+00
 0.0000000000000E+00
 0.0000000000000E+00
 0.0000000000000E+00
 0.0000000000000E+00
 0.0000000000000E+00
 0.0000000000000E+00
 0.0000000000000E+00
 0.0000000000000E+00
 0.0000000000000E+00
 0.0000000000000E+00
 0.0000000000000E+00
 0.0000000000000E+00
 0.0000000000000E+00
 0.0000000000000E+00
 0.0000000000000E+00
 0.0000000000000E+00
 0.0000000000000E+00
 0.0000000000000E+00
 0.0000000000000E+00
 0.0000000000000E+00
 0.0000000000000E+00
 0.0000000000000E+00
 0.0000000000000E+00
 0.0000000000000E+00
 0.0000000000000E+00
 0.0000000000000E+00
 0.0000000000000E+00
 0.0000000000000E+00
 0.0000000000000E+00
 0.0000000000000E+00
 0.0000000000000E+00
 0.0000000000000E+00
 0.0000000000000E+00
 0.0000000000000E+00
 0.0000000000000E+00
 0.0000000000000E+00
 0.0000000000000E+00
 0.0000000000000E+00
 0.0000000000000E+00
 0.0000000000000E+00
 0.0000000000000E+00
 0.0000000000000E+00
 0.0000000000000E+00
 0.0000000000000E+00
 0.0000000000000E+00
 0.0000000000000E+00
 0.0000000000000E+00
 0.0000000000000E+00
 0.0000000000000E+00
 0.0000000000000E+00
 0.0000000000000E+00
 0.0000000000000E+00
 0.0000000000000E+00
 0.0000000000000E+00
 0.0000000000000E+00
 0.0000000000000E+00
 0.0000000000000E+00
 0.0000000000000E+00
 0.0000000000000E+00
 0.0000000000000E+00
 0.0000000000000E+00
 0.0000000000000E+00
 0.0000000000000E+00
 0.0000000000000E+00
 0.0000000000000E+00
 0.0000000000000E+00
 0.0000000000000E+00
 0.0000000000000E+00
 0.0000000000000E+00
 0.0000000000000E+00
 0.0000000000000E+00
 0.0000000000000E+00
 0.0000000000000E+00
 0.0000000000000E+00
 0.0000000000000E+00
 0.0000000000000E+00
 0.0000000000000E+00
 0.0000000000000E+00
 0.0000000000000E+00
 0.0000000000000E+00
 0.0000000000000E+00
 0.0000000000000E+00
 0.0000000000000E+00
 0.0000000000000E+00
 0.0000000000000E+00
 0.0000000000000E+00
 0.0000000000000E+00
 0.0000000000000E+00
 0.0000000000000E+00
 0.0000000000000E+00
 0.0000000000000E+00
 0.0000000000000E+00
 0.0000000000000E+00
 0.0000000000000E+00
 0.0000000000000E+00
 0.0000000000000E+00
 0.0000000000000E+00
 0.0000000000000E+00
 0.0000000000000E+00
 0.0000000000000E+00
 0.0000000000000E+00
 0.0000000000000E+00
 0.0000000000000E+00
 0.0000000000000E+00
 0.0000000000000E+00
 0.0000000000000E+00
 0.0000000000000E+00
 0.0000000000000E+00
 0.0000000000000E+00
 0.0000000000000E+00
 0.0000000000000E+00
 0.0000000000000E+00
 0.0000000000000E+00
 0.0000000000000E+00
 0.0000000000000E+00
 0.0000000000000E+00
 0.0000000000000E+00
 0.0000000000000E+00
 0.0000000000000E+00
 0.0000000000000E+00
 0.0000000000000E+00
 0.0000000000000E+00
 0.0000000000000E+00
 0.0000000000000E+00
 0.0000000000000E+00
 0.0000000000000E+00
 0.0000000000000E+00
 0.0000000000000E+00
 0.0000000000000E+00
 0.0000000000000E+00
 0.0000000000000E+00
 0.0000000000000E+00
 0.0000000000000E+00
 0.0000000000000E+00
 0.0000000000000E+00
 0.0000000000000E+00
 0.0000000000000E+00
 0.0000000000000E+00
 0.0000000000000E+00
 0.0000000000000E+00
 0.0000000000000E+00
 0.0000000000000E+00
 0.0000000000000E+00
 0.0000000000000E+00
 0.0000000000000E+00
 0.0000000000000E+00
 0.0000000000000E+00
 0.0000000000000E+00
 0.0000000000000E+00
 0.0000000000000E+00
 0.0000000000000E+00
 0.0000000000000E+00
 0.0000000000000E+00
 0.0000000000000E+00
 0.0000000000000E+00
 0.0000000000000E+00
 0.0000000000000E+00
 0.0000000000000E+00
 0.0000000000000E+00
 0.0000000000000E+00
 0.0000000000000E+00
 0.0000000000000E+00
 0.0000000000000E+00
 0.0000000000000E+00
 0.0000000000000E+00
 0.0000000000000E+00
 0.0000000000000E+00
 0.0000000000000E+00
 0.0000000000000E+00
 0.0000000000000E+00
 0.0000000000000E+00
 0.0000000000000E+00
 0.0000000000000E+00
 0.0000000000000E+00
 0.0000000000000E+00
 0.0000000000000E+00
 0.0000000000000E+00
 0.0000000000000E+00
 0.0000000000000E+00
 0.0000000000000E+00
 0.0000000000000E+00
 0.0000000000000E+00
 0.0000000000000E+00
 0.0000000000000E+00
 0.0000000000000E+00
 0.0000000000000E+00
 0.0000000000000E+00
 0.0000000000000E+00
 0.0000000000000E+00
 0.0000000000000E+00
 0.0000000000000E+00
 0.0000000000000E+00
 0.0000000000000E+00
 0.0000000000000E+00
 0.0000000000000E+00
 0.0000000000000E+00
 0.0000000000000E+00
 0.0000000000000E+00
 0.0000000000000E+00
 0.0000000000000E+00
 0.0000000000000E+00
 0.0000000000000E+00
 0.0000000000000E+00
 0.0000000000000E+00
 0.0000000000000E+00
 0.0000000000000E+00
 0.0000000000000E+00
 0.0000000000000E+00
 0.0000000000000E+00
 0.0000000000000E+00
 0.0000000000000E+00
 0.0000000000000E+00
 0.0000000000000E+00
 0.0000000000000E+00
 0.0000000000000E+00
 0.0000000000000E+00
 0.0000000000000E+00
 0.0000000000000E+00
 0.0000000000000E+00
 0.0000000000000E+00
 0.0000000000000E+00
 0.0000000000000E+00
 0.0000000000000E+00
 0.0000000000000E+00
 0.0000000000000E+00
 0.0000000000000E+00
 0.0000000000000E+00
 0.0000000000000E+00
 0.0000000000000E+00
 0.0000000000000E+00
 0.0000000000000E+00
 0.0000000000000E+00
 0.0000000000000E+00
 0.0000000000000E+00
 0.0000000000000E+00
 0.0000000000000E+00
 0.0000000000000E+00
 0.0000000000000E+00
 0.0000000000000E+00
 0.0000000000000E+00
 0.0000000000000E+00
 0.0000000000000E+00
 0.0000000000000E+00
 0.0000000000000E+00
 0.0000000000000E+00
 0.0000000000000E+00
 0.0000000000000E+00
 0.0000000000000E+00
 0.0000000000000E+00
 0.0000000000000E+00
 0.0000000000000E+00
 0.0000000000000E+00
 0.0000000000000E+00
 0.0000000000000E+00
 0.0000000000000E+00
 0.0000000000000E+00
 0.0000000000000E+00
 0.0000000000000E+00
 0.0000000000000E+00
 0.0000000000000E+00
 0.0000000000000E+00
 0.0000000000000E+00
 0.0000000000000E+00
 0.0000000000000E+00
 0.0000000000000E+00
 0.0000000000000E+00
 0.0000000000000E+00
 0.0000000000000E+00
 0.0000000000000E+00
 0.0000000000000E+00
 0.0000000000000E+00
 0.0000000000000E+00
 0.0000000000000E+00
 0.0000000000000E+00
 0.0000000000000E+00
 0.0000000000000E+00
 0.0000000000000E+00
 0.0000000000000E+00
 0.0000000000000E+00
 0.0000000000000E+00
 0.0000000000000E+00
 0.0000000000000E+00
 0.0000000000000E+00
 0.0000000000000E+00
 0.0000000000000E+00
 0.0000000000000E+00
 0.0000000000000E+00
 0.0000000000000E+00
 0.0000000000000E+00
 0.0000000000000E+00
 0.0000000000000E+00
 0.0000000000000E+00
 0.0000000000000E+00
 0.0000000000000E+00
 0.0000000000000E+00
 0.0000000000000E+00
 0.0000000000000E+00
 0.0000000000000E+00
 0.0000000000000E+00
 0.0000000000000E+00
 0.0000000000000E+00
 0.0000000000000E+00
 0.0000000000000E+00
 0.0000000000000E+00
 0.0000000000000E+00
 0.0000000000000E+00
 0.0000000000000E+00
 0.0000000000000E+00
 0.0000000000000E+00
 0.0000000000000E+00
 0.0000000000000E+00
 0.0000000000000E+00
 0.0000000000000E+00
 0.0000000000000E+00
 0.0000000000000E+00
 0.0000000000000E+00
 0.0000000000000E+00
 0.0000000000000E+00
 0.0000000000000E+00
 0.0000000000000E+00
 0.0000000000000E+00
 0.0000000000000E+00
 0.0000000000000E+00
 0.0000000000000E+00
 0.0000000000000E+00
 0.0000000000000E+00
 0.0000000000000E+00
 0.0000000000000E+00
 0.0000000000000E+00
 0.0000000000000E+00
 0.0000000000000E+00
 0.0000000000000E+00
 0.0000000000000E+00
 0.0000000000000E+00
 0.0000000000000E+00
 0.0000000000000E+00
 0.0000000000000E+00
 0.0000000000000E+00
 0.0000000000000E+00
 0.0000000000000E+00
 0.0000000000000E+00
 0.0000000000000E+00
 0.0000000000000E+00
 0.0000000000000E+00
 0.0000000000000E+00
 0.0000000000000E+00
 0.0000000000000E+00
 0.0000000000000E+00
 0.0000000000000E+00
 0.0000000000000E+00
 0.0000000000000E+00
 0.0000000000000E+00
 0.0000000000000E+00
 0.0000000000000E+00
 0.0000000000000E+00
 0.0000000000000E+00
 0.0000000000000E+00
 0.0000000000000E+00
 0.0000000000000E+00
 0.0000000000000E+00
 0.0000000000000E+00
 0.0000000000000E+00
 0.0000000000000E+00
 0.0000000000000E+00
 0.0000000000000E+00
 0.0000000000000E+00
 0.0000000000000E+00
 0.0000000000000E+00
 0.0000000000000E+00
 0.0000000000000E+00
 0.0000000000000E+00
 0.0000000000000E+00
 0.0000000000000E+00
 0.0000000000000E+00
 0.0000000000000E+00
 0.0000000000000E+00
 0.0000000000000E+00
 0.0000000000000E+00
 0.0000000000000E+00
 0.0000000000000E+00
 0.0000000000000E+00
 0.0000000000000E+00
 0.0000000000000E+00
 0.0000000000000E+00
 0.0000000000000E+00
 0.0000000000000E+00
 0.0000000000000E+00
 0.0000000000000E+00
 0.0000000000000E+00
 0.0000000000000E+00
 0.0000000000000E+00
 0.0000000000000E+00
 0.0000000000000E+00
 0.0000000000000E+00
 0.0000000000000E+00
 0.0000000000000E+00
 0.0000000000000E+00
 0.0000000000000E+00
 0.0000000000000E+00
 0.0000000000000E+00
 0.0000000000000E+00
 0.0000000000000E+00
 0.0000000000000E+00
 0.0000000000000E+00
 0.0000000000000E+00
 0.0000000000000E+00
 0.0000000000000E+00
 0.0000000000000E+00
 0.0000000000000E+00
 0.0000000000000E+00
 0.0000000000000E+00
 0.0000000000000E+00
 0.0000000000000E+00
 0.0000000000000E+00
 0.0000000000000E+00
 0.0000000000000E+00
 0.0000000000000E+00
 0.0000000000000E+00
 0.0000000000000E+00
 0.0000000000000E+00
 0.0000000000000E+00
 0.0000000000000E+00
 0.0000000000000E+00
 0.0000000000000E+00
 0.0000000000000E+00
 0.0000000000000E+00
 0.0000000000000E+00
 0.0000000000000E+00
 0.0000000000000E+00
 0.0000000000000E+00
 0.0000000000000E+00
 0.0000000000000E+00
 0.0000000000000E+00
 0.0000000000000E+00
 0.0000000000000E+00
 0.0000000000000E+00
 0.0000000000000E+00
 0.0000000000000E+00
 0.0000000000000E+00
 0.0000000000000E+00
 0.0000000000000E+00
 0.0000000000000E+00
 0.0000000000000E+00
 0.0000000000000E+00
 0.0000000000000E+00
 0.0000000000000E+00
 0.0000000000000E+00
 0.0000000000000E+00
 0.0000000000000E+00
 0.0000000000000E+00
 0.0000000000000E+00
 0.0000000000000E+00
 0.0000000000000E+00
 0.0000000000000E+00
 0.0000000000000E+00
 0.0000000000000E+00
 0.0000000000000E+00
 0.0000000000000E+00
 0.0000000000000E+00
 0.0000000000000E+00
 0.0000000000000E+00
 0.0000000000000E+00
 0.0000000000000E+00
 0.0000000000000E+00
 0.0000000000000E+00
 0.0000000000000E+00
 0.0000000000000E+00
 0.0000000000000E+00
 0.0000000000000E+00
 0.0000000000000E+00
 0.0000000000000E+00
 0.0000000000000E+00
 0.0000000000000E+00
 0.0000000000000E+00
 0.0000000000000E+00
 0.0000000000000E+00
 0.0000000000000E+00
 0.0000000000000E+00
 0.0000000000000E+00
 0.0000000000000E+00
 0.0000000000000E+00
 0.0000000000000E+00
 0.0000000000000E+00
 0.0000000000000E+00
 0.0000000000000E+00
 0.0000000000000E+00
 0.0000000000000E+00
 0.0000000000000E+00
 0.0000000000000E+00
 0.0000000000000E+00
 0.0000000000000E+00
 0.0000000000000E+00
 0.0000000000000E+00
 0.0000000000000E+00
 0.0000000000000E+00
 0.0000000000000E+00
 0.0000000000000E+00
 0.0000000000000E+00
 0.0000000000000E+00
 0.0000000000000E+00
 0.0000000000000E+00
 0.0000000000000E+00
 0.0000000000000E+00
 0.0000000000000E+00
 0.0000000000000E+00
 0.0000000000000E+00
 0.0000000000000E+00
 0.0000000000000E+00
 0.0000000000000E+00
 0.0000000000000E+00
 0.0000000000000E+00
 0.0000000000000E+00
 0.0000000000000E+00
 0.0000000000000E+00
 0.0000000000000E+00
 0.0000000000000E+00
 0.0000000000000E+00
 0.0000000000000E+00
 0.0000000000000E+00
 0.0000000000000E+00
 0.0000000000000E+00
 0.0000000000000E+00
 0.0000000000000E+00
 0.0000000000000E+00
 0.0000000000000E+00
 0.0000000000000E+00
 0.0000000000000E+00
 0.0000000000000E+00
 0.0000000000000E+00
 0.0000000000000E+00
 0.0000000000000E+00
 0.0000000000000E+00
 0.0000000000000E+00
 0.0000000000000E+00
 0.0000000000000E+00
 0.0000000000000E+00
 0.0000000000000E+00
 0.0000000000000E+00
 0.0000000000000E+00
 0.0000000000000E+00
 0.0000000000000E+00
 0.0000000000000E+00
 0.0000000000000E+00
 0.0000000000000E+00
 0.0000000000000E+00
 0.0000000000000E+00
 0.0000000000000E+00
 0.0000000000000E+00
 0.0000000000000E+00
 0.0000000000000E+00
 0.0000000000000E+00
 0.0000000000000E+00
 0.0000000000000E+00
 0.0000000000000E+00
 0.0000000000000E+00
 0.0000000000000E+00
 0.0000000000000E+00
 0.0000000000000E+00
 0.0000000000000E+00
 0.0000000000000E+00
 0.0000000000000E+00
 0.0000000000000E+00
 0.0000000000000E+00
 0.0000000000000E+00
 0.0000000000000E+00
 0.0000000000000E+00
 0.0000000000000E+00
 0.0000000000000E+00
 0.0000000000000E+00
 0.0000000000000E+00
 0.0000000000000E+00
 0.0000000000000E+00
 0.0000000000000E+00
 0.0000000000000E+00
 0.0000000000000E+00
 0.0000000000000E+00
 0.0000000000000E+00
 0.0000000000000E+00
 0.0000000000000E+00
 0.0000000000000E+00
 0.0000000000000E+00
 0.0000000000000E+00
 0.0000000000000E+00
 0.0000000000000E+00
 0.0000000000000E+00
 0.0000000000000E+00
 0.0000000000000E+00
 0.0000000000000E+00
 0.0000000000000E+00
 0.0000000000000E+00
 0.0000000000000E+00
 0.0000000000000E+00
 0.0000000000000E+00
 0.0000000000000E+00
 0.0000000000000E+00
 0.0000000000000E+00
 0.0000000000000E+00
 0.0000000000000E+00
 0.0000000000000E+00
 0.0000000000000E+00
 0.0000000000000E+00
 0.0000000000000E+00
 0.0000000000000E+00
 0.0000000000000E+00
 0.0000000000000E+00
 0.0000000000000E+00
 0.0000000000000E+00
 0.0000000000000E+00
 0.0000000000000E+00
 0.0000000000000E+00
 0.0000000000000E+00
 0.0000000000000E+00
 0.0000000000000E+00
 0.0000000000000E+00
 0.0000000000000E+00
 0.0000000000000E+00
 0.0000000000000E+00
 0.0000000000000E+00
 0.0000000000000E+00
 0.0000000000000E+00
 0.0000000000000E+00
 0.0000000000000E+00
 0.0000000000000E+00
 0.0000000000000E+00
 0.0000000000000E+00
 0.0000000000000E+00
 0.0000000000000E+00
 0.0000000000000E+00
 0.0000000000000E+00
 0.0000000000000E+00
 0.0000000000000E+00
 0.0000000000000E+00
 0.0000000000000E+00
 0.0000000000000E+00
 0.0000000000000E+00
 0.0000000000000E+00
 0.0000000000000E+00
 0.0000000000000E+00
 0.0000000000000E+00
 0.0000000000000E+00
 0.0000000000000E+00
 0.0000000000000E+00
 0.0000000000000E+00
 0.0000000000000E+00
 0.0000000000000E+00
 0.0000000000000E+00
 0.0000000000000E+00
 0.0000000000000E+00
 0.0000000000000E+00
 0.0000000000000E+00
 0.0000000000000E+00
 0.0000000000000E+00
 0.0000000000000E+00
 0.0000000000000E+00
 0.0000000000000E+00
 0.0000000000000E+00
 0.0000000000000E+00
 0.0000000000000E+00
 0.0000000000000E+00
 0.0000000000000E+00
 0.0000000000000E+00
 0.0000000000000E+00
 0.0000000000000E+00
 0.0000000000000E+00
 0.0000000000000E+00
 0.0000000000000E+00
 0.0000000000000E+00
 0.0000000000000E+00
 0.0000000000000E+00
 0.0000000000000E+00
 0.0000000000000E+00
 0.0000000000000E+00
 0.0000000000000E+00
 0.0000000000000E+00
 0.0000000000000E+00
 0.0000000000000E+00
 0.0000000000000E+00
 0.0000000000000E+00
 0.0000000000000E+00
 0.0000000000000E+00
 0.0000000000000E+00
 0.0000000000000E+00
 0.0000000000000E+00
 0.0000000000000E+00
 0.0000000000000E+00
 0.0000000000000E+00
 0.0000000000000E+00
 0.0000000000000E+00
 0.0000000000000E+00
 0.0000000000000E+00
 0.0000000000000E+00
 0.0000000000000E+00
 0.0000000000000E+00
 0.0000000000000E+00
 0.0000000000000E+00
 0.0000000000000E+00
 0.0000000000000E+00
 0.0000000000000E+00
 0.0000000000000E+00
 0.0000000000000E+00
 0.0000000000000E+00
 0.0000000000000E+00
 0.0000000000000E+00
 0.0000000000000E+00
 0.0000000000000E+00
 0.0000000000000E+00
 0.0000000000000E+00
 0.0000000000000E+00
 0.0000000000000E+00
 0.0000000000000E+00
 0.0000000000000E+00
 0.0000000000000E+00
 0.0000000000000E+00
 0.0000000000000E+00
 0.0000000000000E+00
 0.0000000000000E+00
 0.0000000000000E+00
 0.0000000000000E+00
 0.0000000000000E+00
 0.0000000000000E+00
 0.0000000000000E+00
 0.0000000000000E+00
 0.0000000000000E+00
 0.0000000000000E+00
 0.0000000000000E+00
 0.0000000000000E+00
 0.0000000000000E+00
 0.0000000000000E+00
 0.0000000000000E+00
 0.0000000000000E+00
 0.0000000000000E+00
 0.0000000000000E+00
 0.0000000000000E+00
 0.0000000000000E+00
 0.0000000000000E+00
 0.0000000000000E+00
 0.0000000000000E+00
 0.0000000000000E+00
 0.0000000000000E+00
 0.0000000000000E+00
 0.0000000000000E+00
 0.0000000000000E+00
 0.0000000000000E+00
 0.0000000000000E+00
 0.0000000000000E+00
 0.0000000000000E+00
 0.0000000000000E+00
 0.0000000000000E+00
 0.0000000000000E+00
 0.0000000000000E+00
 0.0000000000000E+00
 0.0000000000000E+00
 0.0000000000000E+00
 0.0000000000000E+00
 0.0000000000000E+00
 0.0000000000000E+00
 0.0000000000000E+00
 0.0000000000000E+00
 0.0000000000000E+00
 0.0000000000000E+00
 0.0000000000000E+00
 0.0000000000000E+00
 0.0000000000000E+00
 0.0000000000000E+00
 0.0000000000000E+00
 0.0000000000000E+00
 0.0000000000000E+00
 0.0000000000000E+00
 0.0000000000000E+00
 0.0000000000000E+00
 0.0000000000000E+00
 0.0000000000000E+00
 0.0000000000000E+00
 0.0000000000000E+00
 0.0000000000000E+00
 0.0000000000000E+00
 0.0000000000000E+00
 0.0000000000000E+00
 0.0000000000000E+00
 0.0000000000000E+00
 0.0000000000000E+00
 0.0000000000000E+00
 0.0000000000000E+00
 0.0000000000000E+00
 0.0000000000000E+00
 0.0000000000000E+00
 0.0000000000000E+00
 0.0000000000000E+00
 0.0000000000000E+00
 0.0000000000000E+00
 0.0000000000000E+00
 0.0000000000000E+00
 0.0000000000000E+00
 0.0000000000000E+00
 0.0000000000000E+00
 0.0000000000000E+00
 0.0000000000000E+00
 0.0000000000000E+00
 0.0000000000000E+00
 0.0000000000000E+00
 0.0000000000000E+00
 0.0000000000000E+00
 0.0000000000000E+00
 0.0000000000000E+00
 0.0000000000000E+00
 0.0000000000000E+00
 0.0000000000000E+00
 0.0000000000000E+00
 0.0000000000000E+00
 0.0000000000000E+00
 0.0000000000000E+00
 0.0000000000000E+00
 0.0000000000000E+00
 0.0000000000000E+00
 0.0000000000000E+00
 0.0000000000000E+00
 0.0000000000000E+00
 0.0000000000000E+00
 0.0000000000000E+00
 0.0000000000000E+00
 0.0000000000000E+00
 0.0000000000000E+00
 0.0000000000000E+00
 0.0000000000000E+00
 0.0000000000000E+00
 0.0000000000000E+00
 0.0000000000000E+00
 0.0000000000000E+00
 0.0000000000000E+00
 0.0000000000000E+00
 0.0000000000000E+00
 0.0000000000000E+00
 0.0000000000000E+00
 0.0000000000000E+00
 0.0000000000000E+00
 0.0000000000000E+00
 0.0000000000000E+00
 0.0000000000000E+00
 0.0000000000000E+00
 0.0000000000000E+00
 0.0000000000000E+00
 0.0000000000000E+00
 0.0000000000000E+00
 0.0000000000000E+00
 0.0000000000000E+00
 0.0000000000000E+00
 0.0000000000000E+00
 0.0000000000000E+00
 0.0000000000000E+00
 0.0000000000000E+00
 0.0000000000000E+00
 0.0000000000000E+00
 0.0000000000000E+00
 0.0000000000000E+00
 0.0000000000000E+00
 0.0000000000000E+00
 0.0000000000000E+00
 0.0000000000000E+00
 0.0000000000000E+00
 0.0000000000000E+00
 0.0000000000000E+00
 0.0000000000000E+00
 0.0000000000000E+00
 0.0000000000000E+00
 0.0000000000000E+00
 0.0000000000000E+00
 0.0000000000000E+00
 0.0000000000000E+00
 0.0000000000000E+00
 0.0000000000000E+00
 0.0000000000000E+00
 0.0000000000000E+00
 0.0000000000000E+00
 0.0000000000000E+00
 0.0000000000000E+00
 0.0000000000000E+00
 0.0000000000000E+00
 0.0000000000000E+00
 0.0000000000000E+00
 0.0000000000000E+00
 0.0000000000000E+00
 0.0000000000000E+00
 0.0000000000000E+00
 0.0000000000000E+00
 0.0000000000000E+00
 0.0000000000000E+00
 0.0000000000000E+00
 0.0000000000000E+00
 0.0000000000000E+00
 0.0000000000000E+00
 0.0000000000000E+00
 0.0000000000000E+00
 0.0000000000000E+00
 0.0000000000000E+00
 0.0000000000000E+00
 0.0000000000000E+00
 0.0000000000000E+00
 0.0000000000000E+00
 0.0000000000000E+00
 0.0000000000000E+00
 0.0000000000000E+00
 0.0000000000000E+00
 0.0000000000000E+00
 0.0000000000000E+00
 0.0000000000000E+00
 0.0000000000000E+00
 0.0000000000000E+00
 0.0000000000000E+00
 0.0000000000000E+00
 0.0000000000000E+00
 0.0000000000000E+00
 0.0000000000000E+00
 0.0000000000000E+00
 0.0000000000000E+00
 0.0000000000000E+00
 0.0000000000000E+00
 0.0000000000000E+00
 0.0000000000000E+00
 0.0000000000000E+00
 0.0000000000000E+00
 0.0000000000000E+00
 0.0000000000000E+00
 0.0000000000000E+00
 0.0000000000000E+00
 0.0000000000000E+00
 0.0000000000000E+00
 0.0000000000000E+00
 0.0000000000000E+00
 0.0000000000000E+00
 0.0000000000000E+00
 0.0000000000000E+00
 0.0000000000000E+00
 0.0000000000000E+00
 0.0000000000000E+00
 0.0000000000000E+00
 0.0000000000000E+00
 0.0000000000000E+00
 0.0000000000000E+00
 0.0000000000000E+00
 0.0000000000000E+00
 0.0000000000000E+00
 0.0000000000000E+00
 0.0000000000000E+00
 0.0000000000000E+00
 0.0000000000000E+00
 0.0000000000000E+00
 0.0000000000000E+00
 0.0000000000000E+00
 0.0000000000000E+00
 0.0000000000000E+00
 0.0000000000000E+00
 0.0000000000000E+00
 0.0000000000000E+00
 0.0000000000000E+00
 0.0000000000000E+00
 0.0000000000000E+00
 0.0000000000000E+00
 0.0000000000000E+00
 0.0000000000000E+00
 0.0000000000000E+00
 0.0000000000000E+00
 0.0000000000000E+00
 0.0000000000000E+00
 0.0000000000000E+00
 0.0000000000000E+00
 0.0000000000000E+00
 0.0000000000000E+00
 0.0000000000000E+00
 0.0000000000000E+00
 0.0000000000000E+00
 0.0000000000000E+00
 0.0000000000000E+00
 0.0000000000000E+00
 0.0000000000000E+00
 0.0000000000000E+00
 0.0000000000000E+00
 0.0000000000000E+00
 0.0000000000000E+00
 0.0000000000000E+00
 0.0000000000000E+00
 0.0000000000000E+00
 0.0000000000000E+00
 0.0000000000000E+00
 0.0000000000000E+00
 0.0000000000000E+00
 0.0000000000000E+00
 0.0000000000000E+00
 0.0000000000000E+00
 0.0000000000000E+00
 0.0000000000000E+00
 0.0000000000000E+00
 0.0000000000000E+00
 0.0000000000000E+00
 0.0000000000000E+00
 0.0000000000000E+00
 0.0000000000000E+00
 0.0000000000000E+00
 0.0000000000000E+00
 0.0000000000000E+00
 0.0000000000000E+00
 0.0000000000000E+00
 0.0000000000000E+00
 0.0000000000000E+00
 0.0000000000000E+00
 0.0000000000000E+00
 0.0000000000000E+00
 0.0000000000000E+00
 0.0000000000000E+00
 0.0000000000000E+00
 0.0000000000000E+00
 0.0000000000000E+00
 0.0000000000000E+00
 0.0000000000000E+00
 0.0000000000000E+00
 0.0000000000000E+00
 0.0000000000000E+00
 0.0000000000000E+00
 0.0000000000000E+00
 0.0000000000000E+00
 0.0000000000000E+00
 0.0000000000000E+00
 0.0000000000000E+00
 0.0000000000000E+00
 0.0000000000000E+00
 0.0000000000000E+00
 0.0000000000000E+00
 0.0000000000000E+00
 0.0000000000000E+00
 0.0000000000000E+00
 0.0000000000000E+00
 0.0000000000000E+00
 0.0000000000000E+00
 0.0000000000000E+00
 0.0000000000000E+00
 0.0000000000000E+00
 0.0000000000000E+00
 0.0000000000000E+00
 0.0000000000000E+00
 0.0000000000000E+00
 0.0000000000000E+00
 0.0000000000000E+00
 0.0000000000000E+00
 0.0000000000000E+00
 0.0000000000000E+00
 0.0000000000000E+00
 0.0000000000000E+00
 0.0000000000000E+00
 0.0000000000000E+00
 0.0000000000000E+00
 0.0000000000000E+00
 0.0000000000000E+00
 0.0000000000000E+00
 0.0000000000000E+00
 0.0000000000000E+00
 0.0000000000000E+00
 0.0000000000000E+00
 0.0000000000000E+00
 0.0000000000000E+00
 0.0000000000000E+00
 0.0000000000000E+00
 0.0000000000000E+00
 0.0000000000000E+00
 0.0000000000000E+00
 0.0000000000000E+00
 0.0000000000000E+00
 0.0000000000000E+00
 0.0000000000000E+00
 0.0000000000000E+00
 0.0000000000000E+00
 0.0000000000000E+00
 0.0000000000000E+00
 0.0000000000000E+00
 0.0000000000000E+00
 0.0000000000000E+00
 0.0000000000000E+00
 0.0000000000000E+00
 0.0000000000000E+00
 0.0000000000000E+00
 0.0000000000000E+00
 0.0000000000000E+00
 0.0000000000000E+00
 0.0000000000000E+00
 0.0000000000000E+00
 0.0000000000000E+00
 0.0000000000000E+00
 0.0000000000000E+00
 0.0000000000000E+00
 0.0000000000000E+00
 0.0000000000000E+00
 0.0000000000000E+00
 0.0000000000000E+00
 0.0000000000000E+00
 0.0000000000000E+00
 0.0000000000000E+00
 0.0000000000000E+00
 0.0000000000000E+00
 0.0000000000000E+00
 0.0000000000000E+00
 0.0000000000000E+00
 0.0000000000000E+00
 0.0000000000000E+00
 0.0000000000000E+00
 0.0000000000000E+00
 0.0000000000000E+00
 0.0000000000000E+00
 0.0000000000000E+00
 0.0000000000000E+00
 0.0000000000000E+00
 0.0000000000000E+00
 0.0000000000000E+00
 0.0000000000000E+00
 0.0000000000000E+00
 0.0000000000000E+00
 0.0000000000000E+00
 0.0000000000000E+00
 0.0000000000000E+00
 0.0000000000000E+00
 0.0000000000000E+00
 0.0000000000000E+00
 0.0000000000000E+00
 0.0000000000000E+00
 0.0000000000000E+00
 0.0000000000000E+00
 0.0000000000000E+00
 0.0000000000000E+00
 0.0000000000000E+00
 0.0000000000000E+00
 0.0000000000000E+00
 0.0000000000000E+00
 0.0000000000000E+00
 0.0000000000000E+00
 0.0000000000000E+00
 0.0000000000000E+00
 0.0000000000000E+00
 0.0000000000000E+00
 0.0000000000000E+00
 0.0000000000000E+00
 0.0000000000000E+00
 0.0000000000000E+00
 0.0000000000000E+00
 0.0000000000000E+00
 0.0000000000000E+00
 0.0000000000000E+00
 0.0000000000000E+00
 0.0000000000000E+00
 0.0000000000000E+00
 0.0000000000000E+00
 0.0000000000000E+00
 0.0000000000000E+00
 0.0000000000000E+00
 0.0000000000000E+00
 0.0000000000000E+00
 0.0000000000000E+00
 0.0000000000000E+00
 0.0000000000000E+00
 0.0000000000000E+00
 0.0000000000000E+00
 0.0000000000000E+00
 0.0000000000000E+00
 0.0000000000000E+00
 0.0000000000000E+00
 0.0000000000000E+00
 0.0000000000000E+00
 0.0000000000000E+00
 0.0000000000000E+00
 0.0000000000000E+00
 0.0000000000000E+00
 0.0000000000000E+00
 0.0000000000000E+00
 0.0000000000000E+00
 0.0000000000000E+00
 0.0000000000000E+00
 0.0000000000000E+00
 0.0000000000000E+00
 0.0000000000000E+00
 0.0000000000000E+00
 0.0000000000000E+00
 0.0000000000000E+00
 0.0000000000000E+00
 0.0000000000000E+00
 0.0000000000000E+00
 0.0000000000000E+00
 0.0000000000000E+00
 0.0000000000000E+00
 0.0000000000000E+00
 0.0000000000000E+00
 0.0000000000000E+00
 0.0000000000000E+00
 0.0000000000000E+00
 0.0000000000000E+00
 0.0000000000000E+00
 0.0000000000000E+00
 0.0000000000000E+00
 0.0000000000000E+00
 0.0000000000000E+00
 0.0000000000000E+00
 0.0000000000000E+00
 0.0000000000000E+00
 0.0000000000000E+00
 0.0000000000000E+00
 0.0000000000000E+00
 0.0000000000000E+00
 0.0000000000000E+00
 0.0000000000000E+00
 0.0000000000000E+00
 0.0000000000000E+00
 0.0000000000000E+00
 0.0000000000000E+00
 0.0000000000000E+00
 0.0000000000000E+00
 0.0000000000000E+00
 0.0000000000000E+00
 0.0000000000000E+00
 0.0000000000000E+00
 0.0000000000000E+00
 0.0000000000000E+00
 0.0000000000000E+00
 0.0000000000000E+00
 0.0000000000000E+00
 0.0000000000000E+00
 0.0000000000000E+00
 0.0000000000000E+00
 0.0000000000000E+00
 0.0000000000000E+00
 0.0000000000000E+00
 0.0000000000000E+00
 0.0000000000000E+00
 0.0000000000000E+00
 0.0000000000000E+00
 0.0000000000000E+00
 0.0000000000000E+00
 0.0000000000000E+00
 0.0000000000000E+00
 0.0000000000000E+00
 0.0000000000000E+00
 0.0000000000000E+00
 0.0000000000000E+00
 0.0000000000000E+00
 0.0000000000000E+00
 0.0000000000000E+00
 0.0000000000000E+00
 0.0000000000000E+00
 0.0000000000000E+00
 0.0000000000000E+00
 0.0000000000000E+00
 0.0000000000000E+00
 0.0000000000000E+00
 0.0000000000000E+00
 0.0000000000000E+00
 0.0000000000000E+00
 0.0000000000000E+00
 0.0000000000000E+00
 0.0000000000000E+00
 0.0000000000000E+00
 0.0000000000000E+00
 0.0000000000000E+00
 0.0000000000000E+00
 0.0000000000000E+00
 0.0000000000000E+00
 0.0000000000000E+00
 0.0000000000000E+00
 0.0000000000000E+00
 0.0000000000000E+00
 0.0000000000000E+00
 0.0000000000000E+00
 0.0000000000000E+00
 0.0000000000000E+00
 0.0000000000000E+00
 0.0000000000000E+00
 0.0000000000000E+00
 0.0000000000000E+00
 0.0000000000000E+00
 0.0000000000000E+00
 0.0000000000000E+00
 0.0000000000000E+00
 0.0000000000000E+00
 0.0000000000000E+00
 0.0000000000000E+00
 0.0000000000000E+00
 0.0000000000000E+00
 0.0000000000000E+00
 0.0000000000000E+00
 0.0000000000000E+00
 0.0000000000000E+00
 0.0000000000000E+00
 0.0000000000000E+00
 0.0000000000000E+00
 0.0000000000000E+00
 0.0000000000000E+00
 0.0000000000000E+00
 0.0000000000000E+00
 0.0000000000000E+00
 0.0000000000000E+00
 0.0000000000000E+00
 0.0000000000000E+00
 0.0000000000000E+00
 0.0000000000000E+00
 0.0000000000000E+00
 0.0000000000000E+00
 0.0000000000000E+00
 0.0000000000000E+00
 0.0000000000000E+00
 0.0000000000000E+00
 0.0000000000000E+00
 0.0000000000000E+00
 0.0000000000000E+00
 0.0000000000000E+00
 0.0000000000000E+00
 0.0000000000000E+00
 0.0000000000000E+00
 0.0000000000000E+00
 0.0000000000000E+00
 0.0000000000000E+00
 0.0000000000000E+00
 0.0000000000000E+00
 0.0000000000000E+00
 0.0000000000000E+00
 0.0000000000000E+00
 0.0000000000000E+00
 0.0000000000000E+00
 0.0000000000000E+00
 0.0000000000000E+00
 0.0000000000000E+00
 0.0000000000000E+00
 0.0000000000000E+00
 0.0000000000000E+00
 0.0000000000000E+00
 0.0000000000000E+00
 0.0000000000000E+00
 0.0000000000000E+00
 0.0000000000000E+00
 0.0000000000000E+00
 0.0000000000000E+00
 0.0000000000000E+00
 0.0000000000000E+00
 0.0000000000000E+00
 0.0000000000000E+00
 0.0000000000000E+00
 0.0000000000000E+00
 0.0000000000000E+00
 0.0000000000000E+00
 0.0000000000000E+00
 0.0000000000000E+00
 0.0000000000000E+00
 0.0000000000000E+00
 0.0000000000000E+00
 0.0000000000000E+00
 0.0000000000000E+00
 0.0000000000000E+00
 0.0000000000000E+00
 0.0000000000000E+00
 0.0000000000000E+00
 0.0000000000000E+00
 0.0000000000000E+00
 0.0000000000000E+00
 0.0000000000000E+00
 0.0000000000000E+00
 0.0000000000000E+00
 0.0000000000000E+00
 0.0000000000000E+00
 0.0000000000000E+00
 0.0000000000000E+00
 0.0000000000000E+00
 0.0000000000000E+00
 0.0000000000000E+00
 0.0000000000000E+00
 0.0000000000000E+00
 0.0000000000000E+00
 0.0000000000000E+00
 0.0000000000000E+00
 0.0000000000000E+00
 0.0000000000000E+00
 0.0000000000000E+00
 0.0000000000000E+00
 0.0000000000000E+00
 0.0000000000000E+00
 0.0000000000000E+00
 0.0000000000000E+00
 0.0000000000000E+00
 0.0000000000000E+00
 0.0000000000000E+00
 0.0000000000000E+00
 0.0000000000000E+00
 0.0000000000000E+00
 0.0000000000000E+00
 0.0000000000000E+00
 0.0000000000000E+00
 0.0000000000000E+00
 0.0000000000000E+00
 0.0000000000000E+00
 0.0000000000000E+00
 0.0000000000000E+00
 0.0000000000000E+00
 0.0000000000000E+00
 0.0000000000000E+00
 0.0000000000000E+00
 0.0000000000000E+00
 0.0000000000000E+00
 0.0000000000000E+00
 0.0000000000000E+00
 0.0000000000000E+00
 0.0000000000000E+00
 0.0000000000000E+00
 0.0000000000000E+00
 0.0000000000000E+00
 0.0000000000000E+00
 0.0000000000000E+00
 0.0000000000000E+00
 0.0000000000000E+00
 0.0000000000000E+00
 0.0000000000000E+00
 0.0000000000000E+00
 0.0000000000000E+00
 0.0000000000000E+00
 0.0000000000000E+00
 0.0000000000000E+00
 0.0000000000000E+00
 0.0000000000000E+00
 0.0000000000000E+00
 0.0000000000000E+00
 0.0000000000000E+00
 0.0000000000000E+00
 0.0000000000000E+00
 0.0000000000000E+00
 0.0000000000000E+00
 0.0000000000000E+00
 0.0000000000000E+00
 0.0000000000000E+00
 0.0000000000000E+00
 0.0000000000000E+00
 0.0000000000000E+00
 0.0000000000000E+00
 0.0000000000000E+00
 0.0000000000000E+00
 0.0000000000000E+00
 0.0000000000000E+00
 0.0000000000000E+00
 0.0000000000000E+00
 0.0000000000000E+00
 0.0000000000000E+00
 0.0000000000000E+00
 0.0000000000000E+00
 0.0000000000000E+00
 0.0000000000000E+00
 0.0000000000000E+00
 0.0000000000000E+00
 0.0000000000000E+00
 0.0000000000000E+00
 0.0000000000000E+00
 0.0000000000000E+00
 0.0000000000000E+00
 0.0000000000000E+00
 0.0000000000000E+00
 0.0000000000000E+00
 0.0000000000000E+00
 0.0000000000000E+00
 0.0000000000000E+00
 0.0000000000000E+00
 0.0000000000000E+00
 0.0000000000000E+00
 0.0000000000000E+00
 0.0000000000000E+00
 0.0000000000000E+00
 0.0000000000000E+00
 0.0000000000000E+00
 0.0000000000000E+00
 0.0000000000000E+00
 0.0000000000000E+00
 0.0000000000000E+00
 0.0000000000000E+00
 0.0000000000000E+00
 0.0000000000000E+00
 0.0000000000000E+00
 0.0000000000000E+00
 0.0000000000000E+00
 0.0000000000000E+00
 0.0000000000000E+00
 0.0000000000000E+00
 0.0000000000000E+00
 0.0000000000000E+00
 0.0000000000000E+00
 0.0000000000000E+00
 0.0000000000000E+00
 0.0000000000000E+00
 0.0000000000000E+00
 0.0000000000000E+00
 0.0000000000000E+00
 0.0000000000000E+00
 0.0000000000000E+00
 0.0000000000000E+00
 0.0000000000000E+00
 0.0000000000000E+00
 0.0000000000000E+00
 0.0000000000000E+00
 0.0000000000000E+00
 0.0000000000000E+00
 0.0000000000000E+00
 0.0000000000000E+00
 0.0000000000000E+00
 0.0000000000000E+00
 0.0000000000000E+00
 0.0000000000000E+00
 0.0000000000000E+00
 0.0000000000000E+00
 0.0000000000000E+00
 0.0000000000000E+00
 0.0000000000000E+00
 0.0000000000000E+00
 0.0000000000000E+00
 0.0000000000000E+00
 0.0000000000000E+00
 0.0000000000000E+00
 0.0000000000000E+00
 0.0000000000000E+00
 0.0000000000000E+00
 0.0000000000000E+00
 0.0000000000000E+00
 0.0000000000000E+00
 0.0000000000000E+00
 0.0000000000000E+00
 0.0000000000000E+00
 0.0000000000000E+00
 0.0000000000000E+00
 0.0000000000000E+00
 0.0000000000000E+00
 0.0000000000000E+00
 0.0000000000000E+00
 0.0000000000000E+00
 0.0000000000000E+00
 0.0000000000000E+00
 0.0000000000000E+00
 0.0000000000000E+00
 0.0000000000000E+00
 0.0000000000000E+00
 0.0000000000000E+00
 0.0000000000000E+00
 0.0000000000000E+00
 0.0000000000000E+00
 0.0000000000000E+00
 0.0000000000000E+00
 0.0000000000000E+00
 0.0000000000000E+00
 0.0000000000000E+00
 0.0000000000000E+00
 0.0000000000000E+00
 0.0000000000000E+00
 0.0000000000000E+00
 0.0000000000000E+00
 0.0000000000000E+00
 0.0000000000000E+00
 0.0000000000000E+00
 0.0000000000000E+00
 0.0000000000000E+00
 0.0000000000000E+00
 0.0000000000000E+00
 0.0000000000000E+00
 0.0000000000000E+00
 0.0000000000000E+00
 0.0000000000000E+00
 0.0000000000000E+00
 0.0000000000000E+00
 0.0000000000000E+00
 0.0000000000000E+00
 0.0000000000000E+00
 0.0000000000000E+00
 0.0000000000000E+00
 0.0000000000000E+00
 0.0000000000000E+00
 0.0000000000000E+00
 0.0000000000000E+00
 0.0000000000000E+00
 0.0000000000000E+00
 0.0000000000000E+00
 0.0000000000000E+00
 0.0000000000000E+00
 0.0000000000000E+00
 0.0000000000000E+00
 0.0000000000000E+00
 0.0000000000000E+00
 0.0000000000000E+00
 0.0000000000000E+00
 0.0000000000000E+00
 0.0000000000000E+00
 0.0000000000000E+00
 0.0000000000000E+00
 0.0000000000000E+00
 0.0000000000000E+00
 0.0000000000000E+00
 0.0000000000000E+00
 0.0000000000000E+00
 0.0000000000000E+00
 0.0000000000000E+00
 0.0000000000000E+00
 0.0000000000000E+00
 0.0000000000000E+00
 0.0000000000000E+00
 0.0000000000000E+00
 0.0000000000000E+00
 0.0000000000000E+00
 0.0000000000000E+00
 0.0000000000000E+00
 0.0000000000000E+00
 0.0000000000000E+00
 0.0000000000000E+00
 0.0000000000000E+00
 0.0000000000000E+00
 0.0000000000000E+00
 0.0000000000000E+00
 0.0000000000000E+00
 0.0000000000000E+00
 0.0000000000000E+00
 0.0000000000000E+00
 0.0000000000000E+00
 0.0000000000000E+00
 0.0000000000000E+00
 0.0000000000000E+00
 0.0000000000000E+00
 0.0000000000000E+00
 0.0000000000000E+00
 0.0000000000000E+00
 0.0000000000000E+00
 0.0000000000000E+00
 0.0000000000000E+00
 0.0000000000000E+00
 0.0000000000000E+00
 0.0000000000000E+00
 0.0000000000000E+00
 0.0000000000000E+00
 0.0000000000000E+00
 0.0000000000000E+00
 0.0000000000000E+00
 0.0000000000000E+00
 0.0000000000000E+00
 0.0000000000000E+00
 0.0000000000000E+00
 0.0000000000000E+00
 0.0000000000000E+00
 0.0000000000000E+00
 0.0000000000000E+00
 0.0000000000000E+00
 0.0000000000000E+00
 0.0000000000000E+00
 0.0000000000000E+00
 0.0000000000000E+00
 0.0000000000000E+00
 0.0000000000000E+00
 0.0000000000000E+00
 0.0000000000000E+00
 0.0000000000000E+00
 0.0000000000000E+00
 0.0000000000000E+00
 0.0000000000000E+00
 0.0000000000000E+00
 0.0000000000000E+00
 0.0000000000000E+00
 0.0000000000000E+00
 0.0000000000000E+00
 0.0000000000000E+00
 0.0000000000000E+00
 0.0000000000000E+00
 0.0000000000000E+00
 0.0000000000000E+00
 0.0000000000000E+00
 0.0000000000000E+00
 0.0000000000000E+00
 0.0000000000000E+00
 0.0000000000000E+00
 0.0000000000000E+00
 0.0000000000000E+00
 0.0000000000000E+00
 0.0000000000000E+00
 0.0000000000000E+00
 0.0000000000000E+00
 0.0000000000000E+00
 0.0000000000000E+00
 0.0000000000000E+00
 0.0000000000000E+00
 0.0000000000000E+00
 0.0000000000000E+00
 0.0000000000000E+00
 0.0000000000000E+00
 0.0000000000000E+00
 0.0000000000000E+00
 0.0000000000000E+00
 0.0000000000000E+00
 0.0000000000000E+00
 0.0000000000000E+00
 0.0000000000000E+00
 0.0000000000000E+00
 0.0000000000000E+00
 0.0000000000000E+00
 0.0000000000000E+00
 0.0000000000000E+00
 0.0000000000000E+00
 0.0000000000000E+00
 0.0000000000000E+00
 0.0000000000000E+00
 0.0000000000000E+00
 0.0000000000000E+00
 0.0000000000000E+00
 0.0000000000000E+00
 0.0000000000000E+00
 0.0000000000000E+00
 0.0000000000000E+00
 0.0000000000000E+00
 0.0000000000000E+00
 0.0000000000000E+00
 0.0000000000000E+00
 0.0000000000000E+00
 0.0000000000000E+00
 0.0000000000000E+00
 0.0000000000000E+00
 0.0000000000000E+00
 0.0000000000000E+00
 0.0000000000000E+00
 0.0000000000000E+00
 0.0000000000000E+00
 0.0000000000000E+00
 0.0000000000000E+00
 0.0000000000000E+00
 0.0000000000000E+00
 0.0000000000000E+00
 0.0000000000000E+00
 0.0000000000000E+00
 0.0000000000000E+00
 0.0000000000000E+00
 0.0000000000000E+00
 0.0000000000000E+00
 0.0000000000000E+00
 0.0000000000000E+00
 0.0000000000000E+00
 0.0000000000000E+00
 0.0000000000000E+00
 0.0000000000000E+00
 0.0000000000000E+00
 0.0000000000000E+00
 0.0000000000000E+00
 0.0000000000000E+00
 0.0000000000000E+00
 0.0000000000000E+00
 0.0000000000000E+00
 0.0000000000000E+00
 0.0000000000000E+00
 0.0000000000000E+00
 0.0000000000000E+00
 0.0000000000000E+00
 0.0000000000000E+00
 0.0000000000000E+00
 0.0000000000000E+00
 0.0000000000000E+00
 0.0000000000000E+00
 0.0000000000000E+00
 0.0000000000000E+00
 0.0000000000000E+00
 0.0000000000000E+00
 0.0000000000000E+00
 0.0000000000000E+00
 0.0000000000000E+00
 0.0000000000000E+00
 0.0000000000000E+00
 0.0000000000000E+00
 0.0000000000000E+00
 0.0000000000000E+00
 0.0000000000000E+00
 0.0000000000000E+00
 0.0000000000000E+00
 0.0000000000000E+00
 0.0000000000000E+00
 0.0000000000000E+00
 0.0000000000000E+00
 0.0000000000000E+00
 0.0000000000000E+00
 0.0000000000000E+00
 0.0000000000000E+00
 0.0000000000000E+00
 0.0000000000000E+00
 0.0000000000000E+00
 0.0000000000000E+00
 0.0000000000000E+00
 0.0000000000000E+00
 0.0000000000000E+00
 0.0000000000000E+00
 0.0000000000000E+00
 0.0000000000000E+00
 0.0000000000000E+00
 0.0000000000000E+00
 0.0000000000000E+00
 0.0000000000000E+00
 0.0000000000000E+00
 0.0000000000000E+00
 0.0000000000000E+00
 0.0000000000000E+00
 0.0000000000000E+00
 0.0000000000000E+00
 0.0000000000000E+00
 0.0000000000000E+00
 0.0000000000000E+00
 0.0000000000000E+00
 0.0000000000000E+00
 0.0000000000000E+00
 0.0000000000000E+00
 0.0000000000000E+00
 0.0000000000000E+00
 0.0000000000000E+00
 0.0000000000000E+00
 0.0000000000000E+00
 0.0000000000000E+00
 0.0000000000000E+00
 0.0000000000000E+00
 0.0000000000000E+00
 0.0000000000000E+00
 0.0000000000000E+00
 0.0000000000000E+00
 0.0000000000000E+00
 0.0000000000000E+00
 0.0000000000000E+00
 0.0000000000000E+00
 0.0000000000000E+00
 0.0000000000000E+00
 0.0000000000000E+00
 0.0000000000000E+00
 0.0000000000000E+00
 0.0000000000000E+00
 0.0000000000000E+00
 0.0000000000000E+00
 0.0000000000000E+00
 0.0000000000000E+00
 0.0000000000000E+00
 0.0000000000000E+00
 0.0000000000000E+00
 0.0000000000000E+00
 0.0000000000000E+00
 0.0000000000000E+00
 0.0000000000000E+00
 0.0000000000000E+00
 0.0000000000000E+00
 0.0000000000000E+00
 0.0000000000000E+00
 0.0000000000000E+00
 0.0000000000000E+00
 0.0000000000000E+00
 0.0000000000000E+00
 0.0000000000000E+00
 0.0000000000000E+00
 0.0000000000000E+00
 0.0000000000000E+00
 0.0000000000000E+00
 0.0000000000000E+00
 0.0000000000000E+00
 0.0000000000000E+00
 0.0000000000000E+00
 0.0000000000000E+00
 0.0000000000000E+00
 0.0000000000000E+00
 0.0000000000000E+00
 0.0000000000000E+00
 0.0000000000000E+00
 0.0000000000000E+00
 0.0000000000000E+00
 0.0000000000000E+00
 0.0000000000000E+00
 0.0000000000000E+00
 0.0000000000000E+00
 0.0000000000000E+00
 0.0000000000000E+00
 0.0000000000000E+00
 0.0000000000000E+00
 0.0000000000000E+00
 0.0000000000000E+00
 0.0000000000000E+00
 0.0000000000000E+00
 0.0000000000000E+00
 0.0000000000000E+00
 0.0000000000000E+00
 0.0000000000000E+00
 0.0000000000000E+00
 0.0000000000000E+00
 0.0000000000000E+00
 0.0000000000000E+00
 0.0000000000000E+00
 0.0000000000000E+00
 0.0000000000000E+00
 0.0000000000000E+00
 0.0000000000000E+00
 0.0000000000000E+00
 0.0000000000000E+00
 0.0000000000000E+00
 0.0000000000000E+00
 0.0000000000000E+00
 0.0000000000000E+00
 0.0000000000000E+00
 0.0000000000000E+00
 0.0000000000000E+00
 0.0000000000000E+00
 0.0000000000000E+00
 0.0000000000000E+00
 0.0000000000000E+00
 0.0000000000000E+00
 0.0000000000000E+00
 0.0000000000000E+00
 0.0000000000000E+00
 0.0000000000000E+00
 0.0000000000000E+00
 0.0000000000000E+00
 0.0000000000000E+00
 0.0000000000000E+00
 0.0000000000000E+00
 0.0000000000000E+00
 0.0000000000000E+00
 0.0000000000000E+00
 0.0000000000000E+00
 0.0000000000000E+00
 0.0000000000000E+00
 0.0000000000000E+00
 0.0000000000000E+00
 0.0000000000000E+00
 0.0000000000000E+00
 0.0000000000000E+00
 0.0000000000000E+00
 0.0000000000000E+00
 0.0000000000000E+00
 0.0000000000000E+00
 0.0000000000000E+00
 0.0000000000000E+00
 0.0000000000000E+00
 0.0000000000000E+00
 0.0000000000000E+00
 0.0000000000000E+00
 0.0000000000000E+00
 0.0000000000000E+00
 0.0000000000000E+00
 0.0000000000000E+00
 0.0000000000000E+00
 0.0000000000000E+00
 0.0000000000000E+00
 0.0000000000000E+00
 0.0000000000000E+00
 0.0000000000000E+00
 0.0000000000000E+00
 0.0000000000000E+00
 0.0000000000000E+00
 0.0000000000000E+00
 0.0000000000000E+00
 0.0000000000000E+00
 0.0000000000000E+00
 0.0000000000000E+00
 0.0000000000000E+00
 0.0000000000000E+00
 0.0000000000000E+00
 0.0000000000000E+00
 0.0000000000000E+00
 0.0000000000000E+00
 0.0000000000000E+00
 0.0000000000000E+00
 0.0000000000000E+00
 0.0000000000000E+00
 0.0000000000000E+00
 0.0000000000000E+00
 0.0000000000000E+00
 0.0000000000000E+00
 0.0000000000000E+00
 0.0000000000000E+00
 0.0000000000000E+00
 0.0000000000000E+00
 0.0000000000000E+00
 0.0000000000000E+00
 0.0000000000000E+00
 0.0000000000000E+00
 0.0000000000000E+00
 0.0000000000000E+00
 0.0000000000000E+00
 0.0000000000000E+00
 0.0000000000000E+00
 0.0000000000000E+00
 0.0000000000000E+00
 0.0000000000000E+00
 0.0000000000000E+00
 0.0000000000000E+00
 0.0000000000000E+00
 0.0000000000000E+00
 0.0000000000000E+00
 0.0000000000000E+00
 0.0000000000000E+00
 0.0000000000000E+00
 0.0000000000000E+00
 0.0000000000000E+00
 0.0000000000000E+00
 0.0000000000000E+00
 0.0000000000000E+00
 0.0000000000000E+00
 0.0000000000000E+00
 0.0000000000000E+00
 0.0000000000000E+00
 0.0000000000000E+00
 0.0000000000000E+00
 0.0000000000000E+00
 0.0000000000000E+00
 0.0000000000000E+00
 0.0000000000000E+00
 0.0000000000000E+00
 0.0000000000000E+00
 0.0000000000000E+00
 0.0000000000000E+00
 0.0000000000000E+00
 0.0000000000000E+00
 0.0000000000000E+00
 0.0000000000000E+00
 0.0000000000000E+00
 0.0000000000000E+00
 0.0000000000000E+00
 0.0000000000000E+00
 0.0000000000000E+00
 0.0000000000000E+00
 0.0000000000000E+00
 0.0000000000000E+00
 0.0000000000000E+00
 0.0000000000000E+00
 0.0000000000000E+00
 0.0000000000000E+00
 0.0000000000000E+00
 0.0000000000000E+00
 0.0000000000000E+00
 0.0000000000000E+00
 0.0000000000000E+00
 0.0000000000000E+00
 0.0000000000000E+00
 0.0000000000000E+00
 0.0000000000000E+00
 0.0000000000000E+00
 0.0000000000000E+00
 0.0000000000000E+00
 0.0000000000000E+00
 0.0000000000000E+00
 0.0000000000000E+00
 0.0000000000000E+00
 0.0000000000000E+00
 0.0000000000000E+00
 0.0000000000000E+00
 0.0000000000000E+00
 0.0000000000000E+00
 0.0000000000000E+00
 0.0000000000000E+00
 0.0000000000000E+00
 0.0000000000000E+00
 0.0000000000000E+00
 0.0000000000000E+00
 0.0000000000000E+00
 0.0000000000000E+00
 0.0000000000000E+00
 0.0000000000000E+00
 0.0000000000000E+00
 0.0000000000000E+00
 0.0000000000000E+00
 0.0000000000000E+00
 0.0000000000000E+00
 0.0000000000000E+00
 0.0000000000000E+00
 0.0000000000000E+00
 0.0000000000000E+00
 0.0000000000000E+00
 0.0000000000000E+00
 0.0000000000000E+00
 0.0000000000000E+00
 0.0000000000000E+00
 0.0000000000000E+00
 0.0000000000000E+00
 0.0000000000000E+00
 0.0000000000000E+00
 0.0000000000000E+00
 0.0000000000000E+00
 0.0000000000000E+00
 0.0000000000000E+00
 0.0000000000000E+00
 0.0000000000000E+00
 0.0000000000000E+00
 0.0000000000000E+00
 0.0000000000000E+00
 0.0000000000000E+00
 0.0000000000000E+00
 0.0000000000000E+00
 0.0000000000000E+00
 0.0000000000000E+00
 0.0000000000000E+00
 0.0000000000000E+00
 0.0000000000000E+00
 0.0000000000000E+00
 0.0000000000000E+00
 0.0000000000000E+00
 0.0000000000000E+00
 0.0000000000000E+00
 0.0000000000000E+00
 0.0000000000000E+00
 0.0000000000000E+00
 0.0000000000000E+00
 0.0000000000000E+00
 0.0000000000000E+00
 0.0000000000000E+00
 0.0000000000000E+00
 0.0000000000000E+00
 0.0000000000000E+00
 0.0000000000000E+00
 0.0000000000000E+00
 0.0000000000000E+00
 0.0000000000000E+00
 0.0000000000000E+00
 0.0000000000000E+00
 0.0000000000000E+00
 0.0000000000000E+00
 0.0000000000000E+00
 0.0000000000000E+00
 0.0000000000000E+00
 0.0000000000000E+00
 0.0000000000000E+00
 0.0000000000000E+00
 0.0000000000000E+00
 0.0000000000000E+00
 0.0000000000000E+00
 0.0000000000000E+00
 0.0000000000000E+00
 0.0000000000000E+00
 0.0000000000000E+00
 0.0000000000000E+00
 0.0000000000000E+00
 0.0000000000000E+00
 0.0000000000000E+00
 0.0000000000000E+00
 0.0000000000000E+00
 0.0000000000000E+00
 0.0000000000000E+00
 0.0000000000000E+00
 0.0000000000000E+00
 0.0000000000000E+00
 0.0000000000000E+00
 0.0000000000000E+00
 0.0000000000000E+00
 0.0000000000000E+00
 0.0000000000000E+00
 0.0000000000000E+00
 0.0000000000000E+00
 0.0000000000000E+00
 0.0000000000000E+00
 0.0000000000000E+00
 0.0000000000000E+00
 0.0000000000000E+00
 0.0000000000000E+00
 0.0000000000000E+00
 0.0000000000000E+00
 0.0000000000000E+00
 0.0000000000000E+00
 0.0000000000000E+00
 0.0000000000000E+00
 0.0000000000000E+00
 0.0000000000000E+00
 0.0000000000000E+00
 0.0000000000000E+00
 0.0000000000000E+00
 0.0000000000000E+00
 0.0000000000000E+00
 0.0000000000000E+00
 0.0000000000000E+00
 0.0000000000000E+00
 0.0000000000000E+00
 0.0000000000000E+00
 0.0000000000000E+00
 0.0000000000000E+00
 0.0000000000000E+00
 0.0000000000000E+00
 0.0000000000000E+00
 0.0000000000000E+00
 0.0000000000000E+00
 0.0000000000000E+00
 0.0000000000000E+00
 0.0000000000000E+00
 0.0000000000000E+00
 0.0000000000000E+00
 0.0000000000000E+00
 0.0000000000000E+00
 0.0000000000000E+00
 0.0000000000000E+00
 0.0000000000000E+00
 0.0000000000000E+00
 0.0000000000000E+00
 0.0000000000000E+00
 0.0000000000000E+00
 0.0000000000000E+00
 0.0000000000000E+00
 0.0000000000000E+00
 0.0000000000000E+00
 0.0000000000000E+00
 0.0000000000000E+00
 0.0000000000000E+00
 0.0000000000000E+00
 0.0000000000000E+00
 0.0000000000000E+00
 0.0000000000000E+00
 0.0000000000000E+00
 0.0000000000000E+00
 0.0000000000000E+00
 0.0000000000000E+00
 0.0000000000000E+00
 0.0000000000000E+00
 0.0000000000000E+00
 0.0000000000000E+00
 0.0000000000000E+00
 0.0000000000000E+00
 0.0000000000000E+00
 0.0000000000000E+00
 0.0000000000000E+00
 0.0000000000000E+00
 0.0000000000000E+00
 0.0000000000000E+00
 0.0000000000000E+00
 0.0000000000000E+00
 0.0000000000000E+00
 0.0000000000000E+00
 0.0000000000000E+00
 0.0000000000000E+00
 0.0000000000000E+00
 0.0000000000000E+00
 0.0000000000000E+00
 0.0000000000000E+00
 0.0000000000000E+00
 0.0000000000000E+00
 0.0000000000000E+00
 0.0000000000000E+00
 0.0000000000000E+00
 0.0000000000000E+00
 0.0000000000000E+00
 0.0000000000000E+00
 0.0000000000000E+00
 0.0000000000000E+00
 0.0000000000000E+00
 0.0000000000000E+00
 0.0000000000000E+00
 0.0000000000000E+00
 0.0000000000000E+00
 0.0000000000000E+00
 0.0000000000000E+00
 0.0000000000000E+00
 0.0000000000000E+00
 0.0000000000000E+00
 0.0000000000000E+00
 0.0000000000000E+00
 0.0000000000000E+00
 0.0000000000000E+00
 0.0000000000000E+00
 0.0000000000000E+00
 0.0000000000000E+00
 0.0000000000000E+00
 0.0000000000000E+00
 0.0000000000000E+00
 0.0000000000000E+00
 0.0000000000000E+00
 0.0000000000000E+00
 0.0000000000000E+00
 0.0000000000000E+00
 0.0000000000000E+00
 0.0000000000000E+00
 0.0000000000000E+00
 0.0000000000000E+00
 0.0000000000000E+00
 0.0000000000000E+00
 0.0000000000000E+00
 0.0000000000000E+00
 0.0000000000000E+00
 0.0000000000000E+00
 0.0000000000000E+00
 0.0000000000000E+00
 0.0000000000000E+00
 0.0000000000000E+00
 0.0000000000000E+00
 0.0000000000000E+00
 0.0000000000000E+00
 0.0000000000000E+00
 0.0000000000000E+00
 0.0000000000000E+00
 0.0000000000000E+00
 0.0000000000000E+00
 0.0000000000000E+00
 0.0000000000000E+00
 0.0000000000000E+00
 0.0000000000000E+00
 0.0000000000000E+00
 0.0000000000000E+00
 0.0000000000000E+00
 0.0000000000000E+00
 0.0000000000000E+00
 0.0000000000000E+00
 0.0000000000000E+00
 0.0000000000000E+00
 0.0000000000000E+00
 0.0000000000000E+00
 0.0000000000000E+00
 0.0000000000000E+00
 0.0000000000000E+00
 0.0000000000000E+00
 0.0000000000000E+00
 0.0000000000000E+00
 0.0000000000000E+00
 0.0000000000000E+00
 0.0000000000000E+00
 0.0000000000000E+00
 0.0000000000000E+00
 0.0000000000000E+00
 0.0000000000000E+00
 0.0000000000000E+00
 0.0000000000000E+00
 0.0000000000000E+00
 0.0000000000000E+00
 0.0000000000000E+00
 0.0000000000000E+00
 0.0000000000000E+00
 0.0000000000000E+00
 0.0000000000000E+00
 0.0000000000000E+00
 0.0000000000000E+00
 0.0000000000000E+00
 0.0000000000000E+00
 0.0000000000000E+00
 0.0000000000000E+00
 0.0000000000000E+00
 0.0000000000000E+00
 0.0000000000000E+00
 0.0000000000000E+00
 0.0000000000000E+00
 0.0000000000000E+00
 0.0000000000000E+00
 0.0000000000000E+00
 0.0000000000000E+00
 0.0000000000000E+00
 0.0000000000000E+00
 0.0000000000000E+00
 0.0000000000000E+00
 0.0000000000000E+00
 0.0000000000000E+00
 0.0000000000000E+00
 0.0000000000000E+00
 0.0000000000000E+00
 0.0000000000000E+00
 0.0000000000000E+00
 0.0000000000000E+00
 0.0000000000000E+00
 0.0000000000000E+00
 0.0000000000000E+00
 0.0000000000000E+00
 0.0000000000000E+00
 0.0000000000000E+00
 0.0000000000000E+00
 0.0000000000000E+00
 0.0000000000000E+00
 0.0000000000000E+00
 0.0000000000000E+00
 0.0000000000000E+00
 0.0000000000000E+00
 0.0000000000000E+00
 0.0000000000000E+00
 0.0000000000000E+00
 0.0000000000000E+00
 0.0000000000000E+00
 0.0000000000000E+00
 0.0000000000000E+00
 0.0000000000000E+00
 0.0000000000000E+00
 0.0000000000000E+00
 0.0000000000000E+00
 0.0000000000000E+00
 0.0000000000000E+00
 0.0000000000000E+00
 0.0000000000000E+00
 0.0000000000000E+00
 0.0000000000000E+00
 0.0000000000000E+00
 0.0000000000000E+00
 0.0000000000000E+00
 0.0000000000000E+00
 0.0000000000000E+00
 0.0000000000000E+00
 0.0000000000000E+00
 0.0000000000000E+00
 0.0000000000000E+00
 0.0000000000000E+00
 0.0000000000000E+00
 0.0000000000000E+00
 0.0000000000000E+00
 0.0000000000000E+00
 0.0000000000000E+00
 0.0000000000000E+00
 0.0000000000000E+00
 0.0000000000000E+00
 0.0000000000000E+00
 0.0000000000000E+00
 0.0000000000000E+00
 0.0000000000000E+00
 0.0000000000000E+00
 0.0000000000000E+00
 0.0000000000000E+00
 0.0000000000000E+00
 0.0000000000000E+00
 0.0000000000000E+00
 0.0000000000000E+00
 0.0000000000000E+00
 0.0000000000000E+00
 0.0000000000000E+00
 0.0000000000000E+00
 0.0000000000000E+00
 0.0000000000000E+00
 0.0000000000000E+00
 0.0000000000000E+00
 0.0000000000000E+00
 0.0000000000000E+00
 0.0000000000000E+00
 0.0000000000000E+00
 0.0000000000000E+00
 0.0000000000000E+00
 0.0000000000000E+00
 0.0000000000000E+00
 0.0000000000000E+00
 0.0000000000000E+00
 0.0000000000000E+00
 0.0000000000000E+00
 0.0000000000000E+00
 0.0000000000000E+00
 0.0000000000000E+00
 0.0000000000000E+00
 0.0000000000000E+00
 0.0000000000000E+00
 0.0000000000000E+00
 0.0000000000000E+00
 0.0000000000000E+00
 0.0000000000000E+00
 0.0000000000000E+00
 0.0000000000000E+00
 0.0000000000000E+00
 0.0000000000000E+00
 0.0000000000000E+00
 0.0000000000000E+00
 0.0000000000000E+00
 0.0000000000000E+00
 0.0000000000000E+00
 0.0000000000000E+00
 0.0000000000000E+00
 0.0000000000000E+00
 0.0000000000000E+00
 0.0000000000000E+00
 0.0000000000000E+00
 0.0000000000000E+00
 0.0000000000000E+00
 0.0000000000000E+00
 0.0000000000000E+00
 0.0000000000000E+00
 0.0000000000000E+00
 0.0000000000000E+00
 0.0000000000000E+00
 0.0000000000000E+00
 0.0000000000000E+00
 0.0000000000000E+00
 0.0000000000000E+00
 0.0000000000000E+00
 0.0000000000000E+00
 0.0000000000000E+00
 0.0000000000000E+00
 0.0000000000000E+00
 0.0000000000000E+00
 0.0000000000000E+00
 0.0000000000000E+00
 0.0000000000000E+00
 0.0000000000000E+00
 0.0000000000000E+00
 0.0000000000000E+00
 0.0000000000000E+00
 0.0000000000000E+00
 0.0000000000000E+00
 0.0000000000000E+00
 0.0000000000000E+00
 0.0000000000000E+00
 0.0000000000000E+00
 0.0000000000000E+00
 0.0000000000000E+00
 0.0000000000000E+00
 0.0000000000000E+00
 0.0000000000000E+00
 0.0000000000000E+00
 0.0000000000000E+00
 0.0000000000000E+00
 0.0000000000000E+00
 0.0000000000000E+00
 0.0000000000000E+00
 0.0000000000000E+00
 0.0000000000000E+00
 0.0000000000000E+00
 0.0000000000000E+00
 0.0000000000000E+00
 0.0000000000000E+00
 0.0000000000000E+00
 0.0000000000000E+00
 0.0000000000000E+00
 0.0000000000000E+00
 0.0000000000000E+00
 0.0000000000000E+00
 0.0000000000000E+00
 0.0000000000000E+00
 0.0000000000000E+00
 0.0000000000000E+00
 0.0000000000000E+00
 0.0000000000000E+00
 0.0000000000000E+00
 0.0000000000000E+00
 0.0000000000000E+00
 0.0000000000000E+00
 0.0000000000000E+00
 0.0000000000000E+00
 0.0000000000000E+00
 0.0000000000000E+00
 0.0000000000000E+00
 0.0000000000000E+00
 0.0000000000000E+00
 0.0000000000000E+00
 0.0000000000000E+00
 0.0000000000000E+00
 0.0000000000000E+00
 0.0000000000000E+00
 0.0000000000000E+00
 0.0000000000000E+00
 0.0000000000000E+00
 0.0000000000000E+00
 0.0000000000000E+00
 0.0000000000000E+00
 0.0000000000000E+00
 0.0000000000000E+00
 0.0000000000000E+00
 0.0000000000000E+00
 0.0000000000000E+00
 0.0000000000000E+00
 0.0000000000000E+00
 0.0000000000000E+00
 0.0000000000000E+00
 0.0000000000000E+00
 0.0000000000000E+00
 0.0000000000000E+00
 0.0000000000000E+00
 0.0000000000000E+00
 0.0000000000000E+00
 0.0000000000000E+00
 0.0000000000000E+00
 0.0000000000000E+00
 0.0000000000000E+00
 0.0000000000000E+00
 0.0000000000000E+00
 0.0000000000000E+00
 0.0000000000000E+00
 0.0000000000000E+00
 0.0000000000000E+00
 0.0000000000000E+00
 0.0000000000000E+00
 0.0000000000000E+00
 0.0000000000000E+00
 0.0000000000000E+00
 0.0000000000000E+00
 0.0000000000000E+00
 0.0000000000000E+00
 0.0000000000000E+00
 0.0000000000000E+00
 0.0000000000000E+00
 0.0000000000000E+00
 0.0000000000000E+00
 0.0000000000000E+00
 0.0000000000000E+00
 0.0000000000000E+00
 0.0000000000000E+00
 0.0000000000000E+00
 0.0000000000000E+00
 0.0000000000000E+00
 0.0000000000000E+00
 0.0000000000000E+00
 0.0000000000000E+00
 0.0000000000000E+00
 0.0000000000000E+00
 0.0000000000000E+00
 0.0000000000000E+00
 0.0000000000000E+00
 0.0000000000000E+00
 0.0000000000000E+00
 0.0000000000000E+00
 0.0000000000000E+00
 0.0000000000000E+00
 0.0000000000000E+00
 0.0000000000000E+00
 0.0000000000000E+00
 0.0000000000000E+00
 0.0000000000000E+00
 0.0000000000000E+00
 0.0000000000000E+00
 0.0000000000000E+00
 0.0000000000000E+00
 0.0000000000000E+00
 0.0000000000000E+00
 0.0000000000000E+00
 0.0000000000000E+00
 0.0000000000000E+00
 0.0000000000000E+00
 0.0000000000000E+00
 0.0000000000000E+00
 0.0000000000000E+00
 0.0000000000000E+00
 0.0000000000000E+00
 0.0000000000000E+00
 0.0000000000000E+00
 0.0000000000000E+00
 0.0000000000000E+00
 0.0000000000000E+00
 0.0000000000000E+00
 0.0000000000000E+00
 0.0000000000000E+00
 0.0000000000000E+00
 0.0000000000000E+00
 0.0000000000000E+00
 0.0000000000000E+00
 0.0000000000000E+00
 0.0000000000000E+00
 0.0000000000000E+00
 0.0000000000000E+00
 0.0000000000000E+00
 0.0000000000000E+00
 0.0000000000000E+00
 0.0000000000000E+00
 0.0000000000000E+00
 0.0000000000000E+00
 0.0000000000000E+00
 0.0000000000000E+00
 0.0000000000000E+00
 0.0000000000000E+00
 0.0000000000000E+00
 0.0000000000000E+00
 0.0000000000000E+00
 0.0000000000000E+00
 0.0000000000000E+00
 0.0000000000000E+00
 0.0000000000000E+00
 0.0000000000000E+00
 0.0000000000000E+00
 0.0000000000000E+00
 0.0000000000000E+00
 0.0000000000000E+00
 0.0000000000000E+00
 0.0000000000000E+00
 0.0000000000000E+00
 0.0000000000000E+00
 0.0000000000000E+00
 0.0000000000000E+00
 0.0000000000000E+00
 0.0000000000000E+00
 0.0000000000000E+00
 0.0000000000000E+00
 0.0000000000000E+00
 0.0000000000000E+00
 0.0000000000000E+00
 0.0000000000000E+00
 0.0000000000000E+00
 0.0000000000000E+00
 0.0000000000000E+00
 0.0000000000000E+00
 0.0000000000000E+00
 0.0000000000000E+00
 0.0000000000000E+00
 0.0000000000000E+00
 0.0000000000000E+00
 0.0000000000000E+00
 0.0000000000000E+00
 0.0000000000000E+00
 0.0000000000000E+00
 0.0000000000000E+00
 0.0000000000000E+00
 0.0000000000000E+00
 0.0000000000000E+00
 0.0000000000000E+00
 0.0000000000000E+00
 0.0000000000000E+00
 0.0000000000000E+00
 0.0000000000000E+00
 0.0000000000000E+00
 0.0000000000000E+00
 0.0000000000000E+00
 0.0000000000000E+00
 0.0000000000000E+00
 0.0000000000000E+00
 0.0000000000000E+00
 0.0000000000000E+00
 0.0000000000000E+00
 0.0000000000000E+00
 0.0000000000000E+00
 0.0000000000000E+00
 0.0000000000000E+00
 0.0000000000000E+00
 0.0000000000000E+00
 0.0000000000000E+00
 0.0000000000000E+00
 0.0000000000000E+00
 0.0000000000000E+00
 0.0000000000000E+00
 0.0000000000000E+00
 0.0000000000000E+00
 0.0000000000000E+00
 0.0000000000000E+00
 0.0000000000000E+00
 0.0000000000000E+00
 0.0000000000000E+00
 0.0000000000000E+00
 0.0000000000000E+00
 0.0000000000000E+00
 0.0000000000000E+00
 0.0000000000000E+00
 0.0000000000000E+00
 0.0000000000000E+00
 0.0000000000000E+00
 0.0000000000000E+00
 0.0000000000000E+00
 0.0000000000000E+00
 0.0000000000000E+00
 0.0000000000000E+00
 0.0000000000000E+00
 0.0000000000000E+00
 0.0000000000000E+00
 0.0000000000000E+00
 0.0000000000000E+00
 0.0000000000000E+00
 0.0000000000000E+00
 0.0000000000000E+00
 0.0000000000000E+00
 0.0000000000000E+00
 0.0000000000000E+00
 0.0000000000000E+00
 0.0000000000000E+00
 0.0000000000000E+00
 0.0000000000000E+00
 0.0000000000000E+00
 0.0000000000000E+00
 0.0000000000000E+00
 0.0000000000000E+00
 0.0000000000000E+00
 0.0000000000000E+00
 0.0000000000000E+00
 0.0000000000000E+00
 0.0000000000000E+00
 0.0000000000000E+00
 0.0000000000000E+00
 0.0000000000000E+00
 0.0000000000000E+00
 0.0000000000000E+00
 0.0000000000000E+00
 0.0000000000000E+00
 0.0000000000000E+00
 0.0000000000000E+00
 0.0000000000000E+00
 0.0000000000000E+00
 0.0000000000000E+00
 0.0000000000000E+00
 0.0000000000000E+00
 0.0000000000000E+00
 0.0000000000000E+00
 0.0000000000000E+00
 0.0000000000000E+00
 0.0000000000000E+00
 0.0000000000000E+00
 0.0000000000000E+00
 0.0000000000000E+00
 0.0000000000000E+00
 0.0000000000000E+00
 0.0000000000000E+00
 0.0000000000000E+00
 0.0000000000000E+00
 0.0000000000000E+00
 0.0000000000000E+00
 0.0000000000000E+00
 0.0000000000000E+00
 0.0000000000000E+00
 0.0000000000000E+00
 0.0000000000000E+00
 0.0000000000000E+00
 0.0000000000000E+00
 0.0000000000000E+00
 0.0000000000000E+00
 0.0000000000000E+00
 0.0000000000000E+00
 0.0000000000000E+00
 0.0000000000000E+00
 0.0000000000000E+00
 0.0000000000000E+00
 0.0000000000000E+00
 0.0000000000000E+00
 0.0000000000000E+00
 0.0000000000000E+00
 0.0000000000000E+00
 0.0000000000000E+00
 0.0000000000000E+00
 0.0000000000000E+00
 0.0000000000000E+00
 0.0000000000000E+00
 0.0000000000000E+00
 0.0000000000000E+00
 0.0000000000000E+00
 0.0000000000000E+00
 0.0000000000000E+00
 0.0000000000000E+00
 0.0000000000000E+00
 0.0000000000000E+00
 0.0000000000000E+00
 0.0000000000000E+00
 0.0000000000000E+00
 0.0000000000000E+00
 0.0000000000000E+00
 0.0000000000000E+00
 0.0000000000000E+00
 0.0000000000000E+00
 0.0000000000000E+00
 0.0000000000000E+00
 0.0000000000000E+00
 0.0000000000000E+00
 0.0000000000000E+00
 0.0000000000000E+00
 0.0000000000000E+00
 0.0000000000000E+00
 0.0000000000000E+00
 0.0000000000000E+00
 0.0000000000000E+00
 0.0000000000000E+00
 0.0000000000000E+00
 0.0000000000000E+00
 0.0000000000000E+00
 0.0000000000000E+00
 0.0000000000000E+00
 0.0000000000000E+00
 0.0000000000000E+00
 0.0000000000000E+00
 0.0000000000000E+00
 0.0000000000000E+00
 0.0000000000000E+00
 0.0000000000000E+00
 0.0000000000000E+00
 0.0000000000000E+00
 0.0000000000000E+00
 0.0000000000000E+00
 0.0000000000000E+00
 0.0000000000000E+00
 0.0000000000000E+00
 0.0000000000000E+00
 0.0000000000000E+00
 0.0000000000000E+00
 0.0000000000000E+00
 0.0000000000000E+00
 0.0000000000000E+00
 0.0000000000000E+00
 0.0000000000000E+00
 0.0000000000000E+00
 0.0000000000000E+00
 0.0000000000000E+00
 0.0000000000000E+00
 0.0000000000000E+00
 0.0000000000000E+00
 0.0000000000000E+00
 0.0000000000000E+00
 0.0000000000000E+00
 0.0000000000000E+00
 0.0000000000000E+00
 0.0000000000000E+00
 0.0000000000000E+00
 0.0000000000000E+00
 0.0000000000000E+00
 0.0000000000000E+00
 0.0000000000000E+00
 0.0000000000000E+00
 0.0000000000000E+00
 0.0000000000000E+00
 0.0000000000000E+00
 0.0000000000000E+00
 0.0000000000000E+00
 0.0000000000000E+00
 0.0000000000000E+00
 0.0000000000000E+00
 0.0000000000000E+00
 0.0000000000000E+00
 0.0000000000000E+00
 0.0000000000000E+00
 0.0000000000000E+00
 0.0000000000000E+00
 0.0000000000000E+00
 0.0000000000000E+00
 0.0000000000000E+00
 0.0000000000000E+00
 0.0000000000000E+00
 0.0000000000000E+00
 0.0000000000000E+00
 0.0000000000000E+00
 0.0000000000000E+00
 0.0000000000000E+00
 0.0000000000000E+00
 0.0000000000000E+00
 0.0000000000000E+00
 0.0000000000000E+00
 0.0000000000000E+00
 0.0000000000000E+00
 0.0000000000000E+00
 0.0000000000000E+00
 0.0000000000000E+00
 0.0000000000000E+00
 0.0000000000000E+00
 0.0000000000000E+00
 0.0000000000000E+00
 0.0000000000000E+00
 0.0000000000000E+00
 0.0000000000000E+00
 0.0000000000000E+00
 0.0000000000000E+00
 0.0000000000000E+00
 0.0000000000000E+00
 0.0000000000000E+00
 0.0000000000000E+00
 0.0000000000000E+00
 0.0000000000000E+00
 0.0000000000000E+00
 0.0000000000000E+00
 0.0000000000000E+00
 0.0000000000000E+00
 0.0000000000000E+00
 0.0000000000000E+00
 0.0000000000000E+00
 0.0000000000000E+00
 0.0000000000000E+00
 0.0000000000000E+00
 0.0000000000000E+00
 0.0000000000000E+00
 0.0000000000000E+00
 0.0000000000000E+00
 0.0000000000000E+00
 0.0000000000000E+00
 0.0000000000000E+00
 0.0000000000000E+00
 0.0000000000000E+00
 0.0000000000000E+00
 0.0000000000000E+00
 0.0000000000000E+00
 0.0000000000000E+00
 0.0000000000000E+00
 0.0000000000000E+00
 0.0000000000000E+00
 0.0000000000000E+00
 0.0000000000000E+00
 0.0000000000000E+00
 0.0000000000000E+00
 0.0000000000000E+00
 0.0000000000000E+00
 0.0000000000000E+00
 0.0000000000000E+00
 0.0000000000000E+00
 0.0000000000000E+00
 0.0000000000000E+00
 0.0000000000000E+00
 0.0000000000000E+00
 0.0000000000000E+00
 0.0000000000000E+00
 0.0000000000000E+00
 0.0000000000000E+00
 0.0000000000000E+00
 0.0000000000000E+00
 0.0000000000000E+00
 0.0000000000000E+00
 0.0000000000000E+00
 0.0000000000000E+00
 0.0000000000000E+00
 0.0000000000000E+00
 0.0000000000000E+00
 0.0000000000000E+00
 0.0000000000000E+00
 0.0000000000000E+00
 0.0000000000000E+00
 0.0000000000000E+00
 0.0000000000000E+00
 0.0000000000000E+00
 0.0000000000000E+00
 0.0000000000000E+00
 0.0000000000000E+00
 0.0000000000000E+00
 0.0000000000000E+00
 0.0000000000000E+00
 0.0000000000000E+00
 0.0000000000000E+00
 0.0000000000000E+00
 0.0000000000000E+00
 0.0000000000000E+00
 0.0000000000000E+00
 0.0000000000000E+00
 0.0000000000000E+00
 0.0000000000000E+00
 0.0000000000000E+00
 0.0000000000000E+00
 0.0000000000000E+00
 0.0000000000000E+00
 0.0000000000000E+00
 0.0000000000000E+00
 0.0000000000000E+00
 0.0000000000000E+00
 0.0000000000000E+00
 0.0000000000000E+00
 0.0000000000000E+00
 0.0000000000000E+00
 0.0000000000000E+00
 0.0000000000000E+00
 0.0000000000000E+00
 0.0000000000000E+00
 0.0000000000000E+00
 0.0000000000000E+00
 0.0000000000000E+00
 0.0000000000000E+00
 0.0000000000000E+00
 0.0000000000000E+00
 0.0000000000000E+00
 0.0000000000000E+00
 0.0000000000000E+00
 0.0000000000000E+00
 0.0000000000000E+00
 0.0000000000000E+00
 0.0000000000000E+00
 0.0000000000000E+00
 0.0000000000000E+00
 0.0000000000000E+00
 0.0000000000000E+00
 0.0000000000000E+00
 0.0000000000000E+00
 0.0000000000000E+00
 0.0000000000000E+00
 0.0000000000000E+00
 0.0000000000000E+00
 0.0000000000000E+00
 0.0000000000000E+00
 0.0000000000000E+00
 0.0000000000000E+00
 0.0000000000000E+00
 0.0000000000000E+00
 0.0000000000000E+00
 0.0000000000000E+00
 0.0000000000000E+00
 0.0000000000000E+00
 0.0000000000000E+00
 0.0000000000000E+00
 0.0000000000000E+00
 0.0000000000000E+00
 0.0000000000000E+00
 0.0000000000000E+00
 0.0000000000000E+00
 0.0000000000000E+00
 0.0000000000000E+00
 0.0000000000000E+00
 0.0000000000000E+00
 0.0000000000000E+00
 0.0000000000000E+00
 0.0000000000000E+00
 0.0000000000000E+00
 0.0000000000000E+00
 0.0000000000000E+00
 0.0000000000000E+00
 0.0000000000000E+00
 0.0000000000000E+00
 0.0000000000000E+00
 0.0000000000000E+00
 0.0000000000000E+00
 0.0000000000000E+00
 0.0000000000000E+00
 0.0000000000000E+00
 0.0000000000000E+00
 0.0000000000000E+00
 0.0000000000000E+00
 0.0000000000000E+00
 0.0000000000000E+00
 0.0000000000000E+00
 0.0000000000000E+00
 0.0000000000000E+00
 0.0000000000000E+00
 0.0000000000000E+00
 0.0000000000000E+00
 0.0000000000000E+00
 0.0000000000000E+00
 0.0000000000000E+00
 0.0000000000000E+00
 0.0000000000000E+00
 0.0000000000000E+00
 0.0000000000000E+00
 0.0000000000000E+00
 0.0000000000000E+00
 0.0000000000000E+00
 0.0000000000000E+00
 0.0000000000000E+00
 0.0000000000000E+00
 0.0000000000000E+00
 0.0000000000000E+00
 0.0000000000000E+00
 0.0000000000000E+00
 0.0000000000000E+00
 0.0000000000000E+00
 0.0000000000000E+00
 0.0000000000000E+00
 0.0000000000000E+00
 0.0000000000000E+00
 0.0000000000000E+00
 0.0000000000000E+00
 0.0000000000000E+00
 0.0000000000000E+00
 0.0000000000000E+00
 0.0000000000000E+00
 0.0000000000000E+00
 0.0000000000000E+00
 0.0000000000000E+00
 0.0000000000000E+00
 0.0000000000000E+00
 0.0000000000000E+00
 0.0000000000000E+00
 0.0000000000000E+00
 0.0000000000000E+00
 0.0000000000000E+00
 0.0000000000000E+00
 0.0000000000000E+00
 0.0000000000000E+00
 0.0000000000000E+00
 0.0000000000000E+00
 0.0000000000000E+00
 0.0000000000000E+00
 0.0000000000000E+00
 0.0000000000000E+00
 0.0000000000000E+00
 0.0000000000000E+00
 0.0000000000000E+00
 0.0000000000000E+00
 0.0000000000000E+00
 0.0000000000000E+00
 0.0000000000000E+00
 0.0000000000000E+00
 0.0000000000000E+00
 0.0000000000000E+00
 0.0000000000000E+00
 0.0000000000000E+00
 0.0000000000000E+00
 0.0000000000000E+00
 0.0000000000000E+00
 0.0000000000000E+00
 0.0000000000000E+00
 0.0000000000000E+00
 0.0000000000000E+00
 0.0000000000000E+00
 0.0000000000000E+00
 0.0000000000000E+00
 0.0000000000000E+00
 0.0000000000000E+00
 0.0000000000000E+00
 0.0000000000000E+00
 0.0000000000000E+00
 0.0000000000000E+00
 0.0000000000000E+00
 0.0000000000000E+00
 0.0000000000000E+00
 0.0000000000000E+00
 0.0000000000000E+00
 0.0000000000000E+00
 0.0000000000000E+00
 0.0000000000000E+00
 0.0000000000000E+00
 0.0000000000000E+00
 0.0000000000000E+00
 0.0000000000000E+00
 0.0000000000000E+00
 0.0000000000000E+00
 0.0000000000000E+00
 0.0000000000000E+00
 0.0000000000000E+00
 0.0000000000000E+00
 0.0000000000000E+00
 0.0000000000000E+00
 0.0000000000000E+00
 0.0000000000000E+00
 0.0000000000000E+00
 0.0000000000000E+00
 0.0000000000000E+00
 0.0000000000000E+00
 0.0000000000000E+00
 0.0000000000000E+00
 0.0000000000000E+00
 0.0000000000000E+00
 0.0000000000000E+00
 0.0000000000000E+00
 0.0000000000000E+00
 0.0000000000000E+00
 0.0000000000000E+00
 0.0000000000000E+00
 0.0000000000000E+00
 0.0000000000000E+00
 0.0000000000000E+00
 0.0000000000000E+00
 0.0000000000000E+00
 0.0000000000000E+00
 0.0000000000000E+00
 0.0000000000000E+00
 0.0000000000000E+00
 0.0000000000000E+00
 0.0000000000000E+00
 0.0000000000000E+00
 0.0000000000000E+00
 0.0000000000000E+00
 0.0000000000000E+00
 0.0000000000000E+00
 0.0000000000000E+00
 0.0000000000000E+00
 0.0000000000000E+00
 0.0000000000000E+00
 0.0000000000000E+00
 0.0000000000000E+00
 0.0000000000000E+00
 0.0000000000000E+00
 0.0000000000000E+00
 0.0000000000000E+00
 0.0000000000000E+00
 0.0000000000000E+00
 0.0000000000000E+00
 0.0000000000000E+00
 0.0000000000000E+00
 0.0000000000000E+00
 0.0000000000000E+00
 0.0000000000000E+00
 0.0000000000000E+00
 0.0000000000000E+00
 0.0000000000000E+00
 0.0000000000000E+00
 0.0000000000000E+00
 0.0000000000000E+00
 0.0000000000000E+00
 0.0000000000000E+00
 0.0000000000000E+00
 0.0000000000000E+00
 0.0000000000000E+00
 0.0000000000000E+00
 0.0000000000000E+00
 0.0000000000000E+00
 0.0000000000000E+00
 0.0000000000000E+00
 0.0000000000000E+00
 0.0000000000000E+00
 0.0000000000000E+00
 0.0000000000000E+00
 0.0000000000000E+00
 0.0000000000000E+00
 0.0000000000000E+00
 0.0000000000000E+00
 0.0000000000000E+00
 0.0000000000000E+00
 0.0000000000000E+00
 0.0000000000000E+00
 0.0000000000000E+00
 0.0000000000000E+00
 0.0000000000000E+00
 0.0000000000000E+00
 0.0000000000000E+00
 0.0000000000000E+00
 0.0000000000000E+00
 0.0000000000000E+00
 0.0000000000000E+00
 0.0000000000000E+00
 0.0000000000000E+00
 0.0000000000000E+00
 0.0000000000000E+00
 0.0000000000000E+00
 0.0000000000000E+00
 0.0000000000000E+00
 0.0000000000000E+00
 0.0000000000000E+00
 0.0000000000000E+00
 0.0000000000000E+00
 0.0000000000000E+00
 0.0000000000000E+00
 0.0000000000000E+00
 0.0000000000000E+00
 0.0000000000000E+00
 0.0000000000000E+00
 0.0000000000000E+00
 0.0000000000000E+00
 0.0000000000000E+00
 0.0000000000000E+00
 0.0000000000000E+00
 0.0000000000000E+00
 0.0000000000000E+00
 0.0000000000000E+00
 0.0000000000000E+00
 0.0000000000000E+00
 0.0000000000000E+00
 0.0000000000000E+00
 0.0000000000000E+00
 0.0000000000000E+00
 0.0000000000000E+00
 0.0000000000000E+00
 0.0000000000000E+00
 0.0000000000000E+00
 0.0000000000000E+00
 0.0000000000000E+00
 0.0000000000000E+00
 0.0000000000000E+00
 0.0000000000000E+00
 0.0000000000000E+00
 0.0000000000000E+00
 0.0000000000000E+00
 0.0000000000000E+00
 0.0000000000000E+00
 0.0000000000000E+00
 0.0000000000000E+00
 0.0000000000000E+00
 0.0000000000000E+00
 0.0000000000000E+00
 0.0000000000000E+00
 0.0000000000000E+00
 0.0000000000000E+00
 0.0000000000000E+00
 0.0000000000000E+00
 0.0000000000000E+00
 0.0000000000000E+00
 0.0000000000000E+00
 0.0000000000000E+00
 0.0000000000000E+00
 0.0000000000000E+00
 0.0000000000000E+00
 0.0000000000000E+00
 0.0000000000000E+00
 0.0000000000000E+00
 0.0000000000000E+00
 0.0000000000000E+00
 0.0000000000000E+00
 0.0000000000000E+00
 0.0000000000000E+00
 0.0000000000000E+00
 0.0000000000000E+00
 0.0000000000000E+00
 0.0000000000000E+00
 0.0000000000000E+00
 0.0000000000000E+00
 0.0000000000000E+00
 0.0000000000000E+00
 0.0000000000000E+00
 0.0000000000000E+00
 0.0000000000000E+00
 0.0000000000000E+00
 0.0000000000000E+00
 0.0000000000000E+00
 0.0000000000000E+00
 0.0000000000000E+00
 0.0000000000000E+00
 0.0000000000000E+00
 0.0000000000000E+00
 0.0000000000000E+00
 0.0000000000000E+00
 0.0000000000000E+00
 0.0000000000000E+00
 0.0000000000000E+00
 0.0000000000000E+00
 0.0000000000000E+00
 0.0000000000000E+00
 0.0000000000000E+00
 0.0000000000000E+00
 0.0000000000000E+00
 0.0000000000000E+00
 0.0000000000000E+00
 0.0000000000000E+00
 0.0000000000000E+00
 0.0000000000000E+00
 0.0000000000000E+00
 0.0000000000000E+00
 0.0000000000000E+00
 0.0000000000000E+00
 0.0000000000000E+00
 0.0000000000000E+00
 0.0000000000000E+00
 0.0000000000000E+00
 0.0000000000000E+00
 0.0000000000000E+00
 0.0000000000000E+00
 0.0000000000000E+00
 0.0000000000000E+00
 0.0000000000000E+00
 0.0000000000000E+00
 0.0000000000000E+00
 0.0000000000000E+00
 0.0000000000000E+00
 0.0000000000000E+00
 0.0000000000000E+00
 0.0000000000000E+00
 0.0000000000000E+00
 0.0000000000000E+00
 0.0000000000000E+00
 0.0000000000000E+00
 0.0000000000000E+00
 0.0000000000000E+00
 0.0000000000000E+00
 0.0000000000000E+00
 0.0000000000000E+00
 0.0000000000000E+00
 0.0000000000000E+00
 0.0000000000000E+00
 0.0000000000000E+00
 0.0000000000000E+00
 0.0000000000000E+00
 0.0000000000000E+00
 0.0000000000000E+00
 0.0000000000000E+00
 0.0000000000000E+00
 0.0000000000000E+00
 0.0000000000000E+00
 0.0000000000000E+00
 0.0000000000000E+00
 0.0000000000000E+00
 0.0000000000000E+00
 0.0000000000000E+00
 0.0000000000000E+00
 0.0000000000000E+00
 0.0000000000000E+00
 0.0000000000000E+00
 0.0000000000000E+00
 0.0000000000000E+00
 0.0000000000000E+00
 0.0000000000000E+00
 0.0000000000000E+00
 0.0000000000000E+00
 0.0000000000000E+00
 0.0000000000000E+00
 0.0000000000000E+00
 0.0000000000000E+00
 0.0000000000000E+00
 0.0000000000000E+00
 0.0000000000000E+00
 0.0000000000000E+00
 0.0000000000000E+00
 0.0000000000000E+00
 0.0000000000000E+00
 0.0000000000000E+00
 0.0000000000000E+00
 0.0000000000000E+00
 0.0000000000000E+00
 0.0000000000000E+00
 0.0000000000000E+00
 0.0000000000000E+00
 0.0000000000000E+00
 0.0000000000000E+00
 0.0000000000000E+00
 0.0000000000000E+00
 0.0000000000000E+00
 0.0000000000000E+00
 0.0000000000000E+00
 0.0000000000000E+00
 0.0000000000000E+00
 0.0000000000000E+00
 0.0000000000000E+00
 0.0000000000000E+00
 0.0000000000000E+00
 0.0000000000000E+00
 0.0000000000000E+00
 0.0000000000000E+00
 0.0000000000000E+00
 0.0000000000000E+00
 0.0000000000000E+00
 0.0000000000000E+00
 0.0000000000000E+00
 0.0000000000000E+00
 0.0000000000000E+00
 0.0000000000000E+00
 0.0000000000000E+00
 0.0000000000000E+00
 0.0000000000000E+00
 0.0000000000000E+00
 0.0000000000000E+00
 0.0000000000000E+00
 0.0000000000000E+00
 0.0000000000000E+00
 0.0000000000000E+00
 0.0000000000000E+00
 0.0000000000000E+00
 0.0000000000000E+00
 0.0000000000000E+00
 0.0000000000000E+00
 0.0000000000000E+00
 0.0000000000000E+00
 0.0000000000000E+00
 0.0000000000000E+00
 0.0000000000000E+00
 0.0000000000000E+00
 0.0000000000000E+00
 0.0000000000000E+00
 0.0000000000000E+00
 0.0000000000000E+00
 0.0000000000000E+00
 0.0000000000000E+00
 0.0000000000000E+00
 0.0000000000000E+00
 0.0000000000000E+00
 0.0000000000000E+00
 0.0000000000000E+00
 0.0000000000000E+00
 0.0000000000000E+00
 0.0000000000000E+00
 0.0000000000000E+00
 0.0000000000000E+00
 0.0000000000000E+00
 0.0000000000000E+00
 0.0000000000000E+00
 0.0000000000000E+00
 0.0000000000000E+00
 0.0000000000000E+00
 0.0000000000000E+00
 0.0000000000000E+00
 0.0000000000000E+00
 0.0000000000000E+00
 0.0000000000000E+00
 0.0000000000000E+00
 0.0000000000000E+00
 0.0000000000000E+00
 0.0000000000000E+00
 0.0000000000000E+00
 0.0000000000000E+00
 0.0000000000000E+00
 0.0000000000000E+00
 0.0000000000000E+00
 0.0000000000000E+00
 0.0000000000000E+00
 0.0000000000000E+00
 0.0000000000000E+00
 0.0000000000000E+00
 0.0000000000000E+00
 0.0000000000000E+00
 0.0000000000000E+00
 0.0000000000000E+00
 0.0000000000000E+00
 0.0000000000000E+00
 0.0000000000000E+00
 0.0000000000000E+00
 0.0000000000000E+00
 0.0000000000000E+00
 0.0000000000000E+00
 0.0000000000000E+00
 0.0000000000000E+00
 0.0000000000000E+00
 0.0000000000000E+00
 0.0000000000000E+00
 0.0000000000000E+00
 0.0000000000000E+00
 0.0000000000000E+00
 0.0000000000000E+00
 0.0000000000000E+00
 0.0000000000000E+00
 0.0000000000000E+00
 0.0000000000000E+00
 0.0000000000000E+00
 0.0000000000000E+00
 0.0000000000000E+00
 0.0000000000000E+00
 0.0000000000000E+00
 0.0000000000000E+00
 0.0000000000000E+00
 0.0000000000000E+00
 0.0000000000000E+00
 0.0000000000000E+00
 0.0000000000000E+00
 0.0000000000000E+00
 0.0000000000000E+00
 0.0000000000000E+00
 0.0000000000000E+00
 0.0000000000000E+00
 0.0000000000000E+00
 0.0000000000000E+00
 0.0000000000000E+00
 0.0000000000000E+00
 0.0000000000000E+00
 0.0000000000000E+00
 0.0000000000000E+00
 0.0000000000000E+00
 0.0000000000000E+00
 0.0000000000000E+00
 0.0000000000000E+00
 0.0000000000000E+00
 0.0000000000000E+00
 0.0000000000000E+00
 0.0000000000000E+00
 0.0000000000000E+00
 0.0000000000000E+00
 0.0000000000000E+00
 0.0000000000000E+00
 0.0000000000000E+00
 0.0000000000000E+00
 0.0000000000000E+00
 0.0000000000000E+00
 0.0000000000000E+00
 0.0000000000000E+00
 0.0000000000000E+00
 0.0000000000000E+00
 0.0000000000000E+00
 0.0000000000000E+00
 0.0000000000000E+00
 0.0000000000000E+00
 0.0000000000000E+00
 0.0000000000000E+00
 0.0000000000000E+00
 0.0000000000000E+00
 0.0000000000000E+00
 0.0000000000000E+00
 0.0000000000000E+00
 0.0000000000000E+00
 0.0000000000000E+00
 0.0000000000000E+00
 0.0000000000000E+00
 0.0000000000000E+00
 0.0000000000000E+00
 0.0000000000000E+00
 0.0000000000000E+00
 0.0000000000000E+00
 0.0000000000000E+00
 0.0000000000000E+00
 0.0000000000000E+00
 0.0000000000000E+00
 0.0000000000000E+00
 0.0000000000000E+00
 0.0000000000000E+00
 0.0000000000000E+00
 0.0000000000000E+00
 0.0000000000000E+00
 0.0000000000000E+00
 0.0000000000000E+00
 0.0000000000000E+00
 0.0000000000000E+00
 0.0000000000000E+00
 0.0000000000000E+00
 0.0000000000000E+00
 0.0000000000000E+00
 0.0000000000000E+00
 0.0000000000000E+00
 0.0000000000000E+00
 0.0000000000000E+00
 0.0000000000000E+00
 0.0000000000000E+00
 0.0000000000000E+00
 0.0000000000000E+00
 0.0000000000000E+00
 0.0000000000000E+00
 0.0000000000000E+00
 0.0000000000000E+00
 0.0000000000000E+00
 0.0000000000000E+00
 0.0000000000000E+00
 0.0000000000000E+00
 0.0000000000000E+00
 0.0000000000000E+00
 0.0000000000000E+00
 0.0000000000000E+00
 0.0000000000000E+00
 0.0000000000000E+00
 0.0000000000000E+00
 0.0000000000000E+00
 0.0000000000000E+00
 0.0000000000000E+00
 0.0000000000000E+00
 0.0000000000000E+00
 0.0000000000000E+00
 0.0000000000000E+00
 0.0000000000000E+00
 0.0000000000000E+00
 0.0000000000000E+00
 0.0000000000000E+00
 0.0000000000000E+00
 0.0000000000000E+00
 0.0000000000000E+00
 0.0000000000000E+00
 0.0000000000000E+00
 0.0000000000000E+00
 0.0000000000000E+00
 0.0000000000000E+00
 0.0000000000000E+00
 0.0000000000000E+00
 0.0000000000000E+00
 0.0000000000000E+00
 0.0000000000000E+00
 0.0000000000000E+00
 0.0000000000000E+00
 0.0000000000000E+00
 0.0000000000000E+00
 0.0000000000000E+00
 0.0000000000000E+00
 0.0000000000000E+00
 0.0000000000000E+00
 0.0000000000000E+00
 0.0000000000000E+00
 0.0000000000000E+00
 0.0000000000000E+00
 0.0000000000000E+00
 0.0000000000000E+00
 0.0000000000000E+00
 0.0000000000000E+00
 0.0000000000000E+00
 0.0000000000000E+00
 0.0000000000000E+00
 0.0000000000000E+00
 0.0000000000000E+00
 0.0000000000000E+00
 0.0000000000000E+00
 0.0000000000000E+00
 0.0000000000000E+00
 0.0000000000000E+00
 0.0000000000000E+00
 0.0000000000000E+00
 0.0000000000000E+00
 0.0000000000000E+00
 0.0000000000000E+00
 0.0000000000000E+00
 0.0000000000000E+00
 0.0000000000000E+00
 0.0000000000000E+00
 0.0000000000000E+00
 0.0000000000000E+00
 0.0000000000000E+00
 0.0000000000000E+00
 0.0000000000000E+00
 0.0000000000000E+00
 0.0000000000000E+00
 0.0000000000000E+00
 0.0000000000000E+00
 0.0000000000000E+00
 0.0000000000000E+00
 0.0000000000000E+00
 0.0000000000000E+00
 0.0000000000000E+00
 0.0000000000000E+00
 0.0000000000000E+00
 0.0000000000000E+00
 0.0000000000000E+00
 0.0000000000000E+00
 0.0000000000000E+00
 0.0000000000000E+00
 0.0000000000000E+00
 0.0000000000000E+00
 0.0000000000000E+00
 0.0000000000000E+00
 0.0000000000000E+00
 0.0000000000000E+00
 0.0000000000000E+00
 0.0000000000000E+00
 0.0000000000000E+00
 0.0000000000000E+00
 0.0000000000000E+00
 0.0000000000000E+00
 0.0000000000000E+00
 0.0000000000000E+00
 0.0000000000000E+00
 0.0000000000000E+00
 0.0000000000000E+00
 0.0000000000000E+00
 0.0000000000000E+00
 0.0000000000000E+00
 0.0000000000000E+00
 0.0000000000000E+00
 0.0000000000000E+00
 0.0000000000000E+00
 0.0000000000000E+00
 0.0000000000000E+00
 0.0000000000000E+00
 0.0000000000000E+00
 0.0000000000000E+00
 0.0000000000000E+00
 0.0000000000000E+00
 0.0000000000000E+00
 0.0000000000000E+00
 0.0000000000000E+00
 0.0000000000000E+00
 0.0000000000000E+00
 0.0000000000000E+00
 0.0000000000000E+00
 0.0000000000000E+00
 0.0000000000000E+00
 0.0000000000000E+00
 0.0000000000000E+00
 0.0000000000000E+00
 0.0000000000000E+00
 0.0000000000000E+00
 0.0000000000000E+00
 0.0000000000000E+00
 0.0000000000000E+00
 0.0000000000000E+00
 0.0000000000000E+00
 0.0000000000000E+00
 0.0000000000000E+00
 0.0000000000000E+00
 0.0000000000000E+00
 0.0000000000000E+00
 0.0000000000000E+00
 0.0000000000000E+00
 0.0000000000000E+00
 0.0000000000000E+00
 0.0000000000000E+00
 0.0000000000000E+00
 0.0000000000000E+00
 0.0000000000000E+00
 0.0000000000000E+00
 0.0000000000000E+00
 0.0000000000000E+00
 0.0000000000000E+00
 0.0000000000000E+00
 0.0000000000000E+00
 0.0000000000000E+00
 0.0000000000000E+00
 0.0000000000000E+00
 0.0000000000000E+00
 0.0000000000000E+00
 0.0000000000000E+00
 0.0000000000000E+00
 0.0000000000000E+00
 0.0000000000000E+00
 0.0000000000000E+00
 0.0000000000000E+00
 0.0000000000000E+00
 0.0000000000000E+00
 0.0000000000000E+00
 0.0000000000000E+00
 0.0000000000000E+00
 0.0000000000000E+00
 0.0000000000000E+00
 0.0000000000000E+00
 0.0000000000000E+00
 0.0000000000000E+00
 0.0000000000000E+00
 0.0000000000000E+00
 0.0000000000000E+00
 0.0000000000000E+00
 0.0000000000000E+00
 0.0000000000000E+00
 0.0000000000000E+00
 0.0000000000000E+00
 0.0000000000000E+00
 0.0000000000000E+00
 0.0000000000000E+00
 0.0000000000000E+00
 0.0000000000000E+00
 0.0000000000000E+00
 0.0000000000000E+00
 0.0000000000000E+00
 0.0000000000000E+00
 0.0000000000000E+00
 0.0000000000000E+00
 0.0000000000000E+00
 0.0000000000000E+00
 0.0000000000000E+00
 0.0000000000000E+00
 0.0000000000000E+00
 0.0000000000000E+00
 0.0000000000000E+00
 0.0000000000000E+00
 0.0000000000000E+00
 0.0000000000000E+00
 0.0000000000000E+00
 0.0000000000000E+00
 0.0000000000000E+00
 0.0000000000000E+00
 0.0000000000000E+00
</DataArray>
<DataArray type="Int32" Name="Region" format="ascii">
           1
           1
           1
           1
           1
           1
           1
           1
           1
           1
           1
           1
           1
           1
           1
           1
           1
           1
           1
           1
           1
           1
           1
           1
           1
           1
           1
           1
           1
           1
           1
           1
           1
           1
           1
           1
           1
           1
           1
           1
           1
           1
           1
           1
           1
           1
           1
           1
           1
           1
           1
           1
           1
           1
           1
           1
           1
           1
           1
           1
           1
           1
           1
           1
           1
           1
           1
           1
           1
           1
           1
           1
           1
           1
           1
           1
           1
           1
           1
           1
           1
           1
           1
           1
           1
           1
           1
           1
           1
           1
           1
           1
           1
           1
           1
           1
           1
           1
           1
           1
           1
           1
           1
           1
           1
           1
           1
           1
           1
           1
           1
           1
           1
           1
           1
           1
           1
           1
           1
           1
           1
           1
           1
           1
           1
           1
           1
           1
           1
           1
           1
           1
           1
           1
           1
           1
           1
           1
           1
           1
           1
           1
           1
           1
           1
           1
           1
           1
           1
           1
           1
           1
           1
           1
           1
           1
           1
           1
           1
           1
           1
           1
           1
           1
           1
           1
           1
           1
           1
           1
           1
           1
           1
           1
           1
           1
           1
           1
           1
           1
           1
           1
           1
           1
           1
           1
           1
           1
           1
           1
           1
           1
           1
           1
           1
           1
           1
           1
           1
           1
           1
           1
           1
           1
           1
           1
           1
           1
           1
           1
           1
           1
           1
           1
           1
           1
           1
           1
           1
           1
           1
           1
           1
           1
           1
           1
           1
           1
           1
           1
           1
           1
           1
           1
           1
           1
           1
           1
           1
           1
           1
           1
           1
           1
           1
           1
           1
           1
           1
           1
           1
           1
           1
           1
           1
           1
           1
           1
           1
           1
           1
           1
           1
           1
           1
           1
           1
           1
           1
           1
           1
           1
           1
           1
           1
           1
           1
           1
           1
           1
           1
           1
           1
           1
           1
           1
           1
           1
           1
           1
           1
           1
           1
           1
           1
           1
           1
           1
           1
           1
           1
           1
           1
           1
           1
           1
           1
           1
           1
           1
           1
           1
           1
           1
           1
           1
           1
           1
           1
           1
           1
           1
           1
           1
           1
           1
           1
           1
           1
           1
           1
           1
           1
           1
           1
           1
           1
           1
           1
           1
           1
           1
           1
           1
           1
           1
           1
           1
           1
           1
           1
           1
           1
           1
           1
           1
           1
           1
           1
           1
           1
           1
           1
           1
           1
           1
           1
           1
           1
           1
           1
           1
           1
           1
           1
           1
           1
           1
           1
           1
           1
           1
           1
           1
           1
           1
           1
           1
           1
           1
           1
           1
           1
           1
           1
           1
           1
           1
           1
           1
           1
           1
           1
           1
           1
           1
           1
           1
           1
           1
           1
           1
           1
           1
           1
           1
           1
           1
           1
           1
           1
           1
           1
           1
           1
           1
           1
           1
           1
           1
           1
           1
           1
           1
           1
           1
           1
           1
           1
           1
           1
           1
           1
           1
           1
           1
           1
           1
           1
           1
           1
           1
           1
           1
           1
           1
           1
           1
           1
           1
           1
           1
           1
           1
           1
           1
           1
           1
           1
           1
           1
           1
           1
           1
           1
           1
           1
           1
           1
           1
           1
           1
           1
           1
           1
           1
           1
           1
           1
           1
           1
           1
           1
           1
           1
           1
           1
           1
           1
           1
           1
           1
           1
           1
           1
           1
           1
           1
           1
           1
           1
           1
           1
           1
           1
           1
           1
           1
           1
           1
           1
           1
           1
           1
           1
           1
           1
           1
           1
           1
           1
           1
           1
           1
           1
           1
           1
           1
           1
           1
           1
           1
           1
           1
           1
           1
           1
           1
           1
           1
           1
           1
           1
           1
           1
           1
           1
           1
           1
           1
           1
           1
           1
           1
           1
           1
           1
           1
           1
           1
           1
           1
           1
           1
           1
           1
           1
           1
           1
           1
           1
           1
           1
           1
           1
           1
           1
           1
           1
           1
           1
           1
           1
           1
           1
           1
           1
           1
           1
           1
           1
           1
           1
           1
           1
           1
           1
           1
           1
           1
           1
           1
           1
           1
           1
           1
           1
           1
           1
           1
           1
           1
           1
           1
           1
           1
           1
           1
           1
           1
           1
           1
           1
           1
           1
           1
           1
           1
           1
           1
           1
           1
           1
           1
           1
           1
           1
           1
           1
           1
           1
           1
           1
           1
           1
           1
           1
           1
           1
           1
           1
           1
           1
           1
           1
           1
           1
           1
           1
           1
           1
           1
           1
           1
           1
           1
           1
           1
           1
           1
           1
           1
           1
           1
           1
           1
           1
           1
           1
           1
           1
           1
           1
           1
           1
           1
           1
           1
           1
           1
           1
           1
           1
           1
           1
           1
           1
           1
           1
           1
           1
           1
           1
           1
           1
           1
           1
           1
           1
           1
           1
           1
           1
           1
           1
           1
           1
           1
           1
           1
           1
           1
           1
           1
           1
           1
           1
           1
           1
           1
           1
           1
           1
           1
           1
           1
           1
           1
           1
           1
           1
           1
           1
           1
           1
           1
           1
           1
           1
           1
           1
           1
           1
           1
           1
           1
           1
           1
           1
           1
           1
           1
           1
           1
           1
           1
           1
           1
           1
           1
           1
           1
           1
           1
           1
           1
           1
           1
           1
           1
           1
           1
           1
           1
           1
           1
           1
           1
           1
           1
           1
           1
           1
           1
           1
           1
           1
           1
           1
           1
           1
           1
           1
           1
           1
           1
           1
           1
           1
           1
           1
           1
           1
           1
           1
           1
           1
           1
           1
           1
           1
           1
           1
           1
           1
           1
           1
           1
           1
           1
           1
           1
           1
           1
           1
           1
           1
           1
           1
           1
           1
           1
           1
           1
           1
           1
           1
           1
           1
           1
           1
           1
           1
           1
           1
           1
           1
           1
           1
           1
           1
           1
           1
           1
           1
           1
           1
           1
           1
           1
           1
           1
           1
           1
           1
           1
           1
           1
           1
           1
           1
           1
           1
           1
           1
           1
           1
           1
           1
           1
           1
           1
           1
           1
           1
           1
           1
           1
           1
           1
           1
           1
           1
           1
           1
           1
           1
           1
           1
           1
           1
           1
           1
           1
           1
           1
           1
           1
           1
           1
           1
           1
           1
           1
           1
           1
           1
           1
           1
           1
           1
           1
           1
           1
           1
           1
           1
           1
           1
           1
           1
           1
           1
           1
           1
           1
           1
           1
           1
           1
           1
           1
           1
           1
           1
           1
           1
           1
           1
           1
           1
           1
           1
           1
           1
           1
           1
           1
           1
           1
           1
           1
           1
           1
           1
           1
           1
           1
           1
           1
           1
           1
           1
           1
           1
           1
           1
           1
           1
           1
           1
           1
           1
           1
           1
           1
           1
           1
           1
           1
           1
           1
           1
           1
           1
           1
           1
           1
           1
           1
           1
           1
           1
           1
           1
           1
           1
           1
           1
           1
           1
           1
           1
           1
           1
           1
           1
           1
           1
           1
           1
           1
           1
           1
           1
           1
           1
           1
           1
           1
           1
           1
           1
           1
           1
           1
           1
           1
           1
           1
           1
           1
           1
           1
           1
           1
           1
           1
           1
           1
           1
           1
           1
           1
           1
           1
           1
           1
           1
           1
           1
           1
           1
           1
           1
           1
           1
           1
           1
           1
           1
           1
           1
           1
           1
           1
           1
           1
           1
           1
           1
           1
           1
           1
           1
           1
           1
           1
           1
           1
           1
           1
           1
           1
           1
           1
           1
           1
           1
           1
           1
           1
           1
           1
           1
           1
           1
           1
           1
           1
           1
           1
           1
           1
           1
           1
           1
           1
           1
           1
           1
           1
           1
           1
           1
           1
           1
           1
           1
           1
           1
           1
           1
           1
           1
           1
           1
           1
           1
           1
           1
           1
           1
           1
           1
           1
           1
           1
           1
           1
           1
           1
           1
           1
           1
           1
           1
           1
           1
           1
           1
           1
           1
           1
           1
           1
           1
           1
           1
           1
           1
           1
           1
           1
           1
           1
           1
           1
           1
           1
           1
           1
           1
           1
           1
           1
           1
           1
           1
           1
           1
           1
           1
           1
           1
           1
           1
           1
           1
           1
           1
           1
           1
           1
           1
           1
           1
           1
           1
           1
           1
           1
           1
           1
           1
           1
           1
           1
           1
           1
           1
           1
           1
           1
           1
           1
           1
           1
           1
           1
           1
           1
           1
           1
           1
           1
           1
           1
           1
           1
           1
           1
           1
           1
           1
           1
           1
           1
           1
           1
           1
           1
           1
           1
           1
           1
           1
           1
           1
           1
           1
           1
           1
           1
           1
           1
           1
           1
           1
           1
           1
           1
           1
           1
           1
           1
           1
           1
           1
           1
           1
           1
           1
           1
           1
           1
           1
           1
           1
           1
           1
           1
           1
           1
           1
           1
           1
           1
           1
           1
           1
           1
           1
           1
           1
           1
           1
           1
           1
           1
           1
           1
           1
           1
           1
           1
           1
           1
           1
           1
           1
           1
           1
           1
           1
           1
           1
           1
           1
           1
           1
           1
           1
           1
           1
           1
           1
           1
           1
           1
           1
           1
           1
           1
           1
           1
           1
           1
           1
           1
           1
           1
           1
           1
           1
           1
           1
           1
           1
           1
           1
           1
           1
           1
           1
           1
           1
           1
           1
           1
           1
           1
           1
           1
           1
           1
           1
           1
           1
           1
           1
           1
           1
           1
           1
           1
           1
           1
           1
           1
           1
           1
           1
           1
           1
           1
           1
           1
           1
           1
           1
           1
           1
           1
           1
           1
           1
           1
           1
           1
           1
           1
           1
           1
           1
           1
           1
           1
           1
           1
           1
           1
           1
           1
           1
           1
           1
           1
           1
           1
           1
           1
           1
           1
           1
           1
           1
           1
           1
           1
           1
           1
           1
           1
           1
           1
           1
           1
           1
           1
           1
           1
           1
           1
           1
           1
           1
           1
           1
           1
           1
           1
           1
           1
           1
           1
           1
           1
           1
           1
           1
           1
           1
           1
           1
           1
           1
           1
           1
           1
           1
           1
           1
           1
           1
           1
           1
           1
           1
           1
           1
           1
           1
           1
           1
           1
           1
           1
           1
           1
           1
           1
           1
           1
           1
           1
           1
           1
           1
           1
           1
           1
           1
           1
           1
           1
           1
           1
           1
           1
           1
           1
           1
           1
           1
           1
           1
           1
           1
           1
           1
           1
           1
           1
           1
           1
           1
           1
           1
           1
           1
           1
           1
           1
           1
           1
           1
           1
           1
           1
           1
           1
           1
           1
           1
           1
           1
           1
           1
           1
           1
           1
           1
           1
           1
           1
           1
           1
           1
           1
           1
           1
           1
           1
           1
           1
           1
           1
           1
           1
           1
           1
           1
           1
           1
           1
           1
           1
           1
           1
           1
           1
           1
           1
           1
           1
           1
           1
           1
           1
           1
           1
           1
           1
           1
           1
           1
           1
           1
           1
           1
           1
           1
           1
           1
           1
           1
           1
           1
           1
           1
           1
           1
           1
           1
           1
           1
           1
           1
           1
           1
           1
           1
           1
           1
           1
           1
           1
           1
           1
           1
           1
           1
           1
           1
           1
           1
           1
           1
           1
           1
           1
           1
           1
           1
           1
           1
           1
           1
           1
           1
           1
           1
           1
           1
           1
           1
           1
           1
           1
           1
           1
           1
           1
           1
           1
           1
           1
           1
           1
           1
           1
           1
           1
           1
           1
           1
           1
           1
           1
           1
           1
           1
           1
           1
           1
           1
           1
           1
           1
           1
           1
           1
           1
           1
           1
           1
           1
           1
           1
           1
           1
           1
           1
           1
           1
           1
           1
           1
           1
           1
           1
           1
           1
           1
           1
           1
           1
           1
           1
           1
           1
           1
           1
           1
           1
           1
           1
           1
           1
           1
           1
           1
           1
           1
           1
           1
           1
           1
           1
           1
           1
           1
           1
           1
           1
           1
           1
           1
           1
           1
           1
           1
           1
           1
           1
           1
           1
           1
           1
           1
           1
           1
           1
           1
           1
           1
           1
           1
           1
           1
           1
           1
           1
           1
           1
           1
           1
           1
           1
           1
           1
           1
           1
           1
           1
           1
           1
           1
           1
           1
           1
           1
           1
           1
           1
           1
           1
           1
           1
           1
           1
           1
           1
           1
           1
           1
           1
           1
           1
           1
           1
           1
           1
           1
           1
           1
           1
           1
           1
           1
           1
           1
           1
           1
           1
           1
           1
           1
           1
           1
           1
           1
           1
           1
           1
           1
           1
           1
           1
           1
           1
           1
           1
           1
           1
           1
           1
           1
           1
           1
           1
           1
           1
           1
           1
           1
           1
           1
           1
           1
           1
           1
           1
           1
           1
           1
           1
           1
           1
           1
           1
           1
           1
           1
           1
           1
           1
           1
           1
           1
           1
           1
           1
           1
           1
           1
           1
           1
           1
           1
           1
           1
           1
           1
           1
           1
           1
           1
           1
           1
           1
           1
           1
           1
           1
           1
           1
           1
           1
           1
           1
           1
           1
           1
           1
           1
           1
           1
           1
           1
           1
           1
           1
           1
           1
           1
           1
           1
           1
           1
           1
           1
           1
           1
           1
           1
           1
           1
           1
           1
           1
           1
           1
           1
           1
           1
           1
           1
           1
           1
           1
           1
           1
           1
           1
           1
           1
           1
           1
           1
           1
           1
           1
           1
           1
           1
           1
           1
           1
           1
           1
           1
           1
           1
           1
           1
           1
           1
           1
           1
           1
           1
           1
           1
           1
           1
           1
           1
           1
           1
           1
           1
           1
           1
           1
           1
           1
           1
           1
           1
           1
           1
           1
           1
           1
           1
           1
           1
           1
           1
           1
           1
           1
           1
           1
           1
           1
           1
           1
           1
           1
           1
           1
           1
           1
           1
           1
           1
           1
           1
           1
           1
           1
           1
           1
           1
           1
           1
           1
           1
           1
           1
           1
           1
           1
           1
           1
           1
           1
           1
           1
           1
           1
           1
           1
           1
           1
           1
           1
           1
           1
           1
           1
           1
           1
           1
           1
           1
           1
           1
           1
           1
           1
           1
           1
           1
           1
           1
           1
           1
           1
           1
           1
           1
           1
           1
           1
           1
           1
           1
           1
           1
           1
           1
           1
           1
           1
           1
           1
           1
           1
           1
           1
           1
           1
           1
           1
           1
           1
           1
           1
           1
           1
           1
           1
           1
           1
           1
           1
           1
           1
           1
           1
           1
           1
           1
           1
           1
           1
           1
           1
           1
           1
           1
           1
           1
           1
           1
           1
           1
           1
           1
           1
           1
           1
           1
           1
           1
           1
           1
           1
           1
           1
           1
           1
           1
           1
           1
           1
           1
           1
           1
           1
           1
           1
           1
           1
           1
           1
           1
           1
           1
           1
           1
           1
           1
           1
           1
           1
           1
           1
           1
           1
           1
           1
           1
           1
           1
           1
           1
           1
           1
           1
           1
           1
           1
           1
           1
           1
           1
           1
           1
           1
           1
           1
           1
           1
           1
           1
           1
           1
           1
           1
           1
           1
           1
           1
           1
           1
           1
           1
           1
           1
           1
           1
           1
           1
           1
           1
           1
           1
           1
           1
           1
           1
           1
           1
           1
           1
           1
           1
           1
           1
           1
           1
           1
           1
           1
           1
           1
           1
           1
           1
           1
           1
           1
           1
           1
           1
           1
           1
           1
           1
           1
           1
           1
           1
           1
           1
           1
           1
           1
           1
           1
           1
           1
           1
           1
           1
           1
           1
           1
           1
           1
           1
           1
           1
           1
           1
           1
           1
           1
           1
           1
           1
           1
           1
           1
           1
           1
           1
           1
           1
           1
           1
           1
           1
           1
           1
           1
           1
           1
           1
           1
           1
           1
           1
           1
           1
           1
           1
           1
           1
           1
           1
           1
           1
           1
           1
           1
           1
           1
           1
           1
           1
           1
           1
           1
           1
           1
           1
           1
           1
           1
           1
           1
           1
           1
           1
           1
           1
           1
           1
           1
           1
           1
           1
           1
           1
           1
           1
           1
           1
           1
           1
           1
           1
           1
           1
           1
           1
           1
           1
           1
           1
           1
           1
           1
           1
           1
           1
           1
           1
           1
           1
           1
           1
           1
           1
           1
           1
           1
           1
           1
           1
           1
           1
           1
           1
           1
           1
           1
           1
           1
           1
           1
           1
           1
           1
           1
           1
           1
           1
           1
           1
           1
           1
           1
           1
           1
           1
           1
           1
           1
           1
           1
           1
           1
           1
           1
           1
           1
           1
           1
           1
           1
           1
           1
           1
           1
           1
           1
           1
           1
           1
           1
           1
           1
           1
           1
           1
           1
           1
           1
           1
           1
           1
           1
           1
           1
           1
           1
           1
           1
           1
           1
           1
           1
           1
           1
           1
           1
           1
           1
           1
           1
           1
           1
           1
           1
           1
           1
           1
           1
           1
           1
           1
           1
           1
           1
           1
           1
           1
           1
           1
           1
           1
           1
           1
           1
           1
           1
           1
           1
           1
           1
           1
           1
           1
           1
           1
           1
           1
           1
           1
           1
           1
           1
           1
           1
           1
           1
           1
           1
           1
           1
           1
           1
           1
           1
           1
           1
           1
           1
           1
           1
           1
           1
           1
           1
           1
           1
           1
           1
           1
           1
           1
           1
           1
           1
           1
           1
           1
           1
           1
           1
           1
           1
           1
           1
           1
           1
           1
           1
           1
           1
           1
           1
           1
           1
           1
           1
           1
           1
           1
           1
           1
           1
           1
           1
           1
           1
           1
           1
           1
           1
           1
           1
           1
           1
           1
           1
           1
           1
           1
           1
           1
           1
           1
           1
           1
           1
           1
           1
           1
           1
           1
           1
           1
           1
           1
           1
           1
           1
           1
           1
           1
           1
           1
           1
           1
           1
           1
           1
           1
           1
           1
           1
           1
           1
           1
           1
           1
           1
           1
           1
           1
           1
           1
           1
           1
           1
           1
           1
           1
           1
           1
           1
           1
           1
           1
           1
           1
           1
           1
           1
           1
           1
           1
           1
           1
           1
           1
           1
           1
           1
           1
           1
           1
           1
           1
           1
           1
           1
           1
           1
           1
           1
           1
           1
           1
           1
           1
           1
           1
           1
           1
           1
           1
           1
           1
           1
           1
           1
           1
           1
           1
           1
           1
           1
           1
           1
           1
           1
           1
           1
           1
           1
           1
           1
           1
           1
           1
           1
           1
           1
           1
           1
           1
           1
           1
           1
           1
           1
           1
           1
           1
           1
           1
           1
           1
           1
           1
           1
           1
           1
           1
           1
           1
           1
           1
           1
           1
           1
           1
           1
           1
           1
           1
           1
           1
           1
           1
           1
           1
           1
           1
           1
           1
           1
           1
           1
           1
           1
           1
           1
           1
           1
           1
           1
           1
           1
           1
           1
           1
           1
           1
           1
           1
           1
           1
           1
           1
           1
           1
           1
           1
           1
           1
           1
           1
           1
           1
           1
           1
           1
           1
           1
           1
           1
           1
           1
           1
           1
           1
           1
           1
           1
           1
           1
           1
           1
           1
           1
           1
           1
           1
           1
           1
           1
           1
           1
           1
           1
           1
           1
           1
           1
           1
           1
           1
           1
           1
           1
           1
           1
           1
           1
           1
           1
           1
           1
           1
           1
           1
           1
           1
           1
           1
           1
           1
           1
           1
           1
           1
           1
           1
           1
           1
           1
           1
           1
           1
           1
           1
           1
           1
           1
           1
           1
           1
           1
           1
           1
           1
           1
           1
           1
           1
           1
           1
           1
           1
           1
           1
           1
           1
           1
           1
           1
           1
           1
           1
           1
           1
           1
           1
           1
           1
           1
           1
           1
           1
           1
           1
           1
           1
           1
           1
           1
           1
           1
           1
           1
           1
           1
           1
           1
           1
           1
           1
           1
           1
           1
           1
           1
           1
           1
           1
           1
           1
           1
           1
           1
           1
           1
           1
           1
           1
           1
           1
           1
           1
           1
           1
           1
           1
           1
           1
           1
           1
           1
           1
           1
           1
           1
           1
           1
           1
           1
           1
           1
           1
           1
           1
           1
           1
           1
           1
           1
           1
           1
           1
           1
           1
           1
           1
           1
           1
           1
           1
           1
           1
           1
           1
           1
           1
           1
           1
           1
           1
           1
           1
           1
           1
           1
           1
           1
           1
           1
           1
           1
           1
           1
           1
           1
           1
           1
           1
           1
           1
           1
           1
           1
           1
           1
           1
           1
           1
           1
           1
           1
           1
           1
           1
           1
           1
           1
           1
           1
           1
           1
           1
           1
           1
           1
           1
           1
           1
           1
           1
           1
           1
           1
           1
           1
           1
           1
           1
           1
           1
           1
           1
           1
           1
           1
           1
           1
           1
           1
           1
           1
           1
           1
           1
           1
           1
           1
           1
           1
           1
           1
           1
           1
           1
           1
           1
           1
           1
           1
           1
           1
           1
           1
           1
           1
           1
           1
           1
           1
           1
           1
           1
           1
           1
           1
           1
           1
           1
           1
           1
           1
           1
           1
           1
           1
           1
           1
           1
           1
           1
           1
           1
           1
           1
           1
           1
           1
           1
           1
           1
           1
           1
           1
           1
           1
           1
           1
           1
           1
           1
           1
           1
           1
           1
           1
           1
           1
           1
           1
           1
           1
           1
           1
           1
           1
           1
           1
           1
           1
           1
           1
           1
           1
           1
           1
           1
           1
           1
           1
           1
           1
           1
           1
           1
           1
           1
           1
           1
           1
           1
           1
           1
           1
           1
           1
           1
           1
           1
           1
           1
           1
           1
           1
           1
           1
           1
           1
           1
           1
           1
           1
           1
           1
           1
           1
           1
           1
           1
           1
           1
           1
           1
           1
           1
           1
           1
           1
           1
           1
           1
           1
           1
           1
           1
           1
           1
           1
           1
           1
           1
           1
           1
           1
           1
           1
           1
           1
           1
           1
           1
           1
           1
           1
           1
           1
           1
           1
           1
           1
           1
           1
           1
           1
           1
           1
           1
           1
           1
           2
           2
           2
           2
           2
           2
           2
           2
           2
           2
           2
           2
           2
           2
           2
           2
           2
           2
           2
           2
           2
           2
           2
           2
           2
           2
           2
           2
           2
           2
           2
           2
           2
           2
           2
           2
           2
           2
           2
           2
           2
           2
           2
           2
           2
           2
           2
           2
           2
           2
           2
           2
           2
           2
           2
           2
           2
           2
           2
           2
           2
           2
           2
           2
           2
           2
           2
           2
           2
           2
           2
           2
           2
           2
           2
           2
           2
           2
           2
           2
           2
           2
           2
           2
           2
           2
           2
           2
           2
           2
           2
           2
           2
           2
           2
           2
           2
           2
           2
           2
           2
           2
           2
           2
           2
           2
           2
           2
           2
           2
           2
           2
           2
           2
           2
           2
           2
           2
           2
           2
           2
           2
           2
           2
           2
           2
           2
           2
           2
           2
           2
           2
           2
           2
           2
           2
           2
           2
           2
           2
           2
           2
           2
           2
           2
           2
           2
           2
           2
           2
           2
           2
           2
           2
           2
           2
           2
           2
           2
           2
           2
           2
           2
           2
           2
           2
           2
           2
           2
           2
           2
           2
           2
           2
           2
           2
           2
           2
           2
           2
           2
           2
           2
           2
           2
           2
           2
           2
           2
           2
           2
           2
           2
           2
           2
           2
           2
           2
           2
           2
           2
           2
           2
           2
           2
           2
           2
           2
           2
           2
           2
           2
           2
           2
           2
           2
           2
           2
           2
           2
           2
           2
           2
           2
           2
           2
           2
           2
           2
           2
           2
           2
           2
           2
           2
           2
           2
           2
           2
           2
           2
           2
           2
           2
           2
           2
           2
           2
           2
           2
           2
           2
           2
           2
           2
           2
           2
           2
           2
           2
           2
           2
           2
           2
           2
           2
           2
           2
           2
           2
           2
           2
           2
           2
           2
           2
           2
           2
           2
           2
           2
           2
           2
           2
           2
           2
           2
           2
           2
           2
           2
           2
           2
           2
           2
           2
           2
           2
           2
           2
           2
           2
           2
           2
           2
           2
           2
           2
           2
           2
           2
           2
           2
           2
           2
           2
           2
           2
           2
           2
           2
           2
           2
           2
           2
           2
           2
           2
           2
           2
           2
           2
           2
           2
           2
           2
           2
           2
           2
           2
           2
           2
           2
           2
           2
           2
           2
           2
           2
           2
           2
           2
           2
           2
           2
           2
           2
           2
           2
           2
           2
           2
           2
           2
           2
           2
           2
           2
           2
           2
           2
           2
           2
           2
           2
           2
           2
           2
           2
           2
           2
           2
           2
           2
           2
           2
           2
           2
           2
           2
           2
           2
           2
           2
           2
           2
           2
           2
           2
           2
           2
           2
           2
           2
           2
           2
           2
           2
           2
           2
           2
           2
           2
           2
           2
           2
           2
           2
           2
           2
           2
           2
           2
           2
           2
           2
           2
           2
           2
           2
           2
           2
           2
           2
           2
           2
           2
           2
           2
           2
           2
           2
           2
           2
           2
           2
           2
           2
           2
           2
           2
           2
           2
           2
           2
           2
           2
           2
           2
           2
           2
           2
           2
           2
           2
           2
           2
           2
           2
           2
           2
           2
           2
           2
           2
           2
           2
           2
           2
           2
           2
           2
           2
           2
           2
           2
           2
           2
           2
           2
           2
           2
           2
           2
           2
           2
           2
           2
           2
           2
           2
           2
           2
           2
           2
           2
           2
           2
           2
           2
           2
           2
           2
           2
           2
           2
           2
           2
           2
           2
           2
           2
           2
           2
           2
           2
           2
           2
           2
           2
           2
           2
           2
           2
           2
           2
           2
           2
           2
           2
           2
           2
           2
           2
           2
           2
           2
           2
           2
           2
           2
           2
           2
           2
           2
           2
           2
           2
           2
           2
           2
           2
           2
           2
           2
           2
           2
           2
           2
           2
           2
           2
           2
           2
           2
           2
           2
           2
           2
           2
           2
           2
           2
           2
           2
           2
           2
           2
           2
           2
           2
           2
           2
           2
           2
           2
           2
           2
           2
           2
           2
           2
           2
           2
           2
           2
           2
           2
           2
           2
           2
           2
           2
           2
           2
           2
           2
           2
           2
           2
           2
           2
           2
           2
           2
           2
           2
           2
           2
           2
           2
           2
           2
           2
           2
           2
           2
           2
           2
           2
           2
           2
           2
           2
           2
           2
           2
           2
           2
           2
           2
           2
           2
           2
           2
           2
           2
           2
           2
           2
           2
           2
           2
           2
           2
           2
           2
           2
           2
           2
           2
           2
           2
           2
           2
           2
           2
           2
           2
           2
           2
           2
           2
           2
           2
           2
           2
           2
           2
           2
           2
           2
           2
           2
           2
           2
           2
           2
           2
           2
           2
           2
           2
           2
           2
           2
           2
           2
           2
           2
           2
           2
           2
           2
           2
           2
           2
           2
           2
           2
           2
           2
           2
           2
           2
           2
           2
           2
           2
           2
           2
           2
           2
           2
           2
           2
           2
           2
           2
           2
           2
           2
           2
           2
           2
           2
           2
           2
           2
           2
           2
           2
           2
           2
           2
           2
           2
           2
           2
           2
           2
           2
           2
           2
           2
           2
           2
           2
           2
           2
           2
           2
           2
           2
           2
           2
           2
           2
           2
           2
           2
           2
           2
           2
           2
           2
           2
           2
           2
           2
           2
           2
           2
           2
           2
           2
           2
           2
           2
           2
           2
           2
           2
           2
           2
           2
           2
           2
           2
           2
           2
           2
           2
           2
           2
           2
           2
           2
           2
           2
           2
           2
           2
           2
           2
           2
           2
           2
           2
           2
           2
           2
           2
           2
           2
           2
           2
           2
           2
           2
           2
           2
           2
           2
           2
           2
           2
           2
           2
           2
           2
           2
           2
           2
           2
           2
           2
           2
           2
           2
           2
           2
           2
           2
           2
           2
           2
           2
           2
           2
           2
           2
           2
           2
           2
           2
           2
           2
           2
           2
           2
           2
           2
           2
           2
           2
           2
           2
           2
           2
           2
           2
           2
           2
           2
           2
           2
           2
           2
           2
           2
           2
           2
           2
           2
           2
           2
           2
           2
           2
           2
           2
           2
           2
           2
           2
           2
           2
           2
           2
           2
           2
           2
           2
           2
           2
           2
           2
           2
           2
           2
           2
           2
           2
           2
           2
           2
           2
           2
           2
           2
           2
           2
           2
           2
           2
           2
           2
           2
           2
           2
           2
           2
           2
           2
           2
           2
           2
           2
           2
           2
           2
           2
           2
           2
           2
           2
           2
           2
           2
           2
           2
           2
           2
           2
           2
           2
           2
           2
           2
           2
           2
           2
           2
           2
           2
           2
           2
           2
           2
           2
           2
           2
           2
           2
           2
           2
           2
           2
           2
           2
           2
           2
           2
           2
           2
           2
           2
           2
           2
           2
           2
           2
           2
           2
           2
           2
           2
           2
           2
           2
           2
           2
           2
           2
           2
           2
           2
           2
           2
           2
           2
           2
           2
           2
           2
           2
           2
           2
           2
           2
           2
           2
           2
           2
           2
           2
           2
           2
           2
           2
           2
           2
           2
           2
           2
           2
           2
           2
           2
           2
           2
           2
           2
           2
           2
           2
           2
           2
           2
           2
           2
           2
           2
           2
           2
           2
           2
           2
           2
           2
           2
           2
           2
           2
           2
           2
           2
           2
           2
           2
           2
           2
           2
           2
           2
           2
           2
           2
           2
           2
           2
           2
           2
           2
           2
           2
           2
           2
           2
           2
           2
           2
           2
           2
           2
           2
           2
           2
           2
           2
           2
           2
           2
           2
           2
           2
           2
           2
           2
           2
           2
           2
           2
           2
           2
           2
           2
           2
           2
           2
           2
           2
           2
           2
           2
           2
           2
           2
           2
           2
           2
           2
           2
           2
           2
           2
           2
           2
           2
           2
           2
           2
           2
           2
           2
           2
           2
           2
           2
           2
           2
           2
           2
           2
           2
           2
           2
           2
           2
           2
           2
           2
           2
           2
           2
           2
           2
           2
           2
           2
           2
           2
           2
           2
           2
           2
           2
           2
           2
           2
           2
           2
           2
           2
           2
           2
           2
           2
           2
           2
           2
           2
           2
           2
           2
           2
           2
           2
           2
           2
           2
           2
           2
           2
           2
           2
           2
           2
           2
           2
           2
           2
           2
           2
           2
           2
           2
           2
           2
           2
           2
           2
           2
           2
           2
           2
           2
           2
           2
           2
           2
           2
           2
           2
           2
           2
           2
           2
           2
           2
           2
           2
           2
           2
           2
           2
           2
           2
           2
           2
           2
           2
           2
           2
           2
           2
           2
           2
           2
           2
           2
           2
           2
           2
           2
           2
           2
           2
           2
           2
           2
           2
           2
           2
           2
           2
           2
           2
           2
           2
           2
           2
           2
           2
           2
           2
           2
           2
           2
           2
           2
           2
           2
           2
           2
           2
           2
           2
           2
           2
           2
           2
           2
           2
           2
           2
           2
           2
           2
           2
           2
           2
           2
           2
           2
           2
           2
           2
           2
           2
           2
           2
           2
           2
           2
           2
           2
           2
           2
           2
           2
           2
           2
           2
           2
           2
           2
           2
           2
           2
           2
           2
           2
           2
           2
           2
           2
           2
           2
           2
           2
           2
           2
           2
           2
           2
           2
           2
           2
           2
           2
           2
           2
           2
           2
           2
           2
           2
           2
           2
           2
           2
           2
           2
           2
           2
           2
           2
           2
           2
           2
           2
           2
           2
           2
           2
           2
           2
           2
           2
           2
           2
           2
           2
           2
           2
           2
           2
           2
           2
           2
           2
           2
           2
           2
           2
           2
           2
           2
           2
           2
           2
           2
           2
           2
           2
           2
           2
           2
           2
           2
           2
           2
           2
           2
           2
           2
           2
           2
           2
           2
           2
           2
           2
           2
           2
           2
           2
           2
           2
           2
           2
           2
           2
           2
           2
           2
           2
           2
           2
           2
           2
           2
           2
           2
           2
           2
           2
           2
           2
           2
           2
           2
           2
           2
           2
           2
           2
           2
           2
           2
           2
           2
           2
           2
           2
           2
           2
           2
           2
           2
           2
           2
           2
           2
           2
           2
           2
           2
           2
           2
           2
           2
           2
           2
           2
           2
           2
           2
           2
           2
           2
           2
           2
           2
           2
           2
           2
           2
           2
           2
           2
           2
           2
           2
           2
           2
           2
           2
           2
           2
           2
           2
           2
           2
           2
           2
           2
           2
           2
           2
           2
           2
           2
           2
           2
           2
           2
           2
           2
           2
           2
           2
           2
           2
           2
           2
           2
           2
           2
           2
           2
           2
           2
           2
           2
           2
           2
           2
           2
           2
           2
           2
           2
           2
           2
           2
           2
           2
           2
           2
           2
           2
           2
           2
           2
           2
           2
           2
           2
           2
           2
           2
           2
           2
           2
           2
           2
           2
           2
           2
           2
           2
           2
           2
           2
           2
           2
           2
           2
           2
           2
           2
           2
           2
           2
           2
           2
           2
           2
           2
           2
           2
           2
           2
           2
           2
           2
           2
           2
           2
           2
           2
           2
           2
           2
           2
           2
           2
           2
           2
           2
           2
           2
           2
           2
           2
           2
           2
           2
           2
           2
           2
           2
           2
           2
           2
           2
           2
           2
           2
           2
           2
           2
           2
           2
           2
           2
           2
           2
           2
           2
           2
           2
           2
           2
           2
           2
           2
           2
           2
           2
           2
           2
           2
           2
           2
           2
           2
           2
           2
           2
           2
           2
           2
           2
           2
           2
           2
           2
           2
           2
           2
           2
           2
           2
           2
           2
           2
           2
           2
           2
           2
           2
           2
           2
           2
           2
           2
           2
           2
           2
           2
           2
           2
           2
           2
           2
           2
           2
           2
           2
           2
           2
           2
           2
           2
           2
           2
           2
           2
           2
           2
           2
           2
           2
           2
           2
           2
           2
           2
           2
           2
           2
           2
           2
           2
           2
           2
           2
           2
           2
           2
           2
           2
           2
           2
           2
           2
           2
           2
           2
           2
           2
           2
           2
           2
           2
           2
           2
           2
           2
           2
           2
           2
           2
           2
           2
           2
           2
           2
           2
           2
           2
           2
           2
           2
           2
           2
           2
           2
           2
           2
           2
           2
           2
           2
           2
           2
           2
           2
           2
           2
           2
           2
           2
           2
           2
           2
           2
           2
           2
           2
           2
           2
           2
           2
           2
           2
           2
           2
           2
           2
           2
           2
           2
           2
           2
           2
           2
           2
           2
           2
           2
           2
           2
           2
           2
           2
           2
           2
           2
           2
           2
           2
           2
           2
           2
           2
           2
           2
           2
           2
           2
           2
           2
           2
           2
           2
           2
           2
           2
           2
           2
           2
           2
           2
           2
           2
           2
           2
           2
           2
           2
           2
           2
           2
           2
           2
           2
           2
           2
           2
           2
           2
           2
           2
           2
           2
           2
           2
           2
           2
           2
           2
           2
           2
           2
           2
           2
           2
           2
           2
           2
           2
           2
           2
           2
           2
           2
           2
           2
           2
           2
           2
           2
           2
           2
           2
           2
           2
           2
           2
           2
           2
           2
           2
           2
           2
           2
           2
           2
           2
           2
           2
           2
           2
           2
           2
           2
           2
           2
           2
           2
           2
           2
           2
           2
           2
           2
           2
           2
           2
           2
           2
           2
           2
           2
           2
           2
           2
           2
           2
           2
           2
           2
           2
           2
           2
           2
           2
           2
           2
           2
           2
           2
           2
           2
           2
           2
           2
           2
           2
           2
           2
           2
           2
           2
           2
           2
           2
           2
           2
           2
           2
           2
           2
           2
           2
           2
           2
           2
           2
           2
           2
           2
           2
           2
           2
           2
           2
           2
           2
           2
           2
           2
           2
           2
           2
           2
           2
           2
           2
           2
           2
           2
           2
           2
           2
           2
           2
           2
           2
           2
           2
           2
           2
           2
           2
           2
           2
           2
           2
           2
           2
           2
           2
           2
           2
           2
           2
           2
           2
           2
           2
           2
           2
           2
           2
           2
           2
           2
           2
           2
           2
           2
           2
           2
           2
           2
           2
           2
           2
           2
           2
           2
           2
           2
           2
           2
           2
           2
           2
           2
           2
           2
           2
           2
           2
           2
           2
           2
           2
           2
           2
           2
           2
           2
           2
           2
           2
           2
           2
           2
           2
           2
           2
           2
           2
           2
           2
           2
           2
           2
           2
           2
           2
           2
           2
           2
           2
           2
           2
           2
           2
           2
           2
           2
           2
           2
           2
           2
           2
           2
           2
           2
           2
           2
           2
           2
           2
           2
           2
           2
           2
           2
           2
           2
           2
           2
           2
           2
           2
           2
           2
           2
           2
           2
           2
           2
           2
           2
           2
           2
           2
           2
           2
           2
           2
           2
           2
           2
           2
           2
           2
           2
           2
           2
           2
           2
           2
           2
           2
           2
           2
           2
           2
           2
           2
           2
           2
           2
           2
           2
           2
           2
           2
           2
           2
           2
           2
           2
           2
           2
           2
           2
           2
           2
           2
           2
           2
           2
           2
           2
           2
           2
           2
           2
           2
           2
           2
           2
           2
           2
           2
           2
           2
           2
           2
           2
           2
           2
           2
           2
           2
           2
           2
           2
           2
           2
           2
           2
           2
           2
           2
           2
           2
           2
           2
           2
           2
           2
           2
           2
           2
           2
           2
           2
           2
           2
           2
           2
           2
           2
           2
           2
           2
           2
           2
           2
           2
           2
           2
           2
           2
           2
           2
           2
           2
           2
           2
           2
           2
           2
           2
           2
           2
           2
           2
           2
           2
           2
           2
           2
           2
           2
           2
           2
           2
           2
           2
           2
           2
           2
           2
           2
           2
           2
           2
           2
           2
           2
           2
           2
           2
           2
           2
           2
           2
           2
           2
           2
           2
           2
           2
           2
           2
           2
           2
           2
           2
           2
           2
           2
           2
           2
           2
           2
           2
           2
           2
           2
           2
           2
           2
           2
           2
           2
           2
           2
           2
           2
           2
           2
           2
           2
           2
           2
           2
           2
           2
           2
           2
           2
           2
           2
           2
           2
           2
           2
           2
           2
           2
           2
           2
           2
           2
           2
           2
</DataArray>
</CellData>
</Piece>
</UnstructuredGrid>
</VTKFile>
